Label,S_Mises,S_S11,S_S22,S_S33,S_S12,S_S13,S_S23
1.0,4456.2700000000004,3440.9200000000001,1065.2,3837.1799999999998,-1984.4000000000001,-98.573599999999999,-651.44100000000003
2.0,4515.8599999999997,3505.0900000000001,1092.5999999999999,3884.7199999999998,-2036.96,-81.829499999999996,-590.26800000000003
3.0,4577.1499999999996,3569.9000000000001,1112.04,3922.6700000000001,-2087.5500000000002,-65.927499999999995,-526.30799999999999
4.0,4638.6700000000001,3650.0700000000002,1138.54,3965.2800000000002,-2135.5799999999999,-53.448999999999998,-457.45299999999997
5.0,4699.5200000000004,3729.6799999999998,1157.54,3998.1700000000001,-2180.0599999999999,-45.079999999999998,-384.22399999999999
6.0,4758.6099999999997,3819.5799999999999,1181.05,4033.0300000000002,-2220.1399999999999,-42.725999999999999,-306.19099999999997
7.0,4815.0,3906.4000000000001,1197.1900000000001,4058.77,-2254.7600000000002,-47.4358,-223.489
8.0,4867.6999999999998,3998.3800000000001,1216.02,4086.48,-2282.8000000000002,-60.761499999999998,-136.09100000000001
9.0,4915.79,4083.2800000000002,1227.4400000000001,4107.6599999999999,-2303.0500000000002,-83.477800000000002,-44.335099999999997
10.0,4958.3999999999996,4166.8800000000001,1239.8900000000001,4132.75,-2314.3499999999999,-116.372,51.378799999999998
11.0,4994.8000000000002,4237.3400000000001,1244.3099999999999,4155.04,-2315.5599999999999,-159.33199999999999,150.292
12.0,5024.25,4299.21,1248.3,4184.9300000000003,-2305.5100000000002,-211.93199999999999,251.536
13.0,5046.1099999999997,4340.8000000000002,1243.23,4216.3999999999996,-2283.2399999999998,-272.58499999999998,353.88400000000001
14.0,5060.0799999999999,4365.7600000000002,1235.72,4259.0,-2248.1300000000001,-339.13499999999999,455.62599999999998
15.0,5066.1700000000001,4367.0699999999997,1221.25,4310.8299999999999,-2199.8000000000002,-408.50599999999997,555.47900000000004
16.0,5064.8299999999999,4345.0200000000004,1201.1900000000001,4375.1199999999999,-2138.4699999999998,-476.33100000000002,651.51400000000001
17.0,5055.2299999999996,4299.5299999999997,1176.24,4452.3100000000004,-2064.0999999999999,-538.32299999999998,741.39300000000003
18.0,5039.0799999999999,4230.0600000000004,1144.4300000000001,4541.9200000000001,-1977.8499999999999,-589.13800000000003,823.56799999999998
19.0,5016.1099999999997,4140.0,1109.21,4642.8500000000004,-1881.4000000000001,-624.86300000000006,895.98599999999999
20.0,4990.6300000000001,4031.21,1063.6500000000001,4749.6000000000004,-1776.98,-639.07100000000003,958.09699999999998
21.0,4958.9899999999998,3916.0599999999999,1024.8800000000001,4867.04,-1667.8299999999999,-631.35500000000002,1006.3200000000001
22.0,4929.3299999999999,3780.5500000000002,952.40300000000002,4960.0299999999997,-1551.3599999999999,-594.851,1047.4100000000001
23.0,4914.0500000000002,3611.8000000000002,829.82600000000002,5011.3299999999999,-1445.99,-527.94399999999996,1072.0
24.0,4894.4399999999996,3495.2199999999998,759.226,5097.5299999999997,-1346.0699999999999,-440.22800000000001,1080.3399999999999
25.0,4872.8299999999999,3463.6999999999998,747.83500000000004,5222.6899999999996,-1245.8099999999999,-332.31599999999997,1081.6600000000001
26.0,4856.6300000000001,3470.77,746.16399999999999,5338.1899999999996,-1153.05,-206.27799999999999,1075.77
27.0,3167.3499999999999,1892.0799999999999,676.471,2847.5599999999999,-1366.1700000000001,-337.24200000000002,-424.04000000000002
28.0,3228.7199999999998,1929.8,700.37300000000005,2926.4899999999998,-1413.4300000000001,-286.65100000000001,-389.26600000000002
29.0,3295.1100000000001,1981.51,728.31500000000005,3007.29,-1461.5599999999999,-235.35300000000001,-353.47300000000001
30.0,3361.25,2035.6099999999999,749.83600000000001,3074.0500000000002,-1509.6700000000001,-182.52799999999999,-313.00299999999999
31.0,3428.6399999999999,2107.4499999999998,778.98699999999997,3142.7800000000002,-1557.28,-130.97499999999999,-268.73700000000002
32.0,3494.8800000000001,2179.3000000000002,799.101,3195.1700000000001,-1603.1700000000001,-81.750699999999995,-219.56899999999999
33.0,3559.9000000000001,2268.1199999999999,827.404,3249.6900000000001,-1646.55,-36.724499999999999,-165.52000000000001
34.0,3622.27,2353.8299999999999,845.28099999999995,3287.7199999999998,-1686.24,2.6835,-106.30200000000001
35.0,3681.2199999999998,2452.8400000000001,870.44000000000005,3328.29,-1721.1199999999999,35.0458,-41.995399999999997
36.0,3735.6700000000001,2544.21,884.06799999999998,3353.71,-1749.97,59.366599999999998,27.1873
37.0,3784.6900000000001,2643.8499999999999,904.13800000000003,3383.73,-1771.5699999999999,74.937799999999996,100.789
38.0,3827.5100000000002,2730.04,911.46500000000003,3401.0599999999999,-1784.8299999999999,81.734800000000007,178.05799999999999
39.0,3863.3099999999999,2818.8000000000002,924.51199999999994,3426.29,-1788.6700000000001,80.141999999999996,258.05599999999998
40.0,3891.9499999999998,2888.8800000000001,924.43299999999999,3442.6500000000001,-1782.51,71.435199999999995,339.75999999999999
41.0,3912.4099999999999,2954.6599999999999,927.30899999999997,3467.7399999999998,-1765.49,57.404000000000003,421.363
42.0,3924.77,3000.52,918.93799999999999,3489.73,-1737.2,40.460799999999999,501.56599999999997
43.0,3928.9499999999998,3035.6500000000001,910.42600000000004,3519.4200000000001,-1698.05,22.9026,579.14400000000001
44.0,3926.1799999999998,3047.6100000000001,888.07299999999998,3543.4200000000001,-1648.9300000000001,8.2763500000000008,652.59500000000003
45.0,3914.5700000000002,3054.4699999999998,870.95299999999997,3578.4899999999998,-1589.8900000000001,-1.63747,719.73599999999999
46.0,3898.3499999999999,3039.3699999999999,836.08000000000004,3602.7199999999998,-1522.77,-2.79474,780.495
47.0,3873.3400000000001,3025.8099999999999,813.63300000000004,3638.3000000000002,-1449.6099999999999,3.6967500000000002,831.62699999999995
48.0,3847.5500000000002,2981.6700000000001,749.11400000000003,3636.5799999999999,-1367.6199999999999,22.385200000000001,878.56200000000001
49.0,3829.5999999999999,2914.8400000000001,654.24900000000002,3606.1300000000001,-1292.5,55.056199999999997,911.80999999999995
50.0,3798.5,2907.2199999999998,630.80499999999995,3626.0599999999999,-1218.28,92.662300000000002,933.63400000000001
51.0,3766.1999999999998,2943.98,634.30899999999997,3663.9699999999998,-1136.9000000000001,135.62,954.90700000000004
52.0,3748.4699999999998,2952.3499999999999,585.86000000000001,3647.71,-1062.9300000000001,186.262,970.93700000000001
53.0,2105.6199999999999,809.81899999999996,228.86099999999999,1937.46,-713.01800000000003,-414.471,-207.27199999999999
54.0,2157.52,825.87800000000004,252.77500000000001,2028.55,-751.95699999999999,-351.66199999999998,-202.876
55.0,2214.6300000000001,850.77599999999995,274.45800000000003,2113.4000000000001,-793.14800000000002,-286.50799999999998,-197.51599999999999
56.0,2271.9400000000001,885.96000000000004,297.30099999999999,2190.9200000000001,-835.87800000000004,-217.57499999999999,-187.96000000000001
57.0,2331.1199999999999,933.76700000000005,321.95299999999997,2262.8499999999999,-879.98099999999999,-147.22900000000001,-175.16200000000001
58.0,2390.1599999999999,989.221,343.95400000000001,2322.8899999999999,-924.61699999999996,-76.597200000000001,-157.999
59.0,2448.96,1058.2,368.84899999999999,2377.1900000000001,-969.07399999999996,-7.4869300000000001,-136.31899999999999
60.0,2506.25,1132.0,388.863,2417.5300000000002,-1012.38,58.492899999999999,-109.69
61.0,2561.0999999999999,1218.0599999999999,412.02100000000002,2452.5700000000002,-1053.4300000000001,119.748,-78.026399999999995
62.0,2612.48,1305.02,428.59199999999998,2473.04,-1091.2,174.85900000000001,-41.322099999999999
63.0,2659.3400000000001,1400.48,447.45800000000003,2488.9499999999998,-1124.4200000000001,222.69900000000001,0.093159199999999998
64.0,2700.98,1492.1900000000001,458.51600000000002,2491.4299999999998,-1152.1600000000001,262.50900000000001,45.778700000000001
65.0,2736.48,1587.5699999999999,470.839,2490.9699999999998,-1173.3,294.03500000000003,94.862300000000005
66.0,2765.5100000000002,1673.54,473.47399999999999,2478.8499999999999,-1186.9000000000001,317.54399999999998,146.351
67.0,2787.6999999999998,1760.01,478.57400000000001,2468.48,-1192.5,333.52199999999999,199.57300000000001
68.0,2803.4099999999999,1827.5599999999999,468.52199999999999,2443.0799999999999,-1190.26,343.55000000000001,253.33000000000001
69.0,2811.0999999999999,1898.1400000000001,465.53100000000001,2426.52,-1178.8499999999999,348.62599999999998,305.56099999999998
70.0,2811.4499999999998,1950.4200000000001,449.053,2399.3699999999999,-1158.54,350.42500000000001,355.67200000000003
71.0,2803.8299999999999,1998.4300000000001,435.22000000000003,2376.0900000000001,-1130.0599999999999,349.892,402.68700000000001
72.0,2790.0700000000002,2027.98,407.62700000000001,2340.0999999999999,-1094.52,348.95999999999998,445.92500000000001
73.0,2767.9400000000001,2056.8800000000001,386.95100000000002,2309.3800000000001,-1052.6900000000001,347.63600000000002,483.19299999999998
74.0,2741.1700000000001,2066.6199999999999,345.32499999999999,2256.8200000000002,-1004.24,347.97399999999999,516.029
75.0,2717.1900000000001,2069.4699999999998,295.22800000000001,2193.5999999999999,-957.36099999999999,350.38200000000001,542.10000000000002
76.0,2686.2600000000002,2079.02,262.99000000000001,2137.2199999999998,-911.24599999999998,351.25099999999998,562.04899999999998
77.0,2648.1900000000001,2122.6999999999998,261.88200000000001,2106.3899999999999,-858.10799999999995,349.78899999999999,578.58399999999995
78.0,2618.7399999999998,2135.6900000000001,214.99299999999999,2030.4100000000001,-806.78899999999999,348.178,589.76300000000003
79.0,1491.78,175.04900000000001,-33.563600000000001,1285.72,-253.01499999999999,-414.09800000000001,-58.106200000000001
80.0,1523.54,163.68700000000001,-22.196999999999999,1364.6900000000001,-279.23899999999998,-351.88999999999999,-72.044899999999998
81.0,1560.1300000000001,176.31,3.8910499999999999,1453.52,-309.04399999999998,-285.37400000000002,-85.555700000000002
82.0,1597.79,183.15100000000001,15.670400000000001,1519.5799999999999,-341.74700000000001,-213.57400000000001,-96.246799999999993
83.0,1637.78,217.09100000000001,44.518000000000001,1594.6700000000001,-377.13900000000001,-138.53999999999999,-104.55800000000001
84.0,1678.6500000000001,245.07400000000001,57.354399999999998,1644.04,-414.60199999999998,-61.208300000000001,-109.51300000000001
85.0,1720.2,301.17399999999998,87.622200000000007,1701.0699999999999,-453.56799999999998,16.697399999999998,-110.803
86.0,1761.3299999999999,350.51900000000001,100.80500000000001,1730.47,-493.23500000000001,93.636399999999995,-107.892
87.0,1800.99,426.69299999999998,130.65000000000001,1765.8800000000001,-532.65700000000004,167.863,-100.523
88.0,1838.1700000000001,493.79500000000002,142.286,1772.4200000000001,-570.89099999999996,237.83699999999999,-88.533500000000004
89.0,1871.5799999999999,585.42100000000005,170.21000000000001,1784.8,-606.84199999999998,301.96499999999997,-72.060199999999995
90.0,1900.7,664.02700000000004,178.41999999999999,1767.8299999999999,-639.61400000000003,359.26100000000002,-51.409799999999997
91.0,1924.6900000000001,763.58799999999997,202.351,1758.04,-668.23000000000002,408.49599999999998,-27.1511
92.0,1943.9300000000001,846.12,205.92099999999999,1720.1500000000001,-692.40700000000004,449.89999999999998,0.165911
93.0,1958.6600000000001,944.33399999999995,222.43799999999999,1691.01,-710.96000000000004,482.959,28.9709
94.0,1968.4200000000001,1029.6099999999999,224.048,1644.8499999999999,-723.10199999999998,507.483,58.764699999999998
95.0,1974.3199999999999,1118.6400000000001,231.202,1601.9400000000001,-729.53200000000004,525.04700000000003,89.893299999999996
96.0,1975.5999999999999,1184.54,219.37700000000001,1538.8699999999999,-729.94600000000003,535.87199999999996,121.08499999999999
97.0,1970.23,1260.99,220.97300000000001,1488.74,-723.39700000000005,539.44000000000005,151.16499999999999
98.0,1958.96,1313.6900000000001,202.685,1417.8800000000001,-710.72900000000004,536.84199999999998,179.40899999999999
99.0,1941.3900000000001,1374.1700000000001,197.77600000000001,1358.3,-692.62300000000005,528.74400000000003,204.63900000000001
100.0,1918.6700000000001,1412.01,174.899,1278.3199999999999,-669.99400000000003,515.48199999999997,226.95599999999999
101.0,1893.6600000000001,1452.51,156.982,1202.8699999999999,-644.47500000000002,497.10700000000003,245.80600000000001
102.0,1867.25,1472.3499999999999,123.48099999999999,1110.28,-618.56200000000001,473.84800000000001,260.14499999999998
103.0,1834.54,1513.54,119.666,1042.25,-589.86000000000001,444.483,271.38299999999998
104.0,1807.1700000000001,1533.28,90.0471,949.70899999999995,-560.05200000000002,410.78800000000001,281.303
105.0,1202.3299999999999,-176.22499999999999,-219.06,813.49699999999996,46.119399999999999,-370.39299999999997,35.837499999999999
106.0,1218.0699999999999,-190.25700000000001,-202.578,890.86800000000005,32.046100000000003,-315.11599999999999,11.714600000000001
107.0,1236.6600000000001,-206.14400000000001,-195.006,954.39200000000005,14.0764,-254.44999999999999,-12.315
108.0,1256.5,-203.75200000000001,-176.25299999999999,1021.76,-7.35222,-187.97,-35.064100000000003
109.0,1278.0799999999999,-200.732,-165.37100000000001,1073.4300000000001,-32.171500000000002,-117.084,-56.431100000000001
110.0,1300.8599999999999,-178.90299999999999,-144.69999999999999,1125.79,-60.019599999999997,-42.737000000000002,-75.659300000000002
111.0,1324.6300000000001,-154.91499999999999,-131.619,1160.8699999999999,-90.483000000000004,33.6126,-92.237899999999996
112.0,1348.48,-112.36,-109.83499999999999,1193.8900000000001,-122.905,110.47799999999999,-105.63
113.0,1371.5899999999999,-67.572400000000002,-95.771600000000007,1207.99,-156.53,186.19800000000001,-115.361
114.0,1392.46,-5.5552200000000003,-73.851699999999994,1217.77,-190.46100000000001,259.024,-121.251
115.0,1410.3099999999999,56.201900000000002,-61.021099999999997,1206.45,-223.809,327.42099999999999,-123.093
116.0,1423.51,133.047,-40.630800000000001,1189.8800000000001,-255.68899999999999,389.60700000000003,-121.452
117.0,1433.1800000000001,206.23500000000001,-30.880099999999999,1151.8199999999999,-285.45400000000001,445.13400000000001,-116.29300000000001
118.0,1438.9400000000001,292.11900000000003,-14.1937,1111.8299999999999,-312.66500000000002,491.46199999999999,-109.265
119.0,1442.1900000000001,373.29199999999997,-7.0043100000000003,1053.3099999999999,-336.91800000000001,530.48199999999997,-99.136399999999995
120.0,1449.4000000000001,451.93700000000001,-3.0300400000000001,989.10799999999995,-359.084,563.10299999999995,-87.0715
121.0,1453.6900000000001,532.649,1.6188899999999999,925.28099999999995,-377.44,584.37,-74.622100000000003
122.0,1454.72,619.61099999999999,8.3775300000000001,863.14400000000001,-390.93400000000003,595.96100000000001,-58.968600000000002
123.0,1454.3499999999999,693.22000000000003,3.9084500000000002,788.90700000000004,-400.53199999999998,599.49699999999996,-42.402200000000001
124.0,1448.6300000000001,765.02599999999995,2.8484799999999999,715.63599999999997,-404.94099999999997,594.08199999999999,-26.400700000000001
125.0,1437.1199999999999,822.18100000000004,-7.0726100000000001,631.87300000000005,-404.24000000000001,579.84400000000005,-11.1523
126.0,1420.95,875.798,-14.1616,549.78499999999997,-399.63400000000001,557.30799999999999,2.5849899999999999
127.0,1401.4400000000001,918.76700000000005,-25.305700000000002,462.91800000000001,-391.69799999999998,527.38499999999999,14.398300000000001
128.0,1381.49,957.80799999999999,-34.587600000000002,378.375,-382.21800000000002,490.89400000000001,24.2255
129.0,1359.01,989.029,-43.234900000000003,295.03899999999999,-371.32999999999998,447.0,31.662199999999999
130.0,1339.5699999999999,1012.64,-57.460099999999997,210.864,-359.142,397.10399999999998,38.441499999999998
131.0,1064.49,-287.48399999999998,-289.899,541.46199999999999,210.60400000000001,-310.47399999999999,85.108900000000006
132.0,1074.9400000000001,-326.678,-296.33199999999999,586.40700000000004,207.23400000000001,-264.49099999999999,57.302999999999997
133.0,1086.1800000000001,-336.18299999999999,-277.952,651.55100000000004,200.136,-212.583,29.174199999999999
134.0,1098.0999999999999,-361.40600000000001,-280.91399999999999,689.41099999999994,189.36799999999999,-155.05799999999999,0.92899799999999999
135.0,1110.72,-355.471,-259.44099999999997,744.65099999999995,175.03700000000001,-92.668700000000001,-26.8886
136.0,1124.1600000000001,-363.17700000000002,-259.09199999999998,770.88099999999997,157.18700000000001,-26.3185,-53.729399999999998
137.0,1138.0699999999999,-338.72699999999998,-234.911,811.91399999999999,136.21000000000001,42.8598,-79.002799999999993
138.0,1152.1099999999999,-326.75900000000001,-231.90100000000001,821.92700000000002,112.48099999999999,113.48099999999999,-102.077
139.0,1165.1099999999999,-283.05200000000002,-206.10499999999999,843.45600000000002,86.794300000000007,184.029,-122.515
140.0,1176.2,-252.399,-202.047,831.33399999999995,59.7958,252.77099999999999,-139.749
141.0,1183.26,-191.286,-175.68000000000001,827.59100000000001,32.571199999999997,317.95499999999998,-154.029
142.0,1186.28,-145.71700000000001,-172.214,787.79300000000001,5.6012199999999996,378.05599999999998,-164.822
143.0,1183.78,-72.420100000000005,-147.339,754.64999999999998,-20.5639,431.12599999999998,-173.999
144.0,1180.3299999999999,-16.3123,-145.12,687.90099999999995,-45.622999999999998,478.358,-180.03899999999999
145.0,1178.4100000000001,59.3583,-128.185,630.57100000000003,-71.338200000000001,517.30399999999997,-184.38300000000001
146.0,1180.9200000000001,96.735699999999994,-158.041,528.04999999999995,-98.583200000000005,548.26599999999996,-185.10400000000001
147.0,1186.1500000000001,178.249,-143.07599999999999,469.95699999999999,-126.372,569.62699999999995,-185.77699999999999
148.0,1186.1400000000001,280.83499999999998,-111.01900000000001,425.81299999999999,-147.91,580.20500000000004,-182.56999999999999
149.0,1188.9200000000001,381.83800000000002,-87.064800000000005,376.75900000000001,-166.06800000000001,583.54700000000003,-174.83000000000001
150.0,1187.8800000000001,438.55399999999997,-96.915199999999999,290.745,-182.68600000000001,576.38099999999997,-168.191
151.0,1179.0699999999999,512.803,-83.292699999999996,225.571,-192.82599999999999,558.32000000000005,-160.08099999999999
152.0,1167.77,556.03499999999997,-93.953400000000002,135.75700000000001,-200.666,531.39999999999998,-152.51900000000001
153.0,1153.1900000000001,611.596,-84.889300000000006,66.481300000000005,-205.358,495.76100000000002,-145.39699999999999
154.0,1138.8299999999999,638.13999999999999,-98.753399999999999,-22.429600000000001,-208.55799999999999,453.101,-138.97399999999999
155.0,1123.9100000000001,678.21600000000001,-90.460999999999999,-85.787499999999994,-210.18199999999999,404.06,-133.61799999999999
156.0,1111.53,692.41600000000005,-103.075,-164.679,-211.071,349.709,-128.26300000000001
157.0,955.81899999999996,-311.06700000000001,-328.99000000000001,360.62,276.49400000000003,-251.042,102.717
158.0,967.27200000000005,-332.68400000000003,-320.11900000000003,411.57299999999998,280.77800000000002,-213.935,75.444100000000006
159.0,978.52800000000002,-367.262,-327.22899999999998,442.351,281.83199999999999,-171.066,47.5197
160.0,990.11300000000006,-378.14600000000002,-314.87400000000002,488.00299999999999,279.49799999999999,-123.193,18.465699999999998
161.0,1001.71,-400.464,-318.96199999999999,511.11200000000002,273.75400000000002,-70.545900000000003,-10.943199999999999
162.0,1013.79,-397.322,-303.59100000000001,547.274,264.447,-13.9352,-40.336199999999998
163.0,1025.8800000000001,-403.44,-304.142,559.51300000000003,251.87799999999999,45.749499999999998,-69.062899999999999
164.0,1038.0899999999999,-384.017,-286.50900000000001,581.51999999999998,236.25,107.425,-96.513499999999993
165.0,1048.97,-371.79300000000001,-283.54500000000002,578.125,218.38300000000001,169.50899999999999,-122.161
166.0,1058.24,-336.44099999999997,-265.18900000000002,579.13599999999997,198.78399999999999,230.78700000000001,-145.399
167.0,1062.51,-307.29399999999998,-259.61200000000002,552.27300000000002,178.79300000000001,288.61000000000001,-166.334
168.0,1063.24,-261.19499999999999,-244.46799999999999,521.77700000000004,158.523,342.779,-184.73099999999999
169.0,1056.5,-217.18100000000001,-234.27199999999999,467.72899999999998,139.119,388.803,-202.91999999999999
170.0,1049.78,-180.81200000000001,-241.57900000000001,388.19400000000002,118.05800000000001,432.30599999999998,-214.11000000000001
171.0,1049.55,-185.221,-290.61700000000002,269.46699999999998,90.407700000000006,466.964,-228.83199999999999
172.0,1047.3499999999999,-110.994,-269.995,218.536,62.998399999999997,491.11099999999999,-241.661
173.0,1051.22,-27.075099999999999,-251.297,170.25,33.249400000000001,510.51600000000002,-249.279
174.0,1054.6199999999999,90.545400000000001,-193.73699999999999,156.816,4.75631,521.59799999999996,-252.93199999999999
175.0,1057.6099999999999,175.291,-173.66499999999999,107.33799999999999,-18.679200000000002,525.15800000000002,-249.96299999999999
176.0,1056.28,240.60599999999999,-165.25999999999999,45.084200000000003,-41.5944,517.178,-248.00299999999999
177.0,1047.1400000000001,290.61900000000003,-165.892,-30.961300000000001,-59.084200000000003,497.70400000000001,-243.50700000000001
178.0,1036.1800000000001,343.62700000000001,-157.37100000000001,-96.365399999999994,-74.421400000000006,469.50799999999998,-239.16
179.0,1023.0599999999999,378.70100000000002,-159.96299999999999,-171.274,-86.823400000000007,433.02499999999998,-234.61500000000001
180.0,1010.4400000000001,420.24799999999999,-149.53999999999999,-228.881,-97.873199999999997,390.447,-230.03800000000001
181.0,997.81600000000003,440.88299999999998,-152.96199999999999,-295.04599999999999,-107.532,342.29000000000002,-225.274
182.0,986.42899999999997,468.19299999999998,-143.828,-341.68200000000002,-116.59999999999999,289.95999999999998,-220.01400000000001
183.0,838.96900000000005,-246.12700000000001,-298.10199999999998,290.35199999999998,280.12299999999999,-199.68700000000001,100.735
184.0,852.61599999999999,-284.161,-310.09899999999999,312.34699999999998,289.09699999999998,-170.08199999999999,76.318399999999997
185.0,865.80100000000004,-302.91899999999998,-304.654,348.18200000000002,295.471,-135.21000000000001,50.962000000000003
186.0,879.11400000000003,-331.93200000000002,-312.5,367.09300000000002,298.87700000000001,-96.125200000000007,23.8675
187.0,892.36900000000003,-341.36900000000003,-304.45100000000002,397.024,299.22300000000001,-52.728900000000003,-4.1016500000000002
188.0,905.846,-358.13799999999998,-308.27300000000002,409.78100000000001,296.27999999999997,-5.6726400000000003,-32.767400000000002
189.0,919.48400000000004,-354.875,-297.363,430.97000000000003,290.15499999999997,44.380800000000001,-61.3964
190.0,932.98299999999995,-356.72800000000001,-297.43400000000003,433.62400000000002,281.13900000000001,96.537899999999993,-89.578100000000006
191.0,945.83000000000004,-339.24700000000001,-284.48599999999999,440.66500000000002,269.75099999999998,149.536,-116.419
192.0,956.38499999999999,-326.10899999999998,-282.029,425.57799999999997,256.97699999999998,201.874,-141.96199999999999
193.0,963.42100000000005,-296.358,-269.08699999999999,408.27199999999999,243.815,251.822,-164.89400000000001
194.0,964.45600000000002,-271.17700000000002,-264.89400000000001,364.72699999999998,230.75,296.68299999999999,-187.934
195.0,958.85400000000004,-237.63900000000001,-256.09100000000001,308.20800000000003,218.63900000000001,336.05000000000001,-207.238
196.0,955.16700000000003,-250.89099999999999,-304.08199999999999,193.185,202.73400000000001,371.57299999999998,-224.489
197.0,956.18899999999996,-252.27600000000001,-344.17500000000001,91.350700000000003,178.82300000000001,399.25,-246.34700000000001
198.0,955.98599999999999,-177.11600000000001,-306.88799999999998,62.899000000000001,151.03399999999999,418.98599999999999,-266.60300000000001
199.0,957.23900000000003,-41.808300000000003,-221.95599999999999,84.342100000000002,122.54000000000001,436.47699999999998,-276.06200000000001
200.0,961.702,34.666699999999999,-201.49100000000001,47.114899999999999,90.785399999999996,450.19299999999998,-278.84100000000001
201.0,961.89599999999996,98.033600000000007,-187.79499999999999,0.130132,60.645600000000002,453.09500000000003,-279.89600000000002
202.0,956.38499999999999,150.249,-182.43000000000001,-57.4694,36.612499999999997,444.28399999999999,-279.14499999999998
203.0,946.25900000000001,205.56299999999999,-169.38900000000001,-110.023,15.5852,424.95299999999997,-277.52999999999997
204.0,933.75800000000004,244.30699999999999,-166.458,-172.48699999999999,-2.51085,397.50299999999999,-274.84399999999999
205.0,920.44799999999998,284.14299999999997,-155.62100000000001,-224.643,-19.087199999999999,363.411,-271.67200000000003
206.0,906.61699999999996,308.39400000000001,-154.298,-281.51999999999998,-33.997500000000002,323.71499999999997,-267.69299999999998
207.0,893.51199999999994,336.74700000000001,-143.422,-322.77300000000002,-47.9741,280.024,-262.91399999999999
208.0,880.95600000000002,351.28699999999998,-140.268,-365.16800000000001,-61.2393,233.29499999999999,-257.42000000000002
209.0,716.66300000000001,-186.40299999999999,-267.649,244.41200000000001,249.53800000000001,-159.28100000000001,88.473399999999998
210.0,731.15499999999997,-209.31200000000001,-269.74099999999999,269.87200000000001,260.48099999999999,-135.42400000000001,67.800299999999993
211.0,745.26999999999998,-237.072,-277.78899999999999,286.35599999999999,269.42200000000003,-107.011,46.045000000000002
212.0,759.57600000000002,-253.52099999999999,-276.69999999999999,309.041,275.952,-75.186800000000005,22.3218
213.0,773.95100000000002,-274.61700000000002,-282.964,320.65499999999997,279.80900000000003,-39.641599999999997,-2.5893199999999998
214.0,788.54999999999995,-281.40699999999998,-278.33800000000002,338.798,280.82900000000001,-0.95516599999999996,-28.594799999999999
215.0,803.62699999999995,-292.358,-282.00799999999998,344.06799999999998,278.83999999999997,40.542499999999997,-54.991999999999997
216.0,818.54899999999998,-286.35700000000003,-273.334,354.96300000000002,274.399,83.892600000000002,-81.4786
217.0,833.59199999999998,-285.68299999999999,-275.31200000000001,348.851,267.57100000000003,128.58799999999999,-106.971
218.0,845.90200000000004,-265.34100000000001,-262.27100000000002,345.67500000000001,260.14999999999998,172.077,-131.922
219.0,856.05799999999999,-257.05599999999998,-267.39999999999998,313.96199999999999,252.34299999999999,214.876,-154.071
220.0,858.31799999999998,-225.16200000000001,-249.85599999999999,284.36500000000001,246.00200000000001,249.517,-178.489
221.0,856.14499999999998,-219.875,-267.84100000000001,205.541,241.547,282.27100000000002,-195.989
222.0,857.096,-253.55799999999999,-325.58300000000003,87.920199999999994,229.96899999999999,309.75299999999999,-217.35300000000001
223.0,857.19600000000003,-259.09300000000002,-355.142,-2.6906599999999998,210.666,330.74400000000003,-240.74600000000001
224.0,857.71299999999997,-180.50800000000001,-305.04500000000002,-8.8149499999999996,182.42400000000001,349.18599999999998,-260.56
225.0,856.029,-60.703000000000003,-223.20500000000001,20.860099999999999,152.16200000000001,363.95499999999998,-270.56900000000002
226.0,858.34400000000005,21.9161,-194.94499999999999,7.6639499999999998,121.434,377.48099999999999,-271.35399999999998
227.0,857.80499999999995,52.635399999999997,-207.74600000000001,-51.095399999999998,89.665499999999994,380.05799999999999,-274.97199999999998
228.0,849.53899999999999,108.105,-189.613,-88.283299999999997,66.293099999999995,371.14100000000002,-274.80799999999999
229.0,839.04600000000005,150.75800000000001,-179.12799999999999,-134.95400000000001,45.731099999999998,353.988,-274.22500000000002
230.0,825.60500000000002,191.488,-165.80199999999999,-178.452,27.9406,329.09300000000002,-272.05200000000002
231.0,811.41700000000003,214.44200000000001,-164.22900000000001,-230.05099999999999,10.504899999999999,298.73399999999998,-269.37599999999998
232.0,796.56100000000004,243.636,-151.17500000000001,-265.99700000000001,-5.1558099999999998,263.584,-265.58600000000001
233.0,782.65200000000004,259.12299999999999,-148.041,-305.48000000000002,-20.375299999999999,225.76400000000001,-260.58800000000002
234.0,768.68299999999999,278.25999999999999,-135.73500000000001,-329.55099999999999,-34.849400000000003,185.75299999999999,-254.63900000000001
235.0,601.37300000000005,-112.518,-211.63800000000001,240.05600000000001,205.542,-129.197,72.458100000000002
236.0,615.13,-139.43899999999999,-222.547,251.739,216.55799999999999,-109.535,55.563099999999999
237.0,628.678,-156.804,-224.63399999999999,269.714,226.08799999999999,-86.0595,37.507599999999996
238.0,642.52300000000002,-177.90000000000001,-232.08699999999999,279.92899999999997,233.66999999999999,-59.877600000000001,17.523800000000001
239.0,656.65099999999995,-189.863,-232.38300000000001,294.44200000000001,239.01599999999999,-30.597100000000001,-3.7745899999999999
240.0,671.17999999999995,-202.452,-235.93100000000001,302.32499999999999,241.923,1.29257,-26.310199999999998
241.0,686.47799999999995,-206.51599999999999,-234.16,312.18000000000001,242.16,35.690800000000003,-49.523499999999999
242.0,701.97299999999996,-207.851,-233.404,315.70999999999998,240.27199999999999,71.707499999999996,-73.030199999999994
243.0,717.95000000000005,-202.91900000000001,-230.798,315.983,236.32499999999999,109.19799999999999,-95.967500000000001
244.0,731.61900000000003,-192.25700000000001,-226.375,307.351,232.34999999999999,145.41900000000001,-118.39100000000001
245.0,742.96199999999999,-181.47200000000001,-227.345,283.03300000000002,228.54900000000001,181.11799999999999,-138.684
246.0,746.78899999999999,-162.393,-219.14400000000001,247.428,227.77099999999999,208.16,-160.86500000000001
247.0,746.84100000000001,-164.47900000000001,-240.11199999999999,169.18100000000001,228.92699999999999,234.36699999999999,-176.52199999999999
248.0,748.99699999999996,-218.37700000000001,-312.755,43.289200000000001,221.37100000000001,254.38399999999999,-198.137
249.0,747.33900000000006,-215.23099999999999,-327.99099999999999,-24.211500000000001,204.94499999999999,267.92599999999999,-220.916
250.0,745.96299999999997,-145.59899999999999,-283.32999999999998,-22.323,178.136,282.99700000000001,-237.946
251.0,745.428,-35.130899999999997,-203.839,18.8035,148.04499999999999,297.64400000000001,-247.429
252.0,748.01999999999998,43.1738,-169.41999999999999,19.6829,118.998,311.928,-247.92500000000001
253.0,748.27099999999996,82.039100000000005,-165.96199999999999,-14.0345,90.306899999999999,315.83999999999997,-251.178
254.0,740.03099999999995,123.012,-155.65799999999999,-51.158099999999997,68.8322,308.29300000000001,-250.893
255.0,728.28899999999999,155.202,-147.53100000000001,-92.143100000000004,49.702199999999998,293.27499999999998,-249.67599999999999
256.0,714.19899999999996,182.76300000000001,-139.733,-132.94300000000001,33.486499999999999,271.29599999999999,-247.691
257.0,699.83900000000006,205.13300000000001,-133.01400000000001,-171.14599999999999,17.701499999999999,244.83600000000001,-245.15899999999999
258.0,684.91899999999998,223.28100000000001,-125.99299999999999,-205.011,2.98516,214.63900000000001,-241.553
259.0,670.79999999999995,239.53800000000001,-118.22799999999999,-232.19399999999999,-11.308400000000001,182.608,-236.49799999999999
260.0,656.851,251.65299999999999,-110.122,-253.47800000000001,-25.147500000000001,149.226,-230.548
261.0,501.78399999999999,-63.909999999999997,-168.48599999999999,233.08099999999999,160.40700000000001,-107.669,56.626600000000003
262.0,513.61800000000005,-80.647099999999995,-173.023,247.37299999999999,170.28200000000001,-90.972899999999996,43.033999999999999
263.0,525.36000000000001,-98.994900000000001,-179.79599999999999,257.23099999999999,179.072,-71.149799999999999,28.3248
264.0,537.58600000000001,-112.0,-182.50999999999999,269.245,186.29400000000001,-49.184100000000001,11.8795
265.0,550.20799999999997,-126.25700000000001,-188.04300000000001,276.11900000000003,191.66900000000001,-24.6937,-5.87385
266.0,563.57100000000003,-133.06200000000001,-188.16300000000001,286.048,194.90799999999999,1.95333,-24.8401
267.0,577.86300000000006,-140.07499999999999,-191.03800000000001,290.61700000000002,195.857,30.714600000000001,-44.620699999999999
268.0,593.00400000000002,-137.977,-187.90000000000001,297.62099999999998,194.87200000000001,61.045200000000001,-64.716399999999993
269.0,608.65599999999995,-135.827,-188.38399999999999,296.43200000000002,192.33600000000001,92.557500000000005,-84.5642
270.0,622.89599999999996,-123.845,-182.84700000000001,292.84300000000002,190.071,123.447,-103.61199999999999
271.0,633.89400000000001,-115.929,-185.654,269.71800000000002,189.029,152.60499999999999,-121.498
272.0,637.52300000000002,-100.33799999999999,-181.548,234.75800000000001,191.886,174.62899999999999,-139.51300000000001
273.0,637.54700000000003,-118.137,-217.405,149.04499999999999,196.32900000000001,193.417,-153.66300000000001
274.0,638.31899999999996,-163.34,-278.36599999999999,38.934800000000003,193.738,206.06899999999999,-173.245
275.0,639.31899999999996,-167.85300000000001,-295.49599999999998,-22.876300000000001,181.68000000000001,216.93000000000001,-193.83199999999999
276.0,638.95100000000002,-93.799700000000001,-237.63,1.6538299999999999,157.82499999999999,229.41499999999999,-209.84999999999999
277.0,636.86199999999997,7.3176500000000004,-163.42699999999999,47.407600000000002,128.77699999999999,244.06,-215.66999999999999
278.0,638.976,70.108999999999995,-137.32900000000001,47.8979,98.667900000000003,259.63099999999997,-214.43199999999999
279.0,638.83000000000004,101.971,-133.047,20.8461,72.267899999999997,264.52699999999999,-215.84100000000001
280.0,631.74199999999996,139.01300000000001,-122.245,-7.6462399999999997,54.159799999999997,258.72399999999999,-214.50299999999999
281.0,621.06399999999996,158.60900000000001,-123.02500000000001,-48.8797,37.9495,245.38499999999999,-213.56100000000001
282.0,607.28099999999995,180.333,-116.37,-83.209400000000002,24.619199999999999,225.876,-211.83199999999999
283.0,593.30700000000002,194.65700000000001,-113.36499999999999,-118.339,11.65,203.01599999999999,-209.38399999999999
284.0,579.125,210.779,-104.874,-144.21600000000001,-0.744722,177.36199999999999,-206.08199999999999
285.0,565.81200000000001,221.315,-100.19799999999999,-168.75,-13.017300000000001,150.43100000000001,-201.35900000000001
286.0,552.79899999999998,232.941,-91.001800000000003,-183.75299999999999,-25.021999999999998,122.727,-195.73400000000001
287.0,422.03199999999998,-20.4876,-122.152,237.143,121.211,-92.340800000000002,43.023299999999999
288.0,431.45800000000003,-38.065399999999997,-130.24199999999999,244.93000000000001,129.44,-77.746200000000002,32.095100000000002
289.0,440.90100000000001,-49.894300000000001,-133.20400000000001,255.96899999999999,136.84200000000001,-60.625,20.139800000000001
290.0,450.87700000000001,-63.546300000000002,-139.06700000000001,262.45699999999999,142.97200000000001,-41.758099999999999,6.6935900000000004
291.0,461.44,-71.370099999999994,-140.364,271.69499999999999,147.54300000000001,-20.875800000000002,-7.9357800000000003
292.0,472.94600000000003,-79.173299999999998,-143.28200000000001,277.58999999999997,150.24299999999999,1.8144,-23.7148
293.0,485.72500000000002,-81.024500000000003,-142.30199999999999,285.65100000000001,150.90899999999999,26.2652,-40.262300000000003
294.0,499.76299999999998,-80.837599999999995,-141.94300000000001,290.642,149.81399999999999,52.236199999999997,-57.194600000000001
295.0,514.74199999999996,-75.147199999999998,-139.27000000000001,294.55200000000002,147.50399999999999,79.226200000000006,-73.850099999999998
296.0,528.529,-66.755200000000002,-137.75700000000001,290.14699999999999,145.75700000000001,105.964,-89.743399999999994
297.0,538.66899999999998,-55.802500000000002,-137.37200000000001,273.91199999999998,146.17099999999999,130.43000000000001,-104.51600000000001
298.0,541.00800000000004,-45.200299999999999,-139.898,237.10900000000001,151.76900000000001,148.02799999999999,-118.956
299.0,541.29100000000005,-62.782899999999998,-174.72,157.47300000000001,159.88200000000001,162.13,-131.34399999999999
300.0,540.79499999999996,-102.873,-226.18199999999999,60.206499999999998,162.01900000000001,169.09899999999999,-148.34200000000001
301.0,538.66399999999999,-121.774,-254.22800000000001,-6.5019299999999998,152.059,177.26599999999999,-163.73099999999999
302.0,536.43799999999999,-70.156599999999997,-210.13200000000001,11.278600000000001,128.251,188.32499999999999,-177.387
303.0,535.24900000000002,44.581400000000002,-118.789,81.153400000000005,101.53,202.054,-181.739
304.0,541.25699999999995,104.655,-95.490499999999997,87.893600000000006,73.381600000000006,218.68299999999999,-179.214
305.0,542.96400000000006,129.39099999999999,-94.539900000000003,64.826099999999997,48.698099999999997,224.38999999999999,-179.61699999999999
306.0,536.899,159.72,-87.121600000000001,39.038899999999998,33.522799999999997,219.959,-177.04900000000001
307.0,527.79899999999998,176.22900000000001,-86.650199999999998,4.5878699999999997,20.6599,209.00700000000001,-175.87299999999999
308.0,514.82899999999995,192.49199999999999,-82.084400000000002,-26.401700000000002,10.8216,191.90199999999999,-174.179
309.0,501.69900000000001,202.77799999999999,-80.1524,-57.087299999999999,0.84437200000000001,172.06299999999999,-172.072
310.0,488.37299999999999,213.21000000000001,-75.028400000000005,-81.303799999999995,-8.6930700000000005,149.989,-169.17599999999999
311.0,476.34899999999999,221.66,-70.666499999999999,-101.90900000000001,-18.5749,127.251,-165.05699999999999
312.0,464.85199999999998,230.542,-63.263300000000001,-115.244,-28.308399999999999,104.06699999999999,-160.102
313.0,360.82799999999997,2.3723200000000002,-91.488299999999995,231.625,90.125900000000001,-81.265199999999993,32.310099999999998
314.0,367.91800000000001,-8.0429300000000001,-94.150400000000005,242.47800000000001,96.637600000000006,-68.206500000000005,23.407699999999998
315.0,375.09199999999998,-19.9148,-98.919399999999996,249.60599999999999,102.47499999999999,-53.098500000000001,13.6031
316.0,382.78100000000001,-27.782,-100.648,258.27199999999999,107.261,-36.5471,2.5741299999999998
317.0,391.19999999999999,-36.929400000000001,-104.72799999999999,263.18900000000002,110.666,-18.354099999999999,-9.5060900000000004
318.0,400.70100000000002,-40.2072,-104.274,271.33199999999999,112.404,1.3154999999999999,-22.590800000000002
319.0,411.86000000000001,-43.982300000000002,-105.98,276.37200000000001,112.246,22.551200000000001,-36.396599999999999
320.0,424.59300000000002,-39.868400000000001,-102.04600000000001,285.42000000000002,110.458,45.141599999999997,-50.525700000000001
321.0,438.92099999999999,-36.2654,-101.56999999999999,288.88299999999998,107.602,68.920299999999997,-64.415199999999999
322.0,451.983,-23.057200000000002,-95.257499999999993,292.00799999999998,105.613,92.429299999999998,-77.395700000000005
323.0,461.25999999999999,-15.6812,-99.024900000000002,275.476,106.45999999999999,113.855,-89.228700000000003
324.0,461.44499999999999,-0.75335300000000005,-97.592799999999997,246.23400000000001,113.84699999999999,128.06899999999999,-100.902
325.0,458.33199999999999,-28.594799999999999,-142.48099999999999,159.34200000000001,124.21299999999999,139.11199999999999,-109.592
326.0,455.685,-82.942599999999999,-205.816,55.5411,128.88999999999999,141.934,-123.93899999999999
327.0,452.89100000000002,-91.578000000000003,-225.05699999999999,4.9823500000000003,123.06999999999999,144.47200000000001,-137.87100000000001
328.0,451.96499999999997,-39.606999999999999,-183.78399999999999,28.439699999999998,102.36,154.03200000000001,-148.81200000000001
329.0,451.97899999999998,58.959899999999998,-98.854399999999998,95.219700000000003,76.260400000000004,169.00399999999999,-151.887
330.0,458.74599999999998,123.05500000000001,-63.184399999999997,115.376,49.771500000000003,186.709,-147.334
331.0,464.14999999999998,145.59999999999999,-63.045000000000002,95.868399999999994,26.5185,194.71799999999999,-146.00299999999999
332.0,460.39699999999999,175.06899999999999,-53.9938,76.532399999999996,12.9178,192.001,-142.90299999999999
333.0,452.07799999999997,184.76300000000001,-59.055300000000003,42.2455,2.9758499999999999,182.435,-140.81899999999999
334.0,439.755,196.886,-56.7301,14.087400000000001,-4.0136500000000002,167.29499999999999,-139.041
335.0,427.18099999999998,201.88399999999999,-58.250799999999998,-15.555300000000001,-10.757099999999999,149.73099999999999,-137.22499999999999
336.0,414.72199999999998,210.15199999999999,-53.846699999999998,-36.637599999999999,-17.573,130.404,-134.91200000000001
337.0,403.87400000000002,214.94399999999999,-52.063499999999998,-56.526699999999998,-24.938500000000001,110.774,-131.56899999999999
338.0,393.95699999999999,221.99100000000001,-46.236800000000002,-68.728899999999996,-32.489199999999997,90.984899999999996,-127.43000000000001
339.0,314.94,21.3048,-63.732700000000001,228.67599999999999,67.434399999999997,-72.772599999999997,24.419799999999999
340.0,320.125,9.6416699999999995,-68.678200000000004,235.32499999999999,72.422899999999998,-60.924999999999997,16.998699999999999
341.0,325.38200000000001,1.8742099999999999,-70.408299999999997,243.71600000000001,76.837800000000001,-47.385800000000003,8.7916699999999999
342.0,331.14299999999997,-6.7568900000000003,-73.858000000000004,249.04300000000001,80.336799999999997,-32.621699999999997,-0.39547700000000002
343.0,337.661,-11.1235,-73.943799999999996,256.51600000000002,82.614000000000004,-16.515999999999998,-10.496
344.0,345.47699999999998,-15.2622,-74.857299999999995,262.31599999999997,83.325800000000001,0.83926500000000004,-21.4419
345.0,355.12,-14.768700000000001,-72.467399999999998,270.85599999999999,82.247100000000003,19.549600000000002,-33.0595
346.0,366.94,-12.4937,-70.183300000000003,278.69200000000001,79.524799999999999,39.631,-44.889600000000002
347.0,380.53199999999998,-5.0994000000000002,-65.466399999999993,287.423,75.774900000000002,60.858600000000003,-56.555999999999997
348.0,393.57999999999998,4.28803,-62.751399999999997,289.70299999999997,72.972200000000001,82.339600000000004,-67.084100000000007
349.0,401.80900000000003,17.3965,-60.829700000000003,281.93599999999998,73.518199999999993,101.313,-76.700699999999998
350.0,398.97300000000001,26.8796,-66.305300000000003,249.01499999999999,81.392499999999998,113.553,-85.430199999999999
351.0,393.137,-5.3377100000000004,-118.532,160.16900000000001,93.538799999999995,121.402,-91.566299999999998
352.0,389.11000000000001,-64.746099999999998,-189.37200000000001,55.020000000000003,101.113,120.367,-104.03400000000001
353.0,386.02100000000002,-62.309800000000003,-190.85300000000001,21.470700000000001,100.289,120.036,-117.333
354.0,386.05000000000001,-12.5116,-146.90199999999999,46.236800000000002,85.168300000000002,130.364,-125.009
355.0,388.24799999999999,59.075600000000001,-86.762600000000006,95.088899999999995,59.094799999999999,145.44,-127.78100000000001
356.0,394.92700000000002,130.702,-38.797699999999999,131.423,32.552599999999998,161.37299999999999,-123.574
357.0,402.375,164.31100000000001,-28.3462,126.268,10.161199999999999,171.30600000000001,-118.776
358.0,401.56299999999999,182.98500000000001,-28.2974,102.459,-4.1536900000000001,171.03899999999999,-114.495
359.0,394.40100000000001,196.316,-28.6982,76.162300000000002,-11.915800000000001,163.02500000000001,-111.599
360.0,382.81999999999999,202.43100000000001,-31.461500000000001,47.2729,-16.409199999999998,149.55799999999999,-109.774
361.0,370.113,206.601,-32.559100000000001,21.450199999999999,-20.396999999999998,133.43199999999999,-108.205
362.0,358.26499999999999,209.553,-32.653300000000002,-0.88912000000000002,-24.788900000000002,116.157,-106.542
363.0,348.18200000000002,213.464,-30.976900000000001,-18.380400000000002,-29.890899999999998,98.702200000000005,-104.07299999999999
364.0,339.70699999999999,217.94999999999999,-27.6417,-31.041799999999999,-35.532400000000003,81.440200000000004,-100.919
365.0,279.98200000000003,28.548100000000002,-48.398299999999999,217.858,51.589500000000001,-65.859099999999998,18.862300000000001
366.0,283.74099999999999,21.745699999999999,-49.085900000000002,227.154,55.386099999999999,-55.011000000000003,12.4945
367.0,287.565,13.8736,-51.522300000000001,233.34200000000001,58.659500000000001,-42.7605,5.4719600000000002
368.0,291.82499999999999,8.7770399999999995,-51.9544,240.28200000000001,61.110999999999997,-29.435500000000001,-2.3518699999999999
369.0,296.86399999999998,3.08508,-53.738399999999999,244.82599999999999,62.4178,-15.021100000000001,-10.9369
370.0,303.30700000000002,1.2539499999999999,-52.455300000000001,251.85300000000001,62.232799999999997,0.478713,-20.260000000000002
371.0,311.81400000000002,0.29502699999999998,-51.254800000000003,258.64499999999998,60.287599999999998,17.149699999999999,-30.123899999999999
372.0,322.91399999999999,4.4346100000000002,-46.465299999999999,269.036,56.644599999999997,35.238599999999998,-40.205300000000001
373.0,336.26600000000002,10.985200000000001,-41.612900000000003,278.79300000000001,51.931100000000001,54.513800000000003,-49.984299999999998
374.0,349.416,23.6694,-34.805199999999999,286.98500000000001,48.0349,74.490899999999996,-58.796399999999998
375.0,357.31599999999997,35.752099999999999,-33.634099999999997,281.34500000000003,47.8048,92.050299999999993,-66.403199999999998
376.0,352.08999999999997,49.331099999999999,-36.803899999999999,254.738,55.476599999999998,102.48,-72.855599999999995
377.0,343.52300000000002,14.077199999999999,-94.292599999999993,164.06899999999999,68.893500000000003,108.45,-77.435500000000005
378.0,338.25299999999999,-40.770099999999999,-160.85400000000001,65.605199999999996,79.580500000000001,105.351,-88.712299999999999
379.0,332.91300000000001,-48.422199999999997,-172.60499999999999,24.201899999999998,81.992900000000006,101.453,-100.117
380.0,331.56700000000001,-25.6861,-155.47999999999999,24.331499999999998,70.281599999999997,109.93300000000001,-104.916
381.0,335.70499999999998,25.656199999999998,-108.678,61.671700000000001,46.665799999999997,125.59,-107.495
382.0,342.79700000000003,102.517,-46.230699999999999,111.75,20.801500000000001,141.68799999999999,-103.92400000000001
383.0,352.399,160.50200000000001,-11.577500000000001,132.303,-1.5862400000000001,152.90000000000001,-97.448099999999997
384.0,357.13299999999998,189.60300000000001,-3.7769499999999998,121.86799999999999,-16.278500000000001,155.24100000000001,-92.311400000000006
385.0,351.58100000000002,197.249,-9.4125399999999999,94.230400000000003,-23.2135,148.76400000000001,-88.635000000000005
386.0,339.88099999999997,202.31100000000001,-12.712999999999999,67.870800000000003,-25.854900000000001,136.39599999999999,-86.217299999999994
387.0,327.15699999999998,202.25399999999999,-17.4816,41.344200000000001,-27.779499999999999,121.411,-85.003600000000006
388.0,315.22300000000001,203.98599999999999,-18.241199999999999,21.000399999999999,-30.0017,105.413,-83.915499999999994
389.0,305.61000000000001,204.94,-19.064900000000002,3.1654599999999999,-33.290999999999997,89.524100000000004,-82.333799999999997
390.0,297.99000000000001,208.02699999999999,-17.0867,-9.1050500000000003,-37.317900000000002,74.018699999999995,-80.084100000000007
391.0,252.56399999999999,35.472000000000001,-35.511699999999998,208.65100000000001,41.070300000000003,-59.791899999999998,15.0594
392.0,255.291,27.136600000000001,-38.135199999999998,214.62,43.9895,-49.841299999999997,9.4473699999999994
393.0,258.09800000000001,21.3155,-38.888399999999997,221.23400000000001,46.406399999999998,-38.703299999999999,3.2773099999999999
394.0,261.22699999999998,15.612299999999999,-40.2117,226.02699999999999,48.092700000000001,-26.622499999999999,-3.5444800000000001
395.0,265.21699999999998,12.6112,-39.389899999999997,232.13200000000001,48.686,-13.6328,-10.9963
396.0,270.56900000000002,10.7782,-37.945500000000003,238.33099999999999,47.864199999999997,0.26154500000000003,-19.084900000000001
397.0,278.34100000000001,11.4366,-34.559600000000003,246.82900000000001,45.230699999999999,15.2698,-27.5946
398.0,288.81400000000002,15.520300000000001,-28.835699999999999,257.87400000000002,40.875999999999998,31.572199999999999,-36.323399999999999
399.0,302.42399999999998,22.016400000000001,-22.706,269.72899999999998,35.198500000000003,49.461599999999997,-44.588099999999997
400.0,315.565,34.248600000000003,-14.8431,280.00299999999999,30.236599999999999,67.877600000000001,-52.109699999999997
401.0,323.89999999999998,46.851900000000001,-12.7546,277.70299999999997,28.873799999999999,85.143000000000001,-57.898000000000003
402.0,317.82499999999999,62.366300000000003,-14.539099999999999,256.45999999999998,35.928800000000003,93.955799999999996,-63.622
403.0,305.29399999999998,41.2712,-61.464100000000002,178.191,49.964100000000002,98.270600000000002,-66.773200000000003
404.0,298.79899999999998,-26.568200000000001,-143.56700000000001,67.864199999999997,61.985700000000001,94.235600000000005,-76.2851
405.0,293.14800000000002,-34.987900000000003,-155.917,29.3994,68.548400000000001,86.272800000000004,-87.472999999999999
406.0,292.52199999999999,-18.086500000000001,-147.697,21.610900000000001,61.763100000000001,92.6785,-90.989900000000006
407.0,296.95600000000002,3.17239,-128.79300000000001,35.274700000000003,39.706800000000001,106.985,-93.868700000000004
408.0,302.49000000000001,89.823400000000007,-51.226700000000001,103.416,14.601000000000001,121.096,-91.050299999999993
409.0,313.46899999999999,164.809,4.4965000000000002,143.239,-7.54908,135.03100000000001,-83.033799999999999
410.0,322.202,187.762,10.7791,130.47,-23.138100000000001,141.88800000000001,-76.039500000000004
411.0,318.71699999999998,197.298,8.2354699999999994,107.376,-30.4726,137.434,-71.415599999999998
412.0,307.738,201.566,3.67842,82.226200000000006,-32.250399999999999,126.074,-68.587400000000002
413.0,294.71499999999997,199.75800000000001,-2.45716,56.976399999999998,-32.562899999999999,111.94199999999999,-67.522900000000007
414.0,282.40899999999999,198.61699999999999,-5.7189500000000004,36.344099999999997,-33.118000000000002,96.730800000000002,-66.997799999999998
415.0,272.85300000000001,197.95500000000001,-7.7719899999999997,19.255700000000001,-34.9163,81.920599999999993,-66.243499999999997
416.0,265.77199999999999,199.62700000000001,-7.1395,7.1748799999999999,-37.700899999999997,67.669200000000004,-64.900199999999998
417.0,230.035,36.858199999999997,-30.165199999999999,195.07900000000001,34.075099999999999,-54.2727,12.457000000000001
418.0,232.03899999999999,32.210000000000001,-29.442299999999999,203.21799999999999,36.404899999999998,-45.143500000000003,7.4001900000000003
419.0,234.11500000000001,26.135300000000001,-30.729099999999999,208.20099999999999,38.253999999999998,-34.997300000000003,1.8670199999999999
420.0,236.435,22.798400000000001,-29.881599999999999,214.113,39.4161,-24.033100000000001,-4.1998100000000003
421.0,239.624,18.089099999999998,-30.779,217.57599999999999,39.510599999999997,-12.3078,-10.801299999999999
422.0,244.17099999999999,17.378499999999999,-27.953399999999998,224.346,38.229700000000001,0.156446,-17.908899999999999
423.0,251.33199999999999,16.279499999999999,-25.6114,231.26400000000001,35.1021,13.683,-25.3687
424.0,261.41199999999998,21.1493,-17.887499999999999,244.07900000000001,30.191700000000001,28.428999999999998,-32.930599999999998
425.0,275.25799999999998,26.6905,-11.084199999999999,256.96899999999999,23.762499999999999,45.085000000000001,-40.088099999999997
426.0,288.88400000000001,41.4574,1.16791,272.64100000000002,17.923500000000001,62.3369,-46.364199999999997
427.0,297.73099999999999,53.053100000000001,3.11422,271.85700000000003,15.451700000000001,79.180000000000007,-51.065899999999999
428.0,290.88299999999998,72.479200000000006,5.5708799999999998,256.673,21.832100000000001,87.479100000000003,-56.264299999999999
429.0,275.68099999999998,55.020699999999998,-38.823399999999999,182.404,36.301499999999997,90.909000000000006,-58.497
430.0,268.01799999999997,-14.2629,-126.241,70.6554,49.055,85.352099999999993,-67.083100000000002
431.0,262.07999999999998,-28.064900000000002,-145.785,28.3522,57.717700000000001,75.010000000000005,-77.738799999999998
432.0,261.82900000000001,-12.9567,-139.97800000000001,19.541599999999999,55.149099999999997,78.709900000000005,-80.676299999999998
433.0,266.89400000000001,-0.26220100000000002,-128.34999999999999,26.032399999999999,38.156399999999998,91.403899999999993,-84.329800000000006
434.0,272.02800000000002,76.633799999999994,-52.424500000000002,89.381100000000004,16.32,106.62,-82.932299999999998
435.0,281.63200000000001,149.405,7.4210200000000004,133.89500000000001,-6.72018,121.60599999999999,-74.428600000000003
436.0,291.89699999999999,183.10599999999999,23.088899999999999,134.28800000000001,-25.306799999999999,129.601,-65.105900000000005
437.0,292.21499999999997,193.99100000000001,20.578099999999999,113.52,-34.604399999999998,127.595,-58.7729
438.0,282.565,196.72499999999999,14.787100000000001,88.995099999999994,-36.344999999999999,117.70399999999999,-55.409100000000002
439.0,269.16699999999997,193.40000000000001,7.0696000000000003,64.308400000000006,-35.482599999999998,104.065,-54.3307
440.0,256.36200000000002,190.333,2.1877200000000001,44.125100000000003,-34.802,89.390100000000004,-54.311799999999998
441.0,246.58600000000001,187.84399999999999,-1.3948499999999999,27.3201,-35.400700000000001,75.271299999999997,-54.301299999999998
442.0,239.762,187.86600000000001,-2.3173699999999999,15.2133,-37.228099999999998,61.977200000000003,-53.733199999999997
443.0,210.88900000000001,39.914999999999999,-25.095800000000001,183.88300000000001,29.3873,-49.100299999999997,10.6206
444.0,212.36500000000001,33.266800000000003,-26.7075,188.67500000000001,31.300899999999999,-40.753999999999998,5.9948100000000002
445.0,213.86500000000001,28.598800000000001,-26.872299999999999,193.80500000000001,32.762500000000003,-31.524100000000001,0.94449799999999995
446.0,215.613,24.1752,-27.267099999999999,197.61000000000001,33.569800000000001,-21.592600000000001,-4.5342200000000004
447.0,218.16499999999999,21.972000000000001,-25.632400000000001,202.76599999999999,33.377200000000002,-11.043900000000001,-10.465299999999999
448.0,222.172,20.686699999999998,-23.016500000000001,208.71799999999999,31.805499999999999,0.136181,-16.758099999999999
449.0,228.732,21.373699999999999,-18.107900000000001,217.60300000000001,28.408899999999999,12.2483,-23.344200000000001
450.0,238.65799999999999,25.0307,-10.241,230.483,23.094200000000001,25.696300000000001,-29.861999999999998
451.0,252.39500000000001,31.198599999999999,-0.86488799999999999,245.81399999999999,16.1326,41.008499999999998,-36.093499999999999
452.0,266.935,42.782299999999999,10.117000000000001,261.173,9.4903700000000004,57.706000000000003,-41.226399999999998
453.0,276.024,57.212299999999999,16.6829,265.892,6.1260700000000003,73.510199999999998,-45.525199999999998
454.0,267.56999999999999,73.332800000000006,15.504899999999999,247.35599999999999,11.6069,82.044499999999999,-49.342700000000001
455.0,251.66800000000001,46.110500000000002,-39.289000000000001,165.67400000000001,24.903300000000002,85.015799999999999,-51.620600000000003
456.0,241.44,-10.8225,-116.432,66.460300000000004,38.281100000000002,76.782700000000006,-60.338900000000002
457.0,237.048,-18.4282,-135.11000000000001,29.145399999999999,48.450600000000001,66.265600000000006,-69.634399999999999
458.0,238.178,-5.9218999999999999,-130.761,21.8508,48.680900000000001,67.288499999999999,-73.5137
459.0,239.47800000000001,-0.18301300000000001,-125.068,19.267600000000002,36.758299999999998,77.146900000000002,-75.359999999999999
460.0,243.292,27.419599999999999,-95.891800000000003,37.392800000000001,16.383099999999999,93.048199999999994,-72.748500000000007
461.0,252.072,100.89,-26.218699999999998,93.830100000000002,-6.8937200000000001,107.55200000000001,-66.799400000000006
462.0,263.387,170.869,26.652100000000001,129.983,-24.886500000000002,117.075,-57.2166
463.0,269.61000000000001,189.76900000000001,30.131900000000002,116.30500000000001,-35.9071,118.746,-49.551000000000002
464.0,261.74200000000002,191.82499999999999,24.4559,93.477800000000002,-38.642099999999999,110.3,-45.850000000000001
465.0,248.102,187.999,15.9453,69.5274,-36.933700000000002,97.052300000000002,-44.5366
466.0,234.958,182.589,8.9647000000000006,49.146599999999999,-35.495600000000003,82.781599999999997,-45.031799999999997
467.0,224.83699999999999,178.65600000000001,4.0960700000000001,32.909999999999997,-35.048299999999998,69.127799999999993,-45.676400000000001
468.0,218.13300000000001,177.441,2.0829399999999998,21.23,-36.157699999999998,56.583799999999997,-45.808799999999998
469.0,194.10499999999999,40.267400000000002,-23.9253,170.74100000000001,25.952400000000001,-44.273200000000003,9.2415900000000004
470.0,195.185,36.579700000000003,-22.9452,177.25399999999999,27.604800000000001,-36.656199999999998,4.9665499999999998
471.0,196.24000000000001,32.0687,-23.2532,181.386,28.829899999999999,-28.2807,0.32670700000000003
472.0,197.56299999999999,29.063099999999999,-22.3843,185.73500000000001,29.398900000000001,-19.316199999999998,-4.6793500000000003
473.0,199.61500000000001,25.537800000000001,-22.044799999999999,188.91300000000001,28.997299999999999,-9.8754600000000003,-10.0291
474.0,203.21100000000001,24.049199999999999,-19.247,194.58699999999999,27.209,0.109657,-15.6243
475.0,209.261,23.849699999999999,-14.3766,202.964,23.643599999999999,10.894399999999999,-21.346499999999999
476.0,218.99199999999999,26.4725,-6.0613799999999998,216.13200000000001,18.042300000000001,23.163499999999999,-26.904399999999999
477.0,232.56100000000001,33.505600000000001,6.1717000000000004,234.102,10.831,37.226500000000001,-32.176499999999997
478.0,247.75299999999999,45.235799999999998,19.3874,252.06299999999999,3.5596100000000002,53.461199999999998,-36.411299999999997
479.0,256.65499999999997,61.302999999999997,29.3797,260.28899999999999,-0.35492000000000001,68.275999999999996,-40.496299999999998
480.0,247.47,78.117400000000004,27.0761,242.21299999999999,4.2479500000000003,76.706999999999994,-43.310499999999998
481.0,231.00800000000001,44.904200000000003,-35.636000000000003,155.59700000000001,15.825799999999999,78.649100000000004,-46.192700000000002
482.0,219.399,-5.5736699999999999,-106.864,63.904800000000002,29.278099999999998,69.147400000000005,-55.063099999999999
483.0,215.804,-11.4903,-125.97799999999999,28.723700000000001,40.158499999999997,58.755899999999997,-63.371200000000002
484.0,217.77199999999999,-3.1545899999999998,-125.994,19.6694,42.0533,58.429099999999998,-66.990099999999998
485.0,218.03399999999999,1.59497,-123.26600000000001,16.470099999999999,34.5458,64.0608,-68.260300000000001
486.0,221.12700000000001,13.327199999999999,-113.718,18.277899999999999,18.008800000000001,77.695999999999998,-65.879499999999993
487.0,228.74100000000001,72.443399999999997,-50.003100000000003,69.337400000000002,-4.4527599999999996,92.921999999999997,-62.549199999999999
488.0,237.203,160.989,29.4758,128.42400000000001,-22.5562,103.992,-52.352400000000003
489.0,247.93799999999999,186.625,39.431199999999997,119.182,-35.181600000000003,109.721,-42.255800000000001
490.0,243.40299999999999,184.238,31.000599999999999,94.035300000000007,-39.7742,103.651,-38.612000000000002
491.0,229.733,182.58699999999999,23.7881,72.529700000000005,-37.6355,90.483099999999993,-37.030500000000004
492.0,216.78299999999999,173.94200000000001,13.582000000000001,50.965800000000002,-35.762300000000003,76.8279,-38.002400000000002
493.0,206.06200000000001,169.458,8.2478099999999994,36.089700000000001,-34.377200000000002,63.368299999999998,-39.133099999999999
494.0,199.53200000000001,166.011,4.0720000000000001,23.840900000000001,-34.9482,51.551099999999998,-39.843699999999998
495.0,179.173,42.523699999999998,-21.696999999999999,160.256,23.2105,-39.7639,8.1124899999999993
496.0,179.905,36.6633,-23.255500000000001,163.429,24.648599999999998,-32.843200000000003,4.15184
497.0,180.596,33.108800000000002,-22.895499999999998,167.49100000000001,25.673200000000001,-25.2758,-0.136658
498.0,181.56899999999999,29.042999999999999,-23.204000000000001,170.02600000000001,26.061499999999999,-17.2346,-4.7188800000000004
499.0,183.28100000000001,27.807700000000001,-20.479700000000001,175.07400000000001,25.5243,-8.8329699999999995,-9.5416000000000007
500.0,186.56200000000001,26.117100000000001,-17.388000000000002,180.678,23.612200000000001,0.021273299999999998,-14.452199999999999
501.0,192.27099999999999,27.308900000000001,-10.237500000000001,191.06299999999999,19.9816,9.6134400000000007,-19.319099999999999
502.0,201.73599999999999,29.447399999999998,-0.84855599999999998,205.08099999999999,14.2987,20.756799999999998,-23.841999999999999
503.0,214.994,35.960599999999999,12.9901,224.221,6.9768100000000004,33.7639,-28.0624
504.0,230.209,45.213200000000001,26.123699999999999,241.64500000000001,-0.63171299999999997,49.388199999999998,-31.504000000000001
505.0,238.47800000000001,62.095399999999998,38.9405,252.06800000000001,-4.9977799999999997,63.4681,-35.059699999999999
506.0,228.68600000000001,76.417000000000002,33.708199999999998,231.36699999999999,-0.91941600000000001,71.776899999999998,-38.243000000000002
507.0,211.916,51.378300000000003,-22.550699999999999,153.15199999999999,10.1526,72.868700000000004,-42.119199999999999
508.0,200.67699999999999,-1.9685299999999999,-98.586299999999994,59.986800000000002,22.460100000000001,62.870399999999997,-50.794899999999998
509.0,197.09700000000001,-3.0150000000000001,-114.03400000000001,31.5794,32.475900000000003,52.027099999999997,-58.309100000000001
510.0,200.11000000000001,1.3415699999999999,-120.047,19.515000000000001,35.454999999999998,51.3568,-60.796900000000001
511.0,200.85400000000001,6.8838699999999999,-115.173,19.569600000000001,31.853100000000001,54.479399999999998,-62.682000000000002
512.0,200.88800000000001,12.2637,-110.925,13.123100000000001,20.626899999999999,65.847200000000001,-59.972200000000001
513.0,206.577,43.689900000000002,-70.581100000000006,41.454099999999997,-0.23346500000000001,81.634200000000007,-57.3705
514.0,213.12799999999999,136.53100000000001,19.969200000000001,111.84399999999999,-19.009599999999999,92.906199999999998,-48.737499999999997
515.0,226.02600000000001,180.68700000000001,46.857500000000002,119.13500000000001,-33.0959,100.371,-37.045999999999999
516.0,226.19200000000001,176.94999999999999,36.573300000000003,93.513999999999996,-39.941899999999997,96.849500000000006,-33.078899999999997
517.0,213.44499999999999,177.648,31.4146,74.668499999999995,-37.993899999999996,84.298000000000002,-31.517199999999999
518.0,200.84700000000001,165.60599999999999,17.355699999999999,51.369599999999998,-35.745899999999999,71.216399999999993,-32.651400000000002
519.0,189.756,161.45599999999999,12.315300000000001,38.6402,-33.699599999999997,57.9895,-34.167099999999998
520.0,183.20599999999999,155.53999999999999,5.7084799999999998,25.674700000000001,-33.693199999999997,46.773400000000002,-35.303800000000003
521.0,165.69999999999999,42.926900000000003,-21.589200000000002,148.815,20.759499999999999,-35.614100000000001,7.12385
522.0,166.155,40.101300000000002,-20.492000000000001,153.946,22.052299999999999,-29.339600000000001,3.4597199999999999
523.0,166.54599999999999,36.661799999999999,-20.277100000000001,157.20099999999999,22.936299999999999,-22.534199999999998,-0.49102200000000001
524.0,167.25700000000001,34.0471,-19.202100000000002,160.59899999999999,23.172499999999999,-15.368,-4.67835
525.0,168.708,31.125499999999999,-17.964099999999998,163.76599999999999,22.477599999999999,-7.9526000000000003,-8.9872999999999994
526.0,171.821,29.2605,-14.492100000000001,169.583,20.444700000000001,-0.150009,-13.2156
527.0,177.31,29.293099999999999,-7.4626799999999998,179.70400000000001,16.7788,8.3591700000000007,-17.140699999999999
528.0,186.54400000000001,30.6114,2.58786,194.19200000000001,11.1914,18.510000000000002,-20.5518
529.0,199.28700000000001,38.1584,19.178699999999999,215.53100000000001,4.1463200000000002,30.550999999999998,-23.635999999999999
530.0,213.66999999999999,48.495199999999997,35.265900000000002,234.797,-3.3256000000000001,45.4602,-26.292100000000001
531.0,220.852,66.731399999999994,50.048499999999997,246.53899999999999,-7.69693,58.547199999999997,-30.030999999999999
532.0,209.74799999999999,82.862499999999997,46.7393,227.03899999999999,-4.2916299999999996,66.479600000000005,-33.567799999999998
533.0,192.786,46.534599999999998,-19.747900000000001,139.26499999999999,5.3200700000000003,67.222499999999997,-38.2376
534.0,183.00200000000001,0.182979,-90.290899999999993,55.531100000000002,16.392399999999999,56.886899999999997,-47.324199999999998
535.0,181.047,0.476964,-106.777,30.661100000000001,25.646799999999999,46.422699999999999,-53.813899999999997
536.0,184.392,5.9148100000000001,-112.346,21.0871,28.757400000000001,45.843600000000002,-55.390000000000001
537.0,184.441,9.8245900000000006,-109.44799999999999,20.442900000000002,27.128599999999999,46.994799999999998,-56.508899999999997
538.0,182.583,9.8505000000000003,-111.77,8.94557,19.454599999999999,54.755899999999997,-53.304600000000001
539.0,185.376,26.544,-85.421999999999997,25.603200000000001,1.84341,69.009200000000007,-50.4495
540.0,189.98400000000001,111.134,4.27536,93.673000000000002,-16.408899999999999,81.060299999999998,-43.650399999999998
541.0,203.88499999999999,170.42699999999999,50.243099999999998,115.729,-30.8384,90.408299999999997,-33.331200000000003
542.0,208.98099999999999,172.31700000000001,44.313000000000002,94.412700000000001,-38.856299999999997,89.622900000000001,-29.238299999999999
543.0,198.78999999999999,170.75800000000001,36.521599999999999,74.121899999999997,-38.254899999999999,78.421199999999999,-27.638400000000001
544.0,186.64699999999999,160.22999999999999,23.2166,53.321899999999999,-35.654000000000003,65.900800000000004,-28.522200000000002
545.0,175.501,153.078,15.005800000000001,39.3735,-33.212499999999999,53.138800000000003,-30.149000000000001
546.0,168.64599999999999,147.01900000000001,8.3289799999999996,28.003399999999999,-32.591700000000003,42.336199999999998,-31.540900000000001
547.0,153.52000000000001,45.040500000000002,-19.8873,139.99100000000001,18.449300000000001,-31.809699999999999,6.2088000000000001
548.0,153.696,39.931600000000003,-21.387899999999998,141.84999999999999,19.5749,-26.151499999999999,2.8376899999999998
549.0,153.828,37.061199999999999,-20.7776,144.91900000000001,20.2926,-20.073499999999999,-0.78498400000000002
550.0,154.30000000000001,33.484000000000002,-20.613700000000001,146.93100000000001,20.3733,-13.743499999999999,-4.5713800000000004
551.0,155.63900000000001,32.785200000000003,-16.810700000000001,152.42699999999999,19.563199999999998,-7.2507299999999999,-8.3627000000000002
552.0,158.71199999999999,31.180900000000001,-12.3225,159.20699999999999,17.461200000000002,-0.40858100000000003,-11.856400000000001
553.0,164.26400000000001,32.5304,-2.9883899999999999,171.755,13.891999999999999,7.1698700000000004,-14.822900000000001
554.0,173.34899999999999,34.379100000000001,8.8557500000000005,187.91900000000001,8.6629100000000001,16.4817,-16.979700000000001
555.0,185.197,40.5398,25.408300000000001,208.29599999999999,2.3614999999999999,27.689599999999999,-18.8993
556.0,197.71100000000001,48.888100000000001,40.586500000000001,224.87700000000001,-4.0687699999999998,41.783999999999999,-20.819299999999998
557.0,202.00800000000001,65.814499999999995,55.611600000000003,233.84999999999999,-7.6149100000000001,53.801499999999997,-25.133900000000001
558.0,189.547,79.084299999999999,47.723799999999997,209.60900000000001,-4.9667000000000003,60.5822,-30.165299999999998
559.0,175.43600000000001,50.817100000000003,-14.1074,131.20400000000001,2.3903400000000001,60.270699999999998,-36.361899999999999
560.0,168.56100000000001,1.7916000000000001,-86.387,49.764299999999999,11.944900000000001,50.318399999999997,-45.024999999999999
561.0,167.017,6.4722400000000002,-96.6524,33.257599999999996,19.7896,41.599499999999999,-49.7117
562.0,170.30699999999999,11.666600000000001,-102.294,25.2576,22.186299999999999,41.487499999999997,-50.4758
563.0,170.28299999999999,14.1205,-101.917,23.5032,22.613099999999999,41.660499999999999,-50.378500000000003
564.0,167.40899999999999,11.4213,-106.27200000000001,9.6312599999999993,18.639500000000002,46.198599999999999,-48.084200000000003
565.0,168.17099999999999,24.304099999999998,-85.235500000000002,22.001300000000001,5.7078100000000003,57.400399999999998,-46.716099999999997
566.0,170.142,102.34,-0.232539,88.754000000000005,-11.1561,68.402600000000007,-41.736600000000003
567.0,181.72,159.26900000000001,49.0518,111.813,-27.030799999999999,78.619,-32.238900000000001
568.0,191.125,164.34100000000001,47.521999999999998,91.902500000000003,-36.855499999999999,81.187700000000007,-27.372599999999998
569.0,185.23099999999999,164.31299999999999,41.240499999999997,73.670100000000005,-38.034399999999998,72.627300000000005,-25.423100000000002
570.0,174.07599999999999,153.703,26.955100000000002,53.049599999999998,-35.586799999999997,60.889000000000003,-25.444299999999998
571.0,163.08500000000001,146.37700000000001,18.386299999999999,40.584699999999998,-32.907899999999998,48.793900000000001,-26.908300000000001
572.0,155.66200000000001,138.44,9.9301100000000009,29.0792,-31.6554,38.246699999999997,-28.375900000000001
573.0,142.45500000000001,45.4955,-19.719000000000001,130.441,16.1935,-28.3596,5.3435600000000001
574.0,142.43799999999999,43.619399999999999,-18.277100000000001,134.68600000000001,17.193200000000001,-23.274699999999999,2.2822800000000001
575.0,142.32400000000001,40.878599999999999,-17.670200000000001,137.19800000000001,17.7865,-17.882999999999999,-1.0061500000000001
576.0,142.67400000000001,38.8123,-15.8161,140.57599999999999,17.723299999999998,-12.3408,-4.3742900000000002
577.0,143.89500000000001,36.145400000000002,-13.493600000000001,144.38,16.769300000000001,-6.72525,-7.6401599999999998
578.0,147.22999999999999,34.337499999999999,-8.3737200000000005,152.06,14.608599999999999,-0.71428100000000005,-10.3954
579.0,152.97,34.609299999999998,0.94658100000000001,164.77699999999999,11.204700000000001,6.0410599999999999,-12.317600000000001
580.0,162.142,35.665900000000001,12.709899999999999,180.96600000000001,6.5923600000000002,14.789899999999999,-13.276999999999999
581.0,172.28,44.567399999999999,31.1096,202.30199999999999,1.63324,25.0139,-14.2758
582.0,181.465,54.581099999999999,45.458599999999997,216.47800000000001,-3.1492900000000001,38.081699999999998,-16.106400000000001
583.0,181.017,74.626900000000006,59.289700000000003,223.40799999999999,-5.7324799999999998,46.875900000000001,-21.784400000000002
584.0,168.42099999999999,90.027100000000004,51.239199999999997,198.40700000000001,-2.3915099999999998,52.908099999999997,-28.843900000000001
585.0,160.78700000000001,42.548699999999997,-23.438600000000001,109.709,4.70871,53.131399999999999,-36.608699999999999
586.0,155.494,3.03443,-81.9696,44.708599999999997,10.7165,43.267000000000003,-43.637599999999999
587.0,155.14099999999999,9.3234700000000004,-90.545299999999997,32.491100000000003,14.4621,37.793399999999998,-45.942399999999999
588.0,157.89699999999999,15.5989,-92.696899999999999,29.7714,16.252700000000001,38.181399999999996,-45.832299999999996
589.0,157.49000000000001,17.299600000000002,-95.030000000000001,25.224299999999999,17.709499999999998,38.060499999999998,-44.517400000000002
590.0,153.827,15.0693,-98.334800000000001,14.4307,16.262699999999999,38.986800000000002,-42.8994
591.0,151.16800000000001,16.178899999999999,-90.677599999999998,10.039300000000001,8.7279300000000006,46.0593,-42.657299999999999
592.0,152.756,69.956299999999999,-27.039100000000001,55.979900000000001,-4.2360600000000002,57.125599999999999,-41.803899999999999
593.0,160.31399999999999,139.88200000000001,40.170699999999997,100.79600000000001,-20.2638,66.317899999999995,-35.1282
594.0,172.392,157.74299999999999,49.818899999999999,91.147499999999994,-33.120600000000003,71.078999999999994,-28.142299999999999
595.0,172.46700000000001,156.304,43.058900000000001,71.544799999999995,-37.272300000000001,66.741200000000006,-24.522400000000001
596.0,163.06200000000001,150.99299999999999,33.515700000000002,55.899999999999999,-35.532899999999998,56.274000000000001,-23.302099999999999
597.0,152.24299999999999,139.52000000000001,20.706099999999999,40.641800000000003,-32.649900000000002,45.012799999999999,-24.191199999999998
598.0,143.99299999999999,132.67099999999999,13.6912,31.907499999999999,-30.947199999999999,34.545499999999997,-25.5593
599.0,132.477,47.690199999999997,-17.714500000000001,123.539,13.9757,-25.238700000000001,4.5219699999999996
600.0,132.22999999999999,42.780099999999997,-19.5061,123.985,14.8131,-20.699400000000001,1.75847
601.0,131.91999999999999,40.888500000000001,-18.0166,126.91200000000001,15.241,-15.9664,-1.1472899999999999
602.0,132.10499999999999,37.113100000000003,-17.573899999999998,128.53200000000001,15.038500000000001,-11.1767,-4.1140800000000004
603.0,133.453,37.608899999999998,-11.4214,136.21299999999999,14.020899999999999,-6.3420100000000001,-6.7798100000000003
604.0,137.07300000000001,35.371899999999997,-5.7478699999999998,144.654,11.9011,-1.0846199999999999,-8.8218099999999993
605.0,143.56399999999999,38.505800000000001,7.0909300000000002,161.61199999999999,8.8610399999999991,5.1407600000000002,-9.7742299999999993
606.0,152.74799999999999,39.828200000000002,19.055800000000001,178.167,5.15923,13.3324,-9.5924200000000006
607.0,160.11199999999999,48.458199999999998,35.097200000000001,195.44800000000001,2.3613300000000002,22.907699999999998,-9.9367000000000001
608.0,163.62299999999999,54.454599999999999,39.465200000000003,197.25,1.0612900000000001,34.176299999999998,-13.0313
609.0,158.30500000000001,72.283699999999996,45.773299999999999,193.858,3.0641699999999998,40.686,-21.2928
610.0,149.73400000000001,60.377099999999999,11.766999999999999,144.34100000000001,6.6227999999999998,45.3202,-29.622599999999998
611.0,146.27600000000001,7.3784599999999996,-62.364699999999999,61.575699999999998,7.45472,43.240900000000003,-36.694000000000003
612.0,143.79599999999999,0.71438800000000002,-84.297300000000007,35.498100000000001,8.7584199999999992,35.645499999999998,-41.798999999999999
613.0,145.792,17.831299999999999,-79.340500000000006,38.796399999999998,10.3957,34.838700000000003,-42.311700000000002
614.0,146.96700000000001,18.827500000000001,-83.644000000000005,34.384300000000003,11.3308,35.680999999999997,-41.061199999999999
615.0,145.875,21.8933,-85.959000000000003,28.604099999999999,12.9556,35.058500000000002,-39.5289
616.0,143.07599999999999,16.1523,-93.598399999999998,15.523899999999999,13.898,33.275500000000001,-39.127499999999998
617.0,137.529,12.0809,-94.599599999999995,3.4682900000000001,10.1181,34.098300000000002,-39.0852
618.0,136.12100000000001,14.5876,-83.737200000000001,-2.4002300000000001,-0.52057100000000001,43.082799999999999,-39.470599999999997
619.0,142.03399999999999,78.449100000000001,-12.460100000000001,48.0777,-14.9283,54.001199999999997,-37.995399999999997
620.0,152.798,140.56700000000001,42.6813,83.780799999999999,-28.109500000000001,60.226900000000001,-30.807600000000001
621.0,160.15000000000001,151.62299999999999,45.058300000000003,71.625799999999998,-35.548699999999997,60.172899999999998,-24.248699999999999
622.0,153.69,143.84200000000001,35.016399999999997,54.468400000000003,-35.474200000000003,52.558300000000003,-22.012699999999999
623.0,142.298,135.17099999999999,24.673300000000001,42.388800000000003,-32.222299999999997,41.388800000000003,-21.8232
624.0,133.82900000000001,125.136,14.9565,32.059100000000001,-30.5352,31.376899999999999,-23.180399999999999
625.0,123.498,47.687600000000003,-17.766200000000001,115.31100000000001,11.8018,-22.428699999999999,3.72153
626.0,123.086,46.9711,-15.538600000000001,119.294,12.516299999999999,-18.4024,1.31541
627.0,122.64100000000001,44.361800000000002,-14.7384,121.16200000000001,12.8399,-14.2774,-1.23525
628.0,122.72,43.339700000000001,-11.0983,125.727,12.535500000000001,-10.1936,-3.6930000000000001
629.0,124.224,40.067,-7.9953700000000003,130.452,11.450100000000001,-6.0766499999999999,-5.8905399999999997
630.0,128.50299999999999,39.577599999999997,0.25877600000000001,142.095,9.4567200000000007,-1.41727,-7.1182699999999999
631.0,135.64599999999999,39.2453,10.2272,156.684,6.8707799999999999,4.3825500000000002,-7.2742199999999997
632.0,144.65799999999999,43.3142,23.056999999999999,174.52500000000001,4.3267199999999999,12.376799999999999,-6.4642499999999998
633.0,148.637,53.229100000000003,34.679299999999998,186.79400000000001,3.2894600000000001,20.526,-6.71075
634.0,143.63,54.492400000000004,27.173999999999999,171.249,4.9088500000000002,29.5855,-11.006399999999999
635.0,137.14400000000001,26.931999999999999,-15.543200000000001,117.148,8.5563400000000005,34.773800000000001,-19.884599999999999
636.0,133.66800000000001,-5.6804399999999999,-67.869200000000006,56.479599999999998,9.9621700000000004,33.766100000000002,-29.165700000000001
637.0,134.28999999999999,-3.02597,-83.354799999999997,36.020600000000002,8.3722100000000008,30.643899999999999,-36.020200000000003
638.0,136.32499999999999,8.81799,-80.308999999999997,36.318899999999999,7.4835200000000004,29.721399999999999,-39.223599999999998
639.0,136.726,16.373899999999999,-76.699600000000004,37.969000000000001,7.2157999999999998,31.853999999999999,-38.099299999999999
640.0,136.83199999999999,21.611599999999999,-75.332599999999999,37.554600000000001,7.2523400000000002,33.769399999999997,-36.268599999999999
641.0,135.09299999999999,25.3278,-76.852800000000002,32.000700000000002,8.7233099999999997,32.114199999999997,-35.4056
642.0,132.63499999999999,18.1877,-88.609999999999999,15.177199999999999,10.626899999999999,28.210699999999999,-35.460299999999997
643.0,128.80699999999999,13.047000000000001,-93.112899999999996,4.3257099999999999,10.1661,23.498999999999999,-37.436300000000003
644.0,125.34,3.8839299999999999,-99.956800000000001,-15.770899999999999,2.5949200000000001,27.262,-37.9998
645.0,128.26900000000001,23.866099999999999,-67.086100000000002,-0.035727000000000002,-12.346,40.243099999999998,-38.589599999999997
646.0,135.52500000000001,112.836,23.976299999999998,68.903199999999998,-24.7196,49.376100000000001,-33.154200000000003
647.0,147.398,149.88399999999999,49.256599999999999,75.264499999999998,-32.720399999999998,53.431100000000001,-24.252300000000002
648.0,145.27600000000001,137.83500000000001,36.330100000000002,54.237299999999998,-35.065300000000001,49.303600000000003,-20.956700000000001
649.0,133.21299999999999,132.65700000000001,30.091699999999999,45.438800000000001,-31.820499999999999,38.018999999999998,-19.9208
650.0,124.76300000000001,118.697,16.640999999999998,32.610799999999998,-30.165600000000001,28.629100000000001,-21.106300000000001
651.0,115.44199999999999,50.122399999999999,-15.303699999999999,110.264,9.6540999999999997,-19.907599999999999,2.9470200000000002
652.0,114.958,44.985599999999998,-17.5215,109.47,10.207100000000001,-16.373200000000001,0.89930900000000003
653.0,114.20999999999999,44.147100000000002,-14.736700000000001,112.789,10.3858,-12.8443,-1.2154799999999999
654.0,114.386,39.728099999999998,-13.9674,114.499,10.0144,-9.3679199999999998,-3.2323
655.0,115.953,41.787399999999998,-4.6713199999999997,125.37,8.9910200000000007,-5.9486299999999996,-4.7912999999999997
656.0,121.261,38.557000000000002,1.66987,135.97800000000001,7.28512,-1.6223799999999999,-5.5385400000000002
657.0,129.12700000000001,44.956200000000003,17.6557,157.46000000000001,5.3523199999999997,3.75692,-4.8918100000000004
658.0,137.26400000000001,46.427900000000001,25.227499999999999,169.904,4.3125,11.9443,-3.83155
659.0,135.93299999999999,60.165799999999997,32.980899999999998,176.08799999999999,5.5776399999999997,17.9998,-5.2944199999999997
660.0,126.46299999999999,54.144100000000002,5.8798899999999996,139.05500000000001,8.1354799999999994,24.879100000000001,-9.9995700000000003
661.0,125.032,-4.8940700000000001,-75.153899999999993,52.9405,10.0137,25.242999999999999,-18.936199999999999
662.0,125.898,-20.486499999999999,-105.83499999999999,17.227900000000002,10.2942,19.5383,-28.643799999999999
663.0,127.654,4.7430700000000003,-87.072299999999998,29.075199999999999,9.06236,20.869499999999999,-34.089500000000001
664.0,128.839,8.5450999999999997,-81.5428,32.841099999999997,6.8242599999999998,24.974599999999999,-35.088700000000003
665.0,128.03899999999999,23.077400000000001,-66.468400000000003,44.909300000000002,4.8044000000000002,28.934100000000001,-33.482500000000002
666.0,127.631,24.010000000000002,-67.849999999999994,39.908200000000001,4.1364200000000002,31.564800000000002,-32.135199999999998
667.0,125.39100000000001,27.448,-69.733000000000004,33.511699999999998,5.3418900000000002,28.955200000000001,-31.894600000000001
668.0,123.48099999999999,17.105,-86.733599999999996,11.834199999999999,7.3454600000000001,23.0488,-32.808
669.0,121.286,9.7716899999999995,-94.671499999999995,-0.243423,8.6502999999999997,14.8209,-35.889200000000002
670.0,118.63,-5.4168500000000002,-109.581,-24.591000000000001,4.25692,14.404199999999999,-37.308100000000003
671.0,118.152,6.2333400000000001,-85.786699999999996,-12.9655,-9.4163700000000006,26.970600000000001,-38.479100000000003
672.0,122.792,84.812200000000004,0.77760399999999996,50.698399999999999,-22.306100000000001,39.805,-34.025300000000001
673.0,134.75299999999999,138.977,46.117699999999999,72.1601,-30.438400000000001,47.405000000000001,-24.182200000000002
674.0,136.60300000000001,133.28200000000001,38.405099999999997,54.782600000000002,-33.8979,45.8611,-19.896000000000001
675.0,125.31100000000001,126.98399999999999,31.746099999999998,45.259099999999997,-31.581,35.193800000000003,-18.520499999999998
676.0,116.27,113.16200000000001,18.740400000000001,33.610399999999998,-29.732299999999999,25.8873,-19.353000000000002
677.0,108.375,49.6999,-15.5158,103.30200000000001,7.5328999999999997,-17.683499999999999,2.2220399999999998
678.0,107.69199999999999,49.404200000000003,-13.011900000000001,106.76900000000001,7.9851599999999996,-14.5899,0.51277200000000001
679.0,107.003,47.604700000000001,-10.9322,109.324,8.0846999999999998,-11.569000000000001,-1.0669900000000001
680.0,106.87,46.616700000000002,-6.2561999999999998,114.496,7.7262700000000004,-8.7240300000000008,-2.6809099999999999
681.0,109.14700000000001,43.742600000000003,-1.0350200000000001,122.02800000000001,6.7566499999999996,-5.6891999999999996,-3.6467999999999998
682.0,114.878,43.785899999999998,8.8341899999999995,136.46000000000001,5.3244999999999996,-2.08528,-4.0628099999999998
683.0,123.98099999999999,44.6873,18.404499999999999,152.88399999999999,4.28498,4.0588100000000003,-2.9373200000000002
684.0,129.898,51.730899999999998,25.360600000000002,164.91200000000001,3.9016000000000002,10.3186,-2.4727800000000002
685.0,122.736,67.099100000000007,24.532900000000001,158.524,6.8019499999999997,16.424800000000001,-4.2417800000000003
686.0,117.526,32.703299999999999,-36.2226,89.343699999999998,11.8005,20.419899999999998,-9.6736199999999997
687.0,119.46599999999999,-12.7356,-103.298,18.5641,13.7037,14.282400000000001,-18.9816
688.0,121.843,-3.3081200000000002,-103.09999999999999,13.3268,12.4702,10.1884,-26.9117
689.0,121.745,6.8902999999999999,-89.942800000000005,23.349599999999999,8.9013600000000004,14.407400000000001,-30.111599999999999
690.0,120.449,13.1037,-76.3279,35.430500000000002,5.3700299999999999,20.563500000000001,-29.775099999999998
691.0,119.542,20.6995,-65.249300000000005,42.1081,3.0398399999999999,26.238099999999999,-28.9345
692.0,118.90600000000001,23.834299999999999,-63.683999999999997,39.019100000000002,1.8830199999999999,28.6844,-28.522600000000001
693.0,117.02200000000001,27.504999999999999,-65.922899999999998,31.991099999999999,2.5239799999999999,25.276299999999999,-29.3842
694.0,115.937,19.5976,-81.526499999999999,12.505599999999999,4.3212999999999999,17.681000000000001,-31.028500000000001
695.0,115.85599999999999,9.6460899999999992,-93.777699999999996,-1.70347,6.0033599999999998,6.8652899999999999,-34.262099999999997
696.0,114.54600000000001,-5.71645,-108.904,-23.468299999999999,3.4873099999999999,4.0576299999999996,-36.072899999999997
697.0,109.739,1.0741799999999999,-88.194900000000004,-12.956899999999999,-7.2360800000000003,16.511800000000001,-37.213000000000001
698.0,111.355,73.238600000000005,-6.4209300000000002,47.079500000000003,-20.058199999999999,31.8141,-32.712800000000001
699.0,123.94499999999999,129.27799999999999,43.013800000000003,69.9452,-29.357900000000001,41.9754,-23.432700000000001
700.0,127.931,130.13200000000001,41.927900000000001,57.1477,-32.778399999999998,42.386299999999999,-19.0091
701.0,117.816,122.363,33.844900000000003,46.069099999999999,-31.0566,32.519599999999997,-17.432099999999998
702.0,108.643,109.01300000000001,21.778199999999998,35.635199999999998,-29.488700000000001,23.280899999999999,-18.033200000000001
703.0,102.133,50.578699999999998,-14.2515,98.423199999999994,5.4164199999999996,-15.735799999999999,1.46384
704.0,101.23399999999999,48.3643,-13.537000000000001,99.649500000000003,5.7076700000000002,-13.0869,0.25632100000000002
705.0,100.46299999999999,44.244799999999998,-13.281599999999999,100.209,5.7131499999999997,-10.513299999999999,-0.92741300000000004
706.0,100.11799999999999,44.305399999999999,-7.0714199999999998,106.616,5.3971400000000003,-8.2081,-1.8803799999999999
707.0,102.971,41.252400000000002,-1.0788199999999999,115.392,4.6918699999999998,-5.4736900000000004,-2.58778
708.0,109.252,45.680700000000002,13.539300000000001,134.87899999999999,3.8789899999999999,-2.2812199999999998,-2.50135
709.0,119.471,45.1417,19.308199999999999,149.197,3.06996,4.1851000000000003,-1.77285
710.0,121.535,62.6387,29.3812,162.59100000000001,5.1661900000000003,9.2311499999999995,-2.1928800000000002
711.0,113.712,56.466500000000003,-1.9289400000000001,123.624,9.3246400000000005,16.2728,-3.3412099999999998
712.0,112.50700000000001,-6.2726800000000003,-92.326999999999998,27.1996,11.6035,14.122999999999999,-9.1176100000000009
713.0,115.34099999999999,-15.495900000000001,-119.91200000000001,-6.1184799999999999,12.144600000000001,3.9267099999999999,-16.783200000000001
714.0,117.235,-0.10992300000000001,-107.998,2.5855100000000002,10.3367,3.9096799999999998,-21.907
715.0,115.117,6.5275400000000001,-91.412000000000006,19.4633,7.4054599999999997,9.1700700000000008,-24.553799999999999
716.0,112.73,16.609100000000002,-72.099299999999999,35.903700000000001,4.3760599999999998,16.979900000000001,-24.716100000000001
717.0,112.145,23.627300000000002,-60.2654,43.570999999999998,1.7512399999999999,22.8125,-25.147400000000001
718.0,111.676,26.596299999999999,-59.221699999999998,39.258000000000003,0.27661400000000003,24.742899999999999,-25.968299999999999
719.0,110.741,25.346900000000002,-66.419499999999999,27.812999999999999,0.19903799999999999,20.546399999999998,-27.9498
720.0,111.181,15.1089,-85.133799999999994,5.9427599999999998,1.4884599999999999,12.0425,-30.032299999999999
721.0,113.048,3.7025399999999999,-98.6374,-7.8384299999999998,3.3884799999999999,-0.19383800000000001,-33.264800000000001
722.0,112.568,-16.739899999999999,-119.124,-33.7652,1.9159900000000001,-4.4027900000000004,-34.511699999999998
723.0,105.11799999999999,-9.9944600000000001,-97.241799999999998,-18.116800000000001,-6.9964000000000004,8.0948100000000007,-35.293500000000002
724.0,102.246,75.360600000000005,-1.32701,57.396500000000003,-18.388200000000001,23.851299999999998,-31.1296
725.0,114.943,127.005,44.221600000000002,73.5535,-27.916,36.587499999999999,-22.897300000000001
726.0,119.85299999999999,121.773,39.707599999999999,54.963099999999997,-31.7212,39.078099999999999,-18.7014
727.0,110.364,117.82899999999999,35.770899999999997,46.981200000000001,-30.488900000000001,29.5777,-16.6099
728.0,102.035,102.13500000000001,21.325299999999999,34.759399999999999,-29.3782,20.956,-17.119800000000001
729.0,96.480800000000002,51.342300000000002,-12.758900000000001,94.102099999999993,3.3135400000000002,-14.0892,0.76702199999999998
730.0,95.712699999999998,51.030999999999999,-9.9325399999999995,97.479600000000005,3.4935900000000002,-11.8124,0.043848600000000001
731.0,94.605199999999996,50.522799999999997,-5.8536799999999998,101.375,3.4938699999999998,-9.6843400000000006,-0.59789000000000003
732.0,94.451499999999996,48.812399999999997,-0.75234800000000002,106.916,3.3083399999999998,-7.5836699999999997,-1.0135099999999999
733.0,97.117099999999994,47.4527,7.1603599999999998,117.271,2.7262300000000002,-5.5145200000000001,-1.5286900000000001
734.0,104.876,46.787799999999997,16.708400000000001,133.209,1.9773000000000001,-1.81341,-1.21079
735.0,114.431,51.568199999999997,25.939800000000002,150.785,2.0052099999999999,3.26389,-1.50895
736.0,112.39400000000001,57.688200000000002,19.159600000000001,144.16399999999999,3.8684799999999999,9.7859800000000003,-1.4057999999999999
737.0,107.605,22.876999999999999,-46.9116,72.340100000000007,6.4147299999999996,14.948399999999999,-2.3038099999999999
738.0,110.384,-15.4137,-116.267,-2.27719,8.6243999999999996,6.5506000000000002,-7.3919300000000003
739.0,115.655,-5.8635799999999998,-121.76900000000001,-14.200100000000001,10.1151,-2.79156,-13.016999999999999
740.0,114.134,7.4325599999999996,-104.51000000000001,1.7618499999999999,8.8528199999999995,-1.04762,-16.9284
741.0,109.34699999999999,11.352499999999999,-87.397800000000004,19.936699999999998,6.1009900000000004,5.1471600000000004,-19.083400000000001
742.0,106.297,17.345700000000001,-71.069000000000003,33.367800000000003,3.18933,13.324400000000001,-20.375699999999998
743.0,105.667,19.6706,-64.004099999999994,36.2288,0.72601000000000004,18.639399999999998,-22.065200000000001
744.0,106.014,21.070900000000002,-64.7834,30.3279,-1.2982400000000001,19.856000000000002,-24.493500000000001
745.0,106.93300000000001,23.4084,-68.935000000000002,23.154499999999999,-1.98925,14.92,-27.3919
746.0,110.251,13.8536,-87.690200000000004,3.0095700000000001,-1.6437600000000001,5.9155899999999999,-30.081499999999998
747.0,114.667,4.2199299999999997,-100.139,-7.2791699999999997,0.28878599999999999,-6.8699700000000004,-32.576500000000003
748.0,115.696,-15.970599999999999,-120.492,-30.8201,-0.31968200000000002,-12.109299999999999,-33.427199999999999
749.0,106.121,-10.9314,-99.7898,-15.3786,-6.4338600000000001,0.061768999999999998,-34.722499999999997
750.0,97.521100000000004,71.368600000000001,-3.93499,59.086100000000002,-15.526300000000001,17.032499999999999,-31.729500000000002
751.0,106.259,121.40000000000001,42.427399999999999,74.583699999999993,-25.264800000000001,31.541599999999999,-23.524699999999999
752.0,111.931,116.934,39.773099999999999,55.901899999999998,-30.328399999999998,35.437899999999999,-18.548400000000001
753.0,103.755,113.462,37.3339,48.240400000000001,-30.2104,26.753,-16.286100000000001
754.0,95.911699999999996,97.262200000000007,22.246099999999998,35.824300000000001,-29.1599,18.675799999999999,-16.4176
755.0,91.479699999999994,52.806699999999999,-10.007400000000001,91.515900000000002,1.18895,-12.7631,0.18628800000000001
756.0,90.508300000000006,48.280999999999999,-10.7895,90.968599999999995,1.2458400000000001,-10.862,-0.089367199999999994
757.0,89.189499999999995,47.0901,-6.8075099999999997,94.483199999999997,1.2445299999999999,-9.0309200000000001,-0.066045999999999994
758.0,88.933099999999996,43.4681,-2.86287,98.652900000000002,1.13398,-7.2238899999999999,0.0088795300000000001
759.0,91.260300000000001,45.953400000000002,8.95303,112.39,1.3205499999999999,-5.2294200000000002,-0.14822199999999999
760.0,100.441,43.734200000000001,17.171600000000002,128.17099999999999,1.3942099999999999,-1.1887000000000001,-0.32466699999999998
761.0,108.25,54.808100000000003,31.567900000000002,149.42599999999999,1.32185,2.4456799999999999,-1.0590599999999999
762.0,105.17700000000001,64.332300000000004,21.485600000000002,139.642,1.56463,10.282400000000001,-1.0985100000000001
763.0,104.764,21.628699999999998,-57.783700000000003,57.452100000000002,2.9704199999999998,12.9328,-2.0641799999999999
764.0,109.517,-12.2098,-121.934,-14.330399999999999,5.9430500000000004,1.31437,-4.8817899999999996
765.0,115.072,-1.4241699999999999,-122.861,-21.179200000000002,7.3182700000000001,-6.8245300000000002,-8.2254100000000001
766.0,111.59,4.4550400000000003,-109.673,-6.9954499999999999,6.36388,-5.2175099999999999,-11.541399999999999
767.0,105.706,12.8468,-87.992900000000006,15.973000000000001,4.5605099999999998,1.42397,-14.2775
768.0,102.819,16.202400000000001,-74.982100000000003,27.220300000000002,2.05125,8.8696699999999993,-17.150500000000001
769.0,102.26900000000001,23.535299999999999,-63.804000000000002,34.530999999999999,-0.49545,13.193,-20.219799999999999
770.0,103.59699999999999,21.5017,-67.778499999999994,26.441199999999998,-3.1341199999999998,13.460800000000001,-23.965399999999999
771.0,106.498,17.836300000000001,-77.433099999999996,14.6082,-4.7767900000000001,8.7496899999999993,-27.475100000000001
772.0,111.464,5.8138100000000001,-97.175200000000004,-5.4087699999999996,-5.1483499999999998,0.038242199999999997,-30.374300000000002
773.0,116.88,-7.91526,-114.291,-19.7623,-3.1702599999999999,-11.2859,-31.900300000000001
774.0,117.898,-28.637499999999999,-132.84100000000001,-39.378999999999998,-2.8688400000000001,-17.133099999999999,-32.352699999999999
775.0,106.95699999999999,-28.6844,-119.72199999999999,-32.491599999999998,-6.7424799999999996,-6.8437700000000001,-32.696300000000001
776.0,95.335700000000003,36.2241,-39.558500000000002,28.7592,-14.072699999999999,12.226000000000001,-30.623100000000001
777.0,97.320800000000006,103.292,28.9771,67.013900000000007,-22.843499999999999,26.728400000000001,-23.236799999999999
778.0,103.91500000000001,112.699,38.815399999999997,56.418999999999997,-28.7592,31.050599999999999,-17.857299999999999
779.0,98.121799999999993,104.758,33.887599999999999,45.690899999999999,-29.989999999999998,24.563700000000001,-16.270399999999999
780.0,89.956900000000005,92.694000000000003,23.026199999999999,37.304400000000001,-28.8767,16.1248,-15.789199999999999
781.0,86.848600000000005,51.789900000000003,-8.7892799999999998,87.610600000000005,-0.87930900000000001,-11.792199999999999,-0.28737400000000002
782.0,85.704099999999997,53.142499999999998,-3.2970999999999999,93.061499999999995,-0.86223700000000003,-10.1816,0.016845700000000002
783.0,84.396799999999999,52.026499999999999,1.2376199999999999,97.137600000000006,-0.82451099999999999,-8.4461700000000004,0.60682599999999998
784.0,84.016999999999996,52.327500000000001,9.1971100000000003,105.01300000000001,-0.65989699999999996,-6.9558400000000002,1.16658
785.0,85.831199999999995,49.176299999999998,16.382300000000001,113.32299999999999,-0.39482499999999998,-4.6582699999999999,1.5949500000000001
786.0,94.6785,39.799999999999997,18.6127,122.06699999999999,-0.14465600000000001,-0.96745400000000004,0.65912700000000002
787.0,102.02800000000001,55.3108,36.463299999999997,146.51499999999999,0.097435900000000006,2.37792,-0.29706199999999999
788.0,97.909300000000002,61.656300000000002,23.105599999999999,132.661,0.069539199999999995,10.2966,-1.00674
789.0,96.599900000000005,15.839700000000001,-59.729500000000002,45.865600000000001,0.66381599999999996,12.1456,-1.45862
790.0,105.075,-9.0266900000000003,-118.38500000000001,-18.546199999999999,2.5314800000000002,-0.57469300000000001,-1.9833799999999999
791.0,114.678,0.28988000000000003,-123.712,-26.5396,3.9796800000000001,-9.8650699999999993,-3.7515999999999998
792.0,112.20999999999999,10.7242,-107.563,-7.4707499999999998,4.0314800000000002,-8.7981300000000005,-6.8153199999999998
793.0,105.812,12.769600000000001,-92.913200000000003,9.2526600000000006,2.5989,-2.7569900000000001,-10.7006
794.0,102.273,16.580500000000001,-80.078000000000003,20.869299999999999,0.44345899999999999,3.6004700000000001,-14.6578
795.0,101.36199999999999,11.8848,-80.570400000000006,16.789200000000001,-2.2855300000000001,7.1656899999999997,-18.965900000000001
796.0,102.858,13.0724,-79.729699999999994,13.806900000000001,-5.3853,6.7846299999999999,-23.619599999999998
797.0,107.34099999999999,9.4809599999999996,-87.811800000000005,4.2724299999999999,-8.2696199999999997,3.1255099999999998,-27.696999999999999
798.0,112.93000000000001,5.9789899999999996,-97.181299999999993,-3.8695599999999999,-9.85886,-4.5138199999999999,-29.873699999999999
799.0,118.511,-8.3662200000000002,-116.06399999999999,-19.097300000000001,-9.2353900000000007,-13.6873,-29.8264
800.0,119.315,-18.551500000000001,-122.76300000000001,-23.545300000000001,-7.8341700000000003,-19.7286,-28.981200000000001
801.0,107.235,-31.0138,-125.139,-34.3155,-8.7319800000000001,-11.335800000000001,-27.8414
802.0,92.958200000000005,3.6182799999999999,-72.724400000000003,0.36301,-13.7852,9.4650599999999994,-27.154299999999999
803.0,89.045900000000003,88.806899999999999,19.812000000000001,63.028399999999998,-20.9087,22.5868,-21.916
804.0,96.182599999999994,113.17700000000001,42.201799999999999,61.311799999999998,-27.174099999999999,26.6553,-16.910499999999999
805.0,92.425799999999995,95.790800000000004,29.770600000000002,43.412199999999999,-29.3611,22.620100000000001,-16.095199999999998
806.0,84.444199999999995,90.659199999999998,26.270800000000001,41.332999999999998,-28.7468,13.581899999999999,-15.2247
807.0,82.401700000000005,53.390500000000003,-3.9203100000000002,87.394400000000005,-2.8644599999999998,-11.1812,-0.509737
808.0,80.920299999999997,49.625100000000003,-2.5879699999999999,88.265600000000006,-2.8488699999999998,-9.7707999999999995,0.41237800000000002
809.0,79.393500000000003,47.195999999999998,1.59352,91.592600000000004,-2.66797,-8.1453000000000007,1.6016900000000001
810.0,78.598500000000001,45.373600000000003,7.8476999999999997,97.031499999999994,-2.1544400000000001,-6.5179,2.65334
811.0,81.104299999999995,46.444800000000001,18.436699999999998,109.20399999999999,-1.7982800000000001,-4.2063100000000002,3.3787799999999999
812.0,88.2136,48.543599999999998,30.520099999999999,126.22199999999999,-1.52773,-1.04122,2.0512800000000002
813.0,95.8459,55.445900000000002,40.799199999999999,142.899,-0.79659100000000005,3.6942300000000001,0.193273
814.0,92.067700000000002,72.490499999999997,40.029200000000003,142.53200000000001,-2.2064300000000001,8.6632800000000003,-1.09449
815.0,89.371099999999998,43.100000000000001,-27.819199999999999,69.123999999999995,-4.5866499999999997,11.119199999999999,-0.50864600000000004
816.0,101.182,-4.3973599999999999,-111.36,-17.379899999999999,-2.3603999999999998,-0.068604399999999996,0.14500199999999999
817.0,115.134,-1.7896000000000001,-127.15900000000001,-32.800899999999999,0.51554100000000003,-12.4292,-0.363848
818.0,115.209,7.9341999999999997,-115.971,-18.0549,0.83750199999999997,-12.078799999999999,-2.9207000000000001
819.0,109.402,9.4560899999999997,-103.279,-1.28945,-0.0222528,-7.3562700000000003,-8.0223200000000006
820.0,105.979,13.440200000000001,-91.864500000000007,9.6355799999999991,-2.0708700000000002,-2.5248300000000001,-12.866400000000001
821.0,105.324,15.2905,-85.712299999999999,13.4062,-5.1641700000000004,0.067577700000000004,-18.242100000000001
822.0,105.468,12.4557,-85.539900000000003,9.8972800000000003,-8.6345100000000006,0.136541,-22.6633
823.0,106.422,2.5189499999999998,-93.294700000000006,-2.0367600000000001,-12.327,-0.92926200000000003,-26.4742
824.0,107.74299999999999,-5.46272,-101.851,-12.816000000000001,-13.520899999999999,-4.1464800000000004,-28.1218
825.0,107.39100000000001,-21.7773,-118.193,-30.537800000000001,-12.266299999999999,-9.5909600000000008,-27.5532
826.0,104.233,-35.329300000000003,-126.92,-40.008299999999998,-9.6535499999999992,-14.0656,-25.879100000000001
827.0,93.876300000000001,-43.3429,-127.486,-46.461599999999997,-9.9804999999999993,-7.4228100000000001,-22.5183
828.0,83.655100000000004,-5.1546500000000002,-74.838300000000004,-6.07639,-14.896000000000001,9.66493,-20.492599999999999
829.0,81.559799999999996,80.913399999999996,17.172599999999999,60.054499999999997,-20.4298,20.241399999999999,-18.278300000000002
830.0,88.294300000000007,103.935,37.9758,58.195300000000003,-25.621300000000002,23.4849,-15.77
831.0,85.768699999999995,88.583100000000002,27.561399999999999,42.8598,-28.393799999999999,20.008299999999998,-15.4109
832.0,79.961200000000005,83.982200000000006,24.672699999999999,40.825299999999999,-28.9678,11.592000000000001,-14.7507
833.0,77.940700000000007,51.899500000000003,-0.78938600000000003,85.311800000000005,-4.6144400000000001,-10.9163,-0.37736700000000001
834.0,76.367999999999995,55.872700000000002,8.7395700000000005,94.184600000000003,-4.54251,-9.51023,1.11612
835.0,75.004300000000001,53.829799999999999,13.3157,97.888099999999994,-4.2154600000000002,-7.7756600000000002,2.7957999999999998
836.0,74.198300000000003,57.700499999999998,24.357199999999999,107.89100000000001,-3.5913200000000001,-5.9347500000000002,4.3440099999999999
837.0,76.583100000000002,51.429699999999997,27.239999999999998,112.113,-2.2482099999999998,-3.3994399999999998,5.1539000000000001
838.0,81.021799999999999,57.231299999999997,41.4968,128.94499999999999,-0.67055799999999999,-0.86931199999999997,3.74946
839.0,89.036100000000005,54.229900000000001,42.256300000000003,136.18899999999999,-0.48805100000000001,5.2424099999999996,0.86043000000000003
840.0,86.6404,69.093199999999996,42.5989,138.434,-1.6076600000000001,6.8747299999999996,-1.80349
841.0,82.964799999999997,67.701099999999997,1.2859100000000001,90.755899999999997,-4.9290799999999999,10.4838,-1.5110399999999999
842.0,98.976299999999995,7.1154999999999999,-97.803299999999993,-7.5437000000000003,-5.8345000000000002,1.65574,0.61758299999999999
843.0,116.404,-7.71143,-134.13399999999999,-41.210099999999997,-3.7978299999999998,-14.457000000000001,1.8
844.0,120.21599999999999,12.0199,-118.32899999999999,-21.647099999999998,-3.3411,-15.079800000000001,-0.21651799999999999
845.0,115.526,5.0241199999999999,-115.75,-12.747999999999999,-4.00481,-12.167,-5.7177499999999997
846.0,111.035,9.8841800000000006,-103.22,-0.97317699999999996,-5.6090900000000001,-8.0563699999999994,-10.909599999999999
847.0,107.423,-3.9967000000000001,-108.98099999999999,-10.116199999999999,-8.2533499999999993,-5.6367500000000001,-16.565799999999999
848.0,104.622,-3.14588,-100.994,-7.2417899999999999,-11.677300000000001,-3.6223200000000002,-20.872199999999999
849.0,100.054,1.1388,-86.359300000000005,1.3081700000000001,-15.3843,-0.998583,-23.2883
850.0,92.745999999999995,0.32129200000000002,-78.778899999999993,-0.94727399999999995,-18.106999999999999,1.66011,-21.998899999999999
851.0,84.734300000000005,-5.9036299999999997,-78.344700000000003,-8.3977599999999999,-19.023,0.92469199999999996,-18.4252
852.0,78.363399999999999,-11.499599999999999,-80.423000000000002,-13.573600000000001,-17.562200000000001,-1.8935299999999999,-14.059200000000001
853.0,74.391900000000007,-8.1353000000000009,-73.967100000000002,-8.51098,-16.173100000000002,2.0557300000000001,-11.937900000000001
854.0,72.463800000000006,40.905500000000004,-18.8324,39.072200000000002,-16.870699999999999,11.738300000000001,-13.1822
855.0,74.864199999999997,86.753299999999996,27.8645,65.1113,-19.930399999999999,19.338000000000001,-14.4834
856.0,80.066699999999997,93.611099999999993,35.546199999999999,55.678699999999999,-24.4663,21.277100000000001,-14.706899999999999
857.0,78.772300000000001,85.607500000000002,30.1892,46.148600000000002,-27.604900000000001,16.757999999999999,-14.549300000000001
858.0,76.043400000000005,77.234899999999996,23.081,40.007100000000001,-29.1815,10.3809,-14.1669
859.0,73.628399999999999,54.488199999999999,7.3710500000000003,88.320400000000006,-6.0911400000000002,-10.8157,0.24022399999999999
860.0,71.607399999999998,51.568100000000001,10.9946,90.562799999999996,-5.7671900000000003,-9.3703000000000003,2.2717100000000001
861.0,70.263800000000003,48.031799999999997,14.389099999999999,92.7958,-5.0484900000000001,-7.3456999999999999,4.3605999999999998
862.0,69.279200000000003,48.395000000000003,20.6891,97.629199999999997,-4.0371199999999998,-5.3136099999999997,6.0637400000000001
863.0,71.354900000000001,48.4831,26.941199999999998,105.34,-3.1352099999999998,-2.36972,6.4205199999999998
864.0,74.103800000000007,57.3093,40.257100000000001,120.736,-2.2856999999999998,-0.53112999999999999,5.1516500000000001
865.0,81.039199999999994,56.205599999999997,40.173699999999997,127.39,-2.2948,5.3122600000000002,0.68371300000000002
866.0,82.556600000000003,81.844899999999996,52.098799999999997,144.46600000000001,-3.5718200000000002,5.1172300000000002,-3.1554000000000002
867.0,80.831299999999999,80.744699999999995,14.73,101.015,-6.9704300000000003,9.2714700000000008,-2.7782499999999999
868.0,97.515000000000001,5.5368199999999996,-97.294700000000006,-9.2433599999999991,-8.5218399999999992,2.47437,0.115414
869.0,117.474,-8.8844700000000003,-135.61600000000001,-43.4604,-8.1097099999999998,-15.3246,2.8119700000000001
870.0,123.95699999999999,2.6778,-131.38499999999999,-35.819499999999998,-8.1869700000000005,-16.969799999999999,1.4776100000000001
871.0,119.95999999999999,0.070142700000000002,-125.43899999999999,-22.7012,-7.9814600000000002,-15.8157,-3.4527899999999998
872.0,115.035,1.0649,-116.563,-14.409599999999999,-10.0093,-12.1265,-8.8657500000000002
873.0,109.78400000000001,5.90212,-101.122,-1.2135800000000001,-12.504099999999999,-9.9306900000000002,-13.469799999999999
874.0,100.178,-3.3503400000000001,-97.664699999999996,-7.6070399999999996,-14.4916,-4.1302599999999998,-16.7591
875.0,87.943799999999996,-1.68499,-73.988699999999994,6.6668099999999999,-16.011199999999999,3.8272300000000001,-18.4358
876.0,77.562700000000007,41.4557,-16.708500000000001,48.122100000000003,-19.719200000000001,9.6861499999999996,-15.84
877.0,72.289900000000003,62.582799999999999,9.2941000000000003,62.1036,-21.644500000000001,12.908200000000001,-12.9887
878.0,65.851500000000001,63.541800000000002,12.3268,61.943399999999997,-19.524100000000001,10.525399999999999,-10.2767
879.0,61.697299999999998,67.185100000000006,16.945599999999999,62.203800000000001,-17.136900000000001,10.930999999999999,-9.4607399999999995
880.0,61.696199999999997,74.291200000000003,26.984200000000001,65.382099999999994,-15.9092,15.8497,-11.512600000000001
881.0,67.302000000000007,85.385400000000004,35.847299999999997,62.4589,-19.027699999999999,19.321899999999999,-12.642300000000001
882.0,72.5946,80.869,31.299800000000001,49.811799999999998,-24.171900000000001,18.907599999999999,-13.6928
883.0,72.775599999999997,79.578500000000005,30.340800000000002,46.445,-27.424099999999999,13.867000000000001,-13.8131
884.0,72.197400000000002,70.973799999999997,21.8749,39.355499999999999,-29.219000000000001,9.3780099999999997,-13.284000000000001
885.0,69.376300000000001,53.232700000000001,12.5969,88.222999999999999,-7.2264799999999996,-10.863300000000001,1.2833000000000001
886.0,67.402199999999993,60.1083,25.325800000000001,99.389700000000005,-6.8915499999999996,-8.9727599999999992,3.6460900000000001
887.0,66.592100000000002,59.256599999999999,28.6965,102.274,-6.3803700000000001,-6.5288599999999999,5.3358100000000004
888.0,66.206100000000006,66.543499999999995,37.801200000000001,111.02,-5.7569699999999999,-4.1126800000000001,7.0825399999999998
889.0,67.090199999999996,58.948,31.550999999999998,106.38,-3.9237199999999999,-1.0747,7.1077899999999996
890.0,68.253900000000002,64.429100000000005,35.841500000000003,112.93899999999999,-2.3010700000000002,0.26823900000000001,5.3290499999999996
891.0,73.908600000000007,58.914000000000001,29.234000000000002,112.744,-1.8748400000000001,4.98651,-0.59447700000000003
892.0,79.002399999999994,52.658200000000001,15.4124,105.312,-1.3123400000000001,4.3612700000000002,-4.4076500000000003
893.0,76.692700000000002,48.677100000000003,-13.0055,69.508200000000002,-5.9157900000000003,8.3008000000000006,-3.9362900000000001
894.0,89.932699999999997,-5.2834399999999997,-97.162400000000005,-14.9887,-11.667899999999999,3.2177799999999999,-1.18022
895.0,110.98999999999999,-17.7881,-135.518,-47.735399999999998,-13.1015,-13.367699999999999,3.4839199999999999
896.0,121.11,1.2090799999999999,-127.443,-35.6616,-14.163399999999999,-16.994,3.27074
897.0,118.211,-7.0159399999999996,-128.84200000000001,-29.7074,-13.764799999999999,-16.467099999999999,0.112554
898.0,108.75700000000001,-6.7513399999999999,-116.36499999999999,-19.677099999999999,-13.5647,-12.0953,-4.8930899999999999
899.0,95.6417,-22.934899999999999,-115.523,-26.1051,-12.4047,-6.78104,-9.2863100000000003
900.0,81.264799999999994,-23.270499999999998,-97.304500000000004,-21.038399999999999,-13.411300000000001,2.5666199999999999,-11.4506
901.0,72.076999999999998,9.6803399999999993,-39.982700000000001,26.317900000000002,-14.8683,12.5411,-12.7874
902.0,65.456199999999995,90.144099999999995,53.117699999999999,99.817800000000005,-15.229100000000001,20.037199999999999,-13.6815
903.0,65.058199999999999,107.72199999999999,74.887900000000002,103.877,-14.9041,25.699000000000002,-14.355499999999999
904.0,58.546700000000001,100.506,71.837400000000002,93.840999999999994,-13.436199999999999,23.353200000000001,-13.8415
905.0,53.587600000000002,96.373999999999995,65.781599999999997,83.957700000000003,-13.5268,19.8049,-12.0526
906.0,56.083500000000001,83.009699999999995,49.102499999999999,68.275899999999993,-15.5624,19.819500000000001,-11.152699999999999
907.0,61.499000000000002,82.365700000000004,43.310000000000002,61.124499999999998,-19.720400000000001,18.598400000000002,-11.9833
908.0,66.481800000000007,77.718000000000004,35.658900000000003,52.041200000000003,-24.276399999999999,16.110700000000001,-13.2263
909.0,68.0732,73.497600000000006,30.662299999999998,46.3613,-27.538799999999998,11.933199999999999,-13.2004
910.0,67.983699999999999,68.801900000000003,25.372900000000001,41.578299999999999,-28.896599999999999,8.7523099999999996,-12.138400000000001
911.0,65.633700000000005,58.451500000000003,23.259,94.223399999999998,-7.8983999999999996,-10.3292,2.7989000000000002
912.0,63.376899999999999,54.432600000000001,24.346900000000002,93.451499999999996,-7.1158200000000003,-7.7831400000000004,5.2109699999999997
913.0,61.545699999999997,53.442,24.3492,92.174099999999996,-6.1817000000000002,-5.3348800000000001,6.17692
914.0,62.3247,50.792000000000002,18.944400000000002,88.403999999999996,-5.8904899999999998,-2.2339099999999998,6.7950100000000004
915.0,64.075500000000005,57.314999999999998,19.981100000000001,91.219800000000006,-7.7912600000000003,-1.3353699999999999,6.0290900000000001
916.0,66.667400000000001,63.342399999999998,19.1585,92.832099999999997,-9.5872700000000002,1.2232799999999999,3.6276000000000002
917.0,72.544300000000007,33.956699999999998,-9.2848299999999995,72.812899999999999,-7.4281100000000002,3.4843600000000001,-0.54296500000000003
918.0,74.508799999999994,33.7851,-5.8567099999999996,78.823999999999998,-6.8606600000000002,1.7476799999999999,-2.2945600000000002
919.0,72.480099999999993,44.5306,-6.7951199999999998,70.794300000000007,-11.2074,7.4624899999999998,-3.5292400000000002
920.0,80.888000000000005,5.3009700000000004,-70.839200000000005,5.9849500000000004,-14.635199999999999,3.82057,-1.4875100000000001
921.0,97.045400000000001,-15.1753,-116.00700000000001,-35.951799999999999,-15.021100000000001,-8.2497199999999999,3.3153299999999999
922.0,106.81,-12.027100000000001,-124.03100000000001,-40.145000000000003,-14.280799999999999,-13.7942,3.6260400000000002
923.0,104.384,-15.763299999999999,-123.59,-34.873600000000003,-12.9953,-12.2722,1.4675
924.0,92.870500000000007,-10.6737,-101.574,-14.6043,-13.195,-7.6250499999999999,-1.53691
925.0,78.432900000000004,11.4741,-59.569099999999999,17.0715,-14.8498,-0.055784,-2.16337
926.0,68.294499999999999,21.9163,-30.578600000000002,33.9131,-15.2948,11.133699999999999,-4.5115299999999996
927.0,63.443399999999997,57.384700000000002,24.1707,76.272199999999998,-12.3262,20.615200000000002,-8.3079400000000003
928.0,63.560000000000002,92.728200000000001,70.869600000000005,100.773,-10.6775,29.3001,-11.6046
929.0,66.711100000000002,91.327200000000005,76.262299999999996,88.848299999999995,-11.6425,33.518900000000002,-12.6152
930.0,61.330100000000002,81.500699999999995,68.125100000000003,73.358500000000006,-13.4503,29.8508,-11.6782
931.0,55.231099999999998,77.140799999999999,59.431699999999999,64.363900000000001,-14.9186,24.188300000000002,-11.2095
932.0,54.393999999999998,76.106800000000007,50.942399999999999,60.576900000000002,-16.991199999999999,20.031700000000001,-11.621499999999999
933.0,58.194400000000002,72.234800000000007,40.7727,53.912399999999998,-21.027999999999999,16.6143,-12.6866
934.0,62.124699999999997,69.036299999999997,33.731999999999999,48.4846,-24.9283,13.4443,-13.035399999999999
935.0,64.333100000000002,67.604200000000006,30.310600000000001,45.5869,-27.5853,10.5404,-12.4918
936.0,64.126199999999997,67.312899999999999,28.880299999999998,43.6374,-28.357800000000001,8.3483400000000003,-10.9986
937.0,62.492699999999999,60.012500000000003,28.839300000000001,94.858599999999996,-9.5955200000000005,-10.039099999999999,4.2614200000000002
938.0,60.690399999999997,64.2898,33.0137,98.093699999999998,-10.0434,-6.2358500000000001,5.3511899999999999
939.0,60.872100000000003,75.751499999999993,37.616700000000002,102.59399999999999,-11.5482,-3.8259300000000001,4.5811099999999998
940.0,67.623500000000007,74.535399999999996,25.361699999999999,96.624099999999999,-13.411899999999999,-0.18914900000000001,3.6987899999999998
941.0,74.386600000000001,81.063999999999993,15.522500000000001,90.519099999999995,-12.795299999999999,-0.233239,3.5237799999999999
942.0,79.254099999999994,58.985900000000001,-16.219000000000001,62.159199999999998,-9.8930799999999994,5.0526900000000001,1.47173
943.0,78.613,9.5109700000000004,-54.162300000000002,31.665199999999999,-8.5023099999999996,1.56938,0.084548300000000007
944.0,73.989800000000002,47.628500000000003,0.52580000000000005,82.609099999999998,-11.3131,-0.25478800000000001,-0.340559
945.0,71.420299999999997,65.656099999999995,22.675799999999999,96.759900000000002,-14.3666,10.0585,-2.9741599999999999
946.0,68.238500000000002,27.304500000000001,-23.5791,44.146900000000002,-15.992800000000001,7.2858200000000002,-0.20161499999999999
947.0,71.8476,-2.6970900000000002,-68.263599999999997,-5.4680099999999996,-17.971599999999999,0.75312900000000005,4.7073700000000001
948.0,76.501499999999993,-17.4209,-88.988900000000001,-23.8415,-17.626799999999999,-4.7931499999999998,7.0176999999999996
949.0,74.609999999999999,-21.222999999999999,-89.489500000000007,-22.852799999999998,-16.8187,-2.5209199999999998,7.0060500000000001
950.0,69.285700000000006,-1.75729,-57.429900000000004,11.959099999999999,-14.976100000000001,1.95401,4.6546500000000002
951.0,63.096699999999998,45.975999999999999,0.40487699999999999,63.6387,-13.2682,9.0666600000000006,2.06793
952.0,60.516100000000002,70.688000000000002,36.072600000000001,88.192700000000002,-11.103999999999999,19.716699999999999,-2.2718600000000002
953.0,61.056100000000001,81.4131,60.300400000000003,99.635000000000005,-7.7323000000000004,27.476900000000001,-6.3517999999999999
954.0,64.299899999999994,93.340999999999994,78.727599999999995,101.86199999999999,-8.0720399999999994,32.904800000000002,-9.6636900000000008
955.0,64.7834,93.026899999999998,80.990499999999997,93.194100000000006,-10.571199999999999,32.965899999999998,-12.3081
956.0,59.447800000000001,94.931700000000006,80.964799999999997,87.858699999999999,-13.390000000000001,27.7164,-13.4816
957.0,54.882100000000001,84.200800000000001,66.959199999999996,73.946100000000001,-16.3354,21.9039,-13.4975
958.0,53.558100000000003,75.749200000000002,54.001899999999999,63.792900000000003,-19.2989,17.123100000000001,-13.1104
959.0,56.281199999999998,69.035499999999999,42.395499999999998,55.794899999999998,-22.691700000000001,13.845700000000001,-13.107799999999999
960.0,59.429299999999998,67.079899999999995,37.0702,52.048900000000003,-25.658000000000001,11.402699999999999,-12.797700000000001
961.0,60.731499999999997,64.734899999999996,32.784399999999998,46.944200000000002,-27.184200000000001,10.032400000000001,-11.5542
962.0,59.610399999999998,66.703699999999998,33.865400000000001,45.203899999999997,-27.0822,9.1111500000000003,-9.4771199999999993
963.0,4237.3999999999996,3043.7600000000002,1136.3699999999999,3670.2800000000002,-1948.2,-194.36199999999999,-640.34000000000003
964.0,4290.2200000000003,3083.3000000000002,1153.8199999999999,3714.8699999999999,-1998.5599999999999,-165.32499999999999,-577.61000000000001
965.0,4345.3999999999996,3142.5300000000002,1180.6800000000001,3767.6100000000001,-2047.3800000000001,-136.15899999999999,-511.79300000000001
966.0,4400.4799999999996,3201.2800000000002,1197.6300000000001,3806.8400000000001,-2093.5900000000001,-108.95,-441.41199999999998
967.0,4454.7600000000002,3276.5700000000002,1222.74,3850.8699999999999,-2136.4000000000001,-84.686199999999999,-366.62400000000002
968.0,4507.0799999999999,3348.2199999999998,1236.54,3879.8899999999999,-2174.77,-65.153099999999995,-287.23099999999999
969.0,4556.5799999999999,3434.6999999999998,1258.53,3914.1599999999999,-2207.6700000000001,-51.649500000000003,-203.28
970.0,4602.3199999999997,3514.0300000000002,1268.3199999999999,3934.1300000000001,-2234.0100000000002,-45.744399999999999,-114.869
971.0,4643.4499999999998,3603.2800000000002,1284.97,3960.2800000000002,-2252.6599999999999,-48.487099999999998,-22.289200000000001
972.0,4679.1499999999996,3680.1399999999999,1288.54,3974.4499999999998,-2262.5,-60.803199999999997,73.969700000000003
973.0,4708.7600000000002,3761.0700000000002,1298.1800000000001,3997.9499999999998,-2262.48,-82.910200000000003,173.20099999999999
974.0,4731.6300000000001,3822.4499999999998,1293.2,4012.5900000000001,-2251.5599999999999,-114.584,274.56700000000001
975.0,4747.3000000000002,3881.1700000000001,1292.3299999999999,4040.1300000000001,-2228.6300000000001,-154.874,376.64499999999998
976.0,4755.5200000000004,3918.3800000000001,1280.02,4067.6500000000001,-2193.2199999999998,-202.19900000000001,477.70100000000002
977.0,4756.4700000000003,3943.5300000000002,1269.3499999999999,4110.2600000000002,-2145.3600000000001,-253.63200000000001,576.88
978.0,4750.4499999999998,3939.6399999999999,1244.74,4153.8699999999999,-2085.2600000000002,-305.45299999999997,672.36900000000003
979.0,4737.0200000000004,3921.4299999999998,1221.46,4214.1499999999996,-2012.8900000000001,-353.80200000000002,762.21000000000004
980.0,4717.6400000000003,3875.7600000000002,1185.8800000000001,4278.5699999999997,-1929.52,-394.33699999999999,844.42700000000002
981.0,4692.54,3818.29,1152.7,4358.9099999999999,-1836.3299999999999,-423.19900000000001,917.89200000000005
982.0,4665.5299999999997,3737.23,1105.1700000000001,4438.5900000000001,-1736.49,-435.154,981.03599999999994
983.0,4632.3699999999999,3655.2199999999998,1067.6300000000001,4531.9399999999996,-1630.3,-429.80700000000002,1032.51
984.0,4605.6599999999999,3549.5700000000002,988.19500000000005,4596.21,-1517.03,-399.18299999999999,1079.04
985.0,4596.1199999999999,3421.6300000000001,875.15499999999997,4636.4499999999998,-1418.46,-341.99900000000002,1108.0899999999999
986.0,4579.6400000000003,3323.9299999999998,802.654,4698.1199999999999,-1328.01,-269.06200000000001,1118.8
987.0,4556.5600000000004,3306.7600000000002,792.50199999999995,4799.5100000000002,-1233.51,-181.13900000000001,1124.9100000000001
988.0,4540.9799999999996,3324.8000000000002,784.70899999999995,4888.9399999999996,-1141.25,-77.744500000000002,1128.9200000000001
989.0,3020.7199999999998,1609.3299999999999,665.39999999999998,2690.77,-1303.2,-388.83999999999997,-406.149
990.0,3076.5999999999999,1652.96,705.95899999999995,2789.4899999999998,-1348.1700000000001,-331.84699999999998,-373.08499999999998
991.0,3137.0300000000002,1676.6900000000001,716.63999999999999,2855.3800000000001,-1394.1900000000001,-272.952,-338.43200000000002
992.0,3196.9200000000001,1736.52,753.67499999999995,2939.4299999999998,-1440.01,-211.94,-299.69799999999998
993.0,3257.6199999999999,1781.46,765.11300000000006,2991.3800000000001,-1485.3900000000001,-151.01900000000001,-256.89800000000002
994.0,3317.1500000000001,1861.26,801.05600000000004,3060.04,-1529.0999999999999,-91.679299999999998,-209.59999999999999
995.0,3375.2199999999998,1924.29,810.38300000000004,3094.9499999999998,-1570.4300000000001,-35.590800000000002,-157.453
996.0,3430.6100000000001,2019.8199999999999,843.21900000000005,3146.4699999999998,-1608.1900000000001,15.598800000000001,-100.42400000000001
997.0,3482.5900000000001,2095.8299999999999,848.91300000000001,3164.9200000000001,-1641.3599999999999,60.453299999999999,-38.456099999999999
998.0,3530.0999999999999,2200.54,877.28499999999997,3201.27,-1668.73,97.730699999999999,28.136399999999998
999.0,3572.4200000000001,2280.5700000000002,877.07600000000002,3205.8000000000002,-1689.21,126.595,98.977699999999999
1000.0,3608.6999999999998,2384.71,899.18700000000001,3231.2399999999998,-1701.6800000000001,146.64400000000001,173.25200000000001
1001.0,3638.4200000000001,2458.9499999999998,892.404,3228.27,-1705.3099999999999,158.11699999999999,250.19300000000001
1002.0,3661.29,2547.3899999999999,902.95799999999997,3245.0799999999999,-1699.4200000000001,161.78999999999999,328.70400000000001
1003.0,3676.6700000000001,2603.75,886.25599999999997,3238.75,-1683.3199999999999,159.191,407.24799999999999
1004.0,3684.4499999999998,2673.2800000000002,889.24400000000003,3258.3499999999999,-1656.5999999999999,152.10400000000001,484.38600000000002
1005.0,3685.0500000000002,2706.9899999999998,864.26599999999996,3256.7399999999998,-1619.6300000000001,142.624,559.18299999999999
1006.0,3679.2399999999998,2748.46,855.04200000000003,3277.5999999999999,-1573.3299999999999,133.50399999999999,629.89200000000005
1007.0,3665.8299999999999,2756.5599999999999,820.78499999999997,3278.6399999999999,-1517.6199999999999,126.834,695.25900000000001
1008.0,3648.3000000000002,2773.6300000000001,800.65899999999999,3299.6100000000001,-1454.8399999999999,125.685,754.10000000000002
1009.0,3622.0,2762.0300000000002,761.46699999999998,3300.3499999999999,-1384.9400000000001,129.30500000000001,805.30600000000004
1010.0,3598.6599999999999,2751.9299999999998,708.04700000000003,3295.46,-1306.3699999999999,143.06100000000001,853.49900000000002
1011.0,3586.1199999999999,2698.1999999999998,607.31700000000001,3245.8600000000001,-1238.73,167.911,886.096
1012.0,3556.4899999999998,2713.7199999999998,598.15999999999997,3263.48,-1173.3499999999999,193.82599999999999,906.41700000000003
1013.0,3522.8499999999999,2745.4699999999998,589.85500000000002,3272.48,-1096.1800000000001,222.58199999999999,930.34400000000005
1014.0,3507.0799999999999,2778.0999999999999,556.43200000000002,3259.02,-1023.75,258.26600000000002,952.15200000000004
1015.0,2059.1799999999998,658.47199999999998,279.74700000000001,1871.0799999999999,-693.29899999999998,-448.02699999999999,-202.44499999999999
1016.0,2106.6199999999999,672.82500000000005,311.279,1970.1800000000001,-730.596,-381.51100000000002,-197.45699999999999
1017.0,2159.3400000000001,678.62099999999998,323.31999999999999,2045.77,-770.39400000000001,-311.70999999999998,-191.184
1018.0,2211.8200000000002,714.40999999999997,355.48899999999998,2132.4499999999998,-811.49000000000001,-237.62100000000001,-181.251
1019.0,2265.9699999999998,742.80200000000002,369.36500000000001,2192.9400000000001,-854.06299999999999,-161.20400000000001,-167.81999999999999
1020.0,2319.8200000000002,800.50400000000002,401.24700000000001,2261.8699999999999,-897.06899999999996,-83.888800000000003,-150.327
1021.0,2373.3699999999999,851.21299999999997,414.95800000000003,2303.3699999999999,-939.99599999999998,-7.3085800000000001,-128.29599999999999
1022.0,2425.25,930.30100000000004,445.995,2352.5599999999999,-981.72699999999998,66.765000000000001,-101.503
1023.0,2474.8400000000001,999.64099999999996,457.21600000000001,2372.73,-1021.39,136.749,-69.721699999999998
1024.0,2520.9099999999999,1094.7,484.92599999999999,2400.6500000000001,-1057.8,201.02099999999999,-33.055999999999997
1025.0,2562.8000000000002,1176.71,492.036,2400.21,-1089.96,258.399,8.2832399999999993
1026.0,2599.54,1279.9400000000001,514.31799999999998,2408.3299999999999,-1116.74,307.79899999999998,53.779000000000003
1027.0,2630.71,1364.8199999999999,514.13300000000004,2388.8200000000002,-1137.3299999999999,348.84800000000001,102.697
1028.0,2655.5900000000001,1470.49,532.36000000000001,2384.5999999999999,-1150.5799999999999,381.35700000000003,153.97399999999999
1029.0,2674.48,1550.6300000000001,525.00999999999999,2353.27,-1156.3,405.68799999999999,207.10499999999999
1030.0,2687.3099999999999,1642.55,530.90300000000002,2334.5700000000002,-1154.3599999999999,422.73000000000002,260.75099999999998
1031.0,2693.0900000000001,1707.28,512.32600000000002,2292.1599999999999,-1143.8399999999999,433.71100000000001,313.27600000000001
1032.0,2691.8099999999999,1785.5599999999999,510.85899999999998,2268.8800000000001,-1124.6400000000001,439.62799999999999,363.791
1033.0,2683.7399999999998,1832.0799999999999,482.73000000000002,2220.1999999999998,-1097.55,441.54700000000003,411.75
1034.0,2670.02,1889.99,470.42399999999998,2188.3600000000001,-1063.74,440.84500000000003,455.92700000000002
1035.0,2648.4299999999998,1918.6500000000001,435.61099999999999,2132.8600000000001,-1023.27,437.80500000000001,494.95699999999999
1036.0,2623.9099999999999,1958.8,407.72199999999998,2086.2199999999998,-975.83100000000002,434.45999999999998,529.82799999999997
1037.0,2604.5500000000002,1963.0,344.077,2002.3499999999999,-932.21299999999997,431.512,557.32899999999995
1038.0,2576.0999999999999,1997.0999999999999,328.596,1953.22,-890.05999999999995,424.94600000000003,578.88499999999999
1039.0,2539.4200000000001,2030.03,308.71199999999999,1896.1199999999999,-837.53200000000004,414.71499999999997,599.43100000000004
1040.0,2513.54,2072.0500000000002,280.66899999999998,1836.45,-785.81100000000004,403.46199999999999,614.96299999999997
1041.0,1484.3299999999999,70.918000000000006,-25.1816,1224.3399999999999,-249.078,-430.71800000000002,-58.088999999999999
1042.0,1514.52,87.940799999999996,21.007000000000001,1337.0799999999999,-274.34699999999998,-367.11599999999999,-71.230400000000003
1043.0,1549.4000000000001,61.223999999999997,14.521800000000001,1392.3499999999999,-303.238,-298.61099999999999,-83.729600000000005
1044.0,1584.9000000000001,94.7363,59.490200000000002,1490.3399999999999,-334.77999999999997,-224.49299999999999,-93.714799999999997
1045.0,1622.51,88.971800000000002,55.241700000000002,1530.8800000000001,-369.02999999999997,-146.506,-101.16800000000001
1046.0,1660.75,144.196,101.377,1611.98,-405.22899999999998,-65.803200000000004,-105.47
1047.0,1699.54,160.39699999999999,97.580200000000005,1633.0799999999999,-442.95600000000002,16.058299999999999,-106.087
1048.0,1737.7,237.357,143.39500000000001,1693.02,-481.31299999999999,97.415499999999994,-102.63800000000001
1049.0,1774.46,274.762,138.90799999999999,1691.6500000000001,-519.51700000000005,176.58799999999999,-94.759500000000003
1050.0,1808.6500000000001,371.43200000000002,183.42599999999999,1728.26,-556.51700000000005,251.86099999999999,-82.375500000000002
1051.0,1839.3399999999999,425.363,176.066,1702.1199999999999,-591.41200000000003,321.67099999999999,-65.519400000000005
1052.0,1865.79,535.87199999999996,217.19900000000001,1714.4200000000001,-623.18600000000004,384.71800000000002,-44.585799999999999
1053.0,1887.53,600.79200000000003,206.364,1665.71,-651.06100000000004,439.80000000000001,-20.024799999999999
1054.0,1904.75,714.01700000000005,238.858,1652.3599999999999,-674.60799999999995,486.64600000000002,7.5584699999999998
1055.0,1917.79,780.01700000000005,220.38800000000001,1583.1800000000001,-692.85599999999999,524.72799999999995,36.569400000000002
1056.0,1925.6800000000001,897.65899999999999,250.32300000000001,1559.6800000000001,-704.67499999999995,553.58900000000006,66.571299999999994
1057.0,1930.46,961.06299999999999,225.905,1479.72,-711.04399999999998,574.52300000000002,98.194800000000001
1058.0,1931.1800000000001,1063.99,243.81,1440.78,-711.78999999999996,587.41600000000005,129.93100000000001
1059.0,1925.8099999999999,1115.3900000000001,212.38800000000001,1351.9000000000001,-705.86199999999997,592.06500000000005,160.71000000000001
1060.0,1914.76,1206.97,224.16399999999999,1305.6300000000001,-693.779,589.274,189.71700000000001
1061.0,1898.1700000000001,1243.51,186.34700000000001,1208.1199999999999,-676.43200000000002,579.94799999999998,215.971
1062.0,1876.6600000000001,1319.45,192.124,1152.8599999999999,-654.25099999999998,564.21000000000004,239.392
1063.0,1854.3399999999999,1338.53,142.78999999999999,1043.45,-629.74599999999998,542.45799999999997,259.49000000000001
1064.0,1830.03,1398.3699999999999,142.511,981.40700000000004,-605.58399999999995,514.62199999999996,275.024
1065.0,1798.99,1415.24,108.389,881.38,-577.37300000000005,480.18599999999998,288.31200000000001
1066.0,1773.6300000000001,1468.9400000000001,106.84399999999999,817.33600000000001,-547.50800000000004,441.15199999999999,300.16800000000001
1067.0,1199.3800000000001,-192.15799999999999,-172.78100000000001,818.226,39.966000000000001,-378.05900000000003,32.994
1068.0,1215.5899999999999,-227.054,-172.58500000000001,877.74000000000001,26.356200000000001,-322.45299999999997,9.8391000000000002
1069.0,1234.53,-232.59399999999999,-149.804,954.93499999999995,8.9095200000000006,-261.12200000000001,-13.141500000000001
1070.0,1254.4300000000001,-249.72999999999999,-145.803,1005.9,-11.825699999999999,-193.72999999999999,-34.924100000000003
1071.0,1275.9400000000001,-236.57300000000001,-119.86499999999999,1070.96,-35.903700000000001,-121.568,-55.2761
1072.0,1298.4200000000001,-234.03999999999999,-113.806,1106.98,-62.887300000000003,-45.634399999999999,-73.561199999999999
1073.0,1321.74,-199.67400000000001,-85.736199999999997,1155.1900000000001,-92.446600000000004,32.691299999999998,-89.213499999999996
1074.0,1344.96,-175.351,-78.027299999999997,1172.22,-123.88500000000001,111.907,-101.71299999999999
1075.0,1367.4000000000001,-119.98,-49.532800000000002,1198.6500000000001,-156.541,190.35400000000001,-110.604
1076.0,1387.5699999999999,-75.716899999999995,-42.220199999999998,1191.6199999999999,-189.47,266.28399999999999,-115.637
1077.0,1404.8800000000001,-1.6315599999999999,-14.4147,1192.8699999999999,-221.90700000000001,338.06,-116.702
1078.0,1417.6700000000001,58.802100000000003,-8.6772100000000005,1159.0699999999999,-252.87,403.91300000000001,-114.18300000000001
1079.0,1427.3199999999999,144.99600000000001,15.275,1132.5599999999999,-281.928,463.10300000000001,-108.283
1080.0,1432.5899999999999,219.90000000000001,21.168500000000002,1078.6099999999999,-308.262,512.92999999999995,-100.714
1081.0,1435.9300000000001,316.21499999999997,42.668999999999997,1031.1500000000001,-331.76799999999997,555.60699999999997,-89.536500000000004
1082.0,1443.78,385.78699999999998,36.718499999999999,953.77700000000004,-353.839,591.22799999999995,-76.421899999999994
1083.0,1447.6600000000001,478.291,51.539200000000001,897.35699999999997,-372.10399999999998,614.17600000000004,-63.557299999999998
1084.0,1446.77,557.92100000000005,46.072699999999998,820.47500000000002,-384.94799999999998,626.23099999999999,-47.5105
1085.0,1445.6600000000001,649.32600000000002,52.928199999999997,754.79200000000003,-394.24299999999999,630.13900000000001,-30.007899999999999
1086.0,1439.97,714.76999999999998,39.6004,666.54200000000003,-398.64299999999997,624.66600000000005,-13.1205
1087.0,1428.9300000000001,789.91200000000003,41.539200000000001,592.43899999999996,-397.99599999999998,609.73400000000004,3.10791
1088.0,1413.3299999999999,839.12,24.0168,498.33199999999999,-393.44299999999998,585.77800000000002,17.811
1089.0,1394.96,898.27599999999995,22.681799999999999,420.73599999999999,-385.62200000000001,553.89800000000002,30.6874
1090.0,1375.9000000000001,930.86400000000003,1.6006100000000001,324.49099999999999,-376.46300000000002,514.80200000000002,41.371699999999997
1091.0,1354.1900000000001,975.28399999999999,1.13103,250.22,-365.476,468.05500000000001,50.091999999999999
1092.0,1335.4100000000001,995.58699999999999,-20.75,160.316,-353.17000000000002,415.26799999999997,57.992699999999999
1093.0,1053.27,-317.81999999999999,-293.60300000000001,517.42999999999995,198.78100000000001,-312.65300000000002,80.787599999999998
1094.0,1064.55,-312.44499999999999,-252.83699999999999,608.16899999999998,195.43799999999999,-266.91500000000002,53.969799999999999
1095.0,1076.6199999999999,-368.62200000000001,-278.20800000000003,628.08799999999997,188.488,-215.172,26.784800000000001
1096.0,1089.28,-351.53800000000001,-235.84700000000001,709.73800000000006,178.02699999999999,-157.62,-0.43698799999999999
1097.0,1102.6800000000001,-392.99299999999999,-258.55500000000001,719.34500000000003,164.054,-95.065799999999996,-27.243500000000001
1098.0,1116.75,-358.89299999999997,-213.28999999999999,788.98500000000001,146.721,-28.342199999999998,-53.075099999999999
1099.0,1131.3099999999999,-382.24200000000002,-233.71700000000001,783.97699999999998,126.294,41.445700000000002,-77.328599999999994
1100.0,1145.8299999999999,-328.96699999999998,-186.46299999999999,836.721,103.256,112.92,-99.423100000000005
1101.0,1159.4100000000001,-332.56999999999999,-205.143,812.37,78.25,184.65199999999999,-118.81999999999999
1102.0,1171.0,-259.60199999999998,-156.346,843.48900000000003,52.028199999999998,254.815,-135.095
1103.0,1178.8900000000001,-245.935,-175.29499999999999,793.09400000000005,25.513999999999999,321.84100000000001,-148.21700000000001
1104.0,1182.8499999999999,-157.179,-126.95699999999999,796.76700000000005,-0.75307299999999999,383.87299999999999,-158.066
1105.0,1181.5599999999999,-129.50999999999999,-146.57599999999999,717.70600000000002,-26.158300000000001,439.20600000000002,-166.12700000000001
1106.0,1179.74,-33.289700000000003,-102.389,690.62400000000002,-50.646999999999998,489.12299999999999,-170.79499999999999
1107.0,1180.0,-5.7134900000000002,-131.96000000000001,585.66300000000001,-75.942099999999996,530.69200000000001,-173.083
1108.0,1183.95,76.260499999999993,-117.40000000000001,528.45299999999997,-103.461,562.79399999999998,-173.078
1109.0,1188.22,116.992,-143.65000000000001,429.14699999999999,-131.47300000000001,583.58799999999997,-174.685
1110.0,1185.29,259.58499999999998,-74.2911,421.16899999999998,-151.50299999999999,593.30200000000002,-171.744
1111.0,1186.47,321.46699999999998,-94.941100000000006,326.52999999999997,-167.911,596.68100000000004,-162.81100000000001
1112.0,1185.6300000000001,424.78199999999998,-62.872,282.13200000000001,-183.892,589.76499999999999,-155.155
1113.0,1176.8900000000001,457.57799999999997,-94.177800000000005,171.69300000000001,-193.80799999999999,571.43600000000004,-146.45599999999999
1114.0,1165.52,545.74000000000001,-63.848199999999999,123.134,-201.13200000000001,543.83299999999997,-138.12899999999999
1115.0,1151.2,561.61900000000003,-98.204300000000003,11.2789,-205.648,507.37400000000002,-130.36799999999999
1116.0,1136.6900000000001,634.73199999999997,-68.8934,-33.161000000000001,-208.54300000000001,463.58100000000002,-123.36499999999999
1117.0,1121.6400000000001,636.01700000000005,-102.77800000000001,-136.78100000000001,-209.85599999999999,413.32100000000003,-117.408
1118.0,1108.74,692.42399999999998,-76.010499999999993,-173.75200000000001,-210.393,357.74099999999999,-111.69199999999999
1119.0,939.93200000000002,-277.07999999999998,-287.596,394.01400000000001,263.69299999999998,-250.571,98.280799999999999
1120.0,951.76700000000005,-339.291,-317.82499999999999,404.73700000000002,267.72500000000002,-213.917,71.837100000000007
1121.0,963.38300000000004,-337.53399999999999,-287.01299999999998,472.161,268.70699999999999,-171.51900000000001,44.675400000000003
1122.0,975.37099999999998,-387.49799999999999,-311.92099999999999,479.298,266.37099999999998,-124.004,16.530100000000001
1123.0,987.44100000000003,-373.56799999999998,-277.904,539.35500000000002,260.73000000000002,-71.695899999999995,-12.001099999999999
1124.0,999.94799999999998,-409.34699999999998,-299.43400000000003,537.37,251.64699999999999,-15.3208,-40.4818
1125.0,1012.52,-379.67700000000002,-262.22699999999998,586.28999999999996,239.38200000000001,44.287199999999999,-68.259699999999995
1126.0,1025.1300000000001,-398.58499999999998,-280.87,570.80899999999997,224.17099999999999,105.991,-94.804400000000001
1127.0,1036.54,-351.553,-241.291,603.11300000000006,206.75899999999999,168.44200000000001,-119.399
1128.0,1046.28,-354.53699999999998,-259.36900000000003,566.58299999999997,187.67699999999999,230.16499999999999,-141.709
1129.0,1051.4100000000001,-290.221,-217.29300000000001,575.61699999999996,168.214,289.05500000000001,-161.303
1130.0,1053.05,-281.09899999999999,-237.357,509.05000000000001,148.40299999999999,344.08199999999999,-178.858
1131.0,1047.22,-203.17099999999999,-192.101,488.512,129.822,392.02999999999997,-195.059
1132.0,1043.3900000000001,-200.58500000000001,-231.501,376.755,108.717,438.45299999999997,-203.601
1133.0,1045.9400000000001,-164.184,-237.23099999999999,303.70299999999997,80.311700000000002,474.08800000000002,-217.51400000000001
1134.0,1043.6600000000001,-127.435,-253.89500000000001,219.11600000000001,52.892400000000002,496.46899999999999,-231.995
1135.0,1045.0999999999999,-8.9902800000000003,-201.90600000000001,204.185,24.2254,513.97699999999998,-240.95099999999999
1136.0,1046.9300000000001,71.323099999999997,-182.40600000000001,150.05500000000001,-2.5586600000000002,524.95899999999995,-244.09
1137.0,1049.3099999999999,190.44800000000001,-129.774,131.624,-24.0458,529.10000000000002,-239.65899999999999
1138.0,1048.27,224.191,-156.161,35.060899999999997,-45.862000000000002,521.61800000000005,-236.50800000000001
1139.0,1039.2,310.31799999999998,-122.669,-6.2371999999999996,-62.972999999999999,502.14299999999997,-231.63999999999999
1140.0,1028.1800000000001,332.036,-147.86699999999999,-104.64100000000001,-77.662000000000006,473.82400000000001,-226.63800000000001
1141.0,1015.11,403.17500000000001,-116.60299999999999,-144.39099999999999,-89.751099999999994,437.15899999999999,-221.786
1142.0,1002.27,410.709,-142.40600000000001,-236.68799999999999,-100.321,394.24200000000002,-216.87
1143.0,989.39499999999998,466.57600000000002,-112.673,-267.78500000000003,-109.613,345.78399999999999,-211.91200000000001
1144.0,977.572,462.291,-136.88200000000001,-345.78199999999998,-118.268,293.18700000000001,-206.55500000000001
1145.0,822.68799999999999,-247.80099999999999,-302.50200000000001,285.05099999999999,267.685,-198.14099999999999,96.6113
1146.0,836.22900000000004,-257.01799999999997,-285.17200000000003,335.649,276.238,-169.01300000000001,72.866
1147.0,849.27700000000004,-302.07400000000001,-305.41899999999998,344.86000000000001,282.36200000000002,-134.71600000000001,48.102600000000002
1148.0,862.529,-304.68900000000002,-286.04500000000002,390.137,285.56099999999998,-96.125600000000006,21.794699999999999
1149.0,875.75999999999999,-341.04300000000001,-304.02499999999998,393.18799999999999,285.80399999999997,-53.317599999999999,-5.4650499999999997
1150.0,889.22900000000004,-332.505,-281.52699999999999,431.42700000000002,282.85300000000001,-6.7693000000000003,-33.302999999999997
1151.0,902.87400000000002,-356.19200000000001,-296.505,425.92099999999999,276.822,42.785800000000002,-61.151000000000003
1152.0,916.39099999999996,-333.67500000000001,-271.09100000000001,453.31599999999997,267.988,94.5886,-88.429199999999994
1153.0,929.27999999999997,-342.44999999999999,-283.31700000000001,434.51299999999998,256.85899999999998,147.34399999999999,-114.423
1154.0,939.94200000000001,-304.404,-254.95400000000001,444.82299999999998,244.41200000000001,199.75899999999999,-138.84200000000001
1155.0,947.34699999999998,-301.161,-267.59800000000001,401.75900000000001,231.50200000000001,250.04300000000001,-160.71899999999999
1156.0,948.54499999999996,-250.74199999999999,-237.37799999999999,383.86599999999999,218.87899999999999,295.34399999999999,-182.48699999999999
1157.0,943.58900000000006,-242.77799999999999,-253.69200000000001,301.68299999999999,207.24199999999999,336.66300000000001,-199.155
1158.0,942.43100000000004,-230.91300000000001,-276.55500000000001,215.006,190.83099999999999,374.49900000000002,-213.619
1159.0,945.66600000000005,-256.82100000000003,-338.69900000000001,96.100999999999999,165.30000000000001,401.56299999999999,-236.92500000000001
1160.0,945.03200000000004,-165.286,-281.25299999999999,89.167100000000005,137.881,418.15899999999999,-260.62700000000001
1161.0,944.07299999999998,-58.524700000000003,-225.572,79.873199999999997,112.04000000000001,433.678,-270.31299999999999
1162.0,947.577,44.129199999999997,-181.15899999999999,64.733099999999993,82.197900000000004,447.81099999999998,-270.93000000000001
1163.0,948.14700000000005,84.036799999999999,-191.13200000000001,-6.2622200000000001,52.991100000000003,451.69799999999998,-270.45699999999999
1164.0,942.66300000000001,159.92699999999999,-162.86000000000001,-40.238700000000001,29.831600000000002,443.06999999999999,-269.17399999999998
1165.0,932.577,191.739,-174.982,-116.792,9.7297100000000007,423.79500000000002,-267.13299999999998
1166.0,920.26400000000001,254.00899999999999,-150.05500000000001,-156.15700000000001,-7.7710800000000004,396.517,-264.10700000000003
1167.0,907.12900000000002,270.846,-163.458,-231.26900000000001,-23.8368,362.68599999999998,-260.69600000000003
1168.0,893.37599999999998,320.28699999999998,-138.054,-262.68200000000002,-38.294600000000003,323.23399999999998,-256.61099999999999
1169.0,880.26599999999996,326.27600000000001,-150.66800000000001,-325.87400000000002,-51.823,279.78699999999998,-251.815
1170.0,867.577,363.209,-126.07599999999999,-345.23000000000002,-64.645399999999995,233.33199999999999,-246.417
1171.0,703.69000000000005,-160.73599999999999,-248.351,265.935,239.33099999999999,-157.584,85.119900000000001
1172.0,717.81100000000004,-202.46199999999999,-269.18599999999998,272.233,249.79300000000001,-134.09800000000001,64.949600000000004
1173.0,731.50199999999995,-213.13399999999999,-260.04000000000002,305.226,258.41500000000002,-106.21899999999999,43.597499999999997
1174.0,745.46100000000001,-246.82499999999999,-275.95299999999997,310.39100000000002,264.62400000000002,-74.847200000000001,20.486599999999999
1175.0,759.49099999999999,-250.24100000000001,-264.214,339.35599999999999,268.29000000000002,-39.9328,-3.9190399999999999
1176.0,773.79200000000003,-274.31999999999999,-276.48200000000003,340.08600000000001,269.16699999999997,-1.76891,-29.241900000000001
1177.0,788.51999999999998,-267.64299999999997,-262.005,362.80799999999999,267.17000000000002,39.054400000000001,-55.085599999999999
1178.0,803.15800000000002,-279.351,-270.59399999999999,356.024,262.75200000000001,81.997600000000006,-80.751400000000004
1179.0,817.83199999999999,-261.38900000000001,-254.62799999999999,367.22800000000001,256.05700000000002,126.093,-105.67400000000001
1180.0,829.90300000000002,-260.322,-260.65899999999999,344.82999999999998,248.80699999999999,169.67500000000001,-129.41200000000001
1181.0,840.02099999999996,-233.16499999999999,-246.191,332.77499999999998,241.02000000000001,212.31999999999999,-150.88
1182.0,841.96299999999997,-220.30799999999999,-247.643,283.84399999999999,235.24299999999999,247.45400000000001,-173.67099999999999
1183.0,840.45399999999995,-196.65000000000001,-247.953,223.59399999999999,230.91499999999999,282.39699999999999,-188.28700000000001
1184.0,843.49400000000003,-241.79400000000001,-317.37200000000001,98.865399999999994,218.31899999999999,311.536,-208.024
1185.0,845.13099999999997,-230.053,-326.98200000000003,33.3307,197.28200000000001,331.09199999999998,-234.03999999999999
1186.0,845.02300000000002,-172.62200000000001,-292.31099999999998,11.064500000000001,169.29499999999999,346.346,-257.01100000000002
1187.0,841.81100000000004,-43.873800000000003,-200.01599999999999,48.371000000000002,141.99600000000001,359.49000000000001,-266.56200000000001
1188.0,843.44899999999996,24.0213,-189.91800000000001,16.398700000000002,113.798,373.17599999999999,-264.93900000000002
1189.0,843.44500000000005,74.285200000000003,-185.136,-23.523900000000001,82.635499999999993,376.41699999999997,-267.303
1190.0,835.28499999999997,110.785,-185.245,-78.639799999999994,59.639699999999998,367.572,-267.24700000000001
1191.0,824.93100000000004,170.44300000000001,-158.423,-108.724,40.192,350.66899999999998,-266.13299999999998
1192.0,811.96299999999997,195.83000000000001,-161.13499999999999,-167.40299999999999,22.969200000000001,326.25900000000001,-263.73399999999998
1193.0,798.13099999999997,235.81200000000001,-143.239,-201.69999999999999,6.0416699999999999,296.36000000000001,-260.87
1194.0,783.57600000000002,248.05600000000001,-147.62700000000001,-253.96299999999999,-9.3155599999999996,261.68099999999998,-257.13299999999998
1195.0,769.899,279.07499999999999,-129.501,-277.43599999999998,-24.1157,224.31299999999999,-252.18299999999999
1196.0,756.16899999999998,283.976,-131.822,-315.18599999999998,-38.256599999999999,184.81299999999999,-246.428
1197.0,592.08000000000004,-108.595,-214.839,240.27600000000001,197.417,-127.71599999999999,69.856800000000007
1198.0,605.40899999999999,-121.441,-211.89699999999999,265.63999999999999,207.96600000000001,-108.348,53.304900000000004
1199.0,618.44600000000003,-149.001,-224.399,272.77199999999999,217.161,-85.310100000000006,35.5304
1200.0,631.84500000000003,-158.44399999999999,-220.28200000000001,294.28300000000002,224.38999999999999,-59.515700000000002,15.9977
1201.0,645.48299999999995,-181.126,-231.34800000000001,297.58300000000003,229.49299999999999,-30.815200000000001,-4.9362500000000002
1202.0,659.55799999999999,-183.495,-224.661,315.38400000000001,232.18199999999999,0.57661200000000001,-26.952999999999999
1203.0,674.32600000000002,-197.768,-232.983,314.61900000000003,232.33600000000001,34.283099999999997,-49.751100000000001
1204.0,689.33900000000006,-190.03999999999999,-223.11600000000001,326.98599999999999,230.37899999999999,69.854299999999995,-72.604100000000003
1205.0,704.73900000000003,-194.00399999999999,-229.155,318.12,226.489,106.66500000000001,-95.086299999999994
1206.0,717.94399999999996,-173.977,-215.578,318.61500000000001,222.57499999999999,142.91499999999999,-116.45
1207.0,728.99900000000002,-171.81200000000001,-224.94999999999999,286.16300000000001,218.709,178.351,-136.149
1208.0,732.25599999999997,-143.52500000000001,-207.84200000000001,259.10700000000003,218.333,206.107,-156.636
1209.0,732.95600000000002,-153.09999999999999,-238.041,173.86600000000001,219.316,234.46299999999999,-169.42400000000001
1210.0,736.67399999999998,-194.59399999999999,-298.70299999999997,65.245000000000005,210.215,255.62700000000001,-190.328
1211.0,736.19799999999998,-204.02199999999999,-323.03199999999998,-7.0523400000000001,192.245,267.40699999999998,-216.173
1212.0,734.471,-132.35300000000001,-271.48599999999999,1.1414599999999999,165.99199999999999,279.322,-235.91900000000001
1213.0,732.41399999999999,-33.867699999999999,-202.411,29.074000000000002,138.32900000000001,292.27100000000002,-244.80000000000001
1214.0,734.53200000000004,51.376100000000001,-163.072,33.944000000000003,111.764,306.58999999999997,-243.25399999999999
1215.0,735.45500000000004,84.121899999999997,-168.006,-7.0737800000000002,84.1143,310.96100000000001,-245.41499999999999
1216.0,727.37900000000002,132.15000000000001,-150.30099999999999,-36.491999999999997,63.061999999999998,303.53699999999998,-245.05799999999999
1217.0,715.81200000000001,156.32499999999999,-150.221,-85.623999999999995,44.7224,288.99000000000001,-243.24199999999999
1218.0,702.12400000000002,190.739,-135.54900000000001,-118.864,28.857500000000002,267.625,-241.048
1219.0,688.13800000000003,205.036,-137.13200000000001,-164.61500000000001,13.4826,241.67500000000001,-238.41900000000001
1220.0,673.63699999999994,232.03899999999999,-121.366,-188.96600000000001,-0.97897699999999999,212.06700000000001,-234.88399999999999
1221.0,659.88900000000001,240.45599999999999,-121.60299999999999,-223.47900000000001,-14.950100000000001,180.57400000000001,-229.935
1222.0,646.28099999999995,259.69400000000002,-106.497,-237.12100000000001,-28.5093,147.756,-224.167
1223.0,496.31599999999997,-49.9983,-160.62799999999999,244.27099999999999,154.76300000000001,-106.565,54.826099999999997
1224.0,507.76100000000002,-76.037899999999993,-174.72499999999999,248.93899999999999,164.23500000000001,-90.055000000000007,41.442399999999999
1225.0,519.05100000000004,-86.640199999999993,-174.03399999999999,266.017,172.708,-70.553600000000003,26.901399999999999
1226.0,530.84900000000005,-107.08499999999999,-184.40000000000001,270.21800000000002,179.61000000000001,-48.8855,10.7415
1227.0,543.02099999999996,-112.76600000000001,-181.536,285.21300000000002,184.74799999999999,-24.851099999999999,-6.7703499999999996
1228.0,555.91499999999996,-126.56100000000001,-188.78899999999999,287.74400000000003,187.792,1.35701,-25.404399999999999
1229.0,569.67399999999998,-125.33799999999999,-183.50399999999999,300.08100000000002,188.64099999999999,29.542400000000001,-44.887700000000002
1230.0,584.25099999999998,-130.47200000000001,-187.72399999999999,299.42099999999999,187.58199999999999,59.401299999999999,-64.562200000000004
1231.0,599.25,-120.896,-180.822,305.20600000000002,185.06,90.359899999999996,-84.017899999999997
1232.0,612.91999999999996,-117.621,-184.33699999999999,292.49799999999999,182.77099999999999,121.164,-102.31100000000001
1233.0,623.48000000000002,-100.684,-178.33500000000001,278.339,181.679,150.21100000000001,-119.577
1234.0,626.673,-93.282300000000006,-183.21000000000001,234.458,184.69499999999999,173.19999999999999,-135.90899999999999
1235.0,627.65300000000002,-100.227,-210.26400000000001,160.31399999999999,188.756,193.91200000000001,-147.87100000000001
1236.0,630.10199999999998,-147.74600000000001,-274.54899999999998,52.1374,184.68299999999999,207.56200000000001,-167.41399999999999
1237.0,632.03499999999997,-145.94999999999999,-281.06200000000001,4.0097300000000002,171.07300000000001,216.97200000000001,-190.99299999999999
1238.0,631.56600000000003,-85.301400000000001,-231.00299999999999,19.862100000000002,147.94900000000001,226.428,-209.59399999999999
1239.0,628.14400000000001,17.036899999999999,-155.18700000000001,64.977500000000006,121.40300000000001,239.12,-214.94
1240.0,629.62599999999998,74.296800000000005,-136.654,56.5976,93.441100000000006,254.72399999999999,-211.74100000000001
1241.0,629.82399999999996,113.471,-125.977,36.088099999999997,67.973200000000006,260.154,-212.119
1242.0,622.66800000000001,141.99600000000001,-123.61799999999999,-0.75537399999999999,50.3996,254.44399999999999,-210.44200000000001
1243.0,612.17399999999998,170.124,-116.19,-33.570300000000003,34.646599999999999,241.53299999999999,-208.96199999999999
1244.0,598.75599999999997,185.63999999999999,-115.547,-73.3947,21.390899999999998,222.54400000000001,-207.17500000000001
1245.0,585.15499999999997,207.08500000000001,-105.392,-100.976,8.6486900000000002,200.18600000000001,-204.67599999999999
1246.0,571.39700000000005,215.82900000000001,-104.226,-133.697,-3.63381,175.08699999999999,-201.45500000000001
1247.0,558.49400000000003,232.28100000000001,-93.5762,-151.887,-15.732900000000001,148.68100000000001,-196.86799999999999
1248.0,545.88800000000003,238.51900000000001,-89.718900000000005,-171.96299999999999,-27.5501,121.462,-191.44900000000001
1249.0,419.13999999999999,-19.197800000000001,-125.60599999999999,236.57599999999999,117.345,-91.584900000000005,41.818600000000004
1250.0,428.30900000000003,-28.4636,-125.657,252.435,125.261,-77.117599999999996,31.008900000000001
1251.0,437.41899999999998,-44.923900000000003,-133.55099999999999,258.42599999999999,132.40799999999999,-60.217799999999997,19.149899999999999
1252.0,447.07400000000001,-52.424399999999999,-133.494,270.76900000000001,138.273,-41.575299999999999,5.8823800000000004
1253.0,457.25200000000001,-65.793800000000005,-140.57300000000001,274.04000000000002,142.637,-21.050000000000001,-8.6042400000000008
1254.0,468.34300000000002,-68.7136,-138.80000000000001,284.42899999999997,145.161,1.26837,-24.169699999999999
1255.0,480.60500000000002,-75.685699999999997,-143.119,286.84899999999999,145.738,25.223199999999999,-40.533700000000003
1256.0,494.08100000000002,-71.231200000000001,-138.68100000000001,295.61700000000002,144.57900000000001,50.7517,-57.180199999999999
1257.0,508.37400000000002,-69.465000000000003,-140.142,294.96899999999999,142.29599999999999,77.247,-73.561899999999994
1258.0,521.58600000000001,-55.795400000000001,-133.79599999999999,295.30000000000001,140.51300000000001,103.905,-88.870199999999997
1259.0,531.23599999999999,-48.709699999999998,-137.67400000000001,274.80599999999998,140.89400000000001,128.33799999999999,-103.098
1260.0,533.43499999999995,-32.636299999999999,-136.21100000000001,242.435,146.50700000000001,147.08699999999999,-116.008
1261.0,534.98900000000003,-51.408700000000003,-173.875,162.381,154.059,163.16300000000001,-126.83
1262.0,536.08100000000002,-87.225999999999999,-221.22800000000001,73.392300000000006,154.87,171.374,-143.81
1263.0,534.67999999999995,-111.66800000000001,-250.95400000000001,8.0640400000000003,143.20500000000001,178.40799999999999,-161.71899999999999
1264.0,532.47299999999996,-62.8474,-203.81800000000001,28.136900000000001,119.741,186.464,-178.167
1265.0,530.03800000000001,43.104999999999997,-120.297,87.746899999999997,95.765900000000002,198.126,-182.28
1266.0,534.99000000000001,107.946,-95.133899999999997,95.120500000000007,69.812399999999997,214.61099999999999,-177.59299999999999
1267.0,536.77999999999997,131.0,-97.114599999999996,69.367900000000006,45.713799999999999,220.68700000000001,-176.99299999999999
1268.0,530.49699999999996,164.191,-86.815799999999996,46.578099999999999,31.0014,216.19300000000001,-174.17400000000001
1269.0,521.57600000000002,178.20500000000001,-89.512200000000007,9.2236100000000008,18.500499999999999,205.554,-172.501
1270.0,508.971,196.18600000000001,-83.001300000000001,-19.418299999999999,8.5710999999999995,188.92599999999999,-170.797
1271.0,496.18900000000002,203.80799999999999,-83.694500000000005,-52.4878,-1.3030900000000001,169.54599999999999,-168.624
1272.0,483.298,217.67699999999999,-74.941800000000001,-72.795100000000005,-10.883900000000001,148.00999999999999,-165.82900000000001
1273.0,471.64800000000002,223.51300000000001,-73.046700000000001,-95.702500000000001,-20.682600000000001,125.732,-161.827
1274.0,460.49900000000002,234.34800000000001,-63.540399999999998,-106.82599999999999,-30.334900000000001,102.983,-157.03100000000001
1275.0,359.78899999999999,8.8500200000000007,-88.293599999999998,237.03999999999999,87.912300000000002,-80.802599999999998,31.622900000000001
1276.0,366.726,-7.9690599999999998,-97.544399999999996,241.36799999999999,94.183700000000002,-67.807599999999994,22.771000000000001
1277.0,373.68200000000002,-15.482900000000001,-98.178299999999993,252.571,99.824399999999997,-52.847000000000001,12.9991
1278.0,381.16800000000001,-27.8855,-104.634,256.49700000000001,104.40600000000001,-36.442799999999998,2.0610900000000001
1279.0,389.31400000000002,-31.4056,-103.28100000000001,266.69900000000001,107.672,-18.520499999999998,-9.9593100000000003
1280.0,398.50299999999999,-38.577599999999997,-106.905,270.60599999999999,109.295,0.86734100000000003,-22.930599999999998
1281.0,409.20600000000002,-37.035400000000003,-103.46299999999999,280.44799999999998,109.10299999999999,21.6737,-36.6614
1282.0,421.41399999999999,-37.285499999999999,-104.12,284.58999999999997,107.298,43.891800000000003,-50.624899999999997
1283.0,435.01400000000001,-29.198499999999999,-99.381299999999996,291.815,104.49299999999999,67.197100000000006,-64.366699999999994
1284.0,447.47899999999998,-22.259,-99.874600000000001,287.947,102.476,90.680999999999997,-76.888900000000007
1285.0,456.262,-8.3641500000000004,-97.608800000000002,277.33199999999999,103.262,112.104,-88.318200000000004
1286.0,456.41800000000001,1.1123000000000001,-103.221,241.07900000000001,110.65000000000001,127.712,-98.573300000000003
1287.0,455.07100000000003,-18.314699999999998,-140.86699999999999,163.339,120.239,141.31100000000001,-105.723
1288.0,453.99299999999999,-73.280199999999994,-204.02000000000001,63.643000000000001,123.342,145.25899999999999,-120.316
1289.0,451.959,-77.327299999999994,-215.90000000000001,23.994800000000001,116.027,146.268,-136.85400000000001
1290.0,451.33199999999999,-33.397500000000001,-178.023,43.0959,95.633200000000002,153.26400000000001,-150.51400000000001
1291.0,450.32799999999997,61.396099999999997,-94.840299999999999,105.268,72.082300000000004,166.52799999999999,-153.649
1292.0,455.58600000000001,121.476,-65.879400000000004,117.905,47.950099999999999,183.63,-147.25800000000001
1293.0,460.52100000000002,150.024,-61.944099999999999,102.574,25.334199999999999,191.63900000000001,-144.745
1294.0,456.37599999999998,173.04900000000001,-59.290100000000002,76.670199999999994,11.987299999999999,188.911,-141.31299999999999
1295.0,448.18299999999999,189.31899999999999,-58.316400000000002,48.353700000000003,2.2519399999999998,179.61500000000001,-138.78100000000001
1296.0,436.28300000000002,198.08500000000001,-59.250399999999999,17.177600000000002,-4.9401700000000002,164.911,-136.976
1297.0,424.08600000000001,207.91399999999999,-55.854799999999997,-7.4955100000000003,-11.7705,147.76300000000001,-135.12200000000001
1298.0,412.06299999999999,211.797,-55.648099999999999,-32.629600000000003,-18.757899999999999,128.91300000000001,-132.89599999999999
1299.0,401.56200000000001,220.03399999999999,-50.224800000000002,-48.874899999999997,-26.174399999999999,109.68000000000001,-129.655
1300.0,391.96499999999997,224.33600000000001,-46.961300000000001,-63.676299999999998,-33.738599999999998,90.243899999999996,-125.663
1301.0,314.79399999999998,20.248699999999999,-67.000399999999999,227.089,66.188299999999998,-72.515199999999993,24.050899999999999
1302.0,319.928,14.488,-66.193100000000001,239.57499999999999,71.026700000000005,-60.703299999999999,16.642499999999998
1303.0,325.08499999999998,4.1118499999999996,-70.699700000000007,245.19200000000001,75.313100000000006,-47.250799999999998,8.4442400000000006
1304.0,330.73500000000001,-0.67920599999999998,-70.452200000000005,254.22,78.677099999999996,-32.593499999999999,-0.70985900000000002
1305.0,337.06799999999998,-8.9473099999999999,-74.588399999999993,257.54300000000001,80.852599999999995,-16.686,-10.7906
1306.0,344.62599999999998,-10.5204,-73.084500000000006,265.59800000000001,81.492699999999999,0.42277300000000001,-21.701000000000001
1307.0,353.86599999999999,-13.498699999999999,-74.317899999999995,270.20299999999997,80.412999999999997,18.779199999999999,-33.290300000000002
1308.0,365.15300000000002,-8.9287500000000009,-69.933700000000002,279.76799999999997,77.721900000000005,38.484400000000001,-45.063400000000001
1309.0,378.01400000000001,-3.8107500000000001,-67.765199999999993,285.44299999999998,74.0809,59.303699999999999,-56.637099999999997
1310.0,390.423,9.4393999999999991,-61.697800000000001,290.78100000000001,71.299499999999995,80.706599999999995,-66.861999999999995
1311.0,398.12400000000002,20.1206,-62.872300000000003,279.68299999999999,71.829800000000006,99.727800000000002,-76.123900000000006
1312.0,395.31099999999998,34.082999999999998,-65.541799999999995,249.38399999999999,79.610699999999994,113.54000000000001,-83.375100000000003
1313.0,391.61799999999999,2.7064400000000002,-118.544,161.91300000000001,90.578500000000005,124.126,-87.895899999999997
1314.0,389.33100000000002,-51.642499999999998,-183.30699999999999,66.829899999999995,96.212800000000001,123.961,-101.224
1315.0,386.82400000000001,-56.983899999999998,-189.19300000000001,30.951899999999998,94.382300000000001,122.27800000000001,-117.211
1316.0,387.26100000000002,-10.9245,-144.52000000000001,54.698999999999998,79.9452,131.08500000000001,-126.92100000000001
1317.0,388.87299999999999,56.002600000000001,-85.792299999999997,99.533500000000004,56.016800000000003,144.93899999999999,-129.88900000000001
1318.0,393.642,127.30500000000001,-39.491500000000002,133.57599999999999,31.7151,159.73699999999999,-124.476
1319.0,399.84699999999998,161.494,-31.903199999999998,126.16200000000001,10.1821,168.976,-118.44799999999999
1320.0,398.65499999999997,184.28899999999999,-29.2852,105.361,-4.0107100000000004,168.47999999999999,-113.629
1321.0,391.601,195.60300000000001,-32.376600000000003,76.448599999999999,-11.761900000000001,160.60599999999999,-110.372
1322.0,380.45699999999999,203.47200000000001,-33.514499999999998,49.305799999999998,-16.504300000000001,147.50299999999999,-108.419
1323.0,368.22899999999998,205.94999999999999,-36.225999999999999,21.901399999999999,-20.749300000000002,131.78999999999999,-106.84
1324.0,356.82799999999997,211.57499999999999,-33.488,2.4228200000000002,-25.379999999999999,114.937,-105.226
1325.0,347.10599999999999,214.05500000000001,-33.042099999999998,-16.3279,-30.650400000000001,97.853200000000001,-102.84699999999999
1326.0,338.87900000000002,219.62100000000001,-28.4559,-27.797000000000001,-36.368400000000001,80.878900000000002,-99.779899999999998
1327.0,280.33100000000002,31.360399999999998,-46.918599999999998,220.536,51.131399999999999,-65.739999999999995,18.736000000000001
1328.0,284.08199999999999,19.391300000000001,-52.836799999999997,224.67400000000001,54.821899999999999,-54.9041,12.3561
1329.0,287.86599999999999,14.0412,-52.840699999999998,233.31299999999999,58.003599999999999,-42.701300000000003,5.3170799999999998
1330.0,292.08199999999999,5.8173000000000004,-56.482799999999997,237.054,60.369999999999997,-29.446999999999999,-2.5089700000000001
1331.0,297.01400000000001,4.1267399999999999,-54.369199999999999,245.42099999999999,61.634999999999998,-15.174099999999999,-11.1114
1332.0,303.26799999999997,0.240727,-55.244799999999998,250.136,61.442100000000003,0.123402,-20.446000000000002
1333.0,311.41800000000001,2.6547999999999998,-50.813600000000001,259.85700000000003,59.551299999999998,16.4893,-30.341799999999999
1334.0,321.988,4.3693400000000002,-48.624099999999999,267.25900000000001,55.999600000000001,34.221299999999999,-40.433
1335.0,334.55099999999999,12.948399999999999,-42.009300000000003,278.22300000000001,51.434399999999997,53.098599999999998,-50.1995
1336.0,346.976,21.1846,-40.1539,281.07999999999998,47.600700000000003,72.969499999999996,-58.798299999999998
1337.0,354.31,37.204000000000001,-35.656399999999998,278.39800000000002,47.409199999999998,90.599100000000007,-66.109099999999998
1338.0,349.25700000000001,47.8934,-43.917700000000004,246.76599999999999,54.904000000000003,102.49299999999999,-71.144199999999998
1339.0,343.38600000000002,20.486699999999999,-95.933199999999999,163.87,66.985100000000003,111.155,-74.344800000000006
1340.0,340.142,-33.993600000000001,-160.81200000000001,70.461100000000002,75.785700000000006,109.119,-86.610699999999994
1341.0,334.80099999999999,-39.211399999999998,-166.08699999999999,36.394399999999997,77.314999999999998,104.396,-100.096
1342.0,333.42000000000002,-20.800799999999999,-148.77500000000001,34.527799999999999,65.924999999999997,112.217,-106.197
1343.0,337.49900000000002,26.5197,-102.09,70.092799999999997,43.619900000000001,126.812,-109.408
1344.0,342.63999999999999,97.0732,-46.3352,113.65300000000001,19.8049,140.916,-105.56999999999999
1345.0,350.29300000000001,157.732,-13.0212,133.34200000000001,-1.0335000000000001,150.87100000000001,-98.029200000000003
1346.0,354.60899999999998,184.483,-10.0388,118.113,-15.207599999999999,153.02600000000001,-92.140000000000001
1347.0,349.29000000000002,196.488,-12.113899999999999,93.977500000000006,-22.1721,146.72800000000001,-88.132999999999996
1348.0,338.09399999999999,200.80799999999999,-16.448899999999998,66.644400000000005,-25.116,134.63900000000001,-85.5946
1349.0,325.96800000000002,203.995,-17.985099999999999,43.314900000000002,-27.3947,120.053,-84.341099999999997
1350.0,314.565,203.50899999999999,-20.801400000000001,20.867699999999999,-29.968499999999999,104.458,-83.302400000000006
1351.0,305.34300000000002,206.554,-19.355899999999998,5.2227399999999999,-33.5002,88.908799999999999,-81.785300000000007
1352.0,297.99000000000001,208.41,-18.430299999999999,-8.2146299999999997,-37.679499999999997,73.656499999999994,-79.622799999999998
1353.0,253.036,33.690800000000003,-38.075000000000003,206.952,40.951000000000001,-59.7592,15.043200000000001
1354.0,255.80600000000001,30.009499999999999,-36.089700000000001,217.62299999999999,43.818199999999997,-49.805399999999999,9.4173600000000004
1355.0,258.62099999999998,22.727699999999999,-38.365699999999997,222.74600000000001,46.197200000000002,-38.694299999999998,3.2229700000000001
1356.0,261.75700000000001,19.514099999999999,-37.242400000000004,230.02099999999999,47.834400000000002,-26.6541,-3.6119699999999999
1357.0,265.666,13.500500000000001,-39.4985,232.96899999999999,48.409999999999997,-13.7905,-11.1066
1358.0,270.86700000000002,12.596399999999999,-37.202800000000003,239.898,47.593000000000004,-0.055416899999999998,-19.222000000000001
1359.0,278.28699999999998,10.922499999999999,-36.259399999999999,245.64099999999999,45.043599999999998,14.6403,-27.808900000000001
1360.0,288.23099999999999,15.6645,-30.0596,256.78500000000003,40.812199999999997,30.631599999999999,-36.563400000000001
1361.0,301.012,21.336300000000001,-25.003399999999999,267.00099999999998,35.342700000000001,48.056699999999999,-44.907800000000002
1362.0,313.31700000000001,35.981400000000001,-15.318,278.63299999999998,30.538,66.387900000000002,-52.244599999999998
1363.0,321.15100000000001,47.377499999999998,-14.9886,274.26600000000002,29.233599999999999,83.704099999999997,-57.841200000000001
1364.0,315.26999999999998,66.257499999999993,-15.6799,254.16499999999999,36.2575,93.6845,-62.4544
1365.0,305.92899999999997,46.676600000000001,-63.801699999999997,176.607,49.124899999999997,100.92100000000001,-64.176599999999993
1366.0,301.697,-16.1876,-139.18700000000001,75.857600000000005,59.1494,98.332800000000006,-74.374499999999998
1367.0,295.44999999999999,-31.005400000000002,-154.476,35.662500000000001,64.595100000000002,89.443600000000004,-87.275899999999993
1368.0,294.38900000000001,-15.323399999999999,-144.96100000000001,28.153300000000002,57.656500000000001,95.2303,-91.566599999999994
1369.0,299.435,4.9907500000000002,-122.944,44.033700000000003,36.229599999999998,108.68899999999999,-95.563599999999994
1370.0,303.71800000000002,86.245699999999999,-49.024700000000003,108.005,13.2805,120.675,-93.654499999999999
1371.0,311.94999999999999,159.60900000000001,1.85588,142.26300000000001,-6.5789799999999996,133.25899999999999,-84.574600000000004
1372.0,319.767,186.857,9.6224000000000007,130.83000000000001,-21.5014,139.93899999999999,-76.363699999999994
1373.0,316.36599999999999,195.37,5.0594700000000001,105.886,-28.980699999999999,135.55799999999999,-71.284000000000006
1374.0,305.899,200.69300000000001,1.1128899999999999,81.358999999999995,-31.070900000000002,124.41200000000001,-68.281199999999998
1375.0,293.61399999999998,198.53800000000001,-5.5155000000000003,55.555,-31.8065,110.669,-67.144800000000004
1376.0,281.93599999999998,199.24299999999999,-6.7886699999999998,36.850200000000001,-32.775700000000001,95.869500000000002,-66.658000000000001
1377.0,272.822,198.15799999999999,-9.1054999999999993,19.388400000000001,-34.871499999999997,81.392799999999994,-65.942499999999995
1378.0,266.01100000000002,200.37,-7.7548300000000001,7.9329799999999997,-37.867199999999997,67.392499999999998,-64.647499999999994
1379.0,230.54599999999999,38.360500000000002,-29.037500000000001,196.81299999999999,34.204500000000003,-54.2911,12.516
1380.0,232.596,28.977900000000002,-33.033900000000003,200.309,36.491199999999999,-45.149900000000002,7.44163
1381.0,234.68899999999999,24.630700000000001,-32.601199999999999,207.03399999999999,38.311199999999999,-35.020899999999997,1.8787400000000001
1382.0,237.041,18.578499999999998,-34.480499999999999,210.262,39.444600000000001,-24.0764,-4.2096999999999998
1383.0,240.18600000000001,17.556699999999999,-31.741800000000001,217.29900000000001,39.5608,-12.457100000000001,-10.8658
1384.0,244.626,15.369899999999999,-30.470199999999998,222.41900000000001,38.323300000000003,-0.120896,-18.019500000000001
1385.0,251.46199999999999,17.299499999999998,-25.227699999999999,231.94900000000001,35.319499999999998,13.0989,-25.587900000000001
1386.0,261.01799999999997,20.0777,-19.8215,242.09200000000001,30.571100000000001,27.549199999999999,-33.2117
1387.0,273.98099999999999,27.0624,-11.815200000000001,255.61600000000001,24.378499999999999,43.702500000000001,-40.493099999999998
1388.0,286.65199999999999,37.179600000000001,-4.7956099999999999,265.51400000000001,18.748899999999999,60.850700000000003,-46.631500000000003
1389.0,294.93299999999999,52.071300000000001,-0.13560700000000001,267.12900000000002,16.34,77.7136,-51.197499999999998
1390.0,288.24299999999999,68.593000000000004,-2.1782900000000001,246.87899999999999,22.879899999999999,87.277199999999993,-55.525399999999998
1391.0,276.57799999999997,56.725000000000001,-43.227699999999999,177.405,36.488799999999998,93.777699999999996,-56.279299999999999
1392.0,271.44900000000001,-9.5074400000000008,-126.58199999999999,73.0685,47.095599999999997,89.561300000000003,-65.253399999999999
1393.0,264.81999999999999,-20.640999999999998,-140.46799999999999,37.875500000000002,54.514899999999997,78.233400000000003,-77.584299999999999
1394.0,264.10599999999999,-8.8291900000000005,-136.49100000000001,26.588799999999999,51.800699999999999,81.355500000000006,-81.183199999999999
1395.0,269.77300000000002,2.7553999999999998,-122.624,34.122100000000003,34.953899999999997,93.615700000000004,-85.992699999999999
1396.0,274.32100000000003,69.388999999999996,-52.825499999999998,89.408100000000005,15.0932,107.45699999999999,-85.914699999999996
1397.0,280.97300000000001,142.03200000000001,5.4825400000000002,131.70099999999999,-5.3702300000000003,121.024,-76.5441
1398.0,289.36200000000002,175.256,16.805700000000002,128.68299999999999,-23.233699999999999,128.05199999999999,-65.887
1399.0,289.548,190.41,16.4587,110.446,-32.7181,125.764,-58.972299999999997
1400.0,280.524,193.48599999999999,10.334199999999999,85.551699999999997,-34.7776,116.087,-55.409199999999998
1401.0,267.96300000000002,193.03299999999999,5.2648700000000002,63.436999999999998,-34.356099999999998,102.824,-54.243299999999998
1402.0,255.91300000000001,188.75,-0.73048100000000005,42.025199999999998,-34.140599999999999,88.581800000000001,-54.237099999999998
1403.0,246.649,188.0,-2.40448,27.0017,-35.090299999999999,74.811400000000006,-54.258099999999999
1404.0,240.13800000000001,187.34,-3.8340100000000001,14.2667,-37.162999999999997,61.765700000000002,-53.738100000000003
1405.0,211.34100000000001,38.232599999999998,-26.912800000000001,182.50899999999999,29.538599999999999,-49.1464,10.6913
1406.0,212.87899999999999,35.722099999999998,-24.386800000000001,191.52199999999999,31.4419,-40.7849,6.0515499999999998
1407.0,214.42400000000001,30.2316,-25.383500000000002,195.86699999999999,32.900700000000001,-31.5581,0.97976799999999997
1408.0,216.21299999999999,27.714099999999998,-23.877700000000001,201.614,33.695900000000002,-21.646000000000001,-4.5284500000000003
1409.0,218.733,22.736899999999999,-25.048999999999999,203.917,33.515099999999997,-11.1852,-10.512700000000001
1410.0,222.63499999999999,21.574000000000002,-22.390000000000001,209.815,31.981300000000001,-0.144099,-16.875299999999999
1411.0,228.88999999999999,20.295300000000001,-19.585599999999999,216.339,28.706399999999999,11.6883,-23.568200000000001
1412.0,238.292,23.9255,-11.985200000000001,228.613,23.567,24.796600000000002,-30.1967
1413.0,251.124,29.857600000000001,-3.2124100000000002,242.81800000000001,16.891999999999999,39.623899999999999,-36.553600000000003
1414.0,264.67700000000002,43.4313,9.1857600000000001,259.09699999999998,10.508599999999999,56.134,-41.631999999999998
1415.0,272.95699999999999,57.128300000000003,14.2498,261.89600000000002,7.3094400000000004,71.890000000000001,-45.798099999999998
1416.0,264.74700000000001,75.635400000000004,14.039099999999999,243.501,12.8786,82.0381,-48.613100000000003
1417.0,252.494,50.327399999999997,-39.927199999999999,163.815,25.268000000000001,87.970200000000006,-49.509399999999999
1418.0,244.82400000000001,-3.13144,-112.7,72.422600000000003,36.737400000000001,80.792400000000001,-58.639200000000002
1419.0,239.78100000000001,-15.5276,-133.92699999999999,34.106900000000003,45.649799999999999,69.363200000000006,-69.404399999999995
1420.0,240.17099999999999,-3.24526,-128.697,26.961099999999998,45.700899999999997,69.825199999999995,-73.823899999999995
1421.0,241.74600000000001,3.0203899999999999,-120.32899999999999,25.426600000000001,33.812600000000003,79.766599999999997,-76.249799999999993
1422.0,245.60900000000001,28.620000000000001,-88.259699999999995,44.323,14.575699999999999,95.140100000000004,-74.808300000000003
1423.0,252.40199999999999,96.865799999999993,-22.7836,96.753500000000003,-6.4861800000000001,107.967,-69.058700000000002
1424.0,260.68599999999998,167.191,26.3078,130.416,-23.083200000000001,115.571,-58.5077
1425.0,266.46499999999997,187.50899999999999,27.7212,114.71899999999999,-33.875599999999999,116.753,-49.892699999999998
1426.0,259.43700000000001,190.19499999999999,21.845800000000001,91.651700000000005,-36.928400000000003,108.663,-45.938400000000001
1427.0,246.624,186.56200000000001,13.2559,67.557000000000002,-35.652900000000002,95.729399999999998,-44.516100000000002
1428.0,234.37,182.88499999999999,8.0181799999999992,48.787100000000002,-34.690899999999999,81.933000000000007,-44.975700000000003
1429.0,224.81399999999999,178.84100000000001,3.2597999999999998,32.510899999999999,-34.642899999999997,68.656899999999993,-45.646999999999998
1430.0,218.453,178.13200000000001,1.9141999999999999,21.372599999999998,-36.021799999999999,56.377899999999997,-45.793300000000002
1431.0,194.501,41.264800000000001,-22.884899999999998,172.10400000000001,26.117100000000001,-44.334299999999999,9.31785
1432.0,195.62299999999999,33.404899999999998,-26.033999999999999,174.536,27.7514,-36.707299999999996,5.02949
1433.0,196.72,29.6663,-25.5352,179.51900000000001,28.9575,-28.3293,0.37170399999999998
1434.0,198.078,24.737100000000002,-26.591100000000001,181.97,29.521699999999999,-19.387799999999999,-4.6678899999999999
1435.0,200.12899999999999,24.2334,-23.283999999999999,188.10400000000001,29.145900000000001,-10.0116,-10.0708
1436.0,203.63300000000001,22.534300000000002,-20.813800000000001,193.35900000000001,27.424299999999999,-0.176348,-15.7584
1437.0,209.422,24.343699999999998,-14.156499999999999,203.32900000000001,23.988600000000002,10.3598,-21.6036
1438.0,218.63800000000001,26.240100000000002,-6.8820699999999997,215.15199999999999,18.591799999999999,22.2407,-27.3245
1439.0,231.28700000000001,33.077399999999997,4.7198900000000004,232.00200000000001,11.680300000000001,35.853700000000003,-32.719299999999997
1440.0,245.44999999999999,41.147599999999997,13.712300000000001,245.292,4.6854699999999996,51.805,-36.968299999999999
1441.0,253.36799999999999,58.838799999999999,24.627600000000001,253.85900000000001,1.07311,66.613299999999995,-40.845100000000002
1442.0,244.547,73.768600000000006,18.718599999999999,231.58799999999999,5.6523500000000002,76.701599999999999,-42.553400000000003
1443.0,231.99199999999999,46.860700000000001,-38.931800000000003,151.58099999999999,16.1174,81.375,-44.212800000000001
1444.0,222.80099999999999,-2.2751399999999999,-107.352,65.705500000000001,27.921299999999999,72.748900000000006,-53.5991
1445.0,218.554,-5.82212,-121.87,36.302599999999998,37.832799999999999,61.634500000000003,-63.101199999999999
1446.0,219.673,1.0275300000000001,-122.33799999999999,26.004300000000001,39.523000000000003,60.859000000000002,-67.167599999999993
1447.0,219.762,4.5285200000000003,-120.16,21.160499999999999,31.854299999999999,66.536900000000003,-68.488399999999999
1448.0,223.15600000000001,13.0406,-110.42700000000001,22.129999999999999,15.485300000000001,79.913799999999995,-67.0107
1449.0,230.00899999999999,67.186300000000003,-48.301200000000001,71.446299999999994,-5.2046200000000002,93.703400000000002,-64.895700000000005
1450.0,234.946,150.18100000000001,23.348500000000001,123.06699999999999,-21.084499999999998,102.684,-54.318100000000001
1451.0,244.42400000000001,181.19,34.348599999999998,114.693,-32.995899999999999,107.61499999999999,-42.871499999999997
1452.0,240.863,180.49600000000001,26.3642,90.0458,-37.935699999999997,101.96599999999999,-38.773000000000003
1453.0,227.97800000000001,180.596,20.767099999999999,70.093299999999999,-36.193899999999999,89.094800000000006,-37.1282
1454.0,216.012,172.27500000000001,10.7331,48.493200000000002,-34.778500000000001,75.907700000000006,-37.968800000000002
1455.0,205.941,168.703,6.6348599999999998,34.707500000000003,-33.866500000000002,62.8934,-39.155700000000003
1456.0,199.78,165.44800000000001,2.7687400000000002,22.601099999999999,-34.695399999999999,51.321300000000001,-39.865000000000002
1457.0,179.49199999999999,40.909999999999997,-23.163900000000002,159.03299999999999,23.3064,-39.833799999999997,8.1709300000000002
1458.0,180.27600000000001,39.538600000000002,-20.226600000000001,166.76400000000001,24.746400000000001,-32.901600000000002,4.2025399999999999
1459.0,181.02699999999999,35.0627,-20.7822,169.977,25.7668,-25.3261,-0.098726700000000001
1460.0,182.029,33.256300000000003,-18.8475,174.77600000000001,26.152799999999999,-17.314699999999998,-4.7182399999999998
1461.0,183.72900000000001,28.5579,-19.635300000000001,176.298,25.614999999999998,-8.9766100000000009,-9.6001700000000003
1462.0,186.90299999999999,27.2255,-16.3306,182.01599999999999,23.746300000000002,-0.28915000000000002,-14.6228
1463.0,192.36000000000001,25.7226,-12.121499999999999,189.28,20.223600000000001,9.0653400000000008,-19.6294
1464.0,201.316,28.387699999999999,-2.57918,203.17099999999999,14.7464,19.791399999999999,-24.3569
1465.0,213.68700000000001,33.970199999999998,9.7195,220.39699999999999,7.7446000000000002,32.361199999999997,-28.730799999999999
1466.0,227.85499999999999,46.453499999999998,25.420400000000001,240.048,0.47782400000000003,47.6449,-32.219499999999996
1467.0,235.11699999999999,61.309399999999997,35.265900000000002,247.07900000000001,-3.5674000000000001,61.714100000000002,-35.538499999999999
1468.0,225.80099999999999,79.598100000000002,32.291600000000003,228.15799999999999,0.59002699999999997,71.651200000000003,-37.627800000000001
1469.0,213.142,53.989899999999999,-25.296099999999999,149.89599999999999,10.7506,75.519999999999996,-40.351199999999999
1470.0,204.126,5.26844,-94.7239,66.037000000000006,21.5182,66.245900000000006,-49.481099999999998
1471.0,199.703,-2.5549300000000001,-114.946,33.921999999999997,30.546199999999999,54.671500000000002,-57.888300000000001
1472.0,201.803,4.7690799999999998,-117.098,25.005299999999998,33.1434,53.600900000000003,-60.780299999999997
1473.0,202.31200000000001,9.6506500000000006,-112.822,23.532499999999999,29.422699999999999,56.647399999999998,-62.752800000000001
1474.0,202.93799999999999,16.6891,-104.98099999999999,19.977,18.183299999999999,68.065799999999996,-60.769300000000001
1475.0,208.572,42.720500000000001,-65.696100000000001,46.848300000000002,-1.51352,82.934299999999993,-59.5608
1476.0,211.74199999999999,132.66,21.9024,114.336,-18.0321,92.143199999999993,-51.037700000000001
1477.0,222.33099999999999,176.41499999999999,43.836500000000001,116.628,-30.909500000000001,98.339799999999997,-37.981299999999997
1478.0,223.40600000000001,176.58500000000001,35.287500000000001,92.938299999999998,-38.023299999999999,95.0642,-33.258899999999997
1479.0,211.43199999999999,174.81200000000001,27.640599999999999,71.573899999999995,-36.485900000000001,82.840400000000002,-31.614100000000001
1480.0,199.83600000000001,166.976,17.532,51.968299999999999,-34.6648,70.187299999999993,-32.545699999999997
1481.0,189.477,160.75700000000001,10.7951,37.398600000000002,-33.147500000000001,57.465400000000002,-34.115299999999998
1482.0,183.321,157.22900000000001,6.6874700000000002,26.706099999999999,-33.4084,46.496200000000002,-35.227400000000003
1483.0,165.95599999999999,43.811,-20.473199999999999,150.113,20.813300000000002,-35.690600000000003,7.1708699999999999
1484.0,166.441,36.997799999999998,-23.311800000000002,151.33699999999999,22.09,-29.4131,3.5012099999999999
1485.0,166.87100000000001,33.7453,-22.8628,154.87,22.9497,-22.6037,-0.46128400000000003
1486.0,167.59800000000001,29.6113,-23.3306,156.73400000000001,23.179400000000001,-15.4735,-4.68771
1487.0,169.047,29.546199999999999,-19.337199999999999,162.65600000000001,22.495799999999999,-8.1172799999999992,-9.0647900000000003
1488.0,172.05500000000001,28.303699999999999,-15.456300000000001,168.786,20.5215,-0.48928100000000002,-13.427899999999999
1489.0,177.30199999999999,29.900099999999998,-7.2322800000000003,179.959,16.961300000000001,7.7877299999999998,-17.533899999999999
1490.0,186.03399999999999,31.346399999999999,2.4590700000000001,193.852,11.5932,17.516200000000001,-21.1998
1491.0,197.90199999999999,37.639899999999997,17.169899999999998,212.96100000000001,4.89398,29.159400000000002,-24.476900000000001
1492.0,211.304,44.686799999999998,29.2986,228.035,-2.16066,43.734200000000001,-27.216999999999999
1493.0,217.505,63.483699999999999,43.807699999999997,239.05099999999999,-6.0304099999999998,56.890599999999999,-30.682300000000001
1494.0,207.041,78.198899999999995,37.575200000000002,216.142,-2.5073400000000001,66.539100000000005,-33.076799999999999
1495.0,194.22399999999999,47.630000000000003,-23.748200000000001,134.90700000000001,6.1018299999999996,69.900000000000006,-36.567900000000002
1496.0,186.37799999999999,2.53274,-90.872600000000006,57.234200000000001,15.7515,60.025799999999997,-46.032899999999998
1497.0,183.50899999999999,4.6995800000000001,-103.682,36.909300000000002,24.145700000000001,48.716200000000001,-53.328099999999999
1498.0,186.01400000000001,9.72485,-109.116,26.773499999999999,26.7895,47.790199999999999,-55.246400000000001
1499.0,185.666,11.9238,-107.84099999999999,23.285900000000002,24.999500000000001,48.996099999999998,-56.455500000000001
1500.0,184.24299999999999,10.8392,-109.98099999999999,11.2263,17.1737,57.065300000000001,-53.686999999999998
1501.0,187.536,24.887499999999999,-82.563199999999995,29.346299999999999,0.023982699999999999,70.585700000000003,-52.2119
1502.0,189.51599999999999,102.119,0.73155700000000001,91.319800000000001,-16.257200000000001,80.581599999999995,-45.978099999999998
1503.0,200.39400000000001,162.72800000000001,44.389899999999997,110.544,-28.9376,88.541499999999999,-34.5212
1504.0,205.989,168.22200000000001,39.5867,90.309799999999996,-36.844999999999999,87.838800000000006,-29.533300000000001
1505.0,196.53100000000001,167.71000000000001,32.630000000000003,70.956500000000005,-36.610100000000003,76.9375,-27.7315
1506.0,185.36000000000001,158.27500000000001,20.198399999999999,50.738,-34.472000000000001,64.793700000000001,-28.389800000000001
1507.0,175.03100000000001,151.87100000000001,13.0283,37.6693,-32.573399999999999,52.541800000000002,-30.042899999999999
1508.0,168.64400000000001,146.38200000000001,7.0440899999999997,26.740100000000002,-32.259399999999999,42.0152,-31.434899999999999
1509.0,153.71899999999999,43.6798,-20.9682,139.05199999999999,18.446100000000001,-31.890899999999998,6.24057
1510.0,153.941,43.122199999999999,-17.915600000000001,145.518,19.570399999999999,-26.226800000000001,2.86713
1511.0,154.12299999999999,39.6905,-17.874700000000001,148.078,20.2776,-20.1463,-0.76703900000000003
1512.0,154.60300000000001,38.294600000000003,-15.577500000000001,152.22499999999999,20.347999999999999,-13.861800000000001,-4.5989500000000003
1513.0,155.899,33.933599999999998,-15.5421,153.91499999999999,19.5198,-7.4456699999999998,-8.4724000000000004
1514.0,158.827,32.291899999999998,-11.3401,160.285,17.439299999999999,-0.79623999999999995,-12.1273
1515.0,164.08199999999999,30.882000000000001,-5.1503899999999998,169.49799999999999,13.953900000000001,6.5487200000000003,-15.305300000000001
1516.0,172.636,32.948399999999999,6.3762400000000001,185.102,8.9275900000000004,15.4549,-17.773700000000002
1517.0,183.63900000000001,38.497799999999998,21.539200000000001,203.827,2.98325,26.326599999999999,-19.933900000000001
1518.0,195.33699999999999,50.247100000000003,39.503900000000002,223.05699999999999,-2.95574,40.197899999999997,-21.967099999999999
1519.0,198.87,65.025400000000005,51.531599999999997,228.821,-5.9927400000000004,52.295900000000003,-25.920000000000002
1520.0,187.33000000000001,82.472399999999993,46.229399999999998,206.95599999999999,-3.1308600000000002,60.773600000000002,-29.786100000000001
1521.0,177.30799999999999,53.340499999999999,-16.624500000000001,128.83199999999999,3.5538099999999999,62.948399999999999,-34.818899999999999
1522.0,171.733,8.0163799999999998,-82.621799999999993,55.933599999999998,11.7254,53.202500000000001,-43.717399999999998
1523.0,169.11000000000001,5.3268399999999998,-98.4833,34.4084,18.587599999999998,43.506100000000004,-49.132599999999996
1524.0,171.68600000000001,14.091900000000001,-100.34999999999999,29.401499999999999,20.529299999999999,43.1235,-50.165300000000002
1525.0,171.309,16.861799999999999,-99.879499999999993,26.608699999999999,20.633199999999999,43.375599999999999,-50.2121
1526.0,168.83099999999999,16.996099999999998,-100.848,15.689299999999999,16.369299999999999,48.2196,-48.268999999999998
1527.0,170.47,25.8688,-80.522000000000006,27.6189,3.8035199999999998,59.021900000000002,-48.503300000000003
1528.0,170.934,100.605,2.8642400000000001,92.995500000000007,-11.046099999999999,68.366299999999995,-44.583500000000001
1529.0,179.01900000000001,155.25200000000001,46.996600000000001,110.678,-25.069800000000001,77.095600000000005,-33.9146
1530.0,188.077,163.61199999999999,46.461399999999998,91.531499999999994,-34.7395,79.495699999999999,-27.798300000000001
1531.0,182.70699999999999,161.57300000000001,37.899299999999997,71.090400000000002,-36.289299999999997,71.162400000000005,-25.474299999999999
1532.0,172.46100000000001,154.61099999999999,26.9511,53.630699999999997,-34.343499999999999,59.688800000000001,-25.254100000000001
1533.0,162.38499999999999,145.84200000000001,17.099399999999999,39.643500000000003,-32.207900000000002,48.087800000000001,-26.703299999999999
1534.0,155.51900000000001,140.08699999999999,10.974,30.1996,-31.314699999999998,37.873399999999997,-28.1877
1535.0,142.60900000000001,46.4895,-18.392700000000001,131.875,16.1584,-28.444500000000001,5.3686800000000003
1536.0,142.607,40.302500000000002,-21.2103,131.87100000000001,17.139199999999999,-23.369900000000001,2.3034300000000001
1537.0,142.51599999999999,37.592100000000002,-20.526199999999999,134.488,17.702999999999999,-17.978400000000001,-0.994228
1538.0,142.84999999999999,33.909300000000002,-20.355,136.154,17.624700000000001,-12.5024,-4.4156500000000003
1539.0,144.02699999999999,34.491100000000003,-14.9557,142.99799999999999,16.667999999999999,-6.9556199999999997,-7.7725
1540.0,147.178,33.602800000000002,-9.2475699999999996,151.10499999999999,14.544499999999999,-1.17032,-10.7217
1541.0,152.56999999999999,35.612400000000001,1.2813600000000001,164.83799999999999,11.2126,5.3797800000000002,-12.900499999999999
1542.0,161.13499999999999,37.033499999999997,12.812099999999999,180.523,6.8173700000000004,13.7394,-14.2272
1543.0,170.45099999999999,44.347499999999997,28.942499999999999,199.226,2.3082600000000002,23.836099999999998,-15.516999999999999
1544.0,179.19999999999999,50.722700000000003,39.113500000000002,209.29599999999999,-1.8496699999999999,36.781700000000001,-17.537400000000002
1545.0,178.416,71.771500000000003,52.935400000000001,216.13900000000001,-3.53362,45.817100000000003,-22.9574
1546.0,167.51900000000001,84.5672,41.527900000000002,187.292,0.53664000000000001,54.002899999999997,-28.792200000000001
1547.0,163.09800000000001,42.306699999999999,-26.736599999999999,106.205,6.8791000000000002,56.208199999999998,-35.2102
1548.0,158.02199999999999,2.9642499999999998,-83.115899999999996,45.953000000000003,10.989100000000001,45.748399999999997,-42.314700000000002
1549.0,156.80699999999999,13.0977,-87.193100000000001,38.756399999999999,13.570399999999999,39.139299999999999,-45.278399999999998
1550.0,159.102,18.0563,-90.813199999999995,33.546500000000002,14.9131,39.490200000000002,-45.420000000000002
1551.0,158.38300000000001,18.944700000000001,-93.972499999999997,27.0929,16.0106,39.509099999999997,-44.333399999999997
1552.0,154.81100000000001,15.237299999999999,-98.510099999999994,14.163,14.2651,40.792900000000003,-42.997599999999998
1553.0,152.78100000000001,15.997400000000001,-88.131100000000004,11.398199999999999,7.0175400000000003,48.138300000000001,-44.187100000000001
1554.0,154.45500000000001,61.964500000000001,-28.981300000000001,52.092100000000002,-3.88842,58.549199999999999,-44.930100000000003
1555.0,159.15100000000001,130.779,35.3735,95.269499999999994,-17.843900000000001,66.203800000000001,-37.6372
1556.0,169.25700000000001,151.86099999999999,44.811799999999998,86.690100000000001,-30.647099999999998,69.762200000000007,-28.865600000000001
1557.0,169.62299999999999,153.22499999999999,39.753399999999999,68.981700000000004,-35.473799999999997,65.278800000000004,-24.490300000000001
1558.0,161.08799999999999,147.566,29.523099999999999,52.487699999999997,-34.225999999999999,55.030900000000003,-23.089300000000001
1559.0,151.27600000000001,138.619,19.142499999999998,39.410400000000003,-31.885899999999999,44.178199999999997,-23.9102
1560.0,143.72300000000001,131.214,11.699299999999999,30.0,-30.581299999999999,34.1205,-25.341100000000001
1561.0,132.59800000000001,46.321399999999997,-18.728300000000001,122.61499999999999,13.916700000000001,-25.326899999999998,4.5404999999999998
1562.0,132.38900000000001,46.5167,-15.4306,128.19,14.750500000000001,-20.794799999999999,1.7753300000000001
1563.0,132.11799999999999,44.016100000000002,-14.5848,130.52500000000001,15.159700000000001,-16.0669,-1.14689
1564.0,132.27000000000001,42.858699999999999,-11.6233,134.614,14.942500000000001,-11.3565,-4.1700799999999996
1565.0,133.50800000000001,38.875700000000002,-10.1203,137.53999999999999,13.886799999999999,-6.6219299999999999,-6.9483499999999996
1566.0,136.84899999999999,36.759500000000003,-4.6833099999999996,145.506,11.7719,-1.61025,-9.20383
1567.0,142.857,36.306699999999999,4.08622,158.08000000000001,8.7924399999999991,4.4135400000000002,-10.4429
1568.0,151.29300000000001,38.244199999999999,16.072199999999999,174.27500000000001,5.2744799999999996,12.286799999999999,-10.6632
1569.0,157.90100000000001,45.824100000000001,30.482800000000001,189.453,2.92049,22.033799999999999,-11.293200000000001
1570.0,161.471,56.2624,39.498199999999997,195.45099999999999,2.7194799999999999,33.731299999999997,-14.712199999999999
1571.0,157.19300000000001,69.898799999999994,42.281300000000002,187.684,6.6385100000000001,41.3979,-22.709
1572.0,150.80799999999999,62.2271,13.3779,143.23099999999999,10.880599999999999,47.932899999999997,-29.3841
1573.0,148.03299999999999,10.016999999999999,-59.252200000000002,64.448599999999999,9.8384800000000006,46.156199999999998,-35.122500000000002
1574.0,145.19800000000001,4.7430000000000003,-79.796599999999998,42.400599999999997,8.9763400000000004,37.272599999999997,-40.514699999999998
1575.0,146.81200000000001,14.998799999999999,-82.104699999999994,38.408799999999999,9.7693200000000004,35.737200000000001,-41.575400000000002
1576.0,147.84800000000001,20.279900000000001,-82.577799999999996,36.892200000000003,10.256399999999999,36.694000000000003,-40.578299999999999
1577.0,146.58500000000001,24.0487,-84.362099999999998,30.7087,11.5,36.245399999999997,-39.284799999999997
1578.0,143.624,22.340599999999998,-87.896500000000003,20.7211,12.1403,34.779899999999998,-39.074199999999998
1579.0,138.01300000000001,16.442599999999999,-89.045699999999997,7.0579799999999997,8.3398900000000005,36.1053,-39.591200000000001
1580.0,137.155,21.318000000000001,-71.649900000000002,5.8960999999999997,-0.99251199999999995,45.556699999999999,-41.372999999999998
1581.0,142.392,76.459699999999998,-7.4684400000000002,50.537700000000001,-13.162699999999999,55.627699999999997,-40.546199999999999
1582.0,149.86099999999999,137.19800000000001,42.804699999999997,84.072800000000001,-25.594200000000001,59.719799999999999,-32.020400000000002
1583.0,156.76499999999999,149.114,42.918799999999997,70.334500000000006,-33.685099999999998,58.590800000000002,-24.185700000000001
1584.0,151.42699999999999,144.005,34.8416,54.848700000000001,-34.177,51.243099999999998,-21.721800000000002
1585.0,141.05000000000001,134.68600000000001,23.718699999999998,41.804000000000002,-31.436699999999998,40.442,-21.523399999999999
1586.0,133.42500000000001,126.58,15.8767,33.065300000000001,-30.1404,30.856999999999999,-22.895299999999999
1587.0,123.586,48.753599999999999,-16.311,116.82599999999999,11.730499999999999,-22.526199999999999,3.7381500000000001
1588.0,123.178,43.311300000000003,-18.758600000000001,116.13500000000001,12.425000000000001,-18.514800000000001,1.3289
1589.0,122.729,40.588200000000001,-18.038900000000002,117.91200000000001,12.719200000000001,-14.4137,-1.23648
1590.0,122.758,37.695700000000002,-16.385100000000001,120.41500000000001,12.394,-10.418799999999999,-3.75719
1591.0,124.123,38.293700000000001,-9.6608099999999997,128.61699999999999,11.2981,-6.4168200000000004,-6.0695800000000002
1592.0,128.04499999999999,38.785200000000003,-0.845912,140.51599999999999,9.3344799999999992,-2.0083099999999998,-7.5365700000000002
1593.0,134.55699999999999,40.671999999999997,10.727499999999999,156.32499999999999,6.7948700000000004,3.59728,-8.0138300000000005
1594.0,142.76400000000001,45.076300000000003,23.3566,173.5,4.5398100000000001,11.4396,-7.6061399999999999
1595.0,146.012,53.639600000000002,33.1721,183.27699999999999,3.9365199999999998,19.9895,-8.0879999999999992
1596.0,141.72999999999999,51.280000000000001,22.825500000000002,163.84200000000001,6.5982000000000003,30.632100000000001,-12.369300000000001
1597.0,137.62200000000001,25.2622,-15.3371,113.496,11.862399999999999,37.617899999999999,-20.4665
1598.0,134.505,-8.0880799999999997,-66.481300000000005,55.562199999999997,13.056100000000001,36.557699999999997,-28.2423
1599.0,134.49000000000001,-4.1268900000000004,-81.950999999999993,38.221899999999998,9.4631399999999992,32.230499999999999,-34.432699999999997
1600.0,136.78999999999999,6.7810899999999998,-81.323499999999996,37.514000000000003,7.3960699999999999,30.48,-38.060000000000002
1601.0,137.39099999999999,19.643899999999999,-73.214299999999994,43.376199999999997,6.7732299999999999,32.439500000000002,-37.381599999999999
1602.0,137.476,23.621700000000001,-73.591800000000006,40.480200000000004,6.4474900000000002,34.399000000000001,-35.830199999999998
1603.0,135.584,25.4815,-77.321899999999999,31.585599999999999,7.5909399999999998,33.091999999999999,-35.079300000000003
1604.0,132.88499999999999,18.2608,-88.757900000000006,14.023999999999999,9.2221799999999998,29.659800000000001,-35.338999999999999
1605.0,128.53,12.8048,-93.046199999999999,2.2469800000000002,8.6275600000000008,25.336600000000001,-37.293700000000001
1606.0,125.114,2.05382,-98.8827,-17.9072,1.2530399999999999,29.8903,-38.282800000000002
1607.0,128.59899999999999,20.433299999999999,-63.6661,1.14049,-12.2172,42.6965,-39.994199999999999
1608.0,133.27199999999999,104.952,21.801400000000001,66.801000000000002,-23.008800000000001,49.672400000000003,-34.5154
1609.0,143.48599999999999,144.28200000000001,45.221899999999998,71.882300000000001,-30.8386,51.859499999999997,-24.388000000000002
1610.0,142.732,135.06100000000001,33.433,51.745100000000001,-33.791200000000003,47.870399999999997,-20.5715
1611.0,131.72499999999999,130.012,27.252800000000001,42.927999999999997,-31.047999999999998,37.007300000000001,-19.634599999999999
1612.0,124.22799999999999,118.047,15.4978,31.473600000000001,-29.7334,27.994599999999998,-20.783999999999999
1613.0,115.51600000000001,48.6295,-16.398,109.23099999999999,9.5813100000000002,-20.002400000000002,2.9651399999999999
1614.0,115.059,49.375300000000003,-12.7852,114.28700000000001,10.126099999999999,-16.4938,0.90712800000000005
1615.0,114.34999999999999,47.828600000000002,-10.778700000000001,116.878,10.282299999999999,-12.9703,-1.22584
1616.0,114.43899999999999,46.561999999999998,-7.0201700000000002,121.44799999999999,9.8910900000000002,-9.6330899999999993,-3.3107799999999998
1617.0,115.788,43.205199999999998,-3.37399,126.459,8.8218700000000005,-6.3211899999999996,-4.9889099999999997
1618.0,120.56,40.155099999999997,2.74763,136.38999999999999,7.0992699999999997,-2.3206600000000002,-5.9744900000000003
1619.0,127.596,42.208100000000002,13.9016,152.447,5.2762099999999998,3.0013700000000001,-5.6519199999999996
1620.0,134.887,44.219000000000001,21.777799999999999,164.58199999999999,4.4218999999999999,11.1112,-4.9514399999999998
1621.0,133.06200000000001,57.482700000000001,28.588100000000001,168.94800000000001,6.3080499999999997,18.028300000000002,-6.6075600000000003
1622.0,125.67100000000001,56.588200000000001,7.6553199999999997,137.52199999999999,9.9200599999999994,27.3766,-10.7157
1623.0,125.455,-2.3373699999999999,-69.875699999999995,55.693199999999997,11.7523,28.6478,-18.387899999999998
1624.0,125.277,-14.824199999999999,-95.958600000000004,27.001100000000001,10.995799999999999,21.2011,-27.4315
1625.0,127.155,4.6722299999999999,-84.543300000000002,33.061199999999999,9.2020400000000002,21.4009,-32.8748
1626.0,128.887,12.437900000000001,-76.318399999999997,39.747700000000002,6.7484099999999998,25.401399999999999,-34.118099999999998
1627.0,128.279,18.4984,-70.4375,42.308300000000003,4.4824900000000003,29.281199999999998,-32.808199999999999
1628.0,127.898,24.8291,-66.998400000000004,41.350299999999997,3.6253700000000002,32.025399999999998,-31.723600000000001
1629.0,125.634,28.7746,-68.879099999999994,33.990200000000002,4.5544099999999998,29.7834,-31.558800000000002
1630.0,123.524,24.247800000000002,-79.883200000000002,17.453199999999999,6.1960199999999999,24.4053,-32.5276
1631.0,120.73099999999999,15.2447,-89.206199999999995,3.0717699999999999,7.3803700000000001,16.619199999999999,-35.577500000000001
1632.0,118.03400000000001,4.5324600000000004,-98.396799999999999,-15.664899999999999,2.8760500000000002,16.954699999999999,-37.064599999999999
1633.0,118.28400000000001,9.3277199999999993,-77.674999999999997,-5.6386900000000004,-10.2377,29.476400000000002,-39.066800000000001
1634.0,121.14,82.743700000000004,4.8315000000000001,55.1877,-21.5654,40.430799999999998,-35.0854
1635.0,130.72,134.51300000000001,44.372799999999998,70.857799999999997,-28.847300000000001,46.026600000000002,-24.471299999999999
1636.0,133.773,133.971,39.3157,55.995399999999997,-32.688699999999997,44.290100000000002,-19.541799999999999
1637.0,123.657,125.643,30.351900000000001,44.134700000000002,-30.823599999999999,34.088799999999999,-18.2361
1638.0,115.639,115.099,20.268999999999998,35.085299999999997,-29.3017,25.180399999999999,-19.036999999999999
1639.0,108.414,50.734299999999998,-14.0794,104.76600000000001,7.4508900000000002,-17.793900000000001,2.2315700000000001
1640.0,107.73,45.4358,-16.521699999999999,103.28,7.8863700000000003,-14.7172,0.52428200000000003
1641.0,107.018,42.966099999999997,-15.1188,105.107,7.9562499999999998,-11.756500000000001,-1.0886899999999999
1642.0,106.795,40.256599999999999,-12.318,108.276,7.5819400000000003,-9.0029299999999992,-2.7466599999999999
1643.0,108.819,41.3748,-3.4340899999999999,119.20099999999999,6.6037299999999997,-6.1740700000000004,-3.8426300000000002
1644.0,113.873,43.224200000000003,7.7502800000000001,134.38800000000001,5.20763,-2.7700800000000001,-4.45749
1645.0,122.06,45.871200000000002,18.702500000000001,151.52699999999999,4.2606000000000002,3.28721,-3.6521300000000001
1646.0,127.003,54.939300000000003,27.053699999999999,164.19499999999999,4.1311499999999999,9.6468100000000003,-3.5704600000000002
1647.0,120.316,67.710899999999995,23.752400000000002,154.327,8.1669599999999996,17.735499999999998,-5.4735300000000002
1648.0,117.807,30.5746,-37.314799999999998,85.086299999999994,13.9407,23.940100000000001,-9.9114699999999996
1649.0,119.175,-12.8735,-99.995199999999997,21.116399999999999,14.667400000000001,17.0047,-18.102599999999999
1650.0,120.833,-7.4415500000000003,-103.65000000000001,13.8919,12.3721,11.012,-25.910299999999999
1651.0,121.03400000000001,5.2308500000000002,-89.010599999999997,25.599699999999999,8.8327799999999996,14.75,-29.134899999999998
1652.0,120.29000000000001,10.667,-77.1995,35.924399999999999,5.2297099999999999,20.7394,-28.979299999999999
1653.0,119.623,23.9602,-61.486400000000003,46.867600000000003,2.8483700000000001,26.363199999999999,-28.384499999999999
1654.0,118.986,25.749099999999999,-61.740499999999997,41.220700000000001,1.62784,29.0014,-28.160499999999999
1655.0,116.98399999999999,27.004300000000001,-66.683199999999999,30.443300000000001,2.0718299999999998,26.035,-29.026499999999999
1656.0,115.639,18.6449,-82.496399999999994,9.8527100000000001,3.5719500000000002,19.072700000000001,-30.687799999999999
1657.0,114.705,9.1309900000000006,-94.072999999999993,-4.6633699999999996,5.0260100000000003,8.8294800000000002,-33.8125
1658.0,113.099,-7.3254999999999999,-109.172,-26.4132,2.3206799999999999,6.9031700000000003,-35.773600000000002
1659.0,109.548,-1.7414400000000001,-86.557000000000002,-11.7157,-8.1838099999999994,19.247199999999999,-37.600099999999998
1660.0,110.086,66.5428,-7.4523099999999998,47.267000000000003,-20.028099999999998,32.478400000000001,-33.319699999999997
1661.0,120.05200000000001,123.247,39.985700000000001,67.584599999999995,-28.339300000000001,40.592799999999997,-23.548500000000001
1662.0,124.982,126.148,38.57,53.851599999999998,-31.698499999999999,40.771799999999999,-18.742799999999999
1663.0,116.03700000000001,119.92100000000001,31.533999999999999,43.863399999999999,-30.3339,31.340199999999999,-17.157
1664.0,107.949,107.476,19.932300000000001,33.661700000000003,-29.071100000000001,22.536000000000001,-17.732700000000001
1665.0,102.15600000000001,50.117600000000003,-14.3446,98.336799999999997,5.3410399999999996,-15.8628,1.4726699999999999
1666.0,101.322,52.173299999999998,-9.4161300000000008,103.869,5.6018600000000003,-13.1945,0.24923600000000001
1667.0,100.562,50.147199999999998,-7.2405200000000001,106.31399999999999,5.5866899999999999,-10.7212,-0.96559099999999998
1668.0,100.134,50.737000000000002,-0.70247899999999996,112.956,5.2388500000000002,-8.4676399999999994,-1.9693099999999999
1669.0,102.595,44.808300000000003,2.1391800000000001,118.16500000000001,4.5007599999999996,-6.0529999999999999,-2.7759800000000001
1670.0,108.033,45.421199999999999,12.5284,132.75,3.6643599999999998,-2.9542299999999999,-2.82178
1671.0,117.12,44.037700000000001,17.307200000000002,145.15199999999999,2.91187,3.3443499999999999,-2.3650099999999998
1672.0,118.062,57.790999999999997,23.571300000000001,153.25,5.7376399999999999,9.3127499999999994,-3.1501899999999998
1673.0,112.03400000000001,53.843400000000003,-4.0215199999999998,117.256,11.072800000000001,19.1022,-4.0948099999999998
1674.0,111.964,-1.3865700000000001,-83.9542,32.8977,13.2751,17.787600000000001,-8.8421900000000004
1675.0,113.623,-12.3703,-112.105,1.7958099999999999,12.622400000000001,5.76281,-16.040900000000001
1676.0,115.736,4.1738400000000002,-99.903800000000004,11.716200000000001,10.2597,4.4333900000000002,-21.182500000000001
1677.0,114.371,8.3569999999999993,-86.935199999999995,25.072500000000002,7.26945,9.4852000000000007,-23.801400000000001
1678.0,112.43300000000001,18.651700000000002,-68.385999999999996,40.613900000000001,4.3255100000000004,16.999400000000001,-24.1435
1679.0,111.877,19.340699999999998,-63.731200000000001,40.317300000000003,1.8380300000000001,23.0488,-24.691099999999999
1680.0,111.357,25.674600000000002,-59.592599999999997,38.512999999999998,0.37238100000000002,25.121400000000001,-25.6692
1681.0,110.327,27.573899999999998,-64.149799999999999,28.7255,0.135049,21.3721,-27.577300000000001
1682.0,110.473,22.213699999999999,-77.693399999999997,11.3917,1.0773999999999999,13.472200000000001,-29.6586
1683.0,111.47,10.7887,-91.334000000000003,-3.36748,2.6301600000000001,1.7556400000000001,-32.720500000000001
1684.0,110.54300000000001,-5.3953300000000004,-106.586,-23.920400000000001,0.78673899999999997,-1.45472,-34.172699999999999
1685.0,104.788,-4.78599,-87.728499999999997,-8.6249300000000009,-7.9756600000000004,10.9435,-35.844900000000003
1686.0,101.726,73.514399999999995,1.94658,62.626100000000001,-18.4785,24.417000000000002,-32.010599999999997
1687.0,111.363,123.098,42.932899999999997,73.085300000000004,-27.074100000000001,35.011400000000002,-23.1435
1688.0,116.985,122.535,41.256500000000003,56.411999999999999,-30.782800000000002,37.454599999999999,-18.530000000000001
1689.0,108.53700000000001,116.32599999999999,34.567599999999999,45.799599999999998,-29.821200000000001,28.356200000000001,-16.4102
1690.0,101.301,104.313,23.2789,36.4803,-28.975300000000001,20.173200000000001,-16.844899999999999
1691.0,96.498099999999994,52.191099999999999,-11.5578,95.320599999999999,3.2093500000000001,-14.209300000000001,0.76237299999999997
1692.0,95.7273,46.784399999999998,-13.804399999999999,93.605500000000006,3.3595799999999998,-11.9694,0.017970900000000001
1693.0,94.595399999999998,44.661200000000001,-11.384600000000001,95.784199999999998,3.34063,-9.8936100000000007,-0.64418500000000001
1694.0,94.334500000000006,41.563200000000002,-7.8583299999999996,99.588300000000004,3.1388099999999999,-7.9309700000000003,-1.1038399999999999
1695.0,96.634,44.286999999999999,3.63931,113.181,2.5706899999999999,-6.0804999999999998,-1.6798500000000001
1696.0,103.56999999999999,46.381399999999999,15.460000000000001,130.786,1.8689499999999999,-2.5778500000000002,-1.4471000000000001
1697.0,111.655,52.938400000000001,26.157399999999999,148.59100000000001,1.8582399999999999,2.4695900000000002,-1.82081
1698.0,108.77200000000001,61.876899999999999,22.565200000000001,143.50700000000001,4.1861800000000002,10.8011,-1.9109400000000001
1699.0,106.10599999999999,26.759799999999998,-41.401200000000003,73.812700000000007,7.2139800000000003,18.420999999999999,-2.4071400000000001
1700.0,108.42100000000001,-15.692600000000001,-112.148,0.26902199999999998,8.9141100000000009,9.5686499999999999,-6.9256500000000001
1701.0,113.06699999999999,-7.6938899999999997,-118.727,-10.5989,9.8676300000000001,-1.63001,-12.5146
1702.0,112.399,3.1874500000000001,-104.965,2.3184999999999998,8.6418900000000001,-0.62057300000000004,-16.378499999999999
1703.0,108.526,9.1349,-86.927999999999997,21.3125,6.0148999999999999,5.4257999999999997,-18.573399999999999
1704.0,105.893,14.700699999999999,-72.066299999999998,32.937100000000001,3.3361900000000002,13.396599999999999,-19.985099999999999
1705.0,105.333,23.898299999999999,-59.057899999999997,41.134,0.97738599999999998,18.882100000000001,-21.709700000000002
1706.0,105.479,23.750699999999998,-61.5139,32.938400000000001,-0.96099500000000004,20.2819,-24.16
1707.0,106.005,22.482199999999999,-69.382400000000004,20.883500000000002,-1.7380899999999999,15.867000000000001,-26.943999999999999
1708.0,108.71599999999999,12.5016,-88.048599999999993,-0.0054546600000000001,-1.6414,7.5142100000000003,-29.623100000000001
1709.0,112.072,2.4449399999999999,-100.85899999999999,-11.750400000000001,-0.0264234,-4.6886299999999999,-32.080300000000001
1710.0,112.36,-17.878399999999999,-120.404,-34.555900000000001,-1.13392,-8.9242399999999993,-33.178100000000001
1711.0,104.839,-14.6418,-98.489699999999999,-15.4909,-7.1889599999999998,3.1774399999999998,-35.804200000000002
1712.0,97.430099999999996,63.732799999999997,-5.9250999999999996,57.813699999999997,-15.127000000000001,17.970199999999998,-33.478400000000001
1713.0,102.965,114.43300000000001,38.482100000000003,70.873999999999995,-24.123799999999999,30.239999999999998,-24.186199999999999
1714.0,109.096,113.432,37.3964,53.182499999999997,-29.5078,33.8611,-18.4377
1715.0,101.96599999999999,109.839,34.1815,44.9193,-29.6187,25.5458,-16.130199999999999
1716.0,95.169799999999995,96.548699999999997,21.4239,34.677300000000002,-28.803100000000001,17.890000000000001,-16.171299999999999
1717.0,91.515199999999993,51.647399999999998,-10.8924,90.663200000000003,1.0631699999999999,-12.885,0.153997
1718.0,90.622200000000007,53.578600000000002,-5.3996500000000003,96.446700000000007,1.0665500000000001,-11.0229,-0.15601899999999999
1719.0,89.366399999999999,53.205300000000001,-0.820021,100.621,1.0099199999999999,-9.2126300000000008,-0.165043
1720.0,88.982299999999995,52.291600000000003,5.5193700000000003,107.01600000000001,0.84325000000000006,-7.6074400000000004,-0.12628700000000001
1721.0,90.809700000000007,48.982100000000003,11.247199999999999,114.245,1.13479,-5.6701699999999997,-0.30542799999999998
1722.0,99.133799999999994,44.320599999999999,16.840199999999999,126.718,1.37395,-2.03356,-0.43924099999999999
1723.0,105.298,52.5548,27.905799999999999,143.267,1.2012700000000001,1.6266700000000001,-1.0211600000000001
1724.0,101.745,59.0623,15.591200000000001,129.57300000000001,1.34263,11.7925,-0.95111900000000005
1725.0,103.185,19.718800000000002,-57.547800000000002,54.039400000000001,2.7232799999999999,16.489899999999999,-1.7639100000000001
1726.0,106.998,-7.3493199999999996,-112.681,-5.9580700000000002,5.6357900000000001,3.92428,-4.6161500000000002
1727.0,112.26900000000001,0.62758400000000003,-116.104,-13.7479,7.1846899999999998,-5.7810899999999998,-8.0494000000000003
1728.0,109.712,9.8980999999999995,-100.387,3.1267299999999998,6.4573700000000001,-4.6826999999999996,-11.310700000000001
1729.0,104.72,13.9353,-84.151399999999995,20.3993,4.7762000000000002,1.7586599999999999,-14.043900000000001
1730.0,102.066,19.4086,-69.875699999999995,32.274900000000002,2.5286499999999998,9.2028999999999996,-16.9145
1731.0,101.36199999999999,17.726600000000001,-68.157399999999996,29.359300000000001,0.215666,13.7437,-19.974299999999999
1732.0,102.379,20.703800000000001,-67.284099999999995,25.4359,-2.3304999999999998,14.2464,-23.634399999999999
1733.0,104.83,20.3294,-73.765699999999995,15.9793,-4.1464100000000004,9.8899500000000007,-26.962199999999999
1734.0,109.042,14.059900000000001,-87.472200000000001,1.1773100000000001,-4.9229399999999996,1.72275,-29.6755
1735.0,113.43899999999999,0.45830199999999999,-104.21299999999999,-13.6172,-3.5245199999999999,-9.06799,-31.110900000000001
1736.0,113.721,-15.6686,-117.574,-28.126000000000001,-3.9001199999999998,-14.1972,-31.6845
1737.0,104.194,-21.0959,-107.074,-22.816299999999998,-7.6121100000000004,-3.6865100000000002,-33.638399999999997
1738.0,94.790899999999993,37.247700000000002,-31.859500000000001,35.225499999999997,-13.468,13.9246,-32.758299999999998
1739.0,94.325500000000005,99.922399999999996,29.912700000000001,67.753699999999995,-21.680499999999999,26.068200000000001,-24.251899999999999
1740.0,101.05,113.221,40.861800000000002,58.104399999999998,-28.129000000000001,29.427199999999999,-17.833200000000001
1741.0,96.513499999999993,104.04300000000001,33.651299999999999,45.076000000000001,-29.4998,23.364699999999999,-16.177
1742.0,89.257999999999996,94.568700000000007,24.931100000000001,38.850700000000003,-28.5764,15.3948,-15.6241
1743.0,86.9148,53.011000000000003,-7.4144300000000003,89.014799999999994,-1.07606,-11.9338,-0.37075000000000002
1744.0,85.794499999999999,47.879600000000003,-8.4592500000000008,87.936000000000007,-1.0992299999999999,-10.3558,-0.094585699999999995
1745.0,84.493300000000005,45.187199999999997,-5.5878500000000004,90.334299999999999,-1.08891,-8.68309,0.46864
1746.0,83.971599999999995,43.301699999999997,-0.13795199999999999,95.530299999999997,-0.92570399999999997,-7.3445,1.0334700000000001
1747.0,85.344499999999996,45.273600000000002,11.835800000000001,108.307,-0.69331200000000004,-5.0516399999999999,1.49377
1748.0,93.405199999999994,39.637999999999998,17.615400000000001,119.999,-0.40911399999999998,-1.8274900000000001,0.69234499999999999
1749.0,99.169300000000007,56.957599999999999,36.476799999999997,144.25399999999999,-0.14410100000000001,1.4598100000000001,-0.037084800000000001
1750.0,94.951899999999995,66.746399999999994,26.686199999999999,132.74799999999999,-0.79539000000000004,11.670299999999999,-0.31225599999999998
1751.0,95.657700000000006,21.6374,-52.617600000000003,49.955800000000004,-0.71528599999999998,15.5802,-0.84051399999999998
1752.0,102.45399999999999,-10.244999999999999,-115.45099999999999,-16.340599999999998,1.7523200000000001,2.0740799999999999,-1.8774500000000001
1753.0,111.55800000000001,-0.88036700000000001,-120.164,-22.3386,3.9105799999999999,-8.7135700000000007,-3.7511000000000001
1754.0,109.901,5.5510799999999998,-108.72799999999999,-8.0692900000000005,4.2531800000000004,-8.1143699999999992,-6.7732200000000002
1755.0,104.32899999999999,11.343,-91.294700000000006,11.0121,3.1334599999999999,-2.21509,-10.6404
1756.0,101.125,13.256600000000001,-81.306700000000006,19.175799999999999,1.1600200000000001,4.1774199999999997,-14.525499999999999
1757.0,100.215,19.249400000000001,-71.703100000000006,24.7606,-1.4767300000000001,7.8391000000000002,-18.691800000000001
1758.0,101.214,15.819599999999999,-75.569299999999998,16.381799999999998,-4.5019499999999999,7.7548500000000002,-23.089300000000001
1759.0,104.78400000000001,10.1496,-85.253500000000003,4.3326900000000004,-7.4660500000000001,4.4311699999999998,-26.912600000000001
1760.0,109.54900000000001,2.16439,-98.903400000000005,-9.0868300000000009,-9.4382800000000007,-2.7588499999999998,-28.906099999999999
1761.0,114.343,-9.4083799999999993,-114.578,-21.856000000000002,-9.3550699999999996,-11.4414,-28.940100000000001
1762.0,114.547,-23.9207,-125.23,-30.7608,-8.5810700000000004,-17.040400000000002,-28.351600000000001
1763.0,102.706,-32.495699999999999,-121.514,-35.245100000000001,-9.71129,-8.1287699999999994,-28.168399999999998
1764.0,90.969399999999993,-1.6027400000000001,-70.218699999999998,0.36056300000000002,-13.9893,11.859,-28.400200000000002
1765.0,86.420900000000003,82.330799999999996,19.007200000000001,61.878100000000003,-20.492799999999999,22.489999999999998,-22.790700000000001
1766.0,93.420900000000003,106.791,37.692599999999999,56.305199999999999,-26.7714,24.999500000000001,-17.005299999999998
1767.0,91.084199999999996,94.848200000000006,29.313099999999999,42.289299999999997,-29.029299999999999,21.487300000000001,-16.023700000000002
1768.0,83.825999999999993,87.259,23.011800000000001,37.771299999999997,-28.5274,12.9541,-15.1068
1769.0,82.539599999999993,52.599800000000002,-4.7618799999999997,86.597099999999998,-3.1217000000000001,-11.341799999999999,-0.66194299999999995
1770.0,81.2166,55.234299999999998,2.69225,93.761700000000005,-3.2176900000000002,-9.9267299999999992,0.200266
1771.0,79.778700000000001,55.253399999999999,8.9425399999999993,99.256100000000004,-3.1511,-8.3799299999999999,1.3485499999999999
1772.0,78.873000000000005,55.2149,16.590900000000001,106.06399999999999,-2.6724999999999999,-6.8408100000000003,2.4304299999999999
1773.0,80.9161,51.043999999999997,21.559000000000001,112.324,-2.3604500000000002,-4.7182399999999998,3.2891300000000001
1774.0,87.162700000000001,48.525199999999998,28.657,123.821,-2.1179100000000002,-1.81698,2.1381399999999999
1775.0,93.441800000000001,53.793500000000002,36.875799999999998,137.465,-1.0641799999999999,2.8328099999999998,0.62802599999999997
1776.0,89.409599999999998,65.025199999999998,30.592400000000001,130.30199999999999,-3.02278,9.5263299999999997,0.059298900000000002
1777.0,89.102099999999993,40.580399999999997,-29.9604,64.176199999999994,-6.4598399999999998,14.332800000000001,0.39614700000000003
1778.0,99.031599999999997,0.57287299999999997,-102.94799999999999,-9.8986499999999999,-3.4904999999999999,3.0823499999999999,0.176459
1779.0,111.675,1.37026,-119.26000000000001,-24.3492,0.78180799999999995,-10.9209,-0.56098999999999999
1780.0,112.38500000000001,13.127700000000001,-106.59399999999999,-8.4161099999999998,1.4952799999999999,-11.212400000000001,-3.0703999999999998
1781.0,107.209,12.206300000000001,-97.112200000000001,4.5225200000000001,0.85442600000000002,-6.4754100000000001,-8.0858600000000003
1782.0,103.90000000000001,16.5032,-85.973200000000006,14.410600000000001,-0.92063200000000001,-1.57064,-12.830500000000001
1783.0,102.94,9.4115199999999994,-88.974400000000003,8.2816299999999998,-3.7360699999999998,1.3081,-18.0716
1784.0,102.709,10.1569,-85.284099999999995,8.0412999999999997,-7.3153300000000003,1.5030300000000001,-22.138300000000001
1785.0,103.045,6.5806100000000001,-86.657899999999998,2.1244399999999999,-11.4977,0.50712900000000005,-25.3185
1786.0,103.505,2.1853799999999999,-91.256100000000004,-5.8255299999999997,-13.3454,-2.40672,-26.549700000000001
1787.0,102.38200000000001,-12.0115,-104.86199999999999,-21.712,-12.8787,-7.3938300000000003,-25.857800000000001
1788.0,98.682299999999998,-23.008299999999998,-110.68000000000001,-28.7835,-11.0402,-11.4559,-24.258600000000001
1789.0,88.968100000000007,-33.333300000000001,-112.128,-34.983899999999998,-12.048,-4.3668800000000001,-21.145399999999999
1790.0,82.001400000000004,-1.4653799999999999,-63.950600000000001,3.6968100000000002,-16.897600000000001,11.7576,-19.994199999999999
1791.0,79.6614,78.745400000000004,20.3109,63.264000000000003,-21.2315,19.945699999999999,-18.712700000000002
1792.0,86.081199999999995,103.89100000000001,39.706099999999999,59.367699999999999,-25.493300000000001,21.900500000000001,-16.094000000000001
1793.0,84.747600000000006,89.756500000000003,29.1553,43.811,-28.236999999999998,18.9575,-15.415100000000001
1794.0,79.467100000000002,84.892499999999998,25.749700000000001,41.595100000000002,-28.799800000000001,11.0556,-14.6999
1795.0,78.188599999999994,53.756300000000003,0.755386,86.933099999999996,-5.0034900000000002,-11.089399999999999,-0.64017999999999997
1796.0,76.698400000000007,48.957999999999998,1.39947,87.062399999999997,-4.9756200000000002,-9.6690900000000006,0.80861300000000003
1797.0,75.322500000000005,46.051099999999998,4.8558899999999996,89.6661,-4.6414099999999996,-8.0456699999999994,2.49126
1798.0,74.415899999999993,45.654699999999998,11.335900000000001,95.148600000000002,-3.9696600000000002,-6.1825299999999999,4.0739700000000001
1799.0,76.4529,47.473100000000002,21.7075,106.723,-2.6085500000000001,-3.9985599999999999,5.02135
1800.0,80.098699999999994,54.9572,37.0,124.206,-0.97619999999999996,-1.42252,3.8929299999999998
1801.0,87.218599999999995,56.664400000000001,42.250599999999999,135.386,-0.56500300000000003,4.4903399999999998,1.43462
1802.0,84.396500000000003,75.415499999999994,45.725299999999997,139.93199999999999,-2.4542700000000002,6.9422199999999998,-0.51180300000000001
1803.0,83.864999999999995,72.960400000000007,4.40571,91.956400000000002,-6.7613200000000004,13.326499999999999,-0.421267
1804.0,98.1691,6.0185700000000004,-97.095600000000005,-7.6831300000000002,-6.8538800000000002,5.3789300000000004,0.82215899999999997
1805.0,112.619,-7.4602199999999996,-129.197,-35.845100000000002,-3.4463499999999998,-12.5016,1.67042
1806.0,116.666,5.9131999999999998,-119.864,-23.2728,-2.4724200000000001,-14.0383,-0.377718
1807.0,112.449,5.0389999999999997,-111.88200000000001,-9.7253000000000007,-2.8740800000000002,-10.8992,-5.8105500000000001
1808.0,108.236,6.5218600000000002,-103.26300000000001,-2.3036500000000002,-4.4463800000000004,-6.9242699999999999,-10.8035
1809.0,104.69199999999999,6.7418800000000001,-95.562899999999999,1.6312800000000001,-7.3231999999999999,-4.2995599999999996,-16.067399999999999
1810.0,101.80800000000001,1.0823199999999999,-94.000900000000001,-1.61137,-10.7849,-2.2858299999999998,-20.068300000000001
1811.0,96.796700000000001,0.51309499999999997,-84.015299999999996,2.38036,-14.954599999999999,0.267291,-21.5413
1812.0,89.248699999999999,-5.0641999999999996,-80.627300000000005,-4.4982600000000001,-19.2454,2.86469,-18.944400000000002
1813.0,82.244,-9.3417700000000004,-78.383200000000002,-10.591799999999999,-21.802499999999998,2.2673899999999998,-14.613
1814.0,77.047200000000004,-18.169699999999999,-83.835800000000006,-18.9984,-21.348299999999998,-0.175065,-10.1754
1815.0,74.456299999999999,-12.205399999999999,-74.0,-9.0779499999999995,-20.390599999999999,3.8328700000000002,-8.7696400000000008
1816.0,73.336699999999993,33.258099999999999,-21.8398,36.977499999999999,-20.302399999999999,12.450100000000001,-11.862500000000001
1817.0,73.832999999999998,80.4161,24.962599999999998,62.306899999999999,-21.4343,18.464600000000001,-14.7354
1818.0,78.683000000000007,88.703599999999994,32.0471,51.473599999999998,-24.6447,19.982399999999998,-15.103400000000001
1819.0,78.058099999999996,83.282499999999999,28.313400000000001,43.755600000000001,-27.604800000000001,15.8698,-14.608599999999999
1820.0,75.719899999999996,75.2971,21.208600000000001,37.902799999999999,-29.120799999999999,9.9126700000000003,-14.063599999999999
1821.0,73.990300000000005,53.723799999999997,5.9668999999999999,87.024799999999999,-6.5766299999999998,-11.0259,-0.15992899999999999
1822.0,72.196899999999999,57.796300000000002,16.178699999999999,96.2136,-6.4499000000000004,-9.5102499999999992,1.77969
1823.0,70.918800000000005,58.1233,22.913599999999999,101.988,-5.8745399999999997,-7.5876299999999999,3.8672200000000001
1824.0,69.837400000000002,59.851399999999998,30.191600000000001,107.958,-4.8891600000000004,-5.4540899999999999,5.6418600000000003
1825.0,71.570999999999998,54.905000000000001,30.893599999999999,110.068,-3.5972300000000001,-2.7987700000000002,6.2209300000000001
1826.0,73.678399999999996,57.701500000000003,37.468800000000002,118.43000000000001,-2.3546399999999998,-0.84317399999999998,5.2808599999999997
1827.0,80.068100000000001,55.576599999999999,36.131700000000002,123.58799999999999,-1.97471,4.7582800000000001,1.3091900000000001
1828.0,80.838800000000006,72.710300000000004,39.021500000000003,130.488,-2.8293499999999998,5.1510400000000001,-1.96618
1829.0,81.394900000000007,75.581699999999998,6.8654700000000002,91.201400000000007,-6.50136,12.252800000000001,-1.70381
1830.0,96.497399999999999,11.255599999999999,-89.865099999999998,-3.1694,-8.2901000000000007,6.5789900000000001,0.551867
1831.0,112.997,-5.3106499999999999,-126.97499999999999,-34.953499999999998,-7.4167899999999998,-12.9694,2.8430800000000001
1832.0,119.502,9.0737000000000005,-119.788,-24.8369,-7.16296,-15.6538,1.4213
1833.0,115.77,3.22153,-117.62,-16.297899999999998,-6.8575100000000004,-14.156599999999999,-3.4369399999999999
1834.0,110.95999999999999,5.3544999999999998,-107.78400000000001,-7.38523,-8.6492699999999996,-10.671200000000001,-8.6567600000000002
1835.0,105.67,-2.9700299999999999,-106.122,-8.7518799999999999,-11.117699999999999,-8.2003500000000003,-13.1188
1836.0,96.436800000000005,-6.4202199999999996,-96.587100000000007,-8.2724200000000003,-13.3139,-2.3817599999999999,-16.1737
1837.0,85.801000000000002,-0.47184500000000001,-68.637200000000007,12.476599999999999,-16.033200000000001,4.6754300000000004,-16.615600000000001
1838.0,77.857500000000002,46.069499999999998,-9.57822,57.658200000000001,-22.003299999999999,9.2987500000000001,-12.571099999999999
1839.0,74.980900000000005,66.450599999999994,13.0672,68.540899999999993,-25.572600000000001,12.0547,-9.2840100000000003
1840.0,70.212699999999998,72.295000000000002,20.027999999999999,72.733699999999999,-24.014099999999999,9.9943899999999992,-6.9561799999999998
1841.0,65.748400000000004,70.623199999999997,19.9864,68.436300000000003,-21.465499999999999,10.401899999999999,-7.2529399999999997
1842.0,63.624499999999998,77.523600000000002,30.8751,71.268900000000002,-18.9741,15.024900000000001,-11.065899999999999
1843.0,67.203400000000002,85.103499999999997,36.707099999999997,63.713700000000003,-20.418600000000001,18.1248,-13.1081
1844.0,72.043999999999997,84.1922,35.327800000000003,53.498699999999999,-24.5959,17.817599999999999,-14.0602
1845.0,72.434799999999996,79.369699999999995,30.438500000000001,46.308100000000003,-27.534400000000002,13.1419,-13.960100000000001
1846.0,72.055999999999997,74.016300000000001,24.905999999999999,42.216200000000001,-29.233799999999999,8.9978200000000008,-13.2158
1847.0,69.878299999999996,55.228099999999998,13.531599999999999,89.445400000000006,-7.8186600000000004,-10.984299999999999,0.69347700000000001
1848.0,68.010599999999997,51.757899999999999,15.608700000000001,90.335899999999995,-7.4022199999999998,-9.0133899999999993,3.04149
1849.0,67.184200000000004,49.3401,17.044699999999999,91.458100000000002,-6.6800499999999996,-6.6385300000000003,4.8479200000000002
1850.0,66.730199999999996,51.804400000000001,21.073399999999999,95.269300000000001,-5.7635800000000001,-4.0648200000000001,6.6929999999999996
1851.0,67.421099999999996,53.197000000000003,23.886600000000001,99.433499999999995,-3.7371300000000001,-1.26335,6.9953500000000002
1852.0,68.211799999999997,61.482900000000001,30.716100000000001,108.099,-1.7913399999999999,0.22181500000000001,5.4519399999999996
1853.0,73.837199999999996,60.384099999999997,27.983799999999999,111.93899999999999,-0.39694400000000002,4.9468899999999998,0.087297799999999995
1854.0,77.860299999999995,61.646099999999997,21.525099999999998,110.61199999999999,0.58810899999999999,4.5982799999999999,-2.9346800000000002
1855.0,76.054900000000004,56.053699999999999,-6.7698499999999999,73.474299999999999,-5.1235499999999998,10.737399999999999,-2.2377500000000001
1856.0,88.438699999999997,-5.6303700000000001,-94.951400000000007,-14.6233,-11.9016,6.84598,-0.0066471400000000002
1857.0,106.744,-17.2392,-129.82300000000001,-42.544499999999999,-13.084099999999999,-11.083600000000001,3.89872
1858.0,116.905,-4.50589,-128.227,-36.976300000000002,-13.5999,-15.619,3.4731299999999998
1859.0,114.306,-6.4779600000000004,-123.917,-25.8385,-13.066800000000001,-14.834,0.290908
1860.0,105.084,-9.4038900000000005,-114.575,-19.130500000000001,-13.040900000000001,-10.7416,-4.2310400000000001
1861.0,92.047799999999995,-9.7218,-97.9816,-10.555099999999999,-12.636100000000001,-5.2779100000000003,-8.02651
1862.0,78.859999999999999,-17.7285,-86.779200000000003,-11.1252,-14.410299999999999,3.89933,-9.7081999999999997
1863.0,72.770799999999994,6.4602500000000003,-38.849299999999999,29.8508,-16.561900000000001,12.359400000000001,-10.8712
1864.0,66.3767,76.290099999999995,39.874899999999997,90.808700000000002,-17.3353,18.1904,-12.1943
1865.0,65.365799999999993,96.444900000000004,60.648299999999999,93.316500000000005,-17.058399999999999,23.628,-13.486700000000001
1866.0,59.749899999999997,86.580699999999993,54.496099999999998,79.944400000000002,-15.5329,21.8354,-13.605600000000001
1867.0,55.171300000000002,86.219499999999996,53.048099999999998,73.968500000000006,-15.5236,18.447099999999999,-12.328799999999999
1868.0,57.226300000000002,76.403099999999995,41.4039,61.751100000000001,-17.198799999999999,18.654699999999998,-11.784800000000001
1869.0,61.873199999999997,77.400099999999995,38.417000000000002,56.467199999999998,-20.690899999999999,17.563400000000001,-12.605600000000001
1870.0,66.482200000000006,73.170199999999994,31.3809,47.575899999999997,-24.759,15.2295,-13.579599999999999
1871.0,68.037999999999997,71.033600000000007,28.337700000000002,43.976399999999998,-27.761199999999999,11.3818,-13.2752
1872.0,68.0886,66.678200000000004,23.113700000000001,39.540300000000002,-29.098099999999999,8.4720200000000006,-11.9521
1873.0,66.129999999999995,56.978099999999998,20.4468,91.549999999999997,-8.7212700000000005,-10.652799999999999,1.98699
1874.0,64.208799999999997,62.0381,30.110399999999998,99.964299999999994,-8.2283000000000008,-8.0528399999999998,4.3373400000000002
1875.0,62.592100000000002,65.257599999999996,34.009599999999999,103.001,-7.3543500000000002,-5.3508199999999997,5.4542299999999999
1876.0,63.550600000000003,65.333100000000002,31.134499999999999,102.041,-6.6668099999999999,-2.0635699999999999,6.3284000000000002
1877.0,65.486500000000007,66.182599999999994,25.525400000000001,98.284099999999995,-8.0118799999999997,-1.10528,5.8757599999999996
1878.0,68.407200000000003,66.514499999999998,17.662600000000001,93.326999999999998,-8.3587000000000007,2.4041899999999998,3.5280200000000002
1879.0,73.491500000000002,36.108699999999999,-10.4558,73.176000000000002,-4.9360200000000001,4.42896,0.51708799999999999
1880.0,72.858999999999995,24.4665,-15.1768,68.130499999999998,-5.3997999999999999,1.98685,0.018930099999999998
1881.0,70.378399999999999,37.9373,-11.5771,62.427999999999997,-11.8276,9.4061500000000002,-1.14096
1882.0,79.111500000000007,8.8587500000000006,-63.302,10.2447,-16.1343,7.49247,0.24254800000000001
1883.0,92.2624,-11.928900000000001,-106.44499999999999,-28.627099999999999,-15.726000000000001,-5.3555799999999998,4.10494
1884.0,101.124,-6.1681699999999999,-111.685,-29.862200000000001,-13.8894,-11.5991,4.0183099999999996
1885.0,98.811400000000006,-13.591699999999999,-114.72499999999999,-27.972300000000001,-12.353300000000001,-10.243,1.89805
1886.0,88.502300000000005,-8.88931,-92.766400000000004,-7.1974999999999998,-13.330299999999999,-6.3081100000000001,-0.14843600000000001
1887.0,76.299300000000002,-2.6026899999999999,-66.931200000000004,8.4149399999999996,-16.84,0.89007700000000001,0.231684
1888.0,69.297200000000004,13.4846,-33.418399999999998,31.4224,-18.582100000000001,11.4176,-2.0121899999999999
1889.0,65.342100000000002,54.524299999999997,24.206299999999999,79.400300000000001,-15.268599999999999,19.417300000000001,-6.9980599999999997
1890.0,62.738100000000003,96.764700000000005,73.9876,107.679,-12.345599999999999,27.024100000000001,-11.5672
1891.0,65.302499999999995,98.813199999999995,80.451700000000002,96.163300000000007,-12.7453,31.5015,-12.9686
1892.0,60.825699999999998,93.733099999999993,77.146500000000003,85.237899999999996,-14.667,28.314900000000002,-12.1494
1893.0,55.590000000000003,85.5351,65.309399999999997,72.484300000000005,-16.1617,22.903700000000001,-11.7966
1894.0,55.240200000000002,81.506100000000004,54.884099999999997,65.944699999999997,-18.158100000000001,18.972100000000001,-12.1914
1895.0,58.875900000000001,75.095200000000006,43.050199999999997,56.915399999999998,-21.838899999999999,15.7178,-13.160500000000001
1896.0,62.498199999999997,72.701700000000002,37.2986,52.390700000000002,-25.386199999999999,12.789899999999999,-13.354699999999999
1897.0,64.540300000000002,68.766499999999994,31.5214,47.072299999999998,-27.874400000000001,10.1829,-12.564500000000001
1898.0,64.397000000000006,69.288700000000006,30.838200000000001,46.050600000000003,-28.649699999999999,8.2887599999999999,-10.855399999999999
1899.0,63.056199999999997,60.516100000000002,27.0839,94.692700000000002,-9.4197399999999991,-9.1457700000000006,3.1937899999999999
1900.0,61.696199999999997,56.512900000000002,21.8736,89.369699999999995,-8.9292700000000007,-5.3739600000000003,4.5826700000000002
1901.0,62.284199999999998,61.837000000000003,19.6999,87.445400000000006,-9.8459299999999992,-2.8954499999999999,4.2008099999999997
1902.0,68.994,59.677,6.8526499999999997,80.489000000000004,-11.523400000000001,0.28638000000000002,3.58846
1903.0,75.354200000000006,70.9452,2.4127200000000002,78.917199999999994,-10.533300000000001,0.441805,3.5696400000000001
1904.0,79.109200000000001,53.816099999999999,-21.627300000000002,57.676400000000001,-7.0944200000000004,5.62005,2.2122600000000001
1905.0,77.8827,8.9389000000000003,-52.414400000000001,33.891199999999998,-6.5425800000000001,0.047376099999999997,2.5531199999999998
1906.0,74.270799999999994,58.160400000000003,11.6357,93.485100000000003,-11.622299999999999,-3.1741199999999998,2.8772000000000002
1907.0,71.653800000000004,72.280600000000007,28.2577,101.523,-16.396599999999999,9.0782000000000007,-0.091371400000000005
1908.0,70.650700000000001,26.241,-23.745200000000001,43.590000000000003,-19.074000000000002,8.5067199999999996,2.32043
1909.0,73.385900000000007,-3.0973000000000002,-64.504900000000006,-1.83725,-21.468699999999998,1.9227700000000001,6.8754600000000003
1910.0,76.481200000000001,-21.236999999999998,-87.162800000000004,-22.751100000000001,-21.006,-3.4053300000000002,8.9841700000000007
1911.0,74.917400000000001,-20.285699999999999,-82.800799999999995,-16.436900000000001,-20.0562,-1.46167,8.8677399999999995
1912.0,71.7286,-3.1442399999999999,-55.173699999999997,15.437099999999999,-18.1785,1.9487699999999999,6.4063499999999998
1913.0,66.938900000000004,59.002899999999997,13.321,79.434100000000001,-16.575800000000001,7.8095600000000003,3.4629300000000001
1914.0,63.057400000000001,75.714799999999997,38.366700000000002,93.830799999999996,-14.0783,17.998699999999999,-1.8353200000000001
1915.0,61.177199999999999,78.231099999999998,53.601199999999999,96.046099999999996,-9.4405999999999999,25.517700000000001,-7.2809799999999996
1916.0,62.916200000000003,82.170900000000003,63.595799999999997,89.110600000000005,-8.4513400000000001,30.756599999999999,-11.3161
1917.0,63.653100000000002,82.394599999999997,66.188599999999994,80.3399,-10.5276,31.081900000000001,-13.992900000000001
1918.0,59.207999999999998,78.321299999999994,60.624699999999997,69.296899999999994,-13.450200000000001,26.129300000000001,-15.0525
1919.0,55.419699999999999,73.7624,53.495899999999999,61.721600000000002,-16.539899999999999,20.575199999999999,-14.932600000000001
1920.0,54.439900000000002,67.732600000000005,43.964399999999998,54.507800000000003,-19.5883,16.0303,-14.3317
1921.0,57.010199999999998,64.850499999999997,37.1693,50.823900000000002,-23.027899999999999,12.968,-13.9054
1922.0,59.902799999999999,61.550600000000003,31.157699999999998,46.298099999999998,-26.015599999999999,10.776,-13.1243
1923.0,61.150300000000001,62.6464,30.4648,45.020099999999999,-27.6037,9.5590700000000002,-11.5505
1924.0,60.231200000000001,63.553600000000003,30.2376,42.469999999999999,-27.599399999999999,8.7138200000000001,-9.3592200000000005
1925.0,3643.6300000000001,3265.0599999999999,414.57900000000001,3045.2199999999998,-346.053,-276.21300000000002,-1309.0699999999999
1926.0,3656.6300000000001,3232.6799999999998,445.69600000000003,3055.8299999999999,-406.39299999999997,-286.70400000000001,-1332.0599999999999
1927.0,3672.4699999999998,3214.5900000000001,488.50299999999999,3080.5700000000002,-469.10300000000001,-294.66699999999997,-1351.8199999999999
1928.0,3689.6500000000001,3188.4699999999998,522.35199999999998,3096.8699999999999,-534.27599999999995,-299.505,-1368.1700000000001
1929.0,3708.1500000000001,3173.6599999999999,565.53800000000001,3122.04,-601.63400000000001,-302.00799999999998,-1380.8800000000001
1930.0,3727.5599999999999,3150.3000000000002,598.08900000000006,3135.8000000000002,-670.83299999999997,-302.49700000000001,-1389.6300000000001
1931.0,3747.75,3139.3000000000002,640.36400000000003,3158.52,-741.596,-301.63299999999998,-1394.0
1932.0,3768.5,3120.75,672.35199999999998,3170.2399999999998,-813.51800000000003,-299.92500000000001,-1393.8
1933.0,3789.6999999999998,3113.4499999999998,712.774,3189.9400000000001,-886.22400000000005,-297.97000000000003,-1388.8299999999999
1934.0,3811.23,3098.75,743.03399999999999,3199.5,-959.25300000000004,-296.21800000000002,-1379.0
1935.0,3833.0700000000002,3094.0700000000002,780.72500000000002,3217.1199999999999,-1032.2,-295.08199999999999,-1364.25
1936.0,3855.21,3081.29,807.93299999999999,3225.5599999999999,-1104.5999999999999,-294.798,-1344.6900000000001
1937.0,3877.8200000000002,3075.6300000000001,840.20500000000004,3241.0900000000001,-1175.98,-295.52300000000002,-1320.6500000000001
1938.0,3901.0900000000001,3062.9899999999998,863.72699999999998,3250.8800000000001,-1246.21,-297.137,-1292.1900000000001
1939.0,3924.5999999999999,3060.8299999999999,896.24300000000005,3273.29,-1314.8399999999999,-299.32600000000002,-1259.21
1940.0,3947.8899999999999,3049.0799999999999,918.27800000000002,3289.1300000000001,-1381.23,-301.68400000000003,-1222.02
1941.0,3971.21,3044.5599999999999,946.80499999999995,3315.6799999999998,-1445.23,-303.67599999999999,-1181.0999999999999
1942.0,3994.71,3031.3400000000001,965.77599999999995,3337.1599999999999,-1506.72,-304.67899999999997,-1136.78
1943.0,4018.3400000000001,3025.5700000000002,991.26999999999998,3369.5599999999999,-1565.5899999999999,-304.02699999999999,-1089.3599999999999
1944.0,4042.1700000000001,3011.9899999999998,1007.5599999999999,3397.0,-1621.72,-301.07900000000001,-1039.1600000000001
1945.0,4066.25,3007.1500000000001,1030.74,3435.1100000000001,-1675.1400000000001,-295.26999999999998,-986.47400000000005
1946.0,4090.6900000000001,2996.3600000000001,1045.28,3467.8200000000002,-1725.8699999999999,-286.18200000000002,-931.53899999999999
1947.0,4115.5900000000001,2995.9699999999998,1067.0,3510.1399999999999,-1774.01,-273.51799999999997,-874.67200000000003
1948.0,4141.25,2990.9400000000001,1079.73,3545.1599999999999,-1819.76,-257.33499999999998,-816.01499999999999
1949.0,4167.9200000000001,2998.5599999999999,1099.8199999999999,3588.8400000000001,-1863.0799999999999,-237.44800000000001,-756.04499999999996
1950.0,4196.7700000000004,3007.4499999999998,1113.2,3626.52,-1904.9200000000001,-214.21899999999999,-693.99900000000002
1951.0,2613.27,2408.3000000000002,201.309,1623.3900000000001,-311.27800000000002,13.292400000000001,-963.21600000000001
1952.0,2632.23,2440.0999999999999,247.511,1647.8900000000001,-358.78399999999999,-34.195500000000003,-973.11900000000003
1953.0,2654.6100000000001,2439.77,262.483,1646.4000000000001,-406.755,-81.276499999999999,-981.18399999999997
1954.0,2676.3000000000002,2459.3200000000002,303.541,1674.55,-455.471,-128.31700000000001,-986.46900000000005
1955.0,2698.8000000000002,2449.5,319.14999999999998,1681.5699999999999,-504.89800000000002,-174.51400000000001,-989.15099999999995
1956.0,2720.8699999999999,2460.2399999999998,359.97899999999998,1717.5999999999999,-554.625,-219.55799999999999,-988.745
1957.0,2742.79,2440.75,374.66000000000003,1731.1099999999999,-604.60299999999995,-263.25900000000001,-985.25900000000001
1958.0,2764.04,2441.3000000000002,413.37799999999999,1772.24,-654.41899999999998,-305.36799999999999,-978.44899999999996
1959.0,2784.6300000000001,2412.3699999999999,426.36500000000001,1791.1099999999999,-703.86400000000003,-345.774,-968.30999999999995
1960.0,2804.25,2403.3299999999999,462.82999999999998,1837.0899999999999,-752.53800000000001,-384.24900000000002,-954.73500000000001
1961.0,2822.8800000000001,2365.21,473.63799999999998,1861.02,-800.15599999999995,-420.649,-937.82000000000005
1962.0,2840.3099999999999,2347.27,507.88499999999999,1912.28,-846.33100000000002,-454.67099999999999,-917.59299999999996
1963.0,2856.5599999999999,2302.1500000000001,518.10699999999997,1943.46,-890.803,-486.07299999999998,-894.23800000000006
1964.0,2871.4400000000001,2275.4899999999998,549.80999999999995,2000.23,-933.18299999999999,-514.43799999999999,-867.952
1965.0,2885.1399999999999,2218.3200000000002,553.92899999999997,2033.6300000000001,-973.31899999999996,-539.33799999999997,-839.13400000000001
1966.0,2897.6799999999998,2181.7199999999998,581.09100000000001,2094.4499999999998,-1011.05,-560.09000000000003,-808.06100000000004
1967.0,2909.1300000000001,2117.73,583.04600000000005,2134.1700000000001,-1046.3,-576.13900000000001,-775.08299999999997
1968.0,2919.46,2074.3299999999999,607.20000000000005,2199.8600000000001,-1078.97,-586.82799999999997,-740.53499999999997
1969.0,2928.8800000000001,2005.02,606.48699999999997,2243.9200000000001,-1109.2,-591.63499999999999,-704.79100000000005
1970.0,2937.52,1957.6600000000001,627.89999999999998,2312.73,-1137.0599999999999,-590.02999999999997,-668.18100000000004
1971.0,2945.5599999999999,1886.24,624.69200000000001,2358.6799999999998,-1162.8099999999999,-581.63900000000001,-630.97000000000003
1972.0,2953.3400000000001,1838.4400000000001,643.32799999999997,2427.46,-1186.6700000000001,-566.26400000000001,-593.44600000000003
1973.0,2960.75,1769.4400000000001,638.24400000000003,2472.1700000000001,-1208.9100000000001,-543.70100000000002,-555.70399999999995
1974.0,2968.9299999999998,1726.55,655.13800000000003,2538.3099999999999,-1230.1199999999999,-514.35900000000004,-517.875
1975.0,2976.5100000000002,1667.0699999999999,650.78200000000004,2579.5799999999999,-1250.1500000000001,-478.286,-480.22000000000003
1976.0,2987.5999999999999,1630.48,662.96500000000003,2636.8299999999999,-1270.76,-437.48200000000003,-441.43299999999999
1977.0,1822.9200000000001,1663.6400000000001,57.308,647.58600000000001,-287.56200000000001,201.98699999999999,-569.22199999999998
1978.0,1841.26,1712.24,84.587800000000001,651.255,-316.92099999999999,138.09700000000001,-572.61800000000005
1979.0,1862.8900000000001,1738.1099999999999,92.785600000000002,643.85500000000002,-346.15800000000002,73.117199999999997,-574.67600000000004
1980.0,1883.26,1774.6500000000001,120.721,661.66099999999994,-375.58600000000001,6.3966500000000002,-574.43899999999996
1981.0,1904.1900000000001,1785.26,129.81399999999999,667.05100000000004,-404.98000000000002,-61.104599999999998,-572.40499999999997
1982.0,1924.25,1804.9200000000001,156.107,695.98500000000001,-433.92000000000002,-128.66,-568.12800000000004
1983.0,1943.8599999999999,1798.6800000000001,164.25200000000001,713.00300000000004,-462.38600000000002,-195.63499999999999,-561.77800000000002
1984.0,1962.3099999999999,1802.1400000000001,189.982,753.90999999999997,-489.97800000000001,-261.22500000000002,-553.11099999999999
1985.0,1979.6900000000001,1778.4100000000001,196.18100000000001,781.28099999999995,-516.53499999999997,-324.846,-542.26700000000005
1986.0,1995.51,1764.9100000000001,220.09100000000001,832.43799999999999,-541.68499999999995,-385.71300000000002,-529.14599999999996
1987.0,2009.8399999999999,1723.8,223.56200000000001,868.89200000000005,-565.23800000000006,-443.25999999999999,-513.97400000000005
1988.0,2022.3,1693.3399999999999,244.48099999999999,928.54300000000001,-586.85400000000004,-496.697,-496.78100000000001
1989.0,2033.05,1634.02,242.91499999999999,971.08900000000006,-606.38599999999997,-545.45799999999997,-477.904
1990.0,2041.8099999999999,1588.1099999999999,260.54899999999998,1038.1300000000001,-623.58399999999995,-588.71500000000003,-457.49900000000002
1991.0,2048.7800000000002,1517.3399999999999,258.59699999999998,1090.28,-638.39599999999996,-625.928,-435.97300000000001
1992.0,2053.73,1459.6099999999999,274.21800000000002,1164.3099999999999,-650.66499999999996,-656.31200000000001,-413.57900000000001
1993.0,2056.9899999999998,1376.5999999999999,268.36599999999999,1220.47,-660.51999999999998,-679.38499999999999,-390.77600000000001
1994.0,2058.48,1309.3699999999999,281.048,1298.1800000000001,-667.96699999999998,-694.44799999999998,-367.86599999999999
1995.0,2058.5700000000002,1219.1800000000001,272.65199999999999,1356.8399999999999,-673.29200000000003,-701.18600000000004,-345.24900000000002
1996.0,2057.27,1147.1600000000001,283.02499999999998,1435.46,-676.63900000000001,-699.16600000000005,-323.19999999999999
1997.0,2054.9299999999998,1055.3099999999999,273.24599999999998,1493.96,-678.40899999999999,-688.31299999999999,-301.98399999999998
1998.0,2051.79,984.39200000000005,282.565,1570.6900000000001,-678.88400000000001,-668.61099999999999,-281.82400000000001
1999.0,2047.8099999999999,896.76900000000001,272.60199999999998,1625.78,-678.42499999999995,-640.19000000000005,-262.77100000000002
2000.0,2044.03,831.35199999999998,280.59100000000001,1696.21,-677.58100000000002,-603.65099999999995,-244.88
2001.0,2038.9000000000001,753.26900000000001,271.24200000000002,1743.8699999999999,-675.95399999999995,-559.37,-228.446
2002.0,2036.99,698.80200000000002,278.86599999999999,1807.4200000000001,-675.39200000000005,-508.19799999999998,-212.25800000000001
2003.0,1362.96,1075.9000000000001,-60.418100000000003,40.605800000000002,-264.95299999999997,296.42000000000002,-256.14999999999998
2004.0,1375.02,1155.3800000000001,-22.2286,54.336100000000002,-279.505,231.75399999999999,-253.44200000000001
2005.0,1389.76,1174.52,-39.466200000000001,20.648399999999999,-293.50599999999997,164.09899999999999,-250.214
2006.0,1403.8499999999999,1235.98,-5.2161400000000002,45.040399999999998,-307.14100000000002,93.220299999999995,-245.62299999999999
2007.0,1418.5,1238.4400000000001,-21.956399999999999,25.907800000000002,-320.17000000000002,20.2879,-240.01300000000001
2008.0,1432.6300000000001,1282.78,12.335900000000001,65.333600000000004,-332.28699999999998,-53.874600000000001,-233.071
2009.0,1446.49,1266.24,-5.1796600000000002,60.525199999999998,-343.41699999999997,-128.33699999999999,-224.96899999999999
2010.0,1459.52,1290.4200000000001,27.386299999999999,113.496,-353.25299999999999,-202.072,-215.578
2011.0,1471.6800000000001,1253.8599999999999,8.5269600000000008,122.51900000000001,-361.65800000000002,-274.13,-205.05099999999999
2012.0,1482.5999999999999,1257.77,39.316899999999997,188.62299999999999,-368.35700000000003,-343.43900000000002,-193.38300000000001
2013.0,1492.24,1201.3699999999999,18.688199999999998,210.32499999999999,-373.21499999999997,-409.072,-180.79900000000001
2014.0,1500.3,1186.1700000000001,47.683999999999997,288.43000000000001,-376.00799999999998,-469.983,-167.40299999999999
2015.0,1506.8299999999999,1113.01,26.617899999999999,322.61200000000002,-376.673,-525.32399999999996,-153.51300000000001
2016.0,1511.6199999999999,1080.3900000000001,53.238100000000003,410.13900000000001,-375.07600000000002,-574.13699999999994,-139.33099999999999
2017.0,1514.8199999999999,988.86000000000001,27.300899999999999,450.00400000000002,-371.27800000000002,-615.70100000000002,-125.24299999999999
2018.0,1516.3,941.21400000000006,50.552700000000002,543.25400000000002,-365.28399999999999,-649.19200000000001,-111.521
2019.0,1516.28,838.83500000000004,23.4039,589.24900000000002,-357.29700000000003,-674.11099999999999,-98.539699999999996
2020.0,1514.72,781.62699999999995,44.532699999999998,685.70600000000002,-347.44499999999999,-689.90899999999999,-86.567700000000002
2021.0,1511.9000000000001,672.529,15.769,733.28700000000003,-336.06900000000002,-696.37,-75.918199999999999
2022.0,1507.8800000000001,610.98099999999999,35.174300000000002,828.96500000000003,-323.41300000000001,-693.28599999999994,-66.816900000000004
2023.0,1502.9100000000001,500.39999999999998,5.0764500000000004,873.80999999999995,-309.90899999999999,-680.755,-59.439900000000002
2024.0,1497.26,439.55000000000001,22.8123,964.17100000000005,-295.89699999999999,-659.00800000000004,-53.929900000000004
2025.0,1490.8399999999999,333.012,-7.9317599999999997,1002.3099999999999,-281.74000000000001,-628.35900000000004,-50.285299999999999
2026.0,1484.55,278.58199999999999,9.2276100000000003,1084.3199999999999,-267.96499999999997,-589.52800000000002,-48.511099999999999
2027.0,1477.0999999999999,182.56200000000001,-20.009699999999999,1113.4000000000001,-254.42599999999999,-542.96199999999999,-48.813099999999999
2028.0,1472.21,135.67500000000001,-6.2741800000000003,1181.97,-242.71700000000001,-489.78500000000003,-50.337699999999998
2029.0,1131.46,705.71299999999997,-91.198499999999996,-242.506,-242.34399999999999,327.173,-38.0047
2030.0,1138.96,744.54100000000005,-101.245,-277.51900000000001,-246.18199999999999,268.99200000000002,-30.6402
2031.0,1147.8800000000001,800.00800000000004,-89.479600000000005,-283.51900000000001,-249.292,206.67099999999999,-23.190899999999999
2032.0,1156.7,827.68899999999996,-97.784499999999994,-302.83999999999997,-251.58000000000001,140.31899999999999,-15.110200000000001
2033.0,1165.8,868.01999999999998,-85.770899999999997,-294.30399999999997,-252.82599999999999,70.959400000000002,-6.6135700000000002
2034.0,1174.71,878.12,-95.394000000000005,-299.541,-252.83600000000001,-0.51377799999999996,2.4178600000000001
2035.0,1183.46,900.44600000000003,-83.8767,-275.58800000000002,-251.51599999999999,-73.087400000000002,11.841699999999999
2036.0,1191.74,892.02700000000004,-93.789299999999997,-264.83199999999999,-248.661,-145.62700000000001,21.667899999999999
2037.0,1199.48,894.41300000000001,-83.459900000000005,-225.72300000000001,-244.16800000000001,-217.024,31.741599999999998
2038.0,1206.46,865.90499999999997,-94.617000000000004,-200.07300000000001,-237.869,-286.05799999999999,41.978900000000003
2039.0,1212.6099999999999,848.01300000000003,-85.980199999999996,-147.01400000000001,-229.70099999999999,-351.61200000000002,52.1601
2040.0,1217.73,799.54999999999995,-99.158299999999997,-108.55500000000001,-219.56800000000001,-412.49700000000001,62.118499999999997
2041.0,1221.8499999999999,761.30600000000004,-93.967600000000004,-45.196199999999997,-207.49299999999999,-467.70100000000002,71.574799999999996
2042.0,1224.8099999999999,695.60799999999995,-108.875,3.89818,-193.482,-516.178,80.301100000000005
2043.0,1226.6900000000001,644.05600000000004,-103.169,78.4255,-177.66900000000001,-557.13599999999997,87.994100000000003
2044.0,1227.4100000000001,565.59199999999998,-118.98,135.27099999999999,-160.173,-589.798,94.414299999999997
2045.0,1227.0999999999999,501.98500000000001,-115.669,213.91800000000001,-141.25899999999999,-613.67499999999995,99.272800000000004
2046.0,1225.75,414.98099999999999,-132.77600000000001,273.67599999999999,-121.169,-628.32500000000005,102.358
2047.0,1223.53,345.64100000000002,-130.45599999999999,353.12299999999999,-100.26900000000001,-633.63300000000004,103.464
2048.0,1220.49,255.863,-148.14500000000001,411.60899999999998,-78.879099999999994,-629.55999999999995,102.45399999999999
2049.0,1216.8,186.87100000000001,-145.779,487.96100000000001,-57.411799999999999,-616.35699999999997,99.249499999999998
2050.0,1212.5799999999999,100.44499999999999,-162.84100000000001,541.63099999999997,-36.233499999999999,-594.38900000000001,93.809700000000007
2051.0,1207.8800000000001,37.335599999999999,-159.52699999999999,611.20799999999997,-15.6958,-564.17499999999995,86.207499999999996
2052.0,1203.0799999999999,-41.740499999999997,-176.21600000000001,655.76099999999997,3.7604600000000001,-526.43600000000004,76.527600000000007
2053.0,1197.72,-95.019800000000004,-171.84700000000001,714.66200000000003,22.136800000000001,-481.93299999999999,64.7684
2054.0,1193.6700000000001,-161.52199999999999,-186.27099999999999,749.85699999999997,38.410699999999999,-431.56200000000001,51.325400000000002
2055.0,998.71000000000004,432.37400000000002,-143.61600000000001,-378.05599999999998,-221.52600000000001,316.988,94.858900000000006
2056.0,1005.87,512.096,-112.33,-371.05799999999999,-218.71799999999999,268.50999999999999,105.765
2057.0,1013.33,519.673,-148.42099999999999,-425.56,-215.00299999999999,215.339,116.52
2058.0,1020.7,586.91099999999994,-119.057,-408.13999999999999,-210.07400000000001,157.88999999999999,127.295
2059.0,1027.99,581.83900000000006,-155.44300000000001,-449.47399999999999,-203.80600000000001,96.972499999999997,137.994
2060.0,1035.05,635.596,-125.69,-417.13999999999999,-196.08099999999999,33.415199999999999,148.608
2061.0,1041.8399999999999,614.60699999999997,-162.78800000000001,-443.87099999999998,-186.81299999999999,-31.787700000000001,158.99199999999999
2062.0,1048.22,650.91499999999996,-134.22399999999999,-396.86099999999999,-175.89500000000001,-97.541200000000003,169.083
2063.0,1054.1400000000001,612.13599999999997,-172.125,-408.27999999999997,-163.273,-162.69800000000001,178.69300000000001
2064.0,1059.48,630.18399999999997,-144.494,-346.18200000000002,-148.88499999999999,-226.02600000000001,187.702
2065.0,1064.22,573.25099999999998,-183.285,-342.92399999999998,-132.745,-286.35000000000002,195.87299999999999
2066.0,1068.21,573.86400000000003,-156.31999999999999,-266.74799999999999,-114.86199999999999,-342.452,203.03999999999999
2067.0,1071.48,501.52300000000002,-194.63999999999999,-249.47800000000001,-95.344700000000003,-393.27999999999997,208.93600000000001
2068.0,1073.9300000000001,486.42500000000001,-168.79599999999999,-162.446,-74.301000000000002,-437.79000000000002,213.37299999999999
2069.0,1075.5899999999999,398.221,-210.04400000000001,-137.94399999999999,-51.953699999999998,-475.18200000000002,216.08500000000001
2070.0,1076.4000000000001,370.82799999999997,-185.536,-44.174300000000002,-28.514299999999999,-504.70999999999998,216.90000000000001
2071.0,1076.45,274.19499999999999,-226.43000000000001,-13.569699999999999,-4.3039800000000001,-525.94500000000005,215.614
2072.0,1075.7,240.102,-202.16900000000001,83.212599999999995,20.3902,-538.53999999999996,212.119
2073.0,1074.27,139.404,-243.07599999999999,114.54600000000001,45.177,-542.47900000000004,206.30099999999999
2074.0,1072.1400000000001,103.861,-218.631,209.75399999999999,69.730000000000004,-537.82100000000003,198.14500000000001
2075.0,1069.45,4.0626899999999999,-259.33100000000002,237.143,93.641800000000003,-524.93799999999999,187.65199999999999
2076.0,1066.21,-28.388400000000001,-234.673,326.19,116.59399999999999,-504.25900000000001,174.904
2077.0,1062.54,-122.71899999999999,-274.75999999999999,345.803,138.22300000000001,-476.43799999999999,160.023
2078.0,1058.5,-147.19900000000001,-248.71799999999999,426.16899999999998,158.25,-442.166,143.17599999999999
2079.0,1054.1099999999999,-231.54900000000001,-286.87299999999999,436.07799999999997,176.42699999999999,-402.30099999999999,124.51300000000001
2080.0,1049.8399999999999,-246.89699999999999,-260.96199999999999,504.089,192.38800000000001,-357.70299999999997,104.143
2081.0,886.92600000000004,324.07299999999998,-114.619,-344.26400000000001,-200.24700000000001,285.577,158.899
2082.0,895.80999999999995,330.79700000000003,-151.68799999999999,-403.779,-194.179,246.751,171.97800000000001
2083.0,904.25800000000004,392.96100000000001,-129.11699999999999,-398.99000000000001,-187.06100000000001,203.22200000000001,184.85900000000001
2084.0,912.64300000000003,393.88099999999997,-163.83600000000001,-445.77800000000002,-178.483,155.63200000000001,197.40000000000001
2085.0,920.57000000000005,446.077,-141.93000000000001,-429.74099999999999,-168.352,104.52500000000001,209.62200000000001
2086.0,928.14999999999998,434.95800000000003,-177.55099999999999,-464.46899999999999,-156.64699999999999,50.619300000000003,221.30799999999999
2087.0,935.21500000000003,474.334,-156.08600000000001,-434.93099999999998,-143.27000000000001,-5.1855900000000004,232.374
2088.0,941.779,449.68599999999998,-191.61799999999999,-454.97399999999999,-128.22300000000001,-61.920200000000001,242.62700000000001
2089.0,947.74000000000001,473.95100000000002,-170.816,-411.14299999999997,-111.476,-118.47499999999999,251.916
2090.0,953.08299999999997,433.81799999999998,-206.86099999999999,-416.73500000000001,-93.084900000000005,-173.73099999999999,260.02999999999997
2091.0,957.72900000000004,442.27699999999999,-186.79499999999999,-359.053,-73.102999999999994,-226.50999999999999,266.786
2092.0,961.65499999999997,386.50799999999998,-223.70400000000001,-351.70100000000002,-51.662599999999998,-275.70499999999998,271.95999999999998
2093.0,964.79999999999995,379.04700000000003,-205.52099999999999,-283.245,-28.9163,-320.23700000000002,275.36599999999999
2094.0,967.149,310.22500000000002,-242.56999999999999,-264.88999999999999,-5.0842099999999997,-359.17700000000002,276.80099999999999
2095.0,968.67600000000004,292.93000000000001,-222.774,-185.55500000000001,19.591999999999999,-391.714,276.11599999999999
2096.0,969.38900000000001,214.864,-259.36399999999998,-159.61600000000001,44.811999999999998,-417.25,273.16500000000002
2097.0,969.279,189.20699999999999,-240.21899999999999,-76.105599999999995,70.259100000000004,-435.34199999999998,267.86799999999999
2098.0,968.36599999999999,105.90000000000001,-276.47000000000003,-47.401800000000001,95.581500000000005,-445.78699999999998,260.16500000000002
2099.0,966.673,77.538899999999998,-256.63999999999999,36.792999999999999,120.431,-448.55900000000003,250.07300000000001
2100.0,964.23099999999999,-6.0876000000000001,-291.96899999999999,64.046999999999997,144.45699999999999,-443.85500000000002,237.64099999999999
2101.0,961.096,-32.1447,-270.65499999999997,145.13499999999999,167.32499999999999,-432.02800000000002,222.98599999999999
2102.0,957.29100000000005,-111.179,-304.08999999999997,167.666,188.74000000000001,-413.58600000000001,206.249
2103.0,952.93200000000002,-130.84299999999999,-280.76799999999997,242.428,208.40199999999999,-389.18200000000002,187.63999999999999
2104.0,947.97900000000004,-202.477,-312.596,256.714,226.148,-359.476,167.351
2105.0,942.70299999999997,-213.785,-287.87,322.01900000000001,241.66399999999999,-325.327,145.72
2106.0,936.952,-273.67899999999997,-315.84100000000001,328.40899999999999,255.05500000000001,-287.50299999999999,122.57299999999999
2107.0,772.755,228.15199999999999,-130.46000000000001,-312.89999999999998,-179.13399999999999,245.82400000000001,175.38900000000001
2108.0,783.13900000000001,278.065,-118.105,-320.161,-172.16499999999999,215.26900000000001,189.328
2109.0,792.93499999999995,285.60300000000001,-144.578,-362.75700000000001,-164.08500000000001,180.381,203.18199999999999
2110.0,802.53999999999996,328.14100000000002,-133.41399999999999,-362.78199999999998,-154.40100000000001,141.92599999999999,216.499
2111.0,811.55100000000004,328.08499999999998,-160.68000000000001,-395.98700000000002,-143.095,100.184,229.351
2112.0,820.07799999999997,362.33100000000002,-149.18600000000001,-384.56799999999998,-130.16300000000001,55.778599999999997,241.46199999999999
2113.0,827.95699999999999,351.95999999999998,-177.024,-406.22500000000002,-115.542,9.4535599999999995,252.715
2114.0,835.19000000000005,374.279,-166.477,-382.93400000000003,-99.281800000000004,-37.955300000000001,262.88600000000002
2115.0,841.69100000000003,351.827,-194.58199999999999,-391.60300000000001,-81.408799999999999,-85.470699999999994,271.791
2116.0,847.42999999999995,361.33999999999997,-184.416,-355.36200000000002,-62.031199999999998,-132.09,279.21600000000001
2117.0,852.34500000000003,326.19900000000001,-212.56399999999999,-351.04000000000002,-41.2682,-176.756,284.96100000000001
2118.0,856.39700000000005,323.387,-202.21700000000001,-302.26999999999998,-19.302099999999999,-218.45400000000001,288.83300000000003
2119.0,859.54399999999998,277.62900000000002,-229.00399999999999,-285.327,3.6586099999999999,-256.21899999999999,290.65899999999999
2120.0,861.75900000000001,263.654,-218.73699999999999,-226.81700000000001,27.352499999999999,-289.20299999999997,290.29000000000002
2121.0,863.01400000000001,206.84100000000001,-246.745,-202.99700000000001,51.491700000000002,-316.68700000000001,287.61000000000001
2122.0,863.30499999999995,184.76400000000001,-236.267,-138.14599999999999,75.757000000000005,-338.12599999999998,282.55099999999999
2123.0,862.63599999999997,122.95,-262.68200000000002,-108.76000000000001,99.8185,-353.16500000000002,275.09100000000001
2124.0,861.02499999999998,97.261099999999999,-251.053,-41.032299999999999,123.34,-361.64100000000002,265.26400000000001
2125.0,858.50699999999995,33.743400000000001,-276.29500000000002,-10.975300000000001,145.989,-363.58800000000002,253.14500000000001
2126.0,855.10900000000004,8.5290700000000008,-263.15699999999998,55.613399999999999,167.46100000000001,-359.20100000000002,238.874
2127.0,850.90099999999995,-53.0764,-287.20299999999997,82.257599999999996,187.46100000000001,-348.86799999999999,222.60900000000001
2128.0,845.90200000000004,-74.599199999999996,-272.661,143.86199999999999,205.77199999999999,-333.04000000000002,204.57599999999999
2129.0,840.25800000000004,-131.28899999999999,-295.471,163.953,222.12700000000001,-312.38200000000001,184.99299999999999
2130.0,833.89700000000005,-145.56899999999999,-278.51499999999999,218.864,236.49299999999999,-287.44400000000002,164.10400000000001
2131.0,827.18200000000002,-194.77799999999999,-299.50900000000001,231.09800000000001,248.49600000000001,-259.04700000000003,142.268
2132.0,819.68100000000004,-201.226,-281.13299999999998,276.63200000000001,258.56400000000002,-227.81800000000001,119.29000000000001
2133.0,660.20500000000004,216.03100000000001,-95.546800000000005,-222.56299999999999,-158.33099999999999,206.31700000000001,163.477
2134.0,671.05799999999999,224.45400000000001,-118.375,-261.976,-151.90100000000001,182.13499999999999,177.196
2135.0,681.21900000000005,258.26499999999999,-112.94,-270.34699999999998,-144.32300000000001,154.154,190.858
2136.0,691.25999999999999,264.01499999999999,-133.78399999999999,-300.88999999999999,-135.149,123.175,204.03
2137.0,700.702,291.73399999999998,-129.381,-301.83499999999998,-124.378,89.337599999999995,216.74000000000001
2138.0,709.61800000000005,290.09399999999999,-150.928,-323.76999999999998,-112.01000000000001,53.132800000000003,228.654
2139.0,717.83799999999997,309.77199999999999,-146.98599999999999,-314.88799999999998,-98.005099999999999,15.1591,239.637
2140.0,725.35199999999998,299.77300000000002,-168.18799999999999,-325.51999999999998,-82.448400000000007,-23.886900000000001,249.44200000000001
2141.0,732.07299999999998,309.59800000000001,-164.62,-305.62700000000001,-65.398099999999999,-63.180199999999999,257.87
2142.0,737.952,289.51499999999999,-185.80500000000001,-304.75,-47.001899999999999,-101.85599999999999,264.70600000000002
2143.0,742.92200000000003,288.80799999999999,-182.37700000000001,-273.74299999999999,-27.4129,-139.00399999999999,269.75200000000001
2144.0,746.92600000000004,258.286,-203.62299999999999,-262.27499999999998,-6.8468299999999997,-173.73400000000001,272.83499999999998
2145.0,749.91499999999996,246.73500000000001,-201.03,-222.399,14.459,-205.20699999999999,273.79899999999998
2146.0,751.85299999999995,207.78899999999999,-221.38900000000001,-201.614,36.226599999999998,-232.67500000000001,272.541
2147.0,752.73000000000002,190.131,-216.58600000000001,-152.67699999999999,58.163600000000002,-255.52600000000001,268.988
2148.0,752.53399999999999,145.37100000000001,-235.67699999999999,-125.574,79.954499999999996,-273.28899999999999,263.12400000000002
2149.0,751.28700000000003,122.51600000000001,-230.41999999999999,-73.052700000000002,101.28100000000001,-285.67700000000002,254.97499999999999
2150.0,749.00400000000002,74.855500000000006,-248.30799999999999,-43.592599999999997,121.83199999999999,-292.55200000000002,244.63
2151.0,745.74300000000005,51.0884,-241.446,9.7316299999999991,141.31100000000001,-293.98200000000003,232.208
2152.0,741.53399999999999,4.0027400000000002,-257.779,38.071599999999997,159.46299999999999,-290.13600000000002,217.90000000000001
2153.0,736.47900000000004,-17.146799999999999,-248.78299999999999,89.180499999999995,176.042,-281.39800000000002,201.89500000000001
2154.0,730.59199999999998,-60.258600000000001,-262.92200000000003,113.84999999999999,190.898,-268.142,184.44999999999999
2155.0,724.06200000000001,-76.169499999999999,-251.59800000000001,160.28899999999999,203.81800000000001,-251.00299999999999,165.79499999999999
2156.0,716.80600000000004,-113.73099999999999,-264.03899999999999,178.55699999999999,214.85300000000001,-230.40700000000001,146.178
2157.0,709.23199999999997,-123.77500000000001,-251.34200000000001,217.98699999999999,223.65100000000001,-207.101,125.97199999999999
2158.0,700.85699999999997,-152.5,-260.10500000000002,230.434,230.78800000000001,-181.59399999999999,104.974
2159.0,557.19399999999996,197.42099999999999,-85.412999999999997,-162.542,-138.83199999999999,171.21299999999999,137.77000000000001
2160.0,567.28200000000004,224.96799999999999,-83.873000000000005,-174.524,-133.53999999999999,151.55000000000001,150.345
2161.0,576.96799999999996,233.37100000000001,-98.956800000000001,-200.971,-127.226,128.77000000000001,163.13300000000001
2162.0,586.50999999999999,255.87,-98.5334,-208.52500000000001,-119.414,103.575,175.453
2163.0,595.46699999999998,259.27999999999997,-114.56999999999999,-228.92400000000001,-110.08799999999999,75.963399999999993,187.36699999999999
2164.0,603.94399999999996,276.673,-113.93600000000001,-228.53999999999999,-99.259799999999998,46.357399999999998,198.553
2165.0,611.76099999999997,273.61000000000001,-130.434,-240.821,-86.897000000000006,15.2271,208.857
2166.0,618.91300000000001,283.30000000000001,-130.57599999999999,-232.02199999999999,-73.104299999999995,-16.8688,218.018
2167.0,625.29899999999998,272.666,-147.06200000000001,-234.70400000000001,-57.959499999999998,-49.238900000000001,225.83799999999999
2168.0,630.86900000000003,274.12900000000002,-147.27199999999999,-216.27600000000001,-41.630499999999998,-81.171300000000002,232.101
2169.0,635.53300000000002,255.40700000000001,-163.37,-209.07300000000001,-24.2819,-111.88500000000001,236.626
2170.0,639.23199999999997,248.935,-162.96799999999999,-181.053,-6.1410999999999998,-140.63800000000001,239.25399999999999
2171.0,641.90300000000002,223.61199999999999,-177.34999999999999,-163.994,12.559900000000001,-166.70500000000001,239.86099999999999
2172.0,643.51300000000003,209.72900000000001,-176.55099999999999,-128.56399999999999,31.542899999999999,-189.465,238.36600000000001
2173.0,644.03300000000002,177.114,-191.208,-106.122,50.528300000000002,-208.38200000000001,234.726
2174.0,643.471,158.12,-189.512,-65.676400000000001,69.217399999999998,-223.06899999999999,228.959
2175.0,641.84400000000005,122.699,-202.143,-38.760800000000003,87.326999999999998,-233.27699999999999,221.125
2176.0,639.19299999999998,101.759,-198.82400000000001,4.0392700000000001,104.58,-238.911,211.34100000000001
2177.0,635.57600000000002,65.615200000000002,-209.91800000000001,31.544799999999999,120.727,-240.023,199.755
2178.0,631.05100000000004,45.511600000000001,-204.78,73.631100000000004,135.55699999999999,-236.78200000000001,186.571
2179.0,625.71600000000001,10.981999999999999,-214.48599999999999,98.584199999999996,148.88,-229.50700000000001,171.99100000000001
2180.0,619.61500000000001,-6.2815099999999999,-207.81399999999999,137.00700000000001,160.59,-218.53100000000001,156.274
2181.0,612.92399999999998,-37.395800000000001,-216.34,157.03100000000001,170.535,-204.38499999999999,139.63800000000001
2182.0,605.58500000000004,-49.359999999999999,-207.39500000000001,190.709,178.79499999999999,-187.434,122.32299999999999
2183.0,597.98699999999997,-75.563400000000001,-214.51900000000001,204.97399999999999,185.083,-168.298,104.652
2184.0,589.64400000000001,-82.189899999999994,-204.339,231.70500000000001,189.96600000000001,-147.405,86.490600000000001
2185.0,470.12099999999998,204.94300000000001,-57.158799999999999,-97.640000000000001,-121.014,142.262,108.657
2186.0,478.99700000000001,213.21199999999999,-70.641599999999997,-122.012,-117.13500000000001,125.79300000000001,119.73699999999999
2187.0,487.303,232.46000000000001,-71.038200000000003,-131.50899999999999,-112.248,106.68600000000001,130.893
2188.0,495.608,238.45099999999999,-83.382000000000005,-150.16399999999999,-106.05,85.640299999999996,141.84
2189.0,503.43599999999998,253.28700000000001,-84.565299999999993,-154.67400000000001,-98.507900000000006,62.6601,152.547
2190.0,510.81099999999998,254.024,-97.581299999999999,-167.59399999999999,-89.571899999999999,38.052799999999998,162.654
2191.0,517.62300000000005,263.517,-99.136200000000002,-165.322,-79.239400000000003,12.185,172.0
2192.0,523.87,259.024,-111.754,-170.15600000000001,-67.610900000000001,-14.4824,180.328
2193.0,529.46699999999998,262.18099999999998,-113.499,-160.054,-54.781999999999996,-41.393599999999999,187.43799999999999
2194.0,534.34900000000005,251.267,-125.899,-156.56100000000001,-40.919600000000003,-67.951800000000006,193.12700000000001
2195.0,538.42700000000002,247.59700000000001,-127.52,-138.40299999999999,-26.191099999999999,-93.516800000000003,197.227
2196.0,541.62199999999996,229.851,-139.68000000000001,-127.19199999999999,-10.8096,-117.458,199.59999999999999
2197.0,543.87199999999996,218.875,-141.66900000000001,-102.639,5.0011299999999999,-139.17599999999999,200.13999999999999
2198.0,545.13,195.79499999999999,-152.607,-84.398099999999999,20.991099999999999,-158.13499999999999,198.78999999999999
2199.0,545.38599999999997,181.02699999999999,-152.44200000000001,-53.062399999999997,36.908200000000001,-173.899,195.53200000000001
2200.0,544.63699999999994,154.17500000000001,-162.00899999999999,-30.153600000000001,52.489899999999999,-186.136,190.40000000000001
2201.0,542.91700000000003,135.94499999999999,-161.119,3.78891,67.486800000000002,-194.64599999999999,183.46700000000001
2202.0,540.25900000000001,107.23699999999999,-169.40199999999999,28.421199999999999,81.662599999999998,-199.339,174.86000000000001
2203.0,536.73900000000003,88.5916,-166.881,63.030999999999999,94.809899999999999,-200.273,164.727
2204.0,532.40800000000002,60.3444,-173.71899999999999,86.814400000000006,106.761,-197.57400000000001,153.27099999999999
2205.0,527.38,43.654499999999999,-169.267,119.892,117.36799999999999,-191.52600000000001,140.685
2206.0,521.69299999999998,18.1661,-174.285,140.995,126.56399999999999,-182.39099999999999,127.208
2207.0,515.524,5.1267699999999996,-167.90000000000001,170.75800000000001,134.239,-170.624,113.044
2208.0,508.81599999999997,-16.7972,-171.75299999999999,187.03,140.489,-156.518,98.400000000000006
2209.0,501.92700000000002,-26.0518,-164.39699999999999,211.678,145.09100000000001,-140.58099999999999,83.555099999999996
2210.0,494.42000000000002,-41.907400000000003,-165.565,223.696,148.54499999999999,-123.18899999999999,68.428399999999996
2211.0,400.63900000000001,200.143,-43.839100000000002,-59.542900000000003,-105.79000000000001,119.72,82.327500000000001
2212.0,407.56599999999997,218.89099999999999,-44.2956,-68.851500000000001,-102.791,105.099,91.179500000000004
2213.0,414.68799999999999,227.32900000000001,-52.981499999999997,-84.668000000000006,-99.288799999999995,88.568399999999997,100.66200000000001
2214.0,421.57600000000002,241.101,-54.587899999999998,-91.170000000000002,-94.696799999999996,70.528999999999996,110.021
2215.0,427.90899999999999,244.57300000000001,-64.322100000000006,-103.334,-88.866600000000005,50.895699999999998,119.23999999999999
2216.0,433.85899999999998,254.184,-65.859800000000007,-104.423,-81.790499999999994,29.9727,128.07900000000001
2217.0,439.339,252.90799999999999,-75.966300000000004,-110.946,-73.453800000000001,8.0471000000000004,136.32300000000001
2218.0,444.39600000000002,257.10700000000003,-78.174899999999994,-106.254,-63.956699999999998,-14.509600000000001,143.72200000000001
2219.0,448.95999999999998,250.846,-88.184600000000003,-105.949,-53.408900000000003,-37.241399999999999,150.07499999999999
2220.0,452.97000000000003,249.60499999999999,-90.350099999999998,-94.418599999999998,-41.9664,-59.661000000000001,155.18899999999999
2221.0,456.32600000000002,238.04300000000001,-99.889399999999995,-87.014399999999995,-29.788799999999998,-81.231700000000004,158.91499999999999
2222.0,458.94799999999998,231.56200000000001,-101.38,-68.571100000000001,-17.065100000000001,-101.43300000000001,161.13200000000001
2223.0,460.76499999999999,215.744,-109.31999999999999,-53.957000000000001,-3.99105,-119.756,161.75800000000001
2224.0,461.73500000000001,204.06299999999999,-110.43000000000001,-30.348700000000001,9.21495,-135.761,160.745
2225.0,461.83499999999998,183.131,-118.39700000000001,-11.961600000000001,22.331900000000001,-149.071,158.08699999999999
2226.0,461.07299999999998,167.95099999999999,-118.58199999999999,15.260400000000001,35.135800000000003,-159.411,153.82300000000001
2227.0,459.47500000000002,145.15600000000001,-124.78,36.911000000000001,47.415399999999998,-166.60499999999999,148.029
2228.0,457.08600000000001,128.648,-123.532,65.843100000000007,58.9758,-170.584,140.82499999999999
2229.0,453.97000000000003,105.256,-128.48099999999999,87.839299999999994,69.647099999999995,-171.387,132.352
2230.0,450.18799999999999,89.303600000000003,-125.733,116.261,79.294200000000004,-169.125,122.79000000000001
2231.0,445.83199999999999,66.839299999999994,-129.66999999999999,136.285,87.805700000000002,-164.01900000000001,112.315
2232.0,440.94799999999998,52.723199999999999,-125.786,161.994,95.133899999999997,-156.297,101.136
2233.0,435.68099999999998,32.355600000000003,-129.00200000000001,178.26400000000001,101.20399999999999,-146.322,89.428200000000004
2234.0,429.983,21.894400000000001,-123.446,200.55000000000001,106.09699999999999,-134.34899999999999,77.372100000000003
2235.0,424.154,4.7312000000000003,-125.8,212.47300000000001,109.663,-120.788,65.185699999999997
2236.0,417.80799999999999,-2.3625500000000001,-119.73099999999999,229.376,112.282,-105.96899999999999,52.840899999999998
2237.0,346.79399999999998,199.65899999999999,-26.124099999999999,-27.991700000000002,-92.690700000000007,102.551,62.016199999999998
2238.0,352.99799999999999,210.41999999999999,-33.467199999999998,-41.860599999999998,-90.817899999999995,89.435299999999998,68.967299999999994
2239.0,358.512,224.714,-34.509500000000003,-48.759900000000002,-88.293599999999998,74.631900000000002,76.025700000000001
2240.0,363.92200000000003,230.87200000000001,-41.797899999999998,-59.964300000000001,-84.912499999999994,58.545400000000001,83.454400000000007
2241.0,368.863,240.52099999999999,-43.232999999999997,-63.103400000000001,-80.578800000000001,41.289700000000003,91.135099999999994
2242.0,373.327,241.43799999999999,-51.307699999999997,-70.473100000000002,-75.094800000000006,23.014500000000002,98.6387
2243.0,377.44299999999998,246.554,-53.132399999999997,-68.914599999999993,-68.474199999999996,3.9696199999999999,105.765
2244.0,381.27300000000002,243.65799999999999,-60.8872,-70.453100000000006,-60.830399999999997,-15.5405,112.236
2245.0,384.78500000000003,244.32499999999999,-62.849499999999999,-63.305500000000002,-52.270499999999998,-35.149999999999999,117.842
2246.0,387.91500000000002,237.059,-70.367000000000004,-58.847700000000003,-42.945799999999998,-54.452800000000003,122.404
2247.0,390.56200000000001,233.00399999999999,-72.173599999999993,-45.944899999999997,-32.994399999999999,-73.005899999999997,125.786
2248.0,392.63600000000002,220.93299999999999,-79.458200000000005,-36.007100000000001,-22.579499999999999,-90.367400000000004,127.886
2249.0,394.06700000000001,211.57900000000001,-81.551699999999997,-18.674399999999999,-11.8667,-106.11199999999999,128.63300000000001
2250.0,394.80799999999999,195.822,-87.725200000000001,-3.6044299999999998,-1.0384599999999999,-119.858,127.996
2251.0,394.84399999999999,183.77000000000001,-88.116299999999995,18.6036,9.7241700000000009,-131.29400000000001,125.973
2252.0,394.17500000000001,165.185,-93.268000000000001,36.916400000000003,20.233599999999999,-140.18100000000001,122.602
2253.0,392.83199999999999,150.48400000000001,-93.130499999999998,60.869199999999999,30.315200000000001,-146.37299999999999,117.95099999999999
2254.0,390.84699999999998,130.375,-97.376499999999993,80.285399999999996,39.804699999999997,-149.80199999999999,112.124
2255.0,388.28300000000002,115.26000000000001,-96.011399999999995,104.67400000000001,48.563699999999997,-150.499,105.241
2256.0,385.185,95.248099999999994,-99.299099999999996,123.32599999999999,56.482599999999998,-148.55099999999999,97.459400000000002
2257.0,381.63900000000001,81.432000000000002,-96.519800000000004,146.58000000000001,63.474400000000003,-144.143,88.929000000000002
2258.0,377.673,63.190300000000001,-98.6126,163.14699999999999,69.501000000000005,-137.459,79.825000000000003
2259.0,373.41000000000003,51.926900000000003,-94.455399999999997,183.953,74.513000000000005,-128.80000000000001,70.296999999999997
2260.0,368.803,35.8947,-96.057000000000002,196.65799999999999,78.573599999999999,-118.38500000000001,60.497399999999999
2261.0,364.084,27.288799999999998,-91.309399999999997,213.554,81.585300000000004,-106.55,50.591799999999999
2262.0,358.947,15.4604,-91.250200000000007,222.87700000000001,83.819100000000006,-93.591399999999993,40.6006
2263.0,306.048,187.065,-20.2699,-12.693099999999999,-83.409599999999998,89.859499999999997,48.632300000000001
2264.0,310.286,204.767,-19.335100000000001,-19.112300000000001,-80.829800000000006,77.882400000000004,52.625399999999999
2265.0,315.40100000000001,216.55699999999999,-23.102699999999999,-27.160599999999999,-78.974900000000005,64.115099999999998,57.759999999999998
2266.0,319.99900000000002,228.39099999999999,-23.6356,-30.602799999999998,-76.727900000000005,49.543500000000002,63.384
2267.0,323.59399999999999,232.11199999999999,-29.3614,-37.697600000000001,-73.486699999999999,33.922499999999999,69.383499999999998
2268.0,326.80500000000001,238.55500000000001,-30.285499999999999,-37.801900000000003,-69.211100000000002,17.566099999999999,75.616
2269.0,329.70999999999998,237.62299999999999,-36.612499999999997,-40.963000000000001,-63.946899999999999,0.66098900000000005,81.6965
2270.0,332.45999999999998,239.535,-38.281700000000001,-37.007199999999997,-57.761699999999998,-16.559699999999999,87.308300000000003
2271.0,335.06200000000001,234.94800000000001,-44.548099999999998,-35.142600000000002,-50.801600000000001,-33.806399999999996,92.228099999999998
2272.0,337.43900000000002,232.95599999999999,-46.182200000000002,-26.189299999999999,-43.185899999999997,-50.7395,96.279799999999994
2273.0,339.488,224.59100000000001,-52.034100000000002,-19.109200000000001,-35.041699999999999,-66.990700000000004,99.343599999999995
2274.0,341.11500000000001,218.80099999999999,-53.111800000000002,-5.1052999999999997,-26.495699999999999,-82.180999999999997,101.33199999999999
2275.0,342.24599999999998,207.357,-57.680599999999998,7.2879199999999997,-17.684000000000001,-95.947599999999994,102.19199999999999
2276.0,342.83800000000002,197.50399999999999,-58.630099999999999,24.846800000000002,-8.7521199999999997,-107.965,101.89400000000001
2277.0,342.86900000000003,182.12100000000001,-63.291899999999998,39.860500000000002,0.14696899999999999,-117.958,100.43899999999999
2278.0,342.34300000000002,169.56,-63.586799999999997,59.987900000000003,8.8603000000000005,-125.72199999999999,97.857399999999998
2279.0,341.27800000000002,152.648,-67.001400000000004,77.304599999999994,17.241099999999999,-131.12700000000001,94.203900000000004
2280.0,339.71100000000001,138.958,-66.301699999999997,98.609899999999996,25.1569,-134.11500000000001,89.566900000000004
2281.0,337.685,121.38200000000001,-68.945800000000006,116.03100000000001,32.491399999999999,-134.70500000000001,84.048699999999997
2282.0,335.24299999999999,107.958,-67.232600000000005,136.886,39.152299999999997,-132.97399999999999,77.774500000000003
2283.0,332.44499999999999,90.835099999999997,-69.337800000000001,152.673,45.067999999999998,-129.066,70.871300000000005
2284.0,329.31700000000001,78.614500000000007,-66.950900000000004,171.39599999999999,50.204799999999999,-123.146,63.482399999999998
2285.0,325.94099999999997,62.840600000000002,-68.775999999999996,184.16399999999999,54.527299999999997,-115.45399999999999,55.732100000000003
2286.0,322.27999999999997,53.305799999999998,-65.265500000000003,200.251,58.073999999999998,-106.194,47.747100000000003
2287.0,318.49000000000001,39.857900000000001,-66.655699999999996,209.495,60.7928,-95.638000000000005,39.655700000000003
2288.0,314.35700000000003,32.572000000000003,-63.2027,221.14099999999999,62.854900000000001,-84.066400000000002,31.4922
2289.0,274.46199999999999,172.626,-14.329700000000001,-2.6838500000000001,-75.590500000000006,81.543199999999999,42.146700000000003
2290.0,277.80500000000001,190.42400000000001,-15.6333,-6.8056299999999998,-73.721199999999996,69.213300000000004,43.898299999999999
2291.0,282.48599999999999,205.874,-15.2293,-12.449299999999999,-71.950100000000006,56.755899999999997,45.914099999999998
2292.0,285.75700000000001,213.99600000000001,-18.3688,-19.170400000000001,-69.875299999999996,43.086799999999997,49.194000000000003
2293.0,288.67599999999999,222.97900000000001,-18.224799999999998,-20.134399999999999,-67.357799999999997,28.4834,53.6815
2294.0,290.89400000000001,223.821,-23.461200000000002,-24.5916,-63.953000000000003,13.607799999999999,58.778199999999998
2295.0,292.81799999999998,227.285,-24.2058,-22.415400000000002,-59.634,-1.7020200000000001,63.939900000000002
2296.0,294.73200000000003,224.70599999999999,-29.405899999999999,-22.4802,-54.521700000000003,-17.1508,68.813599999999994
2297.0,296.63299999999998,224.702,-30.369900000000001,-16.112100000000002,-48.7669,-32.576000000000001,73.132300000000001
2298.0,298.43700000000001,218.93100000000001,-35.335900000000002,-11.6007,-42.455300000000001,-47.662599999999998,76.730000000000004
2299.0,300.03699999999998,215.36099999999999,-36.201500000000003,-0.95066399999999995,-35.700499999999998,-62.126600000000003,79.5
2300.0,301.32999999999998,205.928,-40.996899999999997,7.6388199999999999,-28.591000000000001,-75.624300000000005,81.367999999999995
2301.0,302.24599999999998,198.15199999999999,-42.223799999999997,21.4422,-21.242799999999999,-87.850700000000003,82.291600000000003
2302.0,302.73899999999998,185.92500000000001,-46.118299999999998,33.935699999999997,-13.7666,-98.510099999999994,82.245900000000006
2303.0,302.791,175.90199999999999,-46.199199999999998,51.266500000000001,-6.2885099999999996,-107.37,81.234700000000004
2304.0,302.40199999999999,161.31800000000001,-49.484200000000001,66.052999999999997,1.0693999999999999,-114.247,79.278899999999993
2305.0,301.59199999999998,149.07400000000001,-49.3506,84.543099999999995,8.1831499999999995,-119.026,76.427099999999996
2306.0,300.38099999999997,133.13800000000001,-52.135399999999997,100.021,14.938700000000001,-121.65300000000001,72.740899999999996
2307.0,298.80700000000002,120.419,-51.238599999999998,118.729,21.2361,-122.143,68.305000000000007
2308.0,296.90199999999999,104.38500000000001,-53.497300000000003,133.495,26.996700000000001,-120.56,63.219000000000001
2309.0,294.709,92.560599999999994,-51.673200000000001,151.262,32.157699999999998,-117.026,57.589599999999997
2310.0,292.245,77.761899999999997,-53.215600000000002,164.31700000000001,36.686599999999999,-111.684,51.5306
2311.0,289.56299999999999,67.875,-50.463000000000001,180.13,40.555599999999998,-104.73399999999999,45.1496
2312.0,286.63499999999999,54.5869,-51.948099999999997,189.94499999999999,43.788499999999999,-96.362899999999996,38.549900000000001
2313.0,283.55099999999999,46.821800000000003,-48.8538,202.571,46.356200000000001,-86.796999999999997,31.834299999999999
2314.0,280.18400000000003,36.687100000000001,-49.334800000000001,209.52000000000001,48.363500000000002,-76.299199999999999,25.050699999999999
2315.0,247.172,136.47800000000001,-32.823099999999997,-21.248799999999999,-68.149199999999993,73.968000000000004,36.101999999999997
2316.0,251.71299999999999,170.619,-14.123900000000001,-6.7315699999999996,-67.146299999999997,64.674800000000005,38.584200000000003
2317.0,254.65100000000001,189.684,-11.6152,-5.4006800000000004,-65.9602,51.875700000000002,38.351199999999999
2318.0,258.23899999999998,205.52000000000001,-9.1082900000000002,-5.1020599999999998,-64.322599999999994,38.035200000000003,39.637500000000003
2319.0,260.94400000000002,210.64099999999999,-12.2226,-9.8594000000000008,-62.173099999999998,24.743200000000002,42.862400000000001
2320.0,262.26400000000001,215.904,-11.953200000000001,-8.9503400000000006,-59.286499999999997,10.869400000000001,47.0443
2321.0,263.57299999999998,215.11600000000001,-16.233000000000001,-10.5578,-55.539499999999997,-3.1028099999999998,51.466000000000001
2322.0,264.86799999999999,216.083,-17.174499999999998,-6.7791100000000002,-51.188000000000002,-17.129200000000001,55.7425
2323.0,266.30799999999999,212.40000000000001,-21.386500000000002,-4.3292599999999997,-46.294199999999996,-31.054600000000001,59.547800000000002
2324.0,267.70499999999998,210.369,-22.3291,3.29006,-40.9482,-44.636699999999998,62.756700000000002
2325.0,268.99900000000002,203.78700000000001,-26.1617,9.8083100000000005,-35.220599999999997,-57.636600000000001,65.254099999999994
2326.0,270.06,198.785,-26.673400000000001,21.304300000000001,-29.184699999999999,-69.753399999999999,66.993200000000002
2327.0,270.83600000000001,189.74799999999999,-29.525300000000001,31.9129,-22.9238,-80.720200000000006,67.932299999999998
2328.0,271.27100000000002,181.34100000000001,-30.151199999999999,45.957700000000003,-16.528400000000001,-90.273700000000005,68.057599999999994
2329.0,271.35700000000003,169.101,-33.193100000000001,58.510199999999998,-10.101800000000001,-98.205500000000001,67.364599999999996
2330.0,271.08499999999998,158.476,-33.421999999999997,74.482200000000006,-3.74979,-104.34999999999999,65.870000000000005
2331.0,270.471,144.86000000000001,-35.698300000000003,88.677199999999999,2.4226000000000001,-108.608,63.603700000000003
2332.0,269.536,133.245,-35.305199999999999,105.483,8.3207599999999999,-110.93000000000001,60.622599999999998
2333.0,268.30700000000002,118.96599999999999,-37.186300000000003,119.63,13.8565,-111.327,56.991900000000001
2334.0,266.80599999999998,107.494,-36.140700000000002,136.02500000000001,18.9574,-109.854,52.790799999999997
2335.0,265.06400000000002,93.457999999999998,-37.800800000000002,148.77000000000001,23.567799999999998,-106.61799999999999,48.104799999999997
2336.0,263.09100000000001,82.893299999999996,-36.365499999999997,163.42599999999999,27.6538,-101.744,43.0304
2337.0,260.91699999999997,69.850999999999999,-37.994700000000002,173.649,31.192,-95.405500000000004,37.654800000000002
2338.0,258.517,61.452599999999997,-35.758099999999999,186.17500000000001,34.1905,-87.766300000000001,32.069600000000001
2339.0,255.93700000000001,50.267499999999998,-37.202399999999997,193.39099999999999,36.640300000000003,-79.0321,26.354800000000001
2340.0,253.09999999999999,43.537700000000001,-35.287199999999999,202.11500000000001,38.5974,-69.432400000000001,20.558499999999999
2341.0,224.74299999999999,98.017899999999997,-64.304500000000004,-43.3825,-64.724699999999999,64.030699999999996,27.395900000000001
2342.0,226.12200000000001,127.17700000000001,-44.090699999999998,-28.174499999999998,-59.994300000000003,60.037799999999997,29.774699999999999
2343.0,229.40799999999999,174.108,-10.013999999999999,1.7143600000000001,-60.627499999999998,46.978700000000003,32.150599999999997
2344.0,235.65000000000001,189.45699999999999,-8.7647300000000001,-1.3839399999999999,-60.027999999999999,34.327599999999997,33.179600000000001
2345.0,237.53100000000001,197.25200000000001,-8.3977900000000005,-2.8083900000000002,-57.730499999999999,22.098099999999999,35.514899999999997
2346.0,238.50200000000001,199.31399999999999,-10.8904,-4.9321700000000002,-55.032699999999998,9.0193499999999993,39.091200000000001
2347.0,239.386,201.29400000000001,-11.901999999999999,-3.4233600000000002,-51.649799999999999,-3.75068,42.987400000000001
2348.0,240.352,199.72499999999999,-15.0284,-2.1772,-47.800899999999999,-16.5962,46.7742
2349.0,241.48500000000001,199.01599999999999,-16.0198,2.9483899999999998,-43.528100000000002,-29.206600000000002,50.167700000000004
2350.0,242.63300000000001,194.80500000000001,-19.050599999999999,7.7197800000000001,-38.8827,-41.520699999999998,53.033200000000001
2351.0,243.71799999999999,191.37100000000001,-19.811499999999999,16.342300000000002,-33.908999999999999,-53.257300000000001,55.286200000000001
2352.0,244.62700000000001,184.11099999999999,-22.821899999999999,24.194600000000001,-28.663699999999999,-64.206999999999994,56.884300000000003
2353.0,245.30500000000001,177.304,-23.8705,35.308999999999997,-23.206800000000001,-74.094999999999999,57.794800000000002
2354.0,245.70400000000001,167.74000000000001,-26.239599999999999,46.202399999999997,-17.618600000000001,-82.708500000000001,58.004399999999997
2355.0,245.81200000000001,159.024,-26.503499999999999,60.030999999999999,-11.9781,-89.847300000000004,57.5075
2356.0,245.62899999999999,147.352,-28.655100000000001,72.534599999999998,-6.3761200000000002,-95.371899999999997,56.321899999999999
2357.0,245.173,136.85499999999999,-28.819299999999998,87.285200000000003,-0.90027900000000005,-99.184700000000007,54.4726
2358.0,244.44800000000001,123.95099999999999,-30.801200000000001,100.18000000000001,4.3551299999999999,-101.246,51.996600000000001
2359.0,243.476,113.054,-30.451000000000001,115.077,9.3154000000000003,-101.565,48.940899999999999
2360.0,242.274,99.949600000000004,-32.216700000000003,127.264,13.9133,-100.19199999999999,45.376199999999997
2361.0,240.863,89.800399999999996,-31.175999999999998,141.416,18.099,-97.218199999999996,41.3703
2362.0,239.24799999999999,77.601900000000001,-32.538600000000002,152.114,21.837199999999999,-92.756,37.006599999999999
2363.0,237.44399999999999,69.079400000000007,-30.776700000000002,164.69900000000001,25.1083,-86.957700000000003,32.3583
2364.0,235.429,57.974299999999999,-32.316200000000002,172.58000000000001,27.9133,-79.968199999999996,27.5076
2365.0,233.214,51.304299999999998,-30.267700000000001,182.54400000000001,30.2501,-71.969899999999996,22.517399999999999
2366.0,230.75999999999999,42.685600000000001,-31.171900000000001,187.89599999999999,32.149299999999997,-63.169400000000003,17.4435
2367.0,207.75299999999999,100.033,-56.978400000000001,-25.0091,-62.216000000000001,56.368699999999997,21.302499999999998
2368.0,206.56700000000001,128.505,-36.271500000000003,-5.3822900000000002,-55.8934,53.006599999999999,24.853400000000001
2369.0,209.023,163.28299999999999,-7.6691700000000003,9.7593899999999998,-56.8489,41.5501,27.4909
2370.0,215.24700000000001,177.06700000000001,-5.5935100000000002,4.8406599999999997,-56.037799999999997,31.599499999999999,27.9697
2371.0,216.804,183.976,-5.5752699999999997,3.1281400000000001,-53.796500000000002,19.827100000000002,30.476700000000001
2372.0,218.018,188.047,-6.2680100000000003,2.6589200000000002,-51.1248,7.8403700000000001,33.679400000000001
2373.0,218.56800000000001,188.12,-8.7813999999999997,2.6023800000000001,-47.9679,-3.9149799999999999,37.261600000000001
2374.0,219.52000000000001,188.50299999999999,-9.9597499999999997,5.4963100000000003,-44.499000000000002,-15.636200000000001,40.645400000000002
2375.0,220.40799999999999,185.80500000000001,-12.787800000000001,8.3440899999999996,-40.668599999999998,-27.076000000000001,43.702399999999997
2376.0,221.458,183.905,-13.601100000000001,14.6668,-36.553199999999997,-38.248199999999997,46.266599999999997
2377.0,222.37200000000001,178.74700000000001,-16.233799999999999,20.592500000000001,-32.1342,-48.8523,48.299700000000001
2378.0,223.19999999999999,174.517,-16.557700000000001,30.139700000000001,-27.485199999999999,-58.762300000000003,49.7502
2379.0,223.792,167.27699999999999,-18.5031,39.235999999999997,-22.6279,-67.685400000000001,50.6021
2380.0,224.18000000000001,160.178,-19.035499999999999,50.740000000000002,-17.643899999999999,-75.468100000000007,50.843200000000003
2381.0,224.309,150.32599999999999,-21.2029,61.376199999999997,-12.590199999999999,-81.896500000000003,50.468699999999998
2382.0,224.208,141.44800000000001,-21.453499999999998,74.447999999999993,-7.5630899999999999,-86.871600000000001,49.484400000000001
2383.0,223.85900000000001,130.33600000000001,-23.208600000000001,86.248199999999997,-2.6350500000000001,-90.292299999999997,47.902000000000001
2384.0,223.298,120.63,-23.049700000000001,99.9482,2.11313,-92.132800000000003,45.765000000000001
2385.0,222.524,108.941,-24.599599999999999,111.648,6.61287,-92.389399999999995,43.113999999999997
2386.0,221.55099999999999,99.361099999999993,-23.966200000000001,125.001,10.799300000000001,-91.115300000000005,39.9998
2387.0,220.39099999999999,87.829499999999996,-25.4297,135.50200000000001,14.629300000000001,-88.388800000000003,36.480800000000002
2388.0,219.048,79.010300000000001,-24.5078,147.44200000000001,18.066299999999998,-84.313000000000002,32.629199999999997
2389.0,217.524,68.267499999999998,-26.017700000000001,155.828,21.093900000000001,-79.017200000000003,28.508900000000001
2390.0,215.797,61.275599999999997,-24.432500000000001,166.036,23.704699999999999,-72.634699999999995,24.192
2391.0,213.85400000000001,52.024999999999999,-25.888200000000001,171.80699999999999,25.906099999999999,-65.322500000000005,19.734100000000002
2392.0,211.68299999999999,46.340400000000002,-24.684000000000001,178.72999999999999,27.707799999999999,-57.273600000000002,15.178599999999999
2393.0,189.684,123.587,-21.292300000000001,8.8665699999999994,-56.672600000000003,51.570599999999999,16.692900000000002
2394.0,189.614,136.90000000000001,-14.1896,12.4473,-53.343699999999998,46.649700000000003,21.409500000000001
2395.0,191.983,153.203,-5.2039400000000002,12.6724,-53.299900000000001,37.266100000000002,23.006699999999999
2396.0,196.35599999999999,161.54400000000001,-6.80945,6.6570299999999998,-52.029800000000002,28.642900000000001,23.916
2397.0,198.22200000000001,170.042,-4.7764699999999998,6.7489699999999999,-50.010100000000001,17.8093,26.821300000000001
2398.0,199.63499999999999,171.57599999999999,-8.0816300000000005,3.8925299999999998,-47.450600000000001,6.9875499999999997,29.911000000000001
2399.0,200.25800000000001,173.929,-8.3542400000000008,6.0488200000000001,-44.475200000000001,-3.8115299999999999,33.249000000000002
2400.0,201.19200000000001,172.53200000000001,-11.301600000000001,6.9445300000000003,-41.323500000000003,-14.440899999999999,36.313899999999997
2401.0,202.02500000000001,172.249,-11.777799999999999,11.7683,-37.840699999999998,-24.829699999999999,39.080399999999997
2402.0,202.976,168.76599999999999,-14.289300000000001,15.812900000000001,-34.1419,-34.926400000000001,41.382800000000003
2403.0,203.803,166.12100000000001,-14.6579,23.284199999999998,-30.155200000000001,-44.515799999999999,43.209800000000001
2404.0,204.54900000000001,160.19800000000001,-17.042400000000001,29.896599999999999,-25.9678,-53.459000000000003,44.518700000000003
2405.0,205.096,154.73099999999999,-17.731200000000001,39.273200000000003,-21.579499999999999,-61.512099999999997,45.293999999999997
2406.0,205.459,147.02199999999999,-19.513100000000001,48.442,-17.077300000000001,-68.525700000000001,45.520099999999999
2407.0,205.595,139.83500000000001,-19.7592,59.8324,-12.501300000000001,-74.322900000000004,45.187800000000003
2408.0,205.54300000000001,130.33000000000001,-21.494399999999999,70.215400000000002,-7.9322999999999997,-78.803700000000006,44.315800000000003
2409.0,205.31,121.758,-21.683499999999999,82.391999999999996,-3.4389599999999998,-81.875299999999996,42.924599999999998
2410.0,204.88999999999999,111.255,-23.348299999999998,93.065299999999993,0.88818600000000003,-83.518000000000001,41.0336
2411.0,204.27600000000001,102.31699999999999,-23.1905,105.29000000000001,4.99505,-83.734099999999998,38.667900000000003
2412.0,203.488,91.625100000000003,-24.724299999999999,115.34699999999999,8.8249200000000005,-82.566100000000006,35.881399999999999
2413.0,202.52699999999999,83.303799999999995,-24.014900000000001,126.962,12.338100000000001,-80.082499999999996,32.722499999999997
2414.0,201.40299999999999,73.3245,-25.258900000000001,135.767,15.501200000000001,-76.379599999999996,29.254100000000001
2415.0,200.102,66.348200000000006,-23.9541,146.09800000000001,18.296800000000001,-71.564099999999996,25.535699999999999
2416.0,198.61099999999999,57.190800000000003,-25.4237,152.495,20.718800000000002,-65.760999999999996,21.628599999999999
2417.0,196.88900000000001,51.805199999999999,-23.8371,160.65799999999999,22.7729,-59.096600000000002,17.584399999999999
2418.0,194.94300000000001,44.652500000000003,-24.838000000000001,164.84800000000001,24.464400000000001,-51.758699999999997,13.4406
2419.0,172.41399999999999,128.76599999999999,-4.99878,20.417999999999999,-50.678100000000001,46.546100000000003,11.300599999999999
2420.0,173.32400000000001,135.59700000000001,-3.7525900000000001,18.905100000000001,-50.075899999999997,41.011200000000002,15.257400000000001
2421.0,176.18000000000001,143.334,-3.8563499999999999,14.7582,-49.5306,33.671999999999997,18.317799999999998
2422.0,179.38800000000001,152.27199999999999,-3.06196,12.582000000000001,-48.226799999999997,25.483799999999999,20.9041
2423.0,181.476,156.625,-5.0942100000000003,9.4329800000000006,-46.286900000000003,15.9762,23.982800000000001
2424.0,182.92699999999999,161.089,-5.22133,10.0596,-43.927799999999998,6.21685,27.1188
2425.0,183.886,161.00399999999999,-8.1879799999999996,9.5304500000000001,-41.209400000000002,-3.54549,30.220700000000001
2426.0,184.80199999999999,162.03800000000001,-8.6948100000000004,12.7164,-38.3185,-13.159599999999999,33.038400000000003
2427.0,185.673,159.60400000000001,-11.4666,14.8719,-35.1676,-22.551200000000001,35.520600000000002
2428.0,186.535,158.506,-11.734400000000001,20.661000000000001,-31.796500000000002,-31.650600000000001,37.597499999999997
2429.0,187.315,154.11000000000001,-14.1393,25.435300000000002,-28.1831,-40.293399999999998,39.234299999999998
2430.0,187.98099999999999,151.023,-14.0661,33.722999999999999,-24.366499999999998,-48.3367,40.404499999999999
2431.0,188.49000000000001,144.96199999999999,-15.8592,41.091799999999999,-20.371500000000001,-55.586199999999998,41.0929
2432.0,188.83000000000001,139.41200000000001,-16.116499999999998,50.807200000000002,-16.251200000000001,-61.884900000000002,41.295400000000001
2433.0,189.001,131.37700000000001,-17.994399999999999,59.555799999999998,-12.061,-67.081100000000006,41.000599999999999
2434.0,189.00700000000001,124.45399999999999,-18.014900000000001,70.576899999999995,-7.8815999999999997,-71.094800000000006,40.2059
2435.0,188.84800000000001,115.26300000000001,-19.708600000000001,80.096100000000007,-3.7809599999999999,-73.866399999999999,38.919800000000002
2436.0,188.54400000000001,107.645,-19.439499999999999,91.572699999999998,0.17569799999999999,-75.352999999999994,37.184899999999999
2437.0,188.077,98.030500000000004,-20.949000000000002,101.042,3.92502,-75.543899999999994,35.035699999999999
2438.0,187.43899999999999,90.539500000000004,-20.2636,112.258,7.4281499999999996,-74.484899999999996,32.497999999999998
2439.0,186.65199999999999,81.014499999999998,-21.7239,120.715,10.6479,-72.242099999999994,29.620799999999999
2440.0,185.71199999999999,74.177499999999995,-20.755500000000001,130.81899999999999,13.5512,-68.897099999999995,26.458100000000002
2441.0,184.608,65.254099999999994,-22.2744,137.50999999999999,16.121400000000001,-64.543999999999997,23.0642
2442.0,183.31299999999999,59.963999999999999,-20.6861,146.24299999999999,18.350899999999999,-59.291499999999999,19.492100000000001
2443.0,181.78299999999999,52.158999999999999,-22.2516,150.631,20.246400000000001,-53.248699999999999,15.790100000000001
2444.0,180.01599999999999,47.902500000000003,-20.995899999999999,156.55199999999999,21.8078,-46.586599999999997,11.9823
2445.0,159.113,127.205,2.0262500000000001,24.8827,-46.3414,42.351700000000001,7.3573000000000004
2446.0,159.46899999999999,128.28899999999999,-1.6642600000000001,19.522400000000001,-46.292299999999997,36.568800000000003,11.637
2447.0,161.62299999999999,134.465,-2.3305799999999999,16.883500000000002,-45.646500000000003,30.072199999999999,15.320499999999999
2448.0,164.21100000000001,139.27199999999999,-4.57064,13.1479,-44.4893,22.5916,18.6203
2449.0,166.31700000000001,144.762,-5.1202100000000002,12.3818,-42.720500000000001,14.2437,21.829999999999998
2450.0,167.85900000000001,146.423,-7.9126200000000004,10.724299999999999,-40.569000000000003,5.5169699999999997,24.882300000000001
2451.0,169.02500000000001,148.637,-8.6339900000000007,12.4152,-38.145099999999999,-3.2458800000000001,27.723800000000001
2452.0,170.00999999999999,147.81700000000001,-11.0627,13.5105,-35.511600000000001,-11.908200000000001,30.288900000000002
2453.0,170.904,147.852,-11.478199999999999,17.693100000000001,-32.6661,-20.3643,32.524000000000001
2454.0,171.71600000000001,145.09299999999999,-13.573700000000001,21.193899999999999,-29.596900000000002,-28.538900000000002,34.386800000000001
2455.0,172.44,143.14099999999999,-13.799300000000001,27.551100000000002,-26.302299999999999,-36.302100000000003,35.851700000000001
2456.0,173.04900000000001,138.35400000000001,-15.813000000000001,33.056100000000001,-22.811900000000001,-43.506900000000002,36.899799999999999
2457.0,173.523,134.14099999999999,-16.269300000000001,40.975299999999997,-19.149699999999999,-49.997,37.509999999999998
2458.0,173.84999999999999,127.983,-17.746700000000001,48.568800000000003,-15.3813,-55.633699999999997,37.6736
2459.0,173.99299999999999,122.206,-17.997199999999999,57.889400000000002,-11.543200000000001,-60.299900000000001,37.369700000000002
2460.0,174.02099999999999,114.51600000000001,-19.543399999999998,66.331299999999999,-7.6878099999999998,-63.906999999999996,36.603900000000003
2461.0,173.99299999999999,107.90600000000001,-19.605499999999999,76.539299999999997,-3.9260100000000002,-66.387699999999995,35.411999999999999
2462.0,173.822,99.514300000000006,-21.049299999999999,85.299599999999998,-0.33374399999999999,-67.721400000000003,33.82
2463.0,173.46199999999999,92.4893,-20.8462,95.433499999999995,3.0802100000000001,-67.9041,31.8352
2464.0,172.96700000000001,83.875799999999998,-22.1873,103.64,6.2810899999999998,-66.962999999999994,29.5014
2465.0,172.32900000000001,77.348799999999997,-21.5289,113.28400000000001,9.2229500000000009,-64.950400000000002,26.865200000000002
2466.0,171.55500000000001,69.261600000000001,-22.654399999999999,120.44,11.8812,-61.949300000000001,23.963999999999999
2467.0,170.625,63.816899999999997,-21.485600000000002,129.04900000000001,14.2355,-58.034500000000001,20.854299999999999
2468.0,169.511,56.309100000000001,-22.843599999999999,134.16,16.2803,-53.3033,17.579899999999999
2469.0,168.154,52.201599999999999,-21.371200000000002,141.0,18.0198,-47.8429,14.1829
2470.0,166.554,46.289900000000003,-22.349499999999999,144.19399999999999,19.453099999999999,-41.815899999999999,10.687799999999999
2471.0,147.72,120.70699999999999,3.0936499999999998,24.689399999999999,-42.762999999999998,38.704599999999999,5.2251399999999997
2472.0,146.93700000000001,123.116,1.7021999999999999,22.5289,-42.5899,32.8001,9.5717700000000008
2473.0,148.477,125.52800000000001,-1.8769,18.308800000000002,-42.000900000000001,26.7578,13.3865
2474.0,150.50200000000001,130.75899999999999,-2.84911,17.075600000000001,-40.8748,19.996400000000001,16.863199999999999
2475.0,152.58099999999999,133.59,-5.6528299999999998,14.7616,-39.319800000000001,12.6022,20.0307
2476.0,154.21000000000001,137.279,-6.2282700000000002,15.657,-37.410800000000002,4.8814700000000002,22.934999999999999
2477.0,155.55600000000001,137.72,-8.7650299999999994,15.5771,-35.270000000000003,-2.9603799999999998,25.526
2478.0,156.61500000000001,138.875,-9.2683099999999996,18.4542,-32.934600000000003,-10.713200000000001,27.818200000000001
2479.0,157.49299999999999,137.113,-11.5357,20.427399999999999,-30.371200000000002,-18.318200000000001,29.796099999999999
2480.0,158.26499999999999,136.358,-11.789199999999999,25.344000000000001,-27.576499999999999,-25.636900000000001,31.460799999999999
2481.0,158.93700000000001,132.90000000000001,-13.7674,29.418500000000002,-24.575900000000001,-32.578400000000002,32.774700000000003
2482.0,159.49700000000001,130.50399999999999,-13.741300000000001,36.3005,-21.3813,-39.0122,33.711300000000001
2483.0,159.90600000000001,125.66,-15.255800000000001,42.374699999999997,-18.025200000000002,-44.796500000000002,34.241199999999999
2484.0,160.22800000000001,121.23399999999999,-15.610200000000001,50.346499999999999,-14.523099999999999,-49.811599999999999,34.378999999999998
2485.0,160.47,115.07899999999999,-17.096599999999999,57.746400000000001,-11.019,-53.908900000000003,34.100000000000001
2486.0,160.541,109.804,-17.052399999999999,66.932299999999998,-7.5226100000000002,-57.079099999999997,33.354999999999997
2487.0,160.56999999999999,102.413,-18.560400000000001,74.537000000000006,-4.08263,-59.376399999999997,32.231200000000001
2488.0,160.44399999999999,96.516099999999994,-18.217500000000001,83.951800000000006,-0.80856499999999998,-60.629300000000001,30.727399999999999
2489.0,160.20599999999999,88.917500000000004,-19.408799999999999,91.773499999999999,2.2955299999999998,-60.822099999999999,28.8673
2490.0,159.84399999999999,83.131900000000002,-18.756699999999999,101.045,5.2036199999999999,-59.996499999999997,26.725100000000001
2491.0,159.333,75.522300000000001,-19.980499999999999,107.94199999999999,7.8871599999999997,-58.197699999999998,24.2989
2492.0,158.72200000000001,70.293400000000005,-19.0337,116.384,10.3132,-55.522399999999998,21.637499999999999
2493.0,157.95599999999999,63.112499999999997,-20.332000000000001,121.81999999999999,12.4613,-52.015700000000002,18.789200000000001
2494.0,157.01400000000001,59.165399999999998,-18.802299999999999,129.19499999999999,14.328099999999999,-47.771000000000001,15.7895
2495.0,155.82300000000001,52.746600000000001,-20.240500000000001,132.583,15.915699999999999,-42.857700000000001,12.6807
2496.0,154.37100000000001,49.577800000000003,-18.987300000000001,137.542,17.218900000000001,-37.4238,9.4727599999999992
2497.0,137.08099999999999,114.52,4.1543400000000004,25.718699999999998,-39.762799999999999,35.256100000000004,4.2177300000000004
2498.0,135.66300000000001,113.574,-0.25351600000000002,21.5411,-39.274700000000003,29.453600000000002,8.6305499999999995
2499.0,136.63800000000001,117.114,-1.9485399999999999,20.201000000000001,-38.650500000000001,23.7989,12.3812
2500.0,138.33600000000001,119.67700000000001,-4.9877500000000001,17.827400000000001,-37.573900000000002,17.700700000000001,15.7454
2501.0,140.30699999999999,123.898,-5.92753,17.793900000000001,-36.204300000000003,11.1729,18.6326
2502.0,141.94900000000001,125.11199999999999,-8.7696799999999993,16.561499999999999,-34.514800000000001,4.3177300000000001,21.176300000000001
2503.0,143.35900000000001,127.598,-9.0854599999999994,18.4177,-32.665199999999999,-2.6823800000000002,23.449999999999999
2504.0,144.38200000000001,126.863,-11.3766,19.148700000000002,-30.563800000000001,-9.6264500000000002,25.4528
2505.0,145.27799999999999,127.601,-11.2339,23.2439,-28.264900000000001,-16.456,27.200600000000001
2506.0,145.989,125.069,-13.3736,25.8642,-25.740100000000002,-22.982500000000002,28.674900000000001
2507.0,146.60300000000001,123.97,-13.198600000000001,31.5915,-23.001000000000001,-29.182600000000001,29.849299999999999
2508.0,147.12,119.818,-15.3149,35.8474,-20.062999999999999,-34.869300000000003,30.683900000000001
2509.0,147.57900000000001,116.977,-15.334300000000001,42.852200000000003,-17.026900000000001,-40.008000000000003,31.170200000000001
2510.0,147.798,111.85299999999999,-16.871300000000002,48.753700000000002,-13.8208,-44.394300000000001,31.249400000000001
2511.0,147.95699999999999,107.158,-17.150200000000002,56.356400000000001,-10.4848,-48.1267,31.061699999999998
2512.0,148.268,100.89400000000001,-18.899899999999999,62.670699999999997,-7.2096900000000002,-51.0428,30.434899999999999
2513.0,148.24700000000001,96.508399999999995,-18.335000000000001,71.565399999999997,-4.2070299999999996,-52.947200000000002,29.252400000000002
2514.0,148.21199999999999,89.793999999999997,-19.480399999999999,78.862499999999997,-1.3333200000000001,-54.111499999999999,27.7578
2515.0,148.137,84.676900000000003,-18.992000000000001,87.401300000000006,1.4950399999999999,-54.366799999999998,26.034500000000001
2516.0,147.83600000000001,77.629999999999995,-20.3078,93.854900000000001,4.12615,-53.609699999999997,24.071999999999999
2517.0,147.48099999999999,72.848500000000001,-19.455100000000002,102.047,6.57552,-52.036299999999997,21.8324
2518.0,147.00800000000001,66.171899999999994,-20.667300000000001,107.604,8.7785799999999998,-49.648899999999998,19.405000000000001
2519.0,146.41,62.224499999999999,-19.400099999999998,114.968,10.7364,-46.526299999999999,16.797699999999999
2520.0,145.63499999999999,55.913600000000002,-20.856200000000001,118.79300000000001,12.4336,-42.729199999999999,14.0677
2521.0,144.607,53.079099999999997,-19.267399999999999,124.727,13.8786,-38.315199999999997,11.230399999999999
2522.0,143.316,48.008400000000002,-20.399100000000001,126.89,15.057,-33.435499999999998,8.3176199999999998
2523.0,126.86499999999999,107.179,3.4737800000000001,26.194900000000001,-36.953000000000003,31.816500000000001,3.93188
2524.0,125.483,107.554,0.52202899999999997,24.2898,-36.401899999999998,26.398299999999999,8.2314600000000002
2525.0,125.833,108.14100000000001,-3.0318299999999998,21.233699999999999,-35.706499999999998,21.1691,11.7501
2526.0,127.114,111.44499999999999,-4.6435000000000004,20.411799999999999,-34.471299999999999,15.7308,14.7753
2527.0,129.09399999999999,113.861,-7.1813000000000002,19.295999999999999,-33.198700000000002,9.8386999999999993,17.520399999999999
2528.0,131.07900000000001,117.471,-7.5950800000000003,20.5322,-31.863700000000001,3.8762300000000001,19.797599999999999
2529.0,132.27099999999999,118.264,-9.3636999999999997,20.973099999999999,-30.2562,-2.28783,21.573899999999998
2530.0,133.28899999999999,119.976,-9.2172199999999993,23.979299999999999,-28.427199999999999,-8.6705100000000002,23.181000000000001
2531.0,134.15299999999999,118.47199999999999,-11.3398,25.365600000000001,-26.351900000000001,-14.7431,24.686199999999999
2532.0,134.779,118.276,-11.1831,29.907299999999999,-24.081800000000001,-20.582699999999999,25.987400000000001
2533.0,135.351,115.245,-13.194800000000001,33.020400000000002,-21.5792,-26.066600000000001,27.005099999999999
2534.0,135.76300000000001,113.617,-12.9267,39.082799999999999,-18.870999999999999,-31.122399999999999,27.8125
2535.0,136.30600000000001,109.136,-15.029999999999999,43.275399999999998,-16.047000000000001,-35.723300000000002,28.291599999999999
2536.0,136.488,106.61199999999999,-14.6914,50.556199999999997,-13.135400000000001,-39.396000000000001,28.273299999999999
2537.0,136.58799999999999,100.89700000000001,-16.413599999999999,56.346699999999998,-10.301299999999999,-42.714399999999998,27.952200000000001
2538.0,136.952,95.2376,-18.228999999999999,61.514200000000002,-7.4166999999999996,-45.425800000000002,27.1721
2539.0,136.89699999999999,91.539699999999996,-17.600999999999999,69.369399999999999,-4.5333100000000002,-47.054600000000001,26.160900000000002
2540.0,137.08699999999999,87.869100000000003,-16.273900000000001,78.444800000000001,-1.8910400000000001,-48.178899999999999,24.934899999999999
2541.0,137.11000000000001,81.473100000000002,-17.813099999999999,84.060500000000005,0.64042900000000003,-48.460900000000002,23.317699999999999
2542.0,136.87299999999999,77.500799999999998,-16.6921,92.199799999999996,3.0531600000000001,-47.771099999999997,21.501999999999999
2543.0,136.684,71.197100000000006,-18.080500000000001,97.441100000000006,5.2636900000000004,-46.408099999999997,19.459199999999999
2544.0,136.34100000000001,67.572900000000004,-16.895099999999999,104.751,7.2700500000000003,-44.277099999999997,17.2379
2545.0,135.92400000000001,61.654499999999999,-18.240600000000001,108.938,9.04115,-41.513100000000001,14.872199999999999
2546.0,135.31100000000001,58.987900000000003,-16.636500000000002,115.325,10.584199999999999,-38.117800000000003,12.389900000000001
2547.0,134.46199999999999,53.571800000000003,-18.151499999999999,117.73,11.888400000000001,-34.175400000000003,9.8283299999999993
2548.0,133.31899999999999,51.394100000000002,-16.830100000000002,121.977,12.949999999999999,-29.7986,7.1878700000000002
2549.0,117.51000000000001,99.880300000000005,2.6503100000000002,26.6662,-34.471699999999998,28.846699999999998,4.1603500000000002
2550.0,115.68000000000001,97.720399999999998,-2.5017399999999999,23.320799999999998,-33.642299999999999,23.5352,8.1930200000000006
2551.0,116.434,100.438,-4.5717600000000003,23.5517,-32.965000000000003,18.640999999999998,11.3972
2552.0,117.706,103.071,-6.5677899999999996,23.7164,-31.990600000000001,13.8942,14.0002
2553.0,119.39,105.325,-8.3162900000000004,22.309200000000001,-30.877099999999999,8.6301199999999998,16.313500000000001
2554.0,120.985,105.059,-11.8157,19.041899999999998,-29.613,3.5039400000000001,17.928699999999999
2555.0,122.003,109.509,-9.7423500000000001,23.001300000000001,-27.977399999999999,-2.03925,19.456800000000001
2556.0,123.247,110.084,-10.741199999999999,24.6264,-26.498999999999999,-7.8060600000000004,21.008600000000001
2557.0,123.967,110.749,-10.6614,27.9726,-24.6267,-13.174099999999999,22.249600000000001
2558.0,124.553,108.837,-12.286899999999999,30.324200000000001,-22.5761,-18.4284,23.381399999999999
2559.0,125.02,108.18600000000001,-12.096500000000001,35.228700000000003,-20.261199999999999,-23.226199999999999,24.2559
2560.0,125.414,104.438,-14.1286,38.542200000000001,-17.894200000000001,-27.781099999999999,24.935300000000002
2561.0,125.836,101.395,-15.2531,43.156100000000002,-15.333299999999999,-31.7408,25.1783
2562.0,126.012,98.338800000000006,-15.6372,49.020299999999999,-12.545500000000001,-35.013100000000001,25.347000000000001
2563.0,126.453,94.808099999999996,-16.063500000000001,55.295200000000001,-9.9714700000000001,-37.921599999999998,25.199200000000001
2564.0,126.706,90.207800000000006,-17.590199999999999,60.415100000000002,-7.5112100000000002,-40.0852,24.2776
2565.0,126.726,87.299199999999999,-16.387,68.158000000000001,-4.9360200000000001,-41.746499999999997,23.278199999999998
2566.0,126.911,82.084100000000007,-17.212700000000002,73.812100000000001,-2.4992200000000002,-42.846899999999998,22.160699999999999
2567.0,126.949,78.348799999999997,-16.633800000000001,80.911600000000007,-0.22261500000000001,-43.046199999999999,20.699300000000001
2568.0,126.896,72.788600000000002,-17.8063,86.074100000000001,1.98149,-42.501199999999997,19.010100000000001
2569.0,126.79300000000001,69.275599999999997,-17.0169,92.842799999999997,3.9747699999999999,-41.273699999999998,17.157299999999999
2570.0,126.63,63.952599999999997,-18.158200000000001,97.267200000000003,5.7920400000000001,-39.414200000000001,15.1288
2571.0,126.36499999999999,61.038600000000002,-17.088000000000001,103.358,7.3916899999999996,-36.9557,12.989100000000001
2572.0,125.937,55.907200000000003,-18.497399999999999,106.306,8.7811699999999995,-33.942399999999999,10.747
2573.0,125.271,53.909700000000001,-17.0974,111.26900000000001,9.9511599999999998,-30.4238,8.4430499999999995
2574.0,124.29300000000001,49.741500000000002,-18.181000000000001,112.79600000000001,10.886100000000001,-26.5181,6.0937200000000002
2575.0,108.455,88.822699999999998,-2.1808900000000002,22.980499999999999,-31.770099999999999,26.232600000000001,3.8784399999999999
2576.0,106.35899999999999,92.816599999999994,-1.40387,27.450399999999998,-30.8276,20.757200000000001,7.6880499999999996
2577.0,107.69199999999999,91.229299999999995,-7.2872300000000001,23.0639,-30.4376,15.933299999999999,11.8316
2578.0,109.733,92.765900000000002,-9.5549400000000002,21.7209,-29.708500000000001,12.7369,14.8246
2579.0,110.541,95.681899999999999,-10.3505,23.1113,-28.566500000000001,8.6062399999999997,15.6471
2580.0,112.017,101.20999999999999,-8.5801800000000004,26.292300000000001,-27.633299999999998,2.8570000000000002,16.239000000000001
2581.0,113.443,102.89,-9.5076699999999992,26.424800000000001,-26.185199999999998,-1.8200400000000001,17.480899999999998
2582.0,114.06100000000001,104.259,-8.7991200000000003,28.842600000000001,-24.8614,-6.9327699999999997,18.8688
2583.0,114.7,103.209,-10.4,29.825600000000001,-23.073399999999999,-11.754899999999999,19.910299999999999
2584.0,115.184,103.25,-10.133599999999999,33.808599999999998,-21.188199999999998,-16.435600000000001,20.862200000000001
2585.0,115.61,100.973,-11.6821,36.506999999999998,-19.107800000000001,-20.6922,21.612100000000002
2586.0,116.051,99.527299999999997,-11.8131,41.3917,-16.985299999999999,-24.676400000000001,22.1511
2587.0,116.417,96.604100000000003,-13.192299999999999,45.375100000000003,-14.652699999999999,-28.034099999999999,22.331399999999999
2588.0,116.51600000000001,93.364699999999999,-13.771000000000001,50.428600000000003,-12.2791,-31.0792,22.392800000000001
2589.0,116.935,88.175600000000003,-16.437999999999999,53.258200000000002,-9.90761,-33.698099999999997,22.077400000000001
2590.0,117.08199999999999,87.693899999999999,-14.139699999999999,61.360100000000003,-7.4930700000000003,-35.4557,21.498899999999999
2591.0,117.42700000000001,83.543499999999995,-14.7262,67.045000000000002,-5.29617,-37.037599999999998,20.670400000000001
2592.0,117.642,80.384699999999995,-14.3597,73.192700000000002,-3.1547900000000002,-37.974299999999999,19.467099999999999
2593.0,117.68899999999999,75.740799999999993,-15.1523,78.301900000000003,-1.05444,-38.110900000000001,18.157599999999999
2594.0,117.815,72.732399999999998,-14.4535,84.709900000000005,0.90975099999999998,-37.685000000000002,16.6157
2595.0,117.809,67.9178,-15.540100000000001,89.045500000000004,2.7236699999999998,-36.580599999999997,14.9162
2596.0,117.834,65.347099999999998,-14.5344,95.117199999999997,4.3487499999999999,-34.972900000000003,13.082599999999999
2597.0,117.72,60.676099999999998,-15.7851,98.445800000000006,5.7923499999999999,-32.783499999999997,11.141500000000001
2598.0,117.512,58.928400000000003,-14.3413,103.898,7.0309200000000001,-30.137799999999999,9.1333599999999997
2599.0,117.009,54.421900000000001,-15.9154,105.55500000000001,8.0689899999999994,-27.0001,7.0768700000000004
2600.0,116.256,52.969000000000001,-14.6518,109.209,8.8791899999999995,-23.558900000000001,5.00929
2601.0,99.936300000000003,84.2911,-2.3382399999999999,25.936399999999999,-28.9786,22.963699999999999,3.22994
2602.0,98.617999999999995,86.879499999999993,-2.39947,29.572600000000001,-28.3216,18.407800000000002,7.3962300000000001
2603.0,98.849100000000007,81.854500000000002,-10.172000000000001,22.164400000000001,-28.2834,12.9749,10.449
2604.0,101.239,70.945700000000002,-25.5318,7.1972899999999997,-27.390499999999999,10.8849,11.8573
2605.0,101.685,86.790000000000006,-12.404199999999999,23.630299999999998,-25.964500000000001,8.5711999999999993,13.335000000000001
2606.0,103.76300000000001,94.092200000000005,-8.2197399999999998,28.514500000000002,-25.8005,1.9923,15.266
2607.0,105.65600000000001,94.213999999999999,-11.071199999999999,25.753499999999999,-24.572299999999998,-1.4505600000000001,16.139700000000001
2608.0,105.459,95.858999999999995,-9.6833200000000001,29.483000000000001,-23.187799999999999,-5.9776999999999996,16.9497
2609.0,106.29000000000001,96.539599999999993,-9.8425999999999991,31.857099999999999,-21.701699999999999,-10.5448,17.617699999999999
2610.0,106.63200000000001,95.480800000000002,-10.6988,34.294400000000003,-19.915800000000001,-14.5891,18.4466
2611.0,107.07299999999999,94.827399999999997,-10.733700000000001,38.139899999999997,-18.108899999999998,-18.403099999999998,19.081
2612.0,107.417,92.320899999999995,-12.172800000000001,41.159799999999997,-16.069400000000002,-21.841100000000001,19.513300000000001
2613.0,107.736,91.0398,-11.9564,46.114199999999997,-13.9903,-24.840900000000001,19.743200000000002
2614.0,108.03700000000001,87.714799999999997,-13.3378,50.060200000000002,-11.9824,-27.447099999999999,19.636399999999998
2615.0,108.411,85.215699999999998,-13.7974,54.871000000000002,-9.9549400000000006,-29.6433,19.144600000000001
2616.0,108.524,81.847899999999996,-14.485799999999999,59.141800000000003,-7.7893600000000003,-31.340900000000001,18.621099999999998
2617.0,108.836,79.805300000000003,-13.462199999999999,65.426199999999994,-5.7491700000000003,-32.727800000000002,17.966200000000001
2618.0,109.146,75.632000000000005,-14.6538,69.584900000000005,-3.7822,-33.504100000000001,16.933199999999999
2619.0,109.32299999999999,73.156199999999998,-13.913399999999999,75.646000000000001,-1.87714,-33.653599999999997,15.6974
2620.0,109.51300000000001,68.691400000000002,-15.1998,79.498999999999995,-0.119496,-33.2592,14.297599999999999
2621.0,109.684,66.406300000000002,-14.3438,85.287599999999998,1.50722,-32.325499999999998,12.744300000000001
2622.0,109.83499999999999,62.006300000000003,-15.707000000000001,88.530500000000004,2.9648599999999998,-30.903600000000001,11.0763
2623.0,109.93000000000001,60.141300000000001,-14.6851,93.762200000000007,4.2437199999999997,-29.007999999999999,9.3275500000000005
2624.0,109.893,55.750700000000002,-16.374099999999999,95.754900000000006,5.3387000000000002,-26.668700000000001,7.5206
2625.0,109.633,54.696800000000003,-14.916499999999999,100.214,6.2203499999999998,-23.935400000000001,5.7187099999999997
2626.0,109.032,50.970399999999998,-16.266300000000001,101.018,6.9010600000000002,-20.884599999999999,3.9129900000000002
2627.0,92.349199999999996,80.5458,-1.4205399999999999,28.106999999999999,-26.556999999999999,19.988499999999998,3.8222299999999998
2628.0,91.321399999999997,80.748199999999997,-3.21644,29.810300000000002,-25.9436,16.413900000000002,6.9379299999999997
2629.0,91.984300000000005,77.823499999999996,-9.6557099999999991,26.5501,-26.247299999999999,11.2745,8.5007300000000008
2630.0,94.735600000000005,74.504000000000005,-18.378799999999998,20.5213,-25.585699999999999,8.9655100000000001,8.9911700000000003
2631.0,94.822500000000005,82.617400000000004,-11.610200000000001,27.880500000000001,-24.220400000000001,7.0175000000000001,11.052199999999999
2632.0,95.988500000000002,87.854500000000002,-7.7066999999999997,30.189499999999999,-24.1785,1.55532,12.988200000000001
2633.0,97.643199999999993,84.725099999999998,-13.5802,24.569500000000001,-23.2195,-1.5211699999999999,13.426399999999999
2634.0,97.692099999999996,90.490399999999994,-8.4461399999999998,32.107500000000002,-21.6523,-5.20357,14.551500000000001
2635.0,98.560299999999998,90.485200000000006,-9.0175000000000001,34.0015,-20.4695,-9.4273399999999992,15.4876
2636.0,98.965000000000003,90.640600000000006,-8.9428900000000002,36.950499999999998,-18.826000000000001,-12.9137,16.1004
2637.0,99.251999999999995,88.761799999999994,-10.182399999999999,39.292200000000001,-17.154599999999999,-16.267700000000001,16.6508
2638.0,99.596299999999999,88.239699999999999,-9.8679500000000004,43.556199999999997,-15.338900000000001,-19.268799999999999,16.948799999999999
2639.0,99.871399999999994,85.570300000000003,-11.196099999999999,46.506500000000003,-13.5341,-21.919699999999999,17.0655
2640.0,100.238,84.052099999999996,-11.187799999999999,51.061,-11.636799999999999,-24.194500000000001,17.0137
2641.0,100.541,81.561999999999998,-11.774800000000001,55.118099999999998,-9.7364499999999996,-26.066299999999998,16.762499999999999
2642.0,100.861,79.766400000000004,-11.396699999999999,60.206400000000002,-7.9273400000000001,-27.618400000000001,16.185500000000001
2643.0,101.13200000000001,76.242699999999999,-12.4648,63.852699999999999,-6.1445400000000001,-28.7531,15.3925
2644.0,101.43899999999999,74.418999999999997,-11.6936,69.421400000000006,-4.3938600000000001,-29.406500000000001,14.4643
2645.0,101.75,70.6524,-12.839600000000001,73.063299999999998,-2.7012700000000001,-29.5534,13.329499999999999
2646.0,102.02800000000001,68.851299999999995,-11.972799999999999,78.580399999999997,-1.1228400000000001,-29.198,12.0398
2647.0,102.352,65.017099999999999,-13.213900000000001,81.811899999999994,0.31994400000000001,-28.408300000000001,10.620699999999999
2648.0,102.655,63.514299999999999,-12.2057,87.036000000000001,1.6145499999999999,-27.164999999999999,9.1013599999999997
2649.0,102.961,59.758299999999998,-13.589,89.542100000000005,2.7381500000000001,-25.543700000000001,7.5181300000000002
2650.0,103.117,58.918999999999997,-12.1798,94.354600000000005,3.6774100000000001,-23.504300000000001,5.9169999999999998
2651.0,103.108,54.960000000000001,-13.990500000000001,95.360600000000005,4.4168599999999998,-21.167400000000001,4.3390899999999997
2652.0,102.65900000000001,54.405500000000004,-12.407500000000001,98.880799999999994,4.9398900000000001,-18.509799999999998,2.8466399999999998
2653.0,85.017700000000005,72.699600000000004,-4.3192000000000004,25.1709,-24.026499999999999,17.6235,3.3739599999999998
2654.0,84.459900000000005,72.675899999999999,-6.6719999999999997,27.6082,-23.5823,14.3779,5.5907200000000001
2655.0,85.905199999999994,76.222700000000003,-6.6052999999999997,30.611000000000001,-23.8688,10.5054,7.6695000000000002
2656.0,87.808800000000005,76.882199999999997,-9.3959899999999994,29.580300000000001,-23.573499999999999,8.1595300000000002,9.0047099999999993
2657.0,88.538899999999998,80.172600000000003,-8.0975099999999998,31.297599999999999,-22.999300000000002,5.3752399999999998,9.9896600000000007
2658.0,89.560100000000006,80.8262,-9.4033499999999997,30.067900000000002,-22.5928,1.66696,10.7004
2659.0,90.707800000000006,83.198499999999996,-8.9815699999999996,31.6891,-21.850899999999999,-1.5825100000000001,11.339600000000001
2660.0,91.102999999999994,83.398799999999994,-9.6542899999999996,32.475299999999997,-20.460999999999999,-4.8070700000000004,12.396100000000001
2661.0,91.447699999999998,85.082700000000003,-8.0314300000000003,35.918799999999997,-19.249300000000002,-8.3095499999999998,13.347300000000001
2662.0,91.961799999999997,83.6053,-9.7248999999999999,36.956899999999997,-17.855899999999998,-11.4084,13.869899999999999
2663.0,92.200199999999995,83.831699999999998,-9.0169700000000006,40.940300000000001,-16.283000000000001,-14.2963,14.308199999999999
2664.0,92.556100000000001,81.588399999999993,-10.5708,42.908799999999999,-14.718299999999999,-16.899000000000001,14.552
2665.0,92.858199999999997,81.130099999999999,-9.9792900000000007,47.3491,-13.0655,-19.196300000000001,14.6143
2666.0,93.152100000000004,78.920199999999994,-10.826000000000001,50.456899999999997,-11.4254,-21.204999999999998,14.452999999999999
2667.0,93.405600000000007,77.368700000000004,-10.7158,54.615299999999998,-9.7967999999999993,-22.855,14.1096
2668.0,93.775199999999998,74.607200000000006,-11.6912,57.843499999999999,-8.1824600000000007,-24.1751,13.636699999999999
2669.0,94.158100000000005,73.335899999999995,-11.0227,62.832500000000003,-6.5578599999999998,-25.115100000000002,12.959
2670.0,94.521299999999997,70.092299999999994,-12.161899999999999,66.006500000000003,-4.9934099999999999,-25.66,12.0802
2671.0,94.891000000000005,68.630300000000005,-11.4657,70.981899999999996,-3.4981900000000001,-25.775200000000002,11.033799999999999
2672.0,95.296300000000002,65.171199999999999,-12.767899999999999,73.878299999999996,-2.1013799999999998,-25.484999999999999,9.8448200000000003
2673.0,95.732299999999995,63.8001,-12.0357,78.661799999999999,-0.82287200000000005,-24.8001,8.5348400000000009
2674.0,96.221199999999996,60.279800000000002,-13.5406,81.0227,0.30605700000000002,-23.763000000000002,7.1465500000000004
2675.0,96.691100000000006,59.1646,-12.729900000000001,85.406899999999993,1.27464,-22.378499999999999,5.7080700000000002
2676.0,97.095799999999997,55.496099999999998,-14.5304,86.799199999999999,2.0422799999999999,-20.688600000000001,4.2968999999999999
2677.0,97.245800000000003,55.138599999999997,-13.0105,90.907499999999999,2.6129799999999999,-18.698599999999999,2.9446699999999999
2678.0,97.057400000000001,51.8247,-14.2957,91.495400000000004,2.9596200000000001,-16.490400000000001,1.7644
2679.0,78.795599999999993,69.0702,-4.5352399999999999,27.2912,-21.665099999999999,15.235200000000001,2.32334
2680.0,78.7774,70.805499999999995,-4.8210100000000002,30.970300000000002,-21.5121,12.403600000000001,4.5602600000000004
2681.0,79.683800000000005,72.126900000000006,-5.9457300000000002,31.185099999999998,-21.620200000000001,9.3084000000000007,6.1136299999999997
2682.0,80.781899999999993,74.135300000000001,-6.08589,31.8308,-21.5961,7.0334300000000001,6.9940800000000003
2683.0,82.137,75.466499999999996,-7.0075799999999999,31.878599999999999,-21.540299999999998,4.3103499999999997,7.9956199999999997
2684.0,83.459900000000005,78.453100000000006,-6.2532300000000003,33.599200000000003,-21.027799999999999,1.5101100000000001,9.0291499999999996
2685.0,84.180400000000006,79.070400000000006,-6.9068899999999998,34.154800000000002,-20.258700000000001,-1.4859500000000001,10.0114
2686.0,84.845500000000001,80.281099999999995,-6.73604,36.031799999999997,-19.323499999999999,-4.4530099999999999,10.6388
2687.0,85.174199999999999,79.217200000000005,-8.18994,36.691000000000003,-18.1447,-7.3265099999999999,11.173299999999999
2688.0,85.563800000000001,80.010099999999994,-7.4453300000000002,39.956600000000002,-16.9252,-10.026199999999999,11.695600000000001
2689.0,85.906999999999996,78.222800000000007,-9.0046800000000005,41.365900000000003,-15.553800000000001,-12.4907,12.028700000000001
2690.0,86.206100000000006,78.438500000000005,-8.1956299999999995,45.334699999999998,-14.154500000000001,-14.7235,12.202299999999999
2691.0,86.517300000000006,76.2286,-9.5619599999999991,47.325899999999997,-12.7173,-16.7075,12.2042
2692.0,86.828400000000002,75.477000000000004,-9.2117400000000007,51.186700000000002,-11.2706,-18.4129,12.054
2693.0,87.174599999999998,73.5458,-9.8620999999999999,54.191200000000002,-9.8266200000000001,-19.827500000000001,11.7357
2694.0,87.519300000000001,72.800700000000006,-9.1244999999999994,58.641599999999997,-8.3984400000000008,-20.9513,11.238799999999999
2695.0,87.893600000000006,70.016300000000001,-10.298400000000001,61.249000000000002,-6.9932499999999997,-21.7544,10.577500000000001
2696.0,88.303600000000003,69.198800000000006,-9.4335199999999997,65.945899999999995,-5.6165900000000004,-22.207599999999999,9.7557700000000001
2697.0,88.745999999999995,66.210999999999999,-10.703799999999999,68.498500000000007,-4.3035600000000001,-22.3003,8.7812199999999994
2698.0,89.251300000000001,65.430499999999995,-9.7950800000000005,73.176000000000002,-3.0767199999999999,-22.055,7.6723400000000002
2699.0,89.827200000000005,62.391599999999997,-11.2066,75.445099999999996,-1.96394,-21.4816,6.4596999999999998
2700.0,90.486400000000003,61.833399999999997,-10.2172,79.975200000000001,-0.989977,-20.6313,5.1755500000000003
2701.0,91.1614,58.874600000000001,-11.6677,81.840900000000005,-0.19026100000000001,-19.5044,3.8847800000000001
2702.0,91.777199999999993,58.735399999999998,-10.2477,86.239699999999999,0.41637800000000003,-18.157,2.6468600000000002
2703.0,92.121600000000001,55.433300000000003,-11.8222,87.092200000000005,0.80673099999999998,-16.555299999999999,1.56816
2704.0,92.0642,55.184800000000003,-9.9650300000000005,90.671700000000001,0.99404700000000001,-14.783099999999999,0.69360500000000003
2705.0,73.686800000000005,68.146600000000007,-2.06982,31.807600000000001,-19.809799999999999,13.3566,2.44896
2706.0,73.640699999999995,66.233500000000006,-5.5464700000000002,30.9251,-19.814800000000002,10.6175,3.75387
2707.0,74.486500000000007,68.641900000000007,-5.1602699999999997,32.543599999999998,-19.937999999999999,8.1975899999999999,4.7735799999999999
2708.0,75.555899999999994,69.1447,-6.52271,32.103299999999997,-20.107500000000002,5.9686300000000001,5.6004300000000002
2709.0,76.675700000000006,72.030699999999996,-5.6150000000000002,33.7684,-19.953099999999999,3.5814499999999998,6.43797
2710.0,77.664900000000003,72.2239,-7.1391200000000001,33.171900000000001,-19.5701,1.0625500000000001,7.1932200000000002
2711.0,78.378500000000003,74.159899999999993,-6.4280900000000001,35.198500000000003,-18.944299999999998,-1.54335,7.8908100000000001
2712.0,79.021199999999993,73.668700000000001,-7.7803199999999997,35.645000000000003,-18.1739,-4.0487599999999997,8.5936299999999992
2713.0,79.533299999999997,74.999700000000004,-6.9903199999999996,38.6295,-17.166399999999999,-6.4826100000000002,9.1697399999999991
2714.0,79.8767,73.558300000000003,-8.5249699999999997,39.490699999999997,-16.061399999999999,-8.7564700000000002,9.5651700000000002
2715.0,80.221500000000006,74.261099999999999,-7.6623799999999997,43.003300000000003,-14.8931,-10.846,9.82193
2716.0,80.540599999999998,72.357299999999995,-9.1404899999999998,44.3551,-13.6709,-12.731400000000001,9.9321999999999999
2717.0,80.859499999999997,72.674999999999997,-8.1629500000000004,48.2958,-12.428599999999999,-14.409700000000001,9.89236
2718.0,81.171700000000001,71.065200000000004,-8.8968100000000003,50.626100000000001,-11.168900000000001,-15.862500000000001,9.7026299999999992
2719.0,81.490300000000005,70.371399999999994,-8.5250599999999999,54.148200000000003,-9.9126899999999996,-17.072700000000001,9.3729700000000005
2720.0,81.863299999999995,68.088499999999996,-9.6461699999999997,56.301600000000001,-8.6661199999999994,-18.011399999999998,8.9015699999999995
2721.0,82.277500000000003,67.749600000000001,-8.7385800000000007,60.566899999999997,-7.4352999999999998,-18.669599999999999,8.2749799999999993
2722.0,82.726600000000005,65.145899999999997,-10.0382,62.648899999999998,-6.2371800000000004,-19.037099999999999,7.4967300000000003
2723.0,83.238299999999995,64.698700000000002,-9.1772399999999994,66.903000000000006,-5.0928000000000004,-19.110399999999998,6.5784000000000002
2724.0,83.837100000000007,61.8994,-10.7164,68.734399999999994,-4.0269300000000001,-18.903199999999998,5.5354799999999997
2725.0,84.547899999999998,61.459000000000003,-9.9651200000000006,72.809600000000003,-3.0699900000000002,-18.4496,4.3955299999999999
2726.0,85.358099999999993,58.525100000000002,-11.7494,74.245199999999997,-2.2565900000000001,-17.790500000000002,3.2076099999999999
2727.0,86.218400000000003,58.156399999999998,-10.919600000000001,78.129499999999993,-1.6262300000000001,-16.961400000000001,2.0443500000000001
2728.0,86.986500000000007,55.017499999999998,-12.657999999999999,79.135099999999994,-1.20712,-15.9734,1.00396
2729.0,87.482299999999995,55.264200000000002,-10.622400000000001,83.444900000000004,-1.0125299999999999,-14.8103,0.194298
2730.0,87.456000000000003,52.366399999999999,-11.15,84.456199999999995,-1.0050699999999999,-13.452999999999999,-0.29078300000000001
2731.0,68.825199999999995,63.192999999999998,-3.3666800000000001,31.585899999999999,-18.032800000000002,11.8901,1.98227
2732.0,69.140799999999999,65.127700000000004,-3.2089300000000001,34.087699999999998,-18.2807,8.9954499999999999,2.76519
2733.0,69.997900000000001,64.4131,-5.4951699999999999,32.783799999999999,-18.569600000000001,7.11571,3.5070700000000001
2734.0,70.579599999999999,66.882099999999994,-4.3150500000000003,34.690300000000001,-18.608599999999999,4.9911000000000003,4.2628700000000004
2735.0,71.795500000000004,67.400999999999996,-5.7667999999999999,34.200299999999999,-18.5276,2.9242300000000001,4.9172799999999999
2736.0,72.724800000000002,69.799999999999997,-4.8357400000000004,36.371000000000002,-18.268599999999999,0.72194000000000003,5.5712700000000002
2737.0,73.484700000000004,69.715400000000002,-6.0874199999999998,36.459299999999999,-17.765699999999999,-1.51816,6.1939200000000003
2738.0,73.980500000000006,70.937100000000001,-5.5474800000000002,38.710700000000003,-17.0685,-3.6692800000000001,6.7111200000000002
2739.0,74.428899999999999,69.945700000000002,-6.9600600000000004,39.2652,-16.251300000000001,-5.73034,7.1310799999999999
2740.0,74.791499999999999,70.722800000000007,-6.3213900000000001,42.145899999999997,-15.308,-7.6126100000000001,7.4418899999999999
2741.0,75.135199999999998,69.366299999999995,-7.5821699999999996,43.248899999999999,-14.3096,-9.3655000000000008,7.6240199999999998
2742.0,75.448300000000003,69.890299999999996,-6.74071,46.573,-13.270300000000001,-10.928100000000001,7.67455
2743.0,75.766000000000005,68.249600000000001,-7.87263,48.013199999999998,-12.2041,-12.3369,7.6028099999999998
2744.0,76.086699999999993,67.8887,-7.5638399999999999,50.991999999999997,-11.1279,-13.5359,7.40151
2745.0,76.442700000000002,66.772199999999998,-7.8878599999999999,53.442900000000002,-10.049799999999999,-14.5381,7.0663200000000002
2746.0,76.813699999999997,66.657799999999995,-7.10189,57.064100000000003,-8.97654,-15.3096,6.5970700000000004
2747.0,77.233500000000006,64.670000000000002,-8.1288199999999993,58.938499999999998,-7.9171199999999997,-15.852,5.9953599999999998
2748.0,77.719200000000001,64.502600000000001,-7.3326799999999999,62.695099999999996,-6.8858600000000001,-16.139600000000002,5.2547800000000002
2749.0,78.296400000000006,62.344799999999999,-8.5602400000000003,64.458299999999994,-5.9017299999999997,-16.190899999999999,4.3798300000000001
2750.0,78.994399999999999,62.225000000000001,-7.8248100000000003,68.198300000000003,-4.9903300000000002,-16.020299999999999,3.3852899999999999
2751.0,79.838800000000006,60.047699999999999,-9.2166999999999994,69.792199999999994,-4.18886,-15.686199999999999,2.3064
2752.0,80.816400000000002,60.1541,-8.3287200000000006,73.619100000000003,-3.5364,-15.2326,1.2047600000000001
2753.0,81.849500000000006,58.056600000000003,-9.4785699999999995,75.277600000000007,-3.0798199999999998,-14.7219,0.185922
2754.0,82.764099999999999,58.465600000000002,-7.7229900000000002,79.593900000000005,-2.8381500000000002,-14.127800000000001,-0.62577199999999999
2755.0,83.3232,55.727600000000002,-8.4320799999999991,80.980800000000002,-2.8114499999999998,-13.4297,-1.0885199999999999
2756.0,83.253200000000007,55.8874,-5.3686299999999996,85.416899999999998,-2.9445899999999998,-12.4925,-1.11781
2757.0,64.935400000000001,60.556699999999999,-3.6082399999999999,32.878,-16.339500000000001,10.104100000000001,0.84453299999999998
2758.0,65.361199999999997,60.445799999999998,-4.7765899999999997,33.419400000000003,-16.960899999999999,7.7042400000000004,1.76563
2759.0,66.091999999999999,61.3523,-5.0684399999999998,34.357300000000002,-17.3339,5.8979900000000001,2.2347000000000001
2760.0,66.811400000000006,61.893300000000004,-5.8511899999999999,34.814999999999998,-17.357399999999998,4.02677,2.7775699999999999
2761.0,67.712500000000006,63.9848,-5.1828700000000003,36.059899999999999,-17.3444,2.2712699999999999,3.3937300000000001
2762.0,68.340500000000006,63.997500000000002,-6.2588499999999998,35.756999999999998,-17.063099999999999,0.41941200000000001,3.9601899999999999
2763.0,68.978200000000001,65.929199999999994,-5.2812299999999999,37.923200000000001,-16.648800000000001,-1.53589,4.4132400000000001
2764.0,69.482699999999994,65.081699999999998,-6.7237400000000003,38.129600000000003,-16.096399999999999,-3.3277800000000002,4.8377600000000003
2765.0,69.896600000000007,66.399100000000004,-5.7516999999999996,40.9572,-15.4033,-5.0417199999999998,5.1677900000000001
2766.0,70.250299999999996,65.035799999999995,-7.2520300000000004,41.457500000000003,-14.6173,-6.5868200000000003,5.38239
2767.0,70.5809,66.115499999999997,-6.1077700000000004,44.683599999999998,-13.7864,-8.0256399999999992,5.4953599999999998
2768.0,70.892200000000003,64.492999999999995,-7.5074100000000001,45.440100000000001,-12.912800000000001,-9.3038299999999996,5.49343
2769.0,71.209199999999996,65.470799999999997,-6.1533800000000003,49.018099999999997,-12.0238,-10.4533,5.3828399999999998
2770.0,71.527500000000003,64.339500000000001,-6.7868500000000003,50.674900000000001,-11.113300000000001,-11.432700000000001,5.1572300000000002
2771.0,71.869500000000002,64.257999999999996,-6.26546,53.552799999999998,-10.197699999999999,-12.2493,4.82775
2772.0,72.256399999999999,62.395200000000003,-7.4786400000000004,54.786700000000003,-9.2837700000000005,-12.864100000000001,4.3729699999999996
2773.0,72.709900000000005,62.879300000000001,-6.3281999999999998,58.457599999999999,-8.3857499999999998,-13.2844,3.79129
2774.0,73.233699999999999,60.764800000000001,-7.7940300000000002,59.565300000000001,-7.5068200000000003,-13.493499999999999,3.0750700000000002
2775.0,73.879199999999997,61.176200000000001,-6.8061999999999996,63.168799999999997,-6.6720800000000002,-13.523099999999999,2.2308300000000001
2776.0,74.663499999999999,58.884599999999999,-8.6018299999999996,64.016599999999997,-5.9057500000000003,-13.3926,1.2680400000000001
2777.0,75.625699999999995,59.255800000000001,-7.7902699999999996,67.471000000000004,-5.2539899999999999,-13.2011,0.23852499999999999
2778.0,76.709999999999994,56.790500000000002,-9.7117400000000007,68.162700000000001,-4.7608899999999998,-12.9931,-0.77670499999999998
2779.0,77.839100000000002,57.095700000000001,-8.5219500000000004,71.876599999999996,-4.47661,-12.868399999999999,-1.6316900000000001
2780.0,78.768600000000006,54.3842,-9.6612799999999996,73.050600000000003,-4.4185800000000004,-12.7288,-2.16777
2781.0,79.278199999999998,55.214300000000001,-6.2578100000000001,78.352599999999995,-4.5621999999999998,-12.5342,-2.21414
2782.0,79.0548,52.688499999999998,-5.0825500000000003,80.706000000000003,-4.81304,-11.977,-1.7073499999999999
2783.0,62.189,59.401899999999998,-2.9250699999999998,34.686599999999999,-15.2964,8.3756799999999991,-0.031861
2784.0,61.826700000000002,58.433199999999999,-3.58447,35.3384,-15.7349,6.6304499999999997,0.450685
2785.0,62.375500000000002,57.902999999999999,-5.0965499999999997,35.1051,-16.029599999999999,4.5726800000000001,1.2521800000000001
2786.0,63.342199999999998,58.739699999999999,-5.4366000000000003,35.9056,-16.255500000000001,3.3513199999999999,1.93543
2787.0,63.860700000000001,59.542200000000001,-5.5230699999999997,36.589700000000001,-16.2103,1.87652,2.03308
2788.0,64.480999999999995,61.959400000000002,-4.1949300000000003,38.614100000000001,-15.9771,0.010241200000000001,2.2357200000000002
2789.0,65.080799999999996,61.841700000000003,-5.1439000000000004,38.689799999999998,-15.6585,-1.5247299999999999,2.6288200000000002
2790.0,65.451999999999998,62.930199999999999,-4.4044400000000001,40.8917,-15.215,-3.0532900000000001,2.9332600000000002
2791.0,65.819699999999997,62.07,-5.5492499999999998,41.354100000000003,-14.632,-4.4428799999999997,3.16215
2792.0,66.153800000000004,62.957900000000002,-4.7428999999999997,43.934100000000001,-14.012,-5.6923700000000004,3.30314
2793.0,66.467500000000001,61.8735,-5.7928100000000002,44.674100000000003,-13.3264,-6.8482599999999998,3.3525399999999999
2794.0,66.762799999999999,62.758899999999997,-4.7317299999999998,47.571599999999997,-12.6228,-7.8685200000000002,3.3112900000000001
2795.0,67.054599999999994,61.415300000000002,-5.7948000000000004,48.374600000000001,-11.882,-8.7876399999999997,3.17909
2796.0,67.366399999999999,61.479799999999997,-5.3704499999999999,50.734299999999998,-11.1326,-9.5613899999999994,2.94834
2797.0,67.724100000000007,60.940899999999999,-5.5041000000000002,52.616999999999997,-10.376300000000001,-10.1988,2.6053500000000001
2798.0,68.126300000000001,61.4758,-4.5351400000000002,55.671399999999998,-9.6227099999999997,-10.668799999999999,2.1565400000000001
2799.0,68.595399999999998,59.929499999999997,-5.6598600000000001,56.6905,-8.8728499999999997,-10.9781,1.59032
2800.0,69.164299999999997,60.454700000000003,-4.7723899999999997,59.793799999999997,-8.1434599999999993,-11.112399999999999,0.89359699999999997
2801.0,69.870199999999997,58.767699999999998,-6.1971400000000001,60.6233,-7.4513100000000003,-11.1183,0.064956899999999998
2802.0,70.751900000000006,59.398499999999999,-5.4055200000000001,63.7194,-6.8291700000000004,-11.0359,-0.87451199999999996
2803.0,71.822400000000002,57.769500000000001,-6.8947399999999996,64.540899999999993,-6.3266900000000001,-10.9975,-1.85755
2804.0,73.028899999999993,58.740299999999998,-5.5947100000000001,68.1755,-5.9922399999999998,-11.0672,-2.7696999999999998
2805.0,74.236000000000004,57.2485,-6.2000000000000002,69.866299999999995,-5.8725500000000004,-11.3597,-3.41059
2806.0,75.181700000000006,58.504100000000001,-3.0891500000000001,75.145399999999995,-5.9624600000000001,-11.710800000000001,-3.5845699999999998
2807.0,75.596999999999994,56.055100000000003,-2.2878099999999999,77.735200000000006,-6.20322,-12.0036,-3.0769199999999999
2808.0,75.139700000000005,57.020499999999998,3.34192,84.329899999999995,-6.4686300000000001,-11.7812,-1.9090100000000001
2809.0,59.144300000000001,56.049100000000003,-3.4290600000000002,34.281399999999998,-14.4057,7.2179200000000003,-0.89329599999999998
2810.0,58.677399999999999,55.244399999999999,-3.8488899999999999,35.740600000000001,-14.510899999999999,5.4742899999999999,-0.72162199999999999
2811.0,58.956299999999999,54.261000000000003,-5.3722799999999999,35.1785,-14.835699999999999,3.32273,-0.20027900000000001
2812.0,59.673400000000001,50.526899999999998,-9.9713799999999999,31.3019,-15.015599999999999,2.4457599999999999,-0.0087672700000000006
2813.0,60.302399999999999,55.851399999999998,-5.34755,37.231999999999999,-15.026,1.4538199999999999,0.25049300000000002
2814.0,61.079599999999999,57.373399999999997,-4.8334299999999999,38.578200000000002,-15.0023,-0.38361200000000001,0.66123699999999996
2815.0,61.578699999999998,58.444600000000001,-4.4403600000000001,39.719799999999999,-14.7765,-1.51014,0.89993000000000001
2816.0,61.845100000000002,57.981299999999997,-5.0661500000000004,40.466099999999997,-14.375,-2.80362,1.1310899999999999
2817.0,62.246000000000002,59.026499999999999,-4.3023100000000003,42.626800000000003,-13.944699999999999,-3.8912300000000002,1.2727599999999999
2818.0,62.513199999999998,58.042400000000001,-5.2811399999999997,43.184199999999997,-13.4343,-4.87479,1.3421700000000001
2819.0,62.830599999999997,59.218499999999999,-4.1032500000000001,45.8583,-12.9092,-5.7787600000000001,1.34277
2820.0,63.080399999999997,58.012099999999997,-5.1466799999999999,46.348100000000002,-12.3405,-6.5601200000000004,1.2613399999999999
2821.0,63.366599999999998,59.3917,-3.5816300000000001,49.455500000000001,-11.7546,-7.2696399999999999,1.09897
2822.0,63.657200000000003,58.816400000000002,-3.9079100000000002,50.735700000000001,-11.1426,-7.8495299999999997,0.84466300000000005
2823.0,64.012100000000004,59.018500000000003,-3.4646300000000001,52.843200000000003,-10.5219,-8.3310099999999991,0.510791
2824.0,64.430700000000002,57.588200000000001,-4.6638700000000002,53.401899999999998,-9.9022600000000001,-8.6583699999999997,0.066094899999999998
2825.0,64.948899999999995,58.631100000000004,-3.44983,56.439700000000002,-9.2972199999999994,-8.8602900000000009,-0.492672
2826.0,65.559399999999997,56.969799999999999,-5.0121099999999998,56.7515,-8.7013200000000008,-8.9142499999999991,-1.1872199999999999
2827.0,66.334299999999999,57.988599999999998,-4.0241499999999997,59.648000000000003,-8.1426499999999997,-8.9069599999999998,-2.0078999999999998
2828.0,67.270300000000006,56.196599999999997,-5.9200600000000003,59.676000000000002,-7.65198,-8.8893000000000004,-2.9361799999999998
2829.0,68.391000000000005,57.185699999999997,-4.9821799999999996,62.548200000000001,-7.2849500000000003,-9.0617099999999997,-3.8642699999999999
2830.0,69.555700000000002,55.2425,-6.5724799999999997,62.8872,-7.0918200000000002,-9.4921399999999991,-4.6447599999999998
2831.0,70.665199999999999,56.064900000000002,-4.5378100000000003,66.905699999999996,-7.1042800000000002,-10.32,-5.0153499999999998
2832.0,71.398099999999999,53.899999999999999,-4.1131000000000002,69.229699999999994,-7.3207399999999998,-11.252700000000001,-4.7324599999999997
2833.0,71.657399999999996,55.2087,1.46926,76.523399999999995,-7.6258299999999997,-12.027200000000001,-3.59084
2834.0,71.016499999999994,53.439599999999999,5.3904699999999997,81.260800000000003,-7.8889899999999997,-11.956,-1.6616899999999999
2835.0,55.892600000000002,54.805100000000003,-1.6692,36.186199999999999,-13.154299999999999,5.9432799999999997,-2.19015
2836.0,55.796900000000001,53.511699999999998,-2.79236,36.904499999999999,-13.3786,4.2797499999999999,-1.86972
2837.0,56.265799999999999,52.190600000000003,-4.4208400000000001,36.804099999999998,-13.7424,2.4671500000000002,-1.86863
2838.0,57.135899999999999,52.982700000000001,-4.4824700000000002,37.898299999999999,-13.9373,1.48244,-2.01851
2839.0,57.518500000000003,53.167999999999999,-4.6665099999999997,38.447400000000002,-14.0215,0.64533700000000005,-1.5438099999999999
2840.0,57.936199999999999,55.459299999999999,-2.8759199999999998,40.637300000000003,-14.0739,-0.61547399999999997,-1.0322199999999999
2841.0,58.387700000000002,54.944099999999999,-3.8502100000000001,40.467599999999997,-13.950200000000001,-1.6013500000000001,-0.89450300000000005
2842.0,58.680399999999999,56.303800000000003,-2.6795399999999998,42.810899999999997,-13.6173,-2.5951,-0.74347700000000005
2843.0,58.996400000000001,55.297899999999998,-3.7823600000000002,42.904899999999998,-13.317299999999999,-3.4300799999999998,-0.66902600000000001
2844.0,59.286200000000001,56.570999999999998,-2.5328900000000001,45.444499999999998,-12.9329,-4.1764700000000001,-0.65723600000000004
2845.0,59.552,55.502800000000001,-3.5383599999999999,45.669800000000002,-12.553900000000001,-4.8374499999999996,-0.69360900000000003
2846.0,59.783900000000003,56.861800000000002,-2.0539399999999999,48.381,-12.1235,-5.4132699999999998,-0.80031799999999997
2847.0,60.005000000000003,55.562399999999997,-3.1853199999999999,48.462800000000001,-11.665100000000001,-5.91404,-0.971414
2848.0,60.275700000000001,56.061700000000002,-2.54196,50.384700000000002,-11.1736,-6.3275199999999998,-1.2335100000000001
2849.0,60.6492,55.933399999999999,-2.5844499999999999,51.723399999999998,-10.685499999999999,-6.6461199999999998,-1.5884
2850.0,61.108899999999998,57.093400000000003,-1.38853,54.369,-10.2088,-6.8546300000000002,-2.0376500000000002
2851.0,61.6524,55.7378,-2.7686099999999998,54.490299999999998,-9.7362800000000007,-6.9478099999999996,-2.5977600000000001
2852.0,62.3123,56.9084,-1.72831,57.062199999999997,-9.2807399999999998,-6.94414,-3.2888899999999999
2853.0,63.128700000000002,55.484400000000001,-3.4171200000000002,56.922899999999998,-8.8465000000000007,-6.9139299999999997,-4.1173299999999999
2854.0,64.131600000000006,56.8782,-2.3669500000000001,59.528300000000002,-8.4918200000000006,-6.9996700000000001,-5.0175200000000002
2855.0,65.275599999999997,55.733600000000003,-3.7244199999999998,59.745100000000001,-8.2477099999999997,-7.3766800000000003,-5.8799799999999998
2856.0,66.444900000000004,57.698599999999999,-1.4174100000000001,63.703800000000001,-8.1833100000000005,-8.2324199999999994,-6.4532499999999997
2857.0,67.462100000000007,56.979799999999997,-0.67310899999999996,66.255300000000005,-8.2848299999999995,-9.5709499999999998,-6.4745600000000003
2858.0,68.159000000000006,59.245399999999997,4.7780500000000004,73.682199999999995,-8.5489700000000006,-11.1326,-5.5719700000000003
2859.0,68.350999999999999,57.505800000000001,8.0722000000000005,78.789199999999994,-8.8204899999999995,-12.236599999999999,-3.6730399999999999
2860.0,67.768699999999995,59.204500000000003,16.281600000000001,87.9893,-8.9430499999999995,-12.167199999999999,-0.83107299999999995
2861.0,53.453299999999999,52.424500000000002,-1.5857300000000001,37.0535,-12.129099999999999,4.6348000000000003,-3.0706699999999998
2862.0,53.479300000000002,49.401600000000002,-4.3094200000000003,35.884999999999998,-12.3919,3.1192199999999999,-3.08717
2863.0,53.967100000000002,50.392200000000003,-3.4402699999999999,38.406799999999997,-12.652900000000001,1.8041199999999999,-2.9447000000000001
2864.0,54.669699999999999,49.435600000000001,-4.7934900000000003,38.110900000000001,-13.0146,0.89023600000000003,-2.7892800000000002
2865.0,55.109400000000001,51.275799999999997,-3.2542200000000001,40.197899999999997,-13.1919,-0.0040667400000000001,-2.7568600000000001
2866.0,55.459899999999998,50.659799999999997,-4.1929499999999997,39.691600000000001,-13.2263,-0.83957999999999999,-2.6702300000000001
2867.0,55.807499999999997,52.445700000000002,-2.60737,42.086399999999998,-13.1577,-1.65649,-2.5185900000000001
2868.0,56.1629,51.434800000000003,-3.80396,41.879399999999997,-12.9696,-2.3574600000000001,-2.4614400000000001
2869.0,56.438000000000002,52.911999999999999,-2.3332899999999999,44.3992,-12.739000000000001,-2.9525000000000001,-2.45106
2870.0,56.731200000000001,51.853099999999998,-3.4032,44.351700000000001,-12.5009,-3.46794,-2.4831099999999999
2871.0,56.9679,53.383800000000001,-1.79061,46.958399999999997,-12.235099999999999,-3.9007999999999998,-2.55708
2872.0,57.173200000000001,52.338000000000001,-2.7222400000000002,46.968000000000004,-11.941800000000001,-4.2698,-2.6748099999999999
2873.0,57.371400000000001,54.154000000000003,-0.80231699999999995,49.857799999999997,-11.581099999999999,-4.5486199999999997,-2.8570199999999999
2874.0,57.644799999999996,54.061100000000003,-0.89111700000000005,50.753799999999998,-11.1997,-4.7721,-3.1284800000000001
2875.0,57.994100000000003,54.435299999999998,-0.56014799999999998,52.105800000000002,-10.8188,-4.9419399999999998,-3.51627
2876.0,58.492899999999999,53.373199999999997,-1.7736400000000001,52.030000000000001,-10.460599999999999,-5.0513199999999996,-3.98752
2877.0,59.088700000000003,54.850299999999997,-0.52825,54.4649,-10.123900000000001,-5.0397100000000004,-4.55403
2878.0,59.786299999999997,53.554499999999997,-2.165,54.000300000000003,-9.7888800000000007,-4.97865,-5.2557
2879.0,60.622700000000002,55.1023,-1.0845499999999999,56.218899999999998,-9.4789399999999997,-4.9495199999999997,-6.0861700000000001
2880.0,61.588299999999997,53.726900000000001,-2.9369299999999998,55.445399999999999,-9.2354900000000004,-5.1836200000000003,-6.9642900000000001
2881.0,62.567900000000002,55.433999999999997,-1.3834200000000001,58.043799999999997,-9.1094200000000001,-5.8803799999999997,-7.7190399999999997
2882.0,63.4071,53.825800000000001,-2.2454700000000001,58.318399999999997,-9.1246700000000001,-7.3007499999999999,-8.0559799999999999
2883.0,63.983699999999999,55.577800000000003,1.8123400000000001,63.785299999999999,-9.2803000000000004,-9.3309899999999999,-7.6368499999999999
2884.0,64.429500000000004,53.4664,4.1121600000000003,68.022999999999996,-9.5023599999999995,-11.5924,-6.0817199999999998
2885.0,64.691400000000002,56.447800000000001,13.192399999999999,79.181600000000003,-9.6941500000000005,-12.882300000000001,-3.3647200000000002
2886.0,64.702399999999997,54.470100000000002,17.6142,85.390100000000004,-9.72973,-12.225099999999999,0.13656299999999999
2887.0,3824.3299999999999,3376.1999999999998,370.93400000000003,3397.1199999999999,-402.39499999999998,-337.24200000000002,-1252.1500000000001
2888.0,3840.0999999999999,3349.0799999999999,410.54199999999997,3428.4299999999998,-458.78300000000002,-334.584,-1278.6199999999999
2889.0,3858.0799999999999,3317.9200000000001,442.738,3452.3800000000001,-517.33000000000004,-328.57900000000001,-1302.1300000000001
2890.0,3877.4699999999998,3296.2399999999998,481.99900000000002,3481.9499999999998,-579.01300000000003,-318.42500000000001,-1322.5899999999999
2891.0,3898.02,3272.9899999999998,515.77700000000004,3503.8200000000002,-643.33199999999999,-305.31299999999999,-1339.3199999999999
2892.0,3919.4000000000001,3259.0799999999999,554.93200000000002,3528.3000000000002,-710.04300000000001,-289.71800000000002,-1352.0899999999999
2893.0,3941.4099999999999,3244.2800000000002,588.68399999999997,3544.3899999999999,-778.75999999999999,-272.714,-1360.51
2894.0,3963.8800000000001,3238.0700000000002,626.39099999999996,3561.5,-849.10199999999998,-255.00800000000001,-1364.3299999999999
2895.0,3986.6500000000001,3231.5700000000002,659.12199999999996,3571.0700000000002,-920.62900000000002,-237.53100000000001,-1363.24
2896.0,4009.6500000000001,3232.5500000000002,694.726,3581.5100000000002,-992.88099999999997,-220.96700000000001,-1357.1300000000001
2897.0,4032.77,3233.02,725.55999999999995,3585.9499999999998,-1065.3499999999999,-205.988,-1345.8800000000001
2898.0,4056.1199999999999,3239.4899999999998,758.21400000000006,3592.04,-1137.5699999999999,-192.999,-1329.46
2899.0,4079.6599999999999,3246.0100000000002,787.12800000000004,3595.4200000000001,-1208.8900000000001,-182.256,-1307.98
2900.0,4103.8000000000002,3257.0300000000002,817.65499999999997,3602.02,-1279.25,-173.97900000000001,-1281.8900000000001
2901.0,4128.3000000000002,3264.7199999999998,842.601,3605.1300000000001,-1348.1600000000001,-168.13,-1251.45
2902.0,4152.5200000000004,3275.5100000000002,869.13199999999995,3612.79,-1414.9200000000001,-164.23400000000001,-1216.6199999999999
2903.0,4176.7600000000002,3283.3699999999999,891.351,3619.9699999999998,-1479.3099999999999,-161.76300000000001,-1177.78
2904.0,4201.1300000000001,3293.5700000000002,914.72299999999996,3632.4099999999999,-1541.1800000000001,-160.09100000000001,-1135.3499999999999
2905.0,4225.6800000000003,3301.04,934.26300000000003,3645.3899999999999,-1600.3800000000001,-158.56899999999999,-1089.6700000000001
2906.0,4250.4300000000003,3310.6500000000001,954.68200000000002,3663.4299999999998,-1656.8,-156.52600000000001,-1041.0699999999999
2907.0,4275.5200000000004,3318.3499999999999,971.71699999999998,3682.1100000000001,-1710.46,-153.35300000000001,-989.92700000000002
2908.0,4301.0200000000004,3328.8200000000002,989.42499999999995,3704.8600000000001,-1761.4200000000001,-148.58699999999999,-936.46000000000004
2909.0,4327.1899999999996,3339.0900000000001,1004.34,3727.9400000000001,-1809.73,-141.78,-881.04899999999998
2910.0,4354.0799999999999,3353.9299999999998,1020.0,3754.0100000000002,-1855.51,-132.881,-823.65800000000002
2911.0,4382.3699999999999,3371.8400000000001,1034.03,3781.1900000000001,-1898.71,-121.572,-765.00300000000004
2912.0,4412.1599999999999,3397.6100000000001,1049.25,3809.6700000000001,-1940.2,-108.03700000000001,-703.97000000000003
2913.0,2730.1500000000001,2530.4400000000001,206.43000000000001,1881.53,-339.65499999999997,-30.076499999999999,-964.51800000000003
2914.0,2751.1300000000001,2539.25,233.90299999999999,1894.4100000000001,-386.81400000000002,-70.249600000000001,-976.58500000000004
2915.0,2775.5999999999999,2553.3800000000001,265.93599999999998,1916.77,-434.37400000000002,-109.06399999999999,-986.69899999999996
2916.0,2799.3800000000001,2555.3000000000002,291.37599999999998,1934.71,-483.25,-147.38,-994.18899999999996
2917.0,2824.0500000000002,2561.9899999999998,323.97000000000003,1963.26,-532.84000000000003,-184.148,-999.09100000000001
2918.0,2848.0999999999999,2555.6700000000001,347.476,1984.8800000000001,-583.10400000000004,-219.47,-1000.9400000000001
2919.0,2871.9499999999998,2554.9099999999999,379.185,2017.1400000000001,-633.81500000000005,-253.17099999999999,-999.62
2920.0,2894.98,2541.5300000000002,401.221,2041.6900000000001,-684.64499999999998,-285.303,-994.91200000000003
2921.0,2917.1900000000001,2533.5100000000002,431.05500000000001,2076.1999999999998,-735.30700000000002,-315.86799999999999,-986.68700000000001
2922.0,2938.2800000000002,2513.0900000000001,450.99700000000001,2102.8699999999999,-785.42100000000005,-344.91699999999997,-974.90700000000004
2923.0,2958.1500000000001,2497.6599999999999,478.22899999999998,2139.1900000000001,-834.63699999999994,-372.41300000000001,-959.52300000000002
2924.0,2976.73,2470.0500000000002,495.637,2168.1399999999999,-882.58299999999997,-398.339,-940.68799999999999
2925.0,2993.9400000000001,2446.1100000000001,519.02499999999998,2205.9000000000001,-928.93200000000002,-422.50799999999998,-918.49699999999996
2926.0,3009.73,2410.1599999999999,532.64800000000002,2237.0500000000002,-973.30700000000002,-444.70499999999998,-893.15899999999999
2927.0,3024.0,2379.6399999999999,553.93600000000004,2279.52,-1015.4,-464.428,-864.86699999999996
2928.0,3037.0599999999999,2337.02,565.21500000000003,2315.6999999999998,-1055.1099999999999,-481.24200000000002,-834.10900000000004
2929.0,3048.79,2299.0500000000002,583.05799999999999,2362.1300000000001,-1092.26,-494.47899999999998,-801.17700000000002
2930.0,3059.48,2250.02,591.41399999999999,2402.5799999999999,-1126.8699999999999,-503.64600000000002,-766.50699999999995
2931.0,3069.04,2206.4699999999998,606.33100000000002,2452.73,-1158.9000000000001,-508.017,-730.41399999999999
2932.0,3077.98,2153.5,612.245,2496.6300000000001,-1188.5799999999999,-507.20100000000002,-693.29600000000005
2933.0,3086.1199999999999,2107.8499999999999,625.173,2549.4099999999999,-1215.96,-500.56700000000001,-655.41999999999996
2934.0,3094.29,2054.8200000000002,629.38300000000004,2594.9899999999998,-1241.54,-488.03300000000002,-617.03300000000002
2935.0,3101.8800000000001,2011.8599999999999,641.53099999999995,2648.3000000000002,-1265.25,-469.16800000000001,-578.41499999999996
2936.0,3110.6399999999999,1962.79,644.14599999999996,2692.3499999999999,-1288.1300000000001,-444.36500000000001,-539.35299999999995
2937.0,3118.8699999999999,1927.9300000000001,656.67499999999995,2742.9400000000001,-1309.6600000000001,-413.67500000000001,-500.64299999999997
2938.0,3131.2399999999998,1886.4000000000001,656.64800000000002,2781.6399999999999,-1332.05,-379.089,-460.363
2939.0,1855.8199999999999,1709.0699999999999,21.504799999999999,779.80399999999997,-314.52600000000001,181.15000000000001,-549.43200000000002
2940.0,1875.98,1749.47,40.814399999999999,782.27300000000002,-342.63999999999999,121.315,-553.95600000000002
2941.0,1899.22,1784.1300000000001,57.498600000000003,789.84900000000005,-370.42500000000001,61.1798,-557.09400000000005
2942.0,1921.45,1809.9400000000001,74.092299999999994,801.61099999999999,-398.92099999999999,-0.32702100000000001,-558.26800000000003
2943.0,1944.1199999999999,1831.72,92.846100000000007,821.52999999999997,-427.29199999999997,-62.0291,-557.60400000000004
2944.0,1965.9000000000001,1842.4300000000001,108.304,843.20699999999999,-455.49299999999999,-123.562,-554.88099999999997
2945.0,1987.05,1849.5,127.039,873.64999999999998,-483.29500000000002,-184.22300000000001,-550.00900000000001
2946.0,2007.04,1844.1300000000001,140.61500000000001,903.88400000000001,-510.42599999999999,-243.50299999999999,-542.96500000000003
2947.0,2025.6400000000001,1835.8199999999999,158.17699999999999,943.22799999999995,-536.61099999999999,-300.80500000000001,-533.59400000000005
2948.0,2042.7,1814.3499999999999,169.41,980.98099999999999,-561.57100000000003,-355.66199999999998,-522.03099999999995
2949.0,2057.8800000000001,1790.6600000000001,184.94499999999999,1027.9200000000001,-584.99000000000001,-407.45800000000003,-508.20800000000003
2950.0,2071.23,1753.5799999999999,193.328,1072.28,-606.625,-455.74099999999999,-492.38999999999999
2951.0,2082.3800000000001,1715.8399999999999,206.93700000000001,1126.52,-626.15499999999997,-499.822,-474.613
2952.0,2091.5799999999999,1664.8199999999999,212.75700000000001,1177.26,-643.46699999999998,-539.25300000000004,-455.30900000000003
2953.0,2098.5700000000002,1612.5799999999999,222.33799999999999,1235.9400000000001,-658.33500000000004,-573.27700000000004,-434.68099999999998
2954.0,2103.6399999999999,1548.22,224.27699999999999,1290.6400000000001,-670.76900000000001,-601.44799999999998,-413.18400000000003
2955.0,2106.6100000000001,1485.1099999999999,231.19200000000001,1353.6700000000001,-680.66800000000001,-622.97500000000002,-391.065
2956.0,2107.9400000000001,1411.1400000000001,230.19800000000001,1411.47,-688.24900000000002,-637.5,-368.82499999999999
2957.0,2107.4400000000001,1340.75,234.774,1476.8399999999999,-693.53499999999997,-644.32600000000002,-346.714
2958.0,2105.77,1261.3,231.315,1535.3599999999999,-696.94799999999998,-643.33600000000001,-325.15199999999999
2959.0,2102.6500000000001,1188.1900000000001,234.09700000000001,1600.24,-698.57399999999996,-634.04600000000005,-304.334
2960.0,2099.0700000000002,1108.04,228.601,1656.3,-699.06399999999996,-616.71900000000005,-284.512
2961.0,2094.2199999999998,1037.6400000000001,230.523,1717.52,-698.34299999999996,-591.12,-265.85399999999998
2962.0,2089.9499999999998,961.81799999999998,223.49700000000001,1767.79,-697.476,-557.97699999999998,-248.11500000000001
2963.0,2084.1799999999998,900.78499999999997,226.71000000000001,1823.2,-695.53099999999995,-517.63999999999999,-232.126
2964.0,2081.8800000000001,833.43399999999997,217.809,1866.0899999999999,-694.76199999999994,-470.77600000000001,-216.14099999999999
2965.0,1367.3,1122.78,-58.197400000000002,129.44999999999999,-281.68799999999999,288.77100000000002,-240.131
2966.0,1379.6800000000001,1166.2,-57.030700000000003,110.747,-295.47199999999998,225.74600000000001,-237.709
2967.0,1394.6800000000001,1219.8699999999999,-40.877099999999999,115.057,-308.53199999999998,160.239,-234.749
2968.0,1409.3099999999999,1248.6099999999999,-40.659300000000002,109.477,-321.49099999999999,91.754099999999994,-230.685
2969.0,1424.47,1286.03,-24.155899999999999,127.495,-333.73399999999998,21.630299999999998,-225.60300000000001
2970.0,1439.23,1296.9200000000001,-25.2072,134.71899999999999,-345.20999999999998,-49.555599999999998,-219.364
2971.0,1453.6500000000001,1316.05,-9.35107,166.02799999999999,-355.69600000000003,-120.801,-211.953
2972.0,1467.3199999999999,1308.1500000000001,-11.430099999999999,186.249,-364.98200000000003,-191.28200000000001,-203.38900000000001
2973.0,1479.97,1307.79,2.9821599999999999,229.893,-372.851,-260.02199999999999,-193.63300000000001
2974.0,1491.4400000000001,1280.4400000000001,-0.69483899999999998,261.98500000000001,-379.10300000000001,-326.173,-182.83600000000001
2975.0,1501.4200000000001,1260.55,11.6861,316.56799999999998,-383.50900000000001,-388.75799999999998,-171.02699999999999
2976.0,1509.8800000000001,1214.28,5.9196099999999996,358.92399999999998,-385.93099999999998,-446.98500000000001,-158.477
2977.0,1516.5699999999999,1175.3800000000001,15.240600000000001,422.00900000000001,-386.19999999999999,-499.90100000000001,-145.333
2978.0,1521.5999999999999,1111.52,6.6956699999999998,472.20400000000001,-384.286,-546.79999999999995,-131.94
2979.0,1524.73,1057.6900000000001,14.472899999999999,543.23599999999999,-380.09699999999998,-586.79600000000005,-118.499
2980.0,1526.24,980.40099999999995,4.2327300000000001,599.94000000000005,-373.76499999999999,-619.322,-105.44
2981.0,1525.95,914.245,9.5537500000000009,675.13099999999997,-365.34199999999998,-643.64499999999998,-93.011899999999997
2982.0,1524.27,827.22000000000003,-2.6035400000000002,734.779,-355.11799999999999,-659.45399999999995,-81.612899999999996
2983.0,1521.04,753.64599999999996,0.89022800000000002,811.01800000000003,-343.25400000000002,-666.24900000000002,-71.461100000000002
2984.0,1516.8099999999999,662.03300000000002,-12.6313,870.16099999999994,-330.19400000000002,-664.04499999999996,-62.871099999999998
2985.0,1511.3399999999999,586.76900000000001,-10.0235,944.11000000000001,-316.14499999999998,-652.63099999999997,-55.974299999999999
2986.0,1505.46,496.18599999999998,-24.154199999999999,999.23199999999997,-301.71899999999999,-632.44200000000001,-50.9253
2987.0,1498.5,425.10700000000003,-21.345199999999998,1067.54,-286.964,-603.529,-47.813099999999999
2988.0,1491.97,340.22199999999998,-35.981099999999998,1114.8,-272.77800000000002,-566.68200000000002,-46.430500000000002
2989.0,1484.1600000000001,278.63200000000001,-32.102400000000003,1174.1900000000001,-258.66500000000002,-522.30499999999995,-47.377099999999999
2990.0,1479.1700000000001,202.75299999999999,-48.044699999999999,1210.74,-246.58799999999999,-471.33699999999999,-49.339300000000001
2991.0,1134.8900000000001,695.54600000000005,-124.108,-233.97300000000001,-253.268,326.61000000000001,-22.913
2992.0,1141.8299999999999,752.11099999999999,-117.849,-249.523,-256.51100000000002,268.92000000000002,-15.385300000000001
2993.0,1150.22,793.10599999999999,-122.087,-268.25999999999999,-258.90199999999999,207.381,-7.8495799999999996
2994.0,1158.72,836.00599999999997,-116.78400000000001,-270.97800000000001,-260.54700000000003,141.982,0.14266899999999999
2995.0,1167.5,862.52200000000005,-120.316,-275.06900000000002,-261.07100000000003,73.819699999999997,8.5195399999999992
2996.0,1176.21,888.90899999999999,-115.447,-263.31299999999999,-260.40300000000002,3.66499,17.296299999999999
2997.0,1184.77,897.87599999999998,-119.229,-252.38900000000001,-258.375,-67.4298,26.4406
2998.0,1192.98,905.13999999999999,-115.509,-226.24000000000001,-254.84100000000001,-138.44999999999999,35.872799999999998
2999.0,1200.6300000000001,894.76599999999996,-120.11,-200.63900000000001,-249.649,-208.26900000000001,45.549500000000002
3000.0,1207.6199999999999,881.96400000000006,-117.831,-160.69399999999999,-242.684,-275.80500000000001,55.295299999999997
3001.0,1213.73,851.91999999999996,-123.694,-121.649,-233.82499999999999,-339.90600000000001,65.003500000000003
3002.0,1218.9200000000001,819.63999999999999,-123.077,-69.451899999999995,-223.03399999999999,-399.53899999999999,74.419700000000006
3003.0,1223.03,771.79100000000005,-129.876,-18.5046,-210.25899999999999,-453.62400000000002,83.381699999999995
3004.0,1226.0799999999999,722.50999999999999,-130.68199999999999,43.788699999999999,-195.57300000000001,-501.286,91.562799999999996
3005.0,1227.97,658.322,-139.84100000000001,102.28700000000001,-179.04599999999999,-541.61699999999996,98.734800000000007
3006.0,1228.8099999999999,594.82600000000002,-142.751,170.547,-160.874,-573.99699999999996,104.58199999999999
3007.0,1228.52,519.55999999999995,-153.001,233.98599999999999,-141.232,-597.77800000000002,108.898
3008.0,1227.3099999999999,447.13299999999998,-157.16900000000001,304.851,-120.45399999999999,-612.67100000000005,111.401
3009.0,1225.1400000000001,365.94600000000003,-168.114,369.13,-98.809299999999993,-618.37,111.943
3010.0,1222.28,290.09899999999999,-172.97,438.51600000000002,-76.733099999999993,-614.97900000000004,110.33199999999999
3011.0,1218.6500000000001,208.483,-184.09200000000001,499.428,-54.519100000000002,-602.54200000000003,106.523
3012.0,1214.6800000000001,134.53999999999999,-189.19200000000001,563.22199999999998,-32.685400000000001,-581.55399999999997,100.45699999999999
3013.0,1210.0799999999999,57.848999999999997,-199.80000000000001,617.02700000000004,-11.4217,-552.35500000000002,92.171800000000005
3014.0,1205.55,-9.3237799999999993,-204.55600000000001,671.86800000000005,8.63218,-515.72199999999998,81.845699999999994
3015.0,1200.4000000000001,-75.964299999999994,-213.41200000000001,715.92600000000004,27.659700000000001,-472.37900000000002,69.314599999999999
3016.0,1196.71,-132.73099999999999,-217.583,760.024,44.447899999999997,-423.12,55.180900000000001
3017.0,1009.41,451.714,-131.06899999999999,-354.88999999999999,-227.80000000000001,320.37400000000002,108.218
3018.0,1016.02,485.86900000000003,-146.751,-393.13200000000001,-224.45699999999999,271.74099999999999,119.515
3019.0,1023.0,538.52099999999996,-139.21000000000001,-402.09199999999998,-220.21600000000001,218.542,130.61799999999999
3020.0,1029.98,562.73199999999997,-154.40100000000001,-427.31799999999998,-214.69499999999999,161.173,141.61199999999999
3021.0,1036.8299999999999,602.53300000000002,-147.40100000000001,-423.31299999999999,-207.79499999999999,100.43899999999999,152.505
3022.0,1043.55,612.31700000000001,-163.161,-434.71300000000002,-199.41300000000001,37.138199999999998,163.178
3023.0,1050.0,636.32799999999997,-156.78200000000001,-416.22899999999998,-189.447,-27.713100000000001,173.59800000000001
3024.0,1056.1400000000001,629.41399999999999,-172.999,-412.53500000000003,-177.81800000000001,-93.091399999999993,183.59700000000001
3025.0,1061.8199999999999,635.55700000000002,-167.50800000000001,-379.226,-164.44499999999999,-157.81299999999999,193.102
3026.0,1067.05,610.51900000000001,-184.49600000000001,-360.74799999999999,-149.30500000000001,-220.75200000000001,201.88999999999999
3027.0,1071.6500000000001,598.29499999999996,-180.054,-313.43700000000001,-132.37299999999999,-280.67399999999998,209.83500000000001
3028.0,1075.6500000000001,555.41300000000001,-198.001,-281.71100000000001,-113.708,-336.49299999999999,216.67400000000001
3029.0,1078.9000000000001,525.57399999999996,-195.143,-222.964,-93.374099999999999,-387.06299999999999,222.232
3030.0,1081.46,466.76799999999997,-214.214,-180.852,-71.539199999999994,-431.48000000000002,226.238
3031.0,1083.22,423.59300000000002,-211.5,-112.538,-48.355800000000002,-468.822,228.536
3032.0,1084.27,353.286,-230.773,-62.954099999999997,-24.105899999999998,-498.49200000000002,228.86199999999999
3033.0,1084.51,300.28500000000003,-228.726,10.097099999999999,0.95205200000000001,-519.90300000000002,227.09100000000001
3034.0,1084.0799999999999,222.96899999999999,-248.14099999999999,62.562199999999997,26.4497,-532.85299999999995,223.036
3035.0,1082.9200000000001,165.49100000000001,-246.101,136.16200000000001,52.067100000000003,-537.14499999999998,216.654
3036.0,1081.1900000000001,86.494,-265.12400000000002,187.16,77.388999999999996,-532.98199999999997,207.86699999999999
3037.0,1078.8199999999999,30.0213,-262.35599999999999,257.267,102.08799999999999,-520.54600000000005,196.733
3038.0,1076.02,-45.420999999999999,-280.298,302.97899999999998,125.746,-500.40300000000002,183.286
3039.0,1072.6900000000001,-96.003100000000003,-276.14100000000002,366.089,148.09100000000001,-473.03800000000001,167.68600000000001
3040.0,1069.0999999999999,-163.85300000000001,-292.74000000000001,403.12700000000001,168.73599999999999,-439.25299999999999,150.08000000000001
3041.0,1065.0599999999999,-204.952,-286.923,456.33300000000003,187.52000000000001,-399.76600000000002,130.62899999999999
3042.0,1061.23,-262.13799999999998,-301.93599999999998,482.94400000000002,203.941,-355.48000000000002,109.476
3043.0,900.89499999999998,291.048,-146.37700000000001,-380.137,-203.607,290.15800000000002,169.738
3044.0,909.62800000000004,338.26400000000001,-144.08600000000001,-399.41699999999997,-197.12100000000001,250.98400000000001,183.357
3045.0,917.97900000000004,362.77800000000002,-160.364,-432.54199999999997,-189.636,207.10400000000001,196.61799999999999
3046.0,926.23400000000004,401.83300000000003,-158.18600000000001,-441.31599999999997,-180.53800000000001,159.249,209.52699999999999
3047.0,934.04200000000003,416.63499999999999,-174.83099999999999,-462.74799999999999,-169.90100000000001,107.867,222.04300000000001
3048.0,941.49900000000002,444.44999999999999,-172.69300000000001,-458.55700000000002,-157.60599999999999,53.746600000000001,233.97399999999999
3049.0,948.46600000000001,446.38799999999998,-189.78,-466.49099999999999,-143.619,-2.2641,245.20699999999999
3050.0,954.93700000000001,459.88499999999999,-188.25399999999999,-448.39800000000002,-127.905,-59.164299999999997,255.57499999999999
3051.0,960.84900000000005,446.85700000000003,-205.773,-441.928,-110.468,-115.88800000000001,264.899
3052.0,966.15499999999997,444.65499999999997,-204.84999999999999,-409.654,-91.343599999999995,-171.291,272.99700000000001
3053.0,970.81899999999996,415.99700000000001,-222.78100000000001,-389.22000000000003,-70.613299999999995,-224.24299999999999,279.654
3054.0,974.779,398.37700000000001,-222.32300000000001,-343.83300000000003,-48.393700000000003,-273.60500000000002,284.68400000000003
3055.0,978.029,355.64800000000002,-240.071,-310.80799999999999,-24.858000000000001,-318.35000000000002,287.87799999999999
3056.0,980.50300000000004,324.74099999999999,-239.72999999999999,-254.66,-0.21254400000000001,-357.512,289.05799999999999
3057.0,982.20399999999995,269.60300000000001,-258.14999999999998,-213.27199999999999,25.264500000000002,-390.32499999999999,288.03699999999998
3058.0,983.09699999999998,228.42099999999999,-258.08699999999999,-150.47,51.288600000000002,-416.13499999999999,284.70400000000001
3059.0,983.21199999999999,165.78999999999999,-275.97300000000001,-103.88200000000001,77.515500000000003,-434.54300000000001,278.95699999999999
3060.0,982.52300000000002,119.202,-275.41500000000002,-38.304099999999998,103.61,-445.28199999999998,270.76400000000001
3061.0,981.08900000000006,53.710700000000003,-292.44799999999998,9.0240799999999997,129.19300000000001,-448.37200000000001,260.12599999999998
3062.0,978.88999999999999,6.5940599999999998,-290.87799999999999,73.150300000000001,153.93100000000001,-443.935,247.10900000000001
3063.0,976.01700000000005,-57.178600000000003,-306.72899999999998,117.006,177.45400000000001,-432.37,231.822
3064.0,972.44399999999996,-100.48999999999999,-303.81299999999999,175.80500000000001,199.49100000000001,-414.11799999999999,214.41399999999999
3065.0,968.31899999999996,-158.614,-318.19200000000001,212.767,219.697,-389.86599999999999,195.108
3066.0,963.55799999999999,-194.357,-313.35700000000003,263.59199999999998,237.94499999999999,-360.23899999999998,174.06800000000001
3067.0,958.44799999999998,-243.828,-325.90600000000001,291.45600000000002,253.88499999999999,-326.08999999999997,151.70699999999999
3068.0,952.85900000000004,-269.49900000000002,-318.77499999999998,332.86900000000003,267.60599999999999,-288.17700000000002,127.81
3069.0,786.49099999999999,232.66,-120.42700000000001,-314.05399999999997,-180.68000000000001,250.50200000000001,184.255
3070.0,797.04100000000005,254.45099999999999,-136.999,-350.12099999999998,-173.34200000000001,219.554,198.69499999999999
3071.0,807.09000000000003,289.06400000000002,-137.28299999999999,-366.26499999999999,-164.977,184.226,212.99000000000001
3072.0,816.88599999999997,305.85399999999998,-152.79300000000001,-392.49200000000002,-154.84200000000001,145.38200000000001,226.727
3073.0,826.05700000000002,332.24700000000001,-154.42699999999999,-399.58100000000002,-143.10599999999999,103.184,239.94999999999999
3074.0,834.73099999999999,340.13499999999999,-170.149,-414.76900000000001,-129.655,58.3504,252.37299999999999
3075.0,842.73000000000002,356.02199999999999,-172.49299999999999,-410.29300000000001,-114.492,11.5755,263.887
3076.0,850.07799999999997,352.77199999999999,-188.262,-412.62799999999999,-97.632999999999996,-36.270600000000002,274.25099999999998
3077.0,856.68299999999999,356.19499999999999,-191.14400000000001,-395.38200000000001,-79.130200000000002,-84.226399999999998,283.28899999999999
3078.0,862.53099999999995,340.27199999999999,-207.005,-384.46899999999999,-59.084200000000003,-131.27799999999999,290.779
3079.0,867.55399999999997,330.58199999999999,-210.18700000000001,-354.50599999999997,-37.628900000000002,-176.37100000000001,296.524
3080.0,871.72400000000005,301.96199999999999,-226.03700000000001,-331.28500000000003,-14.9473,-218.489,300.327
3081.0,874.98299999999995,279.66899999999998,-229.62899999999999,-290.52800000000002,8.7351899999999993,-256.66500000000002,302.00799999999998
3082.0,877.31299999999999,239.976,-245.24000000000001,-257.303,33.155200000000001,-290.04000000000002,301.428
3083.0,878.69500000000005,208.589,-247.85400000000001,-207.53700000000001,58.018000000000001,-317.89499999999998,298.48000000000002
3084.0,879.11599999999999,161.34999999999999,-262.44400000000002,-167.24700000000001,83.002200000000002,-339.678,293.09500000000003
3085.0,878.577,123.807,-264.36500000000001,-112.898,107.759,-355.02800000000002,285.25
3086.0,877.08600000000001,72.756799999999998,-277.76400000000001,-69.765100000000004,131.95400000000001,-363.767,274.98099999999999
3087.0,874.67499999999995,33.397799999999997,-278.40600000000001,-14.7013,155.233,-365.93000000000001,262.37
3088.0,871.36400000000003,-17.298999999999999,-290.22800000000001,27.291599999999999,177.30199999999999,-361.69400000000002,247.55500000000001
3089.0,867.22500000000002,-54.368000000000002,-289.137,79.425399999999996,197.83500000000001,-351.44799999999998,230.71600000000001
3090.0,862.26300000000003,-100.837,-298.90600000000001,117.01000000000001,216.642,-335.637,212.05500000000001
3091.0,856.63099999999997,-132.346,-295.84300000000002,163.267,233.40899999999999,-314.91300000000001,191.84800000000001
3092.0,850.255,-171.822,-303.42200000000003,193.85300000000001,248.155,-289.86700000000002,170.25700000000001
3093.0,843.45600000000002,-195.989,-298.67599999999999,232.02000000000001,260.44600000000003,-261.221,147.78899999999999
3094.0,835.88699999999994,-226.22200000000001,-303.48700000000002,254.59800000000001,270.726,-229.72200000000001,124.101
3095.0,670.74800000000005,196.393,-108.82599999999999,-247.91999999999999,-158.858,210.178,170.011
3096.0,681.98599999999999,223.91499999999999,-113.11799999999999,-268.92000000000002,-152.15899999999999,185.709,184.21799999999999
3097.0,692.53700000000003,240.61600000000001,-125.36499999999999,-295.10700000000003,-144.376,157.34200000000001,198.26599999999999
3098.0,702.92899999999997,263.18599999999998,-130.01300000000001,-309.39800000000002,-134.84,126.015,211.82300000000001
3099.0,712.69000000000005,274.17700000000002,-142.85900000000001,-327.483,-123.744,91.739000000000004,224.90100000000001
3100.0,721.90499999999997,289.93200000000002,-147.58000000000001,-332.36799999999999,-110.96299999999999,55.104700000000001,237.12799999999999
3101.0,730.38099999999997,292.84199999999998,-160.874,-340.43599999999998,-96.524100000000004,16.661300000000001,248.39699999999999
3102.0,738.13800000000003,299.40699999999998,-165.977,-334.613,-80.480099999999993,-22.8597,258.423
3103.0,745.06799999999998,292.61700000000002,-179.398,-331.29000000000002,-62.911200000000001,-62.637700000000002,267.03100000000001
3104.0,751.14200000000005,288.83499999999998,-184.61000000000001,-313.98000000000002,-43.962600000000002,-101.79900000000001,273.97699999999998
3105.0,756.27999999999997,271.67399999999998,-197.87200000000001,-299.15600000000001,-23.7973,-139.42099999999999,279.07999999999998
3106.0,760.43899999999996,257.62299999999999,-202.80799999999999,-270.84699999999998,-2.63815,-174.613,282.149
3107.0,763.56700000000001,231.16499999999999,-215.18700000000001,-245.38399999999999,19.273900000000001,-206.518,283.05000000000001
3108.0,765.62900000000002,208.30000000000001,-219.435,-207.934,41.650300000000001,-234.393,281.65800000000002
3109.0,766.59699999999998,173.715,-231.43299999999999,-175.227,64.185299999999998,-257.60700000000003,277.90699999999998
3110.0,766.46600000000001,144.40700000000001,-234.858,-131.88999999999999,86.555400000000006,-275.68900000000002,271.77699999999999
3111.0,765.25599999999997,105.437,-245.42699999999999,-94.617599999999996,108.434,-288.33499999999998,263.30900000000003
3112.0,762.98000000000002,73.325400000000002,-247.40000000000001,-48.695099999999996,129.506,-295.411,252.58699999999999
3113.0,759.69799999999998,33.2943,-256.38200000000001,-10.6654,149.46299999999999,-296.97000000000003,239.749
3114.0,755.43100000000004,1.9187099999999999,-256.54000000000002,34.350099999999998,168.053,-293.18799999999999,224.97200000000001
3115.0,750.29200000000003,-36.031500000000001,-263.84500000000003,69.656400000000005,185.00700000000001,-284.44,208.47800000000001
3116.0,744.27800000000002,-63.729100000000003,-262.06999999999999,110.65900000000001,200.20099999999999,-271.113,190.49299999999999
3117.0,737.59299999999996,-97.171999999999997,-267.75799999999998,140.52199999999999,213.37299999999999,-253.816,171.315
3118.0,730.14400000000001,-118.672,-263.68000000000001,175.63499999999999,224.62799999999999,-233.041,151.09800000000001
3119.0,722.32600000000002,-146.14500000000001,-267.92399999999998,198.43000000000001,233.56800000000001,-209.42500000000001,130.374
3120.0,713.71500000000003,-159.97399999999999,-261.37900000000002,226.46799999999999,240.77799999999999,-183.61699999999999,108.8
3121.0,564.42999999999995,197.59999999999999,-79.165700000000001,-167.30000000000001,-138.81899999999999,174.18100000000001,142.58699999999999
3122.0,574.90899999999999,211.41200000000001,-91.654300000000006,-193.755,-133.286,154.31,155.53399999999999
3123.0,585.07000000000005,232.18000000000001,-94.760599999999997,-208.51300000000001,-126.82599999999999,131.238,168.684
3124.0,595.02300000000002,243.12299999999999,-106.28400000000001,-228.14099999999999,-118.738,105.776,181.364
3125.0,604.35400000000004,258.11599999999999,-111.03700000000001,-237.393,-109.16200000000001,77.799099999999996,193.608
3126.0,613.17499999999995,263.54300000000001,-122.712,-249.31,-98.008899999999997,47.828099999999999,205.089
3127.0,621.28999999999996,271.83300000000003,-128.12700000000001,-250.44300000000001,-85.306200000000004,16.2791,215.65799999999999
3128.0,628.71199999999999,270.36799999999999,-139.69,-252.90000000000001,-71.124099999999999,-16.242899999999999,225.03700000000001
3129.0,635.33299999999997,270.697,-145.411,-244.596,-55.566699999999997,-49.062399999999997,233.03
3130.0,641.11099999999999,261.20400000000001,-156.739,-236.983,-38.791899999999998,-81.439499999999995,239.41499999999999
3131.0,645.952,253.05000000000001,-162.363,-218.952,-20.982600000000001,-112.598,244.00899999999999
3132.0,649.79700000000003,235.364,-173.21000000000001,-201.767,-2.3630900000000001,-141.77199999999999,246.649
3133.0,652.57899999999995,218.94300000000001,-178.65199999999999,-175.31299999999999,16.8142,-168.24199999999999,247.20500000000001
3134.0,654.26199999999994,194.202,-188.613,-150.13499999999999,36.273299999999999,-191.358,245.602
3135.0,654.83199999999999,172.05199999999999,-192.643,-116.535,55.720399999999998,-210.59200000000001,241.80199999999999
3136.0,654.28200000000004,142.66300000000001,-201.12200000000001,-85.712800000000001,74.860600000000005,-225.535,235.82599999999999
3137.0,652.63900000000001,116.759,-203.959,-48.4467,93.388199999999998,-235.952,227.732
3138.0,649.92999999999995,85.334999999999994,-210.81200000000001,-15.2645,111.035,-241.72,217.643
3139.0,646.22699999999998,58.738500000000002,-212.012,22.688500000000001,127.526,-242.91499999999999,205.71199999999999
3140.0,641.572,28.113199999999999,-217.04400000000001,55.125,142.67099999999999,-239.67699999999999,192.14599999999999
3141.0,636.08500000000004,3.5506000000000002,-216.41499999999999,90.933300000000003,156.24299999999999,-232.35400000000001,177.16499999999999
3142.0,629.78899999999999,-23.694299999999998,-219.38999999999999,120.155,168.179,-221.261,161.00999999999999
3143.0,622.88699999999994,-44.224899999999998,-216.98500000000001,151.57499999999999,178.268,-206.94,143.95400000000001
3144.0,615.30799999999999,-66.388499999999993,-217.97800000000001,175.66900000000001,186.65899999999999,-189.79400000000001,126.16
3145.0,607.42600000000004,-82.097300000000004,-214.31999999999999,201.06899999999999,193.00200000000001,-170.35499999999999,108.086
3146.0,598.81399999999996,-97.603300000000004,-212.85900000000001,219.39400000000001,197.90299999999999,-149.18299999999999,89.458100000000002
3147.0,474.07999999999998,195.47900000000001,-61.892800000000001,-110.697,-120.72799999999999,144.184,111.768
3148.0,483.36500000000001,213.35599999999999,-65.997600000000006,-125.98099999999999,-116.726,127.619,123.172
3149.0,492.072,224.43899999999999,-74.719300000000004,-144.245,-111.726,108.34699999999999,134.58699999999999
3150.0,500.74400000000003,237.887,-79.795400000000001,-155.917,-105.331,87.1417,145.80799999999999
3151.0,508.90600000000001,245.05199999999999,-88.791700000000006,-168.44800000000001,-97.622799999999998,63.917099999999998,156.78899999999999
3152.0,516.58399999999995,253.69399999999999,-94.068399999999997,-173.75200000000001,-88.464600000000004,39.054200000000002,167.13800000000001
3153.0,523.65899999999999,255.499,-103.42100000000001,-179.33600000000001,-77.893199999999993,12.880599999999999,176.715
3154.0,530.14599999999996,258.17599999999999,-108.98699999999999,-177.10599999999999,-65.988399999999999,-14.1104,185.23400000000001
3155.0,535.95100000000002,253.828,-118.309,-174.494,-52.860199999999999,-41.365000000000002,192.506
3156.0,541.01800000000003,249.88900000000001,-123.791,-163.93299999999999,-38.675199999999997,-68.273099999999999,198.31100000000001
3157.0,545.24800000000005,238.90299999999999,-132.738,-152.88,-23.608499999999999,-94.183099999999996,202.488
3158.0,548.57000000000005,228.34200000000001,-137.69200000000001,-134.185,-7.8799299999999999,-118.45699999999999,204.88800000000001
3159.0,550.91499999999996,211.40000000000001,-145.58000000000001,-115.193,8.2822399999999998,-140.47999999999999,205.41499999999999
3160.0,552.23800000000006,195.054,-149.67599999999999,-89.738600000000005,24.6203,-159.71700000000001,204.00200000000001
3161.0,552.51700000000005,172.77799999999999,-156.864,-65.345100000000002,40.871000000000002,-175.71899999999999,200.63300000000001
3162.0,551.75599999999997,152.292,-159.881,-35.449599999999997,56.767299999999999,-188.148,195.34299999999999
3163.0,549.98699999999997,127.309,-165.535,-7.5852500000000003,72.051000000000002,-196.798,188.21299999999999
3164.0,547.24599999999998,105.16,-167.03299999999999,24.2927,86.4863,-201.578,179.369
3165.0,543.61300000000006,79.640600000000006,-171.148,52.735999999999997,99.854100000000003,-202.54599999999999,168.97399999999999
3166.0,539.13599999999997,58.200000000000003,-170.94800000000001,83.997699999999995,111.994,-199.83000000000001,157.22399999999999
3167.0,533.93899999999996,34.196300000000001,-173.57900000000001,110.432,122.742,-193.71299999999999,144.334
3168.0,528.05200000000002,15.344200000000001,-171.75999999999999,138.74799999999999,132.05099999999999,-184.47200000000001,130.52500000000001
3169.0,521.66499999999996,-5.6445999999999996,-173.12700000000001,161.14599999999999,139.78100000000001,-172.54300000000001,116.04600000000001
3170.0,514.721,-20.2591,-169.54499999999999,185.15600000000001,146.06399999999999,-158.279,101.044
3171.0,507.56,-37.410600000000002,-169.94499999999999,202.333,150.654,-142.09399999999999,85.903000000000006
3172.0,499.79899999999998,-46.986800000000002,-164.76300000000001,220.94900000000001,154.054,-124.49299999999999,70.4482
3173.0,402.471,200.923,-39.576599999999999,-61.137300000000003,-105.46899999999999,120.81100000000001,84.331500000000005
3174.0,409.709,211.89599999999999,-47.798099999999998,-78.8506,-102.313,106.185,93.385800000000003
3175.0,417.20100000000002,226.93299999999999,-50.045900000000003,-88.528999999999996,-98.737099999999998,89.585400000000007,103.07899999999999
3176.0,424.38600000000002,234.81899999999999,-57.6297,-101.242,-94.022499999999994,71.477800000000002,112.65300000000001
3177.0,430.97699999999998,244.03800000000001,-61.6432,-107.944,-88.078900000000004,51.704900000000002,122.078
3178.0,437.14999999999998,247.36000000000001,-69.513800000000003,-115.524,-80.854200000000006,30.619800000000001,131.11099999999999
3179.0,442.81900000000002,251.66900000000001,-74.050399999999996,-116.586,-72.356399999999994,8.4855999999999998,139.53399999999999
3180.0,448.04399999999998,250.309,-81.837800000000001,-117.51300000000001,-62.668900000000001,-14.298500000000001,147.08699999999999
3181.0,452.75700000000001,249.35400000000001,-86.543700000000001,-111.893,-51.914200000000001,-37.280200000000001,153.56800000000001
3182.0,456.89699999999999,242.77199999999999,-94.046700000000001,-105.624,-40.2453,-59.953400000000002,158.779
3183.0,460.36399999999998,236.238,-98.530699999999996,-93.038300000000007,-27.831900000000001,-81.779799999999994,162.56899999999999
3184.0,463.072,224.21199999999999,-105.517,-79.912199999999999,-14.864100000000001,-102.224,164.81299999999999
3185.0,464.947,212.078,-109.69799999999999,-61.313200000000002,-1.5496700000000001,-120.777,165.42400000000001
3186.0,465.94499999999999,195.34800000000001,-115.762,-42.383899999999997,11.8919,-136.98099999999999,164.36099999999999
3187.0,466.05099999999999,179.37200000000001,-118.658,-18.613499999999998,25.2318,-150.46000000000001,161.62100000000001
3188.0,465.26400000000001,159.46700000000001,-123.434,4.3527300000000002,38.246499999999997,-160.929,157.24299999999999
3189.0,463.61799999999999,140.88200000000001,-125.273,30.712399999999999,50.712699999999998,-168.21899999999999,151.30500000000001
3190.0,461.15100000000001,119.54900000000001,-128.69800000000001,55.328899999999997,62.439799999999998,-172.24799999999999,143.93000000000001
3191.0,457.93900000000002,100.48,-129.16900000000001,82.165099999999995,73.244,-173.066,135.26599999999999
3192.0,454.03100000000001,79.627700000000004,-131.18000000000001,106.17100000000001,83.002399999999994,-170.774,125.492
3193.0,449.54000000000002,61.9084,-130.23699999999999,131.417,91.585099999999997,-165.60900000000001,114.79900000000001
3194.0,444.49599999999998,43.281100000000002,-130.76599999999999,153.011,98.967600000000004,-157.79400000000001,103.384
3195.0,439.06400000000002,28.251200000000001,-128.548,175.018,105.048,-147.69399999999999,91.456500000000005
3196.0,433.19099999999997,12.921200000000001,-127.828,192.70500000000001,109.943,-135.59700000000001,79.152900000000002
3197.0,427.16199999999998,1.0893600000000001,-124.80800000000001,210.23099999999999,113.476,-121.852,66.765600000000006
3198.0,420.637,-9.7951499999999996,-122.565,223.50800000000001,116.044,-106.879,54.194600000000001
3199.0,347.22899999999998,195.52600000000001,-28.095500000000001,-33.342500000000001,-92.469200000000001,102.85299999999999,63.174100000000003
3200.0,353.69299999999998,212.63300000000001,-29.2637,-41.269599999999997,-90.477699999999999,89.813000000000002,70.186899999999994
3201.0,359.47699999999998,221.98699999999999,-35.174999999999997,-53.598199999999999,-87.8626,75.0702,77.347499999999997
3202.0,365.10700000000003,232.33600000000001,-38.230200000000004,-60.946100000000001,-84.375799999999998,59.015999999999998,84.908000000000001
3203.0,370.20999999999998,237.577,-44.027500000000003,-68.679000000000002,-79.981099999999998,41.717700000000001,92.722999999999999
3204.0,374.79500000000002,242.97800000000001,-47.5702,-71.688800000000001,-74.410399999999996,23.374199999999998,100.35599999999999
3205.0,379.00599999999997,243.685,-53.740000000000002,-74.5976,-67.697500000000005,4.2135199999999999,107.61499999999999
3206.0,382.92599999999999,244.619,-57.619399999999999,-72.335800000000006,-59.941099999999999,-15.433400000000001,114.202
3207.0,386.51999999999998,241.09700000000001,-63.7211,-69.357299999999995,-51.2562,-35.198599999999999,119.911
3208.0,389.72899999999998,237.52099999999999,-67.507099999999994,-61.157400000000003,-41.793100000000003,-54.664299999999997,124.55
3209.0,392.44200000000001,229.49600000000001,-73.236500000000007,-52.120899999999999,-31.696100000000001,-73.381100000000004,127.98699999999999
3210.0,394.572,221.357,-76.540700000000001,-38.103999999999999,-21.1313,-90.899500000000003,130.11500000000001
3211.0,396.04300000000001,209.203,-81.374799999999993,-23.371200000000002,-10.268599999999999,-106.78700000000001,130.86699999999999
3212.0,396.80599999999998,196.88900000000001,-84.034499999999994,-4.6210899999999997,0.70622399999999996,-120.661,130.20699999999999
3213.0,396.84100000000001,180.858,-88.319699999999997,13.887700000000001,11.6037,-132.20400000000001,128.13399999999999
3214.0,396.15100000000001,165.52600000000001,-90.129000000000005,35.760399999999997,22.235399999999998,-141.172,124.687
3215.0,394.76900000000001,147.482,-93.246300000000005,56.6997,32.420099999999998,-147.416,119.94
3216.0,392.72500000000002,130.852,-93.925799999999995,79.923900000000003,41.996099999999998,-150.869,113.998
3217.0,390.08800000000002,112.248,-95.9649,101.158,50.817500000000003,-151.565,106.988
3218.0,386.90199999999999,95.972300000000004,-95.446299999999994,123.849,58.782299999999999,-149.589,99.065799999999996
3219.0,383.26100000000002,78.252799999999993,-96.507900000000006,143.49700000000001,65.792100000000005,-145.13300000000001,90.392399999999995
3220.0,379.185,63.640599999999999,-94.934299999999993,163.928,71.824600000000004,-138.38300000000001,81.135400000000004
3221.0,374.81,47.8673,-95.254000000000005,180.46100000000001,76.812799999999996,-129.637,71.466800000000006
3222.0,370.07999999999998,36.1203,-92.583100000000002,197.59,80.841999999999999,-119.142,61.508800000000001
3223.0,365.22300000000001,22.937999999999999,-92.417100000000005,210.05199999999999,83.802700000000002,-107.18600000000001,51.478200000000001
3224.0,359.95499999999998,14.531000000000001,-88.978800000000007,222.86199999999999,85.970799999999997,-94.135599999999997,41.351399999999998
3225.0,305.80500000000001,188.15899999999999,-17.915099999999999,-12.0633,-83.190399999999997,89.772099999999995,49.271599999999999
3226.0,310.33999999999997,200.767,-21.927900000000001,-24.0578,-80.661900000000003,77.802199999999999,53.418199999999999
3227.0,315.70299999999997,217.22300000000001,-21.200900000000001,-27.8658,-78.677700000000002,64.148200000000003,58.518799999999999
3228.0,320.43900000000002,225.46700000000001,-25.288,-35.107500000000002,-76.352199999999996,49.679200000000002,64.165099999999995
3229.0,324.11500000000001,232.792,-27.3066,-38.7468,-73.048599999999993,34.107900000000001,70.224299999999999
3230.0,327.34800000000001,235.155,-32.196199999999997,-42.963900000000002,-68.718500000000006,17.739799999999999,76.539100000000005
3231.0,330.26799999999997,237.63999999999999,-35.009099999999997,-42.717799999999997,-63.3992,0.78227599999999997,82.700800000000001
3232.0,333.03100000000001,236.13300000000001,-40.0062,-42.156599999999997,-57.151600000000002,-16.515499999999999,88.3947
3233.0,335.65899999999999,234.751,-42.998699999999999,-37.059199999999997,-50.120800000000003,-33.855600000000003,93.383600000000001
3234.0,338.06400000000002,229.57300000000001,-47.758000000000003,-31.240100000000002,-42.427100000000003,-50.886699999999998,97.492199999999997
3235.0,340.14600000000002,224.22300000000001,-50.546900000000001,-21.079000000000001,-34.200099999999999,-67.238299999999995,100.59399999999999
3236.0,341.79700000000003,215.08699999999999,-54.917999999999999,-10.324,-25.5688,-82.524199999999993,102.60299999999999
3237.0,342.94600000000003,205.566,-57.514299999999999,4.1113,-16.674399999999999,-96.381500000000003,103.461
3238.0,343.54199999999997,192.934,-61.190600000000003,19.043900000000001,-7.6643400000000002,-108.474,103.146
3239.0,343.57100000000003,180.477,-62.878399999999999,37.156999999999996,1.3056300000000001,-118.529,101.65900000000001
3240.0,343.02800000000002,165.32499999999999,-65.711200000000005,54.884099999999997,10.0822,-126.337,99.030799999999999
3241.0,341.93900000000002,150.74799999999999,-66.736400000000003,74.736099999999993,18.5139,-131.77199999999999,95.317899999999995
3242.0,340.334,134.33000000000001,-68.715100000000007,93.514899999999997,26.4696,-134.76900000000001,90.6113
3243.0,338.267,119.23399999999999,-68.836500000000001,113.616,33.827599999999997,-135.35599999999999,85.0154
3244.0,335.77300000000002,102.95699999999999,-69.945899999999995,131.798,40.501199999999997,-133.601,78.657499999999999
3245.0,332.92200000000003,88.699700000000007,-69.162999999999997,150.62100000000001,46.412599999999998,-129.66,71.669399999999996
3246.0,329.73200000000003,73.865200000000002,-69.388800000000003,166.86000000000001,51.537799999999997,-123.69499999999999,64.191999999999993
3247.0,326.29399999999998,61.498100000000001,-67.811300000000003,183.15899999999999,55.832700000000003,-115.94799999999999,56.361499999999999
3248.0,322.56799999999998,48.883400000000002,-67.416499999999999,196.22800000000001,59.351500000000001,-106.637,48.289400000000001
3249.0,318.69900000000001,38.894599999999997,-65.384399999999999,208.98400000000001,62.033700000000003,-96.006799999999998,40.130600000000001
3250.0,314.49900000000002,29.409199999999998,-64.203699999999998,218.434,64.055400000000006,-84.379199999999997,31.8964
3251.0,273.87200000000001,169.881,-17.281400000000001,-4.8340699999999996,-76.001199999999997,80.462599999999995,42.423400000000001
3252.0,277.35300000000001,193.87799999999999,-11.8079,-3.56263,-73.727199999999996,68.580299999999994,44.080399999999997
3253.0,282.47500000000002,204.72499999999999,-16.0016,-14.2477,-71.829300000000003,56.506599999999999,46.181800000000003
3254.0,285.86799999999999,217.01499999999999,-14.7705,-17.0183,-69.722800000000007,42.9634,49.492600000000003
3255.0,288.80700000000002,222.05500000000001,-18.503399999999999,-22.066700000000001,-67.095299999999995,28.5031,53.941699999999997
3256.0,290.947,226.76599999999999,-19.6814,-22.602399999999999,-63.6571,13.6561,59.073799999999999
3257.0,292.82600000000002,226.5,-24.0517,-24.133900000000001,-59.299799999999998,-1.6554500000000001,64.271699999999996
3258.0,294.69,226.99799999999999,-26.040800000000001,-21.051300000000001,-54.162599999999998,-17.1418,69.206900000000005
3259.0,296.58300000000003,223.661,-30.267299999999999,-17.988900000000001,-48.3765,-32.609699999999997,73.570400000000006
3260.0,298.37900000000002,220.744,-32.300400000000003,-10.5715,-42.033099999999997,-47.746000000000002,77.213099999999997
3261.0,299.99099999999999,214.172,-36.127800000000001,-2.89236,-35.243000000000002,-62.259999999999998,80.008700000000005
3262.0,301.29000000000002,207.745,-37.869700000000002,8.7627500000000005,-28.0977,-75.803700000000006,81.897000000000006
3263.0,302.221,198.05000000000001,-40.990699999999997,20.703499999999998,-20.714600000000001,-88.072599999999994,82.826400000000007
3264.0,302.71499999999997,188.23400000000001,-42.436399999999999,35.686999999999998,-13.204800000000001,-98.766900000000007,82.778999999999996
3265.0,302.767,175.46199999999999,-45.2378,50.348999999999997,-5.69923,-107.65900000000001,81.751499999999993
3266.0,302.36700000000002,163.16300000000001,-46.206200000000003,67.518600000000006,1.6805000000000001,-114.554,79.772800000000004
3267.0,301.54599999999999,148.726,-48.246600000000001,83.915700000000001,8.8064300000000006,-119.343,76.889200000000002
3268.0,300.31400000000002,135.249,-48.554600000000001,101.952,15.567299999999999,-121.96899999999999,73.167199999999994
3269.0,298.72000000000003,120.214,-49.9621,118.441,21.860099999999999,-122.452,68.690600000000003
3270.0,296.78800000000001,106.82599999999999,-49.570599999999999,135.93600000000001,27.610199999999999,-120.852,63.5627
3271.0,294.56900000000002,92.344399999999993,-50.406599999999997,151.12200000000001,32.750799999999998,-117.297,57.891199999999998
3272.0,292.07400000000001,80.068799999999996,-49.440300000000001,166.749,37.256399999999999,-111.929,51.7898
3273.0,289.36000000000001,67.017700000000005,-49.871000000000002,179.44200000000001,41.093800000000002,-104.95099999999999,45.3718
3274.0,286.39600000000002,56.812399999999997,-48.312800000000003,192.34399999999999,44.294199999999996,-96.555000000000007,38.731400000000001
3275.0,283.26400000000001,45.7986,-48.506900000000002,201.71600000000001,46.828099999999999,-86.953199999999995,31.986699999999999
3276.0,279.84800000000001,37.936999999999998,-46.765900000000002,210.90600000000001,48.797899999999998,-76.433099999999996,25.174800000000001
3277.0,246.80600000000001,136.262,-33.101700000000001,-18.8888,-69.527100000000004,72.628900000000002,37.000799999999998
3278.0,251.41999999999999,168.36500000000001,-17.138100000000001,-7.9528299999999996,-67.864000000000004,63.308,39.070999999999998
3279.0,254.76599999999999,190.51400000000001,-10.9625,-4.9257299999999997,-66.247,51.160499999999999,38.621000000000002
3280.0,258.392,203.971,-10.4826,-7.3226699999999996,-64.328199999999995,37.834699999999998,39.728900000000003
3281.0,260.98000000000002,211.63200000000001,-10.933199999999999,-9.4456699999999998,-62.070999999999998,24.697399999999998,42.878700000000002
3282.0,262.19099999999997,214.071,-13.346399999999999,-11.335800000000001,-59.121400000000001,10.8643,47.040799999999997
3283.0,263.39100000000002,215.57900000000001,-15.202,-10.556800000000001,-55.335700000000003,-3.0841400000000001,51.4816
3284.0,264.61399999999998,214.21700000000001,-18.346299999999999,-9.0304900000000004,-50.9756,-17.135000000000002,55.793300000000002
3285.0,266.01400000000001,212.71700000000001,-20.295000000000002,-4.3521900000000002,-46.068600000000004,-31.074100000000001,59.6267
3286.0,267.38999999999999,208.54300000000001,-23.3095,1.16936,-40.716299999999997,-44.6815,62.863900000000001
3287.0,268.68000000000001,204.05099999999999,-25.011299999999999,9.8008900000000008,-34.979799999999997,-57.700600000000001,65.377600000000001
3288.0,269.73899999999998,196.74100000000001,-27.7928,19.0167,-28.9361,-69.838300000000004,67.128299999999996
3289.0,270.51499999999999,188.92400000000001,-29.399799999999999,30.866700000000002,-22.668600000000001,-80.823700000000002,68.068299999999994
3290.0,270.94900000000001,178.78800000000001,-31.7331,43.217100000000002,-16.268699999999999,-90.390900000000002,68.190799999999996
3291.0,271.03500000000003,168.547,-32.767200000000003,57.8035,-9.8413000000000004,-98.331400000000002,67.490300000000005
3292.0,270.75799999999998,156.24600000000001,-34.660699999999999,72.139399999999995,-3.4903499999999998,-104.48,65.985799999999998
3293.0,270.13900000000001,144.17599999999999,-35.380200000000002,87.919499999999999,2.67665,-108.741,63.706600000000002
3294.0,269.19499999999999,130.71100000000001,-36.831899999999997,102.913,8.5668199999999999,-111.059,60.711100000000002
3295.0,267.95999999999998,118.142,-37.004399999999997,118.809,14.087999999999999,-111.45,57.0655
3296.0,266.44799999999998,104.661,-37.9758,133.221,19.172799999999999,-109.967,52.849200000000003
3297.0,264.69900000000001,92.672600000000003,-37.599699999999999,148.03899999999999,23.761500000000002,-106.72,48.1496
3298.0,262.71300000000002,80.239000000000004,-38.056600000000003,160.83099999999999,27.827000000000002,-101.83199999999999,43.061700000000002
3299.0,260.529,69.711500000000001,-37.196899999999999,173.57400000000001,31.340800000000002,-95.480099999999993,37.677399999999999
3300.0,258.11200000000002,58.950200000000002,-37.3658,183.70699999999999,34.322000000000003,-87.831400000000002,32.081699999999998
3301.0,255.50999999999999,50.363700000000001,-36.256300000000003,193.489,36.7545,-79.081800000000001,26.364799999999999
3302.0,252.64599999999999,42.039000000000001,-36.0032,200.55199999999999,38.702199999999998,-69.474299999999999,20.565300000000001
3303.0,224.12200000000001,91.305599999999998,-68.687200000000004,-46.8705,-65.404700000000005,63.865600000000001,29.3126
3304.0,225.88999999999999,125.16200000000001,-45.328800000000001,-28.970099999999999,-61.444499999999998,58.420999999999999,31.174499999999998
3305.0,229.91499999999999,175.215,-8.8750999999999998,2.24695,-61.568399999999997,46.027799999999999,32.494900000000001
3306.0,235.91399999999999,191.352,-7.0248100000000004,0.096491499999999994,-60.180799999999998,34.224899999999998,33.089300000000001
3307.0,237.50700000000001,197.97499999999999,-7.5572800000000004,-2.28471,-57.780700000000003,22.002300000000002,35.3735
3308.0,238.40100000000001,201.56100000000001,-8.5288900000000005,-2.9265400000000001,-54.972000000000001,9.0176300000000005,38.873199999999997
3309.0,239.125,201.90299999999999,-10.9968,-2.9016299999999999,-51.560000000000002,-3.7499600000000002,42.796300000000002
3310.0,240.02799999999999,201.58199999999999,-12.7971,-0.37153000000000003,-47.697699999999998,-16.5947,46.5931
3311.0,241.09700000000001,199.25700000000001,-15.301399999999999,3.2181099999999998,-43.429299999999998,-29.210100000000001,50.017499999999998
3312.0,242.22900000000001,196.39500000000001,-16.939299999999999,9.3500399999999999,-38.788600000000002,-41.527299999999997,52.8949
3313.0,243.29400000000001,191.39599999999999,-19.213699999999999,16.438199999999998,-33.8245,-53.265099999999997,55.165199999999999
3314.0,244.20599999999999,185.845,-20.5014,25.994299999999999,-28.587800000000001,-64.215299999999999,56.767400000000002
3315.0,244.88,178.21100000000001,-22.357099999999999,36.293500000000002,-23.141400000000001,-74.100099999999998,57.686
3316.0,245.28299999999999,169.89099999999999,-23.478300000000001,48.420900000000003,-17.562799999999999,-82.713200000000001,57.895499999999998
3317.0,245.387,159.60900000000001,-25.295100000000001,60.6845,-11.9331,-89.850099999999998,57.400599999999997
3318.0,245.20500000000001,149.27600000000001,-26.111000000000001,74.519900000000007,-6.34354,-95.372600000000006,56.212200000000003
3319.0,244.74700000000001,137.53399999999999,-27.5245,88.030900000000003,-0.884046,-99.177999999999997,54.362299999999998
3320.0,244.02199999999999,126.238,-27.911899999999999,102.52800000000001,4.3535700000000004,-101.233,51.884
3321.0,243.048,113.857,-29.054500000000001,115.938,9.2942199999999993,-101.54600000000001,48.828899999999997
3322.0,241.846,102.61499999999999,-28.975999999999999,129.976,13.872299999999999,-100.167,45.264299999999999
3323.0,240.434,90.5946,-29.823599999999999,142.24700000000001,18.0364,-97.188199999999995,41.261699999999998
3324.0,238.816,80.250500000000002,-29.356999999999999,154.773,21.7559,-92.722999999999999,36.9009
3325.0,237.011,69.333699999999993,-30.0137,164.94200000000001,25.0075,-86.922499999999999,32.259399999999999
3326.0,234.98500000000001,60.686100000000003,-29.133600000000001,175.23099999999999,27.797899999999998,-79.935500000000005,27.412600000000001
3327.0,232.75399999999999,51.396599999999999,-29.739999999999998,182.52799999999999,30.121600000000001,-71.937200000000004,22.431100000000001
3328.0,230.27199999999999,44.615699999999997,-28.8508,189.642,32.013399999999997,-63.144799999999996,17.364599999999999
3329.0,206.32300000000001,95.556100000000001,-57.534700000000001,-28.1937,-61.723100000000002,56.907299999999999,23.228100000000001
3330.0,205.965,124.274,-37.3718,-9.6856200000000001,-57.115699999999997,52.123199999999997,26.230799999999999
3331.0,209.499,164.334,-5.8999699999999997,10.2057,-57.864800000000002,41.050600000000003,27.642399999999999
3332.0,215.404,175.09,-7.5698499999999997,2.7960199999999999,-56.270699999999998,31.6036,27.838699999999999
3333.0,216.79400000000001,185.16,-4.2881,4.2370999999999999,-53.9437,19.721399999999999,30.3032
3334.0,217.91999999999999,186.27199999999999,-8.0352700000000006,0.81021799999999999,-51.109200000000001,7.8837700000000002,33.424700000000001
3335.0,218.31800000000001,188.77600000000001,-7.9347799999999999,3.3380999999999998,-47.941299999999998,-3.9265599999999998,37.043399999999998
3336.0,219.21899999999999,186.876,-11.375500000000001,3.9540600000000001,-44.439599999999999,-15.6126,40.420099999999998
3337.0,220.036,186.262,-11.9969,8.9861599999999999,-40.6248,-27.073399999999999,43.508699999999997
3338.0,221.07599999999999,182.42599999999999,-14.737399999999999,13.3561,-36.511499999999998,-38.228400000000001,46.070900000000002
3339.0,221.964,179.15100000000001,-15.4254,21.210100000000001,-32.111600000000003,-48.832999999999998,48.120800000000003
3340.0,222.79599999999999,172.94,-17.733599999999999,28.742899999999999,-27.4742,-58.732399999999998,49.566299999999998
3341.0,223.37799999999999,166.78,-18.5688,38.927999999999997,-22.6341,-67.650099999999995,50.424599999999998
3342.0,223.77099999999999,158.37299999999999,-20.422899999999998,49.091000000000001,-17.664899999999999,-75.424599999999998,50.660200000000003
3343.0,223.89500000000001,150.11099999999999,-20.997699999999998,61.316499999999998,-12.6296,-81.841999999999999,50.289000000000001
3344.0,223.798,139.917,-22.581399999999999,73.042100000000005,-7.61897,-86.810699999999997,49.302900000000001
3345.0,223.447,130.01900000000001,-23.1187,86.043400000000005,-2.7061700000000002,-90.225800000000007,47.7271
3346.0,222.88999999999999,118.83,-24.457599999999999,98.231399999999994,2.0268299999999999,-92.063800000000001,45.593600000000002
3347.0,222.11799999999999,108.517,-24.642800000000001,111.29000000000001,6.50929,-92.315100000000001,42.951300000000003
3348.0,221.149,97.297799999999995,-25.668500000000002,122.97499999999999,10.679399999999999,-91.039699999999996,39.844299999999997
3349.0,219.99100000000001,87.426199999999994,-25.488700000000001,135.113,14.4932,-88.311400000000006,36.336100000000002
3350.0,218.65199999999999,77.044799999999995,-26.154399999999999,145.45599999999999,17.916599999999999,-84.237300000000005,32.494199999999999
3351.0,217.12899999999999,68.360900000000001,-25.630400000000002,155.86799999999999,20.932300000000001,-78.9435,28.386500000000002
3352.0,215.40000000000001,59.3125,-26.137799999999999,163.96600000000001,23.5383,-72.567999999999998,24.081
3353.0,213.44800000000001,52.265999999999998,-25.430199999999999,171.88300000000001,25.7394,-65.261099999999999,19.636900000000001
3354.0,211.25999999999999,45.181199999999997,-25.683,177.32300000000001,27.549499999999998,-57.2211,15.095000000000001
3355.0,188.18299999999999,121.816,-20.005400000000002,7.29298,-56.106699999999996,51.865900000000003,17.4345
3356.0,188.792,137.864,-10.526899999999999,13.256500000000001,-53.851599999999998,46.450299999999999,21.704999999999998
3357.0,191.96700000000001,153.702,-3.8929499999999999,13.138199999999999,-53.8461,37.144799999999996,22.889399999999998
3358.0,196.334,162.86600000000001,-5.2569800000000004,8.1776400000000002,-52.282800000000002,28.6586,23.772400000000001
3359.0,198.18700000000001,170.798,-3.9519299999999999,7.6063400000000003,-50.1892,17.755800000000001,26.6083
3360.0,199.51599999999999,173.28800000000001,-6.39642,5.7110399999999997,-47.4773,7.0424199999999999,29.652999999999999
3361.0,200.03,174.59899999999999,-7.58962,6.9156300000000002,-44.482100000000003,-3.8125599999999999,33.025300000000001
3362.0,200.92099999999999,173.98699999999999,-9.7415199999999995,8.6008600000000008,-41.299900000000001,-14.4047,36.0869
3363.0,201.69900000000001,172.61199999999999,-11.2159,12.4122,-37.828499999999998,-24.810300000000002,38.882100000000001
3364.0,202.64099999999999,170.047,-12.8041,17.357299999999999,-34.136200000000002,-34.884300000000003,41.180999999999997
3365.0,203.446,166.28299999999999,-14.242699999999999,23.740200000000002,-30.166699999999999,-44.469099999999997,43.0212
3366.0,204.196,161.64699999999999,-15.3513,31.606300000000001,-25.995100000000001,-53.394599999999997,44.324199999999998
3367.0,204.73500000000001,155.63200000000001,-16.572700000000001,40.436,-21.624300000000002,-61.4345,45.104999999999997
3368.0,205.101,148.72900000000001,-17.561800000000002,50.367699999999999,-17.137899999999998,-68.436700000000002,45.327599999999997
3369.0,205.23099999999999,140.44300000000001,-18.8977,60.636400000000002,-12.573700000000001,-74.225300000000004,45.001600000000003
3370.0,205.185,131.928,-19.6587,71.969399999999993,-8.0179399999999994,-78.699700000000007,44.130499999999998
3371.0,204.953,122.47499999999999,-20.747399999999999,83.240700000000004,-3.5406599999999999,-81.760300000000001,42.744
3372.0,204.541,113.22799999999999,-21.1812,95.133099999999999,0.76928300000000005,-83.398700000000005,40.857999999999997
3373.0,203.93000000000001,103.15300000000001,-22.1752,106.19,4.8624400000000003,-83.610399999999998,38.502600000000001
3374.0,203.149,93.948999999999998,-22.243400000000001,117.696,8.6776,-82.443399999999997,35.7258
3375.0,202.191,84.1601,-23.020700000000001,127.80800000000001,12.179,-79.959900000000005,32.579000000000001
3376.0,201.07300000000001,75.681700000000006,-22.7867,138.07499999999999,15.3317,-76.263000000000005,29.122399999999999
3377.0,199.773,66.807500000000005,-23.404199999999999,146.464,18.121200000000002,-71.453299999999999,25.416499999999999
3378.0,198.28100000000001,59.693800000000003,-22.859500000000001,154.85400000000001,20.538799999999998,-65.661000000000001,21.520700000000001
3379.0,196.54599999999999,52.165300000000002,-23.450399999999998,160.80600000000001,22.595099999999999,-59.0077,17.486499999999999
3380.0,194.58099999999999,46.481400000000001,-23.0166,166.39500000000001,24.290400000000002,-51.684199999999997,13.3536
3381.0,171.37799999999999,129.25899999999999,-2.9372600000000002,21.137799999999999,-50.252099999999999,46.6721,11.3558
3382.0,172.64099999999999,132.83199999999999,-5.1508500000000002,16.593299999999999,-50.190899999999999,41.027999999999999,15.119899999999999
3383.0,175.88300000000001,143.57400000000001,-2.8521000000000001,15.3346,-49.795299999999997,33.6511,18.172599999999999
3384.0,179.23699999999999,150.37100000000001,-4.5688700000000004,10.9117,-48.424900000000001,25.5198,20.7363
3385.0,181.363,157.185,-4.3921000000000001,10.1889,-46.415799999999997,15.9846,23.7987
3386.0,182.791,159.40700000000001,-6.8650799999999998,8.5556999999999999,-43.967700000000001,6.2618400000000003,26.928599999999999
3387.0,183.691,161.31800000000001,-7.8051599999999999,10.0717,-41.213200000000001,-3.52237,30.058
3388.0,184.57499999999999,160.518,-10.131399999999999,11.4339,-38.3033,-13.1234,32.881599999999999
3389.0,185.411,159.833,-11.1,15.378299999999999,-35.153199999999998,-22.515999999999998,35.382300000000001
3390.0,186.26400000000001,157.10400000000001,-12.986700000000001,19.532699999999998,-31.790400000000002,-31.6006,37.459099999999999
3391.0,187.03,154.37,-13.7033,25.9817,-28.190000000000001,-40.2318,39.101100000000002
3392.0,187.69499999999999,149.52500000000001,-15.388400000000001,32.484099999999998,-24.387,-48.261499999999998,40.2669
3393.0,188.196,144.52000000000001,-16.116299999999999,40.892499999999998,-20.404299999999999,-55.498199999999997,40.9559
3394.0,188.53800000000001,137.84800000000001,-17.511700000000001,49.453400000000002,-16.298200000000001,-61.783900000000003,41.152299999999997
3395.0,188.703,131.24600000000001,-17.9725,59.616199999999999,-12.1243,-66.964399999999998,40.852600000000002
3396.0,188.71299999999999,123.05,-19.285,69.328900000000004,-7.95871,-70.970799999999997,40.055
3397.0,188.55600000000001,115.06100000000001,-19.782399999999999,80.0137,-3.8627400000000001,-73.739000000000004,38.777900000000002
3398.0,188.262,105.95099999999999,-21.019600000000001,89.959500000000006,0.086538400000000001,-75.226699999999994,37.051499999999997
3399.0,187.80000000000001,97.767300000000006,-21.116700000000002,100.82299999999999,3.8260700000000001,-75.415099999999995,34.9114
3400.0,187.16900000000001,88.582599999999999,-22.142900000000001,110.309,7.3188300000000002,-74.358999999999995,32.382800000000003
3401.0,186.38399999999999,80.779899999999998,-21.8996,120.45099999999999,10.5312,-72.117400000000004,29.5154
3402.0,185.45099999999999,72.2196,-22.674600000000002,128.797,13.427099999999999,-68.778899999999993,26.361799999999999
3403.0,184.346,65.416600000000003,-22.098299999999998,137.56299999999999,15.9946,-64.431600000000003,22.9771
3404.0,183.053,57.858499999999999,-22.8064,143.98099999999999,18.2242,-59.189799999999998,19.414000000000001
3405.0,181.512,52.466900000000003,-22.001100000000001,150.709,20.1281,-53.1569,15.719799999999999
3406.0,179.73500000000001,46.420200000000001,-22.584099999999999,154.768,21.700600000000001,-46.505499999999998,11.920299999999999
3407.0,158.535,127.262,2.8473000000000002,25.1371,-45.998899999999999,42.531999999999996,7.2121000000000004
3408.0,158.92099999999999,129.43299999999999,0.40267500000000001,21.043600000000001,-46.239400000000003,36.665700000000001,11.5024
3409.0,161.23599999999999,134.61799999999999,-1.53216,17.465599999999998,-45.749200000000002,30.096599999999999,15.159599999999999
3410.0,163.97800000000001,140.61799999999999,-2.9026200000000002,14.891999999999999,-44.620899999999999,22.6218,18.436399999999999
3411.0,166.14599999999999,144.98500000000001,-4.7523499999999999,12.927,-42.810600000000001,14.2713,21.669599999999999
3412.0,167.702,147.863,-6.4176099999999998,12.435600000000001,-40.604399999999998,5.5525599999999997,24.738900000000001
3413.0,168.852,148.88,-8.3428000000000004,12.9246,-38.145099999999999,-3.2135699999999998,27.610600000000002
3414.0,169.82599999999999,149.035,-9.7899200000000004,14.996600000000001,-35.4968,-11.8683,30.1936
3415.0,170.70400000000001,147.94800000000001,-11.307499999999999,18.0764,-32.651400000000002,-20.316099999999999,32.441000000000003
3416.0,171.50899999999999,146.161,-12.417899999999999,22.5472,-29.589700000000001,-28.476500000000001,34.306899999999999
3417.0,172.22399999999999,143.09200000000001,-13.7477,27.785900000000002,-26.304300000000001,-36.224899999999998,35.773200000000003
3418.0,172.83199999999999,139.55600000000001,-14.5152,34.5246,-22.827000000000002,-43.413400000000003,36.816000000000003
3419.0,173.30099999999999,134.727,-15.5959,41.808599999999998,-19.176200000000001,-49.886899999999997,37.4208
3420.0,173.626,129.25700000000001,-16.393599999999999,50.052900000000001,-15.417299999999999,-55.511299999999999,37.582299999999996
3421.0,173.76499999999999,122.52,-17.606000000000002,58.377400000000002,-11.5777,-60.167200000000001,37.283499999999997
3422.0,173.798,115.764,-18.2362,67.719700000000003,-7.7245999999999997,-63.768099999999997,36.520400000000002
3423.0,173.77500000000001,108.34399999999999,-19.133400000000002,77.090000000000003,-3.9742199999999999,-66.242000000000004,35.323700000000002
3424.0,173.61600000000001,101.131,-19.423300000000001,86.990200000000002,-0.39263900000000002,-67.576599999999999,33.732900000000001
3425.0,173.261,93.045699999999997,-20.299299999999999,96.019199999999998,3.0152199999999998,-67.758700000000005,31.756399999999999
3426.0,172.77199999999999,85.8142,-20.2775,105.56999999999999,6.2085499999999998,-66.820099999999996,29.428699999999999
3427.0,172.136,77.953299999999999,-20.973800000000001,113.83799999999999,9.1457200000000007,-64.809799999999996,26.7989
3428.0,171.36699999999999,71.286199999999994,-20.697800000000001,122.379,11.799799999999999,-61.815800000000003,23.904199999999999
3429.0,170.43700000000001,64.161299999999997,-21.235600000000002,129.25899999999999,14.1547,-57.908499999999997,20.799700000000001
3430.0,169.32300000000001,58.570099999999996,-20.701499999999999,136.24199999999999,16.1997,-53.188299999999998,17.529800000000002
3431.0,167.95099999999999,52.491199999999999,-21.237300000000001,141.03700000000001,17.946300000000001,-47.7408,14.133800000000001
3432.0,166.33500000000001,47.977600000000002,-20.8477,145.566,19.386099999999999,-41.726599999999998,10.641
3433.0,147.43100000000001,120.754,3.4480200000000001,24.914999999999999,-42.451500000000003,38.952199999999998,4.9740200000000003
3434.0,146.476,122.04300000000001,1.1530400000000001,21.8782,-42.497500000000002,32.8504,9.3331999999999997
3435.0,148.095,124.94499999999999,-1.97095,18.157299999999999,-42.0062,26.8172,13.2036
3436.0,150.19999999999999,129.33799999999999,-3.8839999999999999,16.032800000000002,-40.929600000000001,20.015899999999998,16.743200000000002
3437.0,152.374,133.26400000000001,-5.7884500000000001,14.7494,-39.348700000000001,12.6426,19.931000000000001
3438.0,154.03899999999999,135.97300000000001,-7.4315499999999997,14.6556,-37.421700000000001,4.9031900000000004,22.873100000000001
3439.0,155.41300000000001,137.458,-8.9842200000000005,15.5808,-35.2547,-2.92449,25.478899999999999
3440.0,156.46899999999999,137.67400000000001,-10.4163,17.525600000000001,-32.912599999999998,-10.678100000000001,27.790800000000001
3441.0,157.34899999999999,136.904,-11.690099999999999,20.468499999999999,-30.344799999999999,-18.264399999999998,29.7761
3442.0,158.113,135.19800000000001,-12.879799999999999,24.4466,-27.5565,-25.572299999999998,31.4467
3443.0,158.78299999999999,132.82300000000001,-13.7797,29.5855,-24.563500000000001,-32.495399999999997,32.755200000000002
3444.0,159.33600000000001,129.202,-14.972200000000001,35.235999999999997,-21.375699999999998,-38.915599999999998,33.692300000000003
3445.0,159.744,125.065,-15.7905,41.981900000000003,-18.023700000000002,-44.685600000000001,34.2181
3446.0,160.06100000000001,119.985,-16.819299999999998,49.282899999999998,-14.529500000000001,-49.684100000000001,34.345300000000002
3447.0,160.29300000000001,114.81699999999999,-17.3309,57.6494,-11.0449,-53.770299999999999,34.046799999999998
3448.0,160.34999999999999,108.544,-18.2805,65.812799999999996,-7.5505000000000004,-56.936999999999998,33.2896
3449.0,160.40299999999999,102.108,-18.864799999999999,74.327399999999997,-4.09795,-59.2363,32.178600000000003
3450.0,160.29599999999999,94.962599999999995,-19.788699999999999,82.460300000000004,-0.82527799999999996,-60.490000000000002,30.692499999999999
3451.0,160.06200000000001,88.613200000000006,-19.748200000000001,91.483999999999995,2.27549,-60.686799999999998,28.8337
3452.0,159.702,81.316599999999994,-20.624300000000002,99.205699999999993,5.1791099999999997,-59.862699999999997,26.695599999999999
3453.0,159.191,75.256,-20.315899999999999,107.616,7.8594499999999998,-58.0672,24.2712
3454.0,158.583,68.392200000000003,-21.0228,114.39,10.2829,-55.397300000000001,21.611599999999999
3455.0,157.81700000000001,63.142400000000002,-20.413799999999998,121.71299999999999,12.4307,-51.897799999999997,18.7639
3456.0,156.87299999999999,56.999400000000001,-21.108699999999999,126.84699999999999,14.2997,-47.661999999999999,15.7644
3457.0,155.672,52.926099999999998,-20.2456,132.50800000000001,15.8956,-42.758800000000001,12.654299999999999
3458.0,154.20699999999999,47.9223,-20.876999999999999,135.55699999999999,17.209399999999999,-37.333100000000002,9.4449299999999994
3459.0,136.999,113.67100000000001,3.37208,25.089300000000001,-39.529299999999999,35.552,3.96489
3460.0,135.32300000000001,115.56399999999999,2.07951,23.925799999999999,-39.184699999999999,29.5168,8.4777400000000007
3461.0,136.30099999999999,116.373,-2.3868100000000001,19.950299999999999,-38.622500000000002,23.842099999999999,12.2111
3462.0,138.02699999999999,121.64700000000001,-2.79101,20.317299999999999,-37.593800000000002,17.678899999999999,15.608599999999999
3463.0,140.08799999999999,123.265,-6.4291400000000003,17.5717,-36.2151,11.1844,18.5366
3464.0,141.76400000000001,126.745,-7.02888,18.539000000000001,-34.503300000000003,4.3187699999999998,21.139800000000001
3465.0,143.239,127.11199999999999,-9.5365199999999994,18.1981,-32.634900000000002,-2.6546599999999998,23.445599999999999
3466.0,144.27699999999999,128.24199999999999,-9.9623799999999996,20.800899999999999,-30.5349,-9.5916700000000006,25.478999999999999
3467.0,145.18700000000001,127.18600000000001,-11.6335,23.077000000000002,-28.2361,-16.3994,27.224299999999999
3468.0,145.88900000000001,126.262,-12.1515,27.310400000000001,-25.714500000000001,-22.909600000000001,28.704999999999998
3469.0,146.506,123.499,-13.6503,31.3538,-22.981200000000001,-29.092199999999998,29.8749
3470.0,147.01300000000001,121.06699999999999,-14.046900000000001,37.322099999999999,-20.051600000000001,-34.760899999999999,30.701000000000001
3471.0,147.46100000000001,117.054,-15.248200000000001,43.1402,-17.023399999999999,-39.884999999999998,31.1708
3472.0,147.69200000000001,112.959,-15.7799,50.0214,-13.809200000000001,-44.261499999999998,31.258299999999998
3473.0,147.84800000000001,107.053,-17.3353,56.355800000000002,-10.4879,-47.951799999999999,31.0611
3474.0,148.14500000000001,102.111,-17.780899999999999,64.055700000000002,-7.2258199999999997,-50.848599999999998,30.4072
3475.0,148.149,96.505899999999997,-18.4026,71.725200000000001,-4.2026500000000002,-52.788699999999999,29.238800000000001
3476.0,148.13200000000001,91.284300000000002,-18.059999999999999,80.411500000000004,-1.3210299999999999,-53.973599999999998,27.765699999999999
3477.0,148.048,84.820499999999996,-18.952100000000002,87.538700000000006,1.50271,-54.221200000000003,26.035599999999999
3478.0,147.751,79.415700000000001,-18.631900000000002,95.613200000000006,4.1298000000000004,-53.467500000000001,24.076000000000001
3479.0,147.39400000000001,73.070400000000006,-19.371600000000001,102.188,6.5797100000000004,-51.8979,21.8322
3480.0,146.92400000000001,68.096199999999996,-18.894300000000001,109.425,8.7812699999999992,-49.5139,19.407
3481.0,146.32599999999999,62.316299999999998,-19.4922,114.901,10.7425,-46.401200000000003,16.795000000000002
3482.0,145.54900000000001,58.168399999999998,-18.8078,120.852,12.441000000000001,-42.610799999999998,14.063800000000001
3483.0,144.506,53.131100000000004,-19.464300000000001,124.502,13.8932,-38.211500000000001,11.217599999999999
3484.0,143.197,49.776200000000003,-18.9087,128.32300000000001,15.0777,-33.3384,8.3015299999999996
3485.0,126.852,107.65900000000001,3.9519600000000001,26.8628,-36.767699999999998,32.097999999999999,3.6905999999999999
3486.0,125.246,106.232,-0.64350399999999996,23.378799999999998,-36.302799999999998,26.499099999999999,8.0469799999999996
3487.0,125.52500000000001,107.812,-3.0927699999999998,21.409800000000001,-35.6785,21.186499999999999,11.6637
3488.0,126.846,109.453,-6.3868900000000002,18.873699999999999,-34.449100000000001,15.740399999999999,14.784000000000001
3489.0,128.881,113.59699999999999,-7.3117400000000004,19.493099999999998,-33.185000000000002,9.8412299999999995,17.508099999999999
3490.0,130.929,115.953,-9.1012400000000007,19.4544,-31.843499999999999,3.85805,19.771699999999999
3491.0,132.18299999999999,118.13800000000001,-9.4895600000000009,21.185500000000001,-30.235600000000002,-2.3068399999999998,21.594799999999999
3492.0,133.22800000000001,118.65000000000001,-10.5335,22.893899999999999,-28.394200000000001,-8.6429500000000008,23.233799999999999
3493.0,134.09200000000001,118.319,-11.4773,25.4404,-26.317699999999999,-14.688599999999999,24.7471
3494.0,134.715,117.04600000000001,-12.3973,28.8977,-24.048100000000002,-20.5122,26.0473
3495.0,135.292,115.18300000000001,-13.247199999999999,33.161200000000001,-21.5502,-25.9818,27.0654
3496.0,135.697,112.321,-14.2483,37.959400000000002,-18.850899999999999,-30.998000000000001,27.8537
3497.0,136.227,108.643,-15.5541,43.006999999999998,-16.0318,-35.5852,28.324000000000002
3498.0,136.42599999999999,105.51000000000001,-15.829499999999999,49.628599999999999,-13.120100000000001,-39.2759,28.299499999999998
3499.0,136.505,100.746,-16.666,56.239199999999997,-10.2622,-42.544400000000003,27.9694
3500.0,136.87200000000001,93.669200000000004,-19.8932,60.0732,-7.3638700000000004,-45.2318,27.225000000000001
3501.0,136.84299999999999,91.253500000000003,-17.9148,69.274199999999993,-4.4993600000000002,-46.9056,26.226700000000001
3502.0,137.04499999999999,86.362300000000005,-17.852699999999999,76.988200000000006,-1.86371,-48.059399999999997,24.967700000000001
3503.0,137.047,81.257599999999996,-18.133600000000001,83.820300000000003,0.67299399999999998,-48.3245,23.344100000000001
3504.0,136.81399999999999,75.735500000000002,-18.557300000000001,90.409000000000006,3.0816699999999999,-47.641599999999997,21.5274
3505.0,136.62100000000001,71.028700000000001,-18.383600000000001,97.183199999999999,5.2937099999999999,-46.2819,19.477599999999999
3506.0,136.279,65.625299999999996,-18.9831,102.705,7.2982800000000001,-44.1524,17.254300000000001
3507.0,135.86099999999999,61.701000000000001,-18.3703,108.825,9.0704200000000004,-41.398699999999998,14.8809
3508.0,135.24600000000001,56.6389,-19.186699999999998,112.78400000000001,10.614599999999999,-38.006399999999999,12.393599999999999
3509.0,134.386,53.816099999999999,-18.163,117.697,11.925800000000001,-34.076099999999997,9.82376
3510.0,133.232,49.436799999999998,-19.092099999999999,119.67700000000001,12.9945,-29.700500000000002,7.1760599999999997
3511.0,117.55800000000001,100.497,3.0486300000000002,27.622299999999999,-34.326799999999999,29.063600000000001,3.8917799999999998
3512.0,115.57299999999999,98.288600000000002,-1.93815,24.3307,-33.584499999999998,23.622499999999999,8.0970999999999993
3513.0,116.163,100.45699999999999,-4.3562000000000003,24.1129,-32.956299999999999,18.6205,11.298999999999999
3514.0,117.367,104.05200000000001,-5.3921000000000001,25.207699999999999,-31.9343,13.8447,13.847200000000001
3515.0,119.18899999999999,105.20399999999999,-8.3945100000000004,22.670300000000001,-30.797699999999999,8.6210100000000001,16.296500000000002
3516.0,120.917,105.538,-11.3287,19.9788,-29.598800000000001,3.4835699999999998,18.0473
3517.0,121.97,109.342,-9.8848800000000008,23.165199999999999,-27.963200000000001,-2.0778599999999998,19.5871
3518.0,123.239,110.88500000000001,-9.9622299999999999,25.6569,-26.476199999999999,-7.7801299999999998,21.094200000000001
3519.0,123.937,110.643,-10.7828,28.1006,-24.592199999999998,-13.117699999999999,22.3233
3520.0,124.52800000000001,109.58199999999999,-11.5535,31.289100000000001,-22.546800000000001,-18.360099999999999,23.461300000000001
3521.0,124.998,107.956,-12.3566,35.186399999999999,-20.2287,-23.136900000000001,24.327200000000001
3522.0,125.387,105.33199999999999,-13.3011,39.593000000000004,-17.852799999999998,-27.648199999999999,25.006499999999999
3523.0,125.809,101.33499999999999,-15.3736,43.283299999999997,-15.289400000000001,-31.5977,25.268799999999999
3524.0,125.98999999999999,98.959999999999994,-15.1114,49.805300000000003,-12.533799999999999,-34.858699999999999,25.4008
3525.0,126.41200000000001,94.758300000000006,-16.244,55.372,-9.9281400000000009,-37.744500000000002,25.2285
3526.0,126.658,91.086500000000001,-16.760300000000001,61.440899999999999,-7.4229200000000004,-39.925400000000003,24.373000000000001
3527.0,126.705,87.245199999999997,-16.482800000000001,68.221400000000003,-4.8853400000000002,-41.6126,23.378299999999999
3528.0,126.895,83.296199999999999,-16.120699999999999,75.052300000000002,-2.4683899999999999,-42.710099999999997,22.2072
3529.0,126.923,78.386300000000006,-16.7272,80.939099999999996,-0.18432499999999999,-42.906100000000002,20.7423
3530.0,126.871,74.317899999999995,-16.428799999999999,87.554100000000005,2.01877,-42.366100000000003,19.044799999999999
3531.0,126.765,69.366100000000003,-17.099699999999999,92.847499999999997,4.0129400000000004,-41.137300000000003,17.1874
3532.0,126.60599999999999,65.724999999999994,-16.5807,98.920199999999994,5.8321399999999999,-39.284799999999997,15.1533
3533.0,126.339,61.076599999999999,-17.278199999999998,103.227,7.4341499999999998,-36.830100000000002,13.007099999999999
3534.0,125.91,58.1477,-16.514700000000001,108.333,8.82653,-33.826099999999997,10.757099999999999
3535.0,125.23,53.851799999999997,-17.457100000000001,110.92100000000001,10.0023,-30.316099999999999,8.4427000000000003
3536.0,124.23399999999999,51.597000000000001,-16.659600000000001,114.297,10.943899999999999,-26.418900000000001,6.0854999999999997
3537.0,108.557,88.207599999999999,-3.0606100000000001,22.747599999999998,-31.725899999999999,26.339400000000001,3.7940499999999999
3538.0,106.405,91.999300000000005,-2.2581000000000002,26.878599999999999,-30.832899999999999,20.859400000000001,7.6970499999999999
3539.0,107.53700000000001,90.355699999999999,-8.1326599999999996,23.0886,-30.444900000000001,16.100300000000001,11.635899999999999
3540.0,109.429,91.121099999999998,-11.3482,21.208500000000001,-29.701799999999999,12.541600000000001,14.519600000000001
3541.0,110.42400000000001,95.163399999999996,-11.028700000000001,23.190899999999999,-28.494299999999999,8.3403399999999994,15.653499999999999
3542.0,112.014,99.855099999999993,-9.8849800000000005,25.182700000000001,-27.632100000000001,2.7873000000000001,16.420400000000001
3543.0,113.381,102.66200000000001,-9.6826899999999991,26.482299999999999,-26.170999999999999,-1.8103800000000001,17.553699999999999
3544.0,114.05200000000001,102.98399999999999,-10.077199999999999,27.807500000000001,-24.848800000000001,-6.9397799999999998,18.938700000000001
3545.0,114.69499999999999,103.075,-10.5655,29.883299999999998,-23.038900000000002,-11.688499999999999,19.9922
3546.0,115.17,101.97199999999999,-11.4085,32.752600000000001,-21.162199999999999,-16.3873,20.949400000000001
3547.0,115.599,101.03,-11.6668,36.709600000000002,-19.069199999999999,-20.5977,21.682200000000002
3548.0,116.02200000000001,98.098500000000001,-13.2562,40.141100000000002,-16.9313,-24.577000000000002,22.2408
3549.0,116.40300000000001,96.430499999999995,-13.4078,45.3035,-14.5883,-27.920500000000001,22.4331
3550.0,116.503,92.320099999999996,-14.9163,49.4604,-12.219900000000001,-30.915900000000001,22.487200000000001
3551.0,116.90900000000001,87.885199999999998,-16.819099999999999,53.110100000000003,-9.8400300000000005,-33.524299999999997,22.169499999999999
3552.0,117.04000000000001,86.2363,-15.587899999999999,60.0989,-7.4378399999999996,-35.326000000000001,21.591799999999999
3553.0,117.41,83.580600000000004,-14.7471,67.139200000000002,-5.2549900000000003,-36.924100000000003,20.7379
3554.0,117.621,78.722800000000007,-16.121400000000001,71.545500000000004,-3.11138,-37.841799999999999,19.522600000000001
3555.0,117.669,75.831500000000005,-15.1676,78.385999999999996,-1.0126200000000001,-37.986199999999997,18.205200000000001
3556.0,117.795,70.833399999999997,-16.4876,82.756200000000007,0.95300499999999999,-37.561500000000002,16.653700000000001
3557.0,117.78400000000001,68.024600000000007,-15.5824,89.0702,2.7690600000000001,-36.456099999999999,14.947699999999999
3558.0,117.81399999999999,63.206899999999997,-16.847000000000001,92.864099999999993,4.3924500000000002,-34.8553,13.106199999999999
3559.0,117.694,60.872500000000002,-15.794700000000001,98.475200000000001,5.83751,-32.668199999999999,11.1548
3560.0,117.492,56.285499999999999,-17.222000000000001,101.054,7.0757700000000003,-30.028300000000002,9.1389200000000006
3561.0,116.97499999999999,54.845799999999997,-15.7933,105.68000000000001,8.1200200000000002,-26.8979,7.0709099999999996
3562.0,116.221,50.651200000000003,-17.3142,106.547,8.9358900000000006,-23.453600000000002,4.9982699999999998
3563.0,99.994900000000001,83.423500000000004,-3.1916199999999999,25.3626,-29.053799999999999,23.017800000000001,3.3094399999999999
3564.0,98.789299999999997,88.716300000000004,-0.71348699999999998,31.534199999999998,-28.315999999999999,18.585999999999999,7.3918299999999997
3565.0,98.830299999999994,80.462299999999999,-11.623699999999999,21.853100000000001,-28.161899999999999,13.3896,10.5281
3566.0,101.185,70.597899999999996,-25.9682,8.2552500000000002,-27.424499999999998,10.7613,12.155799999999999
3567.0,101.741,85.482900000000001,-13.7636,22.993200000000002,-26.094899999999999,8.1129099999999994,13.637
3568.0,103.89,95.991399999999999,-6.4244599999999998,30.603400000000001,-25.871400000000001,1.9410000000000001,15.339700000000001
3569.0,105.628,92.998199999999997,-12.358599999999999,25.026700000000002,-24.5749,-1.37876,16.134399999999999
3570.0,105.49299999999999,97.483199999999997,-8.0949600000000004,31.458500000000001,-23.193100000000001,-6.0653899999999998,17.023900000000001
3571.0,106.32899999999999,95.611400000000003,-10.8432,31.088000000000001,-21.6784,-10.4689,17.702100000000002
3572.0,106.63500000000001,96.872200000000007,-9.3177699999999994,35.929200000000002,-19.896000000000001,-14.5404,18.532399999999999
3573.0,107.084,93.964100000000002,-11.657500000000001,37.4283,-18.078499999999998,-18.306799999999999,19.150500000000001
3574.0,107.402,93.646600000000007,-10.8649,42.690100000000001,-16.029,-21.750800000000002,19.591799999999999
3575.0,107.72799999999999,90.544399999999996,-12.5082,45.738900000000001,-13.9489,-24.731300000000001,19.803799999999999
3576.0,108.01600000000001,88.526600000000002,-12.588800000000001,50.967100000000002,-11.9025,-27.315000000000001,19.723199999999999
3577.0,108.39,84.684299999999993,-14.383100000000001,54.430399999999999,-9.8653200000000005,-29.496600000000001,19.268999999999998
3578.0,108.51300000000001,82.937200000000004,-13.4398,60.371899999999997,-7.7466799999999996,-31.201899999999998,18.721699999999998
3579.0,108.842,79.389600000000002,-13.9795,65.070499999999996,-5.7216199999999997,-32.598100000000002,18.023299999999999
3580.0,109.14400000000001,76.9833,-13.419700000000001,70.9559,-3.7452999999999999,-33.369,16.9879
3581.0,109.328,72.860500000000002,-14.3513,75.333100000000002,-1.84232,-33.523499999999999,15.7407
3582.0,109.514,70.266900000000007,-13.789400000000001,81.021000000000001,-0.082769499999999996,-33.125900000000001,14.332700000000001
3583.0,109.68899999999999,66.244200000000006,-14.6957,85.036500000000004,1.54589,-32.195500000000003,12.7728
3584.0,109.84099999999999,63.832799999999999,-14.1,90.229100000000003,3.0047999999999999,-30.7746,11.095499999999999
3585.0,109.941,60.098999999999997,-14.9826,93.545299999999997,4.2877000000000001,-28.884599999999999,9.3404399999999992
3586.0,109.902,58.085500000000003,-14.333399999999999,97.860900000000001,5.3856900000000003,-26.5501,7.5219500000000004
3587.0,109.63500000000001,54.569699999999997,-15.373799999999999,99.795400000000001,6.2764600000000002,-23.824999999999999,5.7153200000000002
3588.0,109.014,52.892499999999998,-14.713100000000001,102.57299999999999,6.9653799999999997,-20.780999999999999,3.8988399999999999
3589.0,92.311700000000002,81.094300000000004,-0.76522900000000005,29.030999999999999,-26.563600000000001,20.101299999999998,3.7717399999999999
3590.0,91.395099999999999,79.029300000000006,-5.1509200000000002,28.356100000000001,-25.856999999999999,16.501899999999999,6.8790699999999996
3591.0,91.930599999999998,77.754099999999994,-9.6549700000000005,27.052399999999999,-26.030899999999999,11.5718,8.8969900000000006
3592.0,94.599299999999999,71.210499999999996,-21.234999999999999,17.9497,-25.549499999999998,9.0318900000000006,9.7780699999999996
3593.0,94.861999999999995,82.569599999999994,-11.3935,28.2514,-24.408899999999999,6.7675900000000002,11.523899999999999
3594.0,96.130399999999995,86.102099999999993,-9.5860500000000002,28.688700000000001,-24.2256,1.6008500000000001,13.089399999999999
3595.0,97.6751,84.125299999999996,-14.2004,24.461600000000001,-23.220500000000001,-1.4473400000000001,13.605600000000001
3596.0,97.753799999999998,88.921000000000006,-10.0031,30.8812,-21.682500000000001,-5.2886499999999996,14.702199999999999
3597.0,98.606099999999998,90.597899999999996,-8.9515999999999991,34.266500000000001,-20.468,-9.3838399999999993,15.562900000000001
3598.0,98.966899999999995,89.174300000000002,-10.424799999999999,35.6798,-18.802499999999998,-12.847300000000001,16.1767
3599.0,99.254300000000001,88.929299999999998,-10.036099999999999,39.631999999999998,-17.1297,-16.196999999999999,16.7179
3600.0,99.586799999999997,86.747299999999996,-11.389099999999999,42.222499999999997,-15.3012,-19.1769,17.011600000000001
3601.0,99.862700000000004,85.495699999999999,-11.3071,46.583300000000001,-13.4964,-21.818100000000001,17.125800000000002
3602.0,100.215,83.156700000000001,-12.1136,50.289900000000003,-11.5852,-24.084800000000001,17.0763
3603.0,100.498,81.573700000000002,-11.7654,55.228400000000001,-9.6840299999999999,-25.957100000000001,16.831600000000002
3604.0,100.834,78.475499999999997,-12.7239,58.978900000000003,-7.8811999999999998,-27.501000000000001,16.256499999999999
3605.0,101.123,76.198300000000003,-12.5756,63.864100000000001,-6.1075799999999996,-28.634599999999999,15.4511
3606.0,101.432,73.001000000000005,-13.2064,68.013199999999998,-4.3609,-29.2866,14.510400000000001
3607.0,101.748,70.573099999999997,-13.031599999999999,72.970299999999995,-2.66682,-29.434899999999999,13.368600000000001
3608.0,102.023,67.299499999999995,-13.6638,76.970200000000006,-1.08578,-29.078099999999999,12.0701
3609.0,102.351,64.821399999999997,-13.5664,81.539000000000001,0.35640899999999998,-28.290199999999999,10.6425
3610.0,102.652,61.769300000000001,-14.1448,85.157200000000003,1.6520600000000001,-27.048300000000001,9.1119599999999998
3611.0,102.967,59.384399999999999,-14.1797,89.016900000000007,2.7739099999999999,-25.428899999999999,7.51898
3612.0,103.12,56.732700000000001,-14.6402,91.932900000000004,3.71732,-23.395600000000002,5.9078600000000003
3613.0,103.12,54.657699999999998,-14.6007,94.798500000000004,4.46035,-21.053599999999999,4.3250400000000004
3614.0,102.652,52.755200000000002,-14.4346,96.850899999999996,4.9992900000000002,-18.409400000000002,2.8309899999999999
3615.0,85.001300000000001,72.502399999999994,-4.5580100000000003,25.5472,-23.948499999999999,17.763100000000001,3.3342499999999999
3616.0,84.472700000000003,72.934299999999993,-6.5244499999999999,28.2576,-23.537400000000002,14.332100000000001,5.7045399999999997
3617.0,85.810000000000002,76.307900000000004,-6.4300300000000004,30.954499999999999,-23.7437,10.528600000000001,7.9469399999999997
3618.0,87.552000000000007,77.922799999999995,-7.9275200000000003,30.9678,-23.491700000000002,8.1964299999999994,9.3859600000000007
3619.0,88.475700000000003,80.012200000000007,-8.0071600000000007,31.4422,-23.066800000000001,5.3197200000000002,10.2546
3620.0,89.609700000000004,81.511499999999998,-8.7165400000000002,31.006599999999999,-22.5825,1.7095400000000001,10.8985
3621.0,90.716999999999999,83.027600000000007,-9.0587900000000001,31.799399999999999,-21.8446,-1.5390900000000001,11.6059
3622.0,91.151200000000003,84.089299999999994,-8.9292499999999997,33.4176,-20.4938,-4.7930599999999997,12.5562
3623.0,91.4923,84.910600000000002,-8.2331099999999999,35.962000000000003,-19.262,-8.2768499999999996,13.4137
3624.0,91.989599999999996,84.333299999999994,-9.0406200000000005,37.872799999999998,-17.8445,-11.3338,13.9329
3625.0,92.216899999999995,83.5197,-9.3590800000000005,40.828800000000001,-16.2653,-14.2263,14.3668
3626.0,92.569500000000005,82.422499999999999,-9.7857800000000008,43.905099999999997,-14.693199999999999,-16.805099999999999,14.6045
3627.0,92.860399999999998,80.925399999999996,-10.2201,47.307400000000001,-13.030900000000001,-19.099900000000002,14.670400000000001
3628.0,93.151399999999995,79.145300000000006,-10.6533,50.807400000000001,-11.3933,-21.094799999999999,14.499000000000001
3629.0,93.405199999999994,77.068299999999994,-11.076000000000001,54.440199999999997,-9.7729800000000004,-22.7348,14.1478
3630.0,93.781099999999995,75.447500000000005,-10.929600000000001,58.766800000000003,-8.1637000000000004,-24.0519,13.6755
3631.0,94.167900000000003,73.100300000000004,-11.351100000000001,62.651000000000003,-6.5362999999999998,-24.9907,13.0007
3632.0,94.539599999999993,71.173500000000004,-11.202500000000001,67.101100000000002,-4.9720199999999997,-25.535900000000002,12.1159
3633.0,94.909700000000001,68.439800000000005,-11.800700000000001,70.773099999999999,-3.4761199999999999,-25.647200000000002,11.061299999999999
3634.0,95.3202,66.4923,-11.6189,75.143900000000002,-2.0790700000000002,-25.357800000000001,9.8644599999999993
3635.0,95.758200000000002,63.738799999999998,-12.3003,78.505700000000004,-0.79910400000000004,-24.670200000000001,8.5443200000000008
3636.0,96.255799999999994,61.936799999999998,-12.1212,82.546700000000001,0.33212700000000001,-23.635100000000001,7.1486999999999998
3637.0,96.731200000000001,59.331499999999998,-12.841900000000001,85.391199999999998,1.30596,-22.2516,5.7007300000000001
3638.0,97.140600000000006,57.7517,-12.585100000000001,88.831599999999995,2.08372,-20.5657,4.2877200000000002
3639.0,97.279499999999999,55.156100000000002,-13.329800000000001,90.644099999999995,2.6698599999999999,-18.582899999999999,2.9323700000000001
3640.0,97.071299999999994,53.6389,-12.825200000000001,92.989800000000002,3.0407099999999998,-16.374700000000001,1.7624500000000001
3641.0,78.746899999999997,68.428399999999996,-5.0800700000000001,27.093599999999999,-21.567699999999999,15.4229,2.4751699999999999
3642.0,78.716800000000006,69.467299999999994,-6.0882399999999999,29.935600000000001,-21.486799999999999,12.3673,4.7570399999999999
3643.0,79.584800000000001,71.734200000000001,-6.2679900000000002,31.066600000000001,-21.552099999999999,9.2571899999999996,6.2488799999999998
3644.0,80.613900000000001,71.731200000000001,-8.3027599999999993,29.793600000000001,-21.5412,7.0015499999999999,7.1111300000000002
3645.0,82.049000000000007,75.212900000000005,-7.1004899999999997,31.9344,-21.5473,4.2760499999999997,8.1283300000000001
3646.0,83.419300000000007,76.857900000000001,-7.74437,32.236499999999999,-21.031400000000001,1.50715,9.1553400000000007
3647.0,84.130099999999999,79.091800000000006,-6.7791499999999996,34.363599999999998,-20.256,-1.4756100000000001,10.1135
3648.0,84.8416,78.791700000000006,-8.1814300000000006,34.724600000000002,-19.3325,-4.4074900000000001,10.724
3649.0,85.193100000000001,79.192499999999995,-8.2126599999999996,36.863500000000002,-18.144400000000001,-7.2872700000000004,11.2438
3650.0,85.577699999999993,78.581900000000005,-8.8844200000000004,38.701000000000001,-16.917300000000001,-9.9668600000000005,11.7521
3651.0,85.915000000000006,78.300200000000004,-8.94285,41.614800000000002,-15.5342,-12.422499999999999,12.0814
3652.0,86.208699999999993,76.946200000000005,-9.7070900000000009,43.998600000000003,-14.130000000000001,-14.645799999999999,12.249700000000001
3653.0,86.518100000000004,76.248900000000006,-9.5682399999999994,47.492800000000003,-12.689500000000001,-16.6191,12.247400000000001
3654.0,86.828699999999998,74.742800000000003,-9.9799799999999994,50.575699999999998,-11.239800000000001,-18.316299999999998,12.1005
3655.0,87.170199999999994,73.637200000000007,-9.8085599999999999,54.376300000000001,-9.7909199999999998,-19.725000000000001,11.788399999999999
3656.0,87.516800000000003,71.388999999999996,-10.585100000000001,57.299199999999999,-8.3669100000000007,-20.847000000000001,11.2858
3657.0,87.895099999999999,70.133600000000001,-10.250999999999999,61.406300000000002,-6.96774,-21.645099999999999,10.615399999999999
3658.0,88.3095,67.623199999999997,-11.097200000000001,64.383300000000006,-5.59253,-22.098299999999998,9.7872500000000002
3659.0,88.753299999999996,66.372900000000001,-10.6562,68.635000000000005,-4.2781900000000004,-22.186900000000001,8.8055099999999999
3660.0,89.262699999999995,63.643999999999998,-11.7179,71.337599999999995,-3.0513699999999999,-21.940999999999999,7.6867299999999998
3661.0,89.840900000000005,62.4953,-11.273400000000001,75.451300000000003,-1.93815,-21.364899999999999,6.4630599999999996
3662.0,90.508899999999997,59.6678,-12.579599999999999,77.688900000000004,-0.96474099999999996,-20.514600000000002,5.1669799999999997
3663.0,91.188400000000001,58.781199999999998,-11.998100000000001,81.575100000000006,-0.16228300000000001,-19.3887,3.8679800000000002
3664.0,91.814700000000002,55.8855,-13.359299999999999,83.200800000000001,0.45091199999999998,-18.038900000000002,2.6266099999999999
3665.0,92.155100000000004,55.638800000000003,-11.9206,87.043700000000001,0.85802400000000001,-16.440300000000001,1.5555699999999999
3666.0,92.084299999999999,52.712699999999998,-12.738300000000001,87.938000000000002,1.0726100000000001,-14.6564,0.69684800000000002
3667.0,73.636300000000006,68.002399999999994,-2.2022300000000001,31.920000000000002,-19.6525,13.508100000000001,2.50068
3668.0,73.575400000000002,67.183599999999998,-4.5346000000000002,32.169699999999999,-19.7746,10.5913,3.8887900000000002
3669.0,74.418599999999998,68.184299999999993,-5.5584100000000003,32.397399999999998,-19.889099999999999,8.1612899999999993,4.8962199999999996
3670.0,75.470200000000006,70.933300000000003,-4.61463,34.229700000000001,-20.084399999999999,5.9199000000000002,5.73611
3671.0,76.615899999999996,71.515799999999999,-6.0270400000000004,33.540599999999998,-19.9421,3.56087,6.5472599999999996
3672.0,77.642300000000006,73.348500000000001,-5.94747,34.572899999999997,-19.5776,1.05671,7.2683900000000001
3673.0,78.395200000000003,73.554500000000004,-7.0198400000000003,34.839599999999997,-18.9575,-1.52511,7.9379600000000003
3674.0,79.044600000000003,74.781400000000005,-6.6602899999999998,36.990400000000001,-18.187200000000001,-4.0156799999999997,8.6448400000000003
3675.0,79.567800000000005,74.5047,-7.5009399999999999,38.3339,-17.172499999999999,-6.43255,9.2227099999999993
3676.0,79.910600000000002,74.640000000000001,-7.4691599999999996,40.7727,-16.059200000000001,-8.6972100000000001,9.6089099999999998
3677.0,80.254499999999993,73.676900000000003,-8.2832399999999993,42.601500000000001,-14.883800000000001,-10.773999999999999,9.8616799999999998
3678.0,80.569900000000004,73.490499999999997,-8.0463500000000003,45.6646,-13.6562,-12.6508,9.9699799999999996
3679.0,80.883499999999998,72.111199999999997,-8.7698400000000003,47.881500000000003,-12.41,-14.321300000000001,9.9285300000000003
3680.0,81.188900000000004,71.344499999999996,-8.6604200000000002,51.037599999999998,-11.150600000000001,-15.768700000000001,9.7327899999999996
3681.0,81.511700000000005,69.851100000000002,-9.1048799999999996,53.733699999999999,-9.9001999999999999,-16.9709,9.3955699999999993
3682.0,81.889499999999998,69.206100000000006,-8.6053599999999992,57.499000000000002,-8.6555700000000009,-17.902100000000001,8.9248100000000008
3683.0,82.308400000000006,67.253399999999999,-9.3327799999999996,60.115400000000001,-7.4241200000000003,-18.5564,8.2980400000000003
3684.0,82.761300000000006,66.447900000000004,-8.85684,63.964599999999997,-6.2270099999999999,-18.918800000000001,7.5141999999999998
3685.0,83.277199999999993,64.222099999999998,-9.8019999999999996,66.402100000000004,-5.0842599999999996,-18.988499999999998,6.5868000000000002
3686.0,83.881,63.436199999999999,-9.3584300000000002,70.209800000000001,-4.0186999999999999,-18.776599999999998,5.5336699999999999
3687.0,84.600800000000007,61.116599999999998,-10.523400000000001,72.365300000000005,-3.06088,-18.32,4.3831199999999999
3688.0,85.421800000000005,60.490499999999997,-10.036199999999999,76.073599999999999,-2.2417699999999998,-17.6584,3.1878600000000001
3689.0,86.293400000000005,58.129899999999999,-11.231999999999999,77.934200000000004,-1.5985400000000001,-16.829000000000001,2.0241899999999999
3690.0,87.058999999999997,57.701999999999998,-10.2684,81.633700000000005,-1.15456,-15.842599999999999,0.99386200000000002
3691.0,87.530299999999997,54.939599999999999,-11.2225,82.924599999999998,-0.92006299999999996,-14.6828,0.20749600000000001
3692.0,87.452699999999993,54.604700000000001,-9.1301100000000002,86.504800000000003,-0.86059200000000002,-13.325200000000001,-0.24504699999999999
3693.0,68.884900000000002,61.600700000000003,-5.1317000000000004,30.142700000000001,-17.909199999999998,11.9414,1.9643999999999999
3694.0,69.090599999999995,64.782200000000003,-3.5285199999999999,33.940199999999997,-18.2318,8.9596800000000005,2.8722400000000001
3695.0,69.914100000000005,63.1038,-6.7090199999999998,31.751899999999999,-18.525099999999998,7.11158,3.5918299999999999
3696.0,70.459900000000005,65.258700000000005,-5.7993100000000002,33.329999999999998,-18.5776,4.9160899999999996,4.3522999999999996
3697.0,71.719300000000004,66.515699999999995,-6.5496699999999999,33.544899999999998,-18.503299999999999,2.92198,4.9773899999999998
3698.0,72.674800000000005,68.773099999999999,-5.7728400000000004,35.566400000000002,-18.258800000000001,0.69741299999999995,5.6465800000000002
3699.0,73.472499999999997,69.229200000000006,-6.5280699999999996,36.133600000000001,-17.760899999999999,-1.48431,6.2715500000000004
3700.0,73.973299999999995,69.794799999999995,-6.6467799999999997,37.757100000000001,-17.064299999999999,-3.64575,6.77921
3701.0,74.438900000000004,69.529200000000003,-7.3693099999999996,39.000599999999999,-16.2468,-5.6804199999999998,7.1808800000000002
3702.0,74.798500000000004,69.494299999999996,-7.5378299999999996,41.093800000000002,-15.2957,-7.5646500000000003,7.4938700000000003
3703.0,75.147800000000004,69.137100000000004,-7.8209400000000002,43.161299999999997,-14.292199999999999,-9.3026900000000001,7.67103
3704.0,75.453900000000004,68.540499999999994,-8.0926500000000008,45.377000000000002,-13.2469,-10.861700000000001,7.7207999999999997
3705.0,75.778700000000001,68.156800000000004,-7.9883899999999999,48.041600000000003,-12.18,-12.260899999999999,7.6446899999999998
3706.0,76.099599999999995,67.498999999999995,-7.9812799999999999,50.721499999999999,-11.101800000000001,-13.450900000000001,7.4439700000000002
3707.0,76.4542,66.668899999999994,-8.0304500000000001,53.418900000000001,-10.021599999999999,-14.4513,7.1095300000000003
3708.0,76.819599999999994,65.313400000000001,-8.4891199999999998,55.782699999999998,-8.9481300000000008,-15.2174,6.6352599999999997
3709.0,77.243799999999993,64.644999999999996,-8.2161200000000001,58.942599999999999,-7.8921299999999999,-15.758599999999999,6.0267799999999996
3710.0,77.729100000000003,63.022100000000002,-8.8936700000000002,61.217199999999998,-6.8613400000000002,-16.0381,5.2782400000000003
3711.0,78.312100000000001,62.3643,-8.64696,64.446200000000005,-5.8777400000000002,-16.087700000000002,4.3939399999999997
3712.0,79.013499999999993,60.541899999999998,-9.6452500000000008,66.4465,-4.9668200000000002,-15.908099999999999,3.3854000000000002
3713.0,79.869,59.946800000000003,-9.4839599999999997,69.5959,-4.1646799999999997,-15.573,2.2940999999999998
3714.0,80.856200000000001,58.023099999999999,-10.6601,71.360600000000005,-3.5097900000000002,-15.1134,1.1812800000000001
3715.0,81.900599999999997,57.576300000000003,-10.1686,74.675600000000003,-3.04291,-14.602499999999999,0.164109
3716.0,82.812700000000007,55.596299999999999,-10.811500000000001,76.593100000000007,-2.7811300000000001,-14.0037,-0.63260400000000006
3717.0,83.353399999999993,55.6083,-8.7307900000000007,80.773600000000002,-2.7148699999999999,-13.2966,-1.0574600000000001
3718.0,83.218400000000003,53.573599999999999,-7.8018900000000002,83.016599999999997,-2.7848899999999999,-12.3545,-1.03315
3719.0,65.137500000000003,59.785200000000003,-4.5861900000000002,32.2181,-16.341899999999999,10.1639,0.95135199999999998
3720.0,65.386300000000006,62.336199999999998,-2.9271400000000001,35.537799999999997,-16.940000000000001,7.6563999999999997,1.83535
3721.0,66.0578,60.309600000000003,-6.0514999999999999,33.603099999999998,-17.313500000000001,5.8906900000000002,2.2723
3722.0,66.724699999999999,64.477999999999994,-3.1652900000000002,37.6858,-17.327999999999999,3.9418000000000002,2.8092600000000001
3723.0,67.681600000000003,63.022300000000001,-6.0994099999999998,35.336399999999998,-17.319199999999999,2.2584200000000001,3.4160499999999998
3724.0,68.338999999999999,65.705600000000004,-4.5136900000000004,37.714799999999997,-17.059000000000001,0.38351600000000002,3.9998999999999998
3725.0,69.000900000000001,65.018299999999996,-6.1884399999999999,37.1997,-16.6524,-1.5157700000000001,4.4321099999999998
3726.0,69.509200000000007,66.698700000000002,-5.0976900000000001,39.960500000000003,-16.100100000000001,-3.3057699999999999,4.8702899999999998
3727.0,69.937299999999993,65.620000000000005,-6.5489100000000002,40.352899999999998,-15.4057,-4.9934799999999999,5.2005699999999999
3728.0,70.287999999999997,66.553899999999999,-5.7466699999999999,43.173499999999997,-14.6128,-6.5363300000000004,5.4168900000000004
3729.0,70.623800000000003,65.297799999999995,-6.9561000000000002,44.028599999999997,-13.780099999999999,-7.9623799999999996,5.5263600000000004
3730.0,70.9298,66.015199999999993,-6.0118400000000003,47.132300000000001,-12.9008,-9.2336100000000005,5.5252499999999998
3731.0,71.243099999999998,64.571799999999996,-7.0869799999999996,48.2498,-12.010400000000001,-10.3786,5.4129699999999996
3732.0,71.551000000000002,64.721299999999999,-6.4354300000000002,51.176200000000001,-11.096399999999999,-11.351800000000001,5.1845800000000004
3733.0,71.903499999999994,63.534300000000002,-7.0419799999999997,52.917999999999999,-10.1858,-12.163600000000001,4.8490000000000002
3734.0,72.294200000000004,63.882399999999997,-6.0618699999999999,56.3431,-9.2736499999999999,-12.766,4.3905700000000003
3735.0,72.753900000000002,62.131999999999998,-7.1665200000000002,57.746499999999997,-8.3781599999999994,-13.184900000000001,3.8041
3736.0,73.279499999999999,62.402099999999997,-6.2734399999999999,61.203400000000002,-7.5017399999999999,-13.3813,3.07802
3737.0,73.9345,60.410800000000002,-7.7149700000000001,62.373100000000001,-6.67042,-13.4084,2.22201
3738.0,74.725300000000004,60.767499999999998,-6.9031000000000002,65.8202,-5.9047700000000001,-13.264900000000001,1.24546
3739.0,75.705600000000004,58.606499999999997,-8.6532300000000006,66.727199999999996,-5.2483300000000002,-13.071199999999999,0.206923
3740.0,76.799899999999994,59.224699999999999,-7.5314699999999997,70.465000000000003,-4.7401299999999997,-12.8552,-0.80771300000000001
3741.0,77.938900000000004,56.814999999999998,-9.0492799999999995,71.506399999999999,-4.4220499999999996,-12.729699999999999,-1.64222
3742.0,78.834900000000005,57.703400000000002,-6.5630499999999996,76.289299999999997,-4.3076400000000001,-12.5908,-2.1322299999999998
3743.0,79.276799999999994,54.383400000000002,-7.1724399999999999,77.567999999999998,-4.36395,-12.3902,-2.1074099999999998
3744.0,78.923199999999994,55.601100000000002,-2.1051299999999999,83.693299999999994,-4.5149900000000001,-11.8401,-1.5154300000000001
3745.0,62.320700000000002,57.9129,-4.4553399999999996,33.252699999999997,-15.326599999999999,8.5484100000000005,0.072495100000000007
3746.0,61.819400000000002,57.619500000000002,-4.3686699999999998,34.719299999999997,-15.723800000000001,6.6236300000000004,0.54362600000000005
3747.0,62.338700000000003,56.857199999999999,-6.0488200000000001,34.333100000000002,-16.0229,4.6059400000000004,1.24733
3748.0,63.259,56.644199999999998,-7.43649,34.136200000000002,-16.215699999999998,3.25698,1.8628
3749.0,63.819600000000001,58.914099999999998,-6.1149399999999998,36.152999999999999,-16.166399999999999,1.79528,2.0421900000000002
3750.0,64.460800000000006,60.5657,-5.53803,37.378100000000003,-15.9634,-0.0142101,2.3180900000000002
3751.0,65.064599999999999,61.491599999999998,-5.4512900000000002,38.475999999999999,-15.647600000000001,-1.4989300000000001,2.6947299999999998
3752.0,65.436199999999999,61.431800000000003,-5.8574900000000003,39.540100000000002,-15.200900000000001,-3.0361500000000001,3.0012500000000002
3753.0,65.808499999999995,61.778300000000002,-5.8138100000000001,41.180100000000003,-14.615399999999999,-4.4006299999999996,3.22098
3754.0,66.141599999999997,61.401000000000003,-6.2668600000000003,42.517699999999998,-13.9895,-5.6536400000000002,3.3654099999999998
3755.0,66.457999999999998,61.730400000000003,-5.9187399999999997,44.6419,-13.299899999999999,-6.79847,3.41344
3756.0,66.747900000000001,61.131599999999999,-6.33582,46.064300000000003,-12.5905,-7.8159700000000001,3.3725399999999999
3757.0,67.047600000000003,61.5199,-5.68703,48.573099999999997,-11.847799999999999,-8.7279999999999998,3.23813
3758.0,67.362799999999993,61.144799999999996,-5.7118799999999998,50.489699999999999,-11.0962,-9.4920799999999996,3.00482
3759.0,67.714399999999998,60.885599999999997,-5.5724999999999998,52.617800000000003,-10.3361,-10.1312,2.66038
3760.0,68.110500000000002,59.905900000000003,-6.1247499999999997,54.136600000000001,-9.5807400000000005,-10.5943,2.2043499999999998
3761.0,68.585499999999996,59.953099999999999,-5.6734299999999998,56.724200000000003,-8.8325700000000005,-10.9024,1.6297600000000001
3762.0,69.156099999999995,58.797600000000003,-6.4910300000000003,58.113300000000002,-8.1047100000000007,-11.0238,0.92013400000000001
3763.0,69.871200000000002,58.8005,-6.2487300000000001,60.610100000000003,-7.4127099999999997,-11.0261,0.077660400000000004
3764.0,70.761799999999994,57.555,-7.3725699999999996,61.785499999999999,-6.7913899999999998,-10.929600000000001,-0.88029599999999997
3765.0,71.849599999999995,57.592399999999998,-7.2111999999999998,64.280799999999999,-6.2834899999999996,-10.8887,-1.87591
3766.0,73.067700000000002,56.3752,-8.1257900000000003,65.713700000000003,-5.93994,-10.9506,-2.7912599999999999
3767.0,74.278700000000001,56.508000000000003,-7.0616300000000001,69.130899999999997,-5.7922000000000002,-11.2393,-3.4084500000000002
3768.0,75.1952,55.367899999999999,-6.3029200000000003,72.068299999999994,-5.8390399999999998,-11.5848,-3.5251000000000001
3769.0,75.5471,55.847200000000001,-2.4043000000000001,77.785700000000006,-6.0022599999999997,-11.848800000000001,-2.9218600000000001
3770.0,74.949600000000004,54.726199999999999,1.3157799999999999,82.344499999999996,-6.1530899999999997,-11.6241,-1.62792
3771.0,59.284999999999997,55.858899999999998,-3.6874699999999998,34.246299999999998,-14.420999999999999,7.3593000000000002,-0.89685400000000004
3772.0,58.731499999999997,57.097900000000003,-2.0254599999999998,37.778799999999997,-14.5093,5.47471,-0.66342100000000004
3773.0,59.027099999999997,53.582700000000003,-6.04155,34.884900000000002,-14.8278,3.4008500000000002,-0.18252299999999999
3774.0,59.776600000000002,52.619599999999998,-7.8970799999999999,33.892800000000001,-15.0189,2.3704800000000001,0.0432986
3775.0,60.3752,55.113199999999999,-6.1044099999999997,36.783000000000001,-15.035,1.32494,0.30893100000000001
3776.0,61.116599999999998,59.282899999999998,-2.9245800000000002,40.646000000000001,-15.005699999999999,-0.421514,0.69509399999999999
3777.0,61.607100000000003,57.672400000000003,-5.2026000000000003,39.1282,-14.7773,-1.48594,0.91584200000000004
3778.0,61.875700000000002,59.864600000000003,-3.1715599999999999,42.528399999999998,-14.3735,-2.7988300000000002,1.15673
3779.0,62.2834,58.337299999999999,-5.00014,42.089799999999997,-13.943300000000001,-3.8470499999999999,1.2959400000000001
3780.0,62.545299999999997,59.846800000000002,-3.47187,45.163800000000002,-13.427099999999999,-4.8406200000000004,1.3700300000000001
3781.0,62.8645,58.489899999999999,-4.8434100000000004,45.267000000000003,-12.9026,-5.7265600000000001,1.36995
3782.0,63.105800000000002,59.812800000000003,-3.34619,48.2971,-12.3286,-6.5067000000000004,1.28973
3783.0,63.380400000000002,58.4343,-4.5436300000000003,48.602800000000002,-11.740600000000001,-7.2118900000000004,1.1268400000000001
3784.0,63.656399999999998,59.141199999999998,-3.5789800000000001,51.155999999999999,-11.1228,-7.7882899999999999,0.86942200000000003
3785.0,64.027799999999999,58.356900000000003,-4.1508599999999998,52.249600000000001,-10.5053,-8.2637099999999997,0.52985599999999999
3786.0,64.456699999999998,59.357599999999998,-2.9417200000000001,55.220599999999997,-9.8892100000000003,-8.5764200000000006,0.0766294
3787.0,64.984899999999996,57.900799999999997,-4.24939,55.729999999999997,-9.2885799999999996,-8.77576,-0.49120399999999997
3788.0,65.602800000000002,58.853700000000003,-3.2273399999999999,58.6175,-8.6987199999999998,-8.8119700000000005,-1.20096
3789.0,66.393900000000002,57.208799999999997,-4.9298200000000003,58.8294,-8.1429100000000005,-8.7986400000000007,-2.03647
3790.0,67.342799999999997,58.316200000000002,-3.9704000000000002,61.709499999999998,-7.6507199999999997,-8.7626000000000008,-2.9784899999999999
3791.0,68.4846,56.528199999999998,-5.8280200000000004,61.827199999999998,-7.2646899999999999,-8.9299400000000002,-3.9064999999999999
3792.0,69.649000000000001,58.009300000000003,-4.0178399999999996,65.590000000000003,-7.0323599999999997,-9.3522499999999997,-4.6611599999999997
3793.0,70.739800000000002,55.881300000000003,-4.8721100000000002,66.802700000000002,-6.9650699999999999,-10.178699999999999,-4.9668099999999997
3794.0,71.382099999999994,57.6708,-0.38769700000000001,73.1815,-7.0687800000000003,-11.122299999999999,-4.5641299999999996
3795.0,71.507999999999996,54.250300000000003,0.74999499999999997,76.016300000000001,-7.2237,-11.8927,-3.26688
3796.0,70.663300000000007,56.701900000000002,9.2319800000000001,85.072900000000004,-7.3557399999999999,-11.8581,-1.1644399999999999
3797.0,55.922199999999997,53.7956,-2.65761,35.2087,-13.1713,6.0547599999999999,-2.1384099999999999
3798.0,55.753799999999998,51.862000000000002,-4.3629899999999999,35.393300000000004,-13.3611,4.34476,-1.80586
3799.0,56.192700000000002,51.540300000000002,-4.9762599999999999,36.360799999999998,-13.697800000000001,2.524,-1.7295499999999999
3800.0,57.035299999999999,50.039400000000001,-7.2794100000000004,35.214300000000001,-13.920199999999999,1.50221,-1.7766599999999999
3801.0,57.449399999999997,52.762099999999997,-4.9492200000000004,38.216700000000003,-14.0342,0.58701099999999995,-1.3892800000000001
3802.0,57.884700000000002,53.524299999999997,-4.73841,38.794199999999996,-14.063499999999999,-0.63255300000000003,-0.964611
3803.0,58.327100000000002,54.735799999999998,-3.9821200000000001,40.3566,-13.931100000000001,-1.58819,-0.82055199999999995
3804.0,58.6188,54.303800000000003,-4.61069,40.890700000000002,-13.591699999999999,-2.58202,-0.67149000000000003
3805.0,58.932200000000002,55.113399999999999,-3.8986100000000001,42.797600000000003,-13.2895,-3.4043700000000001,-0.60130799999999995
3806.0,59.2211,54.555199999999999,-4.4820599999999997,43.507899999999999,-12.8987,-4.1533899999999999,-0.58425099999999996
3807.0,59.482599999999998,55.428199999999997,-3.54514,45.668599999999998,-12.5176,-4.8096699999999997,-0.62023600000000001
3808.0,59.706000000000003,54.824800000000003,-4.0193599999999998,46.415799999999997,-12.0791,-5.3852399999999996,-0.72085200000000005
3809.0,59.930300000000003,55.865600000000001,-2.8230900000000001,48.830100000000002,-11.614599999999999,-5.8769099999999996,-0.88903799999999999
3810.0,60.206499999999998,55.729700000000001,-2.8348399999999998,50.100999999999999,-11.115500000000001,-6.2806199999999999,-1.15154
3811.0,60.568800000000003,55.929200000000002,-2.5535899999999998,51.732599999999998,-10.624000000000001,-6.5989199999999997,-1.51847
3812.0,61.027200000000001,55.151400000000002,-3.3032400000000002,52.420200000000001,-10.145899999999999,-6.8068900000000001,-1.9792000000000001
3813.0,61.581000000000003,55.817599999999999,-2.6841499999999998,54.537399999999998,-9.6773000000000007,-6.8917799999999998,-2.5544500000000001
3814.0,62.250300000000003,54.890099999999997,-3.7634500000000002,54.988399999999999,-9.2241700000000009,-6.8782300000000003,-3.26085
3815.0,63.079700000000003,55.555100000000003,-3.39174,56.906500000000001,-8.79298,-6.8356199999999996,-4.1113799999999996
3816.0,64.100899999999996,54.639899999999997,-4.67415,57.195,-8.4363700000000001,-6.9110500000000004,-5.0293999999999999
3817.0,65.262900000000002,55.541899999999998,-3.9933800000000002,59.4818,-8.1857000000000006,-7.2821400000000001,-5.9050099999999999
3818.0,66.440600000000003,54.800199999999997,-4.3577300000000001,60.849800000000002,-8.0957399999999993,-8.1320700000000006,-6.4601199999999999
3819.0,67.439099999999996,56.133099999999999,-1.4611400000000001,65.6584,-8.1491699999999998,-9.4618900000000004,-6.4237599999999997
3820.0,68.091700000000003,55.506,1.2776799999999999,70.511099999999999,-8.3181799999999999,-10.988099999999999,-5.3887299999999998
3821.0,68.207999999999998,57.649799999999999,8.7226999999999997,79.825199999999995,-8.4575300000000002,-12.035299999999999,-3.2969499999999998
3822.0,67.502399999999994,56.637300000000003,14.588200000000001,86.570800000000006,-8.3811099999999996,-11.8728,-0.212259
3823.0,53.531300000000002,53.9786,-0.050581800000000003,38.6995,-12.1569,4.7156700000000003,-3.0783200000000002
3824.0,53.504600000000003,50.444000000000003,-3.2381500000000001,37.143599999999999,-12.376099999999999,3.1571099999999999,-3.09104
3825.0,53.951799999999999,51.0321,-2.76797,39.2254,-12.621700000000001,1.75047,-2.88896
3826.0,54.632100000000001,51.9358,-2.2089400000000001,40.8264,-12.994199999999999,0.875116,-2.7245699999999999
3827.0,55.103700000000003,51.563899999999997,-2.90015,40.685099999999998,-13.193199999999999,-0.032705400000000003,-2.7118000000000002
3828.0,55.485500000000002,52.174199999999999,-2.6513300000000002,41.372900000000001,-13.2281,-0.84870699999999999,-2.6590199999999999
3829.0,55.831499999999998,52.591000000000001,-2.4359000000000002,42.385399999999997,-13.158099999999999,-1.66221,-2.51187
3830.0,56.192900000000002,53.116999999999997,-2.1085600000000002,43.6999,-12.968999999999999,-2.3404799999999999,-2.4592700000000001
3831.0,56.465400000000002,53.001600000000003,-2.2270500000000002,44.631700000000002,-12.7356,-2.9354100000000001,-2.44354
3832.0,56.757899999999999,53.579799999999999,-1.6644099999999999,46.203499999999998,-12.500299999999999,-3.4378099999999998,-2.47634
3833.0,56.984999999999999,53.357500000000002,-1.79538,47.051200000000001,-12.2356,-3.86747,-2.5490599999999999
3834.0,57.178600000000003,54.105699999999999,-0.92617000000000005,48.831299999999999,-11.9473,-4.2281199999999997,-2.67578
3835.0,57.351999999999997,53.686999999999998,-1.2125300000000001,49.465600000000002,-11.592599999999999,-4.5103799999999996,-2.8883999999999999
3836.0,57.611499999999999,53.905999999999999,-0.96605399999999997,50.671399999999998,-11.2141,-4.74613,-3.1798999999999999
3837.0,57.976300000000002,54.388800000000003,-0.55513299999999999,52.135800000000003,-10.8192,-4.9037300000000004,-3.5506099999999998
3838.0,58.500799999999998,55.075400000000002,-0.069631299999999993,53.777099999999997,-10.4557,-4.9977299999999998,-4.0156999999999998
3839.0,59.115600000000001,54.753,-0.65271199999999996,54.388399999999997,-10.1251,-4.9714900000000002,-4.5906900000000004
3840.0,59.834800000000001,55.267400000000002,-0.50857799999999997,55.717199999999998,-9.7934800000000006,-4.8927100000000001,-5.30396
3841.0,60.691299999999998,55.014200000000002,-1.2623200000000001,56.1175,-9.4786300000000008,-4.8405500000000004,-6.1440999999999999
3842.0,61.673900000000003,55.536900000000003,-1.23932,57.268900000000002,-9.2075899999999997,-5.0534100000000004,-7.0200500000000003
3843.0,62.648800000000001,55.629800000000003,-1.32839,58.284799999999997,-9.0213000000000001,-5.7329999999999997,-7.73752
3844.0,63.438499999999998,56.221400000000003,0.037948900000000001,60.885199999999998,-8.9283099999999997,-7.1511899999999997,-7.9899399999999998
3845.0,63.906599999999997,56.631799999999998,2.8213200000000001,65.126000000000005,-8.9330599999999993,-9.2226700000000008,-7.40909
3846.0,64.219800000000006,56.785699999999999,7.63781,71.868700000000004,-8.9990400000000008,-11.572100000000001,-5.6330099999999996
3847.0,64.389600000000002,56.8172,14.1508,80.156199999999998,-9.1263699999999996,-13.0967,-2.62452
3848.0,64.340599999999995,56.728000000000002,21.207699999999999,88.422300000000007,-9.3171700000000008,-12.6944,1.12937
3849.0,50665.800000000003,-58529.5,-8161.0299999999997,-52272.699999999997,7238.6599999999999,-722.29200000000003,7006.7700000000004
3850.0,44870.300000000003,-58111.5,-11547.9,-48947.099999999999,6663.5,-2229.1100000000001,3642.4200000000001
3851.0,38219.699999999997,-60820.300000000003,-19326.299999999999,-44864.699999999997,4801.3599999999997,-1211.7,4929.5900000000001
3852.0,38710.199999999997,-46890.300000000003,-8048.7299999999996,-34166.599999999999,5125.4300000000003,2285.4699999999998,8711.0699999999997
3853.0,37121.0,-29527.599999999999,6173.0200000000004,-24334.900000000001,6478.1000000000004,1758.74,6498.1300000000001
3854.0,32233.400000000001,-23799.400000000001,7261.5500000000002,-18965.599999999999,6164.79,-363.911,5371.96
3855.0,28783.299999999999,-21316.5,6579.6499999999996,-15566.0,5773.3000000000002,-1164.72,4952.1199999999999
3856.0,26008.400000000001,-18783.599999999999,6436.0500000000002,-12719.4,5381.4899999999998,-1777.8699999999999,4479.71
3857.0,23607.0,-16774.299999999999,6113.1599999999999,-10320.6,4958.9799999999996,-2175.8499999999999,4144.6800000000003
3858.0,21402.599999999999,-14820.799999999999,5861.8299999999999,-8078.3800000000001,4566.6999999999998,-2496.54,3787.1599999999999
3859.0,19423.200000000001,-13075.299999999999,5589.0500000000002,-6093.3900000000003,4183.9499999999998,-2732.1199999999999,3442.8499999999999
3860.0,17616.900000000001,-11397.6,5355.4200000000001,-4238.7399999999998,3823.4000000000001,-2924.5900000000001,3101.5300000000002
3861.0,15993.6,-9864.8500000000004,5106.2799999999997,-2576.5799999999999,3481.3400000000001,-3071.8099999999999,2768.1900000000001
3862.0,14540.0,-8402.3700000000008,4889.8599999999997,-1030.6400000000001,3161.29,-3189.46,2440.9400000000001
3863.0,13261.200000000001,-7054.0500000000002,4669.75,360.86900000000003,2862.6700000000001,-3275.1799999999998,2128.9699999999998
3864.0,12151.0,-5764.25,4494.5299999999997,1647.1700000000001,2587.6199999999999,-3338.1399999999999,1824.97
3865.0,11203.6,-4591.2299999999996,4300.4799999999996,2785.9499999999998,2330.0999999999999,-3383.52,1527.3900000000001
3866.0,10415.0,-3493.3899999999999,4126.3000000000002,3822.8200000000002,2087.6799999999998,-3410.6199999999999,1246.4400000000001
3867.0,9772.25,-2482.3400000000001,3963.4400000000001,4740.2299999999996,1861.97,-3418.98,978.01099999999997
3868.0,9260.4099999999999,-1544.28,3814.6500000000001,5557.7399999999998,1652.9400000000001,-3411.4499999999998,718.125
3869.0,8868.7399999999998,-709.57500000000005,3639.6199999999999,6253.7299999999996,1460.98,-3389.6199999999999,470.517
3870.0,8582.3600000000006,58.398899999999998,3473.9099999999999,6864.96,1284.9200000000001,-3355.8099999999999,239.602
3871.0,8381.1100000000006,748.54700000000003,3308.1599999999999,7380.6800000000003,1122.8299999999999,-3311.5,23.634399999999999
3872.0,8246.9400000000005,1384.29,3161.3000000000002,7827.79,973.84000000000003,-3258.0700000000002,-178.61600000000001
3873.0,8163.1700000000001,1945.8699999999999,3008.0,8188.8999999999996,837.30600000000004,-3196.7600000000002,-366.745
3874.0,8114.1300000000001,2460.6900000000001,2871.3400000000001,8492.6700000000001,712.596,-3128.4099999999999,-541.15599999999995
3875.0,8087.5200000000004,2906.9699999999998,2725.8099999999999,8719.8799999999992,598.72799999999995,-3053.8499999999999,-702.12099999999998
3876.0,8073.29,3316.9299999999998,2600.5300000000002,8904.6800000000003,494.89400000000001,-2974.1100000000001,-850.06700000000001
3877.0,8063.79,3665.7399999999998,2466.98,9023.9599999999991,400.34199999999998,-2890.21,-985.40999999999997
3878.0,8052.79,3983.5799999999999,2351.6300000000001,9108.9400000000005,314.48200000000003,-2802.8099999999999,-1108.53
3879.0,8036.0799999999999,4245.9700000000003,2226.52,9136.5599999999995,236.59899999999999,-2712.54,-1219.9300000000001
3880.0,8010.6000000000004,4485.4799999999996,2121.3000000000002,9140.6900000000005,166.13399999999999,-2619.9699999999998,-1320.0999999999999
3881.0,7974.5699999999997,4676.2299999999996,2007.01,9096.6200000000008,102.46299999999999,-2525.7800000000002,-1409.49
3882.0,7926.54,4848.1599999999999,1910.9200000000001,9035.0699999999997,45.112499999999997,-2430.4099999999999,-1488.5999999999999
3883.0,7866.1199999999999,4975.3699999999999,1804.22,8930.9400000000005,-6.4667700000000004,-2334.3699999999999,-1557.9200000000001
3884.0,7793.0200000000004,5089.2700000000004,1715.9400000000001,8816.4200000000001,-52.686900000000001,-2237.96,-1617.98
3885.0,7707.7200000000003,5164.2299999999996,1617.96,8666.6399999999994,-94.043899999999994,-2141.6500000000001,-1669.24
3886.0,7610.3800000000001,5230.8599999999997,1538.8800000000001,8512.7199999999993,-130.893,-2045.6900000000001,-1712.1300000000001
3887.0,7501.8500000000004,5261.5600000000004,1448.73,8327.5,-163.667,-1950.45,-1747.0899999999999
3888.0,7382.5200000000004,5288.0699999999997,1377.54,8143.0299999999997,-192.62899999999999,-1856.0599999999999,-1774.6300000000001
3889.0,7253.8299999999999,5282.2799999999997,1294.8499999999999,7931.7200000000003,-218.18600000000001,-1762.9000000000001,-1795.21
3890.0,7115.6899999999996,5273.5900000000001,1229.02,7723.0,-240.565,-1670.9100000000001,-1809.1099999999999
3891.0,6970.3500000000004,5234.6599999999999,1150.24,7490.2600000000002,-260.17599999999999,-1580.6300000000001,-1816.99
3892.0,6816.54,5200.3100000000004,1093.0999999999999,7267.6899999999996,-277.10599999999999,-1491.6800000000001,-1818.8900000000001
3893.0,6658.8800000000001,5138.1499999999996,1021.37,7024.4799999999996,-291.87900000000002,-1405.0699999999999,-1815.74
3894.0,6492.1599999999999,5083.9399999999996,973.26099999999997,6794.1599999999999,-304.23099999999999,-1319.46,-1806.9200000000001
3895.0,6328.0900000000001,4996.6300000000001,899.68600000000004,6540.0500000000002,-315.27100000000002,-1237.51,-1794.6099999999999
3896.0,6150.0,4931.3199999999997,865.53499999999997,6310.3900000000003,-323.80399999999997,-1155.1800000000001,-1776.25
3897.0,5990.1599999999999,4820.8400000000001,782.51099999999997,6050.8800000000001,-332.70699999999999,-1080.0,-1757.1099999999999
3898.0,5799.75,4766.1099999999997,782.10500000000002,5841.8699999999999,-337.77100000000002,-1000.13,-1729.99
3899.0,5668.1400000000003,4621.1599999999999,660.52499999999998,5572.0699999999997,-345.85300000000001,-937.07100000000003,-1710.52
3900.0,5445.2700000000004,4628.9499999999998,749.17999999999995,5442.3900000000003,-355.863,-853.79499999999996,-1654.6700000000001
3901.0,5500.6800000000003,4398.6099999999997,456.62099999999998,5123.1700000000001,-343.98200000000003,-838.92700000000002,-1719.55
3902.0,5095.79,4825.7299999999996,970.29300000000001,5589.5299999999997,-488.14800000000002,-709.81500000000005,-1335.1700000000001
3903.0,46689.699999999997,-46152.5,-777.48500000000001,-40823.300000000003,8296.2099999999991,-839.27800000000002,6476.8000000000002
3904.0,41640.0,-45514.0,-3881.1199999999999,-38265.5,7425.2399999999998,-1357.4300000000001,5128.3400000000001
3905.0,36785.800000000003,-43182.599999999999,-5655.8800000000001,-33481.699999999997,6410.5,-922.25099999999998,5447.9300000000003
3906.0,35388.599999999999,-35416.599999999999,-150.56,-26274.200000000001,6059.7299999999996,-196.19900000000001,6763.0
3907.0,33986.5,-26731.0,6461.1599999999999,-20362.799999999999,6171.6899999999996,-280.65899999999999,6046.3999999999996
3908.0,30506.5,-22193.900000000001,7391.9200000000001,-16879.700000000001,5940.1300000000001,-1203.26,4970.2399999999998
3909.0,27281.0,-19688.900000000001,6663.8299999999999,-14085.6,5408.9700000000003,-1947.45,4722.4700000000003
3910.0,24807.400000000001,-17418.5,6447.8999999999996,-11723.1,5004.5600000000004,-2420.8499999999999,4342.6300000000001
3911.0,22520.900000000001,-15401.200000000001,6138.7600000000002,-9533.5799999999999,4592.4799999999996,-2791.46,4022.1100000000001
3912.0,20472.299999999999,-13558.799999999999,5863.2799999999997,-7536.0600000000004,4208.5699999999997,-3071.3099999999999,3704.3000000000002
3913.0,18593.700000000001,-11832.4,5601.3500000000004,-5673.8500000000004,3846.6999999999998,-3295.1100000000001,3379.5700000000002
3914.0,16898.299999999999,-10235.1,5347.4499999999998,-3971.5599999999999,3507.0799999999999,-3468.23,3061.71
3915.0,15367.799999999999,-8731.2099999999991,5112.1000000000004,-2390.9299999999998,3188.8000000000002,-3604.7399999999998,2745.6300000000001
3916.0,14004.799999999999,-7340.4200000000001,4876.7799999999997,-955.51700000000005,2891.2199999999998,-3707.0500000000002,2436.4099999999999
3917.0,12803.5,-6035.5600000000004,4657.8800000000001,363.70800000000003,2613.0799999999999,-3782.2199999999998,2133.7399999999998
3918.0,11764.1,-4832.5100000000002,4438.9700000000003,1551.54,2354.4699999999998,-3832.54,1841.4000000000001
3919.0,10882.799999999999,-3706.79,4238.9200000000001,2635.71,2116.0500000000002,-3862.3600000000001,1558.0999999999999
3920.0,10155.1,-2671.0900000000001,4042.9699999999998,3608.8699999999999,1895.9300000000001,-3873.52,1288.1800000000001
3921.0,9570.8600000000006,-1696.9300000000001,3882.5599999999999,4497.1000000000004,1693.3499999999999,-3866.5300000000002,1034.72
3922.0,9112.6100000000006,-795.60900000000004,3740.02,5287.1499999999996,1508.49,-3845.6199999999999,788.22199999999998
3923.0,8764.1800000000003,20.807200000000002,3589.9099999999999,5976.25,1335.1600000000001,-3812.2800000000002,551.41899999999998
3924.0,8507.3999999999996,750.19600000000003,3429.23,6564.5200000000004,1173.52,-3764.5900000000001,327.20600000000002
3925.0,8328.9200000000001,1409.1900000000001,3270.0,7070.8000000000002,1026.9200000000001,-3705.2399999999998,114.752
3926.0,8213.4200000000001,1998.23,3108.8899999999999,7497.2200000000003,893.42499999999995,-3636.8699999999999,-82.154499999999999
3927.0,8142.2399999999998,2530.7800000000002,2958.04,7855.8699999999999,771.77200000000005,-3560.5999999999999,-265.61000000000001
3928.0,8101.75,3004.2199999999998,2810.9499999999998,8147.3999999999996,660.37199999999996,-3477.3800000000001,-435.87700000000001
3929.0,8080.3299999999999,3430.52,2675.8699999999999,8385.0699999999997,558.75900000000001,-3388.2800000000002,-593.78999999999996
3930.0,8069.2700000000004,3801.75,2539.96,8562.4599999999991,466.48200000000003,-3294.25,-739.5
3931.0,8061.0500000000002,4131.6099999999997,2413.4499999999998,8694.4400000000005,382.72500000000002,-3195.9699999999998,-873.14700000000005
3932.0,8050.4200000000001,4415.0200000000004,2288.4400000000001,8777.6000000000004,306.76400000000001,-3094.25,-995.31799999999998
3933.0,8033.6800000000003,4663.9399999999996,2173.7600000000002,8825.0,238.00999999999999,-2990.0,-1106.4200000000001
3934.0,8007.9700000000003,4871.1400000000003,2058.9099999999999,8830.1599999999999,175.90799999999999,-2883.8400000000001,-1206.78
3935.0,7971.4899999999998,5048.0500000000002,1952.28,8805.2800000000007,119.932,-2776.29,-1296.9200000000001
3936.0,7923.1599999999999,5190.6400000000003,1847.1099999999999,8747.2199999999993,69.578100000000006,-2667.8000000000002,-1377.25
3937.0,7862.71,5308.6099999999997,1750.5699999999999,8666.5699999999997,24.372,-2558.9400000000001,-1448.28
3938.0,7789.8900000000003,5397.4200000000001,1655.6700000000001,8559.3199999999997,-16.148299999999999,-2450.1199999999999,-1510.29
3939.0,7704.9499999999998,5463.9099999999999,1566.8,8432.6100000000006,-52.314500000000002,-2341.6999999999998,-1563.9100000000001
3940.0,7608.3599999999997,5505.8900000000003,1479.53,8284.8700000000008,-84.551900000000003,-2233.9400000000001,-1609.4400000000001
3941.0,7500.8299999999999,5529.4300000000003,1397.96,8122.6499999999996,-113.187,-2127.1500000000001,-1647.4300000000001
3942.0,7382.8500000000004,5532.8400000000001,1318.5899999999999,7944.5900000000001,-138.56700000000001,-2021.5799999999999,-1678.1300000000001
3943.0,7255.6400000000003,5520.1000000000004,1243.4300000000001,7755.04,-160.94399999999999,-1917.5699999999999,-1702.2
3944.0,7119.29,5494.3599999999997,1174.22,7557.25,-180.65600000000001,-1815.1400000000001,-1719.5999999999999
3945.0,6975.7200000000003,5453.6300000000001,1106.8099999999999,7349.6199999999999,-197.90000000000001,-1714.6900000000001,-1731.24
3946.0,6824.0299999999997,5401.79,1044.5699999999999,7135.7799999999997,-212.904,-1615.9300000000001,-1736.8900000000001
3947.0,6668.2399999999998,5333.2600000000002,978.72000000000003,6911.1700000000001,-225.95599999999999,-1519.78,-1737.8299999999999
3948.0,6503.9200000000001,5262.9499999999998,925.94399999999996,6689.3800000000001,-237.172,-1425.04,-1732.9400000000001
3949.0,6341.2600000000002,5174.2299999999996,862.68499999999995,6456.6199999999999,-247.03200000000001,-1334.1600000000001,-1724.8699999999999
3950.0,6165.6999999999998,5094.79,824.83500000000004,6236.04,-255.13900000000001,-1243.27,-1710.3
3951.0,6005.5900000000001,4982.46,751.86199999999997,5994.2200000000003,-263.04199999999997,-1159.5,-1695.51
3952.0,5817.9399999999996,4907.4099999999999,740.45100000000002,5787.8299999999999,-268.88900000000001,-1071.51,-1671.3
3953.0,5683.25,4760.7799999999997,630.58600000000001,5530.29,-275.23899999999998,-1000.02,-1657.6099999999999
3954.0,5457.0100000000002,4738.6599999999999,700.33399999999995,5393.2600000000002,-290.80500000000001,-907.21500000000003,-1599.5899999999999
3955.0,5501.8699999999999,4503.8299999999999,416.92399999999998,5062.8599999999997,-272.45400000000001,-883.84400000000005,-1673.75
3956.0,5096.8199999999997,4857.5200000000004,886.548,5460.2799999999997,-427.67099999999999,-751.91300000000001,-1317.48
3957.0,43307.5,-39009.599999999999,3527.73,-33999.599999999999,6884.0,-1243.28,5981.2200000000003
3958.0,39495.5,-35647.300000000003,3872.48,-29708.799999999999,6116.6700000000001,-1622.5899999999999,5078.25
3959.0,35268.099999999999,-33878.099999999999,1868.1099999999999,-26797.400000000001,5617.9700000000003,-1535.54,4734.9399999999996
3960.0,32599.700000000001,-29456.599999999999,2864.54,-22678.299999999999,5569.8400000000001,-1291.6199999999999,5572.1599999999999
3961.0,30930.799999999999,-23618.700000000001,6389.5699999999997,-18104.700000000001,5696.7299999999996,-1566.54,5371.4200000000001
3962.0,28328.799999999999,-20245.200000000001,7085.0900000000001,-15146.299999999999,5420.7399999999998,-2191.21,4703.6099999999997
3963.0,25676.5,-18012.099999999999,6537.46,-12928.1,4953.0,-2702.9899999999998,4473.8699999999999
3964.0,23402.900000000001,-15808.200000000001,6360.6400000000003,-10773.200000000001,4552.5900000000001,-3071.77,4164.3100000000004
3965.0,21300.400000000001,-13922.299999999999,6031.6700000000001,-8838.2199999999993,4166.9700000000003,-3369.29,3873.02
3966.0,19386.299999999999,-12110.799999999999,5793.6599999999999,-6973.4700000000003,3805.1300000000001,-3606.1700000000001,3577.5599999999999
3967.0,17635.700000000001,-10467.6,5520.1300000000001,-5270.0200000000004,3467.46,-3796.96,3274.7600000000002
3968.0,16053.0,-8908.7999999999993,5288.0200000000004,-3665.1300000000001,3152.0999999999999,-3946.8200000000002,2975.3299999999999
3969.0,14630.5,-7477.3999999999996,5041.5799999999999,-2202.21,2858.5300000000002,-4062.9200000000001,2677.2399999999998
3970.0,13369.6,-6129.3000000000002,4821.6899999999996,-842.41200000000003,2585.8899999999999,-4148.8900000000003,2385.1399999999999
3971.0,12267.4,-4889.7600000000002,4597.2600000000002,390.36900000000003,2333.48,-4208.8199999999997,2099.1700000000001
3972.0,11320.700000000001,-3731.3800000000001,4392.0900000000001,1523.1199999999999,2099.9499999999998,-4245.0299999999997,1821.4100000000001
3973.0,10523.4,-2671.7199999999998,4183.71,2539.1599999999999,1883.9100000000001,-4259.9099999999999,1552.1600000000001
3974.0,9868.0900000000001,-1690.6500000000001,3987.4699999999998,3459.7199999999998,1684.48,-4255.4300000000003,1293.3099999999999
3975.0,9344.5100000000002,-788.79100000000005,3799.7800000000002,4283.3500000000004,1501.8299999999999,-4232.8100000000004,1048.1099999999999
3976.0,8941.2800000000007,45.1158,3627.7399999999998,5021.0900000000001,1336.4300000000001,-4196.6999999999998,813.01400000000001
3977.0,8643.7600000000002,812.89300000000003,3475.2199999999998,5680.8800000000001,1182.8099999999999,-4148.5500000000002,594.63900000000001
3978.0,8427.0599999999995,1527.47,3355.3600000000001,6272.0200000000004,1043.23,-4087.7399999999998,383.90699999999998
3979.0,8280.5799999999999,2152.5799999999999,3209.8400000000001,6765.3100000000004,916.19100000000003,-4018.1700000000001,177.619
3980.0,8187.8400000000001,2706.8800000000001,3054.2800000000002,7182.8000000000002,796.29399999999998,-3938.6300000000001,-11.0589
3981.0,8128.1499999999996,3202.0500000000002,2907.3400000000001,7530.6400000000003,687.69799999999998,-3848.9099999999999,-188.465
3982.0,8096.3699999999999,3643.0999999999999,2765.23,7820.0799999999999,590.07899999999995,-3752.5100000000002,-354.959
3983.0,8081.7799999999997,4026.4000000000001,2620.7399999999998,8047.7299999999996,501.673,-3650.8299999999999,-508.19200000000001
3984.0,8073.75,4369.5200000000004,2489.9699999999998,8230.3700000000008,421.25799999999998,-3544.5500000000002,-649.64099999999996
3985.0,8066.3500000000004,4663.1700000000001,2360.21,8360.7399999999998,348.30799999999999,-3434.3699999999999,-780.23299999999995
3986.0,8055.7799999999997,4921.4799999999996,2240.9000000000001,8453.8600000000006,282.44400000000002,-3321.3800000000001,-899.93399999999997
3987.0,8037.96,5134.8599999999997,2119.2800000000002,8500.4500000000007,223.06899999999999,-3205.96,-1009.1
3988.0,8010.6999999999998,5320.8999999999996,2010.1500000000001,8519.3400000000001,169.54900000000001,-3088.7199999999998,-1108.1600000000001
3989.0,7972.5699999999997,5468.2700000000004,1899.6400000000001,8500.0599999999995,121.422,-2970.3400000000001,-1197.5899999999999
3990.0,7922.8000000000002,5592.3000000000002,1800.26,8458.4200000000001,78.228499999999997,-2851.4299999999998,-1277.72
3991.0,7860.96,5681.6899999999996,1698.02,8383.4799999999996,39.5822,-2732.3800000000001,-1349.05
3992.0,7787.0699999999997,5752.3999999999996,1606.47,8291.9500000000007,5.0042799999999996,-2613.54,-1411.8299999999999
3993.0,7701.3800000000001,5793.9099999999999,1513.1600000000001,8173.7799999999997,-25.793399999999998,-2495.3099999999999,-1466.6500000000001
3994.0,7604.4399999999996,5821.6499999999996,1431.3,8044.8800000000001,-53.249299999999998,-2378.1300000000001,-1513.7
3995.0,7496.7799999999997,5823.1899999999996,1346.52,7892.9099999999999,-77.557000000000002,-2262.25,-1553.55
3996.0,7379.0500000000002,5814.6899999999996,1272.98,7734.4099999999999,-99.119900000000001,-2147.8899999999999,-1586.3399999999999
3997.0,7252.29,5783.1999999999998,1195.9000000000001,7556.6199999999999,-118.078,-2035.29,-1612.79
3998.0,7116.8699999999999,5742.5100000000002,1127.6500000000001,7373.6400000000003,-134.833,-1924.53,-1632.8800000000001
3999.0,6974.3299999999999,5681.29,1055.04,7174.3400000000001,-149.46199999999999,-1816.01,-1647.4200000000001
4000.0,6824.0100000000002,5617.6000000000004,995.47699999999998,6976.71,-162.32499999999999,-1709.5,-1656.0799999999999
4001.0,6669.4499999999998,5535.7399999999998,930.30799999999999,6765.6400000000003,-173.45699999999999,-1605.79,-1660.2
4002.0,6506.8500000000004,5454.2700000000004,879.56200000000001,6558.8900000000003,-183.19399999999999,-1503.8199999999999,-1658.5699999999999
4003.0,6345.3400000000001,5349.8999999999996,813.61800000000005,6335.0900000000001,-191.61099999999999,-1405.8,-1653.96
4004.0,6171.5500000000002,5258.0500000000002,775.56600000000003,6126.54,-198.965,-1308.1600000000001,-1642.71
4005.0,6011.6000000000004,5133.1000000000004,702.46100000000001,5893.79,-205.733,-1217.6500000000001,-1631.4400000000001
4006.0,5825.5,5050.7299999999996,694.81700000000001,5702.79,-211.80199999999999,-1123.49,-1609.9400000000001
4007.0,5689.3800000000001,4894.4899999999998,587.15300000000002,5452.8199999999997,-216.56700000000001,-1045.5799999999999,-1599.8699999999999
4008.0,5461.8199999999997,4867.4899999999998,664.19799999999998,5332.21,-234.28399999999999,-947.28999999999996,-1542.48
4009.0,5498.6099999999997,4623.6899999999996,383.08800000000002,5003.2399999999998,-208.59899999999999,-915.85900000000004,-1617.76
4010.0,5095.2700000000004,4941.8599999999997,843.85199999999998,5376.4200000000001,-373.87700000000001,-783.88300000000004,-1282.6600000000001
4011.0,42430.0,-29772.400000000001,11586.4,-24990.200000000001,6902.3100000000004,-1927.75,6071.5900000000001
4012.0,39141.699999999997,-27000.799999999999,11363.700000000001,-21813.400000000001,6661.25,-2300.8499999999999,5270.6300000000001
4013.0,35271.900000000001,-25147.799999999999,9571.1499999999996,-19532.0,6017.5900000000001,-2631.5900000000001,4923.6899999999996
4014.0,32047.099999999999,-23011.799999999999,8464.6000000000004,-17629.400000000001,5320.04,-2654.6100000000001,4852.8699999999999
4015.0,29143.5,-20373.0,7860.7399999999998,-15671.0,5084.8599999999997,-2723.0599999999999,4583.8800000000001
4016.0,26411.700000000001,-18066.200000000001,7051.6000000000004,-13722.700000000001,4843.04,-3043.27,4425.6199999999999
4017.0,24073.099999999999,-15965.0,6599.3999999999996,-11757.200000000001,4466.5900000000001,-3376.1399999999999,4225.1700000000001
4018.0,21974.099999999999,-14048.9,6252.5100000000002,-9901.0900000000001,4096.1199999999999,-3645.75,3979.4000000000001
4019.0,20046.599999999999,-12211.5,5993.8000000000002,-8100.8100000000004,3735.0300000000002,-3880.6500000000001,3712.3499999999999
4020.0,18264.5,-10525.1,5717.5200000000004,-6412.2799999999997,3397.0700000000002,-4070.8699999999999,3431.29
4021.0,16643.700000000001,-8933.3500000000004,5472.1899999999996,-4815.8000000000002,3083.8400000000001,-4226.6199999999999,3148.1700000000001
4022.0,15177.799999999999,-7465.0,5221.1300000000001,-3341.2600000000002,2793.1599999999999,-4348.3900000000003,2863.96
4023.0,13869.0,-6086.6400000000003,4991.6300000000001,-1963.6099999999999,2524.4299999999998,-4440.8500000000004,2583.0500000000002
4024.0,12715.0,-4818.6599999999999,4758.6499999999996,-704.94899999999996,2276.1900000000001,-4506.3500000000004,2306.2600000000002
4025.0,11714.0,-3635.6999999999998,4542.6999999999998,456.98700000000002,2047.26,-4547.6999999999998,2035.8099999999999
4026.0,10862.0,-2552.27,4325.3100000000004,1507.4200000000001,1836.54,-4567.1099999999997,1772.73
4027.0,10153.4,-1546.8900000000001,4123.9899999999998,2467.8099999999999,1643.21,-4566.7399999999998,1518.4200000000001
4028.0,9578.7099999999991,-628.76499999999999,3925.5799999999999,3329.5,1465.9100000000001,-4548.1499999999996,1273.48
4029.0,9126.2000000000007,213.22800000000001,3736.3899999999999,4103.7600000000002,1303.02,-4513.6099999999997,1038.27
4030.0,8782.4300000000003,975.298,3548.2600000000002,4789.5900000000001,1153.8,-4464.6400000000003,813.08500000000004
4031.0,8530.3199999999997,1679.0699999999999,3380.4200000000001,5407.5600000000004,1018.22,-4401.0699999999997,604.18799999999999
4032.0,8350.8700000000008,2327.1799999999998,3234.8000000000002,5954.8100000000004,898.11300000000006,-4325.5299999999997,406.459
4033.0,8236.1599999999999,2907.0100000000002,3088.1999999999998,6426.4200000000001,789.65599999999995,-4244.4300000000003,213.57599999999999
4034.0,8168.4099999999999,3422.3099999999999,2943.2600000000002,6833.0500000000002,686.375,-4155.6800000000003,36.868499999999997
4035.0,8123.7299999999996,3893.21,2821.7199999999998,7185.2299999999996,593.33399999999995,-4056.8899999999999,-130.43299999999999
4036.0,8099.9499999999998,4299.9200000000001,2689.6999999999998,7468.25,509.21300000000002,-3951.5799999999999,-290.64999999999998
4037.0,8088.2299999999996,4652.8199999999997,2555.7800000000002,7697.2299999999996,431.58600000000001,-3839.8400000000001,-438.64400000000001
4038.0,8081.7799999999997,4955.1999999999998,2421.98,7873.7600000000002,363.279,-3723.4299999999998,-577.053
4039.0,8076.6400000000003,5216.9499999999998,2292.98,8008.3199999999997,301.91899999999998,-3604.25,-703.22799999999995
4040.0,8064.8500000000004,5437.2799999999997,2167.77,8098.6800000000003,246.56899999999999,-3482.0599999999999,-818.71299999999997
4041.0,8045.0299999999997,5625.8299999999999,2052.71,8156.7399999999998,196.86099999999999,-3357.7800000000002,-924.85900000000004
4042.0,8015.5900000000001,5777.0699999999997,1938.78,8177.46,152.23500000000001,-3232.29,-1021.34
4043.0,7975.0500000000002,5900.46,1832.5,8170.2700000000004,112.417,-3105.9699999999998,-1108.8299999999999
4044.0,7922.7299999999996,5992.9899999999998,1728.2,8133.0200000000004,76.817400000000006,-2979.1900000000001,-1187.46
4045.0,7858.4499999999998,6063.0799999999999,1632.26,8074.6800000000003,45.142099999999999,-2852.5300000000002,-1257.8499999999999
4046.0,7782.46,6107.3599999999997,1538.8099999999999,7992.2700000000004,16.915900000000001,-2726.5100000000002,-1320.1500000000001
4047.0,7695.0200000000004,6131.8100000000004,1451.45,7891.6400000000003,-8.0091999999999999,-2601.4200000000001,-1374.96
4048.0,7596.6999999999998,6133.96,1365.47,7771.0100000000002,-30.180499999999999,-2477.4499999999998,-1422.3299999999999
4049.0,7488.0100000000002,6119.8100000000004,1285.25,7636.5299999999997,-49.670299999999997,-2354.8600000000001,-1462.95
4050.0,7369.6400000000003,6087.2799999999997,1207.02,7486.6800000000003,-66.936599999999999,-2233.9699999999998,-1496.8399999999999
4051.0,7242.5500000000002,6041.0799999999999,1133.76,7326.0200000000004,-81.962100000000007,-2115.1100000000001,-1524.78
4052.0,7107.2299999999996,5983.3500000000004,1066.02,7157.0799999999999,-95.281400000000005,-1998.4000000000001,-1546.54
4053.0,6964.9300000000003,5912.9799999999996,1000.98,6978.6800000000003,-106.80800000000001,-1884.04,-1563.01
4054.0,6815.3199999999997,5831.9700000000003,939.90200000000004,6793.0500000000002,-117.006,-1771.9300000000001,-1573.8099999999999
4055.0,6661.4499999999998,5737.2700000000004,877.10900000000004,6597.3000000000002,-125.697,-1662.76,-1580.3499999999999
4056.0,6499.96,5640.1400000000003,825.11099999999999,6402.3999999999996,-133.499,-1555.5599999999999,-1581.22
4057.0,6339.1999999999998,5528.3800000000001,765.77800000000002,6197.1899999999996,-140.047,-1452.4400000000001,-1579.3399999999999
4058.0,6166.8500000000004,5423.5299999999997,727.87199999999996,6001.3800000000001,-146.13,-1349.97,-1570.8
4059.0,6007.3999999999996,5291.0,660.14800000000002,5784.54,-151.40299999999999,-1254.6300000000001,-1562.47
4060.0,5822.8900000000003,5190.8800000000001,647.13900000000001,5600.4300000000003,-157.017,-1155.96,-1543.71
4061.0,5686.54,5027.46,544.29499999999996,5363.7200000000003,-160.327,-1073.49,-1536.5799999999999
4062.0,5460.5100000000002,4976.6499999999996,611.08199999999999,5243.79,-179.97300000000001,-970.50099999999998,-1483.0799999999999
4063.0,5492.6400000000003,4732.21,335.45299999999997,4924.4499999999998,-150.691,-932.49599999999998,-1557.6300000000001
4064.0,5092.5799999999999,5021.3699999999999,792.56100000000004,5283.0699999999997,-327.71699999999998,-801.26099999999997,-1242.0599999999999
4065.0,40177.800000000003,-24019.900000000001,14268.200000000001,-20379.299999999999,7209.04,-2254.5900000000001,5866.8400000000001
4066.0,36335.599999999999,-22260.299999999999,12206.9,-18589.099999999999,6811.1400000000003,-2838.1999999999998,5228.4300000000003
4067.0,33022.599999999999,-20722.700000000001,10259.4,-17071.200000000001,6164.6899999999996,-3180.5300000000002,5355.4899999999998
4068.0,30534.299999999999,-17913.400000000001,10426.0,-14779.799999999999,5637.1499999999996,-3321.5500000000002,5156.6700000000001
4069.0,27582.299999999999,-16605.400000000001,9029.9699999999993,-13600.6,5041.79,-3493.73,4424.8800000000001
4070.0,24645.5,-15574.0,7232.9899999999998,-12337.6,4425.5699999999997,-3663.9899999999998,4145.1899999999996
4071.0,22422.200000000001,-13926.200000000001,6489.1400000000003,-10721.0,3999.5799999999999,-3887.1900000000001,3991.9899999999998
4072.0,20529.799999999999,-12179.200000000001,6127.6800000000003,-9099.3199999999997,3631.6100000000001,-4115.6800000000003,3779.2199999999998
4073.0,18764.099999999999,-10439.6,5896.1700000000001,-7439.3100000000004,3298.1199999999999,-4290.7200000000003,3529.9000000000001
4074.0,17122.900000000001,-8843.4599999999991,5623.25,-5877.8100000000004,2985.52,-4443.4200000000001,3268.1900000000001
4075.0,15630.799999999999,-7339.5600000000004,5380.4799999999996,-4399.1899999999996,2697.3499999999999,-4562.8800000000001,2999.46
4076.0,14287.9,-5941.8999999999996,5140.5100000000002,-3018.73,2432.0799999999999,-4656.9399999999996,2730.5700000000002
4077.0,13096.799999999999,-4647.7299999999996,4906.3000000000002,-1742.1400000000001,2187.9499999999998,-4724.8900000000003,2464.9899999999998
4078.0,12055.700000000001,-3443.2199999999998,4684.8500000000004,-558.54899999999998,1964.01,-4770.0200000000004,2203.6799999999998
4079.0,11162.200000000001,-2337.52,4464.71,520.68700000000001,1758.77,-4793.1499999999996,1948.8399999999999
4080.0,10410.9,-1312.71,4258.8500000000004,1512.6500000000001,1571.0899999999999,-4796.4499999999998,1701.02
4081.0,9793.9300000000003,-380.202,4052.29,2405.1100000000001,1399.54,-4781.1800000000003,1461.3599999999999
4082.0,9301.5699999999997,476.666,3857.2800000000002,3214.5700000000002,1243.1300000000001,-4749.4200000000001,1230.6199999999999
4083.0,8921.2299999999996,1253.1400000000001,3665.3400000000001,3937.4499999999998,1100.99,-4702.6499999999996,1009.58
4084.0,8637.1299999999992,1963.9100000000001,3486.9000000000001,4588.6999999999998,971.89400000000001,-4641.9300000000003,798.38599999999997
4085.0,8433.1100000000006,2599.2399999999998,3307.0900000000001,5158.0,854.26800000000003,-4568.8199999999997,596.82000000000005
4086.0,8293.2199999999993,3176.1599999999999,3139.4899999999998,5662.1199999999999,747.04399999999998,-4484.5600000000004,406.959
4087.0,8204.6900000000005,3691.5599999999999,2975.96,6099.04,651.94000000000005,-4391.5799999999999,225.95099999999999
4088.0,8155.0799999999999,4157.7399999999998,2825.0799999999999,6484.6400000000003,565.75,-4291.1999999999998,59.1723
4089.0,8126.3199999999997,4577.1599999999999,2692.5599999999999,6817.4799999999996,488.52100000000002,-4183.3199999999997,-96.110500000000002
4090.0,8110.1800000000003,4958.5600000000004,2583.0999999999999,7108.5,418.44099999999997,-4070.23,-243.11000000000001
4091.0,8100.7799999999997,5287.4499999999998,2474.21,7344.7700000000004,355.75599999999997,-3952.54,-383.25400000000002
4092.0,8096.1499999999996,5565.9399999999996,2357.9400000000001,7529.7799999999997,299.51299999999998,-3831.0999999999999,-515.92999999999995
4093.0,8088.9799999999996,5788.75,2229.1700000000001,7659.8800000000001,247.405,-3705.7399999999998,-637.24300000000005
4094.0,8074.9099999999999,5982.5,2114.3499999999999,7760.2200000000003,202.065,-3577.5,-749.83600000000001
4095.0,8053.8999999999996,6132.4700000000003,1993.28,7816.6700000000001,161.69999999999999,-3448.0900000000001,-852.10299999999995
4096.0,8021.3100000000004,6258.8999999999996,1885.45,7848.4200000000001,125.874,-3317.1100000000001,-944.99800000000005
4097.0,7977.6099999999997,6349.7399999999998,1775.8900000000001,7844.9300000000003,94.160899999999998,-3185.4299999999998,-1029.6199999999999
4098.0,7922.2399999999998,6420.8400000000001,1678.0999999999999,7822.3500000000004,65.978399999999993,-3053.6799999999998,-1105.9100000000001
4099.0,7855.2700000000004,6460.1499999999996,1577.24,7768.5699999999997,41.291899999999998,-2922.1999999999998,-1174.5799999999999
4100.0,7776.8400000000001,6483.1700000000001,1486.52,7699.7200000000003,19.491399999999999,-2791.25,-1235.53
4101.0,7687.2600000000002,6479.8299999999999,1394.4100000000001,7606.1899999999996,0.40532099999999999,-2661.27,-1289.53
4102.0,7587.1599999999999,6465.1899999999996,1314.0899999999999,7503.3500000000004,-16.412500000000001,-2532.8200000000002,-1336.5799999999999
4103.0,7477.1999999999998,6427.3100000000004,1231.55,7378.9799999999996,-31.019400000000001,-2406.1500000000001,-1377.27
4104.0,7357.9099999999999,6381.25,1159.9300000000001,7248.3900000000003,-43.850999999999999,-2281.3699999999999,-1411.55
4105.0,7230.2200000000003,6314.5100000000002,1085.0699999999999,7099.1400000000003,-54.8825,-2158.6100000000001,-1440.1800000000001
4106.0,7094.71,6240.0100000000002,1018.51,6944.6199999999999,-64.567899999999995,-2038.0799999999999,-1463.04
4107.0,6952.6000000000004,6147.5500000000002,948.46100000000001,6774.5600000000004,-72.845799999999997,-1920.0799999999999,-1480.8900000000001
4108.0,6803.5,6053.5600000000004,890.64700000000005,6605.4899999999998,-80.167299999999997,-1804.46,-1493.3499999999999
4109.0,6650.29,5943.8500000000004,828.31200000000001,6423.3500000000004,-86.311899999999994,-1691.8800000000001,-1501.6700000000001
4110.0,6489.8599999999997,5834.7399999999998,779.04700000000003,6244.29,-91.874099999999999,-1581.4200000000001,-1504.6500000000001
4111.0,6330.0500000000002,5705.7200000000003,716.54600000000005,6048.46,-96.392799999999994,-1475.0799999999999,-1504.97
4112.0,6159.1099999999997,5588.1300000000001,679.47900000000004,5866.1499999999996,-100.879,-1369.55,-1498.9200000000001
4113.0,6000.5600000000004,5442.1300000000001,611.15499999999997,5660.0600000000004,-104.61499999999999,-1271.23,-1492.99
4114.0,5817.7600000000002,5334.6499999999996,603.18499999999995,5493.1899999999996,-109.411,-1169.6500000000001,-1476.95
4115.0,5681.71,5161.5299999999997,501.762,5267.46,-111.44199999999999,-1084.1900000000001,-1471.9400000000001
4116.0,5457.9300000000003,5106.3599999999997,576.89599999999996,5166.7700000000004,-131.87799999999999,-978.85699999999997,-1422.3299999999999
4117.0,5486.0699999999997,4856.54,302.17599999999999,4854.9300000000003,-97.747500000000002,-937.649,-1493.97
4118.0,5089.0200000000004,5112.6800000000003,753.81299999999999,5201.3900000000003,-285.166,-808.01700000000005,-1197.3900000000001
4119.0,36439.599999999999,-21565.599999999999,12198.799999999999,-19634.299999999999,6798.75,-2766.5,5405.46
4120.0,32682.799999999999,-20447.400000000001,9591.25,-18486.200000000001,6051.7299999999996,-3254.0300000000002,5140.5100000000002
4121.0,29801.5,-18414.299999999999,8731.4099999999999,-16593.200000000001,5268.7700000000004,-3476.3200000000002,5093.3400000000001
4122.0,27753.400000000001,-15927.6,9153.2600000000002,-14458.799999999999,4641.6499999999996,-3543.8699999999999,4952.1499999999996
4123.0,25602.0,-13692.0,9439.1100000000006,-12316.1,4285.5699999999997,-3757.3099999999999,4199.1899999999996
4124.0,22913.0,-13064.6,7482.5699999999997,-11148.0,3944.3099999999999,-4105.5900000000001,3709.6700000000001
4125.0,20802.099999999999,-11968.700000000001,6221.0500000000002,-9844.6599999999999,3503.0799999999999,-4323.4799999999996,3790.0300000000002
4126.0,19158.799999999999,-10195.1,6096.0100000000002,-8317.7800000000007,3183.0799999999999,-4474.7799999999997,3570.8000000000002
4127.0,17515.5,-8639.7299999999996,5774.0500000000002,-6840.6400000000003,2869.9400000000001,-4604.5500000000002,3337.5
4128.0,16013.9,-7112.2700000000004,5541.5900000000001,-5371.2299999999996,2582.04,-4711.46,3094.6500000000001
4129.0,14644.1,-5710.4499999999998,5285.21,-3999.5700000000002,2319.6900000000001,-4801.8000000000002,2835.1900000000001
4130.0,13428.0,-4396.3800000000001,5053.0799999999999,-2713.7600000000002,2079.6599999999999,-4868.4399999999996,2582.5
4131.0,12355.9,-3180.3299999999999,4822.5299999999997,-1519.9300000000001,1860.23,-4915.1499999999996,2330.6199999999999
4132.0,11430.1,-2059.5500000000002,4598.2700000000004,-423.10500000000002,1660.1099999999999,-4940.4799999999996,2085.1500000000001
4133.0,10644.299999999999,-1023.9,4383.8500000000004,587.95799999999997,1477.74,-4946.7399999999998,1845.1400000000001
4134.0,9993.0499999999993,-78.728899999999996,4171.75,1505.28,1311.9300000000001,-4934.6800000000003,1612.5999999999999
4135.0,9467.2000000000007,790.38499999999999,3971.8400000000001,2343.8200000000002,1161.45,-4906.1300000000001,1387.8099999999999
4136.0,9054.8700000000008,1579.23,3776.3299999999999,3098.9499999999998,1025.1500000000001,-4862.1899999999996,1171.52
4137.0,8741.9599999999991,2296.4099999999999,3589.25,3778.9299999999998,901.73900000000003,-4804.25,963.93600000000004
4138.0,8514.0799999999999,2940.6100000000001,3405.0300000000002,4381.9700000000003,790.20100000000002,-4734.0500000000002,765.65700000000004
4139.0,8356.2099999999991,3523.21,3231.5,4920.46,689.80200000000002,-4653.1300000000001,577.02800000000002
4140.0,8253.6900000000005,4043.8400000000001,3063.1999999999998,5394.1099999999997,599.63699999999994,-4562.9300000000003,397.82100000000003
4141.0,8190.6300000000001,4507.29,2901.8800000000001,5807.9700000000003,516.98900000000003,-4463.5799999999999,228.63300000000001
4142.0,8154.2600000000002,4915.7200000000003,2746.9699999999998,6164.6700000000001,442.31099999999998,-4355.8100000000004,67.945899999999995
4143.0,8135.4499999999998,5279.9700000000003,2606.0999999999999,6477.6700000000001,375.98200000000003,-4240.8699999999999,-81.252899999999997
4144.0,8125.0,5605.75,2481.7600000000002,6749.1400000000003,320.05200000000002,-4120.0799999999999,-219.56
4145.0,8123.7399999999998,5890.0500000000002,2360.3600000000001,6973.5200000000004,273.142,-3997.73,-350.721
4146.0,8120.5900000000001,6131.6800000000003,2244.2199999999998,7154.79,226.78899999999999,-3872.7199999999998,-468.80799999999999
4147.0,8104.1000000000004,6345.2299999999996,2151.1700000000001,7305.8599999999997,187.05199999999999,-3742.25,-582.03899999999999
4148.0,8086.9399999999996,6504.1599999999999,2037.0999999999999,7404.1700000000001,153.958,-3610.6900000000001,-690.74099999999999
4149.0,8064.1499999999996,6628.1499999999996,1921.22,7470.2299999999996,122.423,-3478.2600000000002,-788.00199999999995
4150.0,8027.8400000000001,6719.0200000000004,1809.6099999999999,7502.4399999999996,95.044300000000007,-3344.0599999999999,-877.24199999999996
4151.0,7980.9399999999996,6785.71,1705.6800000000001,7510.8699999999999,71.316599999999994,-3209.7399999999998,-958.53899999999999
4152.0,7922.4300000000003,6823.2200000000003,1602.1600000000001,7490.3800000000001,50.688000000000002,-3075.4699999999998,-1031.8
4153.0,7852.3000000000002,6843.2399999999998,1508.97,7452.8900000000003,32.613100000000003,-2941.7600000000002,-1097.78
4154.0,7770.6599999999999,6839.1700000000001,1417.73,7392.1599999999999,16.863,-2808.98,-1156.9200000000001
4155.0,7678.6300000000001,6819.9399999999996,1334.24,7316.9099999999999,3.4480300000000002,-2677.5,-1209.4400000000001
4156.0,7576.4399999999996,6778.1999999999998,1249.0899999999999,7219.9200000000001,-8.0558399999999999,-2547.2800000000002,-1255.3599999999999
4157.0,7464.7700000000004,6724.8800000000001,1171.8800000000001,7112.71,-17.8079,-2418.5700000000002,-1295.3199999999999
4158.0,7344.3400000000001,6652.7799999999997,1094.0799999999999,6988.4799999999996,-26.135100000000001,-2291.8000000000002,-1329.47
4159.0,7215.9700000000003,6572.1400000000003,1024.4000000000001,6857.3100000000004,-33.1464,-2167.3400000000001,-1358.2
4160.0,7080.0500000000002,6478.8100000000004,957.24300000000005,6714.9499999999998,-39.117400000000004,-2045.24,-1381.5599999999999
4161.0,6937.8900000000003,6378.1099999999997,896.14300000000003,6566.8400000000001,-44.084499999999998,-1925.74,-1400.1099999999999
4162.0,6789.1199999999999,6264.7600000000002,835.34199999999998,6407.7700000000004,-48.326500000000003,-1808.6800000000001,-1413.71
4163.0,6636.54,6143.6700000000001,777.06500000000005,6242.7299999999996,-51.7896,-1694.75,-1423.29
4164.0,6476.9799999999996,6016.7799999999997,724.85799999999995,6073.5500000000002,-54.920299999999997,-1582.96,-1427.9200000000001
4165.0,6318.1599999999999,5882.2399999999998,670.77300000000002,5898.7399999999998,-57.3429,-1475.3599999999999,-1429.8599999999999
4166.0,6148.5600000000004,5749.3900000000003,631.85000000000002,5727.1099999999997,-59.9833,-1368.55,-1425.8900000000001
4167.0,5991.1499999999996,5597.54,570.14200000000005,5539.4899999999998,-62.075699999999998,-1268.97,-1421.8800000000001
4168.0,5810.1000000000004,5470.3400000000001,555.053,5377.6300000000001,-65.592699999999994,-1166.27,-1408.4200000000001
4169.0,5674.7600000000002,5292.4399999999996,459.80799999999999,5168.4300000000003,-66.263300000000001,-1079.72,-1404.98
4170.0,5454.0200000000004,5212.1899999999996,522.96600000000001,5067.2799999999997,-86.934100000000001,-973.69399999999996,-1360.04
4171.0,5479.7600000000002,4965.3999999999996,256.12099999999998,4771.7799999999997,-49.321100000000001,-929.697,-1428.8099999999999
4172.0,5086.1300000000001,5201.6400000000003,712.90899999999999,5118.1300000000001,-247.185,-802.99900000000002,-1150.3900000000001
4173.0,32761.5,-20818.099999999999,8724.25,-20417.200000000001,5837.8100000000004,-3171.1900000000001,5158.7600000000002
4174.0,29775.599999999999,-18931.400000000001,7803.8900000000003,-18306.900000000001,5001.3400000000001,-3598.2800000000002,4974.4499999999998
4175.0,27865.400000000001,-16216.299999999999,8664.0300000000007,-15585.1,4321.8900000000003,-3790.8499999999999,4953.3800000000001
4176.0,26461.799999999999,-12802.299999999999,10686.299999999999,-12363.0,3984.9000000000001,-3877.6100000000001,4686.5799999999999
4177.0,24390.700000000001,-10809.1,10615.0,-10482.200000000001,3898.3899999999999,-4117.1700000000001,3931.25
4178.0,21589.799999999999,-10647.200000000001,7866.1800000000003,-10031.0,3546.5799999999999,-4508.6599999999999,3448.8499999999999
4179.0,19410.799999999999,-9910.3799999999992,6154.3699999999999,-9117.7999999999993,3039.5700000000002,-4661.6499999999996,3554.21
4180.0,17825.0,-8289.2900000000009,5954.9899999999998,-7679.3699999999999,2745.8000000000002,-4703.5600000000004,3374.3899999999999
4181.0,16314.200000000001,-6830.7399999999998,5654.8800000000001,-6292.5500000000002,2455.52,-4795.6800000000003,3141.6100000000001
4182.0,14941.1,-5400.6800000000003,5435.8699999999999,-4903.5799999999999,2192.4699999999998,-4871.1800000000003,2906.29
4183.0,13702.6,-4095.4699999999998,5177.8999999999996,-3628.77,1956.49,-4938.3400000000001,2660.3099999999999
4184.0,12611.9,-2861.3499999999999,4957.54,-2421.1599999999999,1741.1300000000001,-4983.1000000000004,2421.0500000000002
4185.0,11661.4,-1734.9200000000001,4722.8699999999999,-1316.3299999999999,1545.8,-5011.0900000000001,2184.1100000000001
4186.0,10850.299999999999,-685.755,4509.4399999999996,-287.14999999999998,1368.46,-5019.3800000000001,1953.6600000000001
4187.0,10172.200000000001,269.065,4292.5500000000002,649.33799999999997,1208.05,-5010.8100000000004,1728.95
4188.0,9619.1900000000005,1148.78,4090.3299999999999,1511.2,1063.1500000000001,-4985.4899999999998,1511.5699999999999
4189.0,9180.6599999999999,1943.9300000000001,3888.0700000000002,2288.6300000000001,932.54899999999998,-4945.1999999999998,1301.5599999999999
4190.0,8843.8600000000006,2667.3400000000001,3695.3000000000002,2993.8200000000002,815.04600000000005,-4891.0,1099.6600000000001
4191.0,8594.9799999999996,3318.8499999999999,3507.6300000000001,3626.4899999999998,709.72400000000005,-4824.4799999999996,906.20299999999997
4192.0,8418.9400000000005,3906.5700000000002,3329.1900000000001,4195.0600000000004,615.50900000000001,-4746.8500000000004,721.38699999999994
4193.0,8300.5499999999993,4429.7799999999997,3155.2800000000002,4698.5799999999999,531.08199999999999,-4659.0699999999997,545.59000000000003
4194.0,8228.3099999999995,4893.7200000000003,2985.1799999999998,5141.6000000000004,456.30500000000001,-4563.4799999999996,377.43000000000001
4195.0,8187.9200000000001,5311.2700000000004,2832.5799999999999,5539.0100000000002,387.40699999999998,-4460.29,222.84800000000001
4196.0,8161.8000000000002,5691.8199999999997,2709.0599999999999,5897.1599999999999,328.02800000000002,-4348.3199999999997,75.632599999999996
4197.0,8149.4499999999998,6017.4899999999998,2581.0500000000002,6199.8299999999999,277.952,-4230.8100000000004,-66.772800000000004
4198.0,8147.0500000000002,6288.9700000000003,2441.3200000000002,6447.4700000000003,233.0,-4109.0,-200.30099999999999
4199.0,8149.7700000000004,6507.5699999999997,2291.3099999999999,6642.0799999999999,193.03200000000001,-3984.4000000000001,-325.94299999999998
4200.0,8147.6899999999996,6704.7299999999996,2165.3200000000002,6816.0600000000004,156.232,-3856.4099999999999,-436.62200000000001
4201.0,8127.8100000000004,6880.7299999999996,2068.5700000000002,6963.0200000000004,125.197,-3723.1599999999999,-538.13499999999999
4202.0,8099.6000000000004,7022.0900000000001,1977.3299999999999,7073.7399999999998,100.184,-3588.6700000000001,-638.952
4203.0,8070.5600000000004,7115.9899999999998,1868.26,7142.5600000000004,78.740300000000005,-3455.5,-733.74800000000005
4204.0,8034.4300000000003,7182.3500000000004,1760.3399999999999,7184.8900000000003,60.158099999999997,-3322.54,-818.80399999999997
4205.0,7984.7200000000003,7218.4700000000003,1652.8199999999999,7195.3299999999999,43.314700000000002,-3188.5,-894.85400000000004
4206.0,7920.4799999999996,7236.3400000000001,1557.6800000000001,7187.7200000000003,28.916699999999999,-3053.3600000000001,-964.19600000000003
4207.0,7846.3299999999999,7226.5900000000001,1460.2,7153.6199999999999,18.057600000000001,-2918.8200000000002,-1027.8900000000001
4208.0,7763.3599999999997,7200.5100000000002,1368.1600000000001,7104.0699999999997,9.0287500000000005,-2785.6799999999998,-1084.1900000000001
4209.0,7668.8100000000004,7152.6300000000001,1277.3499999999999,7033.0600000000004,1.2831600000000001,-2653.4200000000001,-1134.04
4210.0,7564.3000000000002,7095.04,1198.3499999999999,6953.6400000000003,-5.0039800000000003,-2522.8400000000001,-1178.5899999999999
4211.0,7451.0900000000001,7018.3199999999997,1119.0599999999999,6855.9899999999998,-10.099399999999999,-2394.54,-1217.5
4212.0,7329.5,6934.3599999999997,1049.3900000000001,6751.4099999999999,-14.084300000000001,-2268.3800000000001,-1250.96
4213.0,7200.3599999999997,6833.1300000000001,977.64200000000005,6630.1800000000003,-17.1111,-2144.3699999999999,-1279.3
4214.0,7064.1099999999997,6724.1599999999999,912.33600000000001,6502.1499999999996,-19.3703,-2022.6300000000001,-1302.71
4215.0,6922.0500000000002,6601.1099999999997,845.45799999999997,6360.9399999999996,-20.970500000000001,-1903.5699999999999,-1321.5999999999999
4216.0,6773.7399999999998,6476.3900000000003,788.98400000000004,6218.9499999999998,-22.153400000000001,-1786.96,-1335.8800000000001
4217.0,6621.8100000000004,6339.6999999999998,730.01400000000001,6065.9499999999998,-22.886399999999998,-1673.45,-1346.3099999999999
4218.0,6463.25,6202.5600000000004,681.78399999999999,5913.5,-23.529900000000001,-1562.0999999999999,-1352.1400000000001
4219.0,6305.4499999999998,6049.8000000000002,623.03099999999995,5746.4099999999999,-23.674700000000001,-1454.8800000000001,-1355.4300000000001
4220.0,6137.3299999999999,5906.3800000000001,586.65599999999995,5589.8299999999999,-24.371700000000001,-1348.5799999999999,-1353.1800000000001
4221.0,5981.1800000000003,5740.6700000000001,523.20899999999995,5412.0100000000002,-24.650600000000001,-1249.48,-1350.79
4222.0,5802.0900000000001,5608.3100000000004,514.827,5269.1000000000004,-26.820599999999999,-1147.2,-1339.52
4223.0,5667.71,5420.1400000000003,419.56400000000002,5070.3999999999996,-26.1416,-1060.8099999999999,-1337.3800000000001
4224.0,5450.04,5337.6499999999996,492.68900000000002,4990.7299999999996,-46.707700000000003,-955.63999999999999,-1296.5899999999999
4225.0,5473.5299999999997,5085.71,225.464,4702.79,-5.17441,-910.90099999999995,-1361.7
4226.0,5082.79,5290.3400000000001,675.952,5039.1800000000003,-212.47900000000001,-788.54999999999995,-1101.0899999999999
4227.0,29848.5,-19521.900000000001,6891.2299999999996,-20099.700000000001,4781.6400000000003,-3400.71,4979.7799999999997
4228.0,27714.900000000001,-17025.5,7320.1599999999999,-17307.099999999999,4294.6400000000003,-3793.1100000000001,4829.5
4229.0,26310.0,-13445.700000000001,9357.5900000000001,-13718.299999999999,3924.2800000000002,-3841.48,5015.4099999999999
4230.0,24789.299999999999,-10338.700000000001,10783.799999999999,-11088.299999999999,3902.3699999999999,-3923.9499999999998,4474.9200000000001
4231.0,22367.099999999999,-9220.7299999999996,9271.8999999999996,-10108.9,3710.1500000000001,-4296.9300000000003,3847.4400000000001
4232.0,19994.299999999999,-8684.9699999999993,7256.6599999999999,-9442.3899999999994,3161.5999999999999,-4643.7299999999996,3573.4899999999998
4233.0,18110.900000000001,-7784.3800000000001,6173.71,-8442.7000000000007,2657.3699999999999,-4775.25,3364.4699999999998
4234.0,16555.5,-6479.1499999999996,5770.1300000000001,-7120.79,2319.0900000000001,-4810.8900000000003,3172.71
4235.0,15185.299999999999,-5053.6300000000001,5569.21,-5749.29,2060.79,-4872.1899999999996,2939.3000000000002
4236.0,13937.299999999999,-3753.8499999999999,5307.96,-4476.3400000000001,1824.8499999999999,-4935.3299999999999,2708.0799999999999
4237.0,12832.6,-2516.0900000000001,5082.1099999999997,-3267.7600000000002,1613.8800000000001,-4980.6899999999996,2478.5700000000002
4238.0,11864.9,-1383.1700000000001,4846.0100000000002,-2155.7399999999998,1422.79,-5009.3400000000001,2251.6700000000001
4239.0,11034.5,-327.56999999999999,4627.8699999999999,-1117.4200000000001,1250.21,-5020.21,2030.5799999999999
4240.0,10335.200000000001,633.19000000000005,4406.6099999999997,-168.76300000000001,1094.6800000000001,-5014.4700000000003,1814.6500000000001
4241.0,9760.2600000000002,1518.6099999999999,4199.0500000000002,707.97000000000003,954.85599999999999,-4992.7200000000003,1605.28
4242.0,9299.8700000000008,2318.9400000000001,3991.5900000000001,1503.02,829.47199999999998,-4956.25,1402.6400000000001
4243.0,8942.5400000000009,3050.0999999999999,3796.5100000000002,2231.27,717.399,-4906.21,1207.3900000000001
4244.0,8674.7600000000002,3707.46,3605.1900000000001,2888.0900000000001,617.52800000000002,-4843.8800000000001,1019.8
4245.0,8482.0,4299.7399999999998,3422.3899999999999,3481.6100000000001,528.77499999999998,-4770.3000000000002,840.05700000000002
4246.0,8350.0599999999995,4825.4799999999996,3242.5300000000002,4010.0500000000002,450.08300000000003,-4686.6999999999998,668.40899999999999
4247.0,8265.7099999999991,5295.6800000000003,3072.7800000000002,4484.1099999999997,380.59100000000001,-4594.3999999999996,505.286
4248.0,8217.4200000000001,5708.5600000000004,2906.77,4902.8900000000003,320.02800000000002,-4494.8299999999999,349.52800000000002
4249.0,8191.9099999999999,6072.4200000000001,2751.1500000000001,5275.4899999999998,265.779,-4387.4799999999996,205.38
4250.0,8175.4399999999996,6396.6999999999998,2615.0,5605.8100000000004,220.28,-4271.6800000000003,70.214399999999998
4251.0,8170.8400000000001,6674.4799999999996,2478.9899999999998,5885.5299999999997,183.761,-4152.7200000000003,-61.922800000000002
4252.0,8174.4099999999999,6900.9099999999999,2335.9899999999998,6117.0900000000001,148.578,-4032.3000000000002,-184.11000000000001
4253.0,8172.3999999999996,7096.8699999999999,2211.25,6320.0600000000004,118.48099999999999,-3907.2199999999998,-299.68299999999999
4254.0,8170.7700000000004,7240.3999999999996,2069.6900000000001,6471.8299999999999,93.924599999999998,-3780.5799999999999,-409.76600000000002
4255.0,8154.8299999999999,7368.3699999999999,1956.6300000000001,6610.4799999999996,67.811499999999995,-3650.1199999999999,-502.529
4256.0,8115.2299999999996,7485.96,1882.0699999999999,6732.3500000000004,51.628,-3514.2399999999998,-591.85000000000002
4257.0,8079.8999999999996,7560.8500000000004,1785.6500000000001,6809.5900000000001,43.080800000000004,-3381.5799999999999,-681.99699999999996
4258.0,8045.3100000000004,7586.1000000000004,1659.54,6841.1099999999997,31.559999999999999,-3251.6599999999999,-761.61000000000001
4259.0,7992.3199999999997,7598.9399999999996,1555.55,6860.6300000000001,19.9161,-3119.5799999999999,-831.62800000000004
4260.0,7922.7200000000003,7595.1499999999996,1466.1700000000001,6862.1599999999999,11.5167,-2986.0700000000002,-896.29300000000001
4261.0,7842.9799999999996,7573.96,1383.46,6846.5299999999997,4.8586999999999998,-2853.0300000000002,-956.47500000000002
4262.0,7752.71,7526.0500000000002,1298.1099999999999,6807.0,-1.0979300000000001,-2720.9000000000001,-1011.37
4263.0,7654.6999999999998,7466.3100000000004,1221.3299999999999,6756.9499999999998,-3.5549200000000001,-2590.8600000000001,-1062.02
4264.0,7550.4300000000003,7384.6999999999998,1138.5,6685.2799999999997,-5.2221700000000002,-2463.5900000000001,-1105.3900000000001
4265.0,7436.1000000000004,7293.2600000000002,1063.5799999999999,6602.8299999999999,-5.7058799999999996,-2337.54,-1142.9200000000001
4266.0,7313.8400000000001,7184.6000000000004,987.35000000000002,6503.6199999999999,-5.4069500000000001,-2213.4699999999998,-1175.3599999999999
4267.0,7184.21,7070.04,920.02200000000005,6398.6999999999998,-4.5273199999999996,-2091.77,-1203.0
4268.0,7047.79,6944.8800000000001,855.40200000000004,6283.1599999999999,-3.2786499999999998,-1972.48,-1226.0
4269.0,6905.6800000000003,6813.8999999999996,796.65499999999997,6161.8500000000004,-1.59958,-1855.71,-1244.79
4270.0,6757.7399999999998,6672.1700000000001,738.32600000000002,6030.0600000000004,0.169956,-1741.3900000000001,-1259.25
4271.0,6606.3400000000001,6524.1000000000004,682.44399999999996,5892.0,2.2322799999999998,-1630.0699999999999,-1270.21
4272.0,6448.8100000000004,6371.71,632.52800000000002,5750.04,4.0091000000000001,-1520.9100000000001,-1276.8199999999999
4273.0,6292.0200000000004,6213.3100000000004,580.96400000000006,5601.9200000000001,6.1492599999999999,-1415.6900000000001,-1281.0599999999999
4274.0,6125.4399999999996,6057.0500000000002,543.87199999999996,5456.8699999999999,7.3558399999999997,-1311.3399999999999,-1280.04
4275.0,5970.5900000000001,5884.1300000000001,484.69600000000003,5294.7700000000004,9.00929,-1213.9400000000001,-1279.03
4276.0,5793.4700000000003,5735.0500000000002,471.14600000000002,5158.6800000000003,8.3069799999999994,-1113.7,-1269.6700000000001
4277.0,5660.0900000000001,5540.6499999999996,379.64499999999998,4973.7600000000002,10.507199999999999,-1029.02,-1268.5999999999999
4278.0,5445.7200000000003,5436.6800000000003,443.00400000000002,4895.7299999999996,-9.6656300000000002,-926.35500000000002,-1231.95
4279.0,5467.6300000000001,5185.0799999999999,180.38999999999999,4620.9499999999998,35.255499999999998,-881.28899999999999,-1293.5
4280.0,5079.9899999999998,5379.6499999999996,643.97900000000004,4967.7799999999997,-181.27500000000001,-764.53599999999994,-1050.1400000000001
4281.0,27465.5,-17908.099999999999,6010.5900000000001,-19147.700000000001,3998.46,-3504.96,4699.1400000000003
4282.0,25564.700000000001,-14894.5,7077.0,-16048.299999999999,3695.3000000000002,-3699.9000000000001,4549.4799999999996
4283.0,24011.299999999999,-11829.799999999999,8374.6700000000001,-13154.799999999999,3445.46,-3746.29,4548.8800000000001
4284.0,22263.900000000001,-9369.0499999999993,8769.7600000000002,-11271.6,3346.9000000000001,-3977.4200000000001,3977.8699999999999
4285.0,20010.0,-8531.2800000000007,7101.1499999999996,-10532.299999999999,2961.7199999999998,-4378.2200000000003,3508.04
4286.0,18203.299999999999,-7437.5699999999997,6162.6999999999998,-9337.6800000000003,2484.8299999999999,-4595.79,3418.3000000000002
4287.0,16758.5,-6004.0900000000001,5969.54,-7896.1599999999999,2197.0,-4714.5900000000001,3166.6300000000001
4288.0,15384.5,-4713.5699999999997,5660.0799999999999,-6559.8999999999996,1921.22,-4806.1700000000001,2951.71
4289.0,14142.1,-3397.1900000000001,5443.75,-5264.4700000000003,1692.1199999999999,-4861.1999999999998,2729.98
4290.0,13024.6,-2172.0799999999999,5195.0100000000002,-4066.0999999999999,1483.8599999999999,-4910.75,2508.27
4291.0,12046.6,-1026.71,4968.1000000000004,-2943.6700000000001,1296.3900000000001,-4939.7700000000004,2292.7800000000002
4292.0,11200.700000000001,30.591100000000001,4741.2399999999998,-1902.29,1127.9000000000001,-4953.9899999999998,2080.1300000000001
4293.0,10484.700000000001,1000.03,4520.6700000000001,-942.15499999999997,976.43399999999997,-4950.8599999999997,1873.6800000000001
4294.0,9891.8400000000001,1891.5899999999999,4309.29,-53.292000000000002,840.95899999999995,-4933.04,1672.53
4295.0,9413.1700000000001,2699.4499999999998,4100.4399999999996,757.79600000000005,720.08799999999997,-4900.5699999999997,1477.9000000000001
4296.0,9037.9500000000007,3437.0599999999999,3902.5599999999999,1504.1300000000001,612.678,-4855.04,1289.9000000000001
4297.0,8753.2900000000009,4097.8400000000001,3706.0300000000002,2178.4299999999998,517.62199999999996,-4797.2799999999997,1108.9100000000001
4298.0,8545.75,4693.7600000000002,3518.46,2792.0,433.76900000000001,-4728.6000000000004,935.16300000000001
4299.0,8401.3400000000001,5223.6099999999997,3335.0999999999999,3343.1199999999999,360.18200000000002,-4650.0299999999997,768.86400000000003
4300.0,8306.7099999999991,5697.3000000000002,3161.8000000000002,3841.4400000000001,295.87799999999999,-4562.6899999999996,610.20399999999995
4301.0,8249.3600000000006,6110.9200000000001,2990.8800000000001,4282.7399999999998,240.02600000000001,-4467.4300000000003,459.101
4302.0,8218.5499999999993,6474.4399999999996,2828.2600000000002,4676.5799999999999,191.751,-4365.1700000000001,315.44099999999997
4303.0,8204.6800000000003,6789.0900000000001,2671.9400000000001,5023.4300000000003,149.928,-4256.5,179.834
4304.0,8200.0699999999997,7061.1499999999996,2524.8499999999999,5327.79,114.578,-4142.2299999999996,51.790599999999998
4305.0,8201.4400000000005,7286.5200000000004,2378.0300000000002,5585.8599999999997,85.460899999999995,-4024.4699999999998,-69.960599999999999
4306.0,8203.3500000000004,7476.9700000000003,2240.98,5811.3199999999997,60.314500000000002,-3903.6399999999999,-182.63800000000001
4307.0,8198.8899999999994,7627.5900000000001,2108.4400000000001,5996.9700000000003,40.277000000000001,-3779.2600000000002,-287.64299999999997
4308.0,8191.7299999999996,7750.1400000000003,1984.8199999999999,6155.4499999999998,25.277100000000001,-3654.27,-388.81599999999997
4309.0,8174.1099999999997,7835.9700000000003,1862.46,6282.2399999999998,10.243600000000001,-3526.7399999999998,-478.27499999999998
4310.0,8137.8400000000001,7906.1700000000001,1763.3199999999999,6389.4300000000003,1.82158,-3394.1599999999999,-561.399
4311.0,8100.6099999999997,7936.7399999999998,1647.6099999999999,6451.8800000000001,-1.7303200000000001,-3263.8200000000002,-643.60599999999999
4312.0,8060.8299999999999,7943.5100000000002,1532.0999999999999,6493.9700000000003,-8.1200799999999997,-3136.7800000000002,-717.61500000000001
4313.0,8004.3000000000002,7929.3800000000001,1428.26,6517.3599999999997,-13.710699999999999,-3008.29,-783.18600000000004
4314.0,7933.4399999999996,7908.0500000000002,1345.0999999999999,6532.0500000000002,-16.808599999999998,-2879.3200000000002,-843.04700000000003
4315.0,7844.8400000000001,7873.6199999999999,1279.6500000000001,6535.5299999999997,-20.9754,-2750.0999999999999,-895.09400000000005
4316.0,7740.2399999999998,7836.75,1240.0999999999999,6536.8000000000002,-18.780200000000001,-2620.2399999999998,-945.678
4317.0,7639.7799999999997,7759.5500000000002,1167.8800000000001,6496.7299999999996,-11.563800000000001,-2494.8400000000001,-995.40700000000004
4318.0,7537.0299999999997,7664.2299999999996,1088.3199999999999,6440.1099999999997,-8.5834399999999995,-2373.0700000000002,-1036.1400000000001
4319.0,7421.0200000000004,7552.7700000000004,1013.13,6366.1400000000003,-4.5460599999999998,-2251.5700000000002,-1072.0699999999999
4320.0,7298.0,7436.6599999999999,947.32299999999998,6286.6800000000003,-0.36801499999999998,-2132.21,-1103.0999999999999
4321.0,7167.46,7303.2700000000004,877.779,6189.3400000000001,4.1824399999999997,-2014.49,-1129.53
4322.0,7030.9099999999999,7164.9300000000003,815.18100000000004,6086.96,8.8595699999999997,-1898.9400000000001,-1151.6700000000001
4323.0,6888.8100000000004,7012.6599999999999,749.79300000000001,5970.3000000000002,13.7087,-1785.76,-1169.97
4324.0,6741.3400000000001,6861.7600000000002,696.16499999999996,5854.8599999999997,18.378799999999998,-1674.98,-1184.3
4325.0,6590.6300000000001,6698.6499999999996,638.45100000000002,5726.6599999999999,23.212499999999999,-1567.0899999999999,-1195.4200000000001
4326.0,6434.2299999999996,6538.3500000000004,593.18700000000001,5601.29,27.401599999999998,-1461.4300000000001,-1202.45
4327.0,6278.4799999999996,6362.0600000000004,535.94899999999996,5458.9099999999999,31.908000000000001,-1359.5899999999999,-1207.4000000000001
4328.0,6113.3800000000001,6197.6899999999996,502.47899999999998,5329.0600000000004,35.0032,-1258.8099999999999,-1207.3499999999999
4329.0,5959.7600000000002,6011.8999999999996,441.29899999999998,5175.3699999999999,38.654299999999999,-1164.6600000000001,-1207.4100000000001
4330.0,5784.5500000000002,5859.6800000000003,435.06599999999997,5058.0799999999999,39.372799999999998,-1067.5899999999999,-1199.51
4331.0,5652.3900000000003,5655.29,342.54399999999998,4882.1400000000003,43.152799999999999,-985.45899999999995,-1199.3099999999999
4332.0,5440.9799999999996,5551.4200000000001,417.02300000000002,4826.5799999999999,23.307200000000002,-886.41399999999999,-1166.1300000000001
4333.0,5462.0600000000004,5295.2200000000003,153.27199999999999,4558.4499999999998,72.047499999999999,-842.31299999999999,-1224.2
4334.0,5075.6099999999997,5459.1400000000003,610.63099999999997,4896.9499999999998,-154.208,-732.52499999999998,-997.06500000000005
4335.0,25423.299999999999,-15611.1,6065.4700000000003,-17631.299999999999,3356.3600000000001,-3565.0799999999999,4346.25
4336.0,23715.299999999999,-12751.6,7100.3599999999997,-14920.5,3122.2600000000002,-3665.2399999999998,4123.3500000000004
4337.0,21920.0,-10436.0,7296.4499999999998,-12900.4,2951.7800000000002,-3839.5900000000001,3911.8699999999999
4338.0,20146.299999999999,-8692.5200000000004,6867.3800000000001,-11496.799999999999,2713.5999999999999,-4105.5900000000001,3633.3899999999999
4339.0,18447.299999999999,-7206.5200000000004,6370.21,-10107.299999999999,2360.04,-4393.3299999999999,3344.7600000000002
4340.0,16944.799999999999,-5847.5600000000004,6015.3199999999997,-8707.7000000000007,2024.21,-4555.7600000000002,3148.0300000000002
4341.0,15587.9,-4446.54,5798.3699999999999,-7332.6199999999999,1786.24,-4641.54,2939.5700000000002
4342.0,14344.6,-3105.5300000000002,5562.9499999999998,-6038.0299999999997,1565.21,-4720.9200000000001,2732.0900000000001
4343.0,13224.6,-1869.8699999999999,5321.7200000000003,-4832.8900000000003,1360.5999999999999,-4775.9899999999998,2523.1300000000001
4344.0,12233.5,-716.846,5087.5299999999997,-3707.5100000000002,1176.6800000000001,-4810.54,2315.6999999999998
4345.0,11373.5,349.01600000000002,4859.9899999999998,-2660.7600000000002,1010.8,-4827.4799999999996,2112.9499999999998
4346.0,10640.700000000001,1328.26,4636.1599999999999,-1691.6500000000001,862.37199999999996,-4828.4099999999999,1914.97
4347.0,10029.700000000001,2227.3699999999999,4421.3800000000001,-793.41099999999994,730.02200000000005,-4814.1999999999998,1722.3499999999999
4348.0,9532.3999999999996,3043.5599999999999,4208.8400000000001,30.644200000000001,612.47699999999998,-4786.1199999999999,1535.5899999999999
4349.0,9138.8600000000006,3787.0799999999999,4005.8600000000001,790.10699999999997,508.65300000000002,-4745.1800000000003,1354.8800000000001
4350.0,8837.1700000000001,4455.0200000000004,3805.5700000000002,1481.3800000000001,417.22899999999998,-4692.4700000000003,1180.73
4351.0,8614.2700000000004,5058.4099999999999,3615.3000000000002,2114.6399999999999,337.26600000000002,-4629.0500000000002,1013.25
4352.0,8456.7600000000002,5596.0699999999997,3430.0,2688.0900000000001,267.68200000000002,-4555.9799999999996,852.73199999999997
4353.0,8351.3799999999992,6074.25,3252.0,3207.21,207.57900000000001,-4474.2399999999998,699.12099999999998
4354.0,8285.8799999999992,6493.04,3077.6700000000001,3671.5300000000002,155.886,-4384.7299999999996,552.62300000000005
4355.0,8249.3999999999996,6861.4499999999998,2912.3800000000001,4089.3099999999999,111.94199999999999,-4288.3699999999999,413.17899999999997
4356.0,8232.7600000000002,7178.75,2751.71,4459.1700000000001,74.926599999999993,-4186.0799999999999,280.86799999999999
4357.0,8228.2900000000009,7449.75,2596.98,4785.29,44.180399999999999,-4078.71,155.626
4358.0,8229.9799999999996,7675.9799999999996,2446.52,5069.1499999999996,19.099799999999998,-3967.23,37.147300000000001
4359.0,8232.5400000000009,7865.3199999999997,2304.9899999999998,5318.6499999999996,-1.2540899999999999,-3852.0900000000001,-74.421700000000001
4360.0,8232.2000000000007,8013.96,2165.3899999999999,5528.9399999999996,-17.207799999999999,-3733.8200000000002,-179.57599999999999
4361.0,8226.4799999999996,8133.5699999999997,2036.3900000000001,5711.7799999999997,-29.540900000000001,-3613.2199999999998,-277.85500000000002
4362.0,8212.4599999999991,8216.8899999999994,1908.47,5859.4200000000001,-38.111800000000002,-3490.4000000000001,-369.47199999999998
4363.0,8189.8699999999999,8276.5200000000004,1790.6400000000001,5982.8800000000001,-43.677100000000003,-3366.27,-455.27699999999999
4364.0,8158.0100000000002,8303.1700000000001,1671.73,6073.4099999999999,-47.240499999999997,-3241.6999999999998,-535.18200000000002
4365.0,8116.8900000000003,8312.4300000000003,1564.71,6146.6199999999999,-48.290300000000002,-3117.3899999999999,-609.49199999999996
4366.0,8067.9200000000001,8293.7000000000007,1455.0699999999999,6192.2600000000002,-47.561700000000002,-2994.1300000000001,-677.76700000000005
4367.0,8007.5,8262.9599999999991,1359.9000000000001,6227.0699999999997,-47.1389,-2871.3200000000002,-738.63499999999999
4368.0,7930.9099999999999,8219.4699999999993,1281.6400000000001,6251.0600000000004,-45.682400000000001,-2747.96,-793.24000000000001
4369.0,7836.8500000000004,8177.6999999999998,1232.6800000000001,6277.4399999999996,-41.835900000000002,-2623.21,-840.69600000000003
4370.0,7730.79,8117.3800000000001,1185.3900000000001,6280.7799999999997,-32.957299999999996,-2497.6599999999999,-885.57000000000005
4371.0,7626.8999999999996,8031.4099999999999,1121.0599999999999,6254.4499999999998,-21.755800000000001,-2376.1100000000001,-930.85199999999998
4372.0,7522.0699999999997,7917.8599999999997,1039.9300000000001,6203.0100000000002,-13.7462,-2258.7600000000002,-970.02700000000004
4373.0,7406.3299999999999,7793.3000000000002,965.51700000000005,6141.4899999999998,-5.4676900000000002,-2142.02,-1003.34
4374.0,7282.6899999999996,7653.29,890.27300000000002,6063.9799999999996,2.89392,-2026.8900000000001,-1032.29
4375.0,7152.0100000000002,7508.5500000000002,824.11300000000006,5981.5,10.888199999999999,-1914.0699999999999,-1057.3299999999999
4376.0,7014.9499999999998,7356.2700000000004,762.79399999999998,5890.7399999999998,18.583600000000001,-1803.6800000000001,-1078.5599999999999
4377.0,6872.9399999999996,7198.21,705.88900000000001,5792.9499999999998,26.627099999999999,-1695.78,-1096.4400000000001
4378.0,6726.0600000000004,7032.5600000000004,650.61800000000005,5686.4399999999996,33.871299999999998,-1590.3699999999999,-1110.3
4379.0,6575.6300000000001,6860.4099999999999,596.74599999999998,5571.9700000000003,41.281100000000002,-1487.49,-1121.4100000000001
4380.0,6420.1999999999998,6686.7200000000003,549.76700000000005,5455.3599999999997,47.681199999999997,-1386.75,-1128.5999999999999
4381.0,6265.29,6506.6899999999996,499.85300000000001,5330.5200000000004,54.434600000000003,-1289.3599999999999,-1133.9000000000001
4382.0,6101.6899999999996,6330.8100000000004,465.11599999999999,5210.5500000000002,59.401600000000002,-1192.8900000000001,-1134.4400000000001
4383.0,5949.3199999999997,6138.1800000000003,406.98599999999999,5070.4700000000003,65.087900000000005,-1102.7,-1135.28
4384.0,5775.8100000000004,5971.2299999999996,396.25299999999999,4959.5600000000004,67.168000000000006,-1010.14,-1128.6300000000001
4385.0,5644.7700000000004,5761.0500000000002,306.51600000000002,4795.21,72.643500000000003,-931.88400000000001,-1129.26
4386.0,5435.79,5638.7299999999996,372.964,4741.75,53.003300000000003,-837.62,-1099.24
4387.0,5457.4399999999996,5380.0500000000002,108.642,4481.4099999999999,105.822,-794.82799999999997,-1154.22
4388.0,5070.8100000000004,5545.5200000000004,590.42600000000004,4842.5100000000002,-131.446,-691.90700000000004,-941.88
4389.0,23859.5,-13084.799999999999,6675.6700000000001,-16025.6,2898.3499999999999,-3611.5100000000002,3987.7199999999998
4390.0,22216.099999999999,-10754.6,7115.1099999999997,-13920.799999999999,2771.25,-3738.6300000000001,3770.7399999999998
4391.0,20424.200000000001,-9021.8199999999997,6721.5299999999997,-12462.6,2505.8200000000002,-3973.1500000000001,3516.1700000000001
4392.0,18755.799999999999,-7394.0799999999999,6374.1000000000004,-10998.0,2182.8400000000001,-4187.0600000000004,3302.6399999999999
4393.0,17275.099999999999,-5827.2799999999997,6149.0299999999997,-9533.9500000000007,1922.3499999999999,-4333.9799999999996,3132.0999999999999
4394.0,15914.1,-4321.6700000000001,5966.3000000000002,-8123.1800000000003,1697.74,-4445.04,2940.0500000000002
4395.0,14641.1,-2978.71,5702.9099999999999,-6841.5699999999997,1469.1199999999999,-4532.04,2734.9699999999998
4396.0,13494.299999999999,-1714.05,5458.8599999999997,-5633.3900000000003,1260.78,-4588.7700000000004,2532.0100000000002
4397.0,12481.4,-535.83299999999997,5221.6300000000001,-4502.0600000000004,1075.8099999999999,-4628.5799999999999,2332.8600000000001
4398.0,11598.1,551.78499999999997,4992.1599999999999,-3445.23,909.79200000000003,-4650.1300000000001,2138.6300000000001
4399.0,10840.200000000001,1550.27,4765.3900000000003,-2464.27,761.68200000000002,-4655.4700000000003,1948.3099999999999
4400.0,10203.4,2467.0700000000002,4547.2799999999997,-1552.1700000000001,629.88499999999999,-4645.7700000000004,1763.28
4401.0,9680.6499999999996,3300.0799999999999,4331.5100000000002,-712.09199999999998,513.42700000000002,-4622.4799999999996,1583.51
4402.0,9262.8199999999997,4060.1399999999999,4125.9200000000001,66.001199999999997,410.935,-4586.6499999999996,1409.5999999999999
4403.0,8938.7600000000002,4743.6300000000001,3922.98,777.61400000000003,321.33300000000003,-4539.3800000000001,1241.73
4404.0,8696.1700000000001,5361.3400000000001,3729.75,1432.52,243.46600000000001,-4481.7200000000003,1080.2
4405.0,8521.8999999999996,5909.8599999999997,3539.0,2026.4200000000001,176.339,-4414.6400000000003,925.08100000000002
4406.0,8402.9899999999998,6398.0600000000004,3355.7399999999998,2567.29,118.904,-4339.0799999999999,776.49800000000005
4407.0,8327.2999999999993,6827.3999999999996,3177.6700000000001,3055.6900000000001,70.2577,-4256.0,634.54999999999995
4408.0,8283.7199999999993,7205.04,3008.3600000000001,3498.0900000000001,29.486799999999999,-4166.25,499.31200000000001
4409.0,8262.6599999999999,7529.0500000000002,2842.1999999999998,3891.79,-4.1282399999999999,-4070.6399999999999,370.66199999999998
4410.0,8256.0400000000009,7807.5699999999997,2683.8600000000001,4244.2700000000004,-31.376300000000001,-3969.9499999999998,248.619
4411.0,8257.3600000000006,8042.0,2531.4200000000001,4556.3900000000003,-52.9255,-3864.98,133.06700000000001
4412.0,8261.2700000000004,8237.7000000000007,2386.9400000000001,4832.8999999999996,-69.473600000000005,-3756.2800000000002,24.005299999999998
4413.0,8263.7399999999998,8391.8899999999994,2244.6599999999999,5070.3100000000004,-81.430800000000005,-3644.54,-78.726799999999997
4414.0,8261.8099999999995,8515.1499999999996,2112.1999999999998,5278.9799999999996,-89.436400000000006,-3530.4400000000001,-175.125
4415.0,8252.9899999999998,8600.2099999999991,1979.6199999999999,5451.2200000000003,-93.863900000000001,-3414.3600000000001,-265.65800000000002
4416.0,8236.1000000000004,8661.7299999999996,1858.49,5600.9300000000003,-95.527500000000003,-3296.9000000000001,-350.29300000000001
4417.0,8209.9699999999993,8689.6900000000005,1736.72,5717.9799999999996,-94.462299999999999,-3178.6700000000001,-429.03800000000001
4418.0,8174.2299999999996,8699.3199999999997,1626.9200000000001,5817.6899999999996,-91.010599999999997,-3060.2199999999998,-501.92200000000003
4419.0,8128.0299999999997,8679.1399999999994,1515.72,5888.7200000000003,-85.797300000000007,-2941.5700000000002,-569.226
4420.0,8073.2700000000004,8644.6200000000008,1414.6400000000001,5945.2600000000002,-78.473100000000002,-2823.5799999999999,-632.05899999999997
4421.0,8007.79,8588.9899999999998,1317.52,5982.6899999999996,-72.375600000000006,-2706.5100000000002,-687.51499999999999
4422.0,7925.3500000000004,8532.5100000000002,1247.6900000000001,6020.0500000000002,-63.965600000000002,-2587.8099999999999,-737.22900000000004
4423.0,7835.1700000000001,8450.3199999999997,1169.4100000000001,6027.8699999999999,-52.026499999999999,-2469.4200000000001,-784.298
4424.0,7734.8000000000002,8363.3899999999994,1106.04,6030.1400000000003,-43.875,-2352.4099999999999,-824.57500000000005
4425.0,7624.5299999999997,8261.0,1046.48,6013.3299999999999,-29.5001,-2236.0799999999999,-865.11000000000001
4426.0,7517.1599999999999,8143.3000000000002,977.46900000000005,5979.21,-17.9313,-2124.7800000000002,-901.40999999999997
4427.0,7395.4499999999998,8007.2700000000004,911.90800000000002,5929.3000000000002,-9.8837200000000003,-2013.78,-932.42999999999995
4428.0,7265.8900000000003,7868.7799999999997,859.654,5876.9499999999998,2.5449999999999999,-1904.23,-962.72299999999996
4429.0,7136.6199999999999,7708.75,791.28499999999997,5801.7200000000003,14.2689,-1798.79,-987.83000000000004
4430.0,7001.1099999999997,7546.6400000000003,730.86699999999996,5722.1099999999997,25.3413,-1694.9000000000001,-1007.89
4431.0,6859.3999999999996,7370.0299999999997,666.50400000000002,5626.9200000000001,35.594799999999999,-1592.6099999999999,-1024.3
4432.0,6712.0100000000002,7196.4499999999998,615.27599999999995,5534.21,45.884099999999997,-1492.1400000000001,-1037.6099999999999
4433.0,6562.5900000000001,7010.75,558.06100000000004,5427.8100000000004,55.872199999999999,-1394.5799999999999,-1048.02
4434.0,6407.6800000000003,6829.9499999999998,514.73199999999997,5325.46,64.635800000000003,-1299.03,-1055.0
4435.0,6253.6400000000003,6633.71,459.00200000000001,5205.1700000000001,73.694800000000001,-1206.97,-1060.5799999999999
4436.0,6091.0600000000004,6451.2399999999998,428.01900000000001,5098.8500000000004,80.258099999999999,-1116.2,-1061.6800000000001
4437.0,5939.4200000000001,6248.5200000000004,369.416,4967.0,87.899100000000004,-1031.1700000000001,-1063.28
4438.0,5767.5500000000002,6078.8999999999996,364.78300000000002,4872.29,91.369100000000003,-943.73199999999997,-1057.5599999999999
4439.0,5637.3199999999997,5859.8999999999996,273.98500000000001,4715.7299999999996,98.605800000000002,-869.53599999999994,-1058.55
4440.0,5430.4300000000003,5738.1199999999999,350.79399999999998,4682.5200000000004,79.363,-780.83799999999997,-1031.3199999999999
4441.0,5451.0600000000004,5476.4200000000001,86.845200000000006,4429.1599999999999,135.80099999999999,-739.99400000000003,-1082.5699999999999
4442.0,5065.0500000000002,5613.46,560.79399999999998,4778.8000000000002,-110.592,-645.85199999999998,-886.53399999999999
4443.0,22662.099999999999,-10986.299999999999,7157.9300000000003,-14775.799999999999,2656.9099999999999,-3647.23,3658.48
4444.0,21035.799999999999,-9336.1900000000005,6868.9200000000001,-13376.9,2445.27,-3801.3099999999999,3502.5300000000002
4445.0,19444.099999999999,-7620.1999999999998,6657.0600000000004,-11892.6,2167.3800000000001,-3974.9000000000001,3341.23
4446.0,17924.0,-6016.0100000000002,6432.71,-10438.200000000001,1911.45,-4117.2600000000002,3155.7399999999998
4447.0,16475.099999999999,-4535.1700000000001,6156.2399999999998,-9081.1800000000003,1657.03,-4222.1400000000003,2951.5500000000002
4448.0,15144.0,-3144.6799999999998,5877.5200000000004,-7803.1700000000001,1416.52,-4301.1099999999997,2750.2199999999998
4449.0,13954.799999999999,-1818.3800000000001,5635.6899999999996,-6574.9399999999996,1205.0799999999999,-4363.7399999999998,2556.7399999999998
4450.0,12897.4,-593.44500000000005,5399.5100000000002,-5420.1000000000004,1015.86,-4408.7600000000002,2366.1999999999998
4451.0,11965.0,532.40899999999999,5162.3999999999996,-4344.0100000000002,845.14599999999996,-4434.3999999999996,2178.0799999999999
4452.0,11159.0,1570.6600000000001,4932.1599999999999,-3338.5300000000002,692.50800000000004,-4444.2200000000003,1994.0799999999999
4453.0,10475.6,2522.8600000000001,4708.1899999999996,-2402.4400000000001,557.322,-4439.5500000000002,1814.8199999999999
4454.0,9908.4300000000003,3390.6599999999999,4488.6199999999999,-1535.1500000000001,438.077,-4421.46,1640.71
4455.0,9449.3600000000006,4181.8400000000001,4277.4799999999996,-730.20699999999999,333.584,-4391.2200000000003,1472.0699999999999
4456.0,9088.25,4894.1599999999999,4068.8699999999999,8.8918900000000001,242.654,-4349.8299999999999,1309.0999999999999
4457.0,8813.3899999999994,5537.8999999999996,3869.25,691.34900000000005,163.99600000000001,-4298.3299999999999,1152.0999999999999
4458.0,8612.0499999999993,6110.9399999999996,3672.6500000000001,1313.8499999999999,96.633600000000001,-4237.6099999999997,1001.15
4459.0,8471.4899999999998,6623.5299999999997,3485.4499999999998,1885.54,39.447499999999998,-4168.6499999999996,856.45100000000002
4460.0,8379.2000000000007,7075.4499999999998,3303.6300000000001,2405.1900000000001,-8.4831299999999992,-4092.3299999999999,718.05499999999995
4461.0,8323.6499999999996,7471.6800000000003,3128.46,2876.8499999999999,-48.058500000000002,-4009.4299999999998,585.95000000000005
4462.0,8294.7700000000004,7813.4200000000001,2957.3899999999999,3300.73,-80.135599999999997,-3920.77,460.12
4463.0,8283.8999999999996,8108.46,2794.7800000000002,3683.8400000000001,-105.52200000000001,-3827.0999999999999,340.57799999999997
4464.0,8283.7199999999993,8356.4799999999996,2636.98,4025.0999999999999,-124.873,-3729.0799999999999,227.24000000000001
4465.0,8288.5699999999997,8561.6000000000004,2484.6199999999999,4327.8699999999999,-138.87799999999999,-3627.3699999999999,120.015
4466.0,8293.9400000000005,8725.8999999999996,2336.7399999999998,4593.5600000000004,-148.16399999999999,-3522.6500000000001,18.817900000000002
4467.0,8296.1399999999994,8856.4500000000007,2197.5,4828.7700000000004,-153.30699999999999,-3415.3699999999999,-76.503100000000003
4468.0,8292.7299999999996,8950.1700000000001,2060.77,5029.7600000000002,-154.851,-3306.0799999999999,-166.107
4469.0,8281.8299999999999,9017.7600000000002,1934.5599999999999,5206.5100000000002,-153.232,-3195.2800000000002,-249.988
4470.0,8262.2900000000009,9051.1200000000008,1808.3299999999999,5350.8900000000003,-148.84399999999999,-3083.5999999999999,-328.322
4471.0,8232.9200000000001,9063.3500000000004,1692.79,5475.6899999999996,-142.10900000000001,-2971.1700000000001,-401.42700000000002
4472.0,8193.5300000000007,9045.9200000000001,1576.8099999999999,5571.8299999999999,-133.56399999999999,-2858.3600000000001,-469.47899999999998
4473.0,8144.0900000000001,9012.5799999999999,1471.8800000000001,5652.3299999999999,-123.41200000000001,-2745.6100000000001,-532.45500000000004
4474.0,8084.9099999999999,8953.1499999999996,1365.79,5707.5299999999997,-111.768,-2633.4499999999998,-590.69000000000005
4475.0,8015.1800000000003,8880.75,1270.1600000000001,5750.6499999999996,-99.766300000000001,-2521.5599999999999,-643.35699999999997
4476.0,7934.75,8788.1000000000004,1175.79,5772.04,-86.127799999999993,-2409.5999999999999,-691.53399999999999
4477.0,7847.6800000000003,8687.8400000000001,1091.1099999999999,5783.3400000000001,-72.267099999999999,-2299.5599999999999,-735.92200000000003
4478.0,7745.7200000000003,8578.2399999999998,1021.5,5787.7399999999998,-61.560000000000002,-2189.98,-773.02099999999996
4479.0,7634.3299999999999,8458.5400000000009,959.34299999999996,5778.3400000000001,-42.671799999999998,-2080.4299999999998,-810.54899999999998
4480.0,7523.3999999999996,8319.7600000000002,886.346,5748.6300000000001,-30.246600000000001,-1976.51,-841.61699999999996
4481.0,7393.3999999999996,8189.3599999999997,847.72799999999995,5728.6899999999996,-15.5754,-1872.02,-867.79499999999996
4482.0,7263.1499999999996,8039.0600000000004,794.79600000000005,5682.8900000000003,4.0320099999999996,-1769.8,-893.40499999999997
4483.0,7133.8500000000004,7872.9200000000001,729.78099999999995,5618.5799999999999,18.7227,-1670.8299999999999,-915.13400000000001
4484.0,6998.7799999999997,7695.46,664.35000000000002,5542.29,32.999400000000001,-1573.24,-934.69799999999998
4485.0,6859.0299999999997,7518.46,608.03399999999999,5465.2399999999998,44.075200000000002,-1477.8800000000001,-949.91700000000003
4486.0,6708.2600000000002,7338.0200000000004,563.53599999999994,5385.1300000000001,54.000799999999998,-1382.8099999999999,-962.26900000000001
4487.0,6553.3000000000002,7150.4399999999996,521.24099999999999,5297.8199999999997,65.200400000000002,-1289.98,-973.60500000000002
4488.0,6397.3400000000001,6959.5100000000002,480.63299999999998,5205.6599999999999,77.575299999999999,-1200.27,-982.71900000000005
4489.0,6245.5799999999999,6762.0500000000002,432.08600000000001,5103.1700000000001,88.7273,-1115.0599999999999,-988.923
4490.0,6084.4700000000003,6567.3000000000002,397.39999999999998,5003.0500000000002,98.113299999999995,-1030.4100000000001,-990.50900000000001
4491.0,5934.4399999999996,6359.3500000000004,340.77100000000002,4883.1599999999999,107.396,-951.23599999999999,-991.72299999999996
4492.0,5762.79,6174.1800000000003,330.18599999999998,4790.6099999999997,112.44799999999999,-869.70000000000005,-986.87199999999996
4493.0,5632.3199999999997,5952.8400000000001,245.08600000000001,4646.1700000000001,121.035,-800.52099999999996,-988.07100000000003
4494.0,5426.8599999999997,5809.7299999999996,309.82799999999997,4608.4499999999998,102.93600000000001,-717.92399999999998,-963.976
4495.0,5445.0100000000002,5547.8699999999999,49.292200000000001,4364.5299999999997,161.684,-678.51199999999994,-1010.0599999999999
4496.0,5061.5699999999997,5681.46,536.73000000000002,4725.7399999999998,-89.850300000000004,-593.08399999999995,-831.73699999999997
4497.0,21796.299999999999,-9733.25,7105.8400000000001,-14260.799999999999,2460.27,-3657.5999999999999,3487.7800000000002
4498.0,20368.599999999999,-8310.7700000000004,6849.9499999999998,-13064.299999999999,2189.9499999999998,-3759.1199999999999,3346.1100000000001
4499.0,18853.200000000001,-6752.1400000000003,6617.21,-11709.6,1926.79,-3858.6399999999999,3164.5100000000002
4500.0,17365.0,-5215.4399999999996,6341.5200000000004,-10372.5,1669.04,-3954.8099999999999,2972.46
4501.0,15987.200000000001,-3709.9400000000001,6112.5900000000001,-9037.7600000000002,1427.28,-4040.98,2786.3000000000002
4502.0,14726.799999999999,-2307.23,5876.3299999999999,-7769.8400000000001,1207.6300000000001,-4111.4099999999999,2599.8000000000002
4503.0,13583.9,-1014.9,5630.9399999999996,-6579.1599999999999,1005.3200000000001,-4159.5799999999999,2413.5599999999999
4504.0,12567.700000000001,180.042,5384.8900000000003,-5464.5799999999999,822.99400000000003,-4189.8000000000002,2230.0900000000001
4505.0,11681.799999999999,1288.0899999999999,5151.8299999999999,-4414.3199999999997,660.54700000000003,-4205.2600000000002,2051.4099999999999
4506.0,10920.799999999999,2302.0700000000002,4920.7200000000003,-3436.46,516.75699999999995,-4206.29,1877.03
4507.0,10280.0,3229.4899999999998,4695.3599999999997,-2525.3499999999999,389.95100000000002,-4194.1999999999998,1707.45
4508.0,9752.9400000000005,4074.5599999999999,4476.4399999999996,-1678.5,279.05099999999999,-4170.2600000000002,1542.9300000000001
4509.0,9330.4899999999998,4838.4799999999996,4261.3699999999999,-896.20799999999997,182.70500000000001,-4135.3100000000004,1383.8900000000001
4510.0,9002.0400000000009,5530.4300000000003,4055.3400000000001,-170.672,99.729299999999995,-4090.4699999999998,1230.49
4511.0,8755.4500000000007,6148.6499999999996,3852.8099999999999,494.81,28.940799999999999,-4036.5300000000002,1082.9200000000001
4512.0,8577.9899999999998,6702.5799999999999,3659.2399999999998,1108.5599999999999,-30.842600000000001,-3974.5300000000002,941.25199999999995
4513.0,8456.7900000000009,7190.3100000000004,3468.8699999999999,1667.25,-80.534700000000001,-3905.1799999999998,805.55999999999995
4514.0,8379.7299999999996,7619.3199999999997,3285.25,2177.3000000000002,-121.208,-3829.3400000000001,675.90899999999999
4515.0,8335.8199999999997,7992.3800000000001,3107.4299999999998,2640.25,-153.702,-3747.75,552.274
4516.0,8315.4599999999991,8315.4599999999991,2937.8000000000002,3061.21,-178.98599999999999,-3661.1999999999998,434.68799999999999
4517.0,8310.3799999999992,8587.5699999999997,2771.8200000000002,3438.0700000000002,-197.66399999999999,-3570.25,323.01400000000001
4518.0,8313.9699999999993,8815.9699999999993,2613.27,3777.3000000000002,-210.584,-3475.5900000000001,217.209
4519.0,8320.9400000000005,9002.8199999999997,2461.0700000000002,4080.1700000000001,-218.39699999999999,-3377.8400000000001,117.18899999999999
4520.0,8326.9500000000007,9152.3799999999992,2316.4499999999998,4350.2600000000002,-221.756,-3277.48,22.852599999999999
4521.0,8328.9099999999999,9262.5699999999997,2174.2600000000002,4584.6099999999997,-221.048,-3175.0300000000002,-65.951700000000002
4522.0,8324.5900000000001,9343.4300000000003,2041.6500000000001,4792.7200000000003,-216.976,-3071.04,-149.28999999999999
4523.0,8312.0599999999995,9387.5300000000007,1908.6700000000001,4966.7299999999996,-209.79499999999999,-2965.8499999999999,-227.43199999999999
4524.0,8290.3500000000004,9410.4400000000005,1788.1099999999999,5121.6099999999997,-200.30000000000001,-2859.8299999999999,-300.411
4525.0,8258.6700000000001,9400.4500000000007,1666.01,5244.8800000000001,-188.52000000000001,-2753.3299999999999,-368.43400000000003
4526.0,8216.9300000000003,9373.6900000000005,1556.03,5352.4200000000001,-175.06999999999999,-2646.8800000000001,-431.49400000000003
4527.0,8164.6099999999997,9317.5200000000004,1443.7,5431.5,-160.00299999999999,-2540.5700000000002,-489.99400000000003
4528.0,8102.0600000000004,9249.4500000000007,1344.1400000000001,5498.9700000000003,-144.101,-2434.6199999999999,-543.92399999999998
4529.0,8029.7700000000004,9156.7299999999996,1242.49,5541.2299999999996,-127.182,-2329.3600000000001,-593.798
4530.0,7949.3599999999997,9054.1200000000008,1150.8599999999999,5572.9300000000003,-109.751,-2225.6999999999998,-639.69200000000001
4531.0,7859.3000000000002,8931.4899999999998,1059.24,5585.0100000000002,-92.895799999999994,-2123.3800000000001,-680.58799999999997
4532.0,7755.6599999999999,8808.0300000000007,989.03399999999999,5596.4899999999998,-76.500399999999999,-2021.0599999999999,-716.24000000000001
4533.0,7644.0699999999997,8667.4300000000003,917.85799999999995,5588.2299999999996,-56.286900000000003,-1919.9200000000001,-750.39300000000003
4534.0,7526.5799999999999,8524.5200000000004,857.375,5577.96,-39.189399999999999,-1821.0899999999999,-778.90999999999997
4535.0,7401.4099999999999,8357.1100000000006,785.17499999999995,5540.8699999999999,-17.075399999999998,-1721.6700000000001,-805.52099999999996
4536.0,7279.8999999999996,8178.8199999999997,703.61300000000006,5486.8199999999997,1.89551,-1626.0699999999999,-829.11500000000001
4537.0,7148.1000000000004,7995.2399999999998,633.10599999999999,5426.9300000000003,16.4663,-1532.6900000000001,-848.13099999999997
4538.0,7009.5,7812.9399999999996,576.62099999999998,5366.1099999999997,33.536000000000001,-1441.54,-866.10400000000004
4539.0,6870.5699999999997,7618.4300000000003,512.52099999999996,5289.6999999999998,48.107399999999998,-1354.23,-880.68399999999997
4540.0,6717.6400000000003,7441.5,483.38299999999998,5232.0799999999999,57.387300000000003,-1267.6500000000001,-889.27999999999997
4541.0,6549.5600000000004,7266.75,476.27800000000002,5177.6700000000001,69.875900000000001,-1180.24,-897.07000000000005
4542.0,6389.3699999999999,7079.9300000000003,453.46699999999998,5104.7799999999997,90.167599999999993,-1096.24,-907.64700000000005
4543.0,6243.3299999999999,6869.96,394.12299999999999,5002.1499999999996,103.032,-1018.62,-913.78099999999995
4544.0,6081.0900000000001,6669.7299999999996,363.14400000000001,4912.3599999999997,112.197,-939.51900000000001,-915.67899999999997
4545.0,5929.8000000000002,6453.0500000000002,307.62599999999998,4799.79,123.166,-865.33299999999997,-918.54100000000005
4546.0,5757.8999999999996,6265.7600000000002,304.39400000000001,4723.2799999999997,129.625,-789.70100000000002,-914.74599999999998
4547.0,5627.5600000000004,6036.4099999999999,218.374,4585.75,140.39500000000001,-725.38499999999999,-916.125
4548.0,5422.71,5891.5200000000004,291.17599999999999,4563.7399999999998,123.587,-649.66600000000005,-894.96299999999997
4549.0,5440.4799999999996,5631.4899999999998,34.591999999999999,4329.5799999999999,183.62299999999999,-613.68499999999995,-937.05799999999999
4550.0,5055.0600000000004,5734.2299999999996,512.18299999999999,4673.0500000000002,-74.087599999999995,-538.23599999999999,-777.55100000000004
4551.0,5045.9200000000001,5788.96,499.32499999999999,4639.5,-57.257100000000001,-477.995,-717.57600000000002
4552.0,5048.71,5777.0500000000002,417.55200000000002,4555.5799999999999,-44.580500000000001,-408.83199999999999,-661.40099999999995
4553.0,5056.6400000000003,5796.9099999999999,371.84800000000001,4506.04,-45.276299999999999,-341.32799999999997,-610.85000000000002
4554.0,5064.8299999999999,5825.6099999999997,342.428,4478.4700000000003,-44.145299999999999,-275.45699999999999,-555.47000000000003
4555.0,5079.0299999999997,5882.5799999999999,344.66300000000001,4495.0699999999997,-40.628799999999998,-205.322,-501.78199999999998
4556.0,5099.0500000000002,5912.7399999999998,322.49200000000002,4496.4799999999996,-41.196599999999997,-131.947,-448.52600000000001
4557.0,5124.1199999999999,5971.4099999999999,332.416,4538.7600000000002,-44.6721,-58.559100000000001,-395.084
4558.0,5154.6499999999996,5999.54,315.04199999999997,4562.8900000000003,-51.567900000000002,16.1022,-341.94299999999998
4559.0,5188.8900000000003,6060.4700000000003,334.84399999999999,4629.7799999999997,-61.591200000000001,90.945899999999995,-288.86500000000001
4560.0,5227.6099999999997,6083.1300000000001,321.05399999999997,4671.8599999999997,-74.899299999999997,165.99299999999999,-235.928
4561.0,5267.46,6145.3699999999999,354.03399999999999,4763.0,-92.114800000000002,241.142,-183.84299999999999
4562.0,5308.9700000000003,6160.0600000000004,349.71899999999999,4827.0200000000004,-117.64,315.99200000000002,-132.22399999999999
4563.0,5347.9099999999999,6253.5799999999999,436.72899999999998,4980.4099999999999,-161.81399999999999,385.82600000000002,-89.803200000000004
4564.0,5431.29,5675.9799999999996,-4.9285199999999998,4270.3699999999999,204.48400000000001,-541.33500000000004,-862.35299999999995
4565.0,5428.0200000000004,5711.3800000000001,-49.2044,4221.8599999999997,224.19,-461.96800000000002,-785.255
4566.0,5439.6000000000004,5696.1400000000003,-145.63900000000001,4132.04,236.88300000000001,-382.07900000000001,-718.15700000000004
4567.0,5451.8100000000004,5752.79,-162.75200000000001,4120.3500000000004,246.726,-303.57499999999999,-648.44000000000005
4568.0,5469.3999999999996,5792.3800000000001,-192.83500000000001,4109.7799999999997,254.30600000000001,-221.90100000000001,-574.28700000000003
4569.0,5493.8900000000003,5854.3100000000004,-196.21899999999999,4137.8199999999997,258.07299999999998,-136.464,-502.51799999999997
4570.0,5523.6599999999999,5885.0799999999999,-226.36799999999999,4147.1499999999996,259.07100000000003,-50.693399999999997,-429.28100000000001
4571.0,5559.4899999999998,5941.9899999999998,-225.90199999999999,4197.1599999999999,256.65899999999999,37.1143,-356.24400000000003
4572.0,5599.6700000000001,5963.8299999999999,-254.941,4224.3000000000002,251.11199999999999,124.59099999999999,-282.334
4573.0,5644.8699999999999,6012.8199999999997,-251.148,4293.1999999999998,241.505,213.47399999999999,-208.23500000000001
4574.0,5693.1000000000004,6026.4399999999996,-276.05900000000003,4338.2200000000003,227.71299999999999,300.18900000000002,-134.05500000000001
4575.0,5741.0299999999997,6059.1800000000003,-269.24099999999999,4422.9899999999998,208.22999999999999,385.93400000000003,-60.520600000000002
4576.0,5781.8400000000001,6040.1999999999998,-295.37900000000002,4476.6899999999996,180.16,466.81400000000002,8.5413200000000007
4577.0,5418.8800000000001,5948.8500000000004,256.88999999999999,4505.2299999999996,141.244,-574.66300000000001,-826.28999999999996
4578.0,5425.29,5988.1499999999996,204.715,4449.8500000000004,157.29900000000001,-496.66500000000002,-753.154
4579.0,5443.0500000000002,5986.9499999999998,114.726,4367.9399999999996,165.233,-415.64499999999998,-690.29300000000001
4580.0,5457.0200000000004,6046.75,97.103700000000003,4349.9300000000003,171.79400000000001,-333.41699999999997,-625.84900000000005
4581.0,5476.3100000000004,6101.3900000000003,78.472899999999996,4346.3800000000001,177.209,-247.00399999999999,-555.98800000000006
4582.0,5502.3900000000003,6162.8999999999996,71.891199999999998,4367.5699999999997,177.88399999999999,-158.06200000000001,-489.267
4583.0,5532.8100000000004,6208.0600000000004,54.6113,4386.2600000000002,176.114,-67.246600000000001,-421.02999999999997
4584.0,5568.1000000000004,6265.8000000000002,55.920099999999998,4432.75,170.87200000000001,25.198899999999998,-353.37400000000002
4585.0,5607.4099999999999,6301.4700000000003,42.0334,4472.6599999999999,163.036,118.223,-284.96800000000002
4586.0,5648.7600000000002,6351.1700000000001,51.272799999999997,4541.3500000000004,152.398,212.482,-216.69800000000001
4587.0,5690.5200000000004,6365.6499999999996,37.173999999999999,4595.0900000000001,140.18000000000001,304.73899999999998,-147.114
4588.0,5724.71,6386.6899999999996,51.549900000000001,4678.7799999999997,127.127,397.67000000000002,-77.950199999999995
4589.0,5747.4899999999998,6349.1800000000003,32.550800000000002,4732.8100000000004,114.474,480.20800000000003,-6.3359399999999999
4590.0,5622.6599999999999,6110.8800000000001,192.517,4528.79,154.952,-642.90099999999995,-843.73699999999997
4591.0,5632.4799999999996,6154.5900000000001,134.03399999999999,4464.6099999999997,169.101,-558.64300000000003,-769.03899999999999
4592.0,5658.3599999999997,6167.8900000000003,42.997199999999999,4379.2700000000004,179.46199999999999,-471.358,-706.04700000000003
4593.0,5678.7200000000003,6237.29,20.982500000000002,4355.1300000000001,186.25299999999999,-379.45600000000002,-639.50199999999995
4594.0,5702.2700000000004,6307.0600000000004,7.2912600000000003,4354.9200000000001,189.673,-283.161,-567.89200000000005
4595.0,5733.5,6372.6800000000003,-5.2931499999999998,4369.3599999999997,189.92500000000001,-184.428,-499.35399999999998
4596.0,5769.1300000000001,6430.5500000000002,-18.919799999999999,4391.9799999999996,187.28700000000001,-82.346900000000005,-429.58199999999999
4597.0,5809.5100000000002,6487.8100000000004,-25.704599999999999,4431.6800000000003,181.52799999999999,21.331700000000001,-360.19400000000002
4598.0,5854.1300000000001,6531.3800000000001,-38.250399999999999,4475.4700000000003,172.86699999999999,126.788,-290.21100000000001
4599.0,5900.4499999999998,6575.71,-39.2834,4537.3400000000001,160.82599999999999,232.86000000000001,-220.399
4600.0,5946.7600000000002,6597.3000000000002,-49.0229,4600.9399999999996,145.56800000000001,337.96499999999997,-149.64599999999999
4601.0,5981.0200000000004,6607.5900000000001,-42.8431,4678.7200000000003,127.67700000000001,440.95999999999998,-80.449100000000001
4602.0,5997.4799999999996,6555.2600000000002,-64.337800000000001,4734.6700000000001,107.27,533.20399999999995,-9.6751900000000006
4603.0,5761.7600000000002,6343.1999999999998,264.33600000000001,4653.5,139.91800000000001,-703.81799999999998,-840.01599999999996
4604.0,5781.1400000000003,6380.8299999999999,184.93700000000001,4569.2399999999998,149.37899999999999,-615.50199999999995,-768.44500000000005
4605.0,5800.9200000000001,6430.9499999999998,132.14599999999999,4507.6800000000003,160.69900000000001,-521.57600000000002,-706.51400000000001
4606.0,5820.7799999999997,6510.3800000000001,115.381,4484.2700000000004,168.03,-420.75700000000001,-638.10799999999995
4607.0,5849.5699999999997,6588.1400000000003,100.369,4480.8900000000003,168.928,-317.096,-568.59900000000005
4608.0,5883.46,6661.9300000000003,89.413799999999995,4493.5600000000004,167.58199999999999,-210.304,-499.99200000000002
4609.0,5922.3199999999997,6727.9099999999999,78.108400000000003,4517.0600000000004,162.983,-99.315399999999997,-431.50999999999999
4610.0,5965.1199999999999,6791.5299999999997,73.445800000000006,4557.2700000000004,155.53700000000001,13.6547,-362.81799999999998
4611.0,6012.0600000000004,6843.2299999999996,66.131600000000006,4605.8900000000003,145.18299999999999,129.001,-294.20999999999998
4612.0,6059.6899999999996,6892.0799999999999,69.034999999999997,4671.8299999999999,132.40100000000001,245.15299999999999,-225.363
4613.0,6106.3400000000001,6913.3699999999999,60.868099999999998,4737.9399999999996,117.964,360.89400000000001,-155.67099999999999
4614.0,6138.8800000000001,6920.2700000000004,69.155600000000007,4819.3699999999999,102.879,473.81599999999997,-86.834299999999999
4615.0,6151.6999999999998,6864.7299999999996,53.417499999999997,4884.1300000000001,87.410700000000006,575.46699999999998,-15.5397
4616.0,5938.3199999999997,6534.1599999999999,259.60599999999999,4719.0200000000004,136.226,-773.25099999999998,-844.31299999999999
4617.0,5963.0900000000001,6569.5200000000004,165.97800000000001,4615.6099999999997,145.952,-677.59100000000001,-775.89599999999996
4618.0,5981.5,6649.4799999999996,136.35300000000001,4566.8800000000001,150.67599999999999,-576.93499999999995,-711.29999999999995
4619.0,6002.7399999999998,6738.1599999999999,121.443,4542.8299999999999,153.95699999999999,-468.245,-640.19399999999996
4620.0,6035.8800000000001,6827.3299999999999,108.741,4538.6899999999996,153.50999999999999,-355.40499999999997,-571.91600000000005
4621.0,6073.3800000000001,6908.2799999999997,96.825800000000001,4547.0799999999999,150.27099999999999,-238.95400000000001,-502.95800000000003
4622.0,6116.0799999999999,6984.5100000000002,88.952299999999994,4572.5900000000001,144.06200000000001,-117.78,-435.10500000000002
4623.0,6162.4099999999999,7050.0600000000004,80.601600000000005,4607.9099999999999,135.15000000000001,6.3204599999999997,-366.71300000000002
4624.0,6212.9200000000001,7108.8000000000002,76.037999999999997,4659.6199999999999,123.517,133.02799999999999,-298.80099999999999
4625.0,6264.0600000000004,7154.2799999999997,72.606499999999997,4720.71,109.241,261.11599999999999,-230.58699999999999
4626.0,6314.04,7183.8299999999999,71.155500000000004,4796.3999999999996,92.552400000000006,388.88,-162.02600000000001
4627.0,6349.46,7184.8299999999999,73.755099999999999,4876.6800000000003,75.081800000000001,513.34400000000005,-94.281099999999995
4628.0,6365.5299999999997,7128.9099999999999,58.812600000000003,4950.04,57.704799999999999,626.976,-24.782699999999998
4629.0,6091.7399999999998,6746.4099999999999,301.69,4814.75,121.117,-841.32500000000005,-841.66300000000001
4630.0,6114.4200000000001,6803.1099999999997,225.31,4717.4399999999996,129.70699999999999,-738.32000000000005,-775.01300000000003
4631.0,6136.6700000000001,6895.4799999999996,197.101,4663.7799999999997,134.49000000000001,-630.48699999999997,-709.89700000000005
4632.0,6164.1099999999997,6996.6599999999999,183.114,4638.7600000000002,135.61099999999999,-515.06100000000004,-639.48500000000001
4633.0,6200.0200000000004,7093.8199999999997,171.054,4631.2200000000003,133.291,-393.77999999999997,-571.75800000000004
4634.0,6240.8999999999996,7183.46,160.49600000000001,4637.4300000000003,128.36000000000001,-267.84800000000001,-503.48700000000002
4635.0,6286.8500000000004,7266.2600000000002,153.01300000000001,4660.6899999999996,120.44,-137.01499999999999,-436.43799999999999
4636.0,6336.21,7340.46,148.48699999999999,4698.1700000000001,109.79900000000001,-2.2465199999999999,-369.03500000000003
4637.0,6389.4499999999998,7403.79,145.13200000000001,4750.1499999999996,96.565399999999997,135.42099999999999,-302.23599999999999
4638.0,6442.8900000000003,7457.2700000000004,148.16800000000001,4818.0500000000002,81.143100000000004,275.05700000000002,-235.25399999999999
4639.0,6494.46,7483.3299999999999,143.69200000000001,4891.8699999999999,64.331000000000003,414.53100000000001,-167.875
4640.0,6531.0900000000001,7486.8299999999999,151.13499999999999,4980.3500000000004,47.389000000000003,550.61500000000001,-101.21899999999999
4641.0,6548.0500000000002,7427.5699999999997,136.48500000000001,5059.29,31.048400000000001,675.63599999999997,-32.874200000000002
4642.0,6259.3199999999997,6944.9099999999999,317.66300000000001,4885.6599999999999,111.861,-913.34199999999998,-841.68200000000002
4643.0,6282.3299999999999,7017.3699999999999,249.17599999999999,4786.8699999999999,115.776,-803.79300000000001,-775.053
4644.0,6304.8500000000004,7124.8500000000004,229.01499999999999,4733.9200000000001,118.01600000000001,-688.44299999999998,-708.505
4645.0,6336.2600000000002,7235.8999999999996,215.173,4704.6000000000004,117.792,-564.61500000000001,-638.66300000000001
4646.0,6375.6999999999998,7343.1499999999996,204.744,4694.3999999999996,113.23099999999999,-434.649,-571.38199999999995
4647.0,6420.0299999999997,7442.0100000000002,195.85499999999999,4698.5799999999999,106.14100000000001,-298.79000000000002,-503.786
4648.0,6469.3999999999996,7532.75,189.81299999999999,4720.1599999999999,96.294200000000004,-157.423,-437.50099999999998
4649.0,6522.0,7612.3400000000001,185.614,4756.04,83.941599999999994,-11.401300000000001,-371.12900000000002
4650.0,6578.1499999999996,7679.4499999999998,182.52799999999999,4807.1700000000001,69.268299999999996,138.155,-305.44999999999999
4651.0,6634.54,7733.1999999999998,183.673,4873.5799999999999,52.412799999999997,290.04399999999998,-239.77000000000001
4652.0,6689.0900000000001,7764.5200000000004,183.51499999999999,4953.5900000000001,33.817399999999999,442.10700000000003,-173.994
4653.0,6728.8800000000001,7766.8400000000001,190.00899999999999,5045.4399999999996,15.349399999999999,590.66300000000001,-108.938
4654.0,6749.54,7707.0,175.559,5131.75,-1.6247199999999999,728.39400000000001,-42.679499999999997
4655.0,6405.0,7162.3199999999997,378.15199999999999,4981.8299999999999,98.5214,-984.45799999999997,-836.822
4656.0,6437.4300000000003,7245.6400000000003,303.00200000000001,4872.7399999999998,100.542,-869.63800000000003,-771.29399999999998
4657.0,6466.3999999999996,7364.6199999999999,280.64600000000002,4812.9899999999998,99.149100000000004,-747.53499999999997,-704.90499999999997
4658.0,6500.1300000000001,7491.0200000000004,274.28399999999999,4785.8199999999997,96.2102,-615.56399999999996,-635.20899999999995
4659.0,6542.9899999999998,7602.3599999999997,259.68599999999998,4766.3999999999996,89.6982,-476.70299999999997,-568.89499999999998
4660.0,6590.3999999999996,7714.3000000000002,256.86099999999999,4772.1000000000004,80.604299999999995,-330.952,-502.214
4661.0,6642.7299999999996,7807.3900000000003,247.28700000000001,4786.3900000000003,68.830699999999993,-178.94300000000001,-437.08199999999999
4662.0,6698.1599999999999,7899.0799999999999,250.625,4826.9700000000003,54.5319,-21.613,-372.01299999999998
4663.0,6756.8999999999996,7967.1099999999997,245.41,4874.2299999999996,37.981900000000003,139.899,-307.90100000000001
4664.0,6815.5299999999997,8031.6499999999996,256.04599999999999,4949.5500000000002,19.581099999999999,304.19099999999997,-243.89099999999999
4665.0,6871.8500000000004,8056.2200000000003,249.69999999999999,5024.21,0.43005399999999999,468.97399999999999,-179.904
4666.0,6913.79,8064.3599999999997,263.53500000000003,5126.7799999999997,-18.2272,630.327,-116.557
4667.0,6937.0799999999999,7999.0799999999999,245.61699999999999,5215.75,-34.846499999999999,780.697,-52.414299999999997
4668.0,6566.2200000000003,7359.9200000000001,404.79599999999999,5049.6000000000004,74.440100000000001,-1063.52,-829.18799999999999
4669.0,6596.6199999999999,7465.04,346.01400000000001,4943.5,80.962400000000002,-939.95299999999997,-765.38199999999995
4670.0,6627.7700000000004,7596.5500000000002,326.76100000000002,4879.4899999999998,80.307699999999997,-808.31399999999996,-699.54600000000005
4671.0,6665.4799999999996,7730.7399999999998,318.71300000000002,4845.2600000000002,74.557900000000004,-668.65300000000002,-630.80700000000002
4672.0,6711.3500000000004,7853.9200000000001,307.96199999999999,4823.9200000000001,65.879999999999995,-520.51999999999998,-565.19399999999996
4673.0,6761.9300000000003,7973.3100000000004,305.44,4825.0,54.363100000000003,-364.58699999999999,-499.584
4674.0,6817.1499999999996,8076.04,299.69999999999999,4838.7200000000003,40.468600000000002,-201.62899999999999,-435.66199999999998
4675.0,6875.29,8170.9899999999998,301.90800000000002,4874.8699999999999,24.2667,-32.494399999999999,-372.04700000000003
4676.0,6936.46,8244.7999999999993,299.67099999999999,4922.75,6.1974499999999999,141.40299999999999,-309.577
4677.0,6997.5200000000004,8307.4599999999991,307.04300000000001,4994.0299999999997,-13.6739,318.62299999999999,-247.392
4678.0,7056.2399999999998,8339.1000000000004,307.77800000000002,5076.54,-34.455100000000002,496.61399999999998,-185.571
4679.0,7101.0100000000002,8343.8799999999992,319.19600000000003,5180.2399999999998,-54.365900000000003,671.34299999999996,-124.381
4680.0,7127.8000000000002,8281.1200000000008,305.06099999999998,5279.5799999999999,-71.3947,835.09500000000003,-62.936700000000002
4681.0,6732.9499999999998,7551.7299999999996,423.42200000000003,5101.4300000000003,60.223300000000002,-1143.97,-825.73099999999999
4682.0,6753.3400000000001,7690.1499999999996,399.96800000000002,5014.5600000000004,63.1327,-1011.66,-758.34299999999996
4683.0,6784.71,7832.9200000000001,384.91399999999999,4948.5299999999997,58.3033,-871.35400000000004,-691.53800000000001
4684.0,6826.1599999999999,7977.6999999999998,378.08499999999998,4908.6599999999999,50.358400000000003,-723.42700000000002,-624.27200000000005
4685.0,6874.75,8110.2799999999997,369.11500000000001,4882.6400000000003,39.2254,-565.94299999999998,-559.48800000000006
4686.0,6928.1000000000004,8237.5400000000009,367.84500000000003,4879.2399999999998,25.544799999999999,-399.67000000000002,-495.27100000000002
4687.0,6985.8999999999996,8347.1499999999996,363.58800000000002,4889.25,9.4228500000000004,-225.506,-432.78100000000001
4688.0,7046.4799999999996,8449.5699999999997,369.28100000000001,4924.8599999999997,-8.9191800000000008,-44.423000000000002,-370.93700000000001
4689.0,7109.79,8527.8299999999999,369.15300000000002,4971.7299999999996,-29.075600000000001,142.13399999999999,-310.44400000000002
4690.0,7172.79,8596.9799999999996,382.33100000000002,5047.2399999999998,-50.598999999999997,332.529,-250.48500000000001
4691.0,7233.04,8625.3400000000001,380.91000000000003,5127.4499999999998,-72.247600000000006,524.09000000000003,-191.02099999999999
4692.0,7279.9799999999996,8631.8099999999995,395.85899999999998,5237.5299999999997,-92.622,712.505,-132.20500000000001
4693.0,7309.7700000000004,8567.2999999999993,381.88499999999999,5342.96,-109.532,889.86199999999997,-73.625399999999999
4694.0,6884.0299999999997,7751.6599999999999,468.51600000000002,5161.7200000000003,45.792900000000003,-1223.05,-817.91099999999994
4695.0,6904.7200000000003,7905.7700000000004,452.56299999999999,5073.5500000000002,43.686,-1084.4400000000001,-748.07000000000005
4696.0,6939.5100000000002,8060.3999999999996,439.673,5004.3900000000003,36.276600000000002,-936.53899999999999,-682.12400000000002
4697.0,6983.6499999999996,8212.8400000000001,432.06299999999999,4955.9399999999996,25.8034,-779.90700000000004,-615.89700000000005
4698.0,7035.04,8357.3999999999996,427.40800000000002,4927.2399999999998,12.1028,-612.89599999999996,-552.21699999999998
4699.0,7091.0500000000002,8491.5100000000002,426.50999999999999,4917.7700000000004,-4.1848299999999998,-436.16399999999999,-489.40300000000002
4700.0,7151.2299999999996,8611.2399999999998,427.26100000000002,4926.9799999999996,-22.6586,-250.52099999999999,-428.53899999999999
4701.0,7214.0100000000002,8715.7199999999993,431.39800000000002,4956.1999999999998,-43.055399999999999,-57.174700000000001,-368.61399999999998
4702.0,7279.1300000000001,8800.5599999999995,435.97899999999998,5004.0200000000004,-64.915700000000001,142.39699999999999,-310.25400000000002
4703.0,7343.8400000000001,8865.7800000000007,444.93599999999998,5073.0500000000002,-87.952299999999994,346.33199999999999,-252.684
4704.0,7405.8699999999999,8902.1299999999992,452.56900000000002,5161.8699999999999,-111.21299999999999,551.83299999999997,-195.95400000000001
4705.0,7455.2200000000003,8903.5200000000004,464.21199999999999,5271.25,-132.72999999999999,754.38599999999997,-139.94900000000001
4706.0,7488.1499999999996,8843.0599999999995,456.31200000000001,5388.5799999999999,-149.94200000000001,945.93700000000001,-84.687399999999997
4707.0,7026.6300000000001,7950.3800000000001,524.30600000000004,5221.1300000000001,27.3581,-1304.0,-804.61699999999996
4708.0,7052.0299999999997,8125.2600000000002,516.80600000000004,5134.1899999999996,22.550599999999999,-1159.0599999999999,-735.22699999999998
4709.0,7089.9300000000003,8285.6499999999996,500.31799999999998,5054.6599999999999,12.217599999999999,-1003.72,-670.31700000000001
4710.0,7136.6000000000004,8454.6000000000004,500.995,5006.21,-1.0204500000000001,-838.28599999999994,-605.19000000000005
4711.0,7190.4700000000003,8602.3099999999995,492.25599999999997,4965.6199999999999,-17.3446,-661.52599999999995,-542.93100000000004
4712.0,7248.6700000000001,8750.1200000000008,499.16399999999999,4956.5100000000002,-36.077399999999997,-474.13299999999998,-481.69200000000001
4713.0,7310.9099999999999,8870.1000000000004,495.553,4954.7399999999998,-56.939599999999999,-276.78899999999999,-422.74700000000001
4714.0,7375.5200000000004,8987.8099999999995,509.82900000000001,4988.3800000000001,-79.719200000000001,-70.971800000000002,-364.97199999999998
4715.0,7442.2399999999998,9070.2099999999991,510.524,5027.8000000000002,-103.742,141.88900000000001,-309.12
4716.0,7508.3199999999997,9147.8500000000004,532.20100000000002,5106.4799999999996,-128.65299999999999,359.66199999999998,-254.31399999999999
4717.0,7571.3800000000001,9173.7700000000004,531.48699999999997,5185.6000000000004,-152.81999999999999,579.48000000000002,-200.559
4718.0,7622.4399999999996,9182.7199999999993,553.423,5307.0600000000004,-174.90600000000001,796.49599999999998,-147.59100000000001
4719.0,7658.1400000000003,9113.3899999999994,539.202,5423.3199999999997,-192.071,1002.47,-95.962999999999994
4720.0,7167.5299999999997,8147.2700000000004,584.16200000000003,5275.46,8.2195,-1387.9100000000001,-788.75099999999998
4721.0,7194.5299999999997,8333.3799999999992,578.67700000000002,5181.2399999999998,0.94818499999999994,-1235.3699999999999,-720.03499999999997
4722.0,7235.4200000000001,8502.8700000000008,562.125,5093.6400000000003,-12.1662,-1072.6700000000001,-656.36000000000001
4723.0,7284.3900000000003,8681.9300000000003,564.91600000000005,5038.3699999999999,-28.152000000000001,-898.23199999999997,-592.40999999999997
4724.0,7340.4499999999998,8838.7800000000007,558.52099999999996,4991.6199999999999,-47.271700000000003,-711.68700000000001,-531.71100000000001
4725.0,7400.7399999999998,8995.3199999999997,568.46000000000004,4977.29,-68.880399999999995,-513.452,-472.12900000000002
4726.0,7464.7299999999996,9122.9599999999991,568.38800000000003,4971.6700000000001,-92.293000000000006,-304.26100000000002,-415.29899999999998
4727.0,7530.8500000000004,9243.9899999999998,583.39099999999996,4999.4099999999999,-117.316,-85.675299999999993,-359.851
4728.0,7598.6800000000003,9330.75,587.68600000000004,5037.04,-143.125,140.744,-306.69600000000003
4729.0,7665.7399999999998,9405.1299999999992,607.01400000000001,5109.4700000000003,-169.63800000000001,372.67599999999999,-254.81200000000001
4730.0,7729.8199999999997,9436.9799999999996,614.59100000000001,5194.9399999999996,-195.36799999999999,607.10000000000002,-204.44800000000001
4731.0,7782.5799999999999,9441.0699999999997,634.69399999999996,5315.8299999999999,-218.59700000000001,838.97500000000002,-154.93899999999999
4732.0,7820.9499999999998,9374.5200000000004,626.202,5442.7799999999997,-235.95500000000001,1059.8800000000001,-107.437
4733.0,7303.3199999999997,8340.9899999999998,650.11000000000001,5324.0200000000004,-10.3157,-1473.3800000000001,-769.62
4734.0,7332.4499999999998,8539.1299999999992,647.63099999999997,5223.7700000000004,-22.489599999999999,-1313.8900000000001,-702.41999999999996
4735.0,7375.5900000000001,8718.2000000000007,632.029,5127.5,-38.116199999999999,-1143.6199999999999,-639.57100000000003
4736.0,7426.8199999999997,8910.1200000000008,639.86900000000003,5067.96,-57.308900000000001,-959.92700000000002,-577.27499999999998
4737.0,7484.5500000000002,9072.7299999999996,633.15700000000004,5011.1899999999996,-79.222800000000007,-763.63,-518.16200000000003
4738.0,7546.5699999999997,9239.6200000000008,648.28300000000002,4993.0,-103.51900000000001,-554.197,-460.59199999999998
4739.0,7611.8599999999997,9369.75,647.23699999999997,4977.8800000000001,-129.505,-333.06799999999998,-406.04599999999999
4740.0,7679.1099999999997,9500.6000000000004,670.101,5006.0,-157.00700000000001,-101.431,-353.23599999999999
4741.0,7747.6999999999998,9586.7399999999998,673.68399999999997,5036.4799999999996,-185.113,138.73599999999999,-303.10599999999999
4742.0,7815.3900000000003,9670.1100000000006,703.58199999999999,5114.75,-213.511,385.14800000000002,-254.54599999999999
4743.0,7879.7299999999996,9693.0499999999993,705.69399999999996,5191.75,-240.251,634.52599999999995,-207.82499999999999
4744.0,7933.6000000000004,9701.6200000000008,734.13300000000004,5321.46,-264.09300000000002,881.56299999999999,-162.02600000000001
4745.0,7974.1999999999998,9627.8400000000001,721.98800000000006,5448.9799999999996,-281.36700000000002,1117.6099999999999,-118.977
4746.0,7429.7799999999997,8530.5,726.38900000000001,5368.96,-29.535399999999999,-1560.3099999999999,-745.82399999999996
4747.0,7465.4300000000003,8729.2099999999991,711.19600000000003,5247.9799999999996,-46.322800000000001,-1394.3,-682.88400000000001
4748.0,7509.2299999999996,8927.3700000000008,707.56899999999996,5152.1599999999999,-64.201499999999996,-1216.1600000000001,-619.98800000000006
4749.0,7562.5799999999999,9119.7099999999991,708.41600000000005,5076.1899999999996,-86.6768,-1023.17,-559.97299999999996
4750.0,7621.6700000000001,9299.0699999999997,712.80999999999995,5019.4399999999996,-111.501,-817.03399999999999,-502.26999999999998
4751.0,7685.1300000000001,9466.5300000000007,723.86900000000003,4987.6400000000003,-138.86500000000001,-596.32600000000002,-447.01799999999997
4752.0,7751.3299999999999,9610.8199999999997,734.15700000000004,4974.0299999999997,-167.57400000000001,-363.08100000000002,-394.82600000000002
4753.0,7819.1999999999998,9736.8999999999996,751.09500000000003,4987.9099999999999,-197.416,-118.188,-344.92599999999999
4754.0,7887.9399999999996,9833.1200000000008,765.56200000000001,5021.6099999999997,-227.477,135.97399999999999,-297.94499999999999
4755.0,7955.71,9905.5200000000004,786.91499999999996,5085.6899999999996,-257.452,397.10899999999998,-252.935
4756.0,8020.2299999999996,9940.0699999999997,804.52099999999996,5174.3000000000002,-285.80700000000002,661.68100000000004,-210.255
4757.0,8075.0200000000004,9936.1299999999992,824.85599999999999,5295.7399999999998,-310.64400000000001,924.21799999999996,-168.61000000000001
4758.0,8117.5799999999999,9871.0699999999997,825.65499999999997,5439.8400000000001,-328.06,1175.9000000000001,-130.459
4759.0,7551.7200000000003,8709.3400000000001,803.30399999999997,5401.6999999999998,-51.406700000000001,-1650.72,-718.89200000000005
4760.0,7591.1400000000003,8918.75,787.25900000000001,5269.9799999999996,-70.312899999999999,-1476.3199999999999,-660.11400000000003
4761.0,7636.5799999999999,9126.9500000000007,785.73000000000002,5164.3500000000004,-91.964799999999997,-1290.3699999999999,-597.65599999999995
4762.0,7691.4300000000003,9331.25,792.06100000000004,5083.5299999999997,-117.56,-1088.3399999999999,-539.89099999999996
4763.0,7751.5799999999999,9515.5300000000007,796.18499999999995,5014.4099999999999,-145.50200000000001,-871.91800000000001,-483.911
4764.0,7815.8400000000001,9693.1700000000001,813.78899999999999,4978.4099999999999,-175.64599999999999,-640.02599999999995,-431.15100000000001
4765.0,7882.4899999999998,9837.7000000000007,822.245,4952.0799999999999,-207.096,-394.32299999999998,-381.57600000000002
4766.0,7950.5699999999997,9974.3799999999992,849.37800000000004,4966.71,-239.56899999999999,-136.14400000000001,-334.83199999999999
4767.0,8019.1599999999999,10067.0,861.76499999999999,4989.6499999999996,-272.04399999999998,132.30000000000001,-291.38600000000002
4768.0,8086.5900000000001,10149.299999999999,896.31299999999999,5060.1800000000003,-303.88999999999999,408.34699999999998,-250.32400000000001
4769.0,8150.4200000000001,10171.299999999999,906.53099999999995,5136.3599999999997,-333.22300000000001,688.46199999999999,-211.92699999999999
4770.0,8205.4400000000005,10173.5,938.39099999999996,5268.1400000000003,-358.61900000000003,966.73099999999999,-174.74100000000001
4771.0,8249.5499999999993,10097.299999999999,932.89200000000005,5408.7299999999996,-375.928,1234.21,-141.83799999999999
4772.0,7669.7700000000004,8880.0499999999993,882.99800000000005,5421.9099999999999,-73.583600000000004,-1743.6500000000001,-690.77800000000002
4773.0,7708.9200000000001,9094.1599999999999,863.78800000000001,5276.5299999999997,-94.860699999999994,-1560.3900000000001,-633.28300000000002
4774.0,7756.4899999999998,9316.1200000000008,867.58199999999999,5164.0500000000002,-119.752,-1365.8199999999999,-573.04100000000005
4775.0,7812.1899999999996,9523.9699999999993,871.952,5069.21,-148.44300000000001,-1155.1400000000001,-516.90499999999997
4776.0,7873.0500000000002,9721.2900000000009,884.54700000000003,4996.1000000000004,-179.65299999999999,-928.15099999999995,-463.16300000000001
4777.0,7937.7299999999996,9900.4200000000001,900.73099999999999,4946.4200000000001,-212.934,-685.12800000000004,-412.80500000000001
4778.0,8004.3400000000001,10056.700000000001,919.76800000000003,4918.96,-247.28299999999999,-426.81400000000002,-366.16500000000002
4779.0,8072.04,10188.1,942.21600000000001,4918.0,-282.16699999999997,-155.18000000000001,-322.71300000000002
4780.0,8139.8400000000001,10289.299999999999,965.71199999999999,4942.3299999999999,-316.60399999999998,127.729,-283.01999999999998
4781.0,8206.2299999999996,10359.299999999999,992.32500000000005,4996.8299999999999,-350.072,418.90800000000002,-246.095
4782.0,8269.1599999999999,10391.700000000001,1018.71,5083.1800000000003,-380.923,714.702,-212.404
4783.0,8324.1100000000006,10379.299999999999,1042.26,5204.5,-407.209,1009.02,-180.136
4784.0,8369.3299999999999,10311.9,1051.3199999999999,5361.71,-424.48399999999998,1292.73,-152.93799999999999
4785.0,7781.9399999999996,9033.0100000000002,957.476,5420.75,-96.109200000000001,-1837.76,-660.06399999999996
4786.0,7820.0299999999997,9267.3299999999999,952.11699999999996,5277.9899999999998,-119.977,-1646.54,-603.03599999999994
4787.0,7868.3800000000001,9492.2399999999998,952.04499999999996,5149.3500000000004,-148.536,-1442.95,-545.43299999999999
4788.0,7924.8299999999999,9715.7199999999993,966.81700000000001,5051.1199999999999,-180.52799999999999,-1223.48,-490.86500000000001
4789.0,7985.8599999999997,9913.5900000000001,976.39999999999998,4961.8999999999996,-215.04400000000001,-986.024,-439.69900000000001
4790.0,8050.2799999999997,10104.299999999999,1002.25,4908.0,-251.25399999999999,-731.58699999999999,-391.88
4791.0,8116.29,10257.200000000001,1017.71,4864.1899999999996,-288.42099999999999,-460.65699999999998,-348.43700000000001
4792.0,8183.1099999999997,10399.9,1053.02,4863.7700000000004,-326.00599999999997,-175.39699999999999,-308.53100000000001
4793.0,8249.6299999999992,10494.1,1073.1700000000001,4873.8199999999997,-362.79000000000002,122.074,-272.95499999999998
4794.0,8314.5499999999993,10574.0,1115.1099999999999,4934.2700000000004,-398.07999999999998,428.58800000000002,-240.566
4795.0,8375.75,10590.799999999999,1133.1099999999999,5004.9899999999998,-429.827,740.31799999999998,-211.833
4796.0,8429.8400000000001,10585.0,1170.6099999999999,5136.8400000000001,-456.55900000000003,1050.8599999999999,-184.792
4797.0,8475.5699999999997,10502.9,1171.6500000000001,5286.9899999999998,-473.65199999999999,1350.8599999999999,-163.672
4798.0,7884.3800000000001,9178.7399999999998,1042.1900000000001,5411.3900000000003,-117.309,-1932.47,-626.02599999999995
4799.0,7922.4700000000003,9421.2199999999993,1037.8900000000001,5258.1199999999999,-144.876,-1733.78,-569.67200000000003
4800.0,7971.3900000000003,9657.5300000000007,1043.1800000000001,5122.3100000000004,-177.06999999999999,-1521.74,-514.63999999999999
4801.0,8027.9300000000003,9884.4099999999999,1056.96,5008.2399999999998,-212.38399999999999,-1292.99,-461.923
4802.0,8088.7799999999997,10093.700000000001,1075.25,4913.3500000000004,-250.21000000000001,-1045.3199999999999,-413.34199999999998
4803.0,8152.4700000000003,10284.5,1100.3099999999999,4843.7700000000004,-289.73500000000001,-779.32100000000003,-368.28500000000003
4804.0,8217.3999999999996,10447.9,1127.1199999999999,4797.0699999999997,-329.84399999999999,-495.80599999999998,-328.17700000000002
4805.0,8282.6299999999992,10583.299999999999,1158.05,4778.6800000000003,-369.83600000000001,-196.75299999999999,-292.05799999999999
4806.0,8347.1399999999994,10684.6,1190.0899999999999,4788.1400000000003,-408.55500000000001,115.378,-260.755
4807.0,8409.7999999999993,10750.1,1224.47,4830.2799999999997,-445.43000000000001,437.37200000000001,-233.142
4808.0,8468.8799999999992,10775.799999999999,1259.6199999999999,4909.5,-478.48399999999998,765.10299999999995,-209.77500000000001
4809.0,8521.6399999999994,10752.700000000001,1288.3199999999999,5028.0299999999997,-505.90699999999998,1092.0799999999999,-188.41399999999999
4810.0,8567.5499999999993,10679.5,1305.6900000000001,5194.5299999999997,-522.83600000000001,1408.79,-173.846
4811.0,7976.7700000000004,9308.4899999999998,1129.99,5385.9899999999998,-139.096,-2028.26,-587.51900000000001
4812.0,8016.1000000000004,9568.3899999999994,1134.99,5230.4099999999999,-170.376,-1822.3299999999999,-532.846
4813.0,8065.4200000000001,9807.0300000000007,1137.0799999999999,5077.8000000000002,-206.16900000000001,-1602.0699999999999,-480.31400000000002
4814.0,8121.5,10048.6,1162.21,4959.4300000000003,-244.988,-1363.97,-429.78699999999998
4815.0,8181.6000000000004,10256.0,1176.9300000000001,4845.0799999999999,-286.13099999999997,-1106.03,-383.88299999999998
4816.0,8243.8799999999992,10458.5,1214.0699999999999,4771.3999999999996,-328.68900000000002,-828.43899999999996,-341.84899999999999
4817.0,8307.0599999999995,10614.4,1235.54,4703.5699999999997,-371.589,-532.22900000000004,-305.26799999999997
4818.0,8370.1299999999992,10761.9,1282.6800000000001,4686.3500000000004,-414.27300000000002,-219.39400000000001,-273.20699999999999
4819.0,8432.1100000000006,10851.200000000001,1309.02,4676.1400000000003,-455.25400000000002,107.504,-246.53200000000001
4820.0,8492.0300000000007,10927.799999999999,1362.45,4725.1199999999999,-493.791,445.04000000000002,-224.06399999999999
4821.0,8548.1000000000004,10932.200000000001,1386.1900000000001,4782.8100000000004,-527.57000000000005,788.98000000000002,-206.33600000000001
4822.0,8598.7999999999993,10917.9,1433.46,4913.8999999999996,-555.33000000000004,1132.46,-190.971
4823.0,8644.1800000000003,10824.299999999999,1439.0599999999999,5067.3299999999999,-571.84299999999996,1465.8299999999999,-183.34800000000001
4824.0,8059.9499999999998,9428.2600000000002,1227.0699999999999,5350.1099999999997,-160.5,-2125.1700000000001,-545.11900000000003
4825.0,8100.1800000000003,9692.7199999999993,1229.1700000000001,5178.9899999999998,-195.28800000000001,-1912.01,-492.61200000000002
4826.0,8149.3000000000002,9944.3799999999992,1239.71,5020.1099999999997,-234.66,-1683.52,-442.541
4827.0,8204.4300000000003,10185.299999999999,1261.8900000000001,4882.1999999999998,-276.94,-1436.1600000000001,-394.38
4828.0,8263.1599999999999,10404.6,1288.1800000000001,4762.1000000000004,-321.44799999999998,-1167.9200000000001,-351.24799999999999
4829.0,8323.5699999999997,10602.799999999999,1322.6300000000001,4668.2299999999996,-367.30399999999997,-878.82799999999997,-312.37
4830.0,8384.3799999999992,10769.799999999999,1358.75,4597.6800000000003,-413.14600000000002,-569.91399999999999,-279.50999999999999
4831.0,8444.5799999999999,10905.0,1399.25,4557.25,-458.13499999999999,-243.251,-251.69999999999999
4832.0,8503.2999999999993,11002.200000000001,1441.05,4546.8599999999997,-500.92899999999997,98.446200000000005,-229.84700000000001
4833.0,8559.6700000000001,11059.1,1484.5999999999999,4572.1099999999997,-540.87099999999998,451.57299999999998,-212.74000000000001
4834.0,8612.4200000000001,11073.5,1529.3399999999999,4639.1099999999997,-575.75199999999995,811.68799999999999,-201.08799999999999
4835.0,8660.5300000000007,11036.0,1564.6800000000001,4750.8900000000003,-603.89999999999998,1171.8199999999999,-192.13999999999999
4836.0,8704.8400000000001,10953.299999999999,1591.05,4922.5299999999997,-619.90099999999995,1522.1199999999999,-191.89599999999999
4837.0,8133.6300000000001,9527.7999999999993,1324.9100000000001,5293.9200000000001,-181.52600000000001,-2223.1999999999998,-498.65699999999998
4838.0,8174.3199999999997,9807.1100000000006,1335.0599999999999,5117.1499999999996,-220.05600000000001,-2002.74,-448.53699999999998
4839.0,8222.9200000000001,10061.4,1344.46,4941.5200000000004,-263.197,-1766.1600000000001,-401.03399999999999
4840.0,8276.7000000000007,10314.0,1377.1700000000001,4796.3500000000004,-309.005,-1509.5999999999999,-355.41899999999998
4841.0,8333.4599999999991,10530.5,1401.5999999999999,4655.7200000000003,-356.935,-1231.0899999999999,-315.21899999999999
4842.0,8391.3500000000004,10737.5,1447.9100000000001,4554.6000000000004,-405.75700000000001,-930.47000000000003,-279.70299999999997
4843.0,8449.0900000000001,10895.200000000001,1479.9000000000001,4460.96,-454.33499999999998,-608.89300000000003,-250.762
4844.0,8505.8299999999999,11039.6,1536.8900000000001,4418.6400000000003,-501.87700000000001,-268.42099999999999,-227.45699999999999
4845.0,8560.6700000000001,11122.5,1573.8699999999999,4386.1000000000004,-546.721,88.030100000000004,-210.75899999999999
4846.0,8613.0200000000004,11187.6,1636.79,4415.1000000000004,-588.00900000000001,456.762,-199.381
4847.0,8661.5599999999995,11178.1,1670.6199999999999,4457.8199999999997,-623.34199999999998,833.12199999999996,-194.03
4848.0,8706.3700000000008,11147.700000000001,1725.79,4580.2399999999998,-651.47900000000004,1209.8599999999999,-191.85300000000001
4849.0,8748.7600000000002,11041.4,1739.97,4735.5299999999997,-666.84299999999996,1576.9300000000001,-199.35599999999999
4850.0,8197.1599999999999,9614.4500000000007,1432.9000000000001,5224.8699999999999,-201.595,-2322.1300000000001,-447.99200000000002
4851.0,8237.9200000000001,9895.4899999999998,1438.6400000000001,5029.3599999999997,-243.96299999999999,-2094.2600000000002,-400.64600000000002
4852.0,8285.4500000000007,10162.9,1458.5799999999999,4847.4399999999996,-290.63400000000001,-1849.6800000000001,-355.74900000000002
4853.0,8337.3799999999992,10411.5,1487.27,4679.3299999999999,-339.94400000000002,-1583.99,-312.85500000000002
4854.0,8391.6399999999994,10639.5,1525.72,4532.54,-391.18200000000002,-1295.3,-275.66500000000002
4855.0,8446.4099999999999,10837.799999999999,1567.9100000000001,4406.6300000000001,-443.19799999999998,-983.25900000000001,-243.672
4856.0,8500.5799999999999,11006.200000000001,1617.52,4309.8900000000003,-494.57499999999999,-649.08299999999997,-218.80500000000001
4857.0,8553.2000000000007,11133.1,1666.04,4238.9899999999998,-544.21100000000001,-294.875,-200.21000000000001
4858.0,8603.5,11223.200000000001,1721.55,4205.7299999999996,-590.67899999999997,76.298000000000002,-188.798
4859.0,8651.0499999999993,11263.4,1772.8,4205.5900000000001,-633.04700000000003,460.53399999999999,-183.40799999999999
4860.0,8695.0599999999995,11263.799999999999,1831.0999999999999,4257.4399999999996,-669.08000000000004,853.01400000000001,-184.74799999999999
4861.0,8735.9200000000001,11204.0,1871.4300000000001,4354.1800000000003,-697.17700000000002,1246.3199999999999,-189.756
4862.0,8776.0,11109.9,1910.5699999999999,4528.6800000000003,-711.70899999999995,1630.3800000000001,-205.434
4863.0,8250.4500000000007,9674.8999999999996,1539.55,5129.8400000000001,-220.71100000000001,-2421.75,-392.95499999999998
4864.0,8290.8899999999994,9972.3500000000004,1556.26,4930.5500000000002,-267.06999999999999,-2186.5,-348.63799999999998
4865.0,8337.0499999999993,10237.700000000001,1572.5699999999999,4727.0299999999997,-317.49299999999999,-1934.05,-306.43599999999998
4866.0,8386.5799999999999,10499.0,1615.54,4552.9300000000003,-370.32600000000002,-1659.3199999999999,-266.39699999999999
4867.0,8437.7099999999991,10718.0,1649.1400000000001,4379.5299999999997,-424.79300000000001,-1360.54,-232.392
4868.0,8488.7700000000004,10926.1,1707.6700000000001,4247.5,-479.64100000000002,-1037.1500000000001,-204.08199999999999
4869.0,8538.6700000000001,11078.0,1749.6099999999999,4120.5699999999997,-533.47199999999998,-690.49400000000003,-183.47300000000001
4870.0,8586.7199999999993,11215.4,1819.5999999999999,4049.0500000000002,-585.43700000000001,-322.67099999999999,-169.82400000000001
4871.0,8632.0699999999997,11284.1,1866.9300000000001,3986.46,-633.60199999999998,63.052700000000002,-164.03399999999999
4872.0,8674.3899999999994,11332.799999999999,1942.02,3990.5700000000002,-676.94000000000005,462.70499999999998,-164.935
4873.0,8713.1100000000006,11301.799999999999,1985.6800000000001,4010.54,-712.97699999999998,871.18700000000001,-173.18700000000001
4874.0,8749.5900000000001,11250.9,2051.2600000000002,4119.5600000000004,-740.67899999999997,1280.9400000000001,-185.72900000000001
4875.0,8786.6100000000006,11126.0,2074.0300000000002,4270.0900000000001,-754.19399999999996,1681.6300000000001,-209.946
4876.0,8293.0900000000001,9719.5499999999993,1657.46,5019.6000000000004,-238.352,-2521.6300000000001,-333.50200000000001
4877.0,8332.8199999999997,10018.4,1671.1500000000001,4802.0600000000004,-288.68000000000001,-2279.1999999999998,-292.40300000000002
4878.0,8377.1000000000004,10293.9,1697.3299999999999,4589.21,-342.62400000000002,-2018.8900000000001,-253.06
4879.0,8423.8400000000001,10550.1,1738.1500000000001,4391.46,-398.88400000000001,-1735.3399999999999,-215.96899999999999
4880.0,8471.3700000000008,10776.4,1784.98,4207.8199999999997,-456.476,-1426.5699999999999,-185.24700000000001
4881.0,8518.2399999999998,10973.799999999999,1841.4300000000001,4049.5300000000002,-514.30799999999999,-1092.0599999999999,-160.732
4882.0,8563.4500000000007,11132.0,1900.48,3915.1300000000001,-570.63300000000004,-733.04499999999996,-144.553
4883.0,8606.3099999999995,11249.299999999999,1963.7,3812.77,-624.33900000000006,-351.81200000000001,-135.98400000000001
4884.0,8646.1900000000005,11320.299999999999,2028.8299999999999,3744.5999999999999,-673.65800000000002,48.358600000000003,-135.977
4885.0,8682.9200000000001,11342.299999999999,2094.6799999999998,3717.8400000000001,-717.70899999999995,463.12400000000002,-143.38399999999999
4886.0,8716.2999999999993,11316.0,2161.8600000000001,3741.8800000000001,-753.89300000000003,887.41200000000003,-158.952
4887.0,8747.9200000000001,11233.799999999999,2214.6100000000001,3823.1100000000001,-780.96900000000005,1313.3599999999999,-179.37700000000001
4888.0,8781.5200000000004,11116.6,2261.3299999999999,3988.0100000000002,-793.09299999999996,1730.72,-212.52600000000001
4889.0,8325.2800000000007,9734.9500000000007,1775.29,4881.4399999999996,-254.53700000000001,-2621.5500000000002,-269.43599999999998
4890.0,8364.0699999999997,10047.299999999999,1798.8399999999999,4657.7200000000003,-308.76299999999998,-2372.1999999999998,-231.68100000000001
4891.0,8406.1399999999994,10320.1,1823.4400000000001,4423.1599999999999,-366.46100000000001,-2104.1700000000001,-195.34100000000001
4892.0,8449.6000000000004,10584.5,1877.3299999999999,4215.3400000000001,-426.04599999999999,-1811.9400000000001,-161.303
4893.0,8493.1299999999992,10800.700000000001,1921.96,4004.3800000000001,-486.65300000000002,-1493.3699999999999,-134.03299999999999
4894.0,8535.3299999999999,11002.200000000001,1993.22,3834.71,-546.99599999999998,-1147.8499999999999,-113.438
4895.0,8575.4500000000007,11142.0,2047.21,3668.6599999999999,-605.42999999999995,-776.75099999999998,-101.837
4896.0,8612.9699999999993,11264.1,2130.7399999999998,3560.29,-661.01900000000001,-382.29300000000001,-98.578599999999994
4897.0,8647.2999999999993,11311.700000000001,2190.4499999999998,3461.1900000000001,-711.49099999999999,31.941800000000001,-104.64100000000001
4898.0,8678.2900000000009,11335.700000000001,2278.23,3432.3299999999999,-755.88,461.69099999999997,-118.816
4899.0,8706.0100000000002,11276.700000000001,2334.0500000000002,3423.3000000000002,-791.44500000000005,901.41099999999994,-141.88999999999999
4900.0,8732.5499999999993,11196.9,2410.0300000000002,3510.3000000000002,-817.49300000000005,1343.3099999999999,-170.53
4901.0,8762.25,11048.5,2443.8299999999999,3650.48,-828.04300000000001,1776.79,-212.91900000000001
4902.0,8347.1399999999994,9730.0200000000004,1904.47,4724.8699999999999,-268.57499999999999,-2721.21,-200.66800000000001
4903.0,8384.7199999999993,10041.4,1924.47,4480.7200000000003,-326.685,-2465.1300000000001,-166.387
4904.0,8424.1900000000005,10323.299999999999,1960.72,4236.6000000000004,-387.815,-2189.5300000000002,-133.22399999999999
4905.0,8464.1499999999996,10578.0,2011.55,4001.0599999999999,-450.52199999999999,-1888.8299999999999,-102.321
4906.0,8503.2800000000007,10799.0,2071.3699999999999,3778.3699999999999,-513.96299999999997,-1560.6400000000001,-78.549800000000005
4907.0,8540.75,10984.9,2139.9299999999998,3577.8000000000002,-576.88800000000003,-1204.47,-62.0122
4908.0,8575.7000000000007,11128.200000000001,2213.23,3402.3299999999999,-637.39200000000005,-821.47500000000002,-55.1068
4909.0,8607.6900000000005,11224.5,2289.21,3257.7800000000002,-694.11000000000001,-414.15300000000002,-57.2881
4910.0,8636.3500000000004,11270.9,2368.4200000000001,3150.23,-745.17999999999995,13.9399,-69.520300000000006
4911.0,8661.7900000000009,11263.5,2447.29,3085.9400000000001,-789.53700000000003,458.15600000000001,-90.691800000000001
4912.0,8684.1900000000005,11204.6,2527.1599999999999,3076.73,-824.56100000000004,912.99099999999999,-121.595
4913.0,8705.8500000000004,11089.5,2591.1599999999999,3131.8899999999999,-849.226,1370.3299999999999,-158.78100000000001
4914.0,8731.5599999999995,10944.1,2648.5799999999999,3281.5599999999999,-857.73000000000002,1819.78,-210.732
4915.0,8359.6299999999992,9690.7999999999993,2033.3299999999999,4536.3500000000004,-280.20800000000003,-2820.4299999999998,-126.95399999999999
4916.0,8395.6399999999994,10013.9,2063.5999999999999,4284.9799999999996,-342.28399999999999,-2557.71,-96.335700000000003
4917.0,8432.3899999999994,10290.299999999999,2098.48,4017.0300000000002,-406.87200000000001,-2274.8600000000001,-66.436400000000006
4918.0,8468.5599999999995,10550.1,2163.3200000000002,3769.21,-472.64499999999998,-1965.8399999999999,-38.777200000000001
4919.0,8503.3099999999995,10756.799999999999,2221.3600000000001,3515.9099999999999,-538.67399999999998,-1628.3599999999999,-18.634599999999999
4920.0,8535.8700000000008,10942.299999999999,2305.3000000000002,3300.4099999999999,-603.572,-1261.6800000000001,-6.2458900000000002
4921.0,8565.7399999999998,11062.9,2374.4000000000001,3089.6300000000001,-665.56299999999999,-867.20399999999995,-4.1559600000000003
4922.0,8592.5799999999999,11158.4,2470.8099999999999,2934.48,-723.53399999999999,-447.34500000000003,-11.9657
4923.0,8616.1900000000005,11177.700000000001,2546.3400000000001,2792.6900000000001,-775.00099999999998,-5.91127,-30.5791
4924.0,8636.5499999999993,11165.1,2645.71,2719.8600000000001,-818.86500000000001,452.42000000000002,-58.9739
4925.0,8654.4400000000005,11071.4,2717.3400000000001,2675.5100000000002,-852.5,921.81500000000005,-97.841499999999996
4926.0,8671.6900000000005,10951.4,2802.4899999999998,2729.3000000000002,-875.29300000000001,1394.1400000000001,-143.87299999999999
4927.0,8693.7199999999993,10774.1,2851.1199999999999,2853.2199999999998,-881.47299999999996,1858.8399999999999,-205.636
4928.0,8363.5799999999999,9625.3999999999996,2172.6799999999998,4324.5299999999997,-288.85599999999999,-2918.6599999999999,-48.200499999999998
4929.0,8397.8500000000004,9948.3199999999997,2202.4099999999999,4054.5900000000001,-354.79700000000003,-2649.6599999999999,-21.426400000000001
4930.0,8431.6000000000004,10227.799999999999,2246.5100000000002,3772.04,-422.52199999999999,-2359.6700000000001,5.0940399999999997
4931.0,8464.0699999999997,10477.0,2311.9000000000001,3496.9099999999999,-490.98200000000003,-2042.6700000000001,29.4436
4932.0,8494.5400000000009,10680.799999999999,2382.3000000000002,3225.0999999999999,-559.36099999999999,-1696.1300000000001,45.909300000000002
4933.0,8522.6800000000003,10849.6,2468.1199999999999,2978.9299999999998,-626.24099999999999,-1319.4200000000001,54.100499999999997
4934.0,8548.0100000000002,10964.200000000001,2552.8499999999999,2750.3200000000002,-689.52300000000002,-913.76499999999999,51.229399999999998
4935.0,8570.4400000000005,11033.5,2647.1999999999998,2559.4299999999998,-747.88300000000004,-481.88799999999998,37.770899999999997
4936.0,8589.8299999999999,11040.799999999999,2737.5500000000002,2399.3400000000001,-799.08100000000002,-27.533100000000001,12.644299999999999
4937.0,8606.5,10997.6,2834.9299999999998,2292.5599999999999,-842.08399999999995,444.245,-23.100200000000001
4938.0,8621.1299999999992,10892.1,2924.54,2236.5900000000001,-874.05499999999995,927.63300000000004,-70.249399999999994
4939.0,8635.4200000000001,10738.9,3005.3899999999999,2260.52,-894.50099999999998,1414.25,-125.34099999999999
4940.0,8654.4599999999991,10551.9,3070.1999999999998,2381.0599999999999,-897.78200000000004,1893.6600000000001,-197.19200000000001
4941.0,8360.7700000000004,9523.9699999999993,2315.3200000000002,4080.3699999999999,-294.221,-3015.6500000000001,35.758800000000001
4942.0,8393.0900000000001,9851.6800000000003,2350.8699999999999,3797.4499999999998,-363.84800000000001,-2740.5799999999999,58.543199999999999
4943.0,8424.0200000000004,10127.200000000001,2399.1700000000001,3494.04,-434.78399999999999,-2443.8200000000002,81.597499999999997
4944.0,8453.0100000000002,10371.9,2473.71,3198.4099999999999,-505.81700000000001,-2119.0999999999999,102.58799999999999
4945.0,8479.8799999999992,10562.299999999999,2548.75,2898.29,-576.14700000000005,-1763.9000000000001,115.26600000000001
4946.0,8504.2199999999993,10719.1,2644.3000000000002,2627.0,-644.21000000000004,-1377.4300000000001,119.208
4947.0,8526.1299999999992,10811.9,2732.0300000000002,2365.2800000000002,-708.22500000000002,-961.15899999999999,111.312
4948.0,8545.5400000000009,10867.6,2840.52,2152.25,-766.79700000000003,-517.69600000000003,92.065799999999996
4949.0,8562.6599999999999,10849.200000000001,2935.1399999999999,1960.3900000000001,-817.40200000000004,-51.121000000000002,60.236699999999999
4950.0,8577.4599999999991,10786.9,3045.6199999999999,1831.9000000000001,-858.77599999999995,433.54500000000002,17.043500000000002
4951.0,8591.1200000000008,10648.700000000001,3135.7199999999998,1743.75,-888.28300000000002,930.09500000000003,-38.490600000000001
4952.0,8604.3199999999997,10476.700000000001,3230.0,1752.49,-905.70000000000005,1430.3199999999999,-102.851
4953.0,8622.1200000000008,10261.700000000001,3295.4400000000001,1850.96,-905.65700000000004,1923.48,-184.97999999999999
4954.0,8353.2600000000002,9388.3500000000004,2466.1300000000001,3806.5,-295.54399999999998,-3110.8800000000001,125.00700000000001
4955.0,8383.6599999999999,9714.1299999999992,2502.23,3504.54,-368.80399999999997,-2830.0900000000001,143.70699999999999
4956.0,8411.9599999999991,9988.0599999999995,2559.25,3183.5599999999999,-442.54300000000001,-2526.8299999999999,163.18100000000001
4957.0,8438.2900000000009,10218.799999999999,2636.0500000000002,2858.7399999999998,-515.577,-2194.73,180.761
4958.0,8462.4500000000007,10399.4,2722.52,2534.9499999999998,-587.53099999999995,-1831.26,189.65299999999999
4959.0,8484.6200000000008,10535.700000000001,2822.6799999999998,2230.8800000000001,-656.67700000000002,-1435.5699999999999,189.28999999999999
4960.0,8504.8799999999992,10613.799999999999,2924.1900000000001,1944.3199999999999,-721.02200000000005,-1009.1799999999999,176.322
4961.0,8523.5,10639.700000000001,3034.1599999999999,1693.48,-778.91800000000001,-554.78399999999999,151.274
4962.0,8540.7800000000007,10599.299999999999,3140.79,1474.76,-828.13400000000001,-76.654200000000003,112.72499999999999
4963.0,8557.0499999999993,10504.1,3254.0900000000001,1311.05,-867.34799999999996,420.06999999999999,61.958799999999997
4964.0,8572.9500000000007,10343.200000000001,3358.1599999999999,1201.22,-893.93799999999999,928.93799999999999,-2.1548600000000002
4965.0,8588.5499999999993,10136.9,3453.8200000000002,1179.1900000000001,-907.61900000000003,1441.77,-75.946799999999996
4966.0,8607.4300000000003,9900.4400000000005,3529.7399999999998,1262.4300000000001,-903.60299999999995,1947.8399999999999,-168.48099999999999
4967.0,8344.2900000000009,9212.6000000000004,2622.21,3497.79,-292.471,-3203.96,219.78
4968.0,8372.8899999999994,9537.2700000000004,2661.1599999999999,3178.48,-369.15100000000001,-2917.79,234.172
4969.0,8399.4300000000003,9806.7299999999996,2726.23,2837.8800000000001,-445.58199999999999,-2608.4400000000001,250.084
4970.0,8424.1299999999992,10024.299999999999,2809.27,2485.96,-520.47900000000004,-2269.3400000000001,264.15600000000001
4971.0,8447.3400000000001,10189.299999999999,2904.6700000000001,2133.6900000000001,-593.46199999999999,-1898.02,269.279
4972.0,8469.3299999999999,10302.799999999999,3010.79,1795.74,-662.74300000000005,-1493.5699999999999,264.53899999999999
4973.0,8490.7600000000002,10357.0,3120.6900000000001,1476.02,-726.69100000000003,-1057.6800000000001,246.55600000000001
4974.0,8511.9300000000003,10357.299999999999,3240.27,1192.76,-783.476,-593.09400000000005,215.53999999999999
4975.0,8533.5,10289.6,3357.25,942.25800000000004,-830.75199999999995,-104.218,170.26400000000001
4976.0,8555.2999999999993,10162.0,3478.0999999999999,744.96799999999996,-866.86699999999996,403.64600000000002,111.819
4977.0,8578.2600000000002,9967.7600000000002,3589.4899999999998,603.24300000000005,-889.61800000000005,923.85900000000004,39.202500000000001
4978.0,8600.6000000000004,9729.3600000000006,3692.5999999999999,553.25599999999997,-898.76900000000001,1448.1900000000001,-44.244900000000001
4979.0,8624.6000000000004,9465.7900000000009,3776.9400000000001,615.23299999999995,-890.11099999999999,1966.04,-147.136
4980.0,8337.8999999999996,8993.2000000000007,2783.0999999999999,3151.5500000000002,-284.17399999999998,-3294.3299999999999,320.09699999999998
4981.0,8365.0799999999999,9317.1800000000003,2827.0599999999999,2816.3000000000002,-364.19200000000001,-3003.23,330.12299999999999
4982.0,8390.7999999999993,9576.6800000000003,2897.29,2451.8000000000002,-442.71899999999999,-2688.0999999999999,342.351
4983.0,8415.75,9778.4200000000001,2986.8800000000001,2071.1700000000001,-518.76700000000005,-2342.46,352.92000000000002
4984.0,8440.4699999999993,9923.0799999999999,3090.23,1687.1800000000001,-592.30200000000002,-1963.77,354.29399999999998
4985.0,8465.6299999999992,10013.6,3206.0999999999999,1316.3499999999999,-661.50300000000004,-1551.23,345.197
4986.0,8492.0799999999999,10041.0,3325.6399999999999,961.90800000000002,-724.40200000000004,-1106.52,322.18200000000002
4987.0,8520.3199999999997,10008.6,3452.0599999999999,640.22699999999998,-779.14599999999996,-632.52599999999995,285.27699999999999
4988.0,8551.2399999999998,9906.4699999999993,3576.8499999999999,352.26600000000002,-823.44299999999998,-133.81,233.31299999999999
4989.0,8584.75,9743.2900000000009,3706.0700000000002,118.752,-855.79300000000001,384.12,167.114
4990.0,8621.0200000000004,9513.7700000000004,3826.9699999999998,-56.074800000000003,-873.90899999999999,914.49000000000001,85.9679
4991.0,8656.4500000000007,9238.4799999999996,3936.7600000000002,-138.63399999999999,-877.69200000000001,1449.0699999999999,-7.1887100000000004
4992.0,8690.8500000000004,8941.5200000000004,4027.02,-104.01000000000001,-863.54300000000001,1977.4200000000001,-120.43600000000001
4993.0,8339.5300000000007,8727.8600000000006,2949.7800000000002,2766.3600000000001,-270.089,-3381.54,426.12099999999998
4994.0,8365.7099999999991,9050.4599999999991,3000.02,2415.77,-353.14299999999997,-3085.8800000000001,431.64999999999998
4995.0,8392.3500000000004,9297.3299999999999,3075.4699999999998,2025.9400000000001,-433.524,-2765.46,440.149
4996.0,8420.1000000000004,9483.2199999999993,3175.1700000000001,1618.1099999999999,-510.51299999999998,-2413.73,447.25999999999999
4997.0,8449.8299999999999,9602.1000000000004,3284.8699999999999,1198.3299999999999,-583.80499999999995,-2028.24,444.85000000000002
4998.0,8482.4400000000005,9664.6599999999999,3409.73,791.20600000000002,-651.82000000000005,-1608.21,431.48399999999998
4999.0,8519.2099999999991,9657.7999999999993,3535.8200000000002,395.99099999999999,-712.75400000000002,-1155.47,403.46800000000002
5000.0,8560.75,9593.75,3674.6599999999999,38.309600000000003,-764.75900000000001,-673.01400000000001,360.72800000000001
5001.0,8608.0300000000007,9453.3299999999999,3807.8000000000002,-289.89699999999999,-805.27700000000004,-165.51599999999999,302.04399999999998
5002.0,8660.6599999999999,9251.5900000000001,3947.27,-561.35699999999997,-832.76199999999994,361.32799999999997,228.22999999999999
5003.0,8718.2999999999993,8978.5499999999993,4073.6799999999998,-776.80100000000004,-845.08799999999997,900.51900000000001,138.572
5004.0,8774.8400000000001,8665.7700000000004,4194.0100000000002,-892.10299999999995,-842.53499999999997,1444.0,35.741700000000002
5005.0,8826.5,8331.5799999999999,4290.4300000000003,-888.53700000000003,-822.08600000000001,1981.1600000000001,-87.786100000000005
5006.0,8355.5699999999997,8414.6399999999994,3124.0100000000002,2341.4200000000001,-249.364,-3464.9400000000001,537.90599999999995
5007.0,8381.7800000000007,8731.0300000000007,3177.5999999999999,1971.9100000000001,-335.27199999999999,-3165.2199999999998,538.88699999999994
5008.0,8411.4799999999996,8964.5499999999993,3260.54,1557.6099999999999,-416.88600000000002,-2839.9400000000001,543.63099999999997
5009.0,8445.5699999999997,9125.7999999999993,3365.1300000000001,1115.3099999999999,-493.79500000000002,-2482.6199999999999,547.28499999999997
5010.0,8485.0100000000002,9218.5200000000004,3485.0100000000002,661.12,-566.29499999999996,-2090.9699999999998,541.20399999999995
5011.0,8530.9200000000001,9248.7000000000007,3619.0,214.96600000000001,-632.63199999999995,-1664.21,523.59199999999998
5012.0,8584.7900000000009,9207.3199999999997,3756.1799999999998,-219.53100000000001,-690.79700000000003,-1204.3599999999999,490.65499999999997
5013.0,8647.3299999999999,9101.0,3901.7399999999998,-622.29499999999996,-738.88499999999999,-714.41099999999994,442.19600000000003
5014.0,8719.5200000000004,8917.9599999999991,4043.8400000000001,-993.54100000000005,-774.50900000000001,-199.339,376.91899999999998
5015.0,8800.9400000000005,8671.3999999999996,4191.8500000000004,-1308.29,-796.13699999999994,335.10000000000002,295.57400000000001
5016.0,8889.3999999999996,8353.9799999999996,4327.8999999999996,-1563.95,-801.70500000000004,881.649,197.47300000000001
5017.0,8976.8199999999997,7996.4499999999998,4456.0799999999999,-1718.9400000000001,-791.62099999999998,1432.3399999999999,85.049400000000006
5018.0,9054.2199999999993,7619.2399999999998,4557.04,-1751.8499999999999,-763.75800000000004,1976.8299999999999,-48.508400000000002
5019.0,8394.2099999999991,8047.71,3303.4299999999998,1871.99,-221.37100000000001,-3543.9099999999999,655.572
5020.0,8421.7999999999993,8358.0799999999999,3362.6799999999998,1485.21,-309.649,-3240.6999999999998,651.89700000000005
5021.0,8457.6599999999999,8573.9799999999996,3452.0,1043.8199999999999,-392.12599999999998,-2911.0799999999999,652.928
5022.0,8502.7000000000007,8711.4899999999998,3566.4499999999998,569.91099999999994,-468.68400000000003,-2548.8000000000002,653.13900000000001
5023.0,8557.8400000000001,8771.3199999999997,3694.1799999999998,76.389099999999999,-539.32100000000003,-2151.5999999999999,643.47199999999998
5024.0,8624.1499999999996,8762.9899999999998,3835.9899999999998,-412.91199999999998,-602.65200000000004,-1718.9100000000001,621.71299999999997
5025.0,8703.5,8679.7399999999998,3981.9400000000001,-892.20000000000005,-656.85199999999998,-1252.8499999999999,584.03200000000004
5026.0,8796.4799999999996,8530.0400000000009,4138.1499999999996,-1339.3499999999999,-700.00999999999999,-756.63300000000004,529.91499999999996
5027.0,8904.0,8301.0300000000007,4290.9200000000001,-1755.5699999999999,-729.64700000000005,-235.245,458.226
5028.0,9024.7800000000007,8004.0200000000004,4447.3699999999999,-2117.5100000000002,-744.08100000000002,305.28300000000002,369.51799999999997
5029.0,9155.3700000000008,7636.4200000000001,4591.8599999999997,-2418.4299999999998,-741.58299999999997,857.55499999999995,263.24900000000002
5030.0,9284.4500000000007,7229.29,4727.8100000000004,-2617.0700000000002,-722.75699999999995,1413.75,141.352
5031.0,9397.4899999999998,6809.4499999999998,4838.9700000000003,-2685.8499999999999,-686.47400000000005,1963.48,-1.90581
5032.0,8465.0400000000009,7623.9099999999999,3488.5799999999999,1356.0799999999999,-185.00999999999999,-3617.8299999999999,779.07600000000002
5033.0,8495.8099999999995,7927.0900000000001,3554.6500000000001,952.49300000000005,-275.44999999999999,-3311.6799999999998,770.79999999999995
5034.0,8541.6900000000005,8120.3000000000002,3648.6500000000001,480.834,-357.96199999999999,-2978.27,768.04300000000001
5035.0,8603.3500000000004,8228.2600000000002,3771.23,-28.520399999999999,-432.92399999999998,-2611.5700000000002,764.98400000000004
5036.0,8681.4899999999998,8249.8600000000006,3906.3299999999999,-564.42999999999995,-500.92700000000002,-2209.5999999999999,751.79399999999998
5037.0,8777.0699999999997,8203.1499999999996,4061.3400000000001,-1094.6199999999999,-560.60799999999995,-1771.9100000000001,726.07500000000005
5038.0,8891.6800000000003,8071.5100000000002,4214.8999999999996,-1622.96,-609.74800000000005,-1300.72,683.75
5039.0,9025.9099999999999,7873.3199999999997,4382.3599999999997,-2117.5,-646.74000000000001,-799.45699999999999,624.23299999999995
5040.0,9180.1599999999999,7587.8699999999999,4540.6800000000003,-2587.3000000000002,-668.88900000000001,-273.29500000000002,546.29700000000003
5041.0,9352.7199999999993,7239.8500000000004,4709.5900000000001,-2996.0599999999999,-674.91200000000003,271.79599999999999,450.464
5042.0,9536.9899999999998,6813.6999999999998,4859.6899999999996,-3348.9299999999998,-663.02200000000005,828.00099999999998,336.28800000000001
5043.0,9719.4899999999998,6356.8299999999999,5008.9799999999996,-3590.5599999999999,-634.08199999999999,1387.5899999999999,205.23400000000001
5044.0,9878.5699999999997,5879.0699999999997,5118.79,-3710.2600000000002,-587.93399999999997,1940.6400000000001,52.648499999999999
5045.0,8579.1700000000001,7140.1300000000001,3680.2199999999998,791.76400000000001,-139.52699999999999,-3685.98,908.548
5046.0,8615.3299999999999,7433.0500000000002,3752.5,370.23500000000001,-231.47900000000001,-3377.48,895.58100000000002
5047.0,8676.0499999999993,7601.3199999999997,3852.54,-131.935,-313.55399999999997,-3040.8899999999999,889.10199999999998
5048.0,8761.2800000000007,7678.1999999999998,3986.3099999999999,-675.87300000000005,-386.44099999999997,-2670.5300000000002,882.88900000000001
5049.0,8870.9500000000007,7656.4099999999999,4128.6400000000003,-1256.98,-450.57299999999998,-2264.52,866.26599999999996
5050.0,9005.6700000000001,7561.5900000000001,4292.4200000000001,-1835.29,-504.91300000000001,-1822.77,836.84400000000005
5051.0,9166.6100000000006,7376.6800000000003,4454.3800000000001,-2415.1999999999998,-547.63199999999995,-1347.6400000000001,790.07899999999995
5052.0,9354.0,7124.8299999999999,4633.1199999999999,-2960.2800000000002,-577.01300000000003,-842.73400000000004,725.45699999999999
5053.0,9567.1200000000008,6781.3999999999996,4801.0100000000002,-3483.1500000000001,-590.38800000000003,-313.25999999999999,641.49900000000002
5054.0,9803.5699999999997,6373.9700000000003,4980.6700000000001,-3944.8499999999999,-586.41099999999994,234.44200000000001,538.90099999999995
5055.0,10053.700000000001,5885.9399999999996,5137.6300000000001,-4352.1400000000003,-563.505,792.60199999999998,417.10700000000003
5056.0,10301.299999999999,5370.25,5295.54,-4645.2399999999998,-523.01499999999999,1353.8099999999999,277.35399999999998
5057.0,10516.799999999999,4838.6700000000001,5415.1599999999999,-4810.1800000000003,-465.81099999999998,1907.53,116.035
5058.0,8748.7199999999993,6594.04,3880.0900000000001,178.22200000000001,-83.835899999999995,-3747.5999999999999,1043.95
5059.0,8793.1299999999992,6870.3100000000004,3954.6599999999999,-265.75599999999997,-176.88800000000001,-3437.4000000000001,1026.3199999999999
5060.0,8874.2800000000007,7013.54,4064.5,-796.18399999999997,-257.553,-3098.3099999999999,1016.1799999999999
5061.0,8990.7700000000004,7046.6999999999998,4201.3400000000001,-1384.9000000000001,-326.822,-2724.8699999999999,1006.9400000000001
5062.0,9141.6599999999999,6981.7700000000004,4356.5500000000002,-2008.22,-386.11000000000001,-2315.77,987.13
5063.0,9326.3500000000004,6832.7700000000004,4528.8800000000001,-2637.9000000000001,-434.20999999999998,-1871.0,954.13800000000003
5064.0,9545.3500000000004,6593.0699999999997,4703.5699999999997,-3268.2399999999998,-469.16800000000001,-1393.27,903.17399999999998
5065.0,9797.9200000000001,6276.6400000000003,4889.2200000000003,-3871.98,-489.39400000000001,-886.255,833.76599999999996
5066.0,10082.200000000001,5871.2299999999996,5068.5500000000002,-4449.8199999999997,-492.33600000000001,-355.45400000000001,744.17200000000003
5067.0,10394.700000000001,5395.8199999999997,5253.6800000000003,-4972.3599999999997,-476.666,193.29900000000001,635.149
5068.0,10721.700000000001,4843.6700000000001,5421.9499999999998,-5433.9499999999998,-441.32400000000001,751.56100000000004,506.20299999999997
5069.0,11045.4,4264.1000000000004,5590.6099999999997,-5781.8400000000001,-387.45600000000002,1311.46,358.19799999999998
5070.0,11327.4,3666.6700000000001,5710.0,-6005.0100000000002,-317.53399999999999,1863.8900000000001,188.90799999999999
5071.0,8986.75,5977.8599999999997,4084.1199999999999,-491.08600000000001,-16.913799999999998,-3801.9000000000001,1185.27
5072.0,9042.6499999999996,6238.4499999999998,4164.8500000000004,-954.25800000000004,-110.321,-3490.7199999999998,1162.97
5073.0,9150.4699999999993,6348.9300000000003,4280.8500000000004,-1518.1199999999999,-188.88499999999999,-3149.8000000000002,1149.3
5074.0,9306.9099999999999,6342.04,4429.4799999999996,-2145.1399999999999,-253.94999999999999,-2774.1500000000001,1137.1500000000001
5075.0,9509.0400000000009,6222.54,4591.75,-2819.1100000000001,-306.82499999999999,-2362.7800000000002,1114.3699999999999
5076.0,9754.8400000000001,6013.8000000000002,4772.9200000000001,-3502.71,-346.71800000000002,-1916.0999999999999,1078.1099999999999
5077.0,10043.5,5708.9200000000001,4956.21,-4190.71,-372.18900000000002,-1437.1500000000001,1023.3200000000001
5078.0,10373.1,5326.9200000000001,5152.5900000000001,-4852.0299999999997,-381.46199999999999,-929.81600000000003,949.38199999999995
5079.0,10740.0,4850.8199999999997,5339.9300000000003,-5491.5699999999997,-372.346,-399.31799999999998,854.67399999999998
5080.0,11139.6,4307.3299999999999,5539.5500000000002,-6071.6000000000004,-343.28300000000002,147.96100000000001,739.70699999999999
5081.0,11553.9,3682.4099999999999,5713.6400000000003,-6596.1700000000001,-293.44,704.029,604.11900000000003
5082.0,11962.799999999999,3029.79,5886.6099999999997,-7007.3199999999997,-224.398,1261.6700000000001,448.565
5083.0,12320.4,2371.1799999999998,6021.5200000000004,-7279.7299999999996,-140.30500000000001,1808.8699999999999,272.46699999999998
5084.0,9306.2600000000002,5291.1099999999997,4296.1000000000004,-1215.02,62.486800000000002,-3848.0700000000002,1332.3900000000001
5085.0,9377.2999999999993,5529.54,4379.3599999999997,-1701.48,-30.7865,-3536.6700000000001,1305.53
5086.0,9518.5200000000004,5606.8800000000001,4505.2600000000002,-2296.5500000000002,-106.053,-3194.6399999999999,1288.45
5087.0,9723.5300000000007,5545.6899999999996,4656.5900000000001,-2973.0300000000002,-165.09,-2817.4400000000001,1273.6199999999999
5088.0,9987.2900000000009,5372.1400000000003,4832.29,-3693.8800000000001,-210.322,-2404.8299999999999,1248.1600000000001
5089.0,10305.1,5097.0100000000002,5022.0200000000004,-4434.5200000000004,-240.828,-1957.51,1208.8099999999999
5090.0,10674.4,4724.9399999999996,5218.0600000000004,-5179.0,-255.13399999999999,-1478.9200000000001,1150.5999999999999
5091.0,11091.799999999999,4265.96,5422.0100000000002,-5905.1400000000003,-251.79400000000001,-973.16200000000003,1072.5999999999999
5092.0,11552.1,3719.0,5623.4499999999998,-6604.2700000000004,-228.44200000000001,-445.82900000000001,973.11800000000005
5093.0,12047.9,3093.5999999999999,5821.5299999999997,-7258.1599999999999,-183.971,98.567300000000003,852.74000000000001
5094.0,12558.1,2394.4400000000001,6008.2200000000003,-7843.54,-117.999,651.53300000000002,711.30499999999995
5095.0,13061.299999999999,1672.0899999999999,6199.8000000000002,-8310.5300000000007,-31.921399999999998,1202.6500000000001,548.80899999999997
5096.0,13500.700000000001,927.34100000000001,6321.96,-8659.8600000000006,67.509200000000007,1743.1800000000001,366.84800000000001
5097.0,9719.6000000000004,4525.3599999999997,4511.4300000000003,-2000.53,155.53999999999999,-3885.1999999999998,1485.1700000000001
5098.0,9809.7700000000004,4743.4300000000003,4602.1800000000003,-2505.9000000000001,63.258299999999998,-3574.4000000000001,1453.9300000000001
5099.0,9991.1399999999994,4778.0600000000004,4732.9099999999999,-3138.6599999999999,-7.7770000000000001,-3232.0500000000002,1433.53
5100.0,10253.700000000001,4668.0100000000002,4897.7399999999998,-3856.0100000000002,-59.989100000000001,-2854.2399999999998,1416.27
5101.0,10588.700000000001,4426.1999999999998,5078.7799999999997,-4634.2799999999997,-95.6768,-2441.27,1388.3699999999999
5102.0,10988.5,4079.9200000000001,5278.6000000000004,-5432.9499999999998,-114.607,-1994.54,1346.45
5103.0,11448.6,3628.1500000000001,5481.71,-6242.54,-115.608,-1518.0,1285.1199999999999
5104.0,11962.700000000001,3092.8000000000002,5696.25,-7031.3900000000003,-97.304699999999997,-1016.09,1203.5699999999999
5105.0,12524.4,2459.3099999999999,5899.4200000000001,-7804.4899999999998,-57.896599999999999,-493.54000000000002,1100.0999999999999
5106.0,13126.200000000001,1764.3800000000001,6124.2600000000002,-8513.0100000000002,3.5923500000000002,44.090200000000003,974.81200000000001
5107.0,13741.0,983.79700000000003,6312.9700000000003,-9173.1399999999994,86.176599999999993,590.66399999999999,827.452
5108.0,14342.799999999999,163.40899999999999,6494.2299999999996,-9722.7399999999998,190.733,1140.5899999999999,658.37300000000005
5109.0,14870.4,-643.15899999999999,6654.0699999999997,-10105.1,313.23700000000002,1667.1800000000001,473.49200000000002
5110.0,10238.0,3680.4899999999998,4734.1199999999999,-2846.02,263.50999999999999,-3912.4899999999998,1643.5
5111.0,10351.200000000001,3872.1799999999998,4829.4499999999998,-3373.6100000000001,172.93899999999999,-3603.1100000000001,1608.01
5112.0,10579.4,3862.5100000000002,4967.7399999999998,-4042.6399999999999,107.54300000000001,-3261.1900000000001,1584.53
5113.0,10907.6,3689.1300000000001,5137.4300000000003,-4811.6300000000001,64.235900000000001,-2883.48,1565.0999999999999
5114.0,11323.0,3378.5700000000002,5329.3299999999999,-5644.04,39.582999999999998,-2471.3299999999999,1535.1300000000001
5115.0,11813.9,2954.9899999999998,5540.5200000000004,-6502.3599999999997,33.892299999999999,-2026.3800000000001,1490.8399999999999
5116.0,12373.0,2420.23,5753.0299999999997,-7376.21,47.959400000000002,-1554.21,1427.1700000000001
5117.0,12993.5,1797.6900000000001,5980.2700000000004,-8232.3400000000001,83.308800000000005,-1058.01,1342.1900000000001
5118.0,13663.1,1086.75,6200.71,-9065.6499999999996,140.09100000000001,-546.88900000000001,1235.76
5119.0,14376.4,298.74299999999999,6408.2200000000003,-9870.7800000000007,221.46299999999999,-15.294700000000001,1104.3699999999999
5120.0,15097.4,-562.18600000000004,6612.2200000000003,-10591.299999999999,335.57799999999997,529.44200000000001,956.05700000000002
5121.0,15813.4,-1422.52,6853.7799999999997,-11168.0,468.47399999999999,1067.79,786.95699999999999
5122.0,16427.799999999999,-2389.3200000000002,6935.6400000000003,-11688.0,591.43600000000004,1593.23,599.11800000000005
5123.0,10870.5,2750.6599999999999,4962.1400000000003,-3755.6599999999999,387.74200000000002,-3928.8499999999999,1807.1400000000001
5124.0,11011.1,2912.6199999999999,5062.2399999999998,-4305.9700000000003,299.97899999999998,-3621.9000000000001,1767.6400000000001
5125.0,11291.9,2853.75,5208.0299999999997,-5012.3900000000003,241.24100000000001,-3281.21,1741.29
5126.0,11694.1,2617.5799999999999,5388.5500000000002,-5829.5100000000002,208.01499999999999,-2904.5900000000001,1719.9400000000001
5127.0,12196.700000000001,2228.02,5587.8400000000001,-6720.79,196.46700000000001,-2493.9099999999999,1688.1700000000001
5128.0,12788.0,1717.4000000000001,5806.5799999999999,-7645.7799999999997,206.55199999999999,-2052.3600000000001,1642.1199999999999
5129.0,13450.799999999999,1088.6300000000001,6026.6499999999996,-8585.8799999999992,238.595,-1585.9300000000001,1576.3699999999999
5130.0,14184.700000000001,381.42200000000003,6260.46,-9514.0300000000007,292.54599999999999,-1100.98,1489.1099999999999
5131.0,14961.4,-442.31,6467.7600000000002,-10435.0,375.315,-595.10500000000002,1378.9200000000001
5132.0,15795.9,-1252.05,6745.4799999999996,-11257.5,489.69900000000001,-91.9054,1248.3900000000001
5133.0,16619.099999999999,-2173.9899999999998,6908.7799999999997,-12093.299999999999,589.48900000000003,452.69,1087.9300000000001
5134.0,17422.5,-3197.52,7060.7200000000003,-12816.1,721.71400000000006,1028.1700000000001,893.09400000000005
5135.0,18124.700000000001,-4194.3800000000001,7268.3500000000004,-13252.200000000001,906.98800000000006,1543.6800000000001,735.46299999999997
5136.0,11624.799999999999,1731.3800000000001,5194.96,-4732.3900000000003,529.63599999999997,-3933.4400000000001,1975.9400000000001
5137.0,11795.799999999999,1862.23,5301.3000000000002,-5303.1899999999996,445.53100000000001,-3629.98,1932.45
5138.0,12136.1,1746.8099999999999,5452.2299999999996,-6052.1099999999997,395.17500000000001,-3291.0700000000002,1903.7
5139.0,12617.6,1438.3399999999999,5639.3100000000004,-6921.2399999999998,374.226,-2916.75,1880.76
5140.0,13216.700000000001,963.54600000000005,5847.54,-7875.6099999999997,377.80500000000001,-2507.3499999999999,1847.46
5141.0,13911.0,363.92899999999997,6078.6899999999996,-8858.2999999999993,405.51999999999998,-2072.48,1800.6600000000001
5142.0,14690.299999999999,-364.86399999999998,6308.1999999999998,-9873.4400000000005,457.57400000000001,-1610.8699999999999,1731.9200000000001
5143.0,15534.5,-1170.2,6557.6499999999996,-10855.6,540.63199999999995,-1145.6900000000001,1646.5799999999999
5144.0,16443.0,-2024.4400000000001,6816.79,-11824.299999999999,643.029,-658.33399999999995,1525.5999999999999
5145.0,17313.799999999999,-2985.9499999999998,6930.5699999999997,-12808.1,737.596,-176.43199999999999,1393.79
5146.0,18290.0,-3759.0300000000002,7271.3400000000001,-13593.299999999999,995.23000000000002,371.05799999999999,1194.9200000000001
5147.0,19310.700000000001,-4627.4399999999996,7748.8500000000004,-14131.5,1249.8399999999999,1033.29,1138.95
5148.0,19956.200000000001,-6104.3699999999999,7627.4899999999998,-14793.6,1315.1500000000001,1511.1500000000001,969.89800000000002
5149.0,12505.9,624.01800000000003,5437.3800000000001,-5772.9099999999999,690.56600000000003,-3925.3400000000001,2149.5700000000002
5150.0,12710.4,709.04600000000005,5539.3999999999996,-6375.1400000000003,611.21400000000006,-3625.8099999999999,2102.1799999999998
5151.0,13117.0,546.89300000000003,5710.2399999999998,-7153.5100000000002,570.79300000000001,-3290.7399999999998,2071.73
5152.0,13681.700000000001,147.078,5890.6000000000004,-8089.0299999999997,563.39200000000005,-2917.8200000000002,2046.8900000000001
5153.0,14386.700000000001,-396.80700000000002,6129.6199999999999,-9087.9599999999991,584.68100000000004,-2512.8200000000002,2013.0
5154.0,15183.200000000001,-1135.4100000000001,6331.7299999999996,-10166.299999999999,632.07299999999998,-2080.6599999999999,1965.8699999999999
5155.0,16092.700000000001,-1921.96,6620.2399999999998,-11213.9,710.16300000000001,-1636.1400000000001,1892.8499999999999
5156.0,17014.799999999999,-2897.5700000000002,6768.5500000000002,-12329.799999999999,790.98699999999997,-1186.28,1810.05
5157.0,18035.599999999999,-3748.3699999999999,7067.75,-13341.9,941.98299999999995,-737.43600000000004,1653.0899999999999
5158.0,19073.400000000001,-4622.9099999999999,7415.3100000000004,-14187.1,1242.28,-237.05799999999999,1577.73
5159.0,20459.200000000001,-4965.1899999999996,8746.2299999999996,-14337.0,1673.3199999999999,255.90899999999999,1372.0999999999999
5160.0,21912.299999999999,-5377.3500000000004,10075.799999999999,-14418.799999999999,1952.6400000000001,828.34199999999998,1459.0799999999999
5161.0,22427.400000000001,-7533.0699999999997,9044.4200000000001,-15794.1,1988.3199999999999,1337.1700000000001,1385.46
5162.0,13514.6,-588.45399999999995,5675.1199999999999,-6890.96,871.39200000000005,-3902.71,2326.9099999999999
5163.0,13760.299999999999,-532.83199999999999,5793.5,-7507.4700000000003,798.54899999999998,-3609.6100000000001,2276.96
5164.0,14233.5,-773.84199999999998,5955.0100000000002,-8341.2000000000007,769.76700000000005,-3278.23,2244.4299999999998
5165.0,14892.700000000001,-1240.97,6159.7600000000002,-9320.3099999999995,778.50199999999995,-2907.8499999999999,2218.7199999999998
5166.0,15700.9,-1906.53,6383.3500000000004,-10402.1,818.76700000000005,-2507.3699999999999,2185.0300000000002
5167.0,16620.299999999999,-2723.4899999999998,6632.4200000000001,-11521.0,890.59799999999996,-2076.1500000000001,2135.9699999999998
5168.0,17640.700000000001,-3674.98,6888.4799999999996,-12660.1,995.03700000000003,-1651.4300000000001,2066.3899999999999
5169.0,18703.0,-4647.7200000000003,7158.2299999999996,-13734.5,1179.1199999999999,-1236.0,1984.79
5170.0,19972.099999999999,-5438.1000000000004,7793.2399999999998,-14590.4,1499.3299999999999,-839.72299999999996,1834.54
5171.0,21465.5,-5795.7600000000002,9221.1000000000004,-14778.1,1845.1500000000001,-356.07799999999997,1741.3099999999999
5172.0,22972.299999999999,-6350.6899999999996,10617.200000000001,-14968.700000000001,1990.9200000000001,96.526200000000003,1570.1199999999999
5173.0,24487.099999999999,-7071.1099999999997,11682.799999999999,-15432.5,2167.23,523.82799999999997,1446.3199999999999
5174.0,25480.599999999999,-8653.8899999999994,11441.200000000001,-16425.0,2478.5100000000002,1047.5899999999999,1546.1900000000001
5175.0,14655.1,-1896.75,5923.5299999999997,-8074.3199999999997,1073.5699999999999,-3865.0100000000002,2508.02
5176.0,14945.5,-1885.77,6045.6000000000004,-8717.4699999999993,1008.74,-3579.98,2456.4200000000001
5177.0,15491.0,-2192.8200000000002,6217.6700000000001,-9590.7800000000007,992.995,-3252.52,2421.3000000000002
5178.0,16250.200000000001,-2748.7199999999998,6430.0799999999999,-10629.799999999999,1019.96,-2887.5300000000002,2396.8099999999999
5179.0,17164.700000000001,-3522.4499999999998,6657.9899999999998,-11777.6,1083.24,-2487.0900000000001,2360.8200000000002
5180.0,18220.799999999999,-4460.4099999999999,6921.8900000000003,-12976.9,1177.0999999999999,-2060.4299999999998,2315.2600000000002
5181.0,19327.700000000001,-5604.6400000000003,7121.0600000000004,-14198.5,1298.1099999999999,-1649.05,2249.9400000000001
5182.0,20611.400000000001,-6646.0500000000002,7650.9899999999998,-15199.299999999999,1511.54,-1292.05,2091.1799999999998
5183.0,22213.400000000001,-7210.1700000000001,8986.8299999999999,-15644.6,1804.6700000000001,-926.94799999999998,1913.99
5184.0,23950.0,-7588.1700000000001,10604.299999999999,-15884.0,2048.73,-467.45299999999997,1793.26
5185.0,25301.599999999999,-8525.8600000000006,11260.1,-16569.200000000001,2267.1700000000001,-21.870200000000001,1772.48
5186.0,26840.599999999999,-9498.7999999999993,12040.4,-17270.400000000001,2658.5700000000002,408.92700000000002,1525.9300000000001
5187.0,28468.0,-10641.4,12924.0,-17781.299999999999,2916.02,874.726,1638.8900000000001
5188.0,15930.4,-3302.1199999999999,6179.6800000000003,-9326.3600000000006,1298.21,-3814.3099999999999,2693.0700000000002
5189.0,16259.0,-3345.5799999999999,6295.8599999999997,-9997.7700000000004,1242.54,-3535.1999999999998,2638.4699999999998
5190.0,16890.299999999999,-3725.3899999999999,6477.2299999999996,-10921.9,1243.1199999999999,-3215.2800000000002,2602.9699999999998
5191.0,17743.599999999999,-4383.9499999999998,6687.8000000000002,-12020.799999999999,1291.02,-2851.9699999999998,2580.3899999999999
5192.0,18791.299999999999,-5262.46,6946.4099999999999,-13236.6,1378.9000000000001,-2452.4699999999998,2540.77
5193.0,19967.5,-6349.9099999999999,7189.0,-14520.200000000001,1493.6500000000001,-2032.1600000000001,2513.0999999999999
5194.0,21155.599999999999,-7742.5699999999997,7268.1800000000003,-15890.200000000001,1629.78,-1621.5799999999999,2428.6900000000001
5195.0,22529.299999999999,-8973.0499999999993,7784.2299999999996,-16962.700000000001,1790.9200000000001,-1247.23,2217.8400000000001
5196.0,24222.0,-9796.0300000000007,8954.1399999999994,-17651.200000000001,1999.8900000000001,-868.87400000000002,1990.1300000000001
5197.0,26098.799999999999,-10374.1,10393.299999999999,-18159.0,2322.5300000000002,-478.065,1890.28
5198.0,27784.5,-11305.799999999999,11436.299999999999,-18666.200000000001,2738.2399999999998,-121.74299999999999,1886.1300000000001
5199.0,29850.900000000001,-11931.6,13165.700000000001,-18844.700000000001,3229.5999999999999,264.04199999999997,1674.4000000000001
5200.0,31543.200000000001,-13748.799999999999,13472.1,-19973.0,3348.1700000000001,659.21500000000003,1905.6199999999999
5201.0,17326.099999999999,-4794.3000000000002,6447.8100000000004,-10630.0,1542.49,-3747.1999999999998,2880.2399999999998
5202.0,17705.200000000001,-4917.8500000000004,6545.3000000000002,-11349.1,1499.7,-3479.4400000000001,2823.6100000000001
5203.0,18427.400000000001,-5356.0600000000004,6762.4099999999999,-12298.1,1520.46,-3166.79,2791.25
5204.0,19388.5,-6141.0200000000004,6960.0100000000002,-13482.6,1592.78,-2805.54,2767.1599999999999
5205.0,20569.900000000001,-7121.29,7241.8299999999999,-14767.9,1699.3299999999999,-2409.8299999999999,2734.71
5206.0,21844.200000000001,-8457.9599999999991,7349.8100000000004,-16229.299999999999,1831.03,-1988.1300000000001,2715.71
5207.0,23136.099999999999,-10039.9,7372.2600000000002,-17713.900000000001,1981.1900000000001,-1560.7,2614.1599999999999
5208.0,24562.0,-11618.700000000001,7577.7399999999998,-19082.900000000001,2165.6799999999998,-1155.54,2429.79
5209.0,26327.5,-12813.5,8419.6800000000003,-20108.299999999999,2446.0900000000001,-790.99699999999996,2187.7199999999998
5210.0,28448.0,-13619.700000000001,9960.6000000000004,-20675.700000000001,2812.4000000000001,-466.00400000000002,2058.1300000000001
5211.0,30526.299999999999,-14651.1,11449.700000000001,-21080.599999999999,3153.3600000000001,-129.15600000000001,1963.78
5212.0,32907.0,-15858.200000000001,13031.700000000001,-21687.0,3483.8200000000002,185.14099999999999,1766.27
5213.0,34606.599999999999,-18233.599999999999,12807.9,-23268.200000000001,3615.0100000000002,342.66199999999998,2070.04
5214.0,18804.799999999999,-6395.9799999999996,6665.4200000000001,-12004.200000000001,1803.05,-3670.75,3062.6900000000001
5215.0,19260.5,-6551.8400000000001,6810.0,-12723.5,1784.77,-3420.5700000000002,3012.1100000000001
5216.0,20076.099999999999,-7137.25,6987.6099999999997,-13772.1,1831.97,-3108.5100000000002,2985.8099999999999
5217.0,21174.299999999999,-8006.5600000000004,7241.2600000000002,-14999.0,1931.79,-2755.8600000000001,2964.3699999999999
5218.0,22498.799999999999,-9165.4599999999991,7479.0100000000002,-16420.799999999999,2075.52,-2362.9899999999998,2948.4299999999998
5219.0,23903.299999999999,-10668.0,7554.0699999999997,-17993.099999999999,2245.1300000000001,-1929.4200000000001,2938.0999999999999
5220.0,25315.799999999999,-12552.700000000001,7392.2200000000003,-19725.200000000001,2413.3200000000002,-1486.77,2857.0799999999999
5221.0,26840.299999999999,-14513.200000000001,7342.2299999999996,-21384.400000000001,2606.21,-1096.01,2669.4499999999998
5222.0,28753.0,-16095.299999999999,8017.5,-22670.400000000001,2877.48,-744.25699999999995,2382.6599999999999
5223.0,31011.200000000001,-17423.599999999999,9313.1700000000001,-23545.200000000001,3194.0300000000002,-374.59899999999999,2211.23
5224.0,33378.599999999999,-19032.799999999999,10563.200000000001,-24394.0,3534.54,-14.5192,2107.04
5225.0,35786.300000000003,-21254.099999999999,11253.6,-25824.200000000001,3727.1799999999998,186.44399999999999,2056.0799999999999
5226.0,37307.900000000001,-25157.200000000001,9439.0499999999993,-28852.599999999999,3655.3800000000001,51.187399999999997,2112.3200000000002
5227.0,20324.900000000001,-7987.1199999999999,6909.1099999999997,-13324.0,2069.6900000000001,-3599.5,3240.4400000000001
5228.0,20895.0,-8272.8600000000006,7063.1099999999997,-14108.700000000001,2095.2199999999998,-3358.5599999999999,3206.3899999999999
5229.0,21861.299999999999,-8975.5400000000009,7298.7700000000004,-15200.9,2186.1900000000001,-3060.3699999999999,3191.5599999999999
5230.0,23118.5,-10030.9,7515.25,-16577.799999999999,2316.9400000000001,-2724.7199999999998,3187.6500000000001
5231.0,24617.400000000001,-11306.6,7800.54,-18099.099999999999,2501.9499999999998,-2323.6399999999999,3163.8499999999999
5232.0,26218.5,-13030.6,7866.0799999999999,-19810.400000000001,2711.8499999999999,-1860.54,3196.4699999999998
5233.0,27778.900000000001,-15211.1,7581.7200000000003,-21717.5,2923.4899999999998,-1446.5,3141.1799999999998
5234.0,29416.5,-17589.5,7193.3800000000001,-23771.099999999999,3158.3299999999999,-1070.4000000000001,2964.4699999999998
5235.0,31412.599999999999,-19659.400000000001,7454.4499999999998,-25518.0,3447.9699999999998,-646.84100000000001,2676.9699999999998
5236.0,33831.800000000003,-21735.0,8258.5699999999997,-26950.900000000001,3746.23,-148.62,2527.0999999999999
5237.0,36281.300000000003,-24593.299999999999,8580.5400000000009,-28716.900000000001,3830.4699999999998,183.92500000000001,2443.3600000000001
5238.0,38324.400000000001,-28880.200000000001,7001.5799999999999,-32052.0,3686.9400000000001,141.09700000000001,2348.3800000000001
5239.0,39441.599999999999,-34370.800000000003,3040.29,-36950.699999999997,3597.0100000000002,-171.90700000000001,2158.04
5240.0,21712.5,-9481.2299999999996,7041.5299999999997,-14549.4,2342.9099999999999,-3547.2800000000002,3405.21
5241.0,22515.099999999999,-10011.200000000001,7259.0299999999997,-15437.299999999999,2426.3299999999999,-3322.46,3402.9200000000001
5242.0,23691.900000000001,-10997.1,7432.0799999999999,-16763.900000000001,2538.75,-3049.9299999999998,3410.52
5243.0,25138.400000000001,-12200.5,7690.8999999999996,-18266.900000000001,2721.8099999999999,-2699.4899999999998,3401.73
5244.0,26886.099999999999,-13598.1,8105.8400000000001,-19862.400000000001,2975.8499999999999,-2263.9200000000001,3398.98
5245.0,28672.799999999999,-15543.0,8156.0100000000002,-21711.599999999999,3174.5300000000002,-1787.23,3484.7399999999998
5246.0,30262.599999999999,-18352.0,7325.8000000000002,-24154.799999999999,3311.9299999999998,-1397.77,3417.1599999999999
5247.0,32054.299999999999,-21040.299999999999,6790.9499999999998,-26484.400000000001,3585.0900000000001,-1033.6300000000001,3161.3899999999999
5248.0,34483.199999999997,-23402.599999999999,7133.6099999999997,-28482.099999999999,4039.2399999999998,-528.22400000000005,2940.2600000000002
5249.0,37194.0,-26330.0,7466.71,-30533.799999999999,4271.3900000000003,105.85899999999999,2980.9400000000001
5250.0,39158.5,-31721.400000000001,4987.9799999999996,-34491.699999999997,3984.3099999999999,371.36500000000001,3076.8800000000001
5251.0,40233.199999999997,-38793.5,-299.41500000000002,-40673.0,3578.9699999999998,2.3784100000000001,2745.23
5252.0,41082.199999999997,-45477.099999999999,-6052.3800000000001,-47438.599999999999,3571.3000000000002,-431.161,2116.54
5253.0,41707.5,-57946.199999999997,-17845.799999999999,-59871.900000000001,3589.4000000000001,-534.14499999999998,1917.8800000000001
5254.0,42787.900000000001,-69007.100000000006,-28301.0,-71029.899999999994,4875.8100000000004,-510.95800000000003,2257.29
5255.0,46100.400000000001,-77081.699999999997,-33207.0,-78186.600000000006,6551.9700000000003,-493.06900000000002,2648.8299999999999
5256.0,50841.099999999999,-83504.600000000006,-34649.800000000003,-82862.100000000006,7959.8100000000004,-399.55099999999999,3580.0799999999999
5257.0,55124.400000000001,-90562.300000000003,-37029.099999999999,-88665.600000000006,8236.2800000000007,-634.44899999999996,4694.5299999999997
5258.0,57911.199999999997,-98996.699999999997,-42695.400000000001,-96744.100000000006,8536.3199999999997,-1061.79,5279.5799999999999
5259.0,59608.099999999999,-109224.0,-51098.599999999999,-106359.0,9004.8899999999994,-1310.1700000000001,5306.5
5260.0,62035.800000000003,-119374.0,-58553.900000000001,-114608.0,10106.4,-1258.6900000000001,5924.71
5261.0,66985.699999999997,-128801.0,-63051.699999999997,-121777.0,11737.299999999999,-1359.95,7251.8199999999997
5262.0,72301.800000000003,-139788.0,-67315.600000000006,-130724.0,10890.9,-2218.4899999999998,7735.1199999999999
5263.0,70945.100000000006,-160833.0,-89350.699999999997,-152863.0,8955.9500000000007,-2463.98,7546.04
5264.0,74054.300000000003,-182864.0,-107197.0,-171296.0,9886.1900000000005,-1856.47,8091.9200000000001
5265.0,78217.199999999997,-221321.0,-139637.0,-207762.0,3979.0,3280.1399999999999,9823.0499999999993
5266.0,41172.0,-50764.300000000003,-10946.1,-51934.599999999999,3299.8299999999999,-179.17400000000001,3104.5799999999999
5267.0,41902.599999999999,-62353.800000000003,-22094.900000000001,-63509.300000000003,3901.5500000000002,-370.15199999999999,3701.9499999999998
5268.0,43882.0,-71997.0,-30177.400000000001,-73097.0,5115.2799999999997,-589.02800000000002,4082.7800000000002
5269.0,48349.400000000001,-77761.399999999994,-32150.900000000001,-78393.0,7307.54,-638.27999999999997,4715.9799999999996
5270.0,54580.599999999999,-81726.100000000006,-29754.599999999999,-81218.399999999994,8660.7099999999991,-929.73199999999997,5050.4200000000001
5271.0,58286.599999999999,-89684.899999999994,-33294.5,-88167.699999999997,8581.4599999999991,-1009.8200000000001,5057.1800000000003
5272.0,59503.400000000001,-100109.0,-42361.199999999997,-98040.199999999997,8826.2299999999996,-721.93700000000001,5346.2200000000003
5273.0,61919.5,-108985.0,-49280.699999999997,-106056.0,10293.9,-407.84800000000001,6253.5600000000004
5274.0,67806.600000000006,-115257.0,-49953.199999999997,-110325.0,12423.700000000001,-889.40200000000004,7427.4399999999996
5275.0,72755.699999999997,-126401.0,-54193.5,-118398.0,11789.299999999999,-1700.6700000000001,7475.6700000000001
5276.0,73191.699999999997,-143721.0,-70416.600000000006,-135391.0,10318.299999999999,-1993.0799999999999,8029.3699999999999
5277.0,76524.600000000006,-163546.0,-88254.600000000006,-157411.0,10068.700000000001,-1161.8499999999999,10054.6
5278.0,87467.600000000006,-177476.0,-96907.800000000003,-182105.0,9837.4200000000001,-1336.55,12507.4
5279.0,41591.5,-40465.400000000001,-888.952,-42243.199999999997,3899.5700000000002,376.58800000000002,3829.4499999999998
5280.0,43471.199999999997,-50474.5,-9115.8799999999992,-51999.699999999997,4035.04,163.08699999999999,4650.3500000000004
5281.0,45209.800000000003,-60184.400000000001,-17540.900000000001,-61991.0,4583.7799999999997,-230.75700000000001,5226.8400000000001
5282.0,47663.0,-68326.0,-23663.900000000001,-69965.5,6088.6000000000004,-707.82399999999996,5429.5500000000002
5283.0,51710.199999999997,-75289.399999999994,-26273.400000000001,-75303.600000000006,7828.0100000000002,-1219.99,5240.3000000000002
5284.0,55405.0,-83193.300000000003,-29574.400000000001,-81312.100000000006,8377.1399999999994,-1378.1700000000001,5027.4399999999996
5285.0,57059.699999999997,-92641.300000000003,-37134.800000000003,-90300.5,8482.0400000000009,-992.27200000000005,5180.1700000000001
5286.0,59813.0,-100224.0,-42997.900000000001,-97843.800000000003,10234.5,-729.64599999999996,6257.5799999999999
5287.0,66525.100000000006,-104761.0,-41350.900000000001,-100778.0,12425.200000000001,-1131.95,7626.6499999999996
5288.0,71606.600000000006,-113111.0,-42938.199999999997,-106503.0,11876.299999999999,-1069.5999999999999,8097.6800000000003
5289.0,76126.800000000003,-124576.0,-50676.400000000001,-117362.0,12623.1,-1082.0899999999999,10545.700000000001
5290.0,85763.899999999994,-136386.0,-55520.0,-134023.0,12488.200000000001,-4218.3500000000004,12654.0
5291.0,98144.0,-154846.0,-65864.399999999994,-162476.0,11053.700000000001,-9581.0200000000004,10575.0
5292.0,40632.800000000003,-32026.400000000001,5644.8400000000001,-35175.900000000001,4610.8100000000004,334.73599999999999,3615.96
5293.0,44009.699999999997,-38860.5,2323.9899999999998,-41294.0,4921.8400000000001,232.11099999999999,4535.4700000000003
5294.0,46441.400000000001,-47626.900000000001,-3964.5999999999999,-49903.099999999999,4843.7600000000002,-182.25200000000001,5011.8699999999999
5295.0,47696.400000000001,-57329.900000000001,-12613.0,-59468.099999999999,5382.7799999999997,-370.07299999999998,5410.6000000000004
5296.0,50403.400000000001,-65866.399999999994,-18506.200000000001,-66583.399999999994,6903.6999999999998,-579.154,6299.3699999999999
5297.0,54201.0,-73610.100000000006,-21728.700000000001,-72128.5,7747.5299999999997,-940.13900000000001,6782.8299999999999
5298.0,56308.199999999997,-82716.899999999994,-28342.299999999999,-80421.600000000006,7928.2700000000004,-894.51700000000005,6893.9399999999996
5299.0,58751.300000000003,-90105.300000000003,-34059.5,-87804.699999999997,9513.1200000000008,-758.83399999999995,7325.8100000000004
5300.0,64766.900000000001,-95011.899999999994,-33636.300000000003,-91413.899999999994,12114.299999999999,-1401.21,7948.1700000000001
5301.0,69885.800000000003,-101881.0,-34186.800000000003,-97330.399999999994,11769.4,-1688.6500000000001,7410.9099999999999
5302.0,79243.699999999997,-105488.0,-32077.700000000001,-102116.0,16165.200000000001,-2028.8800000000001,10494.5
5303.0,98120.5,-112228.0,-19736.700000000001,-108817.0,15773.0,-8654.9300000000003,11628.6
5304.0,105381.0,-156288.0,-56833.800000000003,-159253.0,7083.2399999999998,-15288.1,4425.3100000000004
5305.0,37818.199999999997,-27453.0,6736.7700000000004,-31652.400000000001,4706.4899999999998,-253.86600000000001,3337.6300000000001
5306.0,42158.699999999997,-31585.5,7192.7200000000003,-34646.800000000003,5568.46,-254.09999999999999,4175.2799999999997
5307.0,45483.199999999997,-38431.199999999997,4366.8500000000004,-40544.199999999997,5177.6300000000001,-493.54899999999998,4509.25
5308.0,46764.699999999997,-47842.800000000003,-3967.02,-50062.900000000001,5330.6499999999996,-347.01499999999999,4963.5500000000002
5309.0,49537.699999999997,-55121.5,-9033.9500000000007,-56976.0,6836.7200000000003,-318.40100000000001,5787.6599999999999
5310.0,53894.0,-61885.900000000001,-11113.9,-62226.5,7901.3999999999996,-589.08199999999999,6351.4899999999998
5311.0,56526.900000000001,-70079.600000000006,-16123.799999999999,-69004.199999999997,8240.5799999999999,-656.44500000000005,6730.8299999999999
5312.0,58671.099999999999,-78854.399999999994,-22945.599999999999,-77191.800000000003,9135.5,-887.74300000000005,7163.8900000000003
5313.0,62692.599999999999,-85312.0,-25835.400000000001,-81810.5,11491.9,-1208.9100000000001,7922.8999999999996
5314.0,68161.399999999994,-93052.300000000003,-26993.0,-87814.199999999997,11474.0,-2796.1399999999999,7795.9300000000003
5315.0,75484.399999999994,-100245.0,-29055.299999999999,-94690.300000000003,15921.700000000001,-4567.9099999999999,7558.0699999999997
5316.0,96882.699999999997,-114032.0,-18804.799999999999,-100495.0,17140.299999999999,-12369.700000000001,5275.9099999999999
5317.0,101006.0,-185685.0,-84264.5,-168839.0,58.583300000000001,-20380.700000000001,-5621.3000000000002
5318.0,34839.0,-24737.799999999999,6066.2399999999998,-29484.099999999999,4351.6199999999999,-870.86900000000003,3514.2199999999998
5319.0,39012.0,-27668.700000000001,7663.8599999999997,-31096.099999999999,5448.1700000000001,-879.625,4055.1700000000001
5320.0,42874.400000000001,-32751.299999999999,7283.4700000000003,-34800.199999999997,5453.7600000000002,-956.66700000000003,4367.6000000000004
5321.0,44970.900000000001,-40102.099999999999,2172.4400000000001,-41880.300000000003,5340.3999999999996,-855.38800000000003,4801.3800000000001
5322.0,46917.800000000003,-48086.5,-4309.1400000000003,-49850.400000000001,6303.1099999999997,-756.30799999999999,5278.5699999999997
5323.0,50798.900000000001,-54315.699999999997,-6570.6599999999999,-54794.800000000003,7671.29,-928.03399999999999,5735.9899999999998
5324.0,53903.0,-62012.300000000003,-10659.0,-60976.599999999999,8260.6800000000003,-761.78999999999996,6165.0
5325.0,57282.599999999999,-68643.399999999994,-13779.9,-66231.699999999997,9097.8500000000004,-1023.6799999999999,6984.1899999999996
5326.0,60209.400000000001,-77582.699999999997,-20138.799999999999,-74177.5,10558.799999999999,-1073.3599999999999,7559.7700000000004
5327.0,67199.800000000003,-82340.399999999994,-17013.5,-75266.399999999994,11981.1,-2731.6799999999998,8311.8999999999996
5328.0,70218.5,-101567.0,-31294.5,-89726.399999999994,12258.1,-4533.9200000000001,7569.0500000000002
5329.0,85920.600000000006,-126590.0,-36276.5,-97942.399999999994,14008.799999999999,-9720.7999999999993,6328.75
5330.0,92018.399999999994,-216414.0,-116229.0,-171401.0,-4833.5600000000004,-16766.299999999999,329.339
5331.0,32936.699999999997,-21414.299999999999,7075.3800000000001,-26612.099999999999,4007.6199999999999,-1331.73,3853.8800000000001
5332.0,36553.0,-24208.299999999999,8200.8099999999995,-28335.200000000001,4933.8699999999999,-1316.96,4349.5
5333.0,40512.400000000001,-27695.099999999999,9347.3600000000006,-30372.0,5466.9799999999996,-1290.02,4765.3699999999999
5334.0,43327.900000000001,-33649.400000000001,6902.6099999999997,-35237.800000000003,5354.4499999999998,-1201.8599999999999,5018.8699999999999
5335.0,44861.099999999999,-41458.300000000003,536.822,-42791.699999999997,5756.21,-1024.4000000000001,5434.75
5336.0,47900.400000000001,-47990.599999999999,-3074.5100000000002,-48274.199999999997,7057.3299999999999,-1053.6099999999999,6094.5600000000004
5337.0,51066.099999999999,-54646.400000000001,-6194.25,-53623.599999999999,7835.8800000000001,-960.77200000000005,6368.5600000000004
5338.0,54947.699999999997,-60591.900000000001,-8025.8500000000004,-57651.0,9132.5799999999999,-857.13900000000001,7061.4099999999999
5339.0,58249.5,-68492.699999999997,-12276.9,-64100.300000000003,9811.4300000000003,-1320.8399999999999,7447.3400000000001
5340.0,63647.800000000003,-76717.5,-14109.1,-68398.899999999994,11504.200000000001,-1800.27,7661.1999999999998
5341.0,68401.0,-92997.5,-23213.099999999999,-78517.0,11461.1,-2300.7399999999998,8159.0299999999997
5342.0,79289.5,-122984.0,-36989.599999999999,-91807.699999999997,10719.200000000001,-1872.6500000000001,9047.9899999999998
5343.0,94252.699999999997,-194017.0,-88739.800000000003,-140957.0,2138.3800000000001,-5141.1199999999999,12622.6
5344.0,31358.200000000001,-18213.700000000001,8420.1000000000004,-23728.299999999999,3801.6399999999999,-1768.29,3827.8000000000002
5345.0,34490.900000000001,-20828.099999999999,9203.2999999999993,-25555.0,4563.0699999999997,-1806.1600000000001,4130.7700000000004
5346.0,37985.300000000003,-23943.599999999999,10134.9,-27453.5,5270.7399999999998,-1753.25,4360.54
5347.0,41031.300000000003,-28650.900000000001,9240.5,-30718.799999999999,5525.6199999999999,-1501.6199999999999,4719.4499999999998
5348.0,43231.5,-35022.199999999997,5393.6400000000003,-36193.099999999999,5740.4399999999996,-1262.0999999999999,5266.0
5349.0,45526.300000000003,-41555.800000000003,1129.6700000000001,-41911.400000000001,6620.6099999999997,-1158.5,5766.6800000000003
5350.0,48594.5,-47520.699999999997,-1606.24,-46585.599999999999,7583.4099999999999,-1191.6600000000001,6286.4799999999996
5351.0,52290.300000000003,-53204.599999999999,-3503.5799999999999,-50634.900000000001,8845.1900000000005,-933.178,7020.6300000000001
5352.0,56742.800000000003,-58775.300000000003,-3860.8899999999999,-53676.800000000003,9642.25,-1073.1199999999999,7654.2399999999998
5353.0,60078.400000000001,-69777.600000000006,-10414.4,-61509.199999999997,10175.1,-724.30999999999995,8077.29
5354.0,66549.300000000003,-80690.300000000003,-13482.5,-67211.699999999997,11716.0,-322.51400000000001,8641.1900000000005
5355.0,75333.600000000006,-104615.0,-25106.299999999999,-82939.300000000003,10082.200000000001,2838.8099999999999,9625.2800000000007
5356.0,100764.0,-141214.0,-33611.599999999999,-101276.0,12492.6,5186.0900000000001,15584.200000000001
5357.0,29488.900000000001,-15852.299999999999,8752.9300000000003,-21412.5,3604.4299999999998,-2240.8000000000002,3759.96
5358.0,32295.900000000001,-18496.5,9318.6800000000003,-23154.0,4158.4300000000003,-2304.9000000000001,4093.9400000000001
5359.0,35008.300000000003,-21891.5,9164.1900000000005,-25514.400000000001,4669.9099999999999,-2228.2399999999998,4288.2600000000002
5360.0,37864.199999999997,-25732.099999999999,8661.3899999999994,-28165.200000000001,5381.3500000000004,-1882.6199999999999,4607.0600000000004
5361.0,40854.0,-30145.299999999999,7814.79,-31210.799999999999,5800.0699999999997,-1588.4000000000001,5099.2399999999998
5362.0,43097.099999999999,-36002.300000000003,4413.3599999999997,-36096.599999999999,6243.5900000000001,-1310.01,5716.1800000000003
5363.0,46367.900000000001,-40698.5,2817.75,-39646.699999999997,7458.0100000000002,-1263.9000000000001,6565.7799999999997
5364.0,49936.400000000001,-45677.599999999999,1752.73,-43319.599999999999,8235.5200000000004,-1262.4000000000001,6880.7600000000002
5365.0,54312.5,-50840.300000000003,1203.53,-46668.900000000001,9557.5599999999995,-863.78899999999999,7409.6199999999999
5366.0,58532.199999999997,-58145.300000000003,-927.95600000000002,-51560.300000000003,9930.4400000000005,-237.84200000000001,7949.79
5367.0,63825.400000000001,-68963.399999999994,-5351.96,-58671.900000000001,10969.1,818.62300000000005,8426.7999999999993
5368.0,71245.699999999997,-84830.199999999997,-12356.1,-71807.0,10973.700000000001,2403.1199999999999,8546.0499999999993
5369.0,91235.600000000006,-110256.0,-14189.9,-85950.699999999997,13278.9,6695.5200000000004,7657.46
5370.0,27597.200000000001,-14276.200000000001,8339.1299999999992,-19709.900000000001,3394.1799999999998,-2699.0100000000002,3711.6399999999999
5371.0,30288.400000000001,-16550.400000000001,9227.8700000000008,-21123.5,3856.0500000000002,-2715.0300000000002,3972.7199999999998
5372.0,32580.799999999999,-19889.400000000001,8670.8099999999995,-23603.599999999999,4220.04,-2589.3800000000001,4179.6999999999998
5373.0,35042.199999999997,-23437.599999999999,7885.8199999999997,-26187.900000000001,5005.8500000000004,-2312.9099999999999,4540.8699999999999
5374.0,38087.400000000001,-26855.799999999999,8045.46,-28232.200000000001,5687.0600000000004,-1942.0,4975.8000000000002
5375.0,40920.800000000003,-30608.099999999999,7418.6400000000003,-30899.0,6246.8500000000004,-1536.3399999999999,5573.1999999999998
5376.0,44359.5,-34272.199999999997,7191.79,-33283.0,7361.7399999999998,-1430.9200000000001,6319.7600000000002
5377.0,47699.599999999999,-39037.099999999999,6320.6700000000001,-36602.400000000001,7786.2799999999997,-1558.5799999999999,6664.9200000000001
5378.0,50889.599999999999,-44492.300000000003,4164.1800000000003,-40904.599999999999,8896.9799999999996,-1215.9400000000001,6882.0200000000004
5379.0,55013.599999999999,-50867.199999999997,2783.1199999999999,-45430.599999999999,9564.5,-635.96400000000006,6698.3199999999997
5380.0,59317.400000000001,-60060.199999999997,-1479.5899999999999,-52405.900000000001,10373.6,774.40099999999995,7118.8500000000004
5381.0,65557.600000000006,-73575.699999999997,-6848.7399999999998,-61994.599999999999,10534.4,1143.5899999999999,7002.8199999999997
5382.0,71105.899999999994,-107739.0,-30994.799999999999,-88395.5,6717.0,5412.4300000000003,4221.9300000000003
5383.0,25867.200000000001,-12988.799999999999,7909.6199999999999,-18116.200000000001,3129.8899999999999,-3110.1100000000001,3675.0100000000002
5384.0,28074.099999999999,-15475.799999999999,8151.0600000000004,-19812.200000000001,3476.8899999999999,-3155.02,3765.4400000000001
5385.0,29963.5,-18670.299999999999,7302.0,-22219.099999999999,3902.52,-2970.54,3929.5999999999999
5386.0,32335.299999999999,-21768.299999999999,6845.2299999999996,-24406.900000000001,4652.8900000000003,-2772.0999999999999,4334.8500000000004
5387.0,34923.300000000003,-24818.200000000001,6818.5100000000002,-26460.099999999999,5267.1700000000001,-2468.6999999999998,4568.1700000000001
5388.0,37802.099999999999,-27355.0,7387.0200000000004,-27796.0,6244.7799999999997,-1998.3099999999999,5082.5900000000001
5389.0,41592.099999999999,-29841.400000000001,9026.1800000000003,-28576.700000000001,7177.6599999999999,-1764.8499999999999,5855.6499999999996
5390.0,45083.400000000001,-33426.0,9466.3400000000001,-30654.299999999999,7574.6300000000001,-1807.47,6378.0500000000002
5391.0,47594.300000000003,-39363.300000000003,6465.7700000000004,-35448.599999999999,7999.1400000000003,-1608.1800000000001,6564.6199999999999
5392.0,50140.199999999997,-46654.199999999997,2374.0700000000002,-41224.199999999997,8494.6599999999999,-961.47799999999995,6525.6499999999996
5393.0,53971.900000000001,-55013.400000000001,-1881.97,-48011.599999999999,9639.1700000000001,75.817700000000002,6689.46
5394.0,59334.199999999997,-67313.699999999997,-6666.5699999999997,-55893.0,9241.1200000000008,1554.47,6861.0500000000002
5395.0,60443.0,-95523.600000000006,-32937.300000000003,-82990.5,4588.3299999999999,6244.21,7821.0200000000004
5396.0,24354.599999999999,-11887.1,7607.8800000000001,-16599.400000000001,2884.27,-3375.5999999999999,3645.8899999999999
5397.0,25973.599999999999,-14482.6,7169.3699999999999,-18399.400000000001,3047.6900000000001,-3449.1599999999999,3746.9099999999999
5398.0,27424.099999999999,-17659.5,5795.3900000000003,-20871.700000000001,3508.1300000000001,-3310.2800000000002,3936.6900000000001
5399.0,29628.700000000001,-20338.0,5638.5299999999997,-22577.400000000001,4251.9899999999998,-3185.5700000000002,4289.8900000000003
5400.0,31700.099999999999,-23551.900000000001,5007.6899999999996,-24839.900000000001,4640.3800000000001,-2978.4400000000001,4456.9099999999999
5401.0,34237.900000000001,-25623.799999999999,5441.3999999999996,-25961.400000000001,5848.4700000000003,-2461.1900000000001,5026.6499999999996
5402.0,38557.900000000001,-26269.200000000001,9436.3899999999994,-24917.700000000001,6941.0699999999997,-2195.25,5752.1000000000004
5403.0,42263.300000000003,-28900.599999999999,11228.700000000001,-25840.799999999999,7312.6800000000003,-1998.8699999999999,6240.6400000000003
5404.0,44965.900000000001,-34001.199999999997,9424.2600000000002,-29696.0,7459.7600000000002,-1816.54,6525.4200000000001
5405.0,46721.800000000003,-41424.099999999999,4051.54,-36460.900000000001,7695.7200000000003,-1141.5899999999999,6692.9700000000003
5406.0,50179.300000000003,-48750.5,481.53399999999999,-42228.0,8701.9300000000003,-355.72500000000002,6956.7200000000003
5407.0,53975.5,-60747.900000000001,-6746.9099999999999,-52592.400000000001,8466.1499999999996,1611.9300000000001,7031.3500000000004
5408.0,57226.300000000003,-72560.300000000003,-16659.200000000001,-68147.0,7034.6099999999997,3645.4499999999998,7933.4399999999996
5409.0,23060.299999999999,-10868.5,7392.2200000000003,-15303.299999999999,2677.7600000000002,-3527.4899999999998,3597.6500000000001
5410.0,24234.0,-12896.9,6998.8000000000002,-16599.299999999999,2792.0599999999999,-3574.8200000000002,3757.3600000000001
5411.0,25448.299999999999,-15637.1,5812.7399999999998,-18605.799999999999,3125.6399999999999,-3526.23,4017.4099999999999
5412.0,27287.400000000001,-18419.400000000001,5184.9399999999996,-20447.5,3782.3000000000002,-3444.2600000000002,4357.0200000000004
5413.0,29334.400000000001,-21033.799999999999,5008.0200000000004,-22148.400000000001,4229.9700000000003,-3265.1700000000001,4704.6700000000001
5414.0,31803.599999999999,-22826.900000000001,5560.6999999999998,-23310.700000000001,5273.21,-2916.77,5250.3800000000001
5415.0,35801.900000000001,-22960.200000000001,9622.6700000000001,-22151.299999999999,6506.6300000000001,-2648.48,5709.0600000000004
5416.0,39690.800000000003,-24414.5,12804.299999999999,-21870.799999999999,7103.9399999999996,-2229.6100000000001,6110.2399999999998
5417.0,42870.900000000001,-28150.200000000001,13028.4,-23972.099999999999,7260.0100000000002,-1905.0799999999999,6527.4300000000003
5418.0,44527.300000000003,-35453.5,7771.46,-30843.099999999999,7203.8400000000001,-1548.47,6568.4499999999998
5419.0,46891.900000000001,-42689.599999999999,3172.0799999999999,-37300.800000000003,7811.1499999999996,-682.85400000000004,6562.8299999999999
5420.0,50022.300000000003,-52342.599999999999,-3551.8200000000002,-46875.0,8368.6399999999994,414.47000000000003,7022.5100000000002
5421.0,53428.0,-62689.5,-9951.4799999999996,-57740.5,7524.54,250.92500000000001,6824.2700000000004
5422.0,4530.8999999999996,5047.1499999999996,361.72300000000001,4144.2600000000002,131.55000000000001,-300.72000000000003,-745.61500000000001
5423.0,4535.21,5055.6999999999998,315.87200000000001,4119.8999999999996,155.304,-247.06700000000001,-684.70899999999995
5424.0,4541.6099999999997,5016.1700000000001,226.333,4044.9699999999998,160.11699999999999,-197.71000000000001,-631.96799999999996
5425.0,4545.4300000000003,5069.9200000000001,236.93799999999999,4070.5700000000002,165.18600000000001,-154.03700000000001,-571.93100000000004
5426.0,4557.5799999999999,5071.2399999999998,193.773,4054.3699999999999,173.38900000000001,-107.13200000000001,-510.86000000000001
5427.0,4574.5900000000001,5139.8500000000004,218.94999999999999,4112.4499999999998,177.148,-58.066800000000001,-450.01600000000002
5428.0,4595.9300000000003,5139.5,176.89699999999999,4108.9899999999998,177.47900000000001,-9.51187,-388.32499999999999
5429.0,4621.2399999999998,5210.6999999999998,208.47200000000001,4183.79,174.37700000000001,39.474899999999998,-326.56400000000002
5430.0,4649.5299999999997,5205.4700000000003,166.28999999999999,4187.8299999999999,167.77099999999999,88.339500000000001,-264.19400000000002
5431.0,4679.9300000000003,5277.4200000000001,205.43100000000001,4276.0200000000004,156.99799999999999,137.10599999999999,-202.172
5432.0,4709.46,5275.8199999999997,177.87700000000001,4296.9899999999998,140.79400000000001,185.63499999999999,-140.261
5433.0,4733.6999999999998,5343.96,234.14699999999999,4401.8000000000002,119.369,232.803,-79.629300000000001
5434.0,4740.4399999999996,5301.29,205.22499999999999,4408.5500000000002,88.862499999999997,276.33199999999999,-22.9788
5435.0,4935.3599999999997,5359.8500000000004,225.63300000000001,4232.6199999999999,171.94499999999999,-404.952,-802.85299999999995
5436.0,4941.6400000000003,5321.4899999999998,115.708,4136.3599999999997,199.74299999999999,-341.14499999999998,-733.89599999999996
5437.0,4961.0200000000004,5376.79,96.477400000000003,4137.2700000000004,211.97999999999999,-278.99299999999999,-675.87099999999998
5438.0,4975.3000000000002,5359.6300000000001,15.789199999999999,4068.6199999999999,221.76300000000001,-219.845,-615.52800000000002
5439.0,4991.9899999999998,5454.2799999999997,51.273800000000001,4127.25,232.215,-157.047,-547.92600000000004
5440.0,5015.8100000000004,5440.8999999999996,-19.5853,4091.0700000000002,238.30699999999999,-91.435400000000001,-481.21800000000002
5441.0,5043.7399999999998,5533.9799999999996,19.340599999999998,4170.3900000000003,240.68000000000001,-25.506,-413.38900000000001
5442.0,5076.8999999999996,5521.1700000000001,-44.7926,4154.3800000000001,239.47399999999999,41.598700000000001,-345.04599999999999
5443.0,5113.5200000000004,5615.5600000000004,2.4988600000000001,4254.5500000000002,234.43100000000001,108.80500000000001,-275.88200000000001
5444.0,5153.3599999999997,5599.9200000000001,-55.102899999999998,4255.2200000000003,225.22200000000001,176.83000000000001,-206.51900000000001
5445.0,5193.5900000000001,5682.4499999999998,-6.8169399999999998,4364.3400000000001,210.72300000000001,243.60499999999999,-136.65299999999999
5446.0,5227.8000000000002,5650.7799999999997,-55.942700000000002,4377.8699999999999,187.86600000000001,309.42700000000002,-68.074299999999994
5447.0,5240.25,5735.25,43.471899999999998,4529.1000000000004,148.84100000000001,368.666,-2.7082799999999998
5448.0,5057.9899999999998,5384.6199999999999,129.07599999999999,4146.9200000000001,264.05399999999997,-435.28899999999999,-848.10900000000004
5449.0,5068.9700000000003,5382.2299999999996,42.941400000000002,4080.3000000000002,288.83499999999998,-370.505,-770.43200000000002
5450.0,5094.7299999999996,5412.1999999999998,-13.104900000000001,4050.5300000000002,303.83699999999999,-305.25599999999997,-706.92100000000005
5451.0,5112.2700000000004,5428.1199999999999,-68.8065,4006.5900000000001,316.48399999999998,-239.84899999999999,-642.74099999999999
5452.0,5130.3000000000002,5509.1999999999998,-53.1404,4045.54,327.322,-171.066,-568.68499999999995
5453.0,5155.9300000000003,5530.96,-94.356300000000005,4040.3899999999999,333.80799999999999,-100.108,-496.08100000000002
5454.0,5185.0600000000004,5603.8800000000001,-79.757099999999994,4096.1400000000003,336.53199999999998,-28.0182,-422.36099999999999
5455.0,5219.2299999999996,5620.2600000000002,-117.85899999999999,4107.0699999999997,335.80799999999999,45.212499999999999,-347.85599999999999
5456.0,5256.6800000000003,5683.3699999999999,-103.724,4175.3999999999996,331.28899999999999,118.96599999999999,-272.78199999999998
5457.0,5296.6199999999999,5690.5600000000004,-138.79400000000001,4199.1400000000003,323.43700000000001,193.51599999999999,-196.91999999999999
5458.0,5336.5100000000002,5746.29,-115.09,4286.0500000000002,312.00299999999999,266.81700000000001,-120.634
5459.0,5370.1000000000004,5731.0100000000002,-144.489,4320.1899999999996,295.97800000000001,339.83199999999999,-45.017699999999998
5460.0,5392.3599999999997,5725.3999999999996,-141.80600000000001,4386.4899999999998,270.185,405.92899999999997,32.029299999999999
5461.0,5183.54,5672.8599999999997,264.62599999999998,4336.7299999999996,250.108,-489.30799999999999,-847.55200000000002
5462.0,5200.3199999999997,5691.54,188.06,4280.0500000000002,268.97899999999998,-422.16399999999999,-770.09900000000005
5463.0,5231.8699999999999,5727.6899999999996,127.843,4242.1800000000003,286.02300000000002,-352.37299999999999,-709.02599999999995
5464.0,5253.3699999999999,5771.0799999999999,89.976200000000006,4212.6000000000004,298.77699999999999,-278.82900000000001,-644.71299999999997
5465.0,5275.0299999999997,5843.1599999999999,88.275499999999994,4232.4200000000001,306.31799999999998,-202.51400000000001,-570.93499999999995
5466.0,5304.3800000000001,5883.9099999999999,58.421999999999997,4236.8800000000001,310.59800000000001,-124.10899999999999,-498.84699999999998
5467.0,5337.1099999999997,5950.3500000000004,60.010199999999998,4278.8400000000001,311.19400000000002,-43.377000000000002,-425.93799999999999
5468.0,5374.25,5987.3699999999999,37.591000000000001,4304.9899999999998,308.36099999999999,38.648800000000001,-352.31799999999998
5469.0,5414.5699999999997,6049.46,47.004199999999997,4369.1400000000003,301.95400000000001,122.029,-278.40499999999997
5470.0,5456.3400000000001,6078.5500000000002,32.252299999999998,4414.0900000000001,291.803,206.042,-203.72
5471.0,5496.8699999999999,6116.1800000000003,39.114100000000001,4486.4099999999999,278.04899999999998,289.43000000000001,-128.77600000000001
5472.0,5526.1999999999998,6109.8000000000002,26.444800000000001,4536.6499999999996,261.33199999999999,371.22399999999999,-53.669499999999999
5473.0,5536.7299999999996,6094.0299999999997,38.382100000000001,4610.3500000000004,241.399,443.90800000000002,25.196300000000001
5474.0,5345.9300000000003,5791.6899999999996,195.048,4340.3100000000004,246.20599999999999,-551.24800000000005,-852.33900000000006
5475.0,5368.5200000000004,5824.6400000000003,121.714,4284.4899999999998,261.61900000000003,-479.32499999999999,-777.67200000000003
5476.0,5394.1000000000004,5857.7700000000004,59.721499999999999,4230.8900000000003,280.20999999999998,-402.30099999999999,-717.35599999999999
5477.0,5414.6000000000004,5925.8699999999999,41.851799999999997,4216.6400000000003,293.94400000000002,-319.447,-649.76599999999996
5478.0,5440.7200000000003,5993.2799999999997,26.545999999999999,4221.5,299.83999999999997,-235.06899999999999,-576.37300000000005
5479.0,5472.3999999999996,6057.9499999999998,14.361599999999999,4240.5500000000002,303.08199999999999,-148.23599999999999,-503.76999999999998
5480.0,5508.1400000000003,6117.6499999999996,3.3997199999999999,4268.96,302.62400000000002,-58.349800000000002,-430.63
5481.0,5547.9099999999999,6169.6300000000001,-8.5640699999999992,4304.7799999999997,298.613,33.218299999999999,-356.89600000000002
5482.0,5590.8900000000003,6218.4700000000003,-15.8292,4352.6000000000004,291.19400000000002,126.602,-282.87099999999998
5483.0,5635.3699999999999,6252.5600000000004,-27.7973,4401.8800000000001,280.57499999999999,220.82499999999999,-208.167
5484.0,5678.5,6289.4799999999996,-22.421099999999999,4475.3100000000004,267.39800000000002,314.798,-133.03100000000001
5485.0,5710.1800000000003,6288.2299999999996,-29.395499999999998,4535.1800000000003,251.94399999999999,406.339,-57.630299999999998
5486.0,5724.0100000000002,6253.8800000000001,-35.156300000000002,4598.54,233.56200000000001,489.10399999999998,21.453199999999999
5487.0,5482.5600000000004,6011.75,257.16000000000003,4455.71,242.29499999999999,-609.60799999999995,-853.47299999999996
5488.0,5510.5100000000002,6065.1899999999996,194.47800000000001,4405.2799999999997,257.589,-532.16600000000005,-783.43399999999997
5489.0,5531.3999999999996,6112.1099999999997,144.39099999999999,4351.9799999999996,271.83300000000003,-448.82600000000002,-721.721
5490.0,5551.1700000000001,6201.3000000000002,142.81899999999999,4351.2399999999998,282.16300000000001,-359.26400000000001,-650.66700000000003
5491.0,5581.3599999999997,6264.3500000000004,115.042,4341.6599999999999,286.67899999999997,-267.30000000000001,-578.25999999999999
5492.0,5615.75,6345.3100000000004,112.547,4367.3000000000002,287.91699999999997,-172.542,-505.74799999999999
5493.0,5654.6400000000003,6401.7600000000002,92.492900000000006,4385.29,285.892,-74.203999999999994,-433.05500000000001
5494.0,5697.1099999999997,6472.4099999999999,94.631600000000006,4433.9399999999996,280.40600000000001,26.528400000000001,-359.91899999999998
5495.0,5742.6199999999999,6520.8299999999999,83.707800000000006,4477.9300000000003,271.738,129.411,-286.55700000000002
5496.0,5789.0699999999997,6576.9200000000001,92.1815,4548.1899999999996,259.61700000000002,233.53899999999999,-212.703
5497.0,5833.3500000000004,6595.2200000000003,79.340599999999995,4604.7600000000002,244.55799999999999,337.59899999999999,-138.56
5498.0,5865.3500000000004,6605.0600000000004,86.061899999999994,4681.0299999999997,227.62299999999999,438.93099999999998,-64.257199999999997
5499.0,5878.75,6558.1700000000001,72.441900000000004,4740.8800000000001,209.197,531.37099999999998,13.9688
5500.0,5630.96,6177.6899999999996,253.447,4510.46,232.01900000000001,-673.64499999999998,-853.54300000000001
5501.0,5657.1999999999998,6233.8900000000003,189.96100000000001,4447.7399999999998,246.761,-589.09199999999998,-786.56799999999998
5502.0,5679.4399999999996,6298.6000000000004,148.875,4396.3699999999999,258.03899999999999,-499.21100000000001,-723.24599999999998
5503.0,5703.7399999999998,6393.79,143.03999999999999,4389.9099999999999,265.23000000000002,-403.17899999999997,-651.22400000000005
5504.0,5736.6800000000003,6470.21,121.583,4383.1300000000001,268.291,-303.02300000000002,-579.43200000000002
5505.0,5774.3400000000001,6557.4799999999996,118.268,4404.8500000000004,267.86900000000003,-199.375,-507.44099999999997
5506.0,5816.2600000000002,6625.0500000000002,103.43899999999999,4425.8199999999997,264.19299999999998,-91.769199999999998,-435.38799999999998
5507.0,5861.6199999999999,6694.4399999999996,99.623999999999995,4467.1400000000003,257.06900000000002,19.014700000000001,-363.06900000000002
5508.0,5909.8299999999999,6747.6300000000001,90.034199999999998,4511.9399999999996,246.726,132.315,-290.62799999999999
5509.0,5959.0,6792.8500000000004,85.489500000000007,4569.9899999999998,233.45400000000001,247.327,-217.85300000000001
5510.0,6006.0200000000004,6828.5799999999999,89.084800000000001,4645.0,218.07900000000001,362.48599999999999,-144.708
5511.0,6040.6899999999996,6830.3000000000002,88.052599999999998,4717.5699999999997,201.49799999999999,474.66699999999997,-71.344700000000003
5512.0,6056.5600000000004,6787.9300000000003,80.609399999999994,4789.5500000000002,184.02500000000001,578.03200000000004,5.7997699999999996
5513.0,5769.5600000000004,6388.46,307.46100000000001,4610.3299999999999,222.827,-737.25699999999995,-852.59199999999998
5514.0,5796.3299999999999,6454.2299999999996,246.33600000000001,4540.8599999999997,233.804,-646.87400000000002,-786.79899999999998
5515.0,5819.0500000000002,6538.3900000000003,217.57900000000001,4495.0100000000002,242.27799999999999,-550.54499999999996,-721.98699999999997
5516.0,5846.7600000000002,6638.6300000000001,208.20400000000001,4481.5200000000004,247.79300000000001,-447.339,-650.06299999999999
5517.0,5882.46,6727.8800000000001,192.43299999999999,4476.5600000000004,248.64599999999999,-339.39400000000001,-578.81500000000005
5518.0,5922.8299999999999,6814.96,182.53299999999999,4488.1099999999997,246.291,-226.977,-507.50900000000001
5519.0,5967.3999999999996,6894.5,174.22200000000001,4512.6300000000001,240.72900000000001,-110.06699999999999,-436.31200000000001
5520.0,6015.3000000000002,6967.1599999999999,169.46000000000001,4551.0,232.00800000000001,10.6607,-365.02699999999999
5521.0,6065.8199999999997,7033.25,169.875,4604.6099999999997,220.28100000000001,134.446,-293.755
5522.0,6116.9899999999998,7086.0,171.518,4668.79,205.625,260.30399999999997,-222.33699999999999
5523.0,6165.4700000000003,7116.3400000000001,170.10499999999999,4739.7399999999998,188.58799999999999,386.51900000000001,-150.732
5524.0,6201.8900000000003,7116.3199999999997,168.68100000000001,4815.2200000000003,170.84100000000001,509.77699999999999,-79.041499999999999
5525.0,6219.9700000000003,7076.3699999999999,165.48500000000001,4896.96,153.06,624.26099999999997,-3.6253600000000001
5526.0,5900.7299999999996,6567.3199999999997,338.64100000000002,4679.2399999999998,205.64400000000001,-803.56399999999996,-847.26599999999996
5527.0,5934.54,6637.1300000000001,267.40699999999998,4593.3599999999997,216.87700000000001,-707.654,-783.84500000000003
5528.0,5961.3699999999999,6742.4499999999998,248.773,4552.2700000000004,222.77600000000001,-604.61800000000005,-718.76700000000005
5529.0,5991.3000000000002,6841.3299999999999,230.63999999999999,4525.3100000000004,225.86000000000001,-494.00099999999998,-647.01300000000003
5530.0,6030.1199999999999,6949.96,226.649,4527.71,224.77799999999999,-377.90800000000002,-576.68700000000001
5531.0,6073.29,7037.6400000000003,210.874,4529.2399999999998,220.52500000000001,-256.37900000000002,-506.37700000000001
5532.0,6120.54,7134.6300000000001,214.59,4562.3599999999997,212.99799999999999,-129.721,-436.30700000000002
5533.0,6170.9200000000001,7199.8999999999996,198.292,4586.6300000000001,202.40000000000001,1.40787,-366.37400000000002
5534.0,6223.6099999999997,7277.7600000000002,207.82400000000001,4647.6899999999996,188.77799999999999,136.136,-296.62
5535.0,6276.9799999999996,7313.1099999999997,190.636,4692.6700000000001,172.69800000000001,273.38999999999999,-226.898
5536.0,6327.75,7367.6000000000004,213.102,4788.6800000000003,154.94800000000001,411.29399999999998,-157.07599999999999
5537.0,6366.7600000000002,7353.8599999999997,198.58500000000001,4854.5699999999997,137.001,546.26700000000005,-87.1541
5538.0,6387.8000000000002,7326.0600000000004,208.738,4955.54,119.527,672.48000000000002,-13.7134
5539.0,6037.3900000000003,6760.8400000000001,380.81700000000001,4757.5699999999997,181.274,-874.90800000000002,-840.28300000000002
5540.0,6069.0699999999997,6849.3299999999999,324.00700000000001,4672.5100000000002,197.274,-771.03399999999999,-778.78499999999997
5541.0,6098.3199999999997,6970.1999999999998,311.64100000000002,4631.4799999999996,202.93600000000001,-659.68899999999996,-713.40800000000002
5542.0,6131.6499999999996,7078.9499999999998,294.85000000000002,4601.1899999999996,203.04900000000001,-542.02099999999996,-642.43100000000004
5543.0,6172.9399999999996,7195.7600000000002,292.11500000000001,4599.4899999999998,199.81700000000001,-417.63499999999999,-572.97299999999996
5544.0,6218.5799999999999,7288.3199999999997,275.11099999999999,4595.1000000000004,193.25200000000001,-286.916,-503.78300000000002
5545.0,6268.1400000000003,7391.5200000000004,280.06999999999999,4625.3000000000002,183.62100000000001,-150.37700000000001,-435.01900000000001
5546.0,6320.7200000000003,7465.3299999999999,268.55900000000003,4651.1499999999996,171.16999999999999,-8.6436499999999992,-366.63099999999997
5547.0,6375.4200000000001,7549.6599999999999,282.20100000000002,4714.0600000000004,155.97399999999999,137.256,-298.613
5548.0,6430.5,7598.04,277.27100000000002,4770.2299999999996,138.428,286.12599999999998,-230.809
5549.0,6482.6099999999997,7640.7399999999998,288.79599999999999,4855.54,119.06,435.89600000000002,-163.16999999999999
5550.0,6523.5,7630.9499999999998,279.76100000000002,4929.7399999999998,100.004,582.86699999999996,-95.560599999999994
5551.0,6547.2200000000003,7599.6899999999996,288.06400000000002,5034.3299999999999,82.364999999999995,721.08600000000001,-24.566700000000001
5552.0,6182.8500000000004,6935.1599999999999,397.90499999999997,4806.3699999999999,161.27500000000001,-948.97799999999995,-836.048
5553.0,6203.6000000000004,7045.3000000000002,366.39100000000002,4729.4899999999998,175.786,-836.625,-772.10799999999995
5554.0,6232.3199999999997,7168.1700000000001,349.964,4678.2799999999997,179.137,-717.11000000000001,-705.20600000000002
5555.0,6269.1700000000001,7289.5299999999997,337.19900000000001,4646.1999999999998,176.78,-591.99599999999998,-635.755
5556.0,6312.8699999999999,7411.5299999999997,332.77199999999999,4636.8199999999997,171.28899999999999,-459.10899999999998,-567.36400000000003
5557.0,6360.9700000000003,7518.7299999999996,324.42200000000003,4635.7700000000004,162.53200000000001,-318.99400000000003,-499.60899999999998
5558.0,6412.71,7625.29,327.995,4659.7700000000004,150.745,-172.262,-432.44499999999999
5559.0,6467.2200000000003,7705.3299999999999,319.33800000000002,4684.5500000000002,136.178,-19.6523,-365.89499999999998
5560.0,6523.5900000000001,7787.6700000000001,329.11700000000002,4740.6400000000003,118.93000000000001,137.744,-299.95499999999998
5561.0,6580.25,7831.7700000000004,319.42700000000002,4790.4300000000003,99.702600000000004,298.58699999999999,-234.47800000000001
5562.0,6634.0900000000001,7884.7700000000004,341.88600000000002,4886.7600000000002,79.4679,460.70699999999999,-169.27000000000001
5563.0,6677.1999999999998,7874.4899999999998,333.70699999999999,4964.5200000000004,59.9514,620.12599999999998,-104.214
5564.0,6703.7299999999996,7842.6400000000003,343.08600000000001,5075.54,42.449800000000003,770.82500000000005,-36.020299999999999
5565.0,6314.4300000000003,7117.6300000000001,440.29599999999999,4862.1899999999996,146.482,-1020.87,-830.20000000000005
5566.0,6332.1300000000001,7251.6899999999996,427.96899999999999,4794.5,154.54900000000001,-902.67600000000004,-762.88199999999995
5567.0,6363.0600000000004,7386.0699999999997,414.69299999999998,4741.8900000000003,154.541,-776.40200000000004,-695.28099999999995
5568.0,6402.4200000000001,7519.3800000000001,406.28500000000003,4707.1599999999999,149.85599999999999,-643.42600000000004,-627.29499999999996
5569.0,6448.3199999999997,7647.75,401.62799999999999,4690.9700000000003,141.73400000000001,-501.92700000000002,-560.077
5570.0,6498.3999999999996,7761.5,394.38400000000001,4684.8599999999997,130.42500000000001,-352.31200000000001,-493.85399999999998
5571.0,6552.0299999999997,7871.8100000000004,397.35000000000002,4702.75,116.27,-195.209,-428.45999999999998
5572.0,6608.2299999999996,7962.4799999999996,396.34100000000001,4730.54,99.597499999999997,-31.499700000000001,-363.96600000000001
5573.0,6666.0900000000001,8048.04,407.81599999999997,4784.7399999999998,80.605400000000003,137.66399999999999,-300.29300000000001
5574.0,6723.9700000000003,8107.4499999999998,413.505,4847.5699999999997,59.801000000000002,310.76400000000001,-237.387
5575.0,6778.7200000000003,8145.5299999999997,422.75200000000001,4929.8599999999997,37.897599999999997,485.45699999999999,-174.971
5576.0,6823.4099999999999,8141.3999999999996,422.94600000000003,5017.9799999999996,17.287299999999998,657.61000000000001,-112.98099999999999
5577.0,6852.4399999999996,8103.0600000000004,428.005,5129.54,-0.33294099999999999,821.10699999999997,-48.034700000000001
5578.0,6434.5799999999999,7302.79,499.33499999999998,4922.1099999999997,127.26000000000001,-1093.8399999999999,-818.11300000000006
5579.0,6455.5699999999997,7432.6800000000003,472.25400000000002,4832.8900000000003,130.422,-970.39499999999998,-750.02099999999996
5580.0,6489.1199999999999,7588.3000000000002,471.81599999999997,4787.1400000000003,126.995,-837.62099999999998,-682.88900000000001
5581.0,6530.6499999999996,7715.1300000000001,449.70100000000002,4731.0900000000001,119.741,-696.66499999999996,-616.35900000000004
5582.0,6578.6000000000004,7866.96,462.15699999999998,4724.6700000000001,108.965,-546.37599999999998,-550.66200000000003
5583.0,6630.5900000000001,7976.29,445.25,4701.9899999999998,95.243099999999998,-387.08100000000002,-486.26400000000001
5584.0,6685.8299999999999,8108.7700000000004,466.47899999999998,4731.8699999999999,78.597300000000004,-219.398,-422.91800000000001
5585.0,6743.3900000000003,8185.7600000000002,449.322,4738.0200000000004,59.627800000000001,-44.3536,-360.79300000000001
5586.0,6802.2399999999998,8288.4599999999991,477.11700000000002,4804.0900000000001,38.3553,136.816,-299.75099999999998
5587.0,6860.9899999999998,8323.2299999999996,458.83300000000003,4839.8400000000001,15.7704,322.464,-239.81200000000001
5588.0,6916.8000000000002,8390.3400000000001,498.87200000000001,4951.6899999999996,-7.1740000000000004,510.12099999999998,-180.505
5589.0,6963.1499999999996,8365.6800000000003,480.86500000000001,5023.25,-28.303999999999998,695.40300000000002,-121.84399999999999
5590.0,6994.6300000000001,8346.0599999999995,507.07499999999999,5160.5100000000002,-45.976199999999999,872.07799999999997,-60.532200000000003
5591.0,6551.5699999999997,7487.2299999999996,564.12800000000004,4979.29,105.61,-1169.5699999999999,-801.98599999999999
5592.0,6574.2600000000002,7624.8999999999996,536.37099999999998,4880.8900000000003,105.157,-1039.8,-734.47400000000005
5593.0,6610.4300000000003,7798.5900000000001,545.74099999999999,4837.5,98.877600000000001,-900.43399999999997,-668.46699999999998
5594.0,6653.8999999999996,7930.46,521.69500000000005,4771.3299999999999,88.896600000000007,-751.38999999999999,-603.40200000000004
5595.0,6703.5200000000004,8095.4099999999999,541.452,4764.1199999999999,75.190200000000004,-592.23500000000001,-539.34799999999996
5596.0,6756.9499999999998,8204.0300000000007,519.20399999999995,4728.2600000000002,58.673200000000001,-423.108,-476.86399999999998
5597.0,6813.4099999999999,8346.2700000000004,546.86699999999996,4757.4499999999998,39.383000000000003,-244.69999999999999,-415.767
5598.0,6871.96,8427.0599999999995,531.59699999999998,4759.1599999999999,18.134499999999999,-58.098799999999997,-356.209
5599.0,6931.6000000000004,8538.4599999999991,567.69200000000001,4828.3299999999999,-5.1057199999999998,135.33799999999999,-298.041
5600.0,6990.9099999999999,8581.8799999999992,559.27999999999997,4870.0900000000001,-29.3691,333.80200000000002,-241.28100000000001
5601.0,7046.9899999999998,8639.4200000000001,592.62800000000004,4973.0100000000002,-54.069499999999998,534.64099999999996,-185.518
5602.0,7094.3400000000001,8614.6299999999992,577.78700000000003,5048.5299999999997,-76.261099999999999,733.31799999999998,-130.643
5603.0,7127.9399999999996,8593.0499999999993,605.03999999999996,5190.8500000000004,-94.060199999999995,923.46400000000006,-73.373199999999997
5604.0,6661.9700000000003,7657.9200000000001,625.65099999999995,5021.54,82.957800000000006,-1246.8699999999999,-781.79499999999996
5605.0,6687.3800000000001,7803.0500000000002,596.39700000000005,4913.6499999999996,77.176500000000004,-1111.1600000000001,-715.90700000000004
5606.0,6725.4200000000001,7983.7700000000004,605.32799999999997,4860.6300000000001,68.179199999999994,-965.03200000000004,-651.15099999999995
5607.0,6770.6700000000001,8123.1300000000001,582.07799999999997,4786.5799999999999,55.100999999999999,-807.75999999999999,-587.77599999999995
5608.0,6821.6400000000003,8296.5100000000002,604.995,4773.3999999999996,38.491599999999998,-639.702,-525.65599999999995
5609.0,6876.3400000000001,8414.4200000000001,587.73299999999995,4733.9499999999998,19.2502,-460.53699999999998,-465.38299999999998
5610.0,6933.6800000000003,8564.5900000000001,620.577,4760.2299999999996,-2.74634,-271.26799999999997,-406.82100000000003
5611.0,6992.8000000000002,8644.1499999999996,602.85000000000002,4752.2399999999998,-26.559699999999999,-72.905199999999994,-350.13400000000001
5612.0,7052.6400000000003,8758.8199999999997,642.74400000000003,4818.9300000000003,-52.233600000000003,132.96799999999999,-295.22199999999998
5613.0,7112.0100000000002,8789.5300000000007,623.64800000000002,4845.1899999999996,-78.443200000000004,344.488,-242.066
5614.0,7168.3500000000004,8862.3099999999995,675.39300000000003,4963.6899999999996,-104.244,558.85199999999998,-190.16499999999999
5615.0,7216.6000000000004,8828.4400000000005,655.08799999999997,5033.9799999999996,-127.068,771.24199999999996,-139.404
5616.0,7252.1300000000001,8813.1700000000001,692.09000000000003,5189.5900000000001,-144.857,975.19600000000003,-86.615499999999997
5617.0,6763.8800000000001,7823.7600000000002,695.80499999999995,5059.4899999999998,58.674599999999998,-1326.01,-757.07000000000005
5618.0,6795.5500000000002,7987.54,672.63499999999999,4950.6999999999998,48.581400000000002,-1184.25,-694.99900000000002
5619.0,6834.2799999999997,8172.8500000000004,679.98099999999999,4885.0699999999997,36.704999999999998,-1031.1600000000001,-631.33799999999997
5620.0,6881.2200000000003,8330.8500000000004,668.89300000000003,4814.25,20.542400000000001,-865.59299999999996,-569.84900000000005
5621.0,6933.0600000000004,8502.2299999999996,685.221,4784.1300000000001,0.78747699999999998,-688.54399999999998,-509.77699999999999
5622.0,6988.4899999999998,8633.9699999999993,678.30899999999997,4745.6400000000003,-21.590399999999999,-499.25400000000002,-451.81700000000001
5623.0,7046.2399999999998,8777.2600000000002,702.25900000000001,4753.8100000000004,-46.433700000000002,-298.988,-396.01100000000002
5624.0,7105.5600000000004,8876.1100000000006,703.25,4756.4099999999999,-72.777600000000007,-88.689499999999995,-342.42399999999998
5625.0,7165.3299999999999,8982.1000000000004,735.52599999999995,4808.29,-100.53,129.86500000000001,-291.00099999999998
5626.0,7224.3800000000001,9036.9899999999998,743.35000000000002,4855.8000000000002,-128.554,354.67200000000003,-241.72300000000001
5627.0,7280.1700000000001,9082.9200000000001,772.63699999999994,4947.8299999999999,-156.108,582.73900000000003,-194.08199999999999
5628.0,7328.6700000000001,9064.6700000000001,772.61900000000003,5037.71,-180.054,809.07100000000003,-147.95400000000001
5629.0,7365.6999999999998,9030.1800000000003,794.56200000000001,5181.0699999999997,-197.81700000000001,1027.0999999999999,-100.117
5630.0,6860.0200000000004,7982.1700000000001,770.61699999999996,5089.6599999999999,30.097200000000001,-1408.3900000000001,-728.63900000000001
5631.0,6896.0200000000004,8149.46,739.59400000000005,4964.29,18.572700000000001,-1258.96,-670.64599999999996
5632.0,6935.9300000000003,8345.6800000000003,751.25800000000004,4891.5799999999999,2.7004100000000002,-1098.8099999999999,-608.471
5633.0,6983.8699999999999,8506.4899999999998,737.553,4808.0799999999999,-16.662299999999998,-925.11300000000006,-548.98599999999999
5634.0,7036.3400000000001,8689.2800000000007,761.15300000000002,4774.0,-39.628900000000002,-738.83000000000004,-491.25599999999997
5635.0,7092.1999999999998,8825.6299999999992,755.96000000000004,4726.8400000000001,-65.008300000000006,-539.40899999999999,-435.91300000000001
5636.0,7149.9499999999998,8980.1200000000008,789.85599999999999,4734.6999999999998,-92.764899999999997,-327.94900000000001,-383.13400000000001
5637.0,7208.9099999999999,9072.1399999999994,784.39800000000002,4721.5500000000002,-121.895,-105.63,-332.983
5638.0,7267.9499999999998,9184.8700000000008,825.58900000000006,4773.9799999999996,-152.18000000000001,125.77,-285.42000000000002
5639.0,7326.0799999999999,9221.2000000000007,818.63199999999995,4799.8599999999997,-182.28899999999999,364.03100000000001,-240.46000000000001
5640.0,7381.1599999999999,9285.8600000000006,871.529,4910.7200000000003,-211.02199999999999,606.07600000000002,-197.42500000000001
5641.0,7429.6800000000003,9251.9400000000005,861.03499999999997,4988.6800000000003,-235.59800000000001,846.62099999999998,-156.27699999999999
5642.0,7467.8900000000003,9228.6900000000005,899.01400000000001,5150.1899999999996,-253.333,1079.0,-113.88200000000001
5643.0,6953.0200000000004,8130.0900000000001,844.66700000000003,5105.5699999999997,-0.289022,-1493.29,-698.71900000000005
5644.0,6988.6700000000001,8315.4500000000007,824.80899999999997,4980.7299999999996,-12.569000000000001,-1335.52,-642.71199999999999
5645.0,7030.4300000000003,8517.0900000000001,834.59199999999998,4895.04,-31.881799999999998,-1167.73,-582.94600000000003
5646.0,7078.8199999999997,8693.3600000000006,831.80899999999997,4810.7799999999997,-54.617800000000003,-986.07600000000002,-525.48299999999995
5647.0,7131.5200000000004,8876.5,852.29300000000001,4761.8100000000004,-80.954099999999997,-790.41200000000003,-470.22199999999998
5648.0,7187.1199999999999,9022.3299999999999,854.81700000000001,4710.5100000000002,-109.748,-580.84900000000005,-417.63799999999998
5649.0,7244.3900000000003,9171.9099999999999,883.39800000000002,4701.8599999999997,-140.56200000000001,-358.08999999999997,-368.09399999999999
5650.0,7302.5200000000004,9279.1700000000001,894.44600000000003,4694.6899999999996,-172.41200000000001,-123.616,-321.64800000000002
5651.0,7360.4499999999998,9385.0799999999999,931.75099999999998,4733.8599999999997,-204.93600000000001,120.797,-278.18400000000003
5652.0,7417.2399999999998,9441.0599999999995,949.09500000000003,4776.1099999999997,-236.922,372.69900000000001,-237.82300000000001
5653.0,7470.7799999999997,9480.5200000000004,983.05600000000004,4861.9700000000003,-267.37799999999999,628.84799999999996,-199.827
5654.0,7518.5699999999997,9458.9599999999991,991.39400000000001,4956.1300000000001,-293.01299999999998,883.77499999999998,-164.185
5655.0,7557.4799999999996,9417.0400000000009,1016.3200000000001,5105.8299999999999,-310.71899999999999,1130.73,-127.66800000000001
5656.0,7039.8299999999999,8267.3799999999992,920.94000000000005,5107.9099999999999,-31.1296,-1579.23,-666.55399999999997
5657.0,7073.7600000000002,8460.7900000000009,904.06600000000003,4974.8999999999996,-45.783000000000001,-1413.9300000000001,-611.18700000000001
5658.0,7116.1400000000003,8668.8899999999994,914.48199999999997,4878.3699999999999,-68.5929,-1238.1400000000001,-553.97699999999998
5659.0,7164.6700000000001,8849.6700000000001,912.30999999999995,4781.5600000000004,-94.992699999999999,-1048.47,-498.81799999999998
5660.0,7217.21,9041.3099999999995,938.63999999999999,4725.8699999999999,-124.747,-843.471,-446.23099999999999
5661.0,7272.21,9191.75,944.74900000000002,4665.0600000000004,-156.79400000000001,-623.62,-396.75099999999998
5662.0,7328.4499999999998,9350.5499999999993,983.16300000000001,4653.8900000000003,-190.708,-389.53100000000001,-350.69999999999999
5663.0,7385.1400000000003,9450.0699999999997,988.92100000000005,4629.54,-225.512,-142.79300000000001,-308.28699999999998
5664.0,7441.2600000000002,9560.3400000000001,1034.8299999999999,4666.6000000000004,-260.69099999999997,114.694,-269.30599999999998
5665.0,7495.9899999999998,9597.3899999999994,1039.21,4686.5600000000004,-294.81200000000001,380.35300000000001,-234.01599999999999
5666.0,7547.6899999999996,9652.9300000000003,1096.3,4788.46,-326.47300000000001,650.80100000000004,-201.40000000000001
5667.0,7594.4300000000003,9614.4400000000005,1094.8800000000001,4869.3000000000002,-352.71100000000001,920.30499999999995,-171.666
5668.0,7633.6899999999996,9582.6900000000005,1136.3599999999999,5035.9099999999999,-370.30700000000002,1182.03,-141.53899999999999
5669.0,7117.5900000000001,8396.2600000000002,1005.14,5100.6199999999999,-61.191400000000002,-1665.5799999999999,-631.13
5670.0,7150.75,8601.1800000000003,994.29899999999998,4962.6300000000001,-79.617500000000007,-1493.49,-576.48699999999997
5671.0,7193.3800000000001,8819.8799999999992,1010.24,4859.71,-105.95699999999999,-1309.98,-521.827
5672.0,7241.5799999999999,9008.6100000000006,1012.9,4753.6099999999997,-135.96000000000001,-1112.05,-469.20600000000002
5673.0,7293.3699999999999,9205.6499999999996,1043.0699999999999,4687.8999999999996,-169.34700000000001,-897.80499999999995,-419.39100000000002
5674.0,7347.0500000000002,9358.4500000000007,1051.79,4615.3900000000003,-204.965,-667.60900000000004,-373.17500000000001
5675.0,7401.71,9515.8799999999992,1090.6099999999999,4590.8999999999996,-242.15199999999999,-422.17200000000003,-330.83300000000003
5676.0,7456.4099999999999,9624.25,1108.74,4565.8000000000002,-279.77199999999999,-163.08699999999999,-292.70299999999997
5677.0,7510.2799999999997,9731.0,1156.4100000000001,4592.6199999999999,-317.30599999999998,107.578,-258.48700000000002
5678.0,7562.5,9780.6499999999996,1180.4100000000001,4621.6599999999999,-353.29700000000003,387.113,-228.53800000000001
5679.0,7611.5600000000004,9814.1900000000005,1224.0899999999999,4701.5699999999997,-386.68700000000001,671.90499999999997,-201.77099999999999
5680.0,7656.4499999999998,9782.6299999999992,1238.24,4793.04,-413.84800000000001,956.06899999999996,-178.47399999999999
5681.0,7695.4200000000001,9734.4300000000003,1270.78,4949.8999999999996,-431.32499999999999,1232.7,-155.232
5682.0,7184.5699999999997,8512.2000000000007,1095.6500000000001,5081.0799999999999,-92.313000000000002,-1752.51,-590.98900000000003
5683.0,7218.2600000000002,8719.5100000000002,1080.9100000000001,4928.1199999999999,-114.913,-1574.0999999999999,-538.005
5684.0,7260.8100000000004,8949.1100000000006,1103.5,4818.9399999999996,-145.149,-1383.1700000000001,-485.96600000000001
5685.0,7308.1899999999996,9136.1000000000004,1102.27,4693.9700000000003,-178.977,-1176.9200000000001,-436.09800000000001
5686.0,7358.75,9345.1000000000004,1143.8900000000001,4624.4899999999998,-216.06700000000001,-953.44600000000003,-389.31599999999997
5687.0,7410.7299999999996,9495.4300000000003,1151.3800000000001,4535.2799999999997,-255.095,-712.89599999999996,-346.64400000000001
5688.0,7463.2299999999996,9666.3600000000006,1206.75,4512.1400000000003,-295.596,-456.084,-308.31299999999999
5689.0,7515.3199999999997,9758.8700000000008,1213.95,4461.5299999999997,-336.22000000000003,-184.649,-274.77600000000001
5690.0,7566.1599999999999,9873.9899999999998,1276.8800000000001,4489.9899999999998,-376.46699999999998,99.203100000000006,-245.732
5691.0,7615.1400000000003,9897.2099999999991,1283.0599999999999,4489.1000000000004,-414.57499999999999,392.63299999999998,-221.566
5692.0,7661.1800000000003,9950.8299999999999,1356.45,4588.8900000000003,-449.11399999999998,691.87300000000005,-201.036
5693.0,7703.79,9893.2999999999993,1354.28,4657.8699999999999,-476.75799999999998,990.80799999999999,-184.56399999999999
5694.0,7742.0799999999999,9861.0300000000007,1411.1900000000001,4837.2299999999996,-494.04700000000003,1282.4400000000001,-168.73099999999999
5695.0,7242.1300000000001,8612.3500000000004,1189.48,5046.2600000000002,-124.291,-1840.4000000000001,-546.34100000000001
5696.0,7276.46,8833.6299999999992,1182.7,4889.1800000000003,-150.846,-1655.72,-495.85399999999998
5697.0,7318.5,9068.4200000000001,1207.05,4767.8000000000002,-184.79300000000001,-1457.3900000000001,-446.60399999999998
5698.0,7364.6199999999999,9266.3199999999997,1215.5999999999999,4636.6999999999998,-222.43799999999999,-1242.8900000000001,-399.64100000000002
5699.0,7413.4099999999999,9474.2600000000002,1256.8599999999999,4550.3400000000001,-263.35000000000002,-1010.2,-356.06099999999998
5700.0,7463.0100000000002,9630.5799999999999,1273.0699999999999,4452.8999999999996,-306.11099999999999,-759.36099999999999,-317.06
5701.0,7512.6999999999998,9792.1000000000004,1323.53,4408.1800000000003,-349.99000000000001,-491.18700000000001,-282.97800000000001
5702.0,7561.5900000000001,9897.4799999999996,1349.98,4360.7200000000003,-393.52199999999999,-207.41,-254.29900000000001
5703.0,7608.9399999999996,10001.1,1409.6199999999999,4370.8299999999999,-436.12700000000001,89.667599999999993,-230.69900000000001
5704.0,7654.1800000000003,10039.799999999999,1441.23,4381.7600000000002,-476.05900000000003,397.00200000000001,-212.60900000000001
5705.0,7696.4099999999999,10063.5,1496.1300000000001,4451.5200000000004,-512.17700000000002,710.65800000000002,-198.79400000000001
5706.0,7735.9700000000003,10017.9,1517.2,4535.9499999999998,-540.59500000000003,1024.3499999999999,-189.67400000000001
5707.0,7772.8999999999996,9960.4799999999996,1558.76,4696.71,-557.59699999999998,1331.0,-181.756
5708.0,7289.8100000000004,8695.0599999999995,1286.97,4994.9700000000003,-157.32499999999999,-1929.24,-497.07499999999999
5709.0,7324.3999999999996,8924.8899999999994,1283.3900000000001,4827.96,-187.88300000000001,-1738.1800000000001,-449.58600000000001
5710.0,7365.5,9162.8199999999997,1308.52,4692.3699999999999,-225.90799999999999,-1532.6500000000001,-403.226
5711.0,7409.8599999999997,9363.7700000000004,1320.21,4547.3000000000002,-267.55000000000001,-1309.97,-359.36700000000002
5712.0,7456.3199999999997,9575.6700000000001,1367.51,4449.0699999999997,-312.27999999999997,-1068.0999999999999,-319.226
5713.0,7503.04,9732.6900000000005,1388.51,4338.0200000000004,-358.60199999999998,-807.01099999999997,-284.18799999999999
5714.0,7549.3800000000001,9900.8400000000001,1451.6400000000001,4287.7299999999996,-405.81400000000002,-527.54100000000005,-254.619
5715.0,7594.4499999999998,9992.1700000000001,1472.1199999999999,4216.5,-452.43799999999999,-231.47800000000001,-231.11000000000001
5716.0,7637.6300000000001,10097.1,1543.0899999999999,4221.0799999999999,-497.70600000000002,78.717699999999994,-213.357
5717.0,7678.4700000000003,10112.1,1562.8199999999999,4204.7299999999996,-539.678,399.892,-201.81200000000001
5718.0,7716.5100000000002,10148.9,1643.72,4287.4399999999996,-576.78300000000002,727.94799999999998,-195.08199999999999
5719.0,7752.6199999999999,10078.0,1652.1099999999999,4349.9099999999999,-605.55700000000002,1056.3800000000001,-193.738
5720.0,7787.7299999999996,10031.6,1715.6300000000001,4528.0,-622.14300000000003,1378.03,-194.26599999999999
5721.0,7327.4899999999998,8760.7199999999993,1390.0899999999999,4927.4399999999996,-190.66,-2018.8,-443.40199999999999
5722.0,7362.0600000000004,9005.4599999999991,1396.6199999999999,4756.8900000000003,-225.19900000000001,-1821.3099999999999,-399.23899999999998
5723.0,7401.9399999999996,9244.5699999999997,1421.4400000000001,4604.9099999999999,-267.16800000000001,-1608.6500000000001,-355.97899999999998
5724.0,7444.0600000000004,9457.3999999999996,1446.3699999999999,4454.8299999999999,-312.79599999999999,-1377.8800000000001,-315.38099999999997
5725.0,7487.6199999999999,9662.5499999999993,1490.5799999999999,4334.1400000000003,-361.452,-1126.9400000000001,-278.81999999999999
5726.0,7530.8699999999999,9827.5100000000002,1525.3499999999999,4216.8699999999999,-411.59399999999999,-855.70899999999995,-247.89699999999999
5727.0,7573.2600000000002,9978.3299999999999,1578.99,4137.1300000000001,-462.21600000000001,-565.04399999999998,-223.06700000000001
5728.0,7614.0100000000002,10085.700000000001,1625.3599999999999,4072.25,-511.70100000000002,-256.803,-205.00399999999999
5729.0,7652.5500000000002,10170.799999999999,1688.1900000000001,4050.1500000000001,-559.23199999999997,66.447800000000001,-193.33699999999999
5730.0,7688.5299999999997,10203.299999999999,1738.96,4047.6799999999998,-602.91999999999996,401.35199999999998,-188.655
5731.0,7721.7600000000002,10201.6,1796.23,4091.7399999999998,-641.404,743.64700000000005,-189.45699999999999
5732.0,7753.7700000000004,10147.299999999999,1835.78,4174.1999999999998,-670.678,1086.6600000000001,-196.482
5733.0,7786.4200000000001,10066.299999999999,1877.3199999999999,4324.0299999999997,-686.70299999999997,1423.24,-205.93799999999999
5734.0,7354.8400000000001,8812.8099999999995,1504.46,4847.6899999999996,-224.602,-2108.8800000000001,-384.97199999999998
5735.0,7388.9899999999998,9053.5300000000007,1502.98,4654.9099999999999,-263.24000000000001,-1904.98,-344.39299999999997
5736.0,7427.1400000000003,9305.7900000000009,1540.8199999999999,4498.6400000000003,-309.46499999999997,-1685.3399999999999,-304.37
5737.0,7466.6700000000001,9507.9500000000007,1557.8199999999999,4321.1400000000003,-359.17599999999999,-1446.6199999999999,-267.23899999999998
5738.0,7506.8500000000004,9726.5599999999995,1620.8,4198.3100000000004,-411.78199999999998,-1186.73,-234.48400000000001
5739.0,7546.1400000000003,9876.8099999999995,1648.4300000000001,4052.27,-465.47399999999999,-905.46199999999999,-207.94399999999999
5740.0,7584.1499999999996,10044.9,1728.99,3977.73,-519.44500000000005,-603.73800000000006,-188.124
5741.0,7620.04,10121.200000000001,1756.25,3872.29,-571.91800000000001,-283.47699999999998,-175.81899999999999
5742.0,7653.4300000000003,10217.799999999999,1844.5599999999999,3855.0300000000002,-621.98400000000004,52.613399999999999,-170.62899999999999
5743.0,7684.1300000000001,10211.0,1871.8,3809.8600000000001,-667.46900000000005,401.06799999999998,-173.23500000000001
5744.0,7712.3100000000004,10232.5,1968.8299999999999,3876.8699999999999,-706.70299999999997,757.43499999999995,-181.964
5745.0,7739.8500000000004,10135.6,1982.1400000000001,3920.0900000000001,-735.98500000000001,1114.8800000000001,-197.74000000000001
5746.0,7769.6700000000001,10077.1,2060.29,4098.4799999999996,-751.40999999999997,1466.1600000000001,-216.69800000000001
5747.0,7372.04,8839.5400000000009,1619.99,4744.1199999999999,-258.48899999999998,-2199.1300000000001,-321.84399999999999
5748.0,7405.4499999999998,9090.6800000000003,1625.79,4543.8400000000001,-301.22699999999998,-1988.98,-285.06200000000001
5749.0,7441.54,9345.0900000000001,1666.8,4372.3800000000001,-351.55799999999999,-1762.4200000000001,-248.518
5750.0,7477.9799999999996,9553.7900000000009,1694.75,4184.9499999999998,-405.27800000000002,-1515.9000000000001,-214.977
5751.0,7514.3500000000004,9765.5699999999997,1758.0599999999999,4039.9499999999998,-461.83199999999999,-1247.2,-186.178
5752.0,7549.2399999999998,9918.2299999999996,1797.78,3882.5500000000002,-519.28999999999996,-956.11000000000001,-164.16
5753.0,7582.4200000000001,10067.4,1871.3199999999999,3777.3400000000001,-576.63,-643.53899999999999,-149.56999999999999
5754.0,7613.2299999999996,10154.9,1923.71,3673.6799999999998,-631.79300000000001,-311.44799999999998,-143.28200000000001
5755.0,7641.3100000000004,10230.5,2006.96,3628.8400000000001,-683.97199999999998,37.296900000000001,-144.833
5756.0,7666.5200000000004,10234.200000000001,2062.5799999999999,3590.79,-730.86000000000001,399.04599999999999,-155.01300000000001
5757.0,7689.3100000000004,10216.4,2139.48,3618.6100000000001,-771.11800000000005,769.18499999999995,-172.143
5758.0,7712.0699999999997,10131.5,2183.1900000000001,3677.0300000000002,-800.50099999999998,1140.74,-197.20500000000001
5759.0,7738.6800000000003,10037.4,2241.7800000000002,3825.8899999999999,-815.07799999999997,1506.47,-226.14099999999999
5760.0,7379.0299999999997,8845.3099999999995,1743.5699999999999,4621.9899999999998,-292.44600000000003,-2289.2600000000002,-253.63900000000001
5761.0,7411.4099999999999,9095.6599999999999,1746.48,4403.25,-339.43900000000002,-2073.0900000000001,-220.88399999999999
5762.0,7445.0600000000004,9356.9500000000007,1796.8499999999999,4221.6999999999998,-394.05099999999999,-1839.77,-187.97800000000001
5763.0,7478.1199999999999,9556.1800000000003,1821.52,4008.6399999999999,-451.892,-1585.6500000000001,-158.19399999999999
5764.0,7510.3599999999997,9774.5699999999997,1900.5999999999999,3855.2399999999998,-512.34199999999998,-1308.3299999999999,-133.56200000000001
5765.0,7540.6700000000001,9912.5200000000004,1937.3199999999999,3669.5999999999999,-573.27800000000002,-1007.62,-116.312
5766.0,7568.8699999999999,10072.6,2035.99,3563.8800000000001,-633.77099999999996,-684.40999999999997,-107.21299999999999
5767.0,7594.3299999999999,10127.700000000001,2072.4200000000001,3418.6799999999998,-691.75400000000002,-340.79599999999999,-107.18600000000001
5768.0,7616.9700000000003,10207.799999999999,2178.8800000000001,3372.1999999999998,-746.14099999999996,20.2682,-115.88800000000001
5769.0,7636.7200000000003,10172.700000000001,2216.0500000000002,3292.1599999999999,-794.48500000000001,394.97699999999998,-134.05000000000001
5770.0,7654.3599999999997,10170.5,2329.8400000000001,3335.6900000000001,-835.11800000000005,778.55600000000004,-159.952
5771.0,7672.4300000000003,10042.0,2350.5700000000002,3353.8099999999999,-864.12599999999998,1163.8699999999999,-194.703
5772.0,7695.6999999999998,9964.1700000000001,2443.3000000000002,3524.6900000000001,-877.66600000000005,1543.6500000000001,-234.16300000000001
5773.0,7376.4700000000003,8819.3700000000008,1866.51,4470.9899999999998,-325.87400000000002,-2379.02,-180.333
5774.0,7407.6099999999997,9086.8199999999997,1885.3800000000001,4251.8699999999999,-377.11099999999999,-2157.0,-151.86199999999999
5775.0,7438.6499999999996,9339.1900000000005,1930.71,4044.8099999999999,-435.81700000000001,-1917.0899999999999,-122.785
5776.0,7468.1099999999997,9551.0900000000001,1976.1600000000001,3828.6300000000001,-497.66899999999998,-1655.55,-96.896600000000007
5777.0,7496.0500000000002,9749.7199999999993,2046.8399999999999,3640.96,-561.93200000000002,-1369.8599999999999,-76.561800000000005
5778.0,7521.6099999999997,9895.9899999999998,2106.21,3450.6599999999999,-626.48699999999997,-1059.8099999999999,-64.230400000000003
5779.0,7544.7700000000004,10022.5,2188.0799999999999,3300.3299999999999,-690.10199999999998,-726.27800000000002,-60.796399999999998
5780.0,7565.1599999999999,10095.4,2261.3600000000001,3164.2800000000002,-750.50199999999995,-371.447,-67.297600000000003
5781.0,7582.6999999999998,10139.9,2353.3400000000001,3076.23,-806.62400000000002,1.5792999999999999,-83.364199999999997
5782.0,7597.46,10119.799999999999,2428.4000000000001,3008.23,-855.995,388.84100000000001,-109.809
5783.0,7610.3900000000003,10065.1,2513.75,2999.6100000000001,-897.10299999999995,785.36699999999996,-144.899
5784.0,7624.1000000000004,9954.1000000000004,2575.2600000000002,3038.6199999999999,-925.68399999999997,1183.95,-189.88200000000001
5785.0,7644.1400000000003,9828.6599999999999,2640.5799999999999,3167.6900000000001,-937.86400000000003,1577.29,-240.28399999999999
5786.0,7365.0900000000001,8775.4500000000007,2005.3199999999999,4305.5900000000001,-358.78300000000002,-2468.1100000000001,-101.61
5787.0,7394.7700000000004,9034.7600000000002,2015.97,4061.3099999999999,-414.35599999999999,-2240.4299999999998,-77.633399999999995
5788.0,7423.0200000000004,9297.4400000000005,2077.3400000000001,3848.5300000000002,-477.34500000000003,-1994.2,-52.520899999999997
5789.0,7448.8699999999999,9490.1800000000003,2113.8200000000002,3597.96,-543.18700000000001,-1725.49,-30.712800000000001
5790.0,7472.5799999999999,9697.7700000000004,2207.2800000000002,3405.29,-611.17999999999995,-1431.6900000000001,-14.850199999999999
5791.0,7493.6899999999996,9818.9099999999999,2258.3299999999999,3177.3499999999999,-678.97699999999998,-1112.5799999999999,-7.6632899999999999
5792.0,7512.2700000000004,9958.5699999999997,2372.8099999999999,3029.6700000000001,-745.43100000000004,-769.08100000000002,-10.1128
5793.0,7528.0600000000004,9987.6100000000006,2424.2800000000002,2841.5999999999999,-808.23699999999997,-403.48000000000002,-23.398399999999999
5794.0,7541.2299999999996,10037.700000000001,2546.02,2753.71,-866.10699999999997,-18.966200000000001,-47.165199999999999
5795.0,7551.9499999999998,9970.0100000000002,2599.54,2635.6900000000001,-916.34699999999998,380.31700000000001,-82.284199999999998
5796.0,7561.29,9930.2299999999996,2726.4200000000001,2642.4499999999998,-957.26900000000001,789.26099999999997,-126.907
5797.0,7571.6199999999999,9767.1900000000005,2761.75,2632.8099999999999,-984.84199999999998,1200.52,-182.48500000000001
5798.0,7589.1199999999999,9656.4799999999996,2864.3600000000001,2782.3000000000002,-995.49099999999999,1606.8099999999999,-244.351
5799.0,7346.5100000000002,8694.4300000000003,2143.04,4107.0699999999997,-390.59699999999998,-2556.1399999999999,-17.441199999999998
5800.0,7374.5200000000004,8963.7900000000009,2164.9400000000001,3856.4699999999998,-450.411,-2323.0500000000002,1.8496600000000001
5801.0,7400.0200000000004,9219.5699999999997,2226.8299999999999,3621.25,-517.44100000000003,-2070.71,22.766100000000002
5802.0,7422.4399999999996,9416.1800000000003,2279.73,3360.0599999999999,-587.11000000000001,-1795.1099999999999,40.410299999999999
5803.0,7442.3599999999997,9605.2399999999998,2371.0599999999999,3135.5599999999999,-658.68700000000001,-1493.52,51.647799999999997
5804.0,7459.5600000000004,9723.75,2439.3200000000002,2893.3000000000002,-729.72699999999998,-1165.74,53.618099999999998
5805.0,7474.3699999999999,9830.9599999999991,2543.96,2703.4099999999999,-798.91399999999999,-812.70000000000005,45.070399999999999
5806.0,7486.8199999999997,9866.3899999999994,2626.7399999999998,2514.0900000000001,-863.60699999999997,-436.78699999999998,24.819900000000001
5807.0,7497.0600000000004,9882.9599999999991,2742.1999999999998,2387.7800000000002,-922.64700000000005,-41.316699999999997,-6.8796799999999996
5808.0,7505.3599999999997,9815.6000000000004,2825.0999999999999,2268.04,-973.27800000000002,369.38299999999998,-50.881300000000003
5809.0,7512.8900000000003,9727.5100000000002,2933.6599999999999,2227.4099999999999,-1013.95,790.03399999999999,-105.48699999999999
5810.0,7521.5900000000001,9568.2299999999996,3001.6100000000001,2225.0799999999999,-1040.3399999999999,1213.23,-172.08099999999999
5811.0,7537.7399999999998,9415.6499999999996,3087.5799999999999,2338.29,-1049.0599999999999,1631.6900000000001,-245.83799999999999
5812.0,7322.5,8582.3299999999999,2288.71,3882.4699999999998,-421.14800000000002,-2642.7199999999998,72.485699999999994
5813.0,7348.8699999999999,8853.8899999999994,2315.3200000000002,3618.27,-485.31299999999999,-2404.5500000000002,86.872299999999996
5814.0,7371.8000000000002,9104.2000000000007,2381.3099999999999,3362.9400000000001,-556.42499999999995,-2146.3899999999999,103.489
5815.0,7391.3800000000001,9289.8999999999996,2438.3299999999999,3077.1100000000001,-629.85199999999998,-1864.22,116.81
5816.0,7408.3100000000004,9470.2099999999991,2540.25,2831.4200000000001,-704.77300000000002,-1555.21,123.271
5817.0,7422.8800000000001,9572.4599999999991,2614.9899999999998,2561.9499999999998,-778.63599999999997,-1219.1500000000001,119.83199999999999
5818.0,7435.4899999999998,9673.1399999999994,2738.8699999999999,2356.4899999999998,-850.08500000000004,-857.05799999999999,105.005
5819.0,7446.3500000000004,9673.3600000000006,2815.0500000000002,2125.29,-916.63199999999995,-471.423,77.572400000000002
5820.0,7455.8800000000001,9674.7000000000007,2946.1599999999999,1979.5899999999999,-976.70899999999995,-65.664000000000001,37.630299999999998
5821.0,7464.4499999999998,9570.7900000000009,3024.96,1821.8399999999999,-1027.4300000000001,355.71300000000002,-15.6007
5822.0,7473.0500000000002,9475.6200000000008,3159.52,1775.3499999999999,-1067.05,787.32299999999998,-80.4392
5823.0,7482.8000000000002,9274.6399999999994,3217.7199999999998,1735.0599999999999,-1091.6600000000001,1221.5899999999999,-158.416
5824.0,7499.7399999999998,9115.4300000000003,3325.25,1847.1700000000001,-1098.02,1651.3299999999999,-244.49000000000001
5825.0,7296.0200000000004,8432.7999999999993,2438.54,3626.0700000000002,-449.82600000000002,-2727.4499999999998,168.22999999999999
5826.0,7320.8299999999999,8713.3799999999992,2478.1399999999999,3355.8200000000002,-518.25300000000004,-2484.5,177.49700000000001
5827.0,7341.7799999999997,8952.0,2543.9699999999998,3074.9400000000001,-593.13400000000001,-2220.8200000000002,189.624
5828.0,7359.4899999999998,9138.2299999999996,2619.3200000000002,2776.8699999999999,-670.07799999999997,-1932.4200000000001,198.53999999999999
5829.0,7374.8500000000004,9294.4099999999999,2719.5100000000002,2495.6300000000001,-748.05799999999999,-1616.3800000000001,200.14699999999999
5830.0,7388.5900000000001,9387.1700000000001,2811.1500000000001,2206.8499999999999,-824.67399999999998,-1272.5699999999999,191.20599999999999
5831.0,7401.3000000000002,9451.0699999999997,2927.7199999999998,1956.6600000000001,-898.15099999999995,-902.00199999999995,169.96000000000001
5832.0,7413.5,9449.3199999999997,3033.9299999999998,1717.6099999999999,-965.85699999999997,-507.26299999999998,135.179
5833.0,7425.71,9413.4899999999998,3162.1799999999998,1531.28,-1026.1800000000001,-91.943100000000001,86.850700000000003
5834.0,7438.2600000000002,9299.1900000000005,3266.8099999999999,1362.4300000000001,-1076.46,339.28500000000003,24.203499999999998
5835.0,7451.9399999999996,9153.9699999999993,3388.29,1267.75,-1114.77,780.85699999999997,-51.229700000000001
5836.0,7466.6800000000003,8946.5599999999995,3475.5700000000002,1225.0999999999999,-1137.22,1225.1800000000001,-140.94999999999999
5837.0,7487.6400000000003,8745.7800000000007,3572.9099999999999,1301.1800000000001,-1140.76,1665.0899999999999,-239.70599999999999
5838.0,7270.6999999999998,8244.5599999999995,2594.4499999999998,3337.6100000000001,-476.42000000000002,-2809.8800000000001,270.05200000000002
5839.0,7294.1999999999998,8531.5300000000007,2646.04,3059.5599999999999,-549.05100000000004,-2562.52,273.97800000000001
5840.0,7314.0500000000002,8754.1399999999994,2709.8800000000001,2749.9299999999998,-627.70299999999997,-2293.6799999999998,281.55099999999999
5841.0,7331.5100000000002,8930.8700000000008,2796.4899999999998,2430.6900000000001,-707.98199999999997,-1999.47,285.935
5842.0,7347.46,9065.3299999999999,2900.73,2117.5100000000002,-788.70100000000002,-1676.8599999999999,282.56
5843.0,7363.1999999999998,9144.4200000000001,3008.5799999999999,1806.3199999999999,-867.43499999999995,-1325.79,267.97300000000001
5844.0,7379.3999999999996,9185.5799999999999,3135.6199999999999,1526.5699999999999,-942.36300000000006,-947.38499999999999,240.18700000000001
5845.0,7396.96,9151.9400000000005,3246.23,1250.95,-1011.04,-544.31799999999998,197.86699999999999
5846.0,7416.4799999999996,9083.6900000000005,3380.5500000000002,1029.8599999999999,-1071.3599999999999,-120.33199999999999,140.91999999999999
5847.0,7438.3400000000001,8937.9699999999993,3493.9200000000001,829.64400000000001,-1120.6300000000001,319.79399999999998,68.586699999999993
5848.0,7462.6800000000003,8766.7600000000002,3629.96,711.43499999999995,-1156.76,770.27599999999995,-17.630500000000001
5849.0,7487.8500000000004,8523.1499999999996,3720.3400000000001,636.94399999999996,-1176.3,1223.5,-119.384
5850.0,7517.3699999999999,8296.3700000000008,3826.3000000000002,692.67200000000003,-1176.4300000000001,1672.3299999999999,-231.09899999999999
5851.0,7251.3800000000001,8021.5100000000002,2763.3899999999999,3021.7800000000002,-500.18200000000002,-2889.48,378.01100000000002
5852.0,7274.0699999999997,8303.6000000000004,2817.3499999999999,2725.6999999999998,-576.88099999999997,-2638.0900000000001,376.40199999999999
5853.0,7294.3000000000002,8520.6299999999992,2892.0799999999999,2398.8499999999999,-658.94399999999996,-2364.5,379.286
5854.0,7313.7700000000004,8682.7399999999998,2987.9400000000001,2054.6199999999999,-742.11500000000001,-2064.8800000000001,379.03100000000001
5855.0,7333.3699999999999,8796.8999999999996,3101.3699999999999,1712.3299999999999,-825.21799999999996,-1736.21,370.67099999999999
5856.0,7355.0,8848.2399999999998,3215.4499999999998,1366.1400000000001,-905.83000000000004,-1378.55,350.35899999999998
5857.0,7379.4099999999999,8857.2099999999991,3347.73,1048.74,-981.85599999999999,-993.01900000000001,315.947
5858.0,7407.8500000000004,8802.3500000000004,3477.3000000000002,748.34299999999996,-1050.5599999999999,-582.45399999999995,265.99000000000001
5859.0,7440.8800000000001,8700.6800000000003,3620.8200000000002,492.59699999999998,-1110.02,-150.72200000000001,200.334
5860.0,7478.8000000000002,8525.1000000000004,3748.8400000000001,263.60700000000003,-1157.53,297.17700000000002,118.19
5861.0,7521.0,8308.0,3883.9299999999998,102.833,-1191.04,755.30600000000004,20.922499999999999
5862.0,7563.7299999999996,8040.8599999999997,3994.1199999999999,9.6183800000000002,-1207.03,1216.0899999999999,-93.103099999999998
5863.0,7607.7700000000004,7776.0100000000002,4100.54,33.1937,-1203.25,1672.3599999999999,-218.01499999999999
5864.0,7244.1999999999998,7753.8400000000001,2938.9899999999998,2669.9099999999999,-520.80700000000002,-2965.7399999999998,492.32299999999998
5865.0,7266.9200000000001,8028.5299999999997,2994.54,2354.4699999999998,-601.41200000000003,-2710.75,485.02199999999999
5866.0,7289.5500000000002,8236.0400000000009,3079.1500000000001,2007.8599999999999,-686.81200000000001,-2432.8600000000001,483.113
5867.0,7314.21,8370.6900000000005,3174.9000000000001,1627.3499999999999,-772.56100000000004,-2128.3299999999999,478.185
5868.0,7341.71,8467.6200000000008,3304.46,1260.51,-857.60500000000002,-1794.1800000000001,464.70100000000002
5869.0,7374.4300000000003,8488.0200000000004,3425.5799999999999,877.62800000000004,-939.23699999999997,-1430.54,438.60599999999999
5870.0,7413.1899999999996,8476.0200000000004,3578.73,535.32500000000005,-1015.61,-1038.71,397.47899999999998
5871.0,7459.4700000000003,8371.9899999999998,3704.1700000000001,183.86099999999999,-1083.9400000000001,-621.62599999999998,339.79700000000003
5872.0,7513.8900000000003,8239.9099999999999,3864.75,-102.119,-1142.0599999999999,-183.286,265.27199999999999
5873.0,7576.4300000000003,8015.3900000000003,3992.6900000000001,-377.82799999999997,-1187.01,271.16500000000002,173.16999999999999
5874.0,7645.3500000000004,7774.1400000000003,4152.8900000000003,-558.63800000000003,-1216.8099999999999,735.60900000000004,64.7196
5875.0,7714.21,7452.5699999999997,4256.2600000000002,-700.84299999999996,-1228.3499999999999,1202.4100000000001,-61.669199999999996
5876.0,7780.3199999999997,7164.6499999999996,4382.0900000000001,-694.28300000000002,-1219.9000000000001,1664.49,-200.006
5877.0,7256.8800000000001,7435.6899999999996,3118.52,2277.1100000000001,-537.49599999999998,-3038.0799999999999,613.02099999999996
5878.0,7280.7399999999998,7709.2700000000004,3184.0300000000002,1949.95,-621.798,-2779.9499999999998,599.91300000000001
5879.0,7308.4899999999998,7898.0799999999999,3272.1300000000001,1575.8699999999999,-709.98699999999997,-2498.1999999999998,593.06500000000005
5880.0,7342.5500000000002,8020.3699999999999,3386.4699999999998,1175.8199999999999,-797.77300000000002,-2189.2600000000002,583.42200000000003
5881.0,7383.3400000000001,8081.6499999999996,3518.02,767.82799999999997,-884.15599999999995,-1850.26,564.83500000000004
5882.0,7433.71,8072.6700000000001,3652.5900000000001,351.83100000000002,-966.47900000000004,-1481.45,532.93899999999996
5883.0,7494.5100000000002,8014.1199999999999,3805.8499999999999,-39.145299999999999,-1042.5599999999999,-1084.24,485.07499999999999
5884.0,7567.2700000000004,7885.4200000000001,3956.2199999999998,-415.60000000000002,-1109.46,-661.64499999999998,419.649
5885.0,7652.4700000000003,7705.29,4120.8699999999999,-748.029,-1165.0699999999999,-217.898,336.245
5886.0,7749.5900000000001,7447.0200000000004,4268.9200000000001,-1053.8800000000001,-1206.5699999999999,241.703,234.17500000000001
5887.0,7855.4499999999998,7147.3599999999997,4424.7299999999996,-1287.8599999999999,-1231.9400000000001,710.88400000000001,114.405
5888.0,7960.3800000000001,6798.1000000000004,4552.6999999999998,-1451.5599999999999,-1238.1900000000001,1182.04,-24.4666
5889.0,8057.0600000000004,6461.4899999999998,4676.8800000000001,-1487.1099999999999,-1224.1600000000001,1647.98,-176.27500000000001
5890.0,7298.4399999999996,7069.2299999999996,3307.9299999999998,1846.8499999999999,-549.69600000000003,-3105.8499999999999,740.28499999999997
5891.0,7325.1000000000004,7333.4099999999999,3377.1999999999998,1501.1099999999999,-637.46100000000001,-2845.1300000000001,721.18899999999996
5892.0,7361.4899999999998,7506.0200000000004,3474.6399999999999,1103.9300000000001,-728.18499999999995,-2560.0300000000002,709.44299999999998
5893.0,7410.1999999999998,7593.8599999999997,3589.6399999999999,664.25300000000004,-817.58900000000006,-2247.29,695.02300000000002
5894.0,7471.0600000000004,7629.0799999999999,3737.1700000000001,226.69200000000001,-904.63599999999997,-1904.0899999999999,671.31299999999999
5895.0,7547.1099999999997,7582.8599999999997,3881.8699999999999,-228.387,-986.59100000000001,-1530.8900000000001,633.57899999999995
5896.0,7638.9799999999996,7491.1899999999996,4053.75,-652.51800000000003,-1061.4400000000001,-1129.29,578.99599999999998
5897.0,7748.25,7308.04,4204.7299999999996,-1081.71,-1126.22,-702.44200000000001,505.77499999999998
5898.0,7875.0100000000002,7085.0200000000004,4383.79,-1453.6900000000001,-1178.5699999999999,-254.679,413.45299999999997
5899.0,8017.8900000000003,6772.9700000000003,4536.7799999999997,-1808.3900000000001,-1215.5699999999999,208.58500000000001,301.37900000000002
5900.0,8171.5200000000004,6434.8699999999999,4713.2299999999996,-2074.1999999999998,-1235.22,680.83299999999997,170.339
5901.0,8323.1000000000004,6027.8199999999997,4840.5900000000001,-2288.6700000000001,-1234.9100000000001,1154.4300000000001,19.0532
5902.0,8459.6399999999994,5652.4700000000003,4977.3199999999997,-2355.8699999999999,-1214.4100000000001,1622.2,-146.21799999999999
5903.0,7379.4499999999998,6650.5,3506.9299999999998,1376.3800000000001,-556.53999999999996,-3168.3800000000001,874.14400000000001
5904.0,7410.9300000000003,6900.1000000000004,3577.0999999999999,1008.61,-647.46299999999997,-2905.5900000000001,848.97199999999998
5905.0,7460.3999999999996,7056.7399999999998,3687.3200000000002,590.35400000000004,-740.11699999999996,-2617.7199999999998,832.20899999999995
5906.0,7530.1000000000004,7116.8100000000004,3813.5799999999999,119.73999999999999,-830.28999999999996,-2301.73,813.01800000000003
5907.0,7618.96,7116.3400000000001,3972.3600000000001,-354.65199999999999,-917.31399999999996,-1955.1099999999999,784.25900000000001
5908.0,7729.9499999999998,7021.3000000000002,4121.04,-857.91499999999996,-998.27300000000002,-1578.47,740.72400000000005
5909.0,7863.1899999999996,6883.9899999999998,4304.4099999999999,-1325.4200000000001,-1071.0,-1173.5699999999999,679.48299999999995
5910.0,8019.8500000000004,6654.3699999999999,4469.1400000000003,-1797.3199999999999,-1132.3099999999999,-743.77099999999996,598.53700000000003
5911.0,8199.4699999999993,6384.3100000000004,4663.8400000000001,-2211.1100000000001,-1180.0599999999999,-293.471,497.40899999999999
5912.0,8399.3700000000008,6017.3599999999997,4826.2399999999998,-2613.9299999999998,-1211.2,171.73599999999999,375.46100000000001
5913.0,8612.1000000000004,5623.2799999999997,5010.79,-2927.9299999999998,-1224.1099999999999,645.20799999999997,233.202
5914.0,8820.8400000000001,5166.8599999999997,5150.9200000000001,-3183.5700000000002,-1216.23,1119.27,69.579300000000003
5915.0,9006.5200000000004,4747.0699999999997,5300.1300000000001,-3287.0799999999999,-1188.05,1586.46,-108.971
5916.0,7511.7200000000003,6172.0799999999999,3711.9400000000001,859.66300000000001,-557.32399999999996,-3224.9400000000001,1014.67
5917.0,7550.6000000000004,6407.0799999999999,3785.3099999999999,471.637,-651.01300000000003,-2960.71,983.33600000000001
5918.0,7618.3199999999997,6542.6800000000003,3906.9899999999998,29.4663,-745.178,-2670.6500000000001,961.54600000000005
5919.0,7716.3800000000001,6557.2799999999997,4031.5300000000002,-487.26799999999997,-835.59400000000005,-2352.1500000000001,937.68299999999999
5920.0,7842.1099999999997,6524.04,4209.4799999999996,-993.08299999999997,-921.62800000000004,-2002.8599999999999,903.82399999999996
5921.0,7998.0299999999997,6380.25,4367.54,-1541.8900000000001,-1000.28,-1623.73,854.61199999999997
5922.0,8183.4799999999996,6200.7700000000004,4571.46,-2046.74,-1069.6700000000001,-1216.77,786.74300000000005
5923.0,8398.8199999999997,5905.6099999999997,4736.8299999999999,-2577.8600000000001,-1126.47,-785.47299999999996,698.19200000000001
5924.0,8642.6900000000005,5584.5299999999997,4948.8900000000003,-3035.3200000000002,-1168.4000000000001,-334.36599999999999,588.33399999999995
5925.0,8910.7999999999993,5150.8500000000004,5113.6099999999997,-3496.6700000000001,-1192.53,131.03800000000001,456.63200000000001
5926.0,9192.9300000000003,4710.8400000000001,5321.9200000000001,-3847.1199999999999,-1196.97,603.84500000000003,303.31599999999997
5927.0,9468.5499999999993,4184.9200000000001,5460.4300000000003,-4162.5200000000004,-1179.9100000000001,1076.0699999999999,127.839
5928.0,9712.2600000000002,3716.8899999999999,5622.7700000000004,-4305.4200000000001,-1142.95,1540.28,-63.880200000000002
5929.0,7707.7700000000004,5626.2600000000002,3918.9000000000001,290.32900000000001,-551.024,-3274.77,1161.8299999999999
5930.0,7757.0200000000004,5856.2299999999996,4007.8400000000001,-106.301,-647.11800000000005,-3009.7399999999998,1124.3199999999999
5931.0,7848.6599999999999,5953.8100000000004,4127.6700000000001,-587.01900000000001,-741.91600000000005,-2718.0900000000001,1097.48
5932.0,7983.0100000000002,5948.0200000000004,4280.21,-1122.25,-831.55100000000004,-2397.73,1068.98
5933.0,8155.04,5853.3599999999997,4454.1800000000003,-1685.1900000000001,-915.58799999999997,-2046.6400000000001,1030.1700000000001
5934.0,8366.3600000000006,5664.5299999999997,4631.2799999999997,-2272.77,-991.09000000000003,-1666.1400000000001,975.38199999999995
5935.0,8614.7999999999993,5413.71,4832.7399999999998,-2841.0999999999999,-1055.8399999999999,-1258.48,901.029
5936.0,8899.7299999999996,5074.8599999999997,5026.1300000000001,-3407.1399999999999,-1106.6400000000001,-827.33199999999999,805.06100000000004
5937.0,9218.3799999999992,4680.0900000000001,5238.21,-3928.8899999999999,-1141.1099999999999,-377.21300000000002,686.63699999999994
5938.0,9564.6599999999999,4198.3900000000003,5430.2299999999996,-4427.8999999999996,-1156.25,86.351699999999994,545.58100000000002
5939.0,9925.6599999999999,3676.6300000000001,5631.1899999999996,-4849.46,-1150.9100000000001,556.51700000000005,381.53199999999998
5940.0,10276.700000000001,3103.46,5795.2299999999996,-5200.8100000000004,-1123.51,1024.98,194.39699999999999
5941.0,10586.299999999999,2569.7199999999998,5960.2399999999998,-5398.2200000000003,-1075.6500000000001,1483.1600000000001,-9.8007000000000009
5942.0,7980.04,5019.9099999999999,4139.0500000000002,-323.05000000000001,-536.73800000000006,-3316.98,1315.6600000000001
5943.0,8043.0699999999997,5230.6300000000001,4231.9799999999996,-740.33299999999997,-634.71000000000004,-3051.8899999999999,1271.9200000000001
5944.0,8164.8500000000004,5300.0100000000002,4363.8999999999996,-1247.1300000000001,-729.54700000000003,-2759.3299999999999,1240.1400000000001
5945.0,8343.7399999999998,5237.6199999999999,4513.5,-1833.99,-817.63300000000004,-2437.8899999999999,1207.0899999999999
5946.0,8571.5300000000007,5100.9200000000001,4708.4499999999998,-2431.5799999999999,-898.40599999999995,-2085.8899999999999,1163.4300000000001
5947.0,8848.2000000000007,4852.0900000000001,4895.5799999999999,-3069.5999999999999,-969.13599999999997,-1705.1199999999999,1103.1900000000001
5948.0,9169.7800000000007,4547.21,5117.8999999999996,-3680.9200000000001,-1027.71,-1298.23,1022.52
5949.0,9534.2000000000007,4132.1499999999996,5313.4300000000003,-4311.1800000000003,-1070.8199999999999,-869.13,919.33900000000006
5950.0,9937.1700000000001,3677.6999999999998,5545.1899999999996,-4881.04,-1096.1500000000001,-422.26499999999999,792.68899999999996
5951.0,10370.5,3115.4200000000001,5735.3800000000001,-5449.8000000000002,-1101.23,37.606699999999996,642.39599999999996
5952.0,10818.200000000001,2538.5999999999999,5961.6199999999999,-5913.7600000000002,-1083.6800000000001,503.37299999999999,468.05000000000001
5953.0,11252.200000000001,1889.9200000000001,6130.1700000000001,-6326.4799999999996,-1043.5,965.75,270.43099999999998
5954.0,11633.9,1287.71,6298.8900000000003,-6579.3000000000002,-984.16099999999994,1415.0899999999999,53.8917
5955.0,8340.4699999999993,4338.75,4361.8699999999999,-993.25999999999999,-513.30399999999997,-3350.77,1476.03
5956.0,8420.7900000000009,4538.1199999999999,4469.8400000000001,-1420.77,-612.61199999999997,-3086.3099999999999,1426.1500000000001
5957.0,8578.8999999999996,4561.6099999999997,4600.2700000000004,-1968.5699999999999,-706.44600000000003,-2793.5300000000002,1389.45
5958.0,8810.3099999999995,4470.3000000000002,4779.5299999999997,-2576.3600000000001,-791.62800000000004,-2471.7199999999998,1351.9300000000001
5959.0,9102.8999999999996,4259.8599999999997,4969.8999999999996,-3236.6199999999999,-867.90999999999997,-2119.77,1303.6500000000001
5960.0,9454.2999999999993,3953.4099999999999,5176.1400000000003,-3918.8200000000002,-932.63599999999997,-1739.99,1238.1500000000001
5961.0,9858.1100000000006,3565.0900000000001,5396.6000000000004,-4598.6499999999996,-983.36400000000003,-1335.5799999999999,1151.3699999999999
5962.0,10310.6,3093.5,5619.0500000000002,-5270.8100000000004,-1017.1799999999999,-910.67899999999997,1041.21
5963.0,10805.700000000001,2551.3899999999999,5847.6000000000004,-5914.71,-1031.29,-469.36599999999999,906.52999999999997
5964.0,11333.700000000001,1939.76,6073.6899999999996,-6520.3800000000001,-1022.74,-15.824999999999999,747.87
5965.0,11874.9,1270.0899999999999,6289.7299999999996,-7065.25,-991.89800000000002,444.24900000000002,563.94100000000003
5966.0,12397.0,553.72299999999996,6474.3199999999997,-7528.8599999999997,-938.04600000000005,900.19100000000003,355.95699999999999
5967.0,12855.5,-115.614,6658.1700000000001,-7828.6099999999997,-862.87,1336.78,128.75700000000001
5968.0,8799.5300000000007,3590.7800000000002,4599.6499999999996,-1710.53,-479.61099999999999,-3375.1300000000001,1642.8699999999999
5969.0,8900.7299999999996,3760.8299999999999,4707.5699999999997,-2163.6799999999998,-579.505,-3112.1300000000001,1586.8499999999999
5970.0,9101.3199999999997,3752.4499999999998,4855.2399999999998,-2735.23,-671.529,-2819.8699999999999,1545.46
5971.0,9392.9500000000007,3587.7800000000002,5025.5799999999999,-3404.7399999999998,-752.798,-2498.54,1503.6500000000001
5972.0,9758.5200000000004,3329.4499999999998,5243.3599999999997,-4098.0,-823.03899999999999,-2147.54,1450.8900000000001
5973.0,10192.700000000001,2945.3800000000001,5455.1199999999999,-4840.21,-879.66399999999999,-1770.04,1380.3
5974.0,10686.5,2494.52,5701.3400000000001,-5563.4200000000001,-920.66200000000003,-1369.95,1287.73
5975.0,11234.299999999999,1931.4400000000001,5923.4799999999996,-6307.8999999999996,-942.28399999999999,-951.90200000000004,1170.8900000000001
5976.0,11828.4,1330.3900000000001,6182.0,-6995.8199999999997,-942.81600000000003,-519.60299999999995,1028.8900000000001
5977.0,12455.799999999999,615.34299999999996,6386.7600000000002,-7696.3699999999999,-920.25800000000004,-74.406300000000002,861.39300000000003
5978.0,13094.5,-104.663,6635.1999999999998,-8282.3799999999992,-870.14599999999996,380.149,668.96000000000004
5979.0,13710.200000000001,-895.95299999999997,6837.3800000000001,-8798.4500000000007,-797.77800000000002,831.24300000000005,454.85899999999998
5980.0,14250.6,-1674.0899999999999,7010.46,-9170.4699999999993,-710.51700000000005,1252.3699999999999,216.886
5981.0,9365.7999999999993,2759.9899999999998,4840.3699999999999,-2489.0799999999999,-434.31900000000002,-3389.1300000000001,1815.9400000000001
5982.0,9491.4300000000003,2907.4299999999998,4958.3599999999997,-2958.1700000000001,-534.07899999999995,-3128.3800000000001,1754.02
5983.0,9740.1399999999994,2849.1799999999998,5109.75,-3568.3400000000001,-623.00900000000001,-2837.3800000000001,1707.99
5984.0,10098.700000000001,2640.3000000000002,5305.7399999999998,-4266.7399999999998,-698.62199999999996,-2517.2199999999998,1662.0899999999999
5985.0,10544.6,2300.3400000000001,5523.9899999999998,-5022.3100000000004,-761.29399999999998,-2168.1599999999999,1605.1199999999999
5986.0,11068.700000000001,1838.1400000000001,5748.3999999999996,-5819.75,-808.34400000000005,-1794.27,1529.73
5987.0,11659.1,1297.9000000000001,6000.4499999999998,-6608.0699999999997,-837.29700000000003,-1400.8699999999999,1431.53
5988.0,12307.9,655.05200000000002,6237.5200000000004,-7410.8100000000004,-845.61000000000001,-992.49800000000005,1308.1800000000001
5989.0,13003.1,-39.315199999999997,6491.7700000000004,-8176.3400000000001,-828.75800000000004,-573.28599999999994,1158.1600000000001
5990.0,13736.9,-789.63300000000004,6747.3400000000001,-8907.8899999999994,-782.10599999999999,-140.006,984.58799999999997
5991.0,14484.4,-1592.0,7008.9899999999998,-9565.3700000000008,-714.01400000000001,309.30399999999997,785.38099999999997
5992.0,15202.4,-2497.8299999999999,7196.6599999999999,-10171.700000000001,-624.49199999999996,757.51900000000001,563.83500000000004
5993.0,15817.9,-3334.9000000000001,7407.7399999999998,-10550.4,-518.904,1169.24,323.65100000000001
5994.0,10045.799999999999,1848.26,5090.1499999999996,-3324.98,-376.16500000000002,-3391.6599999999999,1995.05
5995.0,10199.299999999999,1966.97,5215.2700000000004,-3813.2399999999998,-474.85199999999998,-3134.0500000000002,1927.4300000000001
5996.0,10501.5,1859.99,5376.5600000000004,-4457.2299999999996,-559.56500000000005,-2845.1399999999999,1876.97
5997.0,10933.4,1572.9200000000001,5570.5699999999997,-5214.3199999999997,-628.32799999999997,-2526.9299999999998,1827.3599999999999
5998.0,11465.799999999999,1164.3299999999999,5809.1700000000001,-6014.2299999999996,-681.35000000000002,-2180.5799999999999,1766.2
5999.0,12085.9,618.37300000000005,6047.75,-6867.1099999999997,-716.24800000000005,-1811.5899999999999,1686.53
6000.0,12777.799999999999,-9.4087700000000005,6316.1099999999997,-7711.1199999999999,-730.84400000000005,-1427.22,1582.6199999999999
6001.0,13532.5,-737.48099999999999,6568.6300000000001,-8573.5599999999995,-718.75199999999995,-1034.0699999999999,1453.21
6002.0,14337.299999999999,-1494.8299999999999,6861.9200000000001,-9380.9799999999996,-680.32100000000003,-631.62099999999998,1296.5799999999999
6003.0,15175.700000000001,-2347.3400000000001,7090.2799999999997,-10219.299999999999,-609.60400000000004,-221.88300000000001,1112.1700000000001
6004.0,15999.6,-3187.7199999999998,7305.75,-10981.6,-485.786,234.15899999999999,907.84500000000003
6005.0,16790.299999999999,-4131.75,7515.6700000000001,-11600.299999999999,-346.779,729.19100000000003,713.30700000000002
6006.0,17498.099999999999,-5178.0100000000002,7714.6700000000001,-12031.1,-243.024,1119.5,485.07999999999998
6007.0,10844.1,849.59100000000001,5347.0,-4222.0200000000004,-303.61399999999998,-3381.5900000000001,2179.9400000000001
6008.0,11029.200000000001,936.63099999999997,5480.1499999999996,-4729.3000000000002,-400.26999999999998,-3128.1500000000001,2106.8400000000001
6009.0,11389.299999999999,772.43299999999999,5647.3699999999999,-5411.9399999999996,-479.245,-2841.98,2052.3099999999999
6010.0,11900.1,427.77100000000002,5865.8500000000004,-6203.2700000000004,-538.92100000000005,-2526.4200000000001,1999.01
6011.0,12524.799999999999,-76.185400000000001,6105.5500000000002,-7068.6599999999999,-580.75900000000001,-2183.1100000000001,1934.48
6012.0,13245.799999999999,-717.29399999999998,6355.9499999999998,-7980.25,-601.40200000000004,-1820.8299999999999,1849.9000000000001
6013.0,14045.200000000001,-1452.1800000000001,6629.5500000000002,-8892.6000000000004,-599.04999999999995,-1447.53,1741.7
6014.0,14907.1,-2279.71,6894.71,-9814.6900000000005,-567.99400000000003,-1077.5,1601.7
6015.0,15819.0,-3134.71,7160.3299999999999,-10728.9,-495.49799999999999,-698.94000000000005,1437.04
6016.0,16696.5,-3970.9000000000001,7388.9300000000003,-11587.299999999999,-330.34199999999998,-308.85899999999998,1235.8599999999999
6017.0,17689.0,-4616.9799999999996,7899.0100000000002,-12218.1,9.2567400000000006,150.749,1043.8800000000001
6018.0,18689.900000000001,-5487.6300000000001,8397.7000000000007,-12683.6,252.102,706.38699999999994,1019.67
6019.0,19379.799999999999,-6894.54,8352.1599999999999,-13254.1,235.893,1079.8800000000001,824.71400000000006
6020.0,11763.799999999999,-244.715,5606.1000000000004,-5186.71,-215.49100000000001,-3357.71,2370.29
6021.0,11983.799999999999,-181.661,5758.6899999999996,-5702.1000000000004,-308.96699999999998,-3109.6199999999999,2292.0599999999999
6022.0,12406.4,-420.38099999999997,5919.4399999999996,-6437.0299999999997,-380.78699999999998,-2827.02,2233.8099999999999
6023.0,13001.6,-836.41200000000003,6155.7700000000004,-7271.8100000000004,-430.041,-2514.4699999999998,2176.9499999999998
6024.0,13724.0,-1447.6700000000001,6391.9200000000001,-8208.9099999999999,-457.89600000000002,-2174.4299999999998,2109.8800000000001
6025.0,14549.5,-2164.8099999999999,6683.9899999999998,-9149.2800000000007,-461.73599999999999,-1818.79,2019.6300000000001
6026.0,15462.700000000001,-3034.0599999999999,6947.0299999999997,-10146.1,-436.892,-1461.4400000000001,1908.3299999999999
6027.0,16406.099999999999,-3916.79,7234.8100000000004,-11088.5,-366.68299999999999,-1120.45,1753.26
6028.0,17421.900000000001,-4771.9200000000001,7556.54,-12034.1,-166.374,-779.96699999999998,1565.5599999999999
6029.0,18494.299999999999,-5499.4499999999998,8114.1700000000001,-12721.700000000001,203.99700000000001,-398.49099999999999,1369.1600000000001
6030.0,19950.200000000001,-6091.1700000000001,9265.7399999999998,-13098.1,633.44500000000005,16.2044,1192.98
6031.0,21368.5,-7139.7200000000003,9985.9500000000007,-13693.4,860.99900000000002,483.90100000000001,1318.3399999999999
6032.0,21973.5,-8526.0200000000004,9808.1000000000004,-14240.700000000001,836.57100000000003,879.19000000000005,1270.5599999999999
6033.0,12806.9,-1423.3699999999999,5883.5299999999997,-6204.8299999999999,-110.413,-3318.6700000000001,2565.7800000000002
6034.0,13065.1,-1412.9100000000001,6030.5500000000002,-6753.1499999999996,-199.52500000000001,-3077.3000000000002,2482.8800000000001
6035.0,13555.4,-1702.3499999999999,6214.29,-7513.8999999999996,-261.892,-2799.0999999999999,2420.9200000000001
6036.0,14239.0,-2207.9099999999999,6455.25,-8405.8700000000008,-298.459,-2489.4699999999998,2361.5500000000002
6037.0,15064.0,-2908.52,6713.7600000000002,-9391.0200000000004,-310.036,-2152.73,2290.9699999999998
6038.0,16002.6,-3773.98,6990.4200000000001,-10420.1,-298.22500000000002,-1800.49,2198.8200000000002
6039.0,17029.099999999999,-4749.9399999999996,7294.8299999999999,-11440.1,-249.83000000000001,-1466.96,2076.1799999999998
6040.0,18106.900000000001,-5761.1199999999999,7623.4399999999996,-12436.5,-86.209000000000003,-1177.4300000000001,1881.97
6041.0,19406.400000000001,-6510.0500000000002,8398.5900000000001,-13169.799999999999,272.19999999999999,-890.255,1643.3599999999999
6042.0,20960.5,-7290.1499999999996,9480.6200000000008,-13730.0,666.63499999999999,-526.61099999999999,1465.8599999999999
6043.0,22642.400000000001,-8000.5600000000004,10837.6,-14042.700000000001,868.27599999999995,-165.11099999999999,1307.04
6044.0,24231.900000000001,-9045.4200000000001,11666.200000000001,-14716.5,1037.4200000000001,165.143,1327.5
6045.0,25211.200000000001,-10533.6,11612.799999999999,-15460.5,1198.6199999999999,540.25099999999998,1479.53
6046.0,13974.799999999999,-2711.2199999999998,6159.7799999999997,-7296.2299999999996,11.5298,-3263.4200000000001,2766.04
6047.0,14274.5,-2741.3000000000002,6315.6000000000004,-7863.9099999999999,-71.023200000000003,-3030.5700000000002,2678.8699999999999
6048.0,14837.799999999999,-3102.3099999999999,6506.6700000000001,-8668.9799999999996,-122.73,-2757.5500000000002,2613.6700000000001
6049.0,15613.5,-3710.9099999999999,6744.0500000000002,-9627.2199999999993,-144.047,-2450.75,2551.8600000000001
6050.0,16550.200000000001,-4508.4799999999996,7030.8800000000001,-10661.200000000001,-136.55199999999999,-2114.77,2478.1900000000001
6051.0,17609.099999999999,-5510.4899999999998,7313.6400000000003,-11754.9,-112.708,-1763.4300000000001,2393.25
6052.0,18735.400000000001,-6675.0799999999999,7597.71,-12837.200000000001,-56.380600000000001,-1449.78,2240.79
6053.0,20039.5,-7833.29,8124.4799999999996,-13810.9,123.929,-1208.0999999999999,1948.1900000000001
6054.0,21734.700000000001,-8726.8199999999997,9271.6599999999999,-14499.4,427.39699999999999,-965.02999999999997,1621.77
6055.0,23621.099999999999,-9475.7999999999993,10707.200000000001,-14985.200000000001,681.572,-643.65999999999997,1462.6300000000001
6056.0,25241.099999999999,-10363.299999999999,11748.9,-15499.1,883.58699999999999,-332.69900000000001,1359.9200000000001
6057.0,26959.700000000001,-11323.200000000001,12791.0,-16046.1,1194.1500000000001,-36.237499999999997,1271.48
6058.0,28515.200000000001,-13102.200000000001,13049.700000000001,-16991.799999999999,1311.4300000000001,252.999,1526.9100000000001
6059.0,15266.6,-4108.8699999999999,6438.4799999999996,-8456.2399999999998,151.16,-3191.1799999999998,2969.2600000000002
6060.0,15615.1,-4176.6700000000001,6612.0699999999997,-9038.4200000000001,78.316800000000001,-2969.21,2879.7800000000002
6061.0,16255.6,-4614.0699999999997,6808.8800000000001,-9890.8999999999996,40.941800000000001,-2702.1399999999999,2812.3299999999999
6062.0,17129.299999999999,-5309.25,7067.4399999999996,-10895.1,38.373199999999997,-2397.0999999999999,2747.7199999999998
6063.0,18190.200000000001,-6233.6499999999996,7363.6800000000003,-12004.0,60.554299999999998,-2058.6500000000001,2677.79
6064.0,19363.599999999999,-7425.0100000000002,7598.9399999999996,-13200.4,91.233099999999993,-1706.8399999999999,2603.8000000000002
6065.0,20583.599999999999,-8785.3400000000001,7854.3299999999999,-14344.700000000001,137.22499999999999,-1391.6800000000001,2417.27
6066.0,22031.0,-10164.4,8402.8400000000001,-15382.700000000001,230.51400000000001,-1140.8099999999999,2036.3399999999999
6067.0,23905.200000000001,-11190.200000000001,9631.5300000000007,-16121.200000000001,393.36099999999999,-911.66499999999996,1629.6800000000001
6068.0,25964.400000000001,-12183.799999999999,10966.700000000001,-16836.200000000001,643.89099999999996,-661.26900000000001,1449.1500000000001
6069.0,27905.099999999999,-13305.1,12141.0,-17436.0,1011.67,-440.745,1336.47
6070.0,30129.799999999999,-14683.700000000001,13387.700000000001,-18151.5,1338.0799999999999,-203.749,1282.1600000000001
6071.0,31892.599999999999,-16666.799999999999,13700.299999999999,-19179.599999999999,1224.5599999999999,-66.122299999999996,1617.3099999999999
6072.0,16676.700000000001,-5624.0299999999997,6708.9200000000001,-9685.7900000000009,307.50700000000001,-3103.6799999999998,3174.7600000000002
6073.0,17082.400000000001,-5718.4099999999999,6915.3299999999999,-10273.6,247.511,-2895.8499999999999,3085.3200000000002
6074.0,17804.200000000001,-6265.3500000000004,7091.1499999999996,-11202.6,228.86699999999999,-2633.9099999999999,3016.8699999999999
6075.0,18789.200000000001,-7050.71,7379.3999999999996,-12256.1,247.02199999999999,-2328.2199999999998,2952.48
6076.0,19975.599999999999,-8126.1400000000003,7656.6000000000004,-13461.700000000001,286.25,-1985.1900000000001,2897.3699999999999
6077.0,21253.200000000001,-9477.9200000000001,7860.3100000000004,-14733.9,326.673,-1623.8299999999999,2834.3000000000002
6078.0,22571.599999999999,-11120.799999999999,7979.1300000000001,-16049.5,357.435,-1285.1800000000001,2639.4299999999998
6079.0,24087.299999999999,-12768.0,8367.3700000000008,-17251.299999999999,403.30000000000001,-1010.1900000000001,2242.5100000000002
6080.0,26049.5,-14168.5,9349.3899999999994,-18265.200000000001,543.88300000000004,-791.49900000000002,1787.75
6081.0,28371.900000000001,-15537.700000000001,10677.200000000001,-19154.299999999999,802.19399999999996,-591.89499999999998,1514.0699999999999
6082.0,30813.0,-17013.599999999999,12155.6,-19811.5,1061.1500000000001,-424.21600000000001,1321.4100000000001
6083.0,33471.699999999997,-18807.0,13567.9,-20657.299999999999,1075.1199999999999,-321.49900000000002,1306.46
6084.0,35311.800000000003,-21729.400000000001,13024.799999999999,-22546.0,747.46299999999997,-483.72300000000001,1596.6800000000001
6085.0,18189.599999999999,-7189.5799999999999,7020.3999999999996,-10915.1,482.17700000000002,-3006.8200000000002,3381.1900000000001
6086.0,18661.799999999999,-7377.9300000000003,7204.1999999999998,-11571.0,445.702,-2812.79,3294.8400000000001
6087.0,19485.799999999999,-7984.4799999999996,7433.4200000000001,-12518.4,454.51900000000001,-2553.8899999999999,3232.0500000000002
6088.0,20598.700000000001,-8907.7000000000007,7719.1499999999996,-13662.700000000001,496.94200000000001,-2249.96,3175.7399999999998
6089.0,21921.0,-10132.0,7981.1899999999996,-14971.299999999999,563.74099999999999,-1900.5599999999999,3140.02
6090.0,23327.400000000001,-11700.4,8114.9799999999996,-16378.299999999999,627.70500000000004,-1513.99,3102.9099999999999
6091.0,24759.700000000001,-13588.799999999999,8128.25,-17832.799999999999,659.09699999999998,-1153.47,2940.5599999999999
6092.0,26363.0,-15629.5,8246.8799999999992,-19317.400000000001,697.81899999999996,-871.09199999999998,2551.71
6093.0,28449.799999999999,-17521.200000000001,8950.9099999999999,-20655.200000000001,813.67700000000002,-633.82100000000003,2052.4499999999998
6094.0,31009.700000000001,-19406.799999999999,10158.5,-21777.099999999999,944.17899999999997,-399.72800000000001,1697.1600000000001
6095.0,33808.099999999999,-21599.799999999999,11447.4,-22815.900000000001,880.39800000000002,-250.57499999999999,1493.1600000000001
6096.0,36562.199999999997,-24633.599999999999,11841.200000000001,-24605.5,410.52499999999998,-349.09899999999999,1476.3699999999999
6097.0,38314.0,-28434.5,10277.299999999999,-27396.200000000001,-216.285,-861.69600000000003,1426.45
6098.0,19747.700000000001,-8811.0900000000001,7293.9399999999996,-12165.5,662.60199999999998,-2914.4400000000001,3583.6100000000001
6099.0,20315.599999999999,-9128.3099999999995,7466.7700000000004,-12897.0,662.25199999999995,-2724.0100000000002,3512.21
6100.0,21287.200000000001,-9886.1000000000004,7714.9799999999996,-13929.200000000001,700.56100000000004,-2474.3600000000001,3463.8899999999999
6101.0,22549.799999999999,-10964.5,7994.1599999999999,-15193.0,777.62699999999995,-2176.0700000000002,3415.4400000000001
6102.0,24053.799999999999,-12325.299999999999,8299.2900000000009,-16597.799999999999,890.63599999999997,-1802.1800000000001,3401.75
6103.0,25656.099999999999,-14125.5,8425.0100000000002,-18118.900000000001,963.173,-1382.49,3425.0100000000002
6104.0,27245.099999999999,-16416.400000000001,8240.9899999999998,-19824.0,974.15599999999995,-1030.51,3298.6199999999999
6105.0,28978.400000000001,-18788.799999999999,8177.1700000000001,-21558.900000000001,1030.3699999999999,-753.46799999999996,2905.4499999999998
6106.0,31193.900000000001,-21097.200000000001,8625.7000000000007,-23214.700000000001,1150.8099999999999,-428.33199999999999,2426.3400000000001
6107.0,33936.699999999997,-23742.200000000001,9411.9099999999999,-24768.400000000001,1068.6199999999999,-60.013199999999998,2159.5100000000002
6108.0,36836.199999999997,-27380.5,9579.8600000000006,-26767.400000000001,434.02100000000002,41.210799999999999,2044.9400000000001
6109.0,39283.400000000001,-31972.099999999999,8132.5799999999999,-29949.099999999999,-621.71900000000005,-385.40899999999999,1847.1800000000001
6110.0,40615.699999999997,-36906.800000000003,4774.9300000000003,-34274.800000000003,-1426.45,-1170.6199999999999,1269.48
6111.0,21262.599999999999,-10319.200000000001,7631.3400000000001,-13244.4,886.60900000000004,-2817.1999999999998,3770.1999999999998
6112.0,22032.400000000001,-10889.0,7793.3800000000001,-14110.700000000001,952.66899999999998,-2648.5599999999999,3744.3200000000002
6113.0,23180.400000000001,-11835.799999999999,8011.3999999999996,-15317.799999999999,1041.26,-2415.7600000000002,3716.1199999999999
6114.0,24621.799999999999,-13053.299999999999,8320.4799999999996,-16708.400000000001,1177.29,-2088.3200000000002,3681.8600000000001
6115.0,26376.0,-14592.200000000001,8711.1200000000008,-18216.599999999999,1312.02,-1669.23,3720.5700000000002
6116.0,28174.0,-16764.0,8677.1200000000008,-19995.799999999999,1332.77,-1223.5799999999999,3831.4099999999999
6117.0,29798.599999999999,-19453.099999999999,8160.7600000000002,-21998.799999999999,1282.0899999999999,-868.053,3717.8099999999999
6118.0,31656.0,-22411.299999999999,7657.9300000000003,-24270.5,1371.6400000000001,-565.57500000000005,3264.98
6119.0,34279.199999999997,-25186.900000000001,8078.3000000000002,-26248.099999999999,1505.53,-127.544,2899.1500000000001
6120.0,37337.199999999997,-28954.400000000001,8189.6499999999996,-28515.299999999999,1037.6600000000001,358.36599999999999,2993.8499999999999
6121.0,39798.300000000003,-34453.699999999997,6174.1700000000001,-31941.5,-377.56200000000001,324.01499999999999,3070.8000000000002
6122.0,41222.400000000001,-41054.300000000003,1570.3699999999999,-37290.5,-1909.9300000000001,-480.92899999999997,2383.77
6123.0,41890.099999999999,-46881.599999999999,-3679.77,-43339.099999999999,-2524.0300000000002,-1422.5599999999999,1109.1500000000001
6124.0,4499.2299999999996,4294.7799999999997,817.27300000000002,4638.4099999999999,-389.93799999999999,-544.32799999999997,-1353.01
6125.0,4530.1099999999997,4366.9799999999996,770.21600000000001,4604.71,-331.07499999999999,-571.75300000000004,-1337.1700000000001
6126.0,4544.3199999999997,4453.3900000000003,740.91499999999996,4576.6899999999996,-275.58999999999997,-588.41399999999999,-1307.53
6127.0,4551.6700000000001,4510.3199999999997,683.41200000000003,4513.0900000000001,-224.30699999999999,-593.68200000000002,-1271.9400000000001
6128.0,4555.7399999999998,4598.8900000000003,660.17899999999997,4481.4700000000003,-176.16800000000001,-590.52999999999997,-1231.6300000000001
6129.0,4558.2700000000004,4655.5,607.43899999999996,4419.8199999999997,-131.291,-578.90499999999997,-1187.78
6130.0,4559.5799999999999,4741.96,589.12800000000004,4392.5200000000004,-88.997299999999996,-560.37900000000002,-1141.2
6131.0,4560.0600000000004,4784.8699999999999,532.68399999999997,4328.3299999999999,-49.407699999999998,-535.50599999999997,-1092.1400000000001
6132.0,4557.8999999999996,4865.6999999999998,522.41700000000003,4311.4499999999998,-13.076499999999999,-504.952,-1040.02
6133.0,4553.7200000000003,4896.5799999999999,469.548,4252.9499999999998,19.470800000000001,-468.95100000000002,-985.22299999999996
6134.0,4548.8199999999997,4972.6999999999998,469.00599999999997,4248.1599999999999,49.673400000000001,-430.09899999999999,-928.14400000000001
6135.0,4545.6000000000004,4990.1400000000003,415.06700000000001,4192.5600000000004,77.538399999999996,-388.154,-870.62800000000004
6136.0,4539.3199999999997,5061.6999999999998,427.584,4203.1300000000001,101.39100000000001,-346.78500000000003,-812.47299999999996
6137.0,4964.5299999999997,4371.71,678.27300000000002,4887.0100000000002,-371.52600000000001,-680.149,-1531.28
6138.0,4984.1999999999998,4463.9200000000001,637.89999999999998,4845.9300000000003,-301.97000000000003,-715.654,-1504.03
6139.0,4988.9799999999996,4515.3999999999996,556.221,4751.0100000000002,-240.477,-738.81799999999998,-1462.3499999999999
6140.0,4987.1000000000004,4634.8299999999999,544.00999999999999,4719.8699999999999,-185.292,-748.49699999999996,-1413.9200000000001
6141.0,4983.5799999999999,4691.2399999999998,468.99900000000002,4622.1599999999999,-134.452,-748.02700000000004,-1361.71
6142.0,4979.3299999999999,4810.4499999999998,459.84399999999999,4590.1199999999999,-87.701599999999999,-737.23099999999999,-1306.7
6143.0,4974.96,4864.21,389.34300000000002,4496.54,-44.462499999999999,-717.62599999999998,-1249.6600000000001
6144.0,4970.3400000000001,4983.4499999999998,390.30200000000002,4476.25,-4.7343299999999999,-689.84699999999998,-1190.52
6145.0,4965.8599999999997,5027.96,322.95100000000002,4389.7299999999996,31.567799999999998,-654.97000000000003,-1129.6400000000001
6146.0,4961.5600000000004,5140.3800000000001,330.589,4380.8999999999996,64.202299999999994,-614.13199999999995,-1066.98
6147.0,4956.6599999999999,5169.6700000000001,263.80500000000001,4299.5600000000004,94.718800000000002,-567.86099999999999,-1003.03
6148.0,4951.3400000000001,5264.71,271.71199999999999,4293.1700000000001,122.765,-517.125,-939.01700000000005
6149.0,4943.7799999999997,5271.6499999999996,204.167,4216.6899999999996,145.459,-464.178,-872.69500000000005
6150.0,5094.25,4233.0299999999997,552.04200000000003,4761.4200000000001,-310.05099999999999,-733.71100000000001,-1660.73
6151.0,5100.4399999999996,4393.29,573.63,4783.8000000000002,-237.56200000000001,-770.03099999999995,-1615.8099999999999
6152.0,5103.3000000000002,4458.1400000000003,492.81200000000001,4692.0799999999999,-174.75299999999999,-794.79899999999998,-1565.3199999999999
6153.0,5100.8000000000002,4599.3800000000001,491.07299999999998,4673.0500000000002,-116.288,-806.58399999999995,-1509.9300000000001
6154.0,5097.8699999999999,4664.5299999999997,411.97300000000001,4572.5,-62.531599999999997,-806.01599999999996,-1452.1400000000001
6155.0,5093.6400000000003,4803.3599999999997,410.92899999999997,4548.4099999999999,-12.6295,-794.85299999999995,-1391.73
6156.0,5089.8299999999999,4861.8199999999997,333.39699999999999,4448.0699999999997,33.551099999999998,-773.49800000000005,-1329.6600000000001
6157.0,5085.4099999999999,4986.5699999999997,329.07600000000002,4422.1800000000003,76.068700000000007,-743.53700000000003,-1265.3499999999999
6158.0,5081.0799999999999,5034.1000000000004,254.666,4328.1700000000001,115.318,-705.471,-1199.5899999999999
6159.0,5076.3500000000004,5144.4499999999998,251.624,4307.6999999999998,151.06899999999999,-661.07500000000005,-1131.96
6160.0,5072.1700000000001,5182.0900000000001,184.00700000000001,4225.71,183.989,-610.91700000000003,-1063.0599999999999
6161.0,5068.1400000000003,5285.7299999999996,191.81,4220.1199999999999,213.738,-556.78200000000004,-993.90899999999999
6162.0,5062.8500000000004,5309.46,131.54499999999999,4153.4300000000003,239.971,-498.75,-922.31799999999998
6163.0,5215.7299999999996,4479.79,763.53999999999996,5123.1800000000003,-309.36900000000003,-791.20600000000002,-1675.6300000000001
6164.0,5230.0600000000004,4604.4700000000003,735.59699999999998,5100.8000000000002,-237.13399999999999,-837.02999999999997,-1627.7
6165.0,5236.6700000000001,4702.4099999999999,675.64200000000005,5026.1400000000003,-174.947,-867.82600000000002,-1575.6800000000001
6166.0,5234.4300000000003,4821.71,641.86599999999999,4965.7200000000003,-116.559,-884.41099999999994,-1518.5699999999999
6167.0,5231.2200000000003,4920.2399999999998,586.22000000000003,4878.9899999999998,-63.341900000000003,-886.44500000000005,-1459.4100000000001
6168.0,5225.8400000000001,5030.2799999999997,546.94799999999998,4805.75,-14.163399999999999,-876.44299999999998,-1397.6500000000001
6169.0,5220.6099999999997,5126.5900000000001,498.37099999999998,4723.6700000000001,31.232299999999999,-854.72699999999998,-1334.4400000000001
6170.0,5214.6899999999996,5230.2600000000002,464.53800000000001,4657.4099999999999,73.094999999999999,-823.06799999999998,-1269.4400000000001
6171.0,5208.7399999999998,5317.8000000000002,422.37200000000001,4585.3299999999999,111.593,-782.32799999999997,-1202.99
6172.0,5202.6400000000003,5408.6800000000003,392.62099999999998,4528.6400000000003,146.673,-734.28899999999999,-1134.96
6173.0,5197.4399999999996,5482.9300000000003,354.56099999999998,4467.7700000000004,178.381,-680.16600000000005,-1065.4300000000001
6174.0,5193.9499999999998,5557.0799999999999,324.87400000000002,4418.4700000000003,206.10400000000001,-621.86400000000003,-995.75699999999995
6175.0,5187.5900000000001,5611.6800000000003,289.40699999999998,4369.5799999999999,231.26499999999999,-558.154,-923.28700000000003
6176.0,5382.1899999999996,4460.8999999999996,694.36300000000006,5226.6800000000003,-299.51499999999999,-860.82600000000002,-1714.47
6177.0,5395.1599999999999,4605.96,677.11000000000001,5208.3199999999997,-227.11199999999999,-913.99599999999998,-1661.48
6178.0,5401.8000000000002,4719.6599999999999,621.745,5131.7700000000004,-165.08699999999999,-950.298,-1605.9200000000001
6179.0,5399.2299999999996,4850.4799999999996,587.52800000000002,5062.4799999999996,-106.953,-971.17999999999995,-1545.5599999999999
6180.0,5395.3599999999997,4965.0200000000004,536.14300000000003,4970.9099999999999,-54.0687,-975.95699999999999,-1483.54
6181.0,5389.3000000000002,5092.7399999999998,502.74700000000001,4893.8299999999999,-5.3529499999999999,-967.04300000000001,-1419.4300000000001
6182.0,5383.0699999999997,5200.0299999999997,453.81299999999999,4801.6700000000001,39.314700000000002,-945.13499999999999,-1353.8099999999999
6183.0,5376.2700000000004,5312.1700000000001,417.38999999999999,4723.4099999999999,80.239599999999996,-911.82799999999997,-1286.73
6184.0,5369.3199999999997,5407.5100000000002,372.68799999999999,4639.5900000000001,117.68600000000001,-868.51300000000003,-1218.24
6185.0,5362.71,5502.9099999999999,337.38600000000002,4568.96,151.71600000000001,-816.69899999999996,-1148.6300000000001
6186.0,5356.6099999999997,5587.6300000000001,300.947,4501.1999999999998,182.446,-758.19500000000005,-1077.51
6187.0,5352.8699999999999,5671.4300000000003,272.55799999999999,4445.8999999999996,209.517,-694.51700000000005,-1006.84
6188.0,5345.1000000000004,5739.1899999999996,242.655,4395.6700000000001,232.05600000000001,-625.16499999999996,-931.62400000000002
6189.0,5515.6499999999996,4618.5299999999997,822.77599999999995,5512.3500000000004,-293.774,-925.06799999999998,-1731.75
6190.0,5529.9799999999996,4750.0900000000001,781.91499999999996,5462.96,-221.02699999999999,-986.04399999999998,-1676.6900000000001
6191.0,5537.6300000000001,4883.1800000000003,734.97900000000004,5387.04,-159.184,-1028.3199999999999,-1619.2
6192.0,5535.3400000000001,5008.5900000000001,684.00400000000002,5291.7200000000003,-101.61199999999999,-1053.52,-1556.99
6193.0,5531.1599999999999,5144.04,642.32000000000005,5200.2399999999998,-49.566800000000001,-1061.0,-1493.05
6194.0,5524.3800000000001,5257.9099999999999,584.10500000000002,5088.3100000000004,-2.0026099999999998,-1053.1800000000001,-1427.1900000000001
6195.0,5517.2600000000002,5391.0200000000004,550.51800000000003,5001.4700000000003,41.530900000000003,-1030.95,-1360.1300000000001
6196.0,5509.5500000000002,5494.6300000000001,495.53800000000001,4894.6800000000003,81.304599999999994,-995.99699999999996,-1291.98
6197.0,5501.5900000000001,5618.0600000000004,469.73700000000002,4820.29,117.673,-949.95000000000005,-1222.5899999999999
6198.0,5494.1499999999996,5704.4499999999998,416.63099999999997,4722.8500000000004,150.613,-894.399,-1152.3599999999999
6199.0,5487.1999999999998,5814.7399999999998,397.85199999999998,4664.6300000000001,180.08000000000001,-831.58900000000006,-1080.4400000000001
6200.0,5483.2200000000003,5882.1199999999999,345.33800000000002,4577.8699999999999,205.768,-762.96100000000001,-1009.4
6201.0,5475.3900000000003,5972.2799999999997,329.87900000000002,4535.96,227.166,-688.41899999999998,-932.35400000000004
6202.0,5671.1800000000003,4647.6099999999997,816.024,5682.9499999999998,-287.25299999999999,-997.21799999999996,-1752.27
6203.0,5684.0500000000002,4804.3599999999997,790.31200000000001,5640.29,-215.49299999999999,-1065.9200000000001,-1692.5
6204.0,5690.75,4943.9899999999998,738.81399999999996,5550.6400000000003,-154.56999999999999,-1114.27,-1631.53
6205.0,5687.5299999999997,5088.1899999999996,694.89200000000005,5451.96,-98.212199999999996,-1143.9100000000001,-1566.52
6206.0,5682.4300000000003,5230.0500000000002,647.71000000000004,5343.9700000000003,-47.409599999999998,-1154.24,-1500.4100000000001
6207.0,5674.6899999999996,5370.3199999999997,604.13199999999995,5235.3900000000003,-1.1285799999999999,-1147.6400000000001,-1432.8599999999999
6208.0,5666.4200000000001,5504.1599999999999,559.91200000000003,5126.7200000000003,40.896299999999997,-1125.0699999999999,-1364.3199999999999
6209.0,5657.3999999999996,5627.46,513.851,5017.8699999999999,79.062700000000007,-1088.4300000000001,-1294.8599999999999
6210.0,5648.2399999999998,5747.2700000000004,474.28800000000001,4919.4099999999999,113.73399999999999,-1039.4100000000001,-1224.5
6211.0,5639.6199999999999,5851.7700000000004,429.904,4820.6899999999996,145.036,-980.04399999999998,-1153.45
6212.0,5631.9499999999998,5958.71,398.70100000000002,4741.1999999999998,172.89099999999999,-912.40200000000004,-1080.9100000000001
6213.0,5626.71,6049.0699999999997,361.94200000000001,4660.6700000000001,197.327,-838.25699999999995,-1009.9400000000001
6214.0,5620.46,6135.2799999999997,332.50299999999999,4600.1300000000001,217.876,-758.57500000000005,-930.96900000000005
6215.0,5812.21,4755.9300000000003,903.38400000000001,5937.6499999999996,-280.41399999999999,-1068.47,-1763.49
6216.0,5823.9200000000001,4914.3500000000004,869.59199999999998,5876.6199999999999,-209.28800000000001,-1145.0699999999999,-1700.48
6217.0,5829.8500000000004,5058.5500000000002,811.55100000000004,5770.1199999999999,-149.38999999999999,-1199.71,-1636.75
6218.0,5826.1700000000001,5215.2600000000002,768.149,5661.3100000000004,-94.401399999999995,-1233.9200000000001,-1569.54
6219.0,5820.4300000000003,5363.8100000000004,715.452,5536.8199999999997,-45.2639,-1247.1500000000001,-1501.54
6220.0,5811.8999999999996,5509.3299999999999,665.12599999999998,5410.46,-0.81456399999999995,-1241.8099999999999,-1432.3399999999999
6221.0,5802.8999999999996,5654.25,620.24900000000002,5290.0900000000001,39.3812,-1218.9200000000001,-1362.72
6222.0,5793.0699999999997,5787.2200000000003,572.82299999999998,5169.1300000000001,75.813900000000004,-1180.6400000000001,-1292.49
6223.0,5783.21,5919.8299999999999,535.49800000000005,5062.6899999999996,108.774,-1128.6199999999999,-1221.76
6224.0,5773.8599999999997,6033.0900000000001,490.37200000000001,4953.6099999999997,138.44900000000001,-1065.49,-1150.4200000000001
6225.0,5765.79,6149.6400000000003,459.38299999999998,4865.4499999999998,164.69,-993.01099999999997,-1077.6600000000001
6226.0,5758.8000000000002,6243.3299999999999,418.77499999999998,4771.7200000000003,186.49799999999999,-913.33699999999999,-1006.1799999999999
6227.0,5753.6400000000003,6335.8599999999997,387.697,4704.46,208.018,-828.18499999999995,-927.10500000000002
6228.0,5956.9200000000001,4789.3999999999996,921.31500000000005,6126.3199999999997,-272.54500000000002,-1143.4200000000001,-1771.9100000000001
6229.0,5966.6300000000001,4977.9700000000003,907.66099999999994,6074.71,-202.76599999999999,-1228.0999999999999,-1704.73
6230.0,5971.1400000000003,5123.9200000000001,840.048,5947.3999999999996,-144.309,-1289.1900000000001,-1637.9400000000001
6231.0,5966.46,5304.0799999999999,807.81899999999996,5838.1899999999996,-91.089200000000005,-1328.0899999999999,-1568.3499999999999
6232.0,5959.9200000000001,5454.1800000000003,744.02800000000002,5690.6800000000003,-43.798699999999997,-1344.29,-1498.6700000000001
6233.0,5950.6700000000001,5630.5799999999999,711.98699999999997,5570.7399999999998,-1.23061,-1340.22,-1428.29
6234.0,5940.8599999999997,5771.9700000000003,651.30899999999997,5422.9200000000001,36.9313,-1317.01,-1357.76
6235.0,5930.1599999999999,5930.1499999999996,617.47400000000005,5304.4399999999996,71.254999999999995,-1276.96,-1286.8399999999999
6236.0,5919.4200000000001,6054.9399999999996,561.35199999999998,5168.5100000000002,102.096,-1221.8699999999999,-1215.7
6237.0,5909.3100000000004,6191.8699999999999,529.88599999999997,5063.3100000000004,129.73599999999999,-1154.6900000000001,-1144.23
6238.0,5900.6599999999999,6300.9099999999999,481.822,4948.3599999999997,154.11000000000001,-1077.4200000000001,-1071.3599999999999
6239.0,5892.1599999999999,6420.2299999999996,458.113,4862.7299999999996,172.49799999999999,-991.86300000000006,-998.38199999999995
6240.0,5883.5699999999997,6501.2700000000004,411.91000000000003,4773.3500000000004,190.65100000000001,-900.26800000000003,-918.66200000000003
6241.0,6092.8800000000001,4873.8100000000004,1003.59,6371.6000000000004,-263.38099999999997,-1219.0899999999999,-1773.6700000000001
6242.0,6100.9700000000003,5058.6499999999996,975.94200000000001,6294.29,-194.946,-1312.1900000000001,-1703.1600000000001
6243.0,6104.4300000000003,5216.3400000000001,908.279,6155.2799999999997,-138.166,-1380.04,-1633.73
6244.0,6099.2700000000004,5405.2399999999998,871.86099999999999,6030.1499999999996,-86.927400000000006,-1423.8499999999999,-1562.21
6245.0,6092.25,5569.4399999999996,808.899,5871.6499999999996,-41.884599999999999,-1443.1600000000001,-1491.01
6246.0,6082.54,5748.25,765.99900000000002,5729.1400000000003,-1.6984900000000001,-1440.4400000000001,-1419.48
6247.0,6072.2700000000004,5907.4200000000001,710.245,5574.6599999999999,34.1509,-1416.9400000000001,-1348.3099999999999
6248.0,6061.1999999999998,6071.3699999999999,669.84199999999998,5438.54,66.257599999999996,-1375.0799999999999,-1277.2
6249.0,6049.96,6215.4700000000003,621.54999999999995,5299.7200000000003,94.989000000000004,-1316.9400000000001,-1206.1099999999999
6250.0,6039.5699999999997,6356.3000000000002,583.27200000000005,5178.1400000000003,120.59699999999999,-1245.5,-1135.0
6251.0,6030.4899999999998,6482.3500000000004,542.56299999999999,5060.6099999999997,143.10300000000001,-1163.6400000000001,-1062.3399999999999
6252.0,6023.9399999999996,6598.1800000000003,502.13400000000001,4953.2200000000003,157.441,-1073.03,-986.47000000000003
6253.0,6020.1700000000001,6682.9899999999998,446.697,4854.4300000000003,167.90899999999999,-976.61099999999999,-906.47199999999998
6254.0,6225.5,4902.6099999999997,1041.26,6568.4099999999999,-252.798,-1296.95,-1770.29
6255.0,6231.7799999999997,5105.6800000000003,1021.24,6486.71,-186.273,-1398.73,-1696.1800000000001
6256.0,6234.0299999999997,5278.7700000000004,956.78099999999995,6338.6599999999999,-131.49799999999999,-1473.55,-1624.1300000000001
6257.0,6228.3100000000004,5478.4200000000001,917.71500000000003,6198.6199999999999,-82.6541,-1522.4200000000001,-1550.78
6258.0,6220.9099999999999,5658.5900000000001,856.90099999999995,6029.9499999999998,-40.059399999999997,-1544.96,-1478.3900000000001
6259.0,6211.0500000000002,5854.5900000000001,817.25999999999999,5878.5299999999997,-2.3575900000000001,-1543.6400000000001,-1406.27
6260.0,6200.4799999999996,6025.79,760.048,5710.8000000000002,30.936800000000002,-1519.8699999999999,-1334.71
6261.0,6189.1700000000001,6201.6700000000001,718.57799999999997,5562.4200000000001,60.460099999999997,-1476.1199999999999,-1263.6199999999999
6262.0,6177.5,6353.9700000000003,666.50800000000004,5409.04,86.712999999999994,-1414.8900000000001,-1192.6600000000001
6263.0,6166.9700000000003,6504.6300000000001,626.68700000000001,5276.3100000000004,109.899,-1339.0,-1122.1400000000001
6264.0,6157.3900000000003,6639.2600000000002,584.88199999999995,5147.6000000000004,130.16499999999999,-1252.6199999999999,-1049.76
6265.0,6157.6599999999999,6762.6700000000001,534.78599999999994,5028.8400000000001,143.74600000000001,-1157.8299999999999,-972.702
6266.0,6167.25,6848.4899999999998,459.17200000000003,4912.7799999999997,151.44200000000001,-1056.9400000000001,-896.69299999999998
6267.0,6350.0600000000004,4962.0799999999999,1124.3399999999999,6801.6000000000004,-240.38200000000001,-1375.8699999999999,-1760.6099999999999
6268.0,6354.79,5161.5900000000001,1089.78,6692.7399999999998,-175.952,-1486.7,-1683.3599999999999
6269.0,6356.1800000000003,5348.6099999999997,1026.4300000000001,6533.3699999999999,-123.514,-1568.77,-1608.99
6270.0,6350.3599999999997,5558.3000000000002,983.27599999999995,6376.8900000000003,-77.344099999999997,-1622.9400000000001,-1534.2
6271.0,6342.9399999999996,5754.5900000000001,924.02200000000005,6197.54,-37.593400000000003,-1648.8499999999999,-1460.8399999999999
6272.0,6333.1800000000003,5955.3400000000001,874.44600000000003,6024.21,-2.8627799999999999,-1649.03,-1388.1800000000001
6273.0,6322.6700000000001,6145.5100000000002,821.94399999999996,5849.4399999999996,27.606100000000001,-1625.0,-1316.5799999999999
6274.0,6311.4899999999998,6328.7299999999996,774.11800000000005,5683.5299999999997,54.354300000000002,-1579.3499999999999,-1245.9000000000001
6275.0,6299.8599999999997,6501.2399999999998,729.56799999999998,5527.0600000000004,78.113299999999995,-1514.97,-1175.5799999999999
6276.0,6289.3699999999999,6656.9700000000003,682.85699999999997,5377.6099999999997,98.784099999999995,-1434.49,-1106.02
6277.0,6280.21,6809.2200000000003,648.17499999999995,5246.9399999999996,116.964,-1343.6600000000001,-1034.3699999999999
6278.0,6285.1099999999997,6928.4399999999996,580.40300000000002,5106.3100000000004,132.46600000000001,-1243.9200000000001,-958.66499999999996
6279.0,6300.5900000000001,7021.3400000000001,498.02100000000002,4978.6899999999996,141.83799999999999,-1135.8499999999999,-887.96299999999997
6280.0,6467.8599999999997,4961.7799999999997,1162.3699999999999,6981.4099999999999,-226.15199999999999,-1456.29,-1744.48
6281.0,6471.04,5198.7200000000003,1153.8299999999999,6885.75,-164.334,-1576.45,-1664.0
6282.0,6471.6899999999996,5383.7600000000002,1075.1600000000001,6698.25,-114.63,-1666.03,-1587.55
6283.0,6465.8999999999996,5623.6599999999999,1047.46,6544.71,-71.578999999999994,-1725.6900000000001,-1511.47
6284.0,6458.7700000000004,5818.9099999999999,971.86599999999999,6336.5500000000002,-34.947699999999998,-1755.1099999999999,-1437.5899999999999
6285.0,6449.4899999999998,6055.8599999999997,943.09699999999998,6171.8400000000001,-3.3481700000000001,-1756.8800000000001,-1364.9400000000001
6286.0,6439.3599999999997,6241.5,871.01499999999999,5965.6800000000003,24.043500000000002,-1732.6099999999999,-1293.6900000000001
6287.0,6428.4700000000003,6456.5299999999997,840.62,5806.1000000000004,47.656399999999998,-1685.02,-1223.6300000000001
6288.0,6417.0799999999999,6620.0600000000004,773.80200000000002,5616.8400000000001,68.572199999999995,-1617.3900000000001,-1154.25
6289.0,6406.8299999999999,6806.1700000000001,744.755,5475.3500000000004,86.230000000000004,-1532.3599999999999,-1085.6099999999999
6290.0,6397.9099999999999,6947.4499999999998,688.86699999999996,5314.3800000000001,102.464,-1436.5999999999999,-1015.5700000000001
6291.0,6402.4099999999999,7095.6499999999996,641.73099999999999,5185.96,118.77500000000001,-1330.71,-941.84500000000003
6292.0,6418.2299999999996,7175.1499999999996,536.67100000000005,5027.5100000000002,127.492,-1214.98,-874.00900000000001
6293.0,6576.6599999999999,4990.6099999999997,1246.6800000000001,7195.9499999999998,-209.61000000000001,-1537.6500000000001,-1721.47
6294.0,6578.5900000000001,5230.1499999999996,1228.8299999999999,7077.7399999999998,-150.72999999999999,-1667.5,-1638.1900000000001
6295.0,6578.8400000000001,5425.3800000000001,1146.3800000000001,6873.5500000000002,-104.184,-1764.8800000000001,-1559.95
6296.0,6573.5,5682.8299999999999,1120.6500000000001,6709.4799999999996,-64.566100000000006,-1830.24,-1482.98
6297.0,6567.0200000000004,5890.0500000000002,1040.9300000000001,6484.8599999999997,-31.497599999999998,-1863.3499999999999,-1408.8399999999999
6298.0,6558.5200000000004,6140.4200000000001,1009.3099999999999,6305.3900000000003,-3.5126300000000001,-1866.8,-1336.3299999999999
6299.0,6549.1599999999999,6340.1199999999999,935.40999999999997,6085.7700000000004,20.466100000000001,-1842.3599999999999,-1265.77
6300.0,6538.9700000000003,6570.3599999999997,904.94200000000001,5915.1700000000001,40.742400000000004,-1792.78,-1196.74
6301.0,6528.2299999999996,6748.7200000000003,838.971,5716.5100000000002,58.633400000000002,-1721.8399999999999,-1128.8199999999999
6302.0,6518.7299999999996,6947.3500000000004,808.95600000000002,5564.3699999999999,73.468800000000002,-1632.3399999999999,-1061.5699999999999
6303.0,6508.4700000000003,7100.1999999999998,754.99599999999998,5395.6199999999999,86.681799999999996,-1530.71,-992.82000000000005
6304.0,6512.3699999999999,7255.2200000000003,706.55700000000002,5257.9700000000003,101.099,-1419.03,-920.99300000000005
6305.0,6532.1300000000001,7344.9300000000003,598.76099999999997,5090.6099999999997,108.922,-1297.46,-855.99699999999996
6306.0,6676.4200000000001,4970.2200000000003,1299.8499999999999,7367.1599999999999,-190.80799999999999,-1620.02,-1690.9100000000001
6307.0,6677.2600000000002,5234.54,1294.3299999999999,7247.8800000000001,-135.404,-1759.8699999999999,-1604.95
6308.0,6677.3199999999997,5443.0699999999997,1210.6099999999999,7029.3699999999999,-92.455399999999997,-1865.3,-1525.21
6309.0,6672.6899999999996,5717.8999999999996,1185.9400000000001,6853.8100000000004,-56.729900000000001,-1936.5899999999999,-1447.6500000000001
6310.0,6667.2299999999996,5940.3000000000002,1104.51,6615.1999999999998,-27.5778,-1973.52,-1373.71
6311.0,6659.9499999999998,6213.0699999999997,1078.1500000000001,6429.04,-3.4034900000000001,-1978.79,-1301.9300000000001
6312.0,6651.7799999999997,6425.25,999.94399999999996,6193.71,16.828800000000001,-1954.21,-1232.5
6313.0,6642.4099999999999,6673.9200000000001,971.84199999999998,6014.4899999999998,33.467799999999997,-1902.6300000000001,-1164.73
6314.0,6632.5100000000002,6860.0,898.90899999999999,5799.1400000000003,47.840800000000002,-1828.1400000000001,-1098.6300000000001
6315.0,6623.6999999999998,7075.46,872.22000000000003,5640.29,59.620699999999999,-1734.3900000000001,-1033.01
6316.0,6613.54,7231.5900000000001,808.58299999999997,5454.8299999999999,67.8369,-1626.77,-963.70399999999995
6317.0,6617.3500000000004,7401.0,766.96900000000005,5316.4700000000003,78.331100000000006,-1509.53,-895.93299999999999
6318.0,6638.4399999999996,7503.5900000000001,662.64599999999996,5141.8199999999997,88.485200000000006,-1382.3800000000001,-835.19899999999996
6319.0,6765.7799999999997,4972.0600000000004,1395.48,7565.7399999999998,-169.239,-1703.0,-1652.6300000000001
6320.0,6765.8400000000001,5228.1800000000003,1368.74,7411.6999999999998,-117.736,-1853.2,-1564.3699999999999
6321.0,6766.0900000000001,5461.0500000000002,1293.98,7189.21,-78.876800000000003,-1966.99,-1483.45
6322.0,6762.5900000000001,5743.0,1259.28,6991.21,-47.434100000000001,-2044.4400000000001,-1405.74
6323.0,6758.5500000000002,5991.6999999999998,1186.25,6749.0600000000004,-22.680499999999999,-2085.3200000000002,-1332.3299999999999
6324.0,6752.9499999999998,6267.9300000000003,1145.3699999999999,6536.8500000000004,-2.7578900000000002,-2092.6100000000001,-1261.5699999999999
6325.0,6746.3299999999999,6508.1700000000001,1077.3800000000001,6300.5699999999997,13.325900000000001,-2067.9299999999998,-1193.6300000000001
6326.0,6738.1400000000003,6761.4099999999999,1036.9400000000001,6098.3299999999999,26.1082,-2014.4200000000001,-1127.4400000000001
6327.0,6729.54,6974.8199999999997,975.38300000000004,5885.2299999999996,36.500599999999999,-1936.0699999999999,-1063.6500000000001
6328.0,6721.5799999999999,7192.6400000000003,937.71500000000003,5705.4300000000003,45.147100000000002,-1838.4000000000001,-1000.14
6329.0,6717.8800000000001,7370.5600000000004,875.82399999999996,5520.5600000000004,49.551499999999997,-1725.96,-930.39200000000005
6330.0,6723.7200000000003,7529.4399999999996,813.37199999999996,5354.3699999999999,52.362499999999997,-1603.1300000000001,-868.22500000000002
6331.0,6736.4899999999998,7665.8599999999997,743.82100000000003,5195.71,62.884399999999999,-1469.72,-810.43399999999997
6332.0,6844.3400000000001,4916.4200000000001,1455.1800000000001,7712.1099999999997,-144.91999999999999,-1786.47,-1605.72
6333.0,6843.8299999999999,5201.96,1444.3499999999999,7560.3599999999997,-97.883499999999998,-1947.3399999999999,-1515.4000000000001
6334.0,6844.5600000000004,5446.29,1364.9300000000001,7320.29,-63.597000000000001,-2069.75,-1433.6900000000001
6335.0,6842.5100000000002,5750.54,1334.55,7114.4200000000001,-36.948599999999999,-2153.5900000000001,-1356.23
6336.0,6840.2799999999997,6013.25,1256.6500000000001,6855.6700000000001,-17.008700000000001,-2198.6100000000001,-1283.8599999999999
6337.0,6836.8299999999999,6316.3000000000002,1223.73,6640.2799999999997,-1.6096699999999999,-2208.0,-1214.8099999999999
6338.0,6832.1999999999998,6568.2799999999997,1148.5599999999999,6385.7600000000002,10.0078,-2183.46,-1148.72
6339.0,6825.25,6844.7299999999996,1113.51,6178.6000000000004,18.5837,-2127.8099999999999,-1084.3499999999999
6340.0,6817.96,7065.0,1042.0799999999999,5946.6099999999997,24.527200000000001,-2045.4200000000001,-1023.26
6341.0,6810.6899999999996,7303.3599999999997,1011.66,5765.0299999999997,29.281300000000002,-1943.74,-961.846
6342.0,6814.21,7481.46,930.30700000000002,5559.5799999999999,33.227699999999999,-1826.52,-894.596
6343.0,6827.6999999999998,7659.0,868.55200000000002,5388.7700000000004,29.940000000000001,-1698.3499999999999,-839.29700000000003
6344.0,6834.6300000000001,7806.8999999999996,808.53099999999995,5223.7399999999998,33.700600000000001,-1559.9400000000001,-782.43700000000001
6345.0,6911.2299999999996,4878.4099999999999,1556.27,7880.6499999999996,-117.309,-1870.0899999999999,-1550.0699999999999
6346.0,6910.5,5158.8000000000002,1526.1199999999999,7696.0,-75.252399999999994,-2041.96,-1458.1500000000001
6347.0,6912.0500000000002,5427.7399999999998,1454.3499999999999,7450.9200000000001,-46.062199999999997,-2173.3200000000002,-1376.01
6348.0,6911.9200000000001,5743.1999999999998,1416.1900000000001,7225.5200000000004,-24.704599999999999,-2263.73,-1299.3699999999999
6349.0,6911.8100000000004,6032.21,1344.76,6961.8500000000004,-10.023199999999999,-2313.1599999999999,-1228.3599999999999
6350.0,6910.8999999999996,6343.6400000000003,1300.21,6724.4700000000003,0.232761,-2324.6199999999999,-1161.47
6351.0,6909.0699999999997,6623.0900000000001,1232.7,6467.0699999999997,7.2276600000000002,-2300.75,-1097.75
6352.0,6903.1800000000003,6907.6199999999999,1186.0999999999999,6238.7299999999996,10.750999999999999,-2242.6300000000001,-1034.29
6353.0,6895.3100000000004,7153.7799999999997,1124.7,6007.5699999999997,10.2454,-2155.6199999999999,-974.99599999999998
6354.0,6890.8400000000001,7394.5500000000002,1081.6900000000001,5807.5299999999997,10.3947,-2050.3600000000001,-916.35299999999995
6355.0,6899.3500000000004,7590.6999999999998,1001.95,5599.54,13.363899999999999,-1928.3199999999999,-854.02999999999997
6356.0,6918.0699999999997,7768.9399999999996,924.22299999999996,5404.46,8.2486899999999999,-1794.0599999999999,-805.55700000000002
6357.0,6929.0,7947.1999999999998,881.48000000000002,5248.04,6.2008700000000001,-1651.03,-751.64700000000005
6358.0,6966.0299999999997,4781.9899999999998,1624.47,7995.1899999999996,-86.356999999999999,-1953.5999999999999,-1484.74
6359.0,6965.3100000000004,5093.3800000000001,1610.5,7813.3000000000002,-49.924799999999998,-2136.77,-1391.54
6360.0,6967.9899999999998,5375.46,1534.1300000000001,7551.25,-26.3354,-2277.3600000000001,-1309.4400000000001
6361.0,6970.04,5715.0299999999997,1500.05,7318.6199999999999,-10.912599999999999,-2374.5500000000002,-1234.0899999999999
6362.0,6972.5200000000004,6020.6499999999996,1424.47,7039.9700000000003,-1.8301099999999999,-2428.6799999999998,-1165.02
6363.0,6974.6999999999998,6359.7700000000004,1386.0,6799.1000000000004,2.7492200000000002,-2442.2399999999998,-1100.98
6364.0,6975.5799999999999,6655.2200000000003,1314.99,6527.3500000000004,4.99925,-2419.29,-1040.53
6365.0,6974.3500000000004,6961.8000000000002,1265.54,6291.1999999999998,3.39113,-2359.5999999999999,-976.59699999999998
6366.0,6971.1800000000003,7208.6499999999996,1182.9000000000001,6036.6700000000001,-7.6231099999999996,-2269.23,-917.91700000000003
6367.0,6970.6000000000004,7467.9200000000001,1143.6900000000001,5834.7299999999996,-12.730499999999999,-2160.98,-865.01800000000003
6368.0,6983.4499999999998,7676.6599999999999,1060.1900000000001,5615.0299999999997,-9.4950299999999999,-2034.01,-810.24699999999996
6369.0,7003.2399999999998,7877.4499999999998,991.52200000000005,5418.0200000000004,-15.8619,-1892.97,-767.10400000000004
6370.0,7015.9300000000003,8063.8500000000004,944.90800000000002,5248.5699999999997,-20.966200000000001,-1743.27,-716.86000000000001
6371.0,7008.2299999999996,4695.1599999999999,1730.1500000000001,8122.9399999999996,-51.513399999999997,-2036.5799999999999,-1409.51
6372.0,7007.8100000000004,5008.1199999999999,1702.1800000000001,7913.8999999999996,-21.311,-2231.3800000000001,-1315.5
6373.0,7012.0200000000004,5311.8699999999999,1628.8299999999999,7643.0799999999999,-3.9356399999999998,-2381.52,-1233.99
6374.0,7016.6499999999996,5670.4099999999999,1592.46,7397.5,5.0227000000000004,-2485.8000000000002,-1160.5
6375.0,7021.9499999999998,5999.3900000000003,1518.54,7110.4200000000001,7.9947999999999997,-2544.73,-1093.8900000000001
6376.0,7027.6599999999999,6355.0200000000004,1473.49,6854.2299999999996,6.3890599999999997,-2560.6100000000001,-1033.1700000000001
6377.0,7030.79,6674.4099999999999,1406.6199999999999,6576.2399999999998,2.8616199999999998,-2538.5599999999999,-975.87199999999996
6378.0,7038.0699999999997,6995.0699999999997,1343.27,6325.5600000000004,-1.6349400000000001,-2478.2199999999998,-913.33699999999999
6379.0,7050.3100000000004,7254.4099999999999,1240.25,6056.3100000000004,-20.700900000000001,-2386.6100000000001,-859.82399999999996
6380.0,7052.8500000000004,7522.8400000000001,1195.55,5839.9799999999996,-33.4161,-2275.25,-814.53200000000004
6381.0,7061.0600000000004,7756.1999999999998,1128.1199999999999,5621.2299999999996,-30.198599999999999,-2141.46,-765.84199999999998
6382.0,7081.0900000000001,7974.8500000000004,1063.3499999999999,5418.0600000000004,-37.160699999999999,-1993.1800000000001,-726.75599999999997
6383.0,7094.8400000000001,8179.8699999999999,1023.38,5246.9099999999999,-46.144199999999998,-1836.46,-679.37800000000004
6384.0,7038.0299999999997,4548.2299999999996,1805.6199999999999,8193.9200000000001,-12.6624,-2118.6999999999998,-1323.5
6385.0,7038.1199999999999,4897.3299999999999,1797.48,7991.9899999999998,10.6692,-2325.48,-1229.1300000000001
6386.0,7043.9899999999998,5212.6999999999998,1716.1800000000001,7701.9799999999996,21.1538,-2485.3800000000001,-1148.78
6387.0,7051.3800000000001,5601.2600000000002,1687.55,7454.2200000000003,23.0609,-2597.0700000000002,-1077.5899999999999
6388.0,7059.8500000000004,5945.3900000000003,1605.6500000000001,7150.0799999999999,19.310300000000002,-2660.9400000000001,-1014.21
6389.0,7069.1800000000003,6334.7200000000003,1570.4000000000001,6895.3299999999999,11.2338,-2679.4499999999998,-957.553
6390.0,7076.7299999999996,6668.4700000000003,1494.8599999999999,6601.8000000000002,1.3693200000000001,-2658.6599999999999,-903.48000000000002
6391.0,7091.4200000000001,7012.7200000000003,1429.1700000000001,6347.6400000000003,-5.5884,-2597.3499999999999,-845.50599999999997
6392.0,7115.4899999999998,7271.5100000000002,1295.0899999999999,6047.4499999999998,-26.874199999999998,-2503.3200000000002,-801.64099999999996
6393.0,7124.1899999999996,7566.3299999999999,1255.4400000000001,5828.75,-47.755699999999997,-2388.6500000000001,-763.63499999999999
6394.0,7127.3299999999999,7812.2200000000003,1192.72,5601.6599999999999,-51.239899999999999,-2249.0300000000002,-717.63
6395.0,7143.7600000000002,8061.96,1149.1500000000001,5409.1099999999997,-59.387900000000002,-2093.2199999999998,-681.221
6396.0,7160.0,8274.4599999999991,1102.53,5224.75,-71.592299999999994,-1929.45,-636.86000000000001
6397.0,7055.4799999999996,4408.79,1921.0799999999999,8274.75,30.740600000000001,-2199.48,-1226.3800000000001
6398.0,7056.3299999999999,4757.5,1895.47,8043.2299999999996,46.559899999999999,-2418.5500000000002,-1132.25
6399.0,7064.04,5100.7600000000002,1821.3499999999999,7749.9899999999998,49.456899999999997,-2588.5599999999999,-1053.6600000000001
6400.0,7074.3000000000002,5507.1800000000003,1787.26,7487.79,43.785200000000003,-2707.9099999999999,-985.45899999999995
6401.0,7086.0799999999999,5880.9399999999996,1710.3299999999999,7180.6000000000004,32.647399999999998,-2776.9299999999998,-925.89499999999998
6402.0,7098.7700000000004,6287.2799999999997,1667.3800000000001,6910.6099999999997,17.421600000000002,-2798.23,-873.601
6403.0,7112.3699999999999,6647.8999999999996,1593.3499999999999,6614.5200000000004,1.90798,-2778.7399999999998,-824.76999999999998
6404.0,7133.4399999999996,7006.2799999999997,1516.3800000000001,6346.3199999999997,-8.45547,-2716.4299999999998,-774.00800000000004
6405.0,7160.8299999999999,7289.5600000000004,1383.1700000000001,6040.6499999999996,-31.837599999999998,-2618.5300000000002,-738.40599999999995
6406.0,7176.4099999999999,7595.1499999999996,1329.1400000000001,5802.9499999999998,-58.079900000000002,-2499.6700000000001,-707.31600000000003
6407.0,7183.9399999999996,7870.8299999999999,1278.5599999999999,5582.0,-70.304599999999994,-2356.3499999999999,-665.53200000000004
6408.0,7197.4499999999998,8134.0900000000001,1239.0,5384.3999999999996,-83.544799999999995,-2194.3899999999999,-630.52800000000002
6409.0,7214.3699999999999,8368.2700000000004,1201.5899999999999,5203.1300000000001,-99.002099999999999,-2023.4100000000001,-588.59699999999998
6410.0,7061.6099999999997,4207.6700000000001,2009.73,8295.7199999999993,78.9315,-2278.48,-1117.25
6411.0,7063.1999999999998,4587.0299999999997,1996.9100000000001,8065.6099999999997,86.469700000000003,-2510.0999999999999,-1023.9400000000001
6412.0,7072.7600000000002,4951.8100000000004,1922.5599999999999,7762.7200000000003,81.107200000000006,-2690.54,-947.73000000000002
6413.0,7085.8100000000004,5383.0,1888.55,7492.8400000000001,67.137500000000003,-2817.79,-883.19799999999998
6414.0,7100.9700000000003,5782.2700000000004,1811.1500000000001,7178.3900000000003,48.043799999999997,-2892.3099999999999,-828.11699999999996
6415.0,7117.25,6216.3999999999996,1769.4300000000001,6903.7700000000004,25.053599999999999,-2916.6500000000001,-780.63599999999997
6416.0,7133.8800000000001,6602.5500000000002,1696.8499999999999,6603.5,3.3462499999999999,-2897.4200000000001,-738.60900000000004
6417.0,7158.0600000000004,6984.6199999999999,1620.04,6329.7799999999997,-10.6988,-2833.6300000000001,-696.28599999999994
6418.0,7189.3299999999999,7289.1499999999996,1482.8800000000001,6016.4799999999996,-37.838099999999997,-2732.73,-667.28300000000002
6419.0,7210.75,7614.0799999999999,1423.04,5770.6400000000003,-69.221599999999995,-2609.4400000000001,-642.56399999999996
6420.0,7224.4300000000003,7906.21,1367.8299999999999,5540.46,-88.277699999999996,-2462.0799999999999,-606.78300000000002
6421.0,7241.1199999999999,8191.46,1334.72,5344.4200000000001,-107.983,-2295.6199999999999,-574.47699999999998
6422.0,7260.1700000000001,8439.7800000000007,1298.3499999999999,5159.79,-128.01300000000001,-2118.6999999999998,-535.29300000000001
6423.0,7057.7799999999997,4005.0500000000002,2134.6300000000001,8315.8999999999996,132.50899999999999,-2355.1199999999999,-995.80100000000004
6424.0,7060.0799999999999,4384.5,2103.0500000000002,8056.6999999999998,130.99299999999999,-2599.5900000000001,-904.00599999999997
6425.0,7071.3900000000003,4781.4099999999999,2037.96,7755.0100000000002,116.63500000000001,-2790.8000000000002,-830.91899999999998
6426.0,7086.8199999999997,5231.75,1997.01,7471.6000000000004,93.708299999999994,-2926.2600000000002,-770.67899999999997
6427.0,7104.8100000000004,5665.8299999999999,1927.24,7159.3100000000004,66.000699999999995,-3006.4200000000001,-720.79499999999996
6428.0,7124.9099999999999,6117.8800000000001,1874.97,6870.3500000000004,34.876300000000001,-3034.1300000000001,-678.63699999999994
6429.0,7142.7799999999997,6534.7600000000002,1807.48,6570.6000000000004,4.0084600000000004,-3014.79,-641.47900000000004
6430.0,7166.0200000000004,6936.8199999999997,1730.1199999999999,6290.2200000000003,-17.328900000000001,-2948.9299999999998,-605.86099999999999
6431.0,7202.1899999999996,7274.3999999999996,1599.8499999999999,5982.3000000000002,-47.425400000000003,-2846.0,-585.279
6432.0,7232.3299999999999,7613.3999999999996,1524.8299999999999,5721.7600000000002,-82.925299999999993,-2719.2800000000002,-568.88699999999994
6433.0,7252.04,7934.6700000000001,1476.5,5495.0299999999997,-107.93000000000001,-2567.6399999999999,-539.96000000000004
6434.0,7273.5900000000001,8229.6499999999996,1435.04,5287.0200000000004,-132.733,-2396.7199999999998,-512.39099999999996
6435.0,7296.3999999999996,8500.9200000000001,1406.97,5106.5799999999999,-157.21199999999999,-2214.5500000000002,-477.52699999999999
6436.0,7046.6300000000001,3730.98,2228.48,8264.5699999999997,191.74199999999999,-2428.79,-861.19600000000003
6437.0,7049.2299999999996,4153.1000000000004,2219.9000000000001,8019.1700000000001,180.392,-2686.4200000000001,-771.53899999999999
6438.0,7061.5799999999999,4564.2700000000004,2145.0100000000002,7700.9899999999998,156.20099999999999,-2888.6199999999999,-702.38099999999997
6439.0,7079.0900000000001,5051.9499999999998,2113.8899999999999,7422.6599999999999,123.673,-3032.8099999999999,-647.08799999999997
6440.0,7098.8199999999997,5503.6899999999996,2032.6800000000001,7095.1599999999999,86.385800000000003,-3118.6399999999999,-602.33699999999999
6441.0,7121.1599999999999,5996.3400000000001,1992.1199999999999,6815.6899999999996,46.1036,-3149.5999999999999,-565.30999999999995
6442.0,7146.4399999999996,6428.0699999999997,1905.9000000000001,6502.1800000000003,4.84185,-3132.0999999999999,-532.53599999999994
6443.0,7176.0100000000002,6861.5200000000004,1831.98,6227.6300000000001,-28.404299999999999,-3066.9499999999998,-504.76100000000002
6444.0,7212.2600000000002,7221.1599999999999,1702.45,5913.7299999999996,-61.796999999999997,-2962.02,-494.774
6445.0,7245.6499999999996,7600.79,1640.77,5663.2799999999997,-98.060500000000005,-2830.1399999999999,-487.60399999999998
6446.0,7271.1000000000004,7931.1099999999997,1577.55,5419.5200000000004,-128.43899999999999,-2673.8299999999999,-466.529
6447.0,7296.3999999999996,8255.9899999999998,1548.1300000000001,5219.6400000000003,-157.982,-2498.1599999999999,-444.51400000000001
6448.0,7322.3900000000003,8530.4400000000005,1508.5799999999999,5023.1000000000004,-186.83199999999999,-2310.5999999999999,-414.774
6449.0,7031.5799999999999,3452.1900000000001,2361.1399999999999,8207.0799999999999,257.24000000000001,-2498.8000000000002,-713.04899999999998
6450.0,7033.9300000000003,3880.1100000000001,2337.8000000000002,7939.2600000000002,235.29599999999999,-2769.9200000000001,-626.31100000000004
6451.0,7046.3000000000002,4322.46,2268.4400000000001,7621.7600000000002,200.33500000000001,-2983.4000000000001,-561.78700000000003
6452.0,7064.4899999999998,4836.7799999999997,2235.79,7338.3199999999997,157.63,-3136.6199999999999,-512.505
6453.0,7086.6199999999999,5321.6899999999996,2154.5599999999999,7011.8900000000003,110.34399999999999,-3228.6999999999998,-472.38299999999998
6454.0,7113.9700000000003,5832.4700000000003,2098.4899999999998,6722.79,58.257899999999999,-3263.77,-440.45499999999998
6455.0,7150.1800000000003,6288.4099999999999,1999.96,6406.0900000000001,8.8067799999999998,-3250.1199999999999,-418.57499999999999
6456.0,7188.8800000000001,6754.1899999999996,1923.96,6130.9700000000003,-32.712600000000002,-3187.2600000000002,-404.88900000000001
6457.0,7221.04,7153.0100000000002,1813.46,5826.29,-73.176900000000003,-3079.73,-402.565
6458.0,7250.7200000000003,7558.0,1755.0599999999999,5575.6099999999997,-112.877,-2941.3099999999999,-400.19600000000003
6459.0,7280.3400000000001,7915.1099999999997,1693.98,5333.4799999999996,-148.429,-2779.77,-387.00900000000001
6460.0,7309.5,8255.2000000000007,1660.8199999999999,5126.7299999999996,-183.011,-2599.4899999999998,-371.20100000000002
6461.0,7338.4099999999999,8549.4200000000001,1626.0599999999999,4930.7399999999998,-216.28200000000001,-2406.6799999999998,-347.04399999999998
6462.0,7017.8900000000003,3101.25,2468.1599999999999,8074.8800000000001,329.38900000000001,-2564.48,-550.48900000000003
6463.0,7018.7700000000004,3569.3299999999999,2463.6199999999999,7819.9300000000003,295.99099999999999,-2849.23,-467.56400000000002
6464.0,7029.9099999999999,4033.5500000000002,2388.9299999999998,7494.4399999999996,249.49700000000001,-3074.5100000000002,-408.55599999999998
6465.0,7046.25,4583.3000000000002,2362.3299999999999,7215.04,195.41800000000001,-3236.8800000000001,-364.82100000000003
6466.0,7070.0699999999997,5091.5600000000004,2268.5,6882.3199999999997,138.28999999999999,-3335.0999999999999,-330.59699999999998
6467.0,7105.8999999999996,5633.3299999999999,2204.0500000000002,6597.3400000000001,74.980900000000005,-3376.0,-310.73399999999998
6468.0,7145.71,6117.6400000000003,2102.9299999999998,6277.4399999999996,18.3081,-3366.3400000000001,-304.649
6469.0,7181.6499999999996,6622.4200000000001,2036.5899999999999,6004.6499999999996,-28.769200000000001,-3302.6300000000001,-301.74799999999999
6470.0,7214.6499999999996,7051.1099999999997,1926.8599999999999,5701.8000000000002,-79.452699999999993,-3193.25,-304.03699999999998
6471.0,7247.3299999999999,7493.7299999999996,1878.79,5467.1199999999999,-127.078,-3051.6900000000001,-306.38099999999997
6472.0,7280.3100000000004,7868.0500000000002,1809.6400000000001,5218.6199999999999,-168.02199999999999,-2885.25,-300.964
6473.0,7312.96,8234.1700000000001,1782.3099999999999,5015.7700000000004,-207.767,-2700.25,-292.12700000000001
6474.0,7344.5200000000004,8537.6000000000004,1741.6500000000001,4809.8400000000001,-245.727,-2502.54,-273.92599999999999
6475.0,7012.3999999999996,2739.29,2614.2800000000002,7927.6099999999997,408.94400000000002,-2624.9699999999998,-373.18400000000003
6476.0,7009.9499999999998,3209.3499999999999,2588.98,7648.2799999999997,363.04000000000002,-2923.4899999999998,-294.96199999999999
6477.0,7017.5100000000002,3714.0700000000002,2527.0900000000001,7334.6199999999999,304.27800000000002,-3161.04,-242.53999999999999
6478.0,7031.8800000000001,4286.6400000000003,2489.1799999999998,7048.3299999999999,238.41900000000001,-3333.21,-203.44499999999999
6479.0,7054.4399999999996,4829.9700000000003,2392.3200000000002,6723.7299999999996,168.85599999999999,-3437.0900000000001,-177.06899999999999
6480.0,7088.6899999999996,5390.0500000000002,2313.77,6427.4300000000003,95.092799999999997,-3483.2600000000002,-175.28999999999999
6481.0,7125.6000000000004,5923.4200000000001,2231.9400000000001,6120.6199999999999,31.305,-3477.4499999999998,-182.02500000000001
6482.0,7159.8199999999997,6460.5299999999997,2163.52,5849.5900000000001,-24.913,-3413.0900000000001,-183.75700000000001
6483.0,7197.6700000000001,6932.3599999999997,2061.4200000000001,5564.8800000000001,-85.228499999999997,-3303.3400000000001,-194.40299999999999
6484.0,7236.2200000000003,7393.3400000000001,1999.75,5323.6899999999996,-139.852,-3160.46,-206.01900000000001
6485.0,7272.2299999999996,7805.5200000000004,1942.01,5090.2200000000003,-186.71100000000001,-2989.8600000000001,-208.55500000000001
6486.0,7307.5799999999999,8180.1400000000003,1902.1099999999999,4874.4300000000003,-231.755,-2800.1599999999999,-207.25700000000001
6487.0,7341.4399999999996,8512.25,1874.55,4677.8299999999999,-274.54500000000002,-2597.8099999999999,-195.43799999999999
6488.0,7024.2799999999997,2294.1599999999999,2730.6900000000001,7691.7200000000003,496.34300000000002,-2679.29,-180.39400000000001
6489.0,7015.9300000000003,2811.46,2728.6100000000001,7434.4300000000003,436.95999999999998,-2991.8600000000001,-107.949
6490.0,7016.29,3337.5,2659.6500000000001,7114.8400000000001,364.90899999999999,-3241.8699999999999,-61.880499999999998
6491.0,7026.9200000000001,3948.5300000000002,2621.9000000000001,6840.6700000000001,287.68900000000002,-3423.7199999999998,-28.9068
6492.0,7046.6499999999996,4507.0299999999997,2497.4099999999999,6504.5900000000001,203.08699999999999,-3534.96,-14.8558
6493.0,7071.5900000000001,5116.5,2440.9200000000001,6226.3400000000001,115.03,-3587.2600000000002,-28.3323
6494.0,7101.6400000000003,5692.3000000000002,2369.9200000000001,5928.7299999999996,44.4542,-3584.3200000000002,-43.448099999999997
6495.0,7138.2299999999996,6276.4899999999998,2305.3600000000001,5677.2799999999997,-20.453099999999999,-3521.1199999999999,-54.443399999999997
6496.0,7178.5900000000001,6767.8299999999999,2186.7800000000002,5385.7299999999996,-89.745599999999996,-3412.0100000000002,-77.231800000000007
6497.0,7218.4700000000003,7274.2700000000004,2138.6799999999998,5163.6800000000003,-150.95099999999999,-3266.9699999999998,-98.270899999999997
6498.0,7257.0699999999997,7700.4799999999996,2066.6100000000001,4921.75,-204.36600000000001,-3092.8400000000001,-109.54900000000001
6499.0,7294.4300000000003,8108.75,2038.48,4718.7299999999996,-254.92599999999999,-2898.9099999999999,-116.20999999999999
6500.0,7329.9399999999996,8445.2399999999998,1999.24,4507.4499999999998,-302.74000000000001,-2692.0799999999999,-111.24299999999999
6501.0,7064.8199999999997,1831.5,2886.4499999999998,7430.7200000000003,592.25199999999995,-2726.4000000000001,28.165600000000001
6502.0,7047.1199999999999,2356.6500000000001,2867.7199999999998,7158.0200000000004,518.46699999999998,-3053.3400000000001,93.755600000000001
6503.0,7038.1300000000001,2921.1599999999999,2804.8400000000001,6852.6999999999998,432.59100000000001,-3316.2399999999998,133.85300000000001
6504.0,7039.6300000000001,3553.8000000000002,2747.7600000000002,6577.0600000000004,342.18200000000002,-3507.3400000000001,157.24700000000001
6505.0,7049.71,4150.1499999999996,2619.9699999999998,6250.1800000000003,242.96299999999999,-3627.9299999999998,153.518
6506.0,7065.8199999999997,4800.4399999999996,2569.8499999999999,5979.5500000000002,140.09,-3688.7800000000002,128.69399999999999
6507.0,7086.5200000000004,5423.8500000000004,2511.4200000000001,5702.4499999999998,58.352499999999999,-3687.9200000000001,108.197
6508.0,7116.8699999999999,6041.29,2441.21,5458.1899999999996,-14.7598,-3625.2199999999998,83.943399999999997
6509.0,7156.3199999999997,6579.1800000000003,2331.0300000000002,5184.21,-91.533500000000004,-3517.3099999999999,47.747900000000001
6510.0,7196.8500000000004,7113.5100000000002,2275.0500000000002,4964.7299999999996,-160.18700000000001,-3370.7399999999998,17.121600000000001
6511.0,7236.7600000000002,7575.2299999999996,2208.4499999999998,4736.0900000000001,-220.44499999999999,-3193.6799999999998,-3.91486
6512.0,7275.1999999999998,7998.8500000000004,2172.6700000000001,4527.8000000000002,-276.73700000000002,-2996.0,-18.9788
6513.0,7311.6899999999996,8360.2900000000009,2141.75,4322.8400000000001,-329.74599999999998,-2785.02,-21.357600000000001
6514.0,7148.1000000000004,1285.72,3019.48,7077.0100000000002,697.245,-2765.27,253.23400000000001
6515.0,7116.4300000000003,1852.0599999999999,3017.2800000000002,6824.7200000000003,607.95500000000004,-3106.6399999999999,311.06200000000001
6516.0,7093.1099999999997,2447.4200000000001,2949.3800000000001,6529.2600000000002,508.94099999999997,-3382.25,342.42200000000003
6517.0,7077.1899999999996,3108.5799999999999,2877.6500000000001,6259.3599999999997,402.90899999999999,-3583.3299999999999,351.39400000000001
6518.0,7068.4799999999996,3743.5100000000002,2753.3499999999999,5942.4099999999999,288.47500000000002,-3714.5500000000002,330.27699999999999
6519.0,7073.1099999999997,4440.6199999999999,2707.4099999999999,5686.6400000000003,174.01300000000001,-3784.0599999999999,296.89600000000002
6520.0,7086.4799999999996,5108.1999999999998,2646.5700000000002,5429.46,76.588899999999995,-3787.27,268.78899999999999
6521.0,7105.8599999999997,5765.4399999999996,2580.6199999999999,5201.4399999999996,-8.7177500000000006,-3726.8400000000001,230.917
6522.0,7136.9700000000003,6348.0699999999997,2477.6900000000001,4943.6400000000003,-91.514899999999997,-3619.1700000000001,182.018
6523.0,7174.9399999999996,6920.54,2421.02,4736.8599999999997,-167.27600000000001,-3471.23,140.15000000000001
6524.0,7214.1300000000001,7410.8900000000003,2351.48,4514.8299999999999,-234.75200000000001,-3291.9299999999998,108.702
6525.0,7252.1700000000001,7858.9700000000003,2315.8899999999999,4310.8400000000001,-296.98000000000002,-3090.8699999999999,84.700199999999995
6526.0,7288.5799999999999,8237.6000000000004,2285.27,4104.96,-355.435,-2876.1999999999998,74.6096
6527.0,7290.6199999999999,710.96100000000001,3188.0900000000001,6682.7799999999997,812.27300000000002,-2794.8299999999999,494.85899999999998
6528.0,7239.3599999999997,1285.54,3168.0100000000002,6420.3199999999997,706.36599999999999,-3150.4000000000001,545.51400000000001
6529.0,7190.8599999999997,1922.8099999999999,3106.4899999999998,6148.2700000000004,592.45600000000002,-3436.96,566.70500000000004
6530.0,7146.7799999999997,2607.7800000000002,3017.21,5880.0600000000004,469.315,-3649.0999999999999,557.41600000000005
6531.0,7115.0200000000004,3300.52,2913.8099999999999,5594.5799999999999,339.40699999999998,-3793.2399999999998,520.45600000000002
6532.0,7102.3999999999996,4037.0500000000002,2858.6399999999999,5351.3599999999997,214.99799999999999,-3871.1199999999999,477.47000000000003
6533.0,7103.4300000000003,4748.3400000000001,2787.4200000000001,5112.1499999999996,102.992,-3880.25,434.66899999999998
6534.0,7110.1999999999998,5444.7600000000002,2721.02,4897.8599999999997,3.2114199999999999,-3824.8299999999999,382.40699999999998
6535.0,7127.5100000000002,6083.5299999999997,2636.7399999999998,4671.6400000000003,-88.218100000000007,-3717.3400000000001,323.94600000000003
6536.0,7157.1300000000001,6683.9700000000003,2568.4899999999998,4469.1999999999998,-171.797,-3567.8299999999999,270.92599999999999
6537.0,7192.8199999999997,7216.3599999999997,2507.4699999999998,4267.3400000000001,-246.73699999999999,-3386.9299999999998,228.345
6538.0,7228.5600000000004,7679.6400000000003,2461.4899999999998,4059.02,-315.17099999999999,-3183.0300000000002,194.91
6539.0,7263.71,8086.3500000000004,2441.4699999999998,3863.48,-379.221,-2965.1700000000001,176.642
6540.0,7510.1700000000001,48.718400000000003,3338.6399999999999,6187.3500000000004,937.98900000000003,-2813.5999999999999,753.529
6541.0,7434.6999999999998,658.69000000000005,3322.1999999999998,5946.5299999999997,815.36400000000003,-3183.2199999999998,797.97000000000003
6542.0,7352.6400000000003,1326.4300000000001,3251.1500000000001,5691.9300000000003,680.87,-3480.9499999999998,808.23699999999997
6543.0,7271.1999999999998,2048.4000000000001,3163.5999999999999,5441.5699999999997,538.47799999999995,-3706.1799999999998,778.88599999999997
6544.0,7207.3400000000001,2799.8499999999999,3079.0100000000002,5188.3900000000003,395.904,-3863.4099999999999,726.06200000000001
6545.0,7165.5100000000002,3581.3299999999999,3018.3600000000001,4964.9899999999998,260.93000000000001,-3949.0500000000002,669.50400000000002
6546.0,7141.0699999999997,4344.9099999999999,2948.04,4751.0200000000004,136.33699999999999,-3964.1399999999999,608.97400000000005
6547.0,7129.5299999999997,5080.29,2874.5799999999999,4549.0,22.4009,-3914.4899999999998,542.62099999999998
6548.0,7132.0299999999997,5771.4899999999998,2798.8600000000001,4353.75,-80.562299999999993,-3809.6300000000001,474.19400000000002
6549.0,7149.4700000000003,6408.1599999999999,2724.9000000000001,4166.3100000000004,-173.26400000000001,-3660.0100000000002,409.44999999999999
6550.0,7177.6599999999999,6979.1000000000004,2666.9400000000001,3981.8099999999999,-256.01799999999997,-3478.02,355.27600000000001
6551.0,7208.6099999999997,7463.3599999999997,2614.9899999999998,3775.48,-330.959,-3271.9400000000001,311.86599999999999
6552.0,7240.8000000000002,7894.6999999999998,2601.6100000000001,3587.5,-400.82600000000002,-3051.4000000000001,285.053
6553.0,7825.3400000000001,-657.53800000000001,3517.8699999999999,5631.3699999999999,1075.2,-2819.6399999999999,1031.3299999999999
6554.0,7717.1400000000003,-35.256599999999999,3477.4699999999998,5395.7700000000004,935.85199999999998,-3202.1999999999998,1065.6500000000001
6555.0,7591.6400000000003,663.11099999999999,3392.6599999999999,5161.8699999999999,778.32299999999998,-3514.6300000000001,1056.45
6556.0,7467.1300000000001,1433.77,3320.79,4942.0600000000004,615.33399999999995,-3756.0300000000002,1008.33
6557.0,7360.2299999999996,2245.04,3254.2600000000002,4725.2399999999998,460.19600000000003,-3924.21,943.82399999999996
6558.0,7276.8100000000004,3078.3200000000002,3194.1799999999998,4530.8699999999999,311.56200000000001,-4017.3600000000001,873.34500000000003
6559.0,7216.7299999999996,3886.02,3117.4400000000001,4336.4399999999996,173.24299999999999,-4039.25,796.81600000000003
6560.0,7177.4700000000003,4675.8299999999999,3047.46,4164.1899999999996,46.1004,-3995.5599999999999,715.52300000000002
6561.0,7158.9799999999996,5411.4499999999998,2967.1799999999998,3991.5300000000002,-68.551199999999994,-3894.9699999999998,633.62699999999995
6562.0,7158.9899999999998,6091.4899999999998,2891.9699999999998,3826.8299999999999,-171.07499999999999,-3746.8499999999999,555.85900000000004
6563.0,7174.9099999999999,6696.8100000000004,2830.6799999999998,3656.5500000000002,-262.01999999999998,-3564.5700000000002,489.505
6564.0,7197.6999999999998,7210.1599999999999,2779.5900000000001,3460.9899999999998,-343.77600000000001,-3356.9699999999998,435.64600000000002
6565.0,7224.8199999999997,7659.5600000000004,2765.6199999999999,3274.6999999999998,-419.55799999999999,-3134.3200000000002,399.80399999999997
6566.0,8254.1200000000008,-1464.6700000000001,3667.6300000000001,4957.4399999999996,1225.03,-2811.0100000000002,1329.0599999999999
6567.0,8100.25,-801.43899999999996,3633.9899999999998,4761.2399999999998,1064.75,-3205.5700000000002,1346.9100000000001
6568.0,7919.2700000000004,-72.431600000000003,3544.25,4546.1000000000004,886.26199999999994,-3534.7800000000002,1312.3900000000001
6569.0,7744.6000000000004,761.06299999999999,3495.8499999999999,4371.3400000000001,704.63400000000001,-3793.4200000000001,1248.9300000000001
6570.0,7586.8599999999997,1622.6500000000001,3430.8000000000002,4189.6099999999997,532.88699999999994,-3972.9899999999998,1174.3699999999999
6571.0,7452.3800000000001,2515.9099999999999,3376.8899999999999,4037.0799999999999,368.40100000000001,-4075.46,1088.8900000000001
6572.0,7347.25,3374.6300000000001,3296.9099999999999,3871.9099999999999,215.24199999999999,-4105.8599999999997,996.125
6573.0,7269.2799999999997,4218.8800000000001,3227.8200000000002,3731.8499999999999,74.642399999999995,-4068.7399999999998,899.08699999999999
6574.0,7219.3599999999997,4997.2600000000002,3138.8600000000001,3579.9899999999998,-51.8825,-3972.9200000000001,802.16099999999994
6575.0,7194.3900000000003,5728.6999999999998,3067.8499999999999,3446.2800000000002,-164.67599999999999,-3827.4400000000001,710.32899999999995
6576.0,7192.21,6366.3599999999997,2998.9299999999998,3289.1100000000001,-264.28699999999998,-3645.8400000000001,631.19000000000005
6577.0,7202.6800000000003,6914.0799999999999,2952.4899999999998,3110.4299999999998,-353.20299999999997,-3437.46,566.42399999999998
6578.0,7222.0699999999997,7378.5100000000002,2934.3699999999999,2923.5799999999999,-435.12900000000002,-3213.3699999999999,521.12199999999996
6579.0,8806.7999999999993,-2321.8099999999999,3841.0999999999999,4214.1400000000003,1388.8399999999999,-2785.6300000000001,1640.5599999999999
6580.0,8597.5200000000004,-1649.0699999999999,3786.7600000000002,4028.77,1202.4100000000001,-3194.4899999999998,1637.4200000000001
6581.0,8358.2399999999998,-863.12099999999998,3726.27,3862.0500000000002,1003.37,-3540.8299999999999,1583.5999999999999
6582.0,8122.5900000000001,23.849,3684.8600000000001,3727.8899999999999,805.16999999999996,-3814.79,1506.79
6583.0,7902.5900000000001,946.29600000000005,3625.75,3596.1599999999999,614.48599999999999,-4007.9200000000001,1417.3699999999999
6584.0,7707.0500000000002,1888.1800000000001,3565.0300000000002,3477.3400000000001,432.96899999999999,-4122.0200000000004,1315.3800000000001
6585.0,7544.9799999999996,2804.3299999999999,3485.1300000000001,3350.3400000000001,264.19499999999999,-4161.9799999999996,1205.72
6586.0,7417.1300000000001,3700.1500000000001,3411.0599999999999,3241.4499999999998,109.376,-4132.7200000000003,1092.1600000000001
6587.0,7325.0299999999997,4536.7200000000003,3325.5799999999999,3127.1900000000001,-29.690899999999999,-4042.6399999999999,979.471
6588.0,7266.0299999999997,5309.7299999999996,3246.0300000000002,3015.3899999999999,-153.42400000000001,-3900.9000000000001,872.85199999999998
6589.0,7238.6899999999996,5992.9099999999999,3180.3000000000002,2885.3800000000001,-262.15699999999998,-3721.0300000000002,780.37800000000004
6590.0,7231.7799999999997,6565.5600000000004,3127.5500000000002,2715.0900000000001,-358.51900000000001,-3512.6999999999998,704.19399999999996
6591.0,7240.3299999999999,7056.4899999999998,3116.0900000000001,2540.0,-446.77699999999999,-3287.9099999999999,649.06299999999999
6592.0,9490.9400000000005,-3284.2600000000002,3994.6799999999998,3337.8800000000001,1566.5999999999999,-2741.04,1961.45
6593.0,9222.1900000000005,-2562.8899999999999,3962.21,3205.8499999999999,1353.53,-3166.7600000000002,1936.8099999999999
6594.0,8922.8999999999996,-1727.9200000000001,3917.1199999999999,3089.04,1132.97,-3530.98,1869.5999999999999
6595.0,8616.5400000000009,-779.65899999999999,3886.6100000000001,3012.8000000000002,915.92700000000002,-3819.6100000000001,1779.46
6596.0,8322.3799999999992,191.03100000000001,3819.4699999999998,2920.7800000000002,705.755,-4027.6300000000001,1672.3299999999999
6597.0,8055.0799999999999,1196.3499999999999,3763.8800000000001,2852.7399999999998,506.17000000000002,-4155.3199999999997,1552.7
6598.0,7824.5,2169.1599999999999,3680.3800000000001,2766.0900000000001,320.94299999999998,-4206.3500000000004,1425.4400000000001
6599.0,7634.79,3125.1399999999999,3606.6100000000001,2698.8200000000002,151.07499999999999,-4186.25,1294.6800000000001
6600.0,7488.9799999999996,4011.6999999999998,3513.1700000000001,2615.52,-1.2939000000000001,-4103.1499999999996,1165.55
6601.0,7385.6700000000001,4840.0200000000004,3435.71,2540.3800000000001,-136.61600000000001,-3966.3099999999999,1043.4200000000001
6602.0,7324.9799999999996,5562.1400000000003,3364.0700000000002,2431.9000000000001,-254.98400000000001,-3789.3000000000002,937.10299999999995
6603.0,7294.8299999999999,6170.46,3314.1300000000001,2281.7199999999998,-359.14600000000002,-3581.96,849.08000000000004
6604.0,7288.7700000000004,6679.3500000000004,3300.2199999999998,2110.9099999999999,-453.935,-3357.25,783.76199999999994
6605.0,10321.200000000001,-4297.5799999999999,4193.0600000000004,2378.2199999999998,1756.55,-2674.1599999999999,2297.9400000000001
6606.0,9990.9899999999998,-3551.4099999999999,4158.9099999999999,2284.1700000000001,1518.96,-3117.6999999999998,2253.0799999999999
6607.0,9622.3899999999994,-2663.75,4124.0299999999997,2229.3499999999999,1276.8599999999999,-3500.4299999999998,2170.8000000000002
6608.0,9236.2800000000007,-1661.48,4094.2800000000002,2211.4299999999998,1038.1300000000001,-3806.0500000000002,2064.0700000000002
6609.0,8859.1700000000001,-632.35000000000002,4027.8000000000002,2174.1300000000001,807.73500000000001,-4030.73,1938.4300000000001
6610.0,8509.3799999999992,434.75,3972.1300000000001,2157.9899999999998,589.12300000000005,-4173.6599999999999,1800.3
6611.0,8199.6000000000004,1464.54,3882.2600000000002,2114.8099999999999,386.46300000000002,-4237.6599999999999,1654.8900000000001
6612.0,7936.1099999999997,2485.1700000000001,3809.6599999999999,2095.7800000000002,200.672,-4228.1599999999999,1506.3599999999999
6613.0,7724.7700000000004,3428.1599999999999,3711.3899999999999,2051.4299999999998,34.2057,-4153.4499999999998,1360.1199999999999
6614.0,7566.1300000000001,4312.5699999999997,3633.6300000000001,2014.99,-113.43000000000001,-4022.7600000000002,1222.02
6615.0,7462.8999999999996,5075.9799999999996,3555.8200000000002,1931.49,-241.97800000000001,-3849.7600000000002,1101.3
6616.0,7402.9099999999999,5721.3800000000001,3508.48,1803.95,-354.31599999999997,-3644.4299999999998,1001.11
6617.0,7378.0200000000004,6248.8299999999999,3492.0799999999999,1639.1600000000001,-455.81400000000002,-3420.6799999999998,925.15800000000002
6618.0,11308.0,-5424.8100000000004,4372.7700000000004,1276.0899999999999,1956.73,-2583.9099999999999,2652.7800000000002
6619.0,10912.4,-4614.3900000000003,4375.4799999999996,1268.04,1698.1300000000001,-3045.3800000000001,2586.4299999999998
6620.0,10464.1,-3683.9899999999998,4337.1300000000001,1271.47,1434.48,-3446.6599999999999,2485.9099999999999
6621.0,9990.4899999999998,-2620.8099999999999,4314.1800000000003,1324.3499999999999,1172.95,-3771.73,2359.8000000000002
6622.0,9522.75,-1539.03,4239.9099999999999,1340.8599999999999,921.46400000000006,-4015.4099999999999,2214.9200000000001
6623.0,9081.2900000000009,-402.24400000000003,4188.7799999999997,1388.3900000000001,682.86300000000006,-4175.5100000000002,2057.7800000000002
6624.0,8682.3400000000001,688.27999999999997,4092.75,1394.74,461.81900000000002,-4254.46,1893.6500000000001
6625.0,8334.0400000000009,1778.0799999999999,4022.3600000000001,1430.6500000000001,259.21600000000001,-4257.1999999999998,1726.8699999999999
6626.0,8045.6199999999999,2776.3000000000002,3914.4400000000001,1425.71,77.713399999999993,-4192.3699999999999,1563.0599999999999
6627.0,7820.4799999999996,3722.77,3839.02,1435.4000000000001,-82.997799999999998,-4069.23,1408.52
6628.0,7665.0299999999997,4529.5600000000004,3754.4400000000001,1380.2,-222.39400000000001,-3901.4899999999998,1272.95
6629.0,7568.0900000000001,5214.5799999999999,3710.54,1279.0899999999999,-343.22800000000001,-3699.2399999999998,1160.24
6630.0,7519.8199999999997,5760.29,3690.8299999999999,1121.29,-451.71600000000001,-3477.3899999999999,1073.3199999999999
6631.0,12451.200000000001,-6604.8100000000004,4595.9099999999999,85.908699999999996,2170.71,-2469.8200000000002,3017.4099999999999
6632.0,11988.799999999999,-5775.7200000000003,4591.9499999999998,129.17599999999999,1892.74,-2946.8899999999999,2932.27
6633.0,11452.6,-4779.1499999999996,4571.3999999999996,223.941,1606.5,-3367.2199999999998,2812.0799999999999
6634.0,10885.5,-3675.4699999999998,4533.6199999999999,334.36000000000001,1321.5699999999999,-3714.3699999999999,2665.3899999999999
6635.0,10320.1,-2516.3800000000001,4472.9700000000003,434.33600000000001,1048.1600000000001,-3979.6900000000001,2500.6999999999998
6636.0,9779.5100000000002,-1325.28,4407.9099999999999,533.57500000000005,788.76099999999997,-4159.3800000000001,2324.0500000000002
6637.0,9282.6200000000008,-155.79499999999999,4320.0799999999999,610.38900000000001,548.31200000000001,-4255.2799999999997,2141.0
6638.0,8839.8400000000001,990.00199999999995,4234.6400000000003,690.22199999999998,327.80399999999997,-4272.21,1955.73
6639.0,8463.6700000000001,2065.6999999999998,4135.6599999999999,748.76199999999994,130.24799999999999,-4218.8400000000001,1774.0599999999999
6640.0,8161.21,3060.9099999999999,4046.0700000000002,792.69399999999996,-44.330399999999997,-4104.6400000000003,1602.6400000000001
6641.0,7943.9200000000001,3927.5,3968.4499999999998,783.68100000000004,-195.21700000000001,-3943.48,1451.9300000000001
6642.0,7802.79,4638.9700000000003,3913.0700000000002,697.21000000000004,-324.95800000000003,-3745.4899999999998,1326.3299999999999
6643.0,7726.5600000000004,5218.5699999999997,3905.0300000000002,563.41099999999994,-440.66300000000001,-3526.5799999999999,1228.24
6644.0,13759.4,-7910.04,4800.8699999999999,-1278.0699999999999,2403.9400000000001,-2323.54,3392.8899999999999
6645.0,13222.4,-7017.5,4830.6400000000003,-1118.0599999999999,2103.3600000000001,-2817.0300000000002,3289.8000000000002
6646.0,12591.9,-5979.2200000000003,4803.1599999999999,-942.89499999999998,1793.6300000000001,-3258.71,3147.8699999999999
6647.0,11925.299999999999,-4809.9399999999996,4773.3299999999999,-742.19500000000005,1485.01,-3631.3299999999999,2979.54
6648.0,11256.200000000001,-3590.6500000000001,4706.0699999999997,-570.35299999999995,1189.0999999999999,-3921.4099999999999,2794.6199999999999
6649.0,10610.1,-2326.4699999999998,4641.3100000000004,-396.721,907.89800000000002,-4123.8199999999997,2598.4400000000001
6650.0,10008.0,-1088.2,4547.3199999999997,-257.43799999999999,646.99199999999996,-4239.0799999999999,2396.3800000000001
6651.0,9462.4400000000005,134.50899999999999,4464.3199999999997,-111.307,407.68599999999998,-4271.8900000000003,2192.4099999999999
6652.0,8989.1499999999996,1273.29,4356.21,-2.0039699999999998,193.06,-4231.5600000000004,1992.6800000000001
6653.0,8599.6599999999999,2334.8299999999999,4266.4200000000001,95.611599999999996,3.5970599999999999,-4127.9099999999999,1804.1400000000001
6654.0,8311.4899999999998,3251.6399999999999,4183.3500000000004,124.765,-159.54599999999999,-3974.7600000000002,1638.05
6655.0,8119.1999999999998,4004.8899999999999,4130.2200000000003,69.799000000000007,-298.64299999999997,-3782.2199999999998,1499.3599999999999
6656.0,8010.5299999999997,4604.54,4119.6599999999999,-52.185200000000002,-421.786,-3567.3400000000001,1389.8399999999999
6657.0,15240.9,-9264.1900000000005,5067.2799999999997,-2737.21,2654.4699999999998,-2136.1999999999998,3786.1599999999999
6658.0,14616.799999999999,-8368.7199999999993,5069.79,-2504.0,2330.21,-2649.02,3657.5500000000002
6659.0,13885.799999999999,-7262.0900000000001,5062.1800000000003,-2206.6199999999999,1996.8699999999999,-3116.8299999999999,3491.4099999999999
6660.0,13112.5,-6050.75,5012.8400000000001,-1929.46,1664.46,-3519.2199999999998,3300.4899999999998
6661.0,12334.299999999999,-4749.3699999999999,4956.6599999999999,-1658.0899999999999,1345.5699999999999,-3838.71,3094.98
6662.0,11577.1,-3418.7399999999998,4881.75,-1414.6600000000001,1042.1700000000001,-4067.0500000000002,2879.1500000000001
6663.0,10863.799999999999,-2094.0799999999999,4794.6300000000001,-1193.3399999999999,759.84199999999998,-4204.2799999999997,2658.3899999999999
6664.0,10208.4,-809.72799999999995,4693.3900000000003,-994.178,500.24299999999999,-4255.3100000000004,2436.1599999999999
6665.0,9630.25,412.42399999999998,4592.3999999999996,-812.20600000000002,267.23399999999998,-4229.75,2218.4400000000001
6666.0,9145.2999999999993,1531.99,4491.1999999999998,-667.66300000000001,61.9482,-4137.9399999999996,2012.6800000000001
6667.0,8778.0400000000009,2510.7800000000002,4412.0200000000004,-586.67700000000002,-114.19199999999999,-3994.1199999999999,1831.02
6668.0,8528.3299999999999,3295.5500000000002,4349.2700000000004,-618.59799999999996,-263.15100000000001,-3808.3800000000001,1679.0899999999999
6669.0,8383.2399999999998,3928.27,4348.5500000000002,-714.04600000000005,-393.91899999999998,-3598.7399999999998,1557.9300000000001
6670.0,16902.200000000001,-10772.700000000001,5300.25,-4398.3299999999999,2919.9400000000001,-1898.3800000000001,4194.3699999999999
6671.0,16176.0,-9815.2099999999991,5331.1199999999999,-4011.1399999999999,2572.1999999999998,-2435.8699999999999,4034.27
6672.0,15337.0,-8671.8600000000006,5311.2700000000004,-3607.4400000000001,2216.5799999999999,-2936.1999999999998,3840.9699999999998
6673.0,14449.799999999999,-7380.1400000000003,5277.3199999999997,-3205.9200000000001,1860.97,-3374.5700000000002,3626.0300000000002
6674.0,13556.1,-6011.6999999999998,5212.1800000000003,-2844.54,1519.24,-3728.96,3399.54
6675.0,12682.0,-4601.96,5132.0600000000004,-2514.8299999999999,1192.5999999999999,-3988.46,3164.96
6676.0,11852.6,-3202.4499999999998,5034.4300000000003,-2223.1999999999998,887.77599999999995,-4151.0600000000004,2926.1900000000001
6677.0,11082.299999999999,-1824.24,4944.0200000000004,-1939.6700000000001,607.15099999999995,-4221.6300000000001,2685.8800000000001
6678.0,10392.799999999999,-535.10299999999995,4830.29,-1700.2,354.60300000000001,-4211.9499999999998,2450.52
6679.0,9805.3299999999999,656.83199999999999,4728.46,-1492.03,132.03,-4133.5100000000002,2227.8000000000002
6680.0,9352.1299999999992,1688.5999999999999,4641.5900000000001,-1366.03,-58.070799999999998,-4000.5,2030.52
6681.0,9039.6900000000005,2520.8099999999999,4583.7399999999998,-1356.9100000000001,-217.34200000000001,-3822.9299999999998,1865.3
6682.0,8854.7700000000004,3171.2800000000002,4577.3400000000001,-1439.0899999999999,-355.99900000000002,-3619.7800000000002,1732.3699999999999
6683.0,18751.599999999999,-12348.0,5594.7299999999996,-6180.2200000000003,3196.73,-1599.6300000000001,4617.8299999999999
6684.0,17913.900000000001,-11391.9,5599.0,-5674.9099999999999,2829.5100000000002,-2165.79,4418.8199999999997
6685.0,16952.0,-10171.200000000001,5601.1400000000003,-5104.21,2453.3299999999999,-2709.0300000000002,4194.1499999999996
6686.0,15939.0,-8833.5699999999997,5539.75,-4599.4499999999998,2075.4400000000001,-3192.6799999999998,3953.3899999999999
6687.0,14922.4,-7377.8100000000004,5478.2399999999998,-4122.4300000000003,1711.1700000000001,-3590.4699999999998,3705.6900000000001
6688.0,13927.4,-5873.6599999999999,5403.4499999999998,-3693.71,1362.21,-3886.3699999999999,3452.1900000000001
6689.0,12977.1,-4380.9499999999998,5306.4700000000003,-3314.3699999999999,1034.3800000000001,-4077.8099999999999,3196.8299999999999
6690.0,12086.200000000001,-2937.5900000000001,5189.3199999999997,-2974.4000000000001,730.12099999999998,-4170.79,2940.7600000000002
6691.0,11280.200000000001,-1562.22,5077.5900000000001,-2657.8699999999999,456.01299999999998,-4178.1599999999999,2688.6300000000001
6692.0,10584.700000000001,-298.88400000000001,4972.6700000000001,-2385.46,215.14500000000001,-4113.5,2448.9699999999998
6693.0,10040.0,792.90999999999997,4883.7200000000003,-2204.4899999999998,10.218500000000001,-3992.4899999999998,2236.1100000000001
6694.0,9660.6700000000001,1664.4000000000001,4821.4499999999998,-2159.9499999999998,-159.98699999999999,-3824.6300000000001,2057.6700000000001
6695.0,9433.25,2342.5,4818.9200000000001,-2216.7199999999998,-306.76100000000002,-3629.3800000000001,1912.8499999999999
6696.0,20823.799999999999,-14129.299999999999,5848.0100000000002,-8228.6700000000001,3482.2399999999998,-1211.8199999999999,5060.1499999999996
6697.0,19839.099999999999,-13108.9,5876.4899999999998,-7490.9300000000003,3097.77,-1826.0899999999999,4811.4499999999998
6698.0,18736.799999999999,-11836.799999999999,5868.1300000000001,-6758.8900000000003,2705.8899999999999,-2426.5999999999999,4549.3299999999999
6699.0,17584.599999999999,-10393.299999999999,5831.2200000000003,-6083.7600000000002,2308.2199999999998,-2968.3400000000001,4278.4899999999998
6700.0,16432.900000000001,-8843.0,5769.9700000000003,-5478.5299999999997,1923.74,-3419.4699999999998,4006.8800000000001
6701.0,15307.1,-7270.9399999999996,5657.6300000000001,-4972.8000000000002,1551.9000000000001,-3762.6399999999999,3736.8400000000001
6702.0,14233.6,-5680.3100000000004,5555.6099999999997,-4509.4200000000001,1200.4400000000001,-3988.9099999999999,3467.7800000000002
6703.0,13221.6,-4119.0699999999997,5462.46,-4070.3600000000001,873.01499999999999,-4103.4799999999996,3197.2600000000002
6704.0,12295.1,-2665.75,5341.8999999999996,-3685.5300000000002,575.351,-4126.4700000000003,2930.5999999999999
6705.0,11486.5,-1339.1400000000001,5222.8000000000002,-3352.1300000000001,313.041,-4076.3499999999999,2675.5799999999999
6706.0,10845.9,-185.86699999999999,5131.6999999999998,-3110.7800000000002,91.7988,-3968.79,2447.4000000000001
6707.0,10396.6,728.63,5068.3500000000004,-3024.0300000000002,-89.730599999999995,-3812.1799999999998,2255.77
6708.0,10124.9,1431.6500000000001,5067.1099999999997,-3055.46,-244.93199999999999,-3626.3600000000001,2099.1700000000001
6709.0,23141.400000000001,-16017.700000000001,6172.6199999999999,-10440.299999999999,3764.23,-712.62699999999995,5529.8100000000004
6710.0,21996.099999999999,-14988.799999999999,6191.8999999999996,-9481.6100000000006,3376.6300000000001,-1389.01,5213.1700000000001
6711.0,20713.700000000001,-13605.5,6210.3400000000001,-8495.8400000000001,2973.9699999999998,-2074.3099999999999,4902.1400000000003
6712.0,19392.0,-12105.700000000001,6120.9300000000003,-7688.1400000000003,2559.6999999999998,-2694.8899999999999,4596.9799999999996
6713.0,18089.799999999999,-10446.0,6060.6300000000001,-6939.3000000000002,2156.0900000000001,-3213.1599999999999,4298.8199999999997
6714.0,16831.599999999999,-8713.1499999999996,6001.7799999999997,-6275.2600000000002,1768.72,-3613.3499999999999,4006.1999999999998
6715.0,15630.200000000001,-7016.46,5885.54,-5729.5299999999997,1397.3,-3881.9099999999999,3729.4299999999998
6716.0,14487.799999999999,-5407.3299999999999,5722.9899999999998,-5264.0100000000002,1039.5999999999999,-4021.5900000000001,3455.6199999999999
6717.0,13435.700000000001,-3867.4499999999998,5594.3100000000004,-4804.3999999999996,712.79100000000005,-4059.3600000000001,3177.5900000000001
6718.0,12511.0,-2457.0500000000002,5484.5299999999997,-4387.4399999999996,427.32900000000001,-4020.96,2906.7600000000002
6719.0,11772.299999999999,-1248.01,5389.1000000000004,-4084.5700000000002,188.46799999999999,-3927.2800000000002,2663.71
6720.0,11251.200000000001,-291.11599999999999,5323.7600000000002,-3952.0799999999999,-5.3026600000000004,-3784.0999999999999,2459.3299999999999
6721.0,10934.1,435.30399999999997,5322.3800000000001,-3956.8699999999999,-169.161,-3609.5,2290.8699999999999
6722.0,25862.5,-18266.599999999999,6449.3699999999999,-13072.5,4031.5,-11.869,6072.5600000000004
6723.0,24426.599999999999,-17161.0,6458.7700000000004,-11715.6,3646.6799999999998,-822.46600000000001,5651.1999999999998
6724.0,22905.900000000001,-15648.0,6490.7700000000004,-10444.700000000001,3246.3299999999999,-1635.23,5261.04
6725.0,21373.0,-13952.6,6463.3900000000003,-9371.3799999999992,2825.4099999999999,-2365.6700000000001,4892.04
6726.0,19886.799999999999,-12137.200000000001,6414.6700000000001,-8442.0799999999999,2414.8499999999999,-2972.0300000000002,4554.0799999999999
6727.0,18470.799999999999,-10372.4,6248.6999999999998,-7738.6700000000001,2010.3199999999999,-3443.27,4244.8100000000004
6728.0,17136.200000000001,-8543.5699999999997,6128.4399999999996,-7092.2299999999996,1626.5,-3773.0100000000002,3955.04
6729.0,15872.799999999999,-6734.6700000000001,6026.4899999999998,-6499.3000000000002,1253.1600000000001,-3941.3600000000001,3684.73
6730.0,14698.700000000001,-5094.1899999999996,5899.8100000000004,-5968.5500000000002,886.01999999999998,-3975.0100000000002,3418.0999999999999
6731.0,13657.299999999999,-3662.5,5751.2200000000003,-5504.1899999999996,561.23699999999997,-3941.96,3141.8400000000001
6732.0,12820.6,-2399.04,5652.4799999999996,-5130.1000000000004,301.22199999999998,-3866.5900000000001,2884.9099999999999
6733.0,12226.1,-1402.9400000000001,5582.5,-4951.1400000000003,94.671099999999996,-3738.5300000000002,2667.71
6734.0,11863.700000000001,-645.10500000000002,5590.5900000000001,-4917.0100000000002,-78.126999999999995,-3577.3299999999999,2487.6799999999998
6735.0,28942.200000000001,-20971.400000000001,6586.8199999999997,-16045.4,4209.0200000000004,917.20899999999995,6683.6400000000003
6736.0,27177.200000000001,-19627.400000000001,6765.2600000000002,-14135.4,3902.3699999999999,-90.261799999999994,6085.5900000000001
6737.0,25338.400000000001,-17862.599999999999,6876.1899999999996,-12445.6,3515.04,-1096.6199999999999,5598.1999999999998
6738.0,23551.599999999999,-16004.700000000001,6842.6800000000003,-11179.799999999999,3091.0900000000001,-1984.4200000000001,5136.5699999999997
6739.0,21831.700000000001,-13964.200000000001,6840.6300000000001,-10039.299999999999,2699.3800000000001,-2698.6199999999999,4701.9700000000003
6740.0,20169.700000000001,-11915.200000000001,6773.3699999999999,-9061.3799999999992,2306.2199999999998,-3264.8499999999999,4274.4099999999999
6741.0,18747.599999999999,-9874.3299999999999,6738.9300000000003,-8280.3199999999997,1961.4100000000001,-3689.5799999999999,3959.5500000000002
6742.0,17418.599999999999,-8016.1199999999999,6487.4899999999998,-7774.8699999999999,1598.3900000000001,-3865.1999999999998,3830.1700000000001
6743.0,16078.700000000001,-6413.25,6167.7399999999998,-7271.3500000000004,1122.6500000000001,-3858.3299999999999,3663.75
6744.0,14918.299999999999,-4948.9300000000003,6022.1899999999996,-6695.54,713.85699999999997,-3836.0999999999999,3381.3299999999999
6745.0,13993.299999999999,-3636.5,5930.0,-6246.7299999999996,433.41199999999998,-3783.4699999999998,3109.3000000000002
6746.0,13321.700000000001,-2598.8200000000002,5856.3699999999999,-6010.25,211.62100000000001,-3672.5700000000002,2880.8899999999999
6747.0,12915.4,-1830.8800000000001,5854.4499999999998,-5954.3599999999997,28.856999999999999,-3528.6300000000001,2689.0700000000002
6748.0,33258.699999999997,-24091.0,7073.8900000000003,-19468.200000000001,4259.8599999999997,2391.0100000000002,7873.9300000000003
6749.0,30844.5,-22739.0,7167.6999999999998,-16944.299999999999,4031.29,980.47000000000003,6953.5699999999997
6750.0,28261.400000000001,-20529.700000000001,7276.2799999999997,-14719.6,3688.5300000000002,-377.21300000000002,6112.5500000000002
6751.0,26062.599999999999,-18210.200000000001,7492.9099999999999,-12995.700000000001,3297.5900000000001,-1539.0799999999999,5345.2700000000004
6752.0,24184.299999999999,-15638.1,7818.7299999999996,-11582.200000000001,3015.4299999999998,-2420.0700000000002,4778.2399999999998
6753.0,22436.400000000001,-13122.700000000001,8144.75,-10381.4,2641.29,-2992.6999999999998,4245.5900000000001
6754.0,21012.200000000001,-10864.200000000001,8313.5799999999999,-9407.6499999999996,2409.52,-3467.4299999999998,3917.8400000000001
6755.0,19337.099999999999,-9075.75,7502.8000000000002,-8946.1299999999992,2129.23,-3682.9000000000001,3954.52
6756.0,17558.099999999999,-7609.9499999999998,6619.8100000000004,-8490.5900000000001,1486.8699999999999,-3693.02,3870.6799999999998
6757.0,16275.0,-6313.8199999999997,6267.96,-7991.8699999999999,918.70699999999999,-3701.3299999999999,3606.1500000000001
6758.0,15287.5,-4967.1199999999999,6215.3299999999999,-7439.9899999999998,582.428,-3670.3200000000002,3339.7399999999998
6759.0,14541.1,-3903.4200000000001,6129.6199999999999,-7148.1000000000004,345.964,-3584.6700000000001,3097.9400000000001
6760.0,14089.700000000001,-3104.21,6135.5600000000004,-7049.0600000000004,153.41499999999999,-3460.5500000000002,2894.6399999999999
6761.0,39245.300000000003,-32039.5,3767.4000000000001,-24909.200000000001,3064.8299999999999,4754.2600000000002,11053.6
6762.0,34733.199999999997,-28433.700000000001,5195.5500000000002,-20681.400000000001,3501.48,2181.8899999999999,8660.5300000000007
6763.0,31212.5,-24470.900000000001,6559.3500000000004,-17466.400000000001,3427.96,391.94600000000003,6926.2799999999997
6764.0,29011.599999999999,-20883.099999999999,8241.4200000000001,-14936.1,3293.6599999999999,-1129.6800000000001,5624.21
6765.0,27234.599999999999,-17374.400000000001,9182.6599999999999,-13260.5,3397.6199999999999,-2167.8000000000002,5165.4300000000003
6766.0,25290.099999999999,-14514.6,9480.1200000000008,-12050.700000000001,2897.8400000000001,-2625.04,4865.7799999999997
6767.0,23901.599999999999,-12144.1,9973.2999999999993,-10815.700000000001,2613.8699999999999,-3031.2800000000002,4533.54
6768.0,21861.400000000001,-9962.2099999999991,9289.5400000000009,-9844.1700000000001,2568.6199999999999,-3265.5799999999999,4388.0100000000002
6769.0,19449.700000000001,-8707.4200000000001,7592.3100000000004,-9614.0499999999993,1966.0799999999999,-3373.8400000000001,4133.8299999999999
6770.0,17798.700000000001,-7686.8999999999996,6638.0,-9330.8899999999994,1229.6900000000001,-3480.0900000000001,3850.0300000000002
6771.0,16675.900000000001,-6389.4099999999999,6492.7299999999996,-8703.0400000000009,753.971,-3517.7600000000002,3565.9899999999998
6772.0,15889.799999999999,-5315.3400000000001,6413.4700000000003,-8359.6399999999994,497.12700000000001,-3474.4699999999998,3316.0599999999999
6773.0,15385.5,-4481.9399999999996,6421.8299999999999,-8209.9799999999996,295.05900000000003,-3370.7600000000002,3105.0999999999999
6774.0,41707.400000000001,-46228.900000000001,-6646.1800000000003,-30845.599999999999,-300.79599999999999,5171.0200000000004,12443.1
6775.0,36643.800000000003,-36510.300000000003,259.63200000000001,-24976.799999999999,2276.6399999999999,2377.2399999999998,9115.9300000000003
6776.0,33439.800000000003,-29230.400000000001,5035.3000000000002,-20299.099999999999,2759.0700000000002,648.60500000000002,6982.25
6777.0,32141.799999999999,-24157.5,8687.6900000000005,-17173.200000000001,3204.9099999999999,-1016.5700000000001,5802.2399999999998
6778.0,30361.799999999999,-19601.700000000001,10029.200000000001,-15020.9,3840.5500000000002,-1974.4000000000001,5849.6199999999999
6779.0,27720.200000000001,-16291.0,9848.2199999999993,-13586.700000000001,3210.0700000000002,-2349.5300000000002,5803.6999999999998
6780.0,26239.400000000001,-14026.1,10280.9,-12397.700000000001,2560.27,-2702.6700000000001,5568.5200000000004
6781.0,24419.200000000001,-11720.799999999999,10169.700000000001,-11193.700000000001,2547.0100000000002,-2832.4299999999998,5317.6999999999998
6782.0,21764.0,-10336.700000000001,8461.7099999999991,-10916.4,2210.4099999999999,-2923.0900000000001,4787.6400000000003
6783.0,19555.200000000001,-9148.75,7201.6000000000004,-10559.6,1530.0699999999999,-3142.4299999999998,4217.5900000000001
6784.0,18172.299999999999,-7951.2799999999997,6747.8599999999997,-10054.6,965.81299999999999,-3313.7399999999998,3789.8000000000002
6785.0,17349.799999999999,-6833.6899999999996,6693.6499999999996,-9643.8400000000001,663.83500000000004,-3335.5700000000002,3531.5300000000002
6786.0,16802.200000000001,-5951.3699999999999,6732.3500000000004,-9412.3500000000004,453.12200000000001,-3261.1100000000001,3318.6599999999999
6787.0,40570.599999999999,-58084.5,-14123.6,-38655.199999999997,-2152.27,1792.6700000000001,7449.9200000000001
6788.0,38047.099999999999,-43680.800000000003,-3157.2399999999998,-30620.0,1636.1700000000001,1198.6900000000001,7112.5
6789.0,36325.699999999997,-33956.199999999997,4390.3500000000004,-24194.5,2344.7600000000002,298.87,6092.9399999999996
6790.0,35644.699999999997,-27394.700000000001,9457.6499999999996,-19765.099999999999,3386.3800000000001,-1050.1900000000001,5706.5500000000002
6791.0,33208.0,-21691.599999999999,11017.1,-16378.9,4378.2700000000004,-1802.0699999999999,6088.4700000000003
6792.0,29812.900000000001,-18953.0,9303.3099999999995,-15677.799999999999,3835.9899999999998,-2190.2199999999998,6155.5799999999999
6793.0,27769.700000000001,-16535.5,9232.1100000000006,-14473.0,2819.1399999999999,-2576.4200000000001,6118.8400000000001
6794.0,26075.400000000001,-14332.1,9296.8700000000008,-13156.4,2388.8000000000002,-2671.3600000000001,6040.6599999999999
6795.0,23698.799999999999,-12362.799999999999,8628.8899999999994,-12202.4,2098.5900000000001,-2644.79,5481.0799999999999
6796.0,21420.799999999999,-11010.9,7575.4700000000003,-11872.299999999999,1627.23,-2815.1999999999998,4651.9799999999996
6797.0,19866.799999999999,-9604.3999999999996,7148.7299999999996,-11362.0,1169.3299999999999,-3057.0599999999999,4055.8800000000001
6798.0,18898.799999999999,-8430.6299999999992,6990.7799999999997,-10943.5,846.46100000000001,-3159.0599999999999,3750.1999999999998
6799.0,18315.799999999999,-7558.1700000000001,6991.5900000000001,-10704.9,618.63900000000001,-3140.1399999999999,3528.8099999999999
6800.0,45608.400000000001,-61909.300000000003,-11628.799999999999,-48031.400000000001,-730.49699999999996,-450.43400000000003,4281.2799999999997
6801.0,42469.300000000003,-47558.099999999999,-2202.6300000000001,-36694.400000000001,2261.52,338.94999999999999,5931.3299999999999
6802.0,40627.5,-37791.699999999997,4916.9399999999996,-28867.5,2536.98,29.975200000000001,6020.8599999999997
6803.0,39811.199999999997,-30083.200000000001,11022.4,-22450.5,3604.1799999999998,-793.78499999999997,6052.4399999999996
6804.0,36804.099999999999,-24197.400000000001,12389.0,-18507.099999999999,4894.71,-1412.4000000000001,6162.2200000000003
6805.0,32719.0,-21127.5,10179.4,-17532.799999999999,4710.3400000000001,-1895.73,6128.6899999999996
6806.0,29607.0,-19078.400000000001,8570.9099999999999,-16882.5,3605.4000000000001,-2346.1599999999999,6122.9899999999998
6807.0,27365.0,-17100.599999999999,8002.0200000000004,-15692.299999999999,2660.1300000000001,-2547.96,6092.6599999999999
6808.0,25204.099999999999,-15144.5,7641.3500000000004,-14508.6,2048.1900000000001,-2549.5100000000002,5716.9499999999998
6809.0,23222.599999999999,-13341.799999999999,7376.6400000000003,-13659.1,1556.26,-2621.0999999999999,5016.1000000000004
6810.0,21690.400000000001,-11610.200000000001,7341.7700000000004,-12875.9,1225.72,-2809.1100000000001,4379.0500000000002
6811.0,20558.900000000001,-10122.9,7336.5600000000004,-12228.299999999999,1000.77,-2962.9499999999998,3970.8800000000001
6812.0,19876.900000000001,-9175.4699999999993,7272.2299999999996,-11969.700000000001,795.50999999999999,-3014.0500000000002,3725.8200000000002
6813.0,51686.099999999999,-62936.699999999997,-8667.7999999999993,-53809.900000000001,35.7102,534.46299999999997,6769.4700000000003
6814.0,48040.300000000003,-50291.900000000001,-407.06200000000001,-41289.0,3028.4299999999998,932.51099999999997,7241.1899999999996
6815.0,44776.099999999999,-40922.199999999997,5258.25,-32793.599999999999,3055.0300000000002,397.05500000000001,7143.8500000000004
6816.0,43631.5,-33624.699999999997,11017.200000000001,-25943.900000000001,3595.9299999999998,-336.60899999999998,7201.2200000000003
6817.0,40902.0,-27076.099999999999,13691.9,-20950.599999999999,4931.2700000000004,-783.35699999999997,7032.1300000000001
6818.0,36649.800000000003,-23467.700000000001,11839.1,-19461.099999999999,5354.8999999999996,-1298.21,6607.3100000000004
6819.0,32482.5,-21315.299999999999,9100.4799999999996,-19065.799999999999,4539.0500000000002,-1825.5699999999999,6365.1999999999998
6820.0,29265.799999999999,-19939.099999999999,7092.54,-18607.200000000001,3246.8499999999999,-2146.2800000000002,6179.6499999999996
6821.0,26823.299999999999,-18048.200000000001,6589.3199999999997,-17267.700000000001,2223.5999999999999,-2346.6300000000001,5766.3299999999999
6822.0,24854.799999999999,-15935.200000000001,6672.9700000000003,-15906.1,1562.3499999999999,-2520.3699999999999,5193.25
6823.0,23353.0,-13816.799999999999,7096.6599999999999,-14665.299999999999,1168.04,-2673.6399999999999,4618.2600000000002
6824.0,22235.099999999999,-12013.200000000001,7479.5900000000001,-13694.4,1034.8900000000001,-2811.0900000000001,4159.7600000000002
6825.0,21403.5,-10723.5,7574.2799999999997,-13140.799999999999,950.18899999999996,-2896.0999999999999,3888.1599999999999
6826.0,87282.0,-208895.0,-122453.0,-187874.0,-17705.200000000001,2508.3800000000001,13685.700000000001
6827.0,93542.600000000006,-182438.0,-95750.5,-183879.0,-10485.299999999999,-2525.4299999999998,15911.200000000001
6828.0,109268.0,-165423.0,-66995.600000000006,-175260.0,-9460.5900000000001,-15046.5,8924.5200000000004
6829.0,126764.0,-169301.0,-54711.400000000001,-168922.0,-14428.4,-27557.400000000001,-5130.54
6830.0,135845.0,-194492.0,-69850.399999999994,-160900.0,-24273.5,-33782.400000000001,-16181.5
6831.0,135276.0,-214791.0,-84169.100000000006,-140803.0,-33497.800000000003,-25286.599999999999,-6908.5900000000001
6832.0,134191.0,-207748.0,-70713.699999999997,-121174.0,-31733.900000000001,-6009.96,12487.6
6833.0,126749.0,-173420.0,-39000.800000000003,-106620.0,-20766.700000000001,8127.8400000000001,18457.299999999999
6834.0,107137.0,-139245.0,-23537.700000000001,-96885.0,-12681.700000000001,10957.6,10870.5
6835.0,84300.100000000006,-115482.0,-25862.799999999999,-86432.5,-10578.1,10544.9,7419.5799999999999
6836.0,69822.199999999997,-96244.800000000003,-25766.700000000001,-78309.699999999997,-7427.1599999999999,10409.1,10951.5
6837.0,61980.599999999999,-80619.899999999994,-19542.200000000001,-72062.0,-2833.9400000000001,7055.4099999999999,11359.799999999999
6838.0,55805.5,-69769.0,-13228.200000000001,-62532.099999999999,-673.76700000000005,2819.7399999999998,9110.1700000000001
6839.0,76532.800000000003,-186436.0,-105385.0,-166354.0,-7433.71,-3134.1799999999998,10281.700000000001
6840.0,81538.5,-164076.0,-82176.0,-152139.0,-4328.6000000000004,-3154.79,15166.299999999999
6841.0,92762.199999999997,-144304.0,-53651.300000000003,-136979.0,-388.74000000000001,-7926.8299999999999,16415.200000000001
6842.0,104809.0,-139338.0,-34193.5,-128323.0,1695.3499999999999,-14812.700000000001,9993.2900000000009
6843.0,107319.0,-147223.0,-34309.699999999997,-119909.0,-768.46100000000001,-19145.799999999999,1232.78
6844.0,100602.0,-156408.0,-45068.400000000001,-109269.0,-5710.3400000000001,-14448.0,2977.1799999999998
6845.0,93953.899999999994,-144630.0,-39290.0,-93284.600000000006,-5666.4200000000001,-3150.2800000000002,11211.700000000001
6846.0,87683.0,-116986.0,-20957.799999999999,-77518.300000000003,-804.55999999999995,4689.5,14505.6
6847.0,79893.699999999997,-96472.100000000006,-10241.0,-70044.899999999994,2245.4200000000001,5702.1499999999996,11761.299999999999
6848.0,71670.699999999997,-85783.899999999994,-8312.7099999999991,-65294.199999999997,1676.5599999999999,4669.3100000000004,8729.0900000000001
6849.0,63985.599999999999,-75878.800000000003,-7484.3699999999999,-58814.300000000003,1100.4100000000001,4579.4399999999996,8674.2900000000009
6850.0,57779.800000000003,-63669.900000000001,-3571.7399999999998,-51071.699999999997,2026.4200000000001,3928.4899999999998,9425.3600000000006
6851.0,52833.5,-54371.699999999997,-168.24700000000001,-44782.699999999997,2954.1300000000001,2375.4299999999998,8908.2299999999996
6852.0,73276.899999999994,-158848.0,-80763.899999999994,-140393.0,-2985.8499999999999,-4386.9799999999996,9804.6000000000004
6853.0,76745.800000000003,-145910.0,-65644.399999999994,-129339.0,-813.03999999999996,-3273.4899999999998,12499.5
6854.0,80709.800000000003,-128925.0,-46960.900000000001,-114899.0,3600.9000000000001,-3312.9899999999998,15023.0
6855.0,84279.800000000003,-113430.0,-29085.5,-101425.0,8562.4099999999999,-5653.5500000000002,13437.6
6856.0,82926.800000000003,-106697.0,-21264.599999999999,-89882.899999999994,9061.9699999999993,-8613.9899999999998,9362.5
6857.0,79566.199999999997,-104479.0,-18507.799999999999,-78681.600000000006,5763.8000000000002,-7345.8699999999999,8765.8500000000004
6858.0,76595.399999999994,-101786.0,-17673.799999999999,-72593.600000000006,3858.0900000000001,-2551.5500000000002,10504.4
6859.0,72760.399999999994,-92544.800000000003,-13917.799999999999,-67088.899999999994,3947.5700000000002,1345.4000000000001,11736.200000000001
6860.0,68671.5,-78660.899999999994,-6040.7600000000002,-59370.400000000001,4550.8500000000004,2923.0599999999999,11300.299999999999
6861.0,63406.199999999997,-66462.0,-1.7497799999999999,-51636.599999999999,5007.8800000000001,2866.3099999999999,9469.3199999999997
6862.0,57178.199999999997,-58695.0,976.39499999999998,-46140.800000000003,4730.5299999999997,2277.4299999999998,8514.6700000000001
6863.0,52265.400000000001,-53263.599999999999,644.56399999999996,-42661.699999999997,4048.1900000000001,1800.8800000000001,8676.0
6864.0,48475.400000000001,-47053.099999999999,2529.3099999999999,-38294.800000000003,3535.0100000000002,1184.48,8312.75
6865.0,70664.300000000003,-144270.0,-68714.199999999997,-126376.0,575.02099999999996,-3895.8400000000001,9488.0400000000009
6866.0,72774.399999999994,-129031.0,-52648.0,-113326.0,3103.8600000000001,-2728.5500000000002,11007.5
6867.0,72413.199999999997,-116596.0,-42104.699999999997,-103156.0,5479.7700000000004,-2134.0799999999999,11711.299999999999
6868.0,70877.0,-106077.0,-34299.099999999999,-94799.399999999994,7074.2600000000002,-2694.54,11281.6
6869.0,69243.100000000006,-98728.100000000006,-28007.400000000001,-86175.100000000006,6926.6700000000001,-3609.5300000000002,10651.200000000001
6870.0,68296.5,-94099.199999999997,-22973.200000000001,-78532.0,6171.7399999999998,-3063.6300000000001,10455.5
6871.0,66178.0,-84446.800000000003,-14775.4,-67195.100000000006,5624.3199999999997,-1431.52,10467.5
6872.0,63871.800000000003,-73049.600000000006,-6259.9700000000003,-56465.900000000001,5321.8400000000001,386.625,11044.4
6873.0,61579.300000000003,-63795.0,-270.89299999999997,-50162.400000000001,5564.5699999999997,1455.21,10608.200000000001
6874.0,57096.5,-56184.199999999997,2486.5999999999999,-45292.099999999999,5518.3400000000001,1299.27,8976.6599999999999
6875.0,52060.800000000003,-50006.800000000003,3449.0,-40266.5,4766.5699999999997,832.09900000000005,8334.1200000000008
6876.0,48805.5,-43607.300000000003,6151.4899999999998,-34658.300000000003,4084.4299999999998,522.79499999999996,8570.8799999999992
6877.0,46429.599999999999,-37634.800000000003,9557.8600000000006,-29480.200000000001,3706.0799999999999,123.776,8279.3700000000008
6878.0,64694.800000000003,-126830.0,-58286.0,-111824.0,3778.7800000000002,-2988.2600000000002,8579.9200000000001
6879.0,65835.5,-116459.0,-48462.800000000003,-104080.0,5454.1499999999996,-1695.9000000000001,10024.4
6880.0,65180.300000000003,-106165.0,-39915.5,-95492.800000000003,6441.6999999999998,-1615.6900000000001,10332.6
6881.0,64419.199999999997,-96672.300000000003,-31726.5,-86621.5,6475.6800000000003,-1861.1600000000001,10761.4
6882.0,63669.699999999997,-87338.100000000006,-23037.099999999999,-77002.300000000003,6142.0900000000001,-1701.76,10880.1
6883.0,62169.300000000003,-77347.199999999997,-14138.1,-66394.699999999997,5886.1599999999999,-1195.77,10547.4
6884.0,60121.300000000003,-70644.899999999994,-9129.0400000000009,-59013.599999999999,5498.7600000000002,-544.06899999999996,10311.9
6885.0,58139.699999999997,-63795.400000000001,-4516.8199999999997,-52488.0,5385.3100000000004,307.46600000000001,10350.799999999999
6886.0,55683.300000000003,-54880.5,1325.77,-45301.800000000003,5616.1700000000001,667.19000000000005,9868.3799999999992
6887.0,52405.300000000003,-47457.599999999999,5343.0299999999997,-39199.699999999997,5362.6800000000003,328.125,8937.6700000000001
6888.0,49058.900000000001,-42014.199999999997,7597.3699999999999,-34021.599999999999,4684.6999999999998,-2.8550399999999998,8411.6900000000005
6889.0,46299.199999999997,-37072.199999999997,9614.6800000000003,-29291.200000000001,4314.0799999999999,-131.887,8382.4300000000003
6890.0,43971.699999999997,-31834.900000000001,12167.9,-24790.900000000001,4512.8599999999997,-311.63,8087.3599999999997
6891.0,58659.199999999997,-116250.0,-54468.599999999999,-104948.0,3503.4400000000001,-2395.77,6841.7399999999998
6892.0,59075.599999999999,-107309.0,-46268.699999999997,-97689.699999999997,4223.9399999999996,-1094.27,8195.6599999999999
6893.0,58024.0,-97875.300000000003,-38666.400000000001,-89174.699999999997,4629.3400000000001,-930.09199999999998,8825.3600000000006
6894.0,57870.900000000001,-89025.5,-30686.200000000001,-80743.300000000003,4281.9700000000003,-807.69399999999996,10052.799999999999
6895.0,58143.0,-79636.600000000006,-21184.900000000001,-71855.699999999997,4064.4899999999998,-496.685,10131.9
6896.0,56928.699999999997,-72032.899999999994,-14469.4,-63965.199999999997,4233.4099999999999,-243.89599999999999,9533.9699999999993
6897.0,55130.199999999997,-63416.300000000003,-7743.5299999999997,-55091.599999999999,4684.9300000000003,63.485500000000002,9454.9099999999999
6898.0,53115.099999999999,-54649.300000000003,-1459.5799999999999,-46829.099999999999,5064.2200000000003,290.57799999999997,9481.1399999999994
6899.0,50856.099999999999,-47667.199999999997,2908.3099999999999,-40675.300000000003,5044.6700000000001,260.50299999999999,9249.25
6900.0,48499.699999999997,-41529.599999999999,6630.1700000000001,-35115.900000000001,4890.5,62.523400000000002,8733.9400000000005
6901.0,45875.900000000001,-36205.599999999999,9369.9500000000007,-29916.099999999999,4909.5200000000004,-196.50399999999999,8208.3400000000001
6902.0,43189.099999999999,-31002.5,11625.1,-24945.599999999999,5110.3199999999997,-417.78100000000001,7975.3900000000003
6903.0,40343.300000000003,-26539.400000000001,12735.6,-21460.900000000001,5390.3199999999997,-708.53200000000004,7528.8800000000001
6904.0,56373.800000000003,-106140.0,-46976.0,-96938.5,2502.1100000000001,-2313.77,5845.8100000000004
6905.0,56613.800000000003,-98884.899999999994,-39905.800000000003,-90431.5,2522.8200000000002,-1332.8,6564.3999999999996
6906.0,55141.699999999997,-90827.800000000003,-33687.099999999999,-82479.600000000006,2565.54,-1121.1800000000001,7288.3599999999997
6907.0,55375.699999999997,-81639.199999999997,-25221.0,-73654.699999999997,2383.5500000000002,-704.02700000000004,9158.6599999999999
6908.0,56040.900000000001,-71843.5,-15368.299999999999,-65062.199999999997,2938.7600000000002,-194.99700000000001,9346.8600000000006
6909.0,54026.199999999997,-62120.699999999997,-7651.0799999999999,-55768.199999999997,3683.3400000000001,-51.621299999999998,8501.8899999999994
6910.0,51211.300000000003,-55431.599999999999,-4051.3800000000001,-49397.400000000001,3922.4000000000001,72.3292,8369.1299999999992
6911.0,48738.0,-49057.900000000001,-542.95399999999995,-43536.099999999999,3946.52,186.15199999999999,8411.5100000000002
6912.0,46695.5,-42454.099999999999,3655.25,-37321.099999999999,4118.0200000000004,194.55199999999999,8440.7800000000007
6913.0,44713.699999999997,-36369.199999999997,7520.5799999999999,-31724.099999999999,4542.4399999999996,68.610600000000005,8028.6800000000003
6914.0,41822.099999999999,-31514.799999999999,9334.9300000000003,-27183.099999999999,5028.71,-226.15700000000001,7361.0500000000002
6915.0,38596.800000000003,-27775.0,9377.1599999999999,-23909.299999999999,5297.9799999999996,-629.06100000000004,7134.79
6916.0,35625.099999999999,-24347.900000000001,9282.4500000000007,-21427.200000000001,5158.1199999999999,-1163.55,6927.29
6917.0,54588.0,-97032.699999999997,-39898.5,-88797.199999999997,2201.9299999999998,-1933.47,5552.1400000000003
6918.0,55181.400000000001,-89669.300000000003,-32354.5,-82076.199999999997,2600.8499999999999,-1526.72,6062.5
6919.0,53308.699999999997,-82122.399999999994,-27021.0,-74577.600000000006,2534.5900000000001,-1409.45,6812.4899999999998
6920.0,53041.599999999999,-73477.600000000006,-19711.5,-66616.399999999994,2247.9099999999999,-629.14599999999996,8719.6599999999999
6921.0,52938.699999999997,-63737.0,-10855.0,-58707.599999999999,2758.0300000000002,49.284999999999997,8637.9899999999998
6922.0,50239.300000000003,-55992.300000000003,-5811.7399999999998,-51729.900000000001,3045.8800000000001,7.9197600000000001,7611.1800000000003
6923.0,47693.400000000001,-49407.599999999999,-1873.01,-45262.199999999997,2841.6999999999998,-33.706899999999997,7544.4200000000001
6924.0,45733.300000000003,-42809.300000000003,2637.2399999999998,-38862.699999999997,2833.6500000000001,22.120899999999999,7435.0600000000004
6925.0,43439.699999999997,-36878.199999999997,6091.5799999999999,-33171.900000000001,3176.2600000000002,33.967199999999998,7207.8500000000004
6926.0,40911.599999999999,-32073.400000000001,7968.4300000000003,-29086.099999999999,3829.8699999999999,-129.20400000000001,6758.9399999999996
6927.0,37482.900000000001,-28372.5,7912.29,-26029.599999999999,4312.7399999999998,-579.29999999999995,6085.4700000000003
6928.0,33871.699999999997,-25364.700000000001,6918.4099999999999,-23332.799999999999,4247.0900000000001,-1103.3800000000001,6022.0600000000004
6929.0,31325.900000000001,-22502.0,6750.3999999999996,-20884.0,3814.1999999999998,-1606.01,6296.6000000000004
6930.0,51535.300000000003,-88347.0,-34392.800000000003,-80777.300000000003,2626.5,-1363.5999999999999,4819.3199999999997
6931.0,51050.800000000003,-81613.600000000006,-29205.900000000001,-75431.600000000006,3229.3200000000002,-1273.6300000000001,6034.2200000000003
6932.0,49545.5,-73788.600000000006,-23530.599999999999,-68420.600000000006,2407.1199999999999,-1151.4300000000001,7035.4899999999998
6933.0,49437.099999999999,-65214.5,-15784.0,-60608.300000000003,1529.6199999999999,-244.792,8163.3599999999997
6934.0,49139.199999999997,-56355.300000000003,-7612.1199999999999,-53070.599999999999,1693.4300000000001,266.584,7730.1599999999999
6935.0,47160.300000000003,-48408.900000000001,-1455.97,-45424.300000000003,1766.0999999999999,24.566600000000001,6864.8999999999996
6936.0,45324.400000000001,-42382.900000000001,2810.3400000000001,-39245.599999999999,1712.51,-99.389799999999994,6707.96
6937.0,43486.300000000003,-36864.699999999997,6371.8100000000004,-33986.5,2162.0799999999999,-159.58799999999999,6421.96
6938.0,40826.900000000001,-32180.799999999999,8124.5600000000004,-29791.0,2836.0599999999999,-372.09899999999999,6010.6800000000003
6939.0,37735.0,-28216.200000000001,8526.8600000000006,-26654.099999999999,3313.3200000000002,-721.60900000000004,5607.6800000000003
6940.0,34252.699999999997,-25487.400000000001,7479.4099999999999,-24537.200000000001,3320.7399999999998,-1260.6199999999999,5131.8699999999999
6941.0,30900.799999999999,-23361.400000000001,6107.4499999999998,-22401.400000000001,2906.5999999999999,-1753.49,5139.6099999999997
6942.0,28543.799999999999,-21029.900000000001,5710.0799999999999,-20055.299999999999,2491.1100000000001,-2063.3400000000001,5581.0
6943.0,46926.400000000001,-80751.199999999997,-31775.200000000001,-74769.699999999997,2702.9499999999998,-1110.45,3415.1500000000001
6944.0,45244.099999999999,-74584.399999999994,-28410.700000000001,-69864.100000000006,2089.1500000000001,-960.05700000000002,5622.1499999999996
6945.0,46110.599999999999,-66735.199999999997,-20602.0,-62947.099999999999,590.92200000000003,-618.26099999999997,7213.8800000000001
6946.0,47450.099999999999,-57609.300000000003,-10365.5,-54338.900000000001,-149.80199999999999,38.858600000000003,7377.3500000000004
6947.0,47085.400000000001,-48854.099999999999,-1798.8800000000001,-46003.400000000001,270.149,255.12700000000001,6543.1599999999999
6948.0,45430.900000000001,-42189.0,3350.0700000000002,-39364.199999999997,947.87699999999995,-45.2453,6003.3599999999997
6949.0,43656.099999999999,-36219.300000000003,7324.8599999999997,-33679.5,1652.28,-296.16699999999997,5928.6899999999996
6950.0,41162.099999999999,-31054.099999999999,9571.4099999999999,-29354.900000000001,2421.6199999999999,-521.62199999999996,5526.4300000000003
6951.0,37817.900000000001,-27129.400000000001,9682.2700000000004,-26297.400000000001,2820.7399999999998,-879.75,5126.4499999999998
6952.0,34628.599999999999,-24428.5,8789.2199999999993,-24312.599999999999,2792.6100000000001,-1295.8199999999999,4869.1899999999996
6953.0,31610.599999999999,-22416.799999999999,7620.79,-22550.599999999999,2572.3299999999999,-1773.8399999999999,4605.9899999999998
6954.0,28807.700000000001,-20680.799999999999,6453.21,-20641.799999999999,2215.3699999999999,-2193.1500000000001,4673.6899999999996
6955.0,26569.299999999999,-18503.400000000001,6132.1400000000003,-18339.599999999999,1814.0599999999999,-2415.1399999999999,5021.7299999999996
6956.0,42621.599999999999,-73586.800000000003,-29343.0,-69491.199999999997,1272.2,-1237.21,2165.3299999999999
6957.0,41828.599999999999,-68261.0,-25356.799999999999,-64013.800000000003,-489.25900000000001,-851.27800000000002,4835.7700000000004
6958.0,44731.599999999999,-59628.300000000003,-14767.9,-55743.400000000001,-1376.1300000000001,-118.749,6878.1400000000003
6959.0,46731.199999999997,-49616.900000000001,-2867.1900000000001,-46410.300000000003,-717.36900000000003,295.83699999999999,6735.2399999999998
6960.0,45837.099999999999,-41644.5,4418.75,-38887.400000000001,652.49599999999998,169.40899999999999,5693.6499999999996
6961.0,43259.5,-35203.0,8056.7799999999997,-32887.0,1845.2,-184.30199999999999,5306.7700000000004
6962.0,40680.5,-30215.0,9731.6200000000008,-28952.099999999999,2557.9299999999998,-484.899,5406.46
6963.0,37896.199999999997,-26159.0,10378.4,-26148.200000000001,2792.29,-886.13900000000001,5026.1899999999996
6964.0,34817.300000000003,-23207.299999999999,9956.5200000000004,-23860.5,2545.7800000000002,-1354.3099999999999,4668.0799999999999
6965.0,32135.0,-21045.799999999999,9243.5699999999997,-22072.599999999999,2225.4400000000001,-1744.03,4437.3999999999996
6966.0,29386.299999999999,-19260.700000000001,8207.9699999999993,-20360.099999999999,1963.1900000000001,-2137.0799999999999,4177.5200000000004
6967.0,26809.599999999999,-17752.099999999999,7050.8999999999996,-18657.200000000001,1611.1700000000001,-2460.6900000000001,4256.29
6968.0,24898.400000000001,-16029.200000000001,6665.8699999999999,-16778.299999999999,1278.7,-2613.3200000000002,4542.6899999999996
6969.0,40849.199999999997,-65905.800000000003,-23690.0,-62587.599999999999,-1115.1400000000001,-1384.9300000000001,1422.3199999999999
6970.0,41446.199999999997,-60389.5,-17686.099999999999,-55848.800000000003,-2442.48,-732.04999999999995,3999.1500000000001
6971.0,43875.699999999997,-51400.599999999999,-6864.1599999999999,-47068.400000000001,-1974.27,275.505,5883.2600000000002
6972.0,44472.800000000003,-41813.800000000003,2922.1300000000001,-38847.900000000001,-24.790400000000002,672.81500000000005,5746.0
6973.0,42330.599999999999,-34719.900000000001,7446.9399999999996,-33059.0,1811.1500000000001,338.5,4862.2700000000004
6974.0,39045.900000000001,-30000.099999999999,8261.4799999999996,-29355.900000000001,2602.5900000000001,-185.08199999999999,4634.79
6975.0,36427.0,-25957.700000000001,8912.9599999999991,-26440.200000000001,2659.5799999999999,-590.87699999999995,4886.6099999999997
6976.0,34276.5,-22519.700000000001,9680.5900000000001,-23968.0,2501.8899999999999,-1061.51,4730.3100000000004
6977.0,32017.799999999999,-19889.599999999999,9876.7299999999996,-21698.5,2236.3299999999999,-1557.8399999999999,4461.1000000000004
6978.0,29831.299999999999,-18019.5,9439.2099999999991,-20007.599999999999,1990.9300000000001,-1991.5699999999999,4226.54
6979.0,27532.700000000001,-16533.299999999999,8591.4699999999993,-18490.599999999999,1666.26,-2411.2399999999998,4000.6300000000001
6980.0,25445.700000000001,-15323.6,7718.7600000000002,-17000.299999999999,1279.54,-2676.1799999999998,4028.6700000000001
6981.0,23794.0,-13851.0,7434.5900000000001,-15367.9,1062.6300000000001,-2755.5799999999999,4176.3299999999999
6982.0,41532.0,-56967.099999999999,-14156.1,-53409.800000000003,-2696.46,-1478.74,1062.4000000000001
6983.0,41820.5,-50821.0,-7529.0799999999999,-46171.5,-2856.1599999999999,-586.678,3105.3499999999999
6984.0,42263.199999999997,-42749.0,549.51199999999994,-38824.599999999999,-1405.96,443.60899999999998,4450.54
6985.0,40957.699999999997,-34763.900000000001,6407.7799999999997,-32855.800000000003,670.01800000000003,715.09799999999996,4260.9499999999998
6986.0,37862.099999999999,-29389.900000000001,7850.1400000000003,-29228.400000000001,1904.8599999999999,262.79500000000002,3724.3400000000001
6987.0,34721.199999999997,-25683.299999999999,7744.1800000000003,-26566.099999999999,2079.9899999999998,-292.61099999999999,3857.23
6988.0,32642.5,-22562.599999999999,8142.3299999999999,-24268.599999999999,1920.5999999999999,-694.55999999999995,4279.0699999999997
6989.0,30978.599999999999,-19485.900000000001,9058.3700000000008,-21910.400000000001,1859.6800000000001,-1108.55,4310.9799999999996
6990.0,29061.799999999999,-17069.5,9285.8199999999997,-19871.200000000001,1816.3199999999999,-1574.4200000000001,4121.6400000000003
6991.0,27112.099999999999,-15263.0,8973.1900000000005,-18174.799999999999,1687.3099999999999,-2035.5,3985.5900000000001
6992.0,25367.099999999999,-13949.799999999999,8487.9899999999998,-16716.900000000001,1445.99,-2436.54,3924.54
6993.0,23894.900000000001,-12940.6,8062.4700000000003,-15395.299999999999,1197.8099999999999,-2680.1100000000001,3932.9899999999998
6994.0,22676.900000000001,-11950.0,7821.3000000000002,-14209.6,1054.8199999999999,-2791.1199999999999,3951.73
6995.0,4548.79,3344.1700000000001,760.72000000000003,4954.2399999999998,-1071.9200000000001,32.766500000000001,1127.71
6996.0,4575.6400000000003,3380.02,708.64400000000001,4989.04,-1003.4299999999999,138.19200000000001,1130.6400000000001
6997.0,4604.1599999999999,3450.21,670.48400000000004,5019.8800000000001,-939.31200000000001,240.167,1129.0699999999999
6998.0,4631.7299999999996,3523.8499999999999,618.32399999999996,5017.5600000000004,-877.80399999999997,335.52600000000001,1124.02
6999.0,4656.4099999999999,3622.2600000000002,577.58399999999995,5007.6700000000001,-817.76599999999996,420.23899999999998,1116.3299999999999
7000.0,4676.2200000000003,3714.3400000000001,522.86199999999997,4966.0200000000004,-758.40999999999997,491.64600000000002,1105.9400000000001
7001.0,4689.2399999999998,3820.2399999999998,479.91800000000001,4920.1899999999996,-698.87599999999998,547.92200000000003,1092.5799999999999
7002.0,4693.9700000000003,3911.0500000000002,425.5,4848.9200000000001,-638.58799999999997,588.529,1075.98
7003.0,4689.3500000000004,4004.0799999999999,381.86799999999999,4776.54,-577.33000000000004,613.72199999999998,1055.9400000000001
7004.0,4674.5699999999997,4075.5300000000002,329.49299999999999,4685.7200000000003,-514.779,624.57399999999996,1032.05
7005.0,4649.6000000000004,4142.1499999999996,288.44799999999998,4598.29,-452.07600000000002,622.62199999999996,1004.29
7006.0,4611.7700000000004,4181.3400000000001,240.36500000000001,4496.79,-385.56900000000002,609.74599999999998,971.77800000000002
7007.0,4576.2299999999996,4193.8500000000004,165.547,4376.3500000000004,-314.58100000000002,584.71799999999996,935.16399999999999
7008.0,4544.4399999999996,4162.1700000000001,59.480899999999998,4225.9799999999996,-259.19999999999999,553.07399999999996,900.88
7009.0,4494.8599999999997,4152.1300000000001,11.265000000000001,4122.0500000000002,-207.83199999999999,520.88199999999995,863.53499999999997
7010.0,4440.8900000000003,4147.1999999999998,-21.947399999999998,4039.1399999999999,-148.43299999999999,483.54199999999997,818.75300000000004
7011.0,4390.3299999999999,4138.5900000000001,-52.404499999999999,3965.8200000000002,-92.861000000000004,442.32299999999998,772.86099999999999
7012.0,4337.9399999999996,4116.0600000000004,-84.624700000000004,3893.2399999999998,-39.384,400.47000000000003,723.99800000000005
7013.0,4286.5500000000002,4092.4499999999998,-109.26300000000001,3832.7399999999998,11.765000000000001,358.642,672.70600000000002
7014.0,4235.0299999999997,4054.8499999999999,-138.386,3770.3200000000002,60.2639,318.387,618.98400000000004
7015.0,4184.0200000000004,4019.54,-157.21199999999999,3720.6500000000001,105.95,280.36099999999999,562.83799999999997
7016.0,4133.2799999999997,3972.4200000000001,-180.322,3667.8699999999999,148.52699999999999,245.35300000000001,504.63
7017.0,4083.04,3928.0799999999999,-194.14699999999999,3625.0300000000002,187.91200000000001,213.72999999999999,444.56299999999999
7018.0,4033.4000000000001,3875.3099999999999,-210.953,3579.0100000000002,223.75399999999999,185.72399999999999,382.99299999999999
7019.0,3984.5500000000002,3826.3499999999999,-219.38300000000001,3540.71,256.16800000000001,161.52099999999999,320.21800000000002
7020.0,3937.0,3770.1300000000001,-231.94200000000001,3497.3400000000001,284.83499999999998,140.875,256.75
7021.0,3890.7399999999998,3722.0,-233.84899999999999,3463.4400000000001,309.61700000000002,124.27500000000001,192.53700000000001
7022.0,3847.8000000000002,3670.0900000000001,-240.39699999999999,3424.5900000000001,330.52699999999999,110.68899999999999,127.69499999999999
7023.0,3510.96,2798.9899999999998,499.291,3241.04,-959.78800000000001,288.01600000000002,968.47699999999998
7024.0,3532.6900000000001,2870.8299999999999,478.27600000000001,3276.8499999999999,-901.64400000000001,309.911,981.88400000000001
7025.0,3556.4000000000001,2916.1399999999999,422.37799999999999,3268.52,-846.28099999999995,330.28699999999998,991.69500000000005
7026.0,3576.0700000000002,2992.0100000000002,394.27699999999999,3277.5999999999999,-790.00400000000002,345.66399999999999,997.63099999999997
7027.0,3592.4499999999998,3041.6300000000001,337.55700000000002,3248.8699999999999,-733.52800000000002,354.47500000000002,999.86900000000003
7028.0,3603.1100000000001,3116.79,308.68000000000001,3238.73,-676.37300000000005,355.35700000000003,998.05999999999995
7029.0,3607.0900000000001,3159.29,252.411,3192.8899999999999,-618.06899999999996,347.53100000000001,992.30200000000002
7030.0,3603.1700000000001,3219.6399999999999,223.11199999999999,3166.6599999999999,-558.63199999999995,331.03199999999998,982.28599999999994
7031.0,3589.6900000000001,3242.2600000000002,169.464,3109.27,-497.637,306.29599999999999,967.88300000000004
7032.0,3567.1700000000001,3275.4099999999999,141.06999999999999,3072.02,-435.51999999999998,274.40699999999998,948.995
7033.0,3531.5100000000002,3266.1999999999998,93.175399999999996,3008.0,-373.05000000000001,236.864,925.61400000000003
7034.0,3487.0,3257.8800000000001,59.955800000000004,2957.71,-303.32900000000001,193.84700000000001,896.947
7035.0,3449.8800000000001,3182.8299999999999,-39.654699999999998,2848.3499999999999,-238.20500000000001,146.815,865.71199999999999
7036.0,3405.5300000000002,3120.5900000000001,-100.962,2772.1799999999998,-187.62100000000001,101.762,833.38800000000003
7037.0,3346.6999999999998,3050.48,-143.54400000000001,2710.98,-134.34399999999999,57.974200000000003,796.56200000000001
7038.0,3289.9400000000001,3004.1100000000001,-156.739,2686.5500000000002,-78.359399999999994,13.4162,756.45500000000004
7039.0,3236.3099999999999,2927.3800000000001,-194.25800000000001,2642.71,-26.2409,-28.6633,714.65300000000002
7040.0,3183.6599999999999,2869.1300000000001,-205.13399999999999,2629.6100000000001,23.561199999999999,-66.969899999999996,670.42999999999995
7041.0,3132.6900000000001,2782.8299999999999,-237.518,2598.4299999999998,70.658199999999994,-100.91500000000001,624.13499999999999
7042.0,3082.5300000000002,2716.5100000000002,-243.39400000000001,2595.6500000000001,114.92,-129.40899999999999,575.678
7043.0,3033.2800000000002,2621.7600000000002,-272.12700000000001,2570.98,156.31100000000001,-151.95400000000001,525.36699999999996
7044.0,2984.5700000000002,2548.2800000000002,-274.77199999999999,2572.02,194.47999999999999,-168.113,473.35700000000003
7045.0,2936.46,2449.71,-298.85899999999998,2550.29,229.38499999999999,-177.72900000000001,419.90300000000002
7046.0,2888.9899999999998,2373.0700000000002,-298.45600000000002,2550.8499999999999,260.76799999999997,-180.815,365.40800000000002
7047.0,2841.9899999999998,2274.7199999999998,-318.23700000000002,2527.9200000000001,288.637,-177.511,310.04199999999997
7048.0,2796.3299999999999,2201.1900000000001,-313.36799999999999,2526.5,312.87400000000002,-168.32400000000001,254.28200000000001
7049.0,2750.5,2107.2199999999998,-329.166,2498.5900000000001,333.46300000000002,-153.435,198.63399999999999
7050.0,2708.4400000000001,2036.6700000000001,-325.21800000000002,2488.6399999999999,351.21600000000001,-134.809,142.374
7051.0,2512.21,2107.1300000000001,240.303,1791.48,-745.06299999999999,384.45800000000003,634.29600000000005
7052.0,2534.4099999999999,2181.52,230.17500000000001,1807.6500000000001,-709.32000000000005,359.98500000000001,660.07000000000005
7053.0,2558.7800000000002,2233.3499999999999,196.023,1799.1400000000001,-674.62,333.50799999999998,681.60199999999998
7054.0,2577.3699999999999,2300.3899999999999,181.44399999999999,1806.6900000000001,-636.49099999999999,302.35500000000002,698.96699999999998
7055.0,2592.9400000000001,2343.52,146.29900000000001,1791.3699999999999,-596.48299999999995,266.495,712.61400000000003
7056.0,2602.9200000000001,2396.4200000000001,128.33199999999999,1790.52,-554.35199999999998,225.36600000000001,721.99300000000005
7057.0,2606.8299999999999,2421.4099999999999,91.583699999999993,1768.6500000000001,-509.82600000000002,178.96799999999999,727.17499999999995
7058.0,2603.73,2453.02,73.305800000000005,1763.3199999999999,-463.34100000000001,127.896,727.75
7059.0,2590.8400000000001,2450.0700000000002,36.662799999999997,1736.9100000000001,-414.22199999999998,72.946100000000001,723.36500000000001
7060.0,2570.4099999999999,2449.8200000000002,17.825700000000001,1727.3399999999999,-363.62900000000002,15.3736,714.17200000000003
7061.0,2533.27,2411.2399999999998,-11.3687,1701.03,-311.63400000000001,-42.378,699.48599999999999
7062.0,2493.8600000000001,2355.8200000000002,-52.799900000000001,1669.71,-248.96100000000001,-103.065,678.70600000000002
7063.0,2465.6199999999999,2234.4099999999999,-155.65100000000001,1580.7,-200.524,-161.84,658.97299999999996
7064.0,2414.6399999999999,2149.2600000000002,-182.989,1553.73,-161.959,-212.666,635.34900000000005
7065.0,2357.8699999999999,2057.77,-206.30699999999999,1537.5999999999999,-114.101,-261.726,604.44799999999998
7066.0,2310.6100000000001,1981.7,-213.41499999999999,1546.22,-70.387100000000004,-306.62700000000001,574.38
7067.0,2264.0300000000002,1879.97,-238.59999999999999,1540.3499999999999,-28.675699999999999,-345.16699999999997,542.14999999999998
7068.0,2221.2800000000002,1797.72,-240.49199999999999,1562.8099999999999,10.420999999999999,-377.88900000000001,508.154
7069.0,2180.1300000000001,1688.99,-264.22300000000001,1565.5899999999999,47.060699999999997,-403.16000000000003,472.39400000000001
7070.0,2140.77,1600.1800000000001,-264.38799999999998,1593.6800000000001,81.051299999999998,-420.803,434.90699999999998
7071.0,2102.3899999999999,1488.21,-284.60500000000002,1601.3499999999999,112.246,-430.38900000000001,395.93599999999998
7072.0,2064.75,1397.8,-281.10000000000002,1631.3299999999999,140.429,-431.77100000000002,355.63400000000001
7073.0,2027.6800000000001,1285.1800000000001,-298.57900000000001,1637.55,165.542,-425.142,314.39100000000002
7074.0,1991.0999999999999,1197.5,-291.07299999999998,1665.0,187.309,-410.79000000000002,272.44
7075.0,1954.8099999999999,1089.01,-305.20699999999999,1665.9400000000001,205.822,-389.142,230.11500000000001
7076.0,1919.46,1006.09,-296.154,1685.1400000000001,220.941,-360.96100000000001,187.745
7077.0,1883.6500000000001,907.024,-305.38,1679.0,232.53100000000001,-326.673,146.01400000000001
7078.0,1851.1300000000001,833.71000000000004,-293.86500000000001,1690.5899999999999,241.17400000000001,-287.49400000000003,103.82899999999999
7079.0,1771.73,1491.1099999999999,64.421999999999997,745.70299999999997,-527.04200000000003,396.101,320.12
7080.0,1790.9000000000001,1583.8299999999999,84.881100000000004,771.56600000000003,-513.04899999999998,348.17500000000001,348.75400000000002
7081.0,1812.79,1612.6700000000001,43.659799999999997,739.39200000000005,-498.16800000000001,297.733,374.85899999999998
7082.0,1830.5799999999999,1688.8,56.548299999999998,762.89300000000003,-479.12400000000002,242.71799999999999,398.05700000000002
7083.0,1846.4100000000001,1702.5599999999999,13.404999999999999,732.85699999999997,-457.25400000000002,183.86199999999999,418.31599999999997
7084.0,1858.29,1761.24,24.4252,758.98099999999999,-432.44099999999997,121.23099999999999,435.05000000000001
7085.0,1865.51,1754.3399999999999,-19.372599999999998,732.25999999999999,-404.49599999999998,55.325299999999999,448.05000000000001
7086.0,1867.54,1787.6600000000001,-10.4527,760.16399999999999,-373.94400000000002,-12.960100000000001,456.90899999999999
7087.0,1860.79,1752.9100000000001,-52.687399999999997,737.36099999999999,-340.137,-82.458799999999997,460.87099999999998
7088.0,1848.21,1752.5699999999999,-45.933199999999999,765.25,-304.13900000000001,-151.92099999999999,460.226
7089.0,1818.3699999999999,1681.74,-81.441800000000001,745.88699999999994,-266.64499999999998,-217.65000000000001,453.322
7090.0,1786.6300000000001,1623.8499999999999,-99.833200000000005,754.04600000000005,-218.15700000000001,-284.70499999999998,438.82299999999998
7091.0,1768.3699999999999,1467.45,-211.37200000000001,672.03899999999999,-184.39699999999999,-347.68799999999999,426.88799999999998
7092.0,1727.1500000000001,1388.47,-206.94399999999999,689.16700000000003,-157.79400000000001,-398.358,413.75799999999998
7093.0,1682.8800000000001,1271.0599999999999,-235.94999999999999,681.827,-120.654,-444.74099999999999,393.59199999999998
7094.0,1649.1900000000001,1198.1600000000001,-221.654,727.09799999999996,-89.704700000000003,-485.661,373.77999999999997
7095.0,1616.22,1074.71,-252.43199999999999,730.88300000000004,-60.069400000000002,-518.64400000000001,351.72399999999999
7096.0,1588.49,999.98699999999997,-234.34899999999999,789.125,-32.515000000000001,-543.99099999999999,328.93299999999999
7097.0,1562.49,873.90599999999995,-264.86500000000001,800.85699999999997,-7.0430200000000003,-560.827,304.80099999999999
7098.0,1538.5599999999999,799.64999999999998,-242.661,866.47900000000004,16.341200000000001,-569.13,279.34699999999998
7099.0,1515.48,672.04499999999996,-272.76600000000002,878.88900000000001,37.432000000000002,-568.54600000000005,252.88499999999999
7100.0,1493.21,598.23199999999997,-249.15199999999999,942.95600000000002,55.991199999999999,-559.40700000000004,225.428
7101.0,1471.4400000000001,474.03300000000002,-276.97399999999999,952.13499999999999,71.949100000000001,-541.95799999999997,197.32599999999999
7102.0,1450.1900000000001,403.875,-252.804,1009.0,85.173400000000001,-516.726,168.81999999999999
7103.0,1429.22,286.63,-278.55900000000003,1010.45,95.661000000000001,-484.346,140.22499999999999
7104.0,1408.95,225.48099999999999,-252.12899999999999,1058.46,103.364,-445.64299999999997,111.756
7105.0,1388.3900000000001,118.032,-276.02300000000002,1048.75,108.172,-401.26400000000001,84.071200000000005
7106.0,1370.0,65.459400000000002,-251.40000000000001,1082.96,110.655,-352.34500000000003,56.5916
7107.0,1333.04,1048.3800000000001,-18.0228,122.654,-347.93599999999998,360.464,75.315799999999996
7108.0,1345.6199999999999,1091.6800000000001,-31.320699999999999,96.586100000000002,-349.25900000000001,305.363,101.93899999999999
7109.0,1360.53,1150.9100000000001,-24.930299999999999,96.348100000000002,-348.87299999999999,246.584,127.512
7110.0,1373.8099999999999,1181.28,-40.6143,78.899600000000007,-344.66399999999999,183.31200000000001,151.54400000000001
7111.0,1386.49,1224.9200000000001,-35.823599999999999,87.284400000000005,-337.48200000000003,116.42,173.77699999999999
7112.0,1397.3399999999999,1235.73,-54.6907,77.209900000000005,-327.21600000000001,46.362699999999997,193.66900000000001
7113.0,1405.7,1257.75,-51.7941,93.967100000000002,-313.779,-26.0136,210.815
7114.0,1411.05,1245.26,-71.482200000000006,92.949600000000004,-297.44200000000001,-99.703500000000005,224.726
7115.0,1410.6600000000001,1239.4400000000001,-69.191400000000002,117.249,-277.89800000000002,-173.209,234.518
7116.0,1405.8299999999999,1195.8599999999999,-90.511300000000006,121.59,-255.535,-245.399,240.077
7117.0,1389.3800000000001,1158.0699999999999,-82.843199999999996,152.369,-231.96799999999999,-312.363,240.077
7118.0,1366.25,1070.1400000000001,-113.73,151.35900000000001,-199.62100000000001,-377.23899999999998,232.501
7119.0,1355.0899999999999,950.81600000000003,-173.47,129.035,-172.947,-438.83999999999997,226.09899999999999
7120.0,1334.95,813.96900000000005,-224.501,103.125,-157.15199999999999,-488.31,221.44999999999999
7121.0,1305.28,727.92600000000004,-213.328,140.86500000000001,-136.03,-528.70299999999997,209.46299999999999
7122.0,1283.8,623.79999999999995,-224.97399999999999,167.00800000000001,-114.733,-563.13999999999999,196.55799999999999
7123.0,1266.4100000000001,536.80600000000004,-217.87899999999999,216.39699999999999,-95.905299999999997,-589.71400000000006,184.84899999999999
7124.0,1251.6400000000001,434.03300000000002,-226.53200000000001,254.30000000000001,-78.395399999999995,-608.23299999999995,171.66
7125.0,1239.01,349.05399999999997,-217.91300000000001,312.19200000000001,-62.306899999999999,-618.26199999999994,157.96100000000001
7126.0,1227.1199999999999,245.99799999999999,-227.84399999999999,352.351,-47.819800000000001,-619.40999999999997,143.43799999999999
7127.0,1215.97,164.887,-216.99700000000001,412.86399999999998,-35.083500000000001,-612.00400000000002,128.09999999999999
7128.0,1205.0799999999999,66.101299999999995,-225.80000000000001,451.53399999999999,-24.157499999999999,-596.21699999999998,112.203
7129.0,1194.49,-10.017200000000001,-214.518,506.99900000000002,-15.1868,-572.61800000000005,95.9041
7130.0,1184.1800000000001,-100.479,-221.113,540.19799999999998,-8.3273700000000002,-541.87699999999995,79.328900000000004
7131.0,1174.0999999999999,-167.93700000000001,-208.96600000000001,586.86800000000005,-3.56671,-504.73899999999998,62.744799999999998
7132.0,1164.25,-249.196,-215.767,608.83000000000004,-0.850545,-462.02600000000001,46.309199999999997
7133.0,1154.3,-304.637,-202.25800000000001,644.44200000000001,-0.21953600000000001,-414.54300000000001,30.564599999999999
7134.0,1145.1900000000001,-372.25,-207.322,656.04499999999996,-1.43797,-363.19999999999999,15.332800000000001
7135.0,1106.28,693.726,-110.184,-251.89099999999999,-216.29400000000001,302.49900000000002,-97.855999999999995
7136.0,1113.51,775.54899999999998,-69.223600000000005,-235.483,-227.279,248.87200000000001,-76.1374
7137.0,1122.51,777.57399999999996,-104.242,-288.51600000000002,-236.262,191.221,-54.218499999999999
7138.0,1131.4000000000001,845.15800000000002,-67.752399999999994,-263.71699999999998,-242.27600000000001,129.214,-32.507300000000001
7139.0,1140.45,832.505,-104.693,-305.59199999999998,-245.666,63.784100000000002,-11.397600000000001
7140.0,1149.04,884.101,-69.2363,-268.197,-246.24100000000001,-4.4813900000000002,8.6033100000000005
7141.0,1156.8599999999999,853.24699999999996,-106.95699999999999,-297.17500000000001,-244.00899999999999,-74.590199999999996,27.0627
7142.0,1163.21,883.02300000000002,-73.401700000000005,-248.30199999999999,-238.935,-145.53,43.364199999999997
7143.0,1167.03,829.12400000000002,-111.072,-265.07100000000003,-231.012,-215.80799999999999,56.789299999999997
7144.0,1167.6099999999999,832.0,-78.560500000000005,-206.79900000000001,-220.21899999999999,-284.11399999999998,66.628
7145.0,1163.0799999999999,748.65899999999999,-115.749,-216.899,-207.667,-347.75299999999999,72.349500000000006
7146.0,1151.3499999999999,718.08299999999997,-84.962000000000003,-156.083,-190.64599999999999,-405.85500000000002,71.535200000000003
7147.0,1142.51,576.32299999999998,-162.46600000000001,-192.95599999999999,-172.08799999999999,-459.64100000000002,66.875699999999995
7148.0,1136.45,479.91699999999997,-182.05600000000001,-175.536,-161.316,-505.37599999999998,66.559899999999999
7149.0,1124.45,339.99099999999999,-227.959,-195.09800000000001,-151.51300000000001,-540.77300000000002,66.424499999999995
7150.0,1111.9400000000001,289.74700000000001,-185.44900000000001,-119.20399999999999,-139.79499999999999,-568.08699999999999,60.241500000000002
7151.0,1103.55,169.68700000000001,-216.92099999999999,-107.17400000000001,-129.447,-588.75400000000002,53.466799999999999
7152.0,1096.99,119.611,-180.13900000000001,-24.195900000000002,-119.785,-601.65499999999997,48.135599999999997
7153.0,1089.97,3.6246100000000001,-210.83099999999999,-6.2229099999999997,-111.259,-605.96500000000003,42.234499999999997
7154.0,1083.3099999999999,-40.9452,-171.643,83.382000000000005,-103.301,-602.46100000000001,35.915599999999998
7155.0,1076.6400000000001,-154.07900000000001,-203.53999999999999,100.705,-96.566100000000006,-591.20000000000005,29.795400000000001
7156.0,1069.3699999999999,-193.173,-164.374,187.64099999999999,-91.135000000000005,-572.17700000000002,23.0367
7157.0,1062.1700000000001,-298.274,-195.56100000000001,201.96899999999999,-87.016599999999997,-546.28599999999994,16.223400000000002
7158.0,1054.8199999999999,-330.358,-158.33699999999999,281.14100000000002,-84.210599999999999,-514.06299999999999,9.2678499999999993
7159.0,1047.6900000000001,-425.52999999999997,-189.547,287.608,-82.730900000000005,-476.49000000000001,2.4167800000000002
7160.0,1040.6099999999999,-446.267,-151.72900000000001,357.81599999999997,-82.715100000000007,-434.286,-4.4202700000000004
7161.0,1033.75,-530.09100000000001,-182.958,353.26400000000001,-84.075999999999993,-388.54199999999997,-10.959300000000001
7162.0,1026.5599999999999,-539.83100000000002,-146.404,410.43799999999999,-86.759900000000002,-339.82600000000002,-16.880099999999999
7163.0,974.98400000000004,519.58900000000006,-103.49299999999999,-354.35199999999998,-130.01499999999999,242.97399999999999,-196.04900000000001
7164.0,981.07100000000003,519.73800000000006,-131.238,-413.56099999999998,-145.39599999999999,195.09,-180.40600000000001
7165.0,987.649,579.32500000000005,-95.838700000000003,-403.279,-158.92699999999999,143.01900000000001,-163.68299999999999
7166.0,994.625,571.48099999999999,-123.114,-449.13200000000001,-170.49600000000001,87.045599999999993,-146.22
7167.0,1001.64,619.23099999999999,-88.780299999999997,-426.37700000000001,-179.995,27.8264,-128.44200000000001
7168.0,1008.59,596.85699999999997,-117.80500000000001,-459.62900000000002,-187.25899999999999,-33.924999999999997,-110.66200000000001
7169.0,1015.22,628.48500000000001,-85.052000000000007,-423.56999999999999,-192.23400000000001,-97.278899999999993,-93.347200000000001
7170.0,1021.12,589.57600000000002,-113.952,-441.80599999999998,-194.773,-161.22,-77.027699999999996
7171.0,1025.96,601.154,-82.610399999999998,-392.81400000000002,-194.88300000000001,-224.452,-62.326700000000002
7172.0,1028.73,541.02999999999997,-111.399,-398.18700000000001,-192.52600000000001,-285.50700000000001,-50.085500000000003
7173.0,1029.4200000000001,529.57299999999998,-80.283799999999999,-338.94999999999999,-187.81999999999999,-342.67200000000003,-40.895800000000001
7174.0,1026.28,445.24400000000003,-107.68300000000001,-337.072,-181.887,-393.65600000000001,-36.176400000000001
7175.0,1021.8,403.19499999999999,-85.388000000000005,-280.07600000000002,-171.82300000000001,-439.55900000000003,-37.0777
7176.0,1019.87,265.98899999999998,-158.61799999999999,-310.33800000000002,-165.24799999999999,-478.26799999999997,-37.722200000000001
7177.0,1012.53,179.51300000000001,-167.785,-280.43700000000001,-163.50399999999999,-506.22399999999999,-35.547899999999998
7178.0,1006.3099999999999,60.871200000000002,-203.56800000000001,-281.803,-156.482,-528.851,-33.748199999999997
7179.0,1003.03,14.9313,-169.30000000000001,-213.31,-151.99100000000001,-544.57000000000005,-32.224299999999999
7180.0,997.39499999999998,-87.492099999999994,-191.583,-195.70099999999999,-147.54499999999999,-552.178,-34.187399999999997
7181.0,994.798,-129.107,-157.404,-117.498,-142.548,-554.88300000000004,-35.183799999999998
7182.0,989.90099999999995,-227.42099999999999,-182.203,-100.70699999999999,-140.25299999999999,-549.19299999999998,-35.023499999999999
7183.0,982.20799999999997,-260.98200000000003,-145.78899999999999,-20.428999999999998,-137.27600000000001,-535.65200000000004,-36.5319
7184.0,974.60799999999995,-352.57299999999998,-171.643,-2.3817499999999998,-135.06800000000001,-516.11300000000006,-36.5291
7185.0,966.44200000000001,-378.964,-136.52500000000001,74.372100000000003,-133.56700000000001,-490.59399999999999,-36.7744
7186.0,958.36000000000001,-459.14999999999998,-160.78299999999999,89.938299999999998,-133.03700000000001,-459.92599999999999,-36.839199999999998
7187.0,950.34699999999998,-475.00999999999999,-126.589,160.90899999999999,-133.32900000000001,-424.85000000000002,-37.032600000000002
7188.0,942.23800000000006,-544.69000000000005,-152.51400000000001,167.98500000000001,-134.20599999999999,-386.18900000000002,-37.1462
7189.0,933.851,-549.59500000000003,-120.21299999999999,229.114,-135.511,-344.697,-37.181399999999996
7190.0,925.00599999999997,-606.25,-145.441,227.155,-137.733,-301.00099999999998,-36.743600000000001
7191.0,864.92999999999995,364.30099999999999,-140.251,-397.15300000000002,-78.980699999999999,190.047,-238.637
7192.0,871.74300000000005,409.96600000000001,-112.71899999999999,-402.90600000000001,-95.401700000000005,149.28899999999999,-228.535
7193.0,878.50400000000002,409.08300000000003,-128.63200000000001,-446.71499999999997,-110.268,104.539,-216.91300000000001
7194.0,885.41099999999994,446.13900000000001,-102.735,-442.68700000000001,-124.033,56.430799999999998,-203.982
7195.0,892.05899999999997,435.41000000000003,-119.64400000000001,-474.97300000000001,-136.28700000000001,5.4269699999999998,-190.077
7196.0,898.40099999999995,462.22000000000003,-93.5154,-457.19499999999999,-146.898,-47.802599999999998,-175.422
7197.0,904.29100000000005,439.74299999999999,-110.408,-475.12299999999999,-155.74600000000001,-102.426,-160.38200000000001
7198.0,909.41399999999999,451.98200000000003,-85.430700000000002,-443.79199999999997,-162.63,-157.518,-145.40899999999999
7199.0,913.78800000000001,414.93000000000001,-102.276,-446.94400000000002,-167.54499999999999,-211.96600000000001,-130.94900000000001
7200.0,916.53999999999996,410.452,-77.388800000000003,-401.98399999999998,-170.351,-264.34800000000001,-117.819
7201.0,918.39200000000005,354.37200000000001,-96.298299999999998,-394.74200000000002,-171.03899999999999,-313.56700000000001,-106.51600000000001
7202.0,917.495,332.29500000000002,-69.406800000000004,-339.63299999999998,-170.81100000000001,-357.15899999999999,-97.713999999999999
7203.0,915.07600000000002,256.40899999999999,-90.897499999999994,-327.94099999999997,-166.239,-395.63900000000001,-92.607699999999994
7204.0,915.51099999999997,207.63399999999999,-83.418700000000001,-283.762,-166.12100000000001,-427.36099999999999,-89.996799999999993
7205.0,911.76199999999994,126.17700000000001,-97.558000000000007,-261.69900000000001,-167.14400000000001,-450.58300000000003,-90.737899999999996
7206.0,907.84400000000005,54.440100000000001,-108.163,-226.69300000000001,-162.452,-469.43599999999998,-89.696700000000007
7207.0,903.02999999999997,-52.853999999999999,-151.71199999999999,-233.65600000000001,-164.446,-479.37299999999999,-82.365899999999996
7208.0,895.149,-90.284499999999994,-117.13,-167.48099999999999,-161.01599999999999,-482.822,-80.734800000000007
7209.0,891.46299999999997,-192.47399999999999,-156.602,-166.83000000000001,-155.68000000000001,-483.94499999999999,-78.236400000000003
7210.0,886.28800000000001,-240.898,-140.85499999999999,-118.45,-156.05500000000001,-477.51600000000002,-72.183400000000006
7211.0,879.71199999999999,-312.68000000000001,-149.24199999999999,-94.829700000000003,-155.50299999999999,-464.69,-70.649299999999997
7212.0,872.29899999999998,-342.464,-123.43899999999999,-33.958399999999997,-155.96899999999999,-446.56700000000001,-68.514099999999999
7213.0,862.63800000000003,-407.63999999999999,-138.001,-13.543699999999999,-156.23599999999999,-422.77699999999999,-65.678299999999993
7214.0,852.97900000000004,-429.721,-115.45399999999999,43.919600000000003,-156.547,-395.12,-61.767200000000003
7215.0,843.226,-484.49700000000001,-131.62100000000001,61.0212,-156.99700000000001,-364.02100000000002,-57.562100000000001
7216.0,833.72299999999996,-493.28300000000002,-108.44499999999999,115.76300000000001,-157.82599999999999,-330.20600000000002,-53.554900000000004
7217.0,824.44600000000003,-535.81500000000005,-125.43600000000001,127.511,-159.13999999999999,-294.41199999999998,-50.003599999999999
7218.0,814.57799999999997,-533.35699999999997,-102.349,174.16999999999999,-160.69,-257.01900000000001,-46.496400000000001
7219.0,753.63800000000003,313.14999999999998,-112.374,-328.28100000000001,-52.525799999999997,148.66499999999999,-240.71299999999999
7220.0,761.64300000000003,313.78899999999999,-123.64700000000001,-371.34699999999998,-67.8035,114.63800000000001,-235.10599999999999
7221.0,769.22900000000004,342.286,-104.41,-379.50799999999998,-81.937299999999993,77.086500000000001,-227.774
7222.0,776.76900000000001,339.22899999999998,-113.59,-410.93799999999999,-95.6096,36.785800000000002,-218.923
7223.0,783.73199999999997,360.25099999999998,-94.586299999999994,-408.54700000000003,-108.226,-6.0327099999999998,-208.75700000000001
7224.0,790.13400000000001,348.19499999999999,-104.283,-428.61399999999998,-119.726,-50.723999999999997,-197.40899999999999
7225.0,795.74699999999996,358.82600000000002,-86.225800000000007,-414.33199999999999,-129.90799999999999,-96.618499999999997,-185.13999999999999
7226.0,800.42399999999998,337.15199999999999,-94.950400000000002,-419.95999999999998,-138.584,-142.876,-172.279
7227.0,804.06299999999999,335.49400000000003,-77.760099999999994,-392.75099999999998,-145.691,-188.58000000000001,-159.14699999999999
7228.0,806.32600000000002,301.851,-85.998900000000006,-384.447,-151.03700000000001,-232.523,-146.369
7229.0,807.34900000000005,287.68799999999999,-68.550299999999993,-344.19600000000003,-154.714,-273.76100000000002,-134.273
7230.0,806.22900000000004,241.39099999999999,-75.890699999999995,-324.49400000000003,-156.874,-310.339,-123.68899999999999
7231.0,804.66999999999996,212.76900000000001,-62.0535,-278.25400000000002,-157.23699999999999,-342.298,-115.66
7232.0,802.71500000000003,155.154,-70.940100000000001,-254.93199999999999,-158.571,-368.49099999999999,-107.995
7233.0,798.86400000000003,122.986,-48.5642,-202.41499999999999,-157.529,-388.447,-102.586
7234.0,796.89400000000001,59.901000000000003,-61.893999999999998,-177.02000000000001,-156.792,-403.55000000000001,-101.03100000000001
7235.0,793.43100000000004,11.7257,-59.122100000000003,-134.387,-159.03899999999999,-411.88499999999999,-97.789599999999993
7236.0,785.78300000000002,-64.332700000000003,-81.978899999999996,-122.03100000000001,-158.44399999999999,-413.46800000000002,-94.252899999999997
7237.0,777.822,-117.645,-85.293000000000006,-88.299000000000007,-157.303,-409.86599999999999,-92.815899999999999
7238.0,770.61800000000005,-209.93100000000001,-127.56999999999999,-95.7166,-156.21299999999999,-402.74099999999999,-88.733400000000003
7239.0,762.154,-261.45999999999998,-125.946,-69.482299999999995,-156.25200000000001,-390.92599999999999,-81.573099999999997
7240.0,753.97799999999995,-321.0,-133.38,-54.651800000000001,-156.39500000000001,-374.5,-77.852999999999994
7241.0,747.24099999999999,-348.27600000000001,-115.57299999999999,-11.256600000000001,-157.399,-355.072,-74.183899999999994
7242.0,738.73900000000003,-392.25599999999997,-121.79900000000001,8.0733200000000007,-159.55000000000001,-331.60599999999999,-69.139899999999997
7243.0,728.89400000000001,-404.55099999999999,-104.461,53.340200000000003,-160.68000000000001,-305.05599999999998,-64.148300000000006
7244.0,718.33600000000001,-436.85399999999998,-113.994,72.165499999999994,-160.696,-276.51600000000002,-58.186399999999999
7245.0,707.01800000000003,-440.15499999999997,-101.578,112.72499999999999,-158.67500000000001,-246.93799999999999,-52.562600000000003
7246.0,693.94500000000005,-461.625,-112.41,125.378,-157.328,-215.59800000000001,-45.902799999999999
7247.0,643.952,263.48899999999998,-108.84099999999999,-267.08999999999997,-41.488399999999999,117.928,-219.99700000000001
7248.0,652.44799999999998,285.27199999999999,-95.249200000000002,-281.94299999999998,-54.696399999999997,89.810599999999994,-217.42699999999999
7249.0,660.46699999999998,286.85899999999998,-99.744200000000006,-311.322,-67.090999999999994,58.6511,-213.20599999999999
7250.0,668.31100000000004,303.072,-87.0501,-319.25,-79.445599999999999,25.298500000000001,-207.434
7251.0,675.46400000000006,298.34699999999998,-91.928399999999996,-340.06999999999999,-91.059299999999993,-10.1745,-200.27699999999999
7252.0,681.93899999999996,308.67399999999998,-78.264899999999997,-337.08499999999998,-101.94199999999999,-47.190300000000001,-191.76900000000001
7253.0,687.44200000000001,297.11799999999999,-82.372399999999999,-346.23599999999999,-111.82299999999999,-85.211600000000004,-182.125
7254.0,691.90300000000002,298.28800000000001,-69.495000000000005,-332.40600000000001,-120.58799999999999,-123.542,-171.5
7255.0,695.08600000000001,278.62200000000001,-72.787400000000005,-328.61500000000001,-128.06100000000001,-161.37700000000001,-160.18899999999999
7256.0,696.94600000000003,270.20400000000001,-60.182499999999997,-302.80399999999997,-134.14099999999999,-197.83699999999999,-148.49799999999999
7257.0,697.16899999999998,240.434,-64.031199999999998,-287.70999999999998,-138.74000000000001,-231.864,-136.846
7258.0,696.10500000000002,222.36600000000001,-52.005299999999998,-251.71799999999999,-141.85499999999999,-262.541,-125.764
7259.0,693.79999999999995,185.67099999999999,-54.058799999999998,-226.24799999999999,-143.852,-289.25900000000001,-115.27800000000001
7260.0,689.54200000000003,162.18899999999999,-40.2318,-181.09399999999999,-144.46600000000001,-310.82400000000001,-105.974
7261.0,684.73099999999999,118.03,-46.3919,-153.124,-144.57499999999999,-327.31,-97.946600000000004
7262.0,679.85400000000004,91.258399999999995,-31.398800000000001,-106.735,-144.24000000000001,-339.166,-90.782499999999999
7263.0,675.14999999999998,47.624699999999997,-32.942399999999999,-75.562299999999993,-142.81299999999999,-346.60500000000002,-86.593800000000002
7264.0,671.32899999999995,12.1303,-28.408100000000001,-36.064,-143.607,-349.25900000000001,-83.379999999999995
7265.0,664.64099999999996,-34.581000000000003,-31.020700000000001,-9.1652900000000006,-144.851,-345.46100000000001,-82.063900000000004
7266.0,658.23900000000003,-82.508600000000001,-40.550899999999999,15.9666,-143.42400000000001,-338.363,-83.212199999999996
7267.0,649.36800000000005,-157.39699999999999,-78.628,6.5781700000000001,-146.429,-325.91000000000003,-78.583200000000005
7268.0,637.06299999999999,-202.32499999999999,-80.096900000000005,24.775200000000002,-145.83699999999999,-308.79199999999997,-75.784999999999997
7269.0,629.10199999999998,-271.80799999999999,-111.08199999999999,14.3735,-143.238,-292.91399999999999,-70.911600000000007
7270.0,620.39300000000003,-303.30900000000003,-108.785,31.5671,-144.24199999999999,-274.43799999999999,-62.401600000000002
7271.0,610.48500000000001,-330.137,-110.41200000000001,49.617100000000001,-144.178,-252.73599999999999,-56.726799999999997
7272.0,599.44799999999998,-330.96499999999997,-96.6113,88.400300000000001,-143.73099999999999,-228.88200000000001,-50.634999999999998
7273.0,588.99000000000001,-345.88299999999998,-107.246,108.982,-141.72999999999999,-204.001,-46.532699999999998
7274.0,577.44299999999998,-328.55200000000002,-90.081000000000003,150.82599999999999,-142.66900000000001,-178.32300000000001,-39.268300000000004
7275.0,543.85500000000002,253.76300000000001,-78.986000000000004,-184.458,-38.509300000000003,96.713899999999995,-188.261
7276.0,551.971,255.00299999999999,-84.157399999999996,-213.876,-49.435000000000002,73.318700000000007,-187.404
7277.0,559.70399999999995,269.11599999999999,-74.705299999999994,-225.798,-59.819099999999999,47.390099999999997,-185.11699999999999
7278.0,567.36400000000003,268.81599999999997,-77.638300000000001,-246.63900000000001,-70.320800000000006,19.698799999999999,-181.43899999999999
7279.0,574.38199999999995,278.38499999999999,-67.930899999999994,-251.02799999999999,-80.312600000000003,-9.7347000000000001,-176.45699999999999
7280.0,580.73000000000002,272.291,-71.0214,-263.90699999999998,-89.787999999999997,-40.4255,-170.16800000000001
7281.0,586.13,275.03500000000003,-61.946199999999997,-259.94600000000003,-98.506399999999999,-71.942800000000005,-162.715
7282.0,590.47199999999998,263.49400000000003,-63.721299999999999,-261.822,-106.352,-103.712,-154.18700000000001
7283.0,593.58100000000002,258.774,-55.065399999999997,-248.05099999999999,-113.158,-135.083,-144.77199999999999
7284.0,595.32299999999998,240.67400000000001,-56.185499999999998,-238.755,-118.816,-165.33199999999999,-134.66
7285.0,595.62900000000002,229.88200000000001,-46.514800000000001,-213.56399999999999,-123.202,-193.66200000000001,-124.163
7286.0,594.46699999999998,205.714,-47.016599999999997,-193.71299999999999,-126.34,-219.39099999999999,-113.491
7287.0,591.51499999999999,188.01400000000001,-38.434600000000003,-160.339,-128.12299999999999,-241.56999999999999,-103.005
7288.0,587.726,157.745,-40.458300000000001,-134.73599999999999,-128.79900000000001,-259.97399999999999,-93.159599999999998
7289.0,583.21699999999998,137.81299999999999,-30.056000000000001,-94.662800000000004,-128.548,-274.53500000000003,-84.183800000000005
7290.0,577.46600000000001,105.116,-32.291600000000003,-64.476200000000006,-127.497,-284.613,-76.045000000000002
7291.0,571.18600000000004,82.081999999999994,-23.786300000000001,-24.3627,-126.002,-290.40100000000001,-69.176000000000002
7292.0,565.52700000000004,50.032299999999999,-22.6432,6.8362699999999998,-124.048,-292.95299999999997,-63.730699999999999
7293.0,558.721,25.473400000000002,-12.18,44.273600000000002,-122.521,-290.899,-59.969200000000001
7294.0,552.63999999999999,-12.9917,-17.1478,66.625799999999998,-121.22,-285.19600000000003,-59.5304
7295.0,546.52800000000002,-41.307200000000002,-12.8834,94.7654,-123.44799999999999,-275.09800000000001,-59.109400000000001
7296.0,536.15099999999995,-87.685100000000006,-26.736799999999999,102.14,-124.008,-259.55900000000003,-60.642499999999998
7297.0,525.77499999999998,-148.00299999999999,-62.432499999999997,91.422499999999999,-122.456,-242.547,-60.0169
7298.0,515.41600000000005,-209.715,-103.75700000000001,69.5398,-122.52200000000001,-225.626,-52.522199999999998
7299.0,504.202,-222.93799999999999,-100.053,88.771299999999997,-123.124,-207.18600000000001,-44.734099999999998
7300.0,494.50999999999999,-222.38200000000001,-87.922600000000003,120.44799999999999,-122.152,-187.31200000000001,-40.845500000000001
7301.0,490.03100000000001,-209.916,-69.445499999999996,165.76900000000001,-118.947,-168.791,-37.039400000000001
7302.0,483.08600000000001,-187.15600000000001,-39.964300000000001,211.41900000000001,-118.048,-149.53800000000001,-29.553699999999999
7303.0,458.76299999999998,237.97300000000001,-63.715800000000002,-126.51600000000001,-39.239899999999999,82.230099999999993,-154.54499999999999
7304.0,465.94,250.03,-57.374600000000001,-140.14099999999999,-48.098399999999998,62.501399999999997,-154.542
7305.0,472.93400000000003,252.66800000000001,-59.0642,-159.55000000000001,-56.593899999999998,40.688800000000001,-153.28899999999999
7306.0,479.95800000000003,261.45299999999997,-52.927399999999999,-168.35400000000001,-65.217600000000004,17.488299999999999,-150.816
7307.0,486.50599999999997,259.87400000000002,-54.891500000000001,-182.16300000000001,-73.460599999999999,-7.15001,-147.20699999999999
7308.0,492.50700000000001,265.03199999999998,-47.719000000000001,-183.339,-81.293499999999995,-32.818399999999997,-142.46100000000001
7309.0,497.70600000000002,259.22699999999998,-48.7502,-188.916,-88.517399999999995,-59.177300000000002,-136.66900000000001
7310.0,501.98399999999998,258.108,-42.270699999999998,-182.88300000000001,-95.024299999999997,-85.747100000000003,-129.87899999999999
7311.0,505.17899999999997,247.39400000000001,-42.470799999999997,-179.214,-100.68000000000001,-112.01300000000001,-122.2
7312.0,507.17899999999997,240.49199999999999,-36.009799999999998,-164.47800000000001,-105.364,-137.38399999999999,-113.76000000000001
7313.0,507.887,223.61699999999999,-36.828299999999999,-152.614,-108.979,-161.27199999999999,-104.72199999999999
7314.0,507.20299999999997,211.494,-30.4526,-129.38999999999999,-111.429,-183.02000000000001,-95.312100000000001
7315.0,505.38799999999998,191.339,-30.0505,-108.517,-112.733,-202.191,-85.839399999999998
7316.0,502.25400000000002,176.96899999999999,-22.2361,-76.755300000000005,-112.911,-218.321,-76.385599999999997
7317.0,497.91199999999998,153.49600000000001,-22.603100000000001,-50.502800000000001,-111.968,-230.947,-67.3142
7318.0,493.262,136.352,-15.4833,-15.5342,-110.244,-240.34,-59.148699999999998
7319.0,487.98099999999999,111.30800000000001,-15.436299999999999,13.7476,-107.914,-246.23500000000001,-51.889699999999998
7320.0,481.49599999999998,91.259500000000003,-10.2064,48.625700000000002,-105.136,-248.07400000000001,-45.709800000000001
7321.0,474.786,64.5334,-11.363899999999999,75.762500000000003,-102.245,-246.45599999999999,-41.226399999999998
7322.0,467.59300000000002,44.590200000000003,-4.0129000000000001,108.224,-99.682199999999995,-241.536,-37.902299999999997
7323.0,459.24099999999999,17.316099999999999,-2.6082800000000002,129.78999999999999,-97.313500000000005,-233.291,-36.196199999999997
7324.0,450.786,-3.5599599999999998,3.4154599999999999,153.24000000000001,-96.567099999999996,-221.80000000000001,-36.993099999999998
7325.0,442.49299999999999,-37.128599999999999,-8.8202300000000005,160.596,-97.053700000000006,-206.93100000000001,-39.920400000000001
7326.0,436.49599999999998,-75.957899999999995,-34.776499999999999,158.05699999999999,-97.882599999999996,-191.869,-38.828600000000002
7327.0,428.16500000000002,-92.350399999999993,-38.420299999999997,169.244,-99.488900000000001,-176.41,-31.8202
7328.0,419.21600000000001,-79.831800000000001,-12.3169,209.93299999999999,-95.4983,-159.99000000000001,-29.624199999999998
7329.0,414.49000000000001,-89.596000000000004,-15.0398,229.40700000000001,-88.370699999999999,-144.80699999999999,-25.3538
7330.0,405.74799999999999,-78.712100000000007,4.0119300000000004,261.33199999999999,-82.030799999999999,-127.791,-19.2242
7331.0,390.43000000000001,233.82400000000001,-41.020899999999997,-74.2988,-40.7834,72.471500000000006,-123.688
7332.0,396.43599999999998,235.95400000000001,-44.427700000000002,-94.084599999999995,-47.875900000000001,55.495800000000003,-123.886
7333.0,402.49599999999998,245.23099999999999,-39.637,-103.762,-54.775500000000001,36.855499999999999,-123.015
7334.0,408.71600000000001,246.767,-41.212800000000001,-117.48399999999999,-61.766199999999998,17.063700000000001,-121.128
7335.0,414.64299999999997,253.208,-36.016300000000001,-121.878,-68.421000000000006,-3.9131100000000001,-118.298
7336.0,420.185,250.398,-38.018300000000004,-130.61699999999999,-74.709500000000006,-25.756699999999999,-114.535
7337.0,425.11099999999999,251.67599999999999,-33.592199999999998,-129.81999999999999,-80.461799999999997,-48.181800000000003,-109.91500000000001
7338.0,429.32299999999998,245.31999999999999,-34.405799999999999,-130.917,-85.599900000000005,-70.799800000000005,-104.46899999999999
7339.0,432.673,241.358,-30.374199999999998,-123.655,-90.005399999999995,-93.183099999999996,-98.262699999999995
7340.0,435.06999999999999,230.77500000000001,-30.6111,-117.026,-93.589299999999994,-114.872,-91.369299999999996
7341.0,436.40199999999999,223.43799999999999,-25.371300000000002,-101.29300000000001,-96.246499999999997,-135.37200000000001,-83.902900000000002
7342.0,436.654,209.27500000000001,-24.975999999999999,-86.894000000000005,-97.915999999999997,-154.23400000000001,-76.001499999999993
7343.0,435.71300000000002,197.566,-20.438400000000001,-64.987300000000005,-98.526899999999998,-170.99100000000001,-67.790999999999997
7344.0,433.779,179.464,-20.922499999999999,-45.296500000000002,-98.090999999999994,-185.298,-59.609499999999997
7345.0,431.07499999999999,165.548,-16.009699999999999,-17.805099999999999,-96.741200000000006,-197.024,-51.645299999999999
7346.0,427.29300000000001,146.459,-15.479699999999999,7.4453899999999997,-94.456299999999999,-205.73699999999999,-43.9407
7347.0,422.80399999999997,131.15000000000001,-10.5754,38.186599999999999,-91.4024,-211.38399999999999,-36.955800000000004
7348.0,417.90199999999999,111.10599999999999,-9.5187100000000004,65.276799999999994,-87.932100000000005,-214.03800000000001,-31.021899999999999
7349.0,412.26999999999998,94.238900000000001,-4.6771700000000003,95.956000000000003,-84.202200000000005,-213.45599999999999,-26.138500000000001
7350.0,405.44,71.709500000000006,-5.4507500000000002,119.864,-80.473500000000001,-209.31999999999999,-22.515899999999998
7351.0,397.61500000000001,53.551699999999997,-2.5717300000000001,145.44800000000001,-76.966800000000006,-201.92500000000001,-20.4343
7352.0,389.12799999999999,31.442399999999999,-3.45838,162.613,-74.113299999999995,-192.21299999999999,-19.174600000000002
7353.0,380.72899999999998,17.234500000000001,2.9748100000000002,183.22499999999999,-71.610600000000005,-181.02199999999999,-19.498799999999999
7354.0,374.93000000000001,-1.1302700000000001,0.45396900000000001,197.096,-69.812799999999996,-169.14400000000001,-19.493200000000002
7355.0,368.56099999999998,-9.7286599999999996,5.2363499999999998,216.41900000000001,-67.668499999999995,-156.32499999999999,-16.383800000000001
7356.0,361.67399999999998,-18.968800000000002,6.7711800000000002,233.09200000000001,-62.456899999999997,-142.29900000000001,-14.718
7357.0,357.37900000000002,-22.560300000000002,7.8028300000000002,252.994,-57.016199999999998,-127.736,-13.319800000000001
7358.0,352.315,-29.6175,4.5339999999999998,265.05000000000001,-52.501899999999999,-111.786,-12.057700000000001
7359.0,337.41399999999999,222.58500000000001,-28.861000000000001,-42.441699999999997,-41.936900000000001,65.315899999999999,-98.232500000000002
7360.0,342.28500000000003,231.648,-25.282499999999999,-52.326099999999997,-47.691000000000003,50.482500000000002,-98.314599999999999
7361.0,347.44499999999999,235.369,-26.294599999999999,-65.148099999999999,-53.350499999999997,34.294699999999999,-97.480400000000003
7362.0,352.89699999999999,242.124,-23.172899999999998,-71.880200000000002,-59.034199999999998,17.1325,-95.784400000000005
7363.0,358.20999999999998,242.65100000000001,-24.7075,-81.104600000000005,-64.400599999999997,-1.04271,-93.326099999999997
7364.0,363.29599999999999,246.84100000000001,-20.8187,-82.511799999999994,-69.397999999999996,-19.971499999999999,-90.145799999999994
7365.0,367.952,244.34100000000001,-21.588699999999999,-85.995599999999996,-73.900099999999995,-39.414400000000001,-86.313699999999997
7366.0,372.09199999999998,243.446,-18.6708,-83.030900000000003,-77.840599999999995,-59.0398,-81.854399999999998
7367.0,375.601,237.31,-18.879999999999999,-80.2941,-81.1387,-78.495500000000007,-76.816999999999993
7368.0,378.38799999999998,232.09299999999999,-16.1312,-71.623000000000005,-83.714699999999993,-97.3964,-71.240799999999993
7369.0,380.36599999999999,221.142,-17.197199999999999,-63.776400000000002,-85.494299999999996,-115.357,-65.196200000000005
7370.0,381.44999999999999,212.16499999999999,-14.544700000000001,-49.279800000000002,-86.4054,-131.99100000000001,-58.774299999999997
7371.0,381.65600000000001,199.095,-14.426299999999999,-34.601199999999999,-86.421599999999998,-146.96199999999999,-52.1387
7372.0,380.93200000000002,188.46000000000001,-10.5242,-13.5884,-85.533100000000005,-159.977,-45.350999999999999
7373.0,379.23399999999998,173.29900000000001,-10.0776,6.1882099999999998,-83.715400000000002,-170.703,-38.586799999999997
7374.0,376.86799999999999,159.852,-6.9418300000000004,30.350100000000001,-81.135300000000001,-179.05799999999999,-32.167200000000001
7375.0,373.74200000000002,142.69300000000001,-6.6392300000000004,53.034300000000002,-77.895200000000003,-184.82400000000001,-26.1448
7376.0,369.78199999999998,127.982,-3.39141,79.516800000000003,-74.045400000000001,-187.76499999999999,-20.670500000000001
7377.0,365.06799999999998,109.922,-3.0527199999999999,103.116,-69.836299999999994,-187.821,-16.044499999999999
7378.0,359.61399999999998,95.421499999999995,1.1599600000000001,129.61699999999999,-65.502799999999993,-185.02500000000001,-12.5151
7379.0,353.48000000000002,76.934700000000007,1.43709,150.488,-61.337899999999998,-179.529,-10.1006
7380.0,346.51299999999998,62.7744,4.8525600000000004,172.767,-57.394300000000001,-171.40299999999999,-8.7133199999999995
7381.0,339.41800000000001,44.897500000000001,2.4701900000000001,187.37200000000001,-53.637900000000002,-161.5,-7.7987099999999998
7382.0,332.59699999999998,34.079000000000001,5.6431100000000001,205.06800000000001,-49.801099999999998,-150.69300000000001,-7.0105899999999997
7383.0,327.20400000000001,21.529800000000002,4.0948500000000001,218.096,-45.739899999999999,-139.37700000000001,-6.7934999999999999
7384.0,323.35000000000002,13.899100000000001,5.3124900000000004,234.089,-41.8371,-127.452,-6.4271000000000003
7385.0,320.11399999999998,4.6299200000000003,5.0399599999999998,246.68899999999999,-37.849899999999998,-114.824,-6.5241100000000003
7386.0,317.66500000000002,-1.02854,7.8579999999999997,261.04300000000001,-34.469200000000001,-101.265,-7.10372
7387.0,296.57799999999997,214.94800000000001,-15.2187,-17.376899999999999,-42.088299999999997,59.7378,-78.443100000000001
7388.0,300.505,217.94399999999999,-17.611999999999998,-30.997399999999999,-46.840899999999998,46.530900000000003,-78.329800000000006
7389.0,304.95999999999998,225.47300000000001,-15.0001,-38.156999999999996,-51.598599999999998,32.242699999999999,-77.379000000000005
7390.0,309.78800000000001,228.45699999999999,-16.047999999999998,-47.257199999999997,-56.313899999999997,17.093599999999999,-75.698400000000007
7391.0,314.61900000000003,234.19999999999999,-13.032999999999999,-50.407200000000003,-60.717199999999998,1.05569,-73.396500000000003
7392.0,319.32499999999999,233.447,-14.960599999999999,-56.441400000000002,-64.738500000000002,-15.6595,-70.5428
7393.0,323.75099999999998,234.74799999999999,-13.060499999999999,-56.430900000000001,-68.281599999999997,-32.842500000000001,-67.215900000000005
7394.0,327.82799999999997,231.22399999999999,-14.146100000000001,-57.061500000000002,-71.299300000000002,-50.206899999999997,-63.4557
7395.0,331.46300000000002,228.23699999999999,-12.8323,-52.854900000000001,-73.728700000000003,-67.447000000000003,-59.2973
7396.0,334.58499999999998,221.33600000000001,-13.636100000000001,-48.271299999999997,-75.516999999999996,-84.238900000000001,-54.773699999999998
7397.0,337.09199999999998,216.02600000000001,-11.136699999999999,-37.890700000000002,-76.599500000000006,-100.255,-49.930599999999998
7398.0,338.90499999999997,206.27500000000001,-11.4794,-27.936900000000001,-76.929500000000004,-115.18300000000001,-44.829000000000001
7399.0,339.91399999999999,197.15899999999999,-9.7174200000000006,-13.5663,-76.463300000000004,-128.72,-39.523600000000002
7400.0,340.09899999999999,183.964,-10.705,0.14685999999999999,-75.199100000000001,-140.59399999999999,-34.163899999999998
7401.0,339.512,172.34,-8.8657599999999999,18.512499999999999,-73.211699999999993,-150.625,-28.8733
7402.0,338.03899999999999,158.15299999999999,-8.5261300000000002,36.954999999999998,-70.500200000000007,-158.54400000000001,-23.674900000000001
7403.0,335.79300000000001,145.446,-5.8613799999999996,58.917499999999997,-67.163300000000007,-164.19200000000001,-18.781400000000001
7404.0,332.88099999999997,129.536,-5.6014099999999996,79.226900000000001,-63.392699999999998,-167.471,-14.3658
7405.0,329.24200000000002,115.631,-2.8261500000000002,102.292,-59.271999999999998,-168.22499999999999,-10.5124
7406.0,324.90600000000001,98.240300000000005,-3.4230700000000001,121.764,-54.936199999999999,-166.40199999999999,-7.3173700000000004
7407.0,319.82999999999998,84.664699999999996,-0.55832000000000004,143.792,-50.499299999999998,-162.03999999999999,-4.8941699999999999
7408.0,314.42399999999998,68.162099999999995,-1.27946,160.58199999999999,-46.185600000000001,-155.61500000000001,-3.3486400000000001
7409.0,308.971,56.948099999999997,2.2335600000000002,179.94399999999999,-42.101300000000002,-147.50700000000001,-2.52779
7410.0,303.80799999999999,43.482700000000001,1.5730299999999999,193.78800000000001,-38.132599999999996,-138.172,-2.2551800000000002
7411.0,299.678,34.245100000000001,3.8316599999999998,209.28100000000001,-34.400500000000001,-128.262,-2.41858
7412.0,296.60399999999998,22.921700000000001,3.1964800000000002,221.078,-30.953299999999999,-117.63,-2.8916400000000002
7413.0,293.93599999999998,14.9826,4.6525299999999996,234.26900000000001,-27.785,-105.807,-3.5851199999999999
7414.0,291.29000000000002,4.9545199999999996,2.9969800000000002,242.68100000000001,-25.143899999999999,-92.931700000000006,-4.5117700000000003
7415.0,264.57400000000001,202.178,-9.0770900000000001,-4.2207699999999999,-41.414000000000001,54.771500000000003,-63.843299999999999
7416.0,267.79700000000003,209.78700000000001,-6.6162799999999997,-11.328099999999999,-45.449100000000001,42.881900000000002,-63.586100000000002
7417.0,271.75599999999997,214.018,-7.3226300000000002,-20.294799999999999,-49.558300000000003,30.123000000000001,-62.529299999999999
7418.0,276.13799999999998,220.11000000000001,-5.4525399999999999,-25.169899999999998,-53.593000000000004,16.5837,-60.8155
7419.0,280.625,221.77500000000001,-6.9272999999999998,-31.704999999999998,-57.3187,2.2448100000000002,-58.575200000000002
7420.0,285.06400000000002,225.92599999999999,-4.5512600000000001,-32.5486,-60.657600000000002,-12.7265,-55.9208
7421.0,289.33699999999999,225.21199999999999,-5.4828299999999999,-34.740600000000001,-63.531599999999997,-28.1386,-52.933599999999998
7422.0,293.38,224.858,-4.4236700000000004,-32.885599999999997,-65.904300000000006,-43.730200000000004,-49.661700000000003
7423.0,297.13200000000001,221.066,-5.1687799999999999,-30.709599999999998,-67.729299999999995,-59.232900000000001,-46.142499999999998
7424.0,300.51299999999998,217.065,-4.5295100000000001,-25.0045,-68.960400000000007,-74.357500000000002,-42.400300000000001
7425.0,303.423,208.89400000000001,-6.5255700000000001,-19.8155,-69.547499999999999,-88.825599999999994,-38.4711
7426.0,305.74400000000003,201.63999999999999,-6.1255800000000002,-10.1799,-69.450800000000001,-102.36,-34.403199999999998
7427.0,307.37900000000002,191.685,-6.9851799999999997,0.098532599999999998,-68.658799999999999,-114.712,-30.283100000000001
7428.0,308.24099999999999,182.70099999999999,-5.4776999999999996,14.463100000000001,-67.188100000000006,-125.64700000000001,-26.154599999999999
7429.0,308.22399999999999,170.67699999999999,-5.7335000000000003,28.596,-65.043000000000006,-134.91499999999999,-22.067399999999999
7430.0,307.411,158.583,-4.8608000000000002,45.131300000000003,-62.347099999999998,-142.37100000000001,-18.161100000000001
7431.0,305.81999999999999,144.07900000000001,-5.3064999999999998,61.329999999999998,-59.191800000000001,-147.85599999999999,-14.476699999999999
7432.0,303.44999999999999,131.054,-3.4859200000000001,80.476200000000006,-55.617699999999999,-151.196,-11.0524
7433.0,300.43200000000002,115.64,-3.5270899999999998,98.118200000000002,-51.765000000000001,-152.32400000000001,-8.0122999999999998
7434.0,296.83999999999997,102.886,-0.67531099999999999,118.512,-47.756100000000004,-151.21199999999999,-5.4767700000000001
7435.0,292.851,87.048000000000002,-1.0603899999999999,135.09100000000001,-43.724200000000003,-147.96899999999999,-3.5270100000000002
7436.0,288.54700000000003,74.940100000000001,1.6339300000000001,153.91200000000001,-39.708599999999997,-142.72999999999999,-2.1166200000000002
7437.0,284.17200000000003,60.168500000000002,0.59732399999999997,167.744,-35.7575,-135.87100000000001,-1.3034300000000001
7438.0,280.24599999999998,49.113100000000003,2.2689699999999999,182.97800000000001,-32.1021,-127.877,-1.1208899999999999
7439.0,276.839,36.662500000000001,1.4418299999999999,194.679,-28.796399999999998,-118.843,-1.41083
7440.0,273.90600000000001,27.257000000000001,2.6115400000000002,207.245,-25.93,-108.866,-2.1038000000000001
7441.0,271.39499999999998,16.031400000000001,1.3243400000000001,215.977,-23.7682,-97.972499999999997,-3.1343800000000002
7442.0,269.012,7.96279,2.28626,225.447,-22.194700000000001,-86.154499999999999,-4.3056000000000001
7443.0,238.626,191.755,-2.3107700000000002,6.3070300000000001,-40.036499999999997,50.144599999999997,-53.313000000000002
7444.0,241.35400000000001,194.69900000000001,-4.2139600000000002,-3.8434699999999999,-43.545200000000001,39.332900000000002,-53.006799999999998
7445.0,244.958,201.06299999999999,-2.6363599999999998,-9.3914799999999996,-47.199599999999997,27.8246,-51.907600000000002
7446.0,249.05099999999999,204.59800000000001,-3.3511299999999999,-15.8714,-50.7759,15.6014,-50.194499999999998
7447.0,253.31200000000001,209.99799999999999,-1.28834,-18.048200000000001,-54.057600000000001,2.6433200000000001,-48.012799999999999
7448.0,257.58100000000002,210.21299999999999,-3.2103700000000002,-22.545400000000001,-56.9572,-10.910600000000001,-45.492400000000004
7449.0,261.76100000000002,211.59800000000001,-2.5992099999999998,-22.723099999999999,-59.408000000000001,-24.882300000000001,-42.729599999999998
7450.0,265.81200000000001,209.59800000000001,-3.9520900000000001,-22.999099999999999,-61.379600000000003,-39.033999999999999,-39.786099999999998
7451.0,269.678,207.364,-4.1232899999999999,-20.184000000000001,-62.825499999999998,-53.116399999999999,-36.695500000000003
7452.0,273.28500000000003,202.59200000000001,-5.4564500000000002,-16.6129,-63.7057,-66.870699999999999,-33.489699999999999
7453.0,276.50700000000001,198.779,-4.4744299999999999,-8.8502200000000002,-63.969099999999997,-80.047600000000003,-30.2043
7454.0,279.20400000000001,191.56399999999999,-5.5194999999999999,-1.3513500000000001,-63.589300000000001,-92.405600000000007,-26.892299999999999
7455.0,281.22199999999998,184.042,-5.4758599999999999,8.8534500000000005,-62.5548,-103.712,-23.601299999999998
7456.0,282.44099999999997,173.346,-7.1741700000000002,18.742699999999999,-60.9026,-113.746,-20.4133
7457.0,282.85700000000003,162.893,-7.1635,31.511900000000001,-58.745100000000001,-122.346,-17.430499999999999
7458.0,282.39600000000002,150.762,-7.4863400000000002,44.884300000000003,-56.132899999999999,-129.29900000000001,-14.634399999999999
7459.0,281.07499999999999,138.83199999999999,-6.4811199999999998,60.355499999999999,-53.144799999999996,-134.44399999999999,-12.0206
7460.0,279.036,124.366,-7.0674700000000001,74.780799999999999,-49.928899999999999,-137.70400000000001,-9.6404899999999998
7461.0,276.36099999999999,111.27500000000001,-5.6570099999999996,91.461600000000004,-46.538499999999999,-138.99700000000001,-7.5047699999999997
7462.0,273.19400000000002,95.552700000000002,-6.6421200000000002,105.776,-43.039099999999998,-138.31100000000001,-5.6283399999999997
7463.0,269.68200000000002,83.147099999999995,-4.4528299999999996,122.988,-39.492800000000003,-135.70599999999999,-4.0797100000000004
7464.0,266.05599999999998,68.144999999999996,-5.3309100000000003,136.465,-36.022799999999997,-131.37700000000001,-2.9893200000000002
7465.0,262.55900000000003,56.949399999999997,-3.1157599999999999,152.221,-32.765099999999997,-125.55500000000001,-2.3924500000000002
7466.0,259.24799999999999,44.104500000000002,-3.50116,164.405,-29.747599999999998,-118.426,-2.2517299999999998
7467.0,256.28199999999998,33.7348,-2.2888299999999999,177.05799999999999,-27.147099999999998,-110.223,-2.5706199999999999
7468.0,253.65700000000001,22.0123,-3.2886600000000001,186.35400000000001,-25.0383,-101.03400000000001,-3.2329699999999999
7469.0,251.011,13.326499999999999,-2.1911999999999998,196.37,-23.265499999999999,-90.825500000000005,-4.0323200000000003
7470.0,248.501,3.3266900000000001,-3.5198100000000001,202.65000000000001,-21.951699999999999,-79.780100000000004,-4.8782899999999998
7471.0,216.83500000000001,178.49299999999999,-0.281831,10.9536,-38.353000000000002,45.611600000000003,-45.771599999999999
7472.0,219.18899999999999,184.42500000000001,1.2129700000000001,5.2672800000000004,-41.455500000000001,35.726900000000001,-45.528199999999998
7473.0,222.548,188.50800000000001,0.77446599999999999,-1.3991100000000001,-44.773800000000001,25.289400000000001,-44.491700000000002
7474.0,226.43799999999999,193.774,1.9261600000000001,-5.2877200000000002,-48.0398,14.1999,-42.833199999999998
7475.0,230.55099999999999,195.78399999999999,0.58443699999999998,-10.2896,-51.040700000000001,2.4311799999999999,-40.731000000000002
7476.0,234.71899999999999,199.71600000000001,2.20234,-10.7843,-53.680700000000002,-9.9069900000000004,-38.333500000000001
7477.0,238.87200000000001,199.97800000000001,1.3241499999999999,-12.124499999999999,-55.896900000000002,-22.6431,-35.740900000000003
7478.0,242.97499999999999,199.99600000000001,1.40774,-10.774900000000001,-57.650399999999998,-35.5518,-33.011499999999998
7479.0,246.98699999999999,197.809,0.45755800000000002,-8.6896500000000003,-58.8904,-48.403500000000001,-30.1831
7480.0,250.804,194.946,-0.020318300000000001,-4.3777799999999996,-59.557000000000002,-60.959699999999998,-27.2835
7481.0,254.274,188.869,-2.53573,-0.41133900000000001,-59.595500000000001,-72.998900000000006,-24.358599999999999
7482.0,257.21100000000001,183.23599999999999,-3.3465099999999999,6.8396400000000002,-58.980899999999998,-84.303700000000006,-21.476600000000001
7483.0,259.459,175.608,-4.7358200000000004,14.9107,-57.7498,-94.679199999999994,-18.752700000000001
7484.0,260.92399999999998,168.03299999999999,-4.5574399999999997,25.706499999999998,-55.9861,-103.92700000000001,-16.2822
7485.0,261.46800000000002,157.82599999999999,-5.4954900000000002,36.318399999999997,-53.745199999999997,-111.82299999999999,-14.0602
7486.0,261.12799999999999,146.40600000000001,-6.15158,47.921300000000002,-51.198700000000002,-118.22799999999999,-12.1393
7487.0,259.99200000000002,133.18700000000001,-7.27529,59.506599999999999,-48.485799999999998,-123.018,-10.5435
7488.0,258.06,120.751,-6.6318200000000003,73.143100000000004,-45.622,-126.05800000000001,-9.1304200000000009
7489.0,255.47800000000001,106.322,-7.3264300000000002,85.650899999999993,-42.685499999999998,-127.312,-7.8228799999999996
7490.0,252.46199999999999,94.166200000000003,-5.4613899999999997,100.751,-39.741599999999998,-126.809,-6.6422600000000003
7491.0,249.208,79.262699999999995,-6.4142400000000004,112.876,-36.848100000000002,-124.614,-5.6238999999999999
7492.0,245.94,67.790000000000006,-4.3601400000000003,127.703,-34.039099999999998,-120.863,-4.8021500000000001
7493.0,242.75399999999999,53.979100000000003,-5.3037700000000001,138.934,-31.376799999999999,-115.691,-4.2720000000000002
7494.0,239.87700000000001,42.886699999999998,-4.3086900000000004,151.36099999999999,-28.9954,-109.322,-4.1199000000000003
7495.0,237.11000000000001,31.034400000000002,-4.9351799999999999,161.149,-26.9621,-101.786,-4.2930099999999998
7496.0,234.54900000000001,21.469799999999999,-4.0649800000000003,171.36699999999999,-25.350300000000001,-93.218400000000003,-4.7478600000000002
7497.0,232.13999999999999,11.1075,-5.3575499999999998,178.23400000000001,-24.369499999999999,-83.794399999999996,-5.4445199999999998
7498.0,229.74100000000001,3.9759600000000002,-4.5828100000000003,185.95699999999999,-23.715800000000002,-73.552800000000005,-6.2114000000000003
7499.0,197.92400000000001,167.75999999999999,2.9124099999999999,15.7906,-36.520899999999997,41.229399999999998,-40.2303
7500.0,200.03700000000001,169.88399999999999,0.96628700000000001,7.6427699999999996,-39.303899999999999,32.154800000000002,-40.119799999999998
7501.0,203.149,174.77500000000001,1.7212099999999999,2.95296,-42.346800000000002,22.647200000000002,-39.222200000000001
7502.0,206.916,178.197,1.2193400000000001,-1.9868699999999999,-45.406599999999997,12.550800000000001,-37.672899999999998
7503.0,210.90799999999999,182.95599999999999,2.73848,-3.6539999999999999,-48.232799999999997,1.8330299999999999,-35.691800000000001
7504.0,215.02699999999999,183.50800000000001,0.91071199999999997,-7.2637799999999997,-50.735300000000002,-9.4285899999999998,-33.398699999999998
7505.0,219.179,184.779,0.80343200000000004,-7.6096199999999996,-52.8414,-21.053799999999999,-30.917999999999999
7506.0,223.38499999999999,183.88200000000001,-0.52370399999999995,-7.5511400000000002,-54.499699999999997,-32.851500000000001,-28.295500000000001
7507.0,227.572,182.523,-1.40137,-5.3901300000000001,-55.633400000000002,-44.588999999999999,-25.571899999999999
7508.0,231.61799999999999,179.79499999999999,-2.7663899999999999,-2.0636299999999999,-56.1556,-56.063099999999999,-22.777100000000001
7509.0,235.291,177.93899999999999,-2.2707799999999998,4.7020299999999997,-55.994,-67.061999999999998,-19.971900000000002
7510.0,238.369,173.315,-3.3437899999999998,11.3428,-55.1404,-77.406800000000004,-17.256499999999999
7511.0,240.66499999999999,167.761,-3.92198,19.714200000000002,-53.647199999999998,-86.9054,-14.7422
7512.0,242.07400000000001,159.136,-5.9084099999999999,27.679300000000001,-51.653599999999997,-95.388900000000007,-12.569100000000001
7513.0,242.702,149.899,-6.7692800000000002,37.499099999999999,-49.418399999999998,-102.70999999999999,-10.965
7514.0,242.51400000000001,139.12700000000001,-7.6146099999999999,47.753500000000003,-47.016399999999997,-108.648,-9.9048300000000005
7515.0,241.40899999999999,127.471,-8.0154999999999994,58.672600000000003,-44.483899999999998,-113.02200000000001,-9.1503099999999993
7516.0,239.524,113.566,-9.5887499999999992,68.534599999999998,-41.972499999999997,-115.78,-8.62486
7517.0,236.97300000000001,100.90900000000001,-9.2285900000000005,80.311599999999999,-39.505000000000003,-116.886,-8.1982300000000006
7518.0,233.91999999999999,85.901700000000005,-10.8786,90.052099999999996,-37.089799999999997,-116.373,-7.70472
7519.0,230.67699999999999,74.259900000000002,-9.2354800000000008,103.03100000000001,-34.749400000000001,-114.36,-7.1423800000000002
7520.0,227.45500000000001,60.0107,-10.525499999999999,112.877,-32.550899999999999,-110.946,-6.6130599999999999
7521.0,224.51300000000001,49.4163,-8.8342500000000008,125.41500000000001,-30.512,-106.304,-6.2091099999999999
7522.0,221.73099999999999,37.417400000000001,-9.2538800000000005,135.245,-28.738,-100.441,-5.9810699999999999
7523.0,219.30600000000001,27.552900000000001,-8.4586000000000006,145.58600000000001,-27.1633,-93.614400000000003,-6.0865
7524.0,216.63300000000001,16.892099999999999,-9.3399400000000004,152.89599999999999,-26.158200000000001,-85.648399999999995,-6.2575500000000002
7525.0,214.31999999999999,7.7098800000000001,-8.6526800000000001,160.60400000000001,-25.264500000000002,-76.875799999999998,-6.8834
7526.0,212.572,-1.94364,-10.178699999999999,164.916,-24.655100000000001,-68.146199999999993,-7.00943
7527.0,181.24600000000001,155.69900000000001,3.37676,17.685199999999998,-34.823500000000003,37.0017,-35.951999999999998
7528.0,183.09899999999999,159.804,3.8309799999999998,12.885999999999999,-37.273400000000002,28.656099999999999,-36.039099999999998
7529.0,186.006,162.899,3.1921499999999998,7.5299100000000001,-40.097099999999998,19.9693,-35.337400000000002
7530.0,189.65100000000001,167.34700000000001,3.9769199999999998,4.4029999999999996,-42.984099999999998,10.7849,-33.9377
7531.0,193.541,168.84299999999999,2.4180100000000002,0.031529099999999997,-45.703899999999997,1.02854,-32.086199999999998
7532.0,197.63,172.72499999999999,3.92178,0.0160205,-48.136400000000002,-9.2351200000000002,-29.895600000000002
7533.0,201.828,173.357,2.9845299999999999,-1.0108600000000001,-50.213900000000002,-19.833500000000001,-27.486000000000001
7534.0,206.18000000000001,174.24100000000001,2.9628899999999998,0.39236700000000002,-51.842399999999998,-30.589200000000002,-24.882100000000001
7535.0,210.596,173.55600000000001,1.98047,2.3936799999999998,-52.917200000000001,-41.286299999999997,-22.127800000000001
7536.0,214.88399999999999,172.80199999999999,1.5339499999999999,6.4701000000000004,-53.284199999999998,-51.747799999999998,-19.255199999999999
7537.0,218.715,169.107,-1.01552,9.9013200000000001,-52.857700000000001,-61.776200000000003,-16.348800000000001
7538.0,221.76599999999999,166.15199999999999,-1.61009,16.612100000000002,-51.630299999999998,-71.216200000000001,-13.5275
7539.0,223.89099999999999,160.934,-2.81237,23.8796,-49.817799999999998,-79.921999999999997,-11.0227
7540.0,225.191,155.46799999999999,-2.4666800000000002,33.638199999999998,-47.667299999999997,-87.754199999999997,-9.0866299999999995
7541.0,225.667,146.416,-3.9281000000000001,42.1479,-45.2879,-94.506900000000002,-7.7220599999999999
7542.0,225.44,135.41399999999999,-5.6618500000000003,50.722299999999997,-42.929400000000001,-100.03,-7.0458600000000002
7543.0,224.62700000000001,122.785,-7.7759299999999998,59.007199999999997,-40.747900000000001,-104.14,-7.1592700000000002
7544.0,222.90100000000001,110.809,-8.2505199999999999,68.700699999999998,-38.588700000000003,-106.626,-7.6440400000000004
7545.0,220.32400000000001,96.5411,-10.277200000000001,76.613100000000003,-36.488599999999998,-107.509,-8.0627999999999993
7546.0,217.14099999999999,85.058400000000006,-9.1033500000000007,87.556600000000003,-34.529899999999998,-106.861,-8.3187099999999994
7547.0,213.78399999999999,70.519800000000004,-11.007099999999999,95.363100000000003,-32.715000000000003,-104.876,-8.2940199999999997
7548.0,210.434,60.271299999999997,-8.9229800000000008,107.05200000000001,-31.060300000000002,-101.62,-8.0638400000000008
7549.0,207.53100000000001,47.030000000000001,-10.4968,115.062,-29.5105,-97.340900000000005,-7.7291100000000004
7550.0,204.739,37.616100000000003,-8.9366199999999996,125.61199999999999,-28.222999999999999,-91.931399999999996,-7.4685300000000003
7551.0,202.60300000000001,25.918099999999999,-10.5806,132.84,-27.011399999999998,-85.687600000000003,-7.4163800000000002
7552.0,199.91900000000001,19.294799999999999,-8.0753000000000004,142.34299999999999,-26.446100000000001,-78.424999999999997,-7.3077199999999998
7553.0,197.43799999999999,6.6519899999999996,-12.228199999999999,145.262,-25.3033,-69.945800000000006,-8.1115700000000004
7554.0,196.13800000000001,-5.4010699999999998,-18.021899999999999,145.714,-24.617100000000001,-62.131599999999999,-7.5040800000000001
7555.0,166.363,146.32599999999999,5.4851799999999997,20.780200000000001,-33.285499999999999,33.069600000000001,-32.436100000000003
7556.0,167.88300000000001,147.15000000000001,3.1170800000000001,14.122999999999999,-35.4191,25.323799999999999,-32.741900000000001
7557.0,170.61699999999999,150.315,2.9061400000000002,9.9190299999999993,-38.032400000000003,17.392900000000001,-32.2395
7558.0,174.11600000000001,153.178,2.4123199999999998,6.0303599999999999,-40.774900000000002,9.0353600000000007,-31.0153
7559.0,177.929,157.19900000000001,3.5539299999999998,4.71692,-43.413899999999998,0.171295,-29.2972
7560.0,181.982,157.77199999999999,1.80155,1.6307199999999999,-45.812199999999997,-9.15381,-27.180800000000001
7561.0,186.249,159.12100000000001,1.39219,1.1922600000000001,-47.8887,-18.776900000000001,-24.770700000000001
7562.0,190.792,159.506,0.37166100000000002,1.5391900000000001,-49.512700000000002,-28.545400000000001,-22.0854
7563.0,195.49600000000001,159.83000000000001,-0.458534,3.5196200000000002,-50.509700000000002,-38.264899999999997,-19.165800000000001
7564.0,200.077,159.93100000000001,-1.20245,7.0299699999999996,-50.661099999999998,-47.786200000000001,-16.075900000000001
7565.0,204.02199999999999,161.21600000000001,-0.0155313,13.823499999999999,-49.824599999999997,-56.920099999999998,-12.9383
7566.0,206.87700000000001,159.875,-0.036361200000000003,20.638500000000001,-48.084899999999998,-65.506100000000004,-9.9201899999999998
7567.0,208.47200000000001,156.834,0.24699699999999999,28.726500000000001,-45.696300000000001,-73.418700000000001,-7.1620299999999997
7568.0,209.05199999999999,149.74199999999999,-1.19347,35.912700000000001,-43.136499999999998,-80.603700000000003,-4.90001
7569.0,209.40299999999999,141.56100000000001,-1.92804,44.776699999999998,-40.986499999999999,-86.985399999999998,-3.7271800000000002
7570.0,209.65100000000001,131.88800000000001,-3.0957499999999998,53.670400000000001,-39.073599999999999,-92.286900000000003,-3.7599499999999999
7571.0,209.18899999999999,119.973,-5.44156,61.092100000000002,-37.077399999999997,-96.202100000000002,-4.47933
7572.0,207.79300000000001,106.128,-8.7873800000000006,67.138999999999996,-35.158499999999997,-98.533299999999997,-5.7098199999999997
7573.0,205.31200000000001,93.785499999999999,-9.8899600000000003,74.917599999999993,-33.367199999999997,-99.183300000000003,-7.1257099999999998
7574.0,201.92599999999999,79.088899999999995,-12.7447,80.445599999999999,-31.7302,-98.306899999999999,-8.1907899999999998
7575.0,198.25399999999999,68.0916,-11.7498,89.6511,-30.327200000000001,-96.186599999999999,-8.7402099999999994
7576.0,194.71600000000001,54.534700000000001,-13.6012,95.964399999999998,-29.121300000000002,-93.008600000000001,-8.8812800000000003
7577.0,191.642,44.964700000000001,-12.071099999999999,105.742,-28.0609,-88.927000000000007,-8.6968599999999991
7578.0,188.96100000000001,34.160400000000003,-12.5817,113.236,-27.137,-83.962500000000006,-8.4444199999999991
7579.0,186.75,25.4925,-11.807600000000001,121.849,-26.32,-78.156000000000006,-8.2100899999999992
7580.0,184.387,16.229900000000001,-12.5318,127.642,-25.8019,-71.557000000000002,-8.0765200000000004
7581.0,182.38999999999999,9.2861100000000008,-12.66,134.179,-25.3415,-64.029399999999995,-8.5538500000000006
7582.0,180.97999999999999,1.6076600000000001,-15.008900000000001,137.827,-25.132899999999999,-56.447099999999999,-8.2605000000000004
7583.0,152.994,136.26900000000001,5.9663599999999999,22.019100000000002,-32.012300000000003,29.421299999999999,-29.389700000000001
7584.0,154.15199999999999,138.26499999999999,5.2010699999999996,17.9785,-33.802999999999997,22.205400000000001,-29.9255
7585.0,156.70599999999999,140.26300000000001,4.1665400000000004,13.6694,-36.218000000000004,14.9565,-29.6142
7586.0,160.05199999999999,143.53999999999999,4.3884999999999996,11.0054,-38.810600000000001,7.3768500000000001,-28.567599999999999
7587.0,163.768,144.55099999999999,2.7165499999999998,7.1745900000000002,-41.372100000000003,-0.64322999999999997,-26.9514
7588.0,167.792,148.25,4.1297899999999998,7.4092200000000004,-43.746600000000001,-9.0675500000000007,-24.8827
7589.0,172.15700000000001,149.684,3.5818400000000001,6.8199500000000004,-45.829799999999999,-17.759,-22.415600000000001
7590.0,176.946,151.899,3.8182399999999999,8.2545300000000008,-47.443100000000001,-26.576799999999999,-19.5596
7591.0,182.036,153.86199999999999,3.6297600000000001,10.5783,-48.318600000000004,-35.3827,-16.362400000000001
7592.0,186.96700000000001,156.32900000000001,3.9926599999999999,14.768700000000001,-48.143000000000001,-44.042099999999998,-12.9535
7593.0,191.04499999999999,156.22399999999999,2.5432999999999999,18.3782,-46.732700000000001,-52.397100000000002,-9.5725499999999997
7594.0,193.42400000000001,156.38399999999999,3.3067099999999998,25.1813,-44.171700000000001,-60.203899999999997,-6.4076700000000004
7595.0,193.959,153.39400000000001,3.81656,32.817100000000003,-41.271000000000001,-67.313699999999997,-3.66473
7596.0,193.697,149.58099999999999,5.9410100000000003,43.2378,-38.754300000000001,-73.799000000000007,-1.6004100000000001
7597.0,193.494,140.54900000000001,4.69977,50.654800000000002,-36.610300000000002,-79.781400000000005,-0.116076
7598.0,194.00800000000001,128.66200000000001,1.38093,56.590000000000003,-34.978200000000001,-85.1404,0.36986799999999997
7599.0,194.84,117.137,-2.0155500000000002,63.329500000000003,-33.613700000000001,-89.236500000000007,-0.84252000000000005
7600.0,194.286,105.84999999999999,-4.6836399999999996,70.111400000000003,-31.869,-91.519099999999995,-3.0674999999999999
7601.0,191.83199999999999,91.663700000000006,-8.8486100000000008,74.068799999999996,-30.0488,-91.945899999999995,-5.3174200000000003
7602.0,188.215,80.388199999999998,-9.1947700000000001,81.040300000000002,-28.605699999999999,-90.790300000000002,-7.2441000000000004
7603.0,184.095,66.170100000000005,-12.1212,84.951400000000007,-27.521899999999999,-88.407499999999999,-8.5294399999999992
7604.0,180.203,56.523400000000002,-10.670500000000001,93.250299999999996,-26.7163,-85.153000000000006,-9.0767000000000007
7605.0,176.876,44.451000000000001,-12.2392,98.650700000000001,-26.063600000000001,-81.186099999999996,-9.1195299999999992
7606.0,174.22,35.729900000000001,-11.262499999999999,106.694,-25.485299999999999,-76.567700000000002,-8.8985099999999999
7607.0,171.941,26.287099999999999,-11.8805,112.855,-24.964400000000001,-71.222499999999997,-8.5912900000000008
7608.0,169.98699999999999,19.492799999999999,-10.902699999999999,120.148,-24.4985,-65.234099999999998,-8.4447600000000005
7609.0,168.273,11.516,-11.7698,124.66500000000001,-24.2685,-58.771799999999999,-8.3039699999999996
7610.0,166.54599999999999,6.6299900000000003,-10.4137,130.49799999999999,-24.017499999999998,-51.826000000000001,-8.2558399999999992
7611.0,140.99100000000001,128.68100000000001,8.1354100000000003,24.572199999999999,-30.940100000000001,26.132400000000001,-26.696200000000001
7612.0,141.679,127.86199999999999,5.0290900000000001,19.205200000000001,-32.420699999999997,19.329599999999999,-27.393899999999999
7613.0,144.102,129.429,3.8197199999999998,15.446300000000001,-34.632899999999999,12.7319,-27.2544
7614.0,147.239,131.375,3.0229300000000001,12.291700000000001,-37.064700000000002,5.8664800000000001,-26.356300000000001
7615.0,150.88300000000001,134.971,4.07836,11.473000000000001,-39.545200000000001,-1.35094,-24.8263
7616.0,154.84700000000001,135.416,2.2900100000000001,8.5729000000000006,-41.874499999999998,-8.9072700000000005,-22.755299999999998
7617.0,159.33600000000001,137.55799999999999,2.1848399999999999,8.2700300000000002,-43.946599999999997,-16.698799999999999,-20.1526
7618.0,164.42099999999999,139.79499999999999,1.79193,8.73475,-45.505400000000002,-24.611999999999998,-17.0275
7619.0,170.023,143.31999999999999,2.0551200000000001,11.0075,-46.209099999999999,-32.593499999999999,-13.4619
7620.0,175.489,147.44900000000001,2.6245500000000002,14.8127,-45.565800000000003,-40.525599999999997,-9.7133900000000004
7621.0,179.61099999999999,153.02099999999999,5.77698,22.391100000000002,-43.418399999999998,-48.230400000000003,-6.21394
7622.0,181.453,154.38999999999999,7.3414799999999998,29.466000000000001,-40.055900000000001,-55.427300000000002,-3.4552700000000001
7623.0,180.14099999999999,152.11600000000001,9.7338299999999993,37.408900000000003,-36.164499999999997,-61.709800000000001,-1.2517799999999999
7624.0,177.34800000000001,142.50999999999999,9.2463700000000006,42.637599999999999,-33.452399999999997,-67.498000000000005,0.94779199999999997
7625.0,176.84299999999999,134.56700000000001,9.9601799999999994,52.164900000000003,-32.866599999999998,-72.947999999999993,2.5469499999999998
7626.0,179.119,127.509,9.0746800000000007,62.573,-32.549799999999998,-78.157899999999998,2.9580099999999998
7627.0,181.62200000000001,116.422,4.0577300000000003,67.659999999999997,-30.9208,-82.821200000000005,2.2880699999999998
7628.0,182.06999999999999,103.35599999999999,-2.01485,70.729799999999997,-28.6952,-85.536100000000005,0.313278
7629.0,180.06399999999999,92.110699999999994,-5.02095,76.029600000000002,-26.654299999999999,-85.905000000000001,-2.6740400000000002
7630.0,176.00200000000001,77.040199999999999,-10.2866,77.219800000000006,-25.0961,-84.367800000000003,-5.5360699999999996
7631.0,171.19200000000001,66.419600000000003,-10.2491,82.917100000000005,-24.198499999999999,-81.575800000000001,-7.5480299999999998
7632.0,166.804,52.749200000000002,-13.384399999999999,85.3626,-23.778099999999998,-78.120699999999999,-8.6562999999999999
7633.0,163.202,44.284300000000002,-11.9072,92.665599999999998,-23.548999999999999,-74.185000000000002,-9.0185300000000002
7634.0,160.447,34.071599999999997,-13.011799999999999,97.643199999999993,-23.331900000000001,-69.810299999999998,-8.9155300000000004
7635.0,158.29900000000001,27.049800000000001,-11.833,104.846,-23.0718,-64.930800000000005,-8.6523900000000005
7636.0,156.56899999999999,18.585699999999999,-12.992699999999999,109.419,-22.8002,-59.520600000000002,-8.3681699999999992
7637.0,154.917,13.6684,-11.6012,115.956,-22.4392,-53.559600000000003,-8.0998000000000001
7638.0,153.369,7.1646799999999997,-12.7462,119.178,-22.067900000000002,-47.247599999999998,-7.9643699999999997
7639.0,130.005,120.398,9.0011100000000006,25.636900000000001,-30.007300000000001,23.07,-24.2928
7640.0,130.523,120.392,6.9941800000000001,22.270099999999999,-31.3261,16.730399999999999,-25.114999999999998
7641.0,132.637,121.19799999999999,5.3334999999999999,18.877300000000002,-33.247900000000001,10.6967,-25.1279
7642.0,135.66300000000001,123.425,5.02888,16.659600000000001,-35.552599999999998,4.5163799999999998,-24.3276
7643.0,139.12799999999999,123.946,3.20444,13.208,-37.895499999999998,-1.91855,-22.851600000000001
7644.0,143.08199999999999,127.83199999999999,4.8262099999999997,13.7027,-40.177700000000002,-8.6504999999999992,-20.7195
7645.0,147.68000000000001,130.63800000000001,5.0910099999999998,13.520300000000001,-42.201599999999999,-15.555899999999999,-17.941700000000001
7646.0,153.19,135.25299999999999,6.2887399999999998,15.053599999999999,-43.670400000000001,-22.648299999999999,-14.4781
7647.0,159.38999999999999,141.291,7.8584199999999997,17.934699999999999,-44.118699999999997,-29.8614,-10.4795
7648.0,165.684,148.43299999999999,9.9001800000000006,22.523,-43.000500000000002,-37.316899999999997,-6.4380199999999999
7649.0,169.96299999999999,152.41900000000001,10.264799999999999,26.696100000000001,-39.8994,-44.495800000000003,-3.1477599999999999
7650.0,170.23699999999999,152.738,12.112299999999999,33.441299999999998,-35.792099999999998,-51.312899999999999,-1.56209
7651.0,166.947,147.197,12.620200000000001,40.583500000000001,-32.253999999999998,-56.604900000000001,-1.66455
7652.0,161.292,141.565,16.768799999999999,52.677999999999997,-30.949999999999999,-59.866999999999997,-1.5203500000000001
7653.0,159.59999999999999,128.52699999999999,15.423400000000001,57.1432,-30.998699999999999,-65.256,0.14194799999999999
7654.0,163.79300000000001,116.563,11.030900000000001,57.9009,-31.152100000000001,-71.889600000000002,2.8849800000000001
7655.0,168.58000000000001,111.98,9.0790400000000009,67.384,-29.648,-76.882300000000001,4.5173300000000003
7656.0,171.62700000000001,105.288,5.31325,76.151600000000002,-26.295100000000001,-80.446799999999996,3.4366500000000002
7657.0,170.13399999999999,91.855400000000003,-1.72776,76.959699999999998,-23.306000000000001,-81.096400000000003,0.41929499999999997
7658.0,165.25999999999999,80.651600000000002,-3.97919,80.679400000000001,-21.329799999999999,-79.056799999999996,-3.2246899999999998
7659.0,159.66300000000001,65.763000000000005,-8.9246999999999996,80.421700000000001,-20.550899999999999,-75.7804,-6.0343099999999996
7660.0,154.46899999999999,56.306899999999999,-8.3726900000000004,85.423000000000002,-20.450900000000001,-71.905699999999996,-7.7487000000000004
7661.0,150.55699999999999,44.352499999999999,-10.967700000000001,87.686999999999998,-20.657499999999999,-67.913300000000007,-8.46556
7662.0,147.71100000000001,36.676499999999997,-10.148300000000001,93.694800000000001,-20.846399999999999,-63.7151,-8.6106700000000007
7663.0,145.69900000000001,28.059999999999999,-11.1517,98.066400000000002,-20.885899999999999,-59.226500000000001,-8.4214000000000002
7664.0,144.10400000000001,22.581800000000001,-9.8828399999999998,104.48999999999999,-20.767600000000002,-54.316600000000001,-8.1451100000000007
7665.0,142.75999999999999,15.542899999999999,-10.994899999999999,108.048,-20.6096,-48.994500000000002,-7.9262800000000002
7666.0,141.553,11.3422,-10.080500000000001,113.039,-20.449000000000002,-43.287999999999997,-7.7769599999999999
7667.0,120.07299999999999,114.824,12.0572,28.5959,-29.311900000000001,20.228000000000002,-22.1919
7668.0,120.521,111.62,6.9192600000000004,23.083400000000001,-30.421099999999999,14.4129,-23.054400000000001
7669.0,122.27,112.105,5.30966,20.487200000000001,-32.093800000000002,8.8582699999999992,-23.165199999999999
7670.0,125.2,113.101,3.8765399999999999,17.5961,-34.222999999999999,3.3544399999999999,-22.421299999999999
7671.0,128.464,116.48099999999999,5.0949900000000001,17.403300000000002,-36.423200000000001,-2.34361,-20.969100000000001
7672.0,132.392,117.252,3.54792,14.5929,-38.610799999999998,-8.2783599999999993,-18.7514
7673.0,137.13399999999999,120.738,4.1226099999999999,14.2399,-40.524000000000001,-14.3264,-15.7218
7674.0,143.08199999999999,126.113,5.3448399999999996,15.0482,-41.872900000000001,-20.6629,-11.892899999999999
7675.0,150.21199999999999,134.06299999999999,7.3500100000000002,17.402899999999999,-41.944099999999999,-27.303799999999999,-7.43818
7676.0,157.196,143.56800000000001,10.6439,22.4421,-40.421599999999998,-34.338700000000003,-3.2477499999999999
7677.0,162.24700000000001,152.66300000000001,14.7705,30.338699999999999,-36.450499999999998,-41.741700000000002,-0.60352499999999998
7678.0,159.94399999999999,152.59700000000001,17.5581,38.810000000000002,-32.085299999999997,-47.158299999999997,-1.2385900000000001
7679.0,151.99799999999999,135.642,14.366199999999999,42.274000000000001,-28.9328,-52.847999999999999,-6.0889600000000002
7680.0,147.37200000000001,114.241,9.2259899999999995,39.1188,-30.832599999999999,-56.825499999999998,-11.4979
7681.0,144.91200000000001,104.572,7.4474799999999997,42.457799999999999,-33.481900000000003,-57.860199999999999,-10.559699999999999
7682.0,147.64099999999999,102.215,5.7652799999999997,51.841299999999997,-32.906700000000001,-62.052199999999999,-2.3355899999999998
7683.0,156.24700000000001,108.532,12.811,68.8142,-30.084399999999999,-69.998000000000005,4.4955299999999996
7684.0,162.33600000000001,104.26000000000001,10.232200000000001,77.247900000000001,-24.475200000000001,-76.2179,5.6965399999999997
7685.0,161.86799999999999,94.5197,4.7843,80.662700000000001,-20.117699999999999,-77.341499999999996,3.69529
7686.0,156.124,79.775300000000001,-1.8567800000000001,79.613900000000001,-17.366099999999999,-74.874200000000002,-0.51707700000000001
7687.0,149.19,67.719499999999996,-4.3853799999999996,80.942700000000002,-16.464300000000001,-70.875900000000001,-3.9546199999999998
7688.0,143.16300000000001,53.716799999999999,-8.8572699999999998,80.045699999999997,-16.825099999999999,-66.509299999999996,-6.3205099999999996
7689.0,138.84200000000001,45.1586,-8.7169000000000008,84.216499999999996,-17.522200000000002,-62.322600000000001,-7.5562399999999998
7690.0,135.953,35.536700000000003,-10.508100000000001,86.925200000000004,-18.163900000000002,-58.239400000000003,-7.9773399999999999
7691.0,134.072,29.206600000000002,-9.8854699999999998,92.333299999999994,-18.531300000000002,-54.075099999999999,-7.9938200000000004
7692.0,132.70500000000001,21.7928,-11.101599999999999,95.801900000000003,-18.6678,-49.625500000000002,-7.8131000000000004
7693.0,131.56899999999999,17.615200000000002,-9.8186499999999999,101.42,-18.618600000000001,-44.804499999999997,-7.59443
7694.0,130.53,12.094900000000001,-10.603,104.423,-18.511900000000001,-39.619199999999999,-7.4273999999999996
7695.0,111.41800000000001,107.352,12.460800000000001,28.8523,-28.8691,17.731000000000002,-20.436399999999999
7696.0,111.468,105.398,8.8225200000000008,25.7715,-29.6661,12.250500000000001,-21.2715
7697.0,113.124,105.34099999999999,6.7915700000000001,23.444199999999999,-31.170300000000001,7.2375699999999998,-21.4239
7698.0,115.759,106.697,5.9444499999999998,21.5761,-33.047400000000003,2.3360799999999999,-20.7105
7699.0,118.928,106.875,3.99803,18.268899999999999,-35.101300000000002,-2.6247400000000001,-19.215499999999999
7700.0,122.66,111.578,6.4300100000000002,19.2422,-37.124699999999997,-7.7832800000000004,-16.890599999999999
7701.0,127.774,116.291,7.6237300000000001,18.8718,-38.934699999999999,-13.0663,-13.5823
7702.0,134.02199999999999,124.88200000000001,11.4282,21.380500000000001,-40.045099999999998,-18.6417,-9.4319100000000002
7703.0,142.577,135.434,14.353300000000001,23.532499999999999,-39.808199999999999,-25.030999999999999,-4.5125999999999999
7704.0,149.87100000000001,148.96199999999999,20.943000000000001,31.142900000000001,-37.780200000000001,-31.577000000000002,-0.49188599999999999
7705.0,155.59899999999999,152.02000000000001,18.525200000000002,33.185600000000001,-33.375,-39.942399999999999,1.2393400000000001
7706.0,150.27500000000001,150.85599999999999,22.412400000000002,44.939,-30.459499999999998,-43.424500000000002,-3.1749499999999999
7707.0,137.38200000000001,115.105,6.6692600000000004,41.7196,-26.040199999999999,-48.907600000000002,-12.6158
7708.0,133.828,38.0946,-51.7301,-17.244599999999998,-29.239599999999999,-51.842399999999998,-19.339400000000001
7709.0,132.72399999999999,28.529399999999999,-52.284999999999997,-22.775400000000001,-37.244500000000002,-48.736199999999997,-20.908200000000001
7710.0,135.791,75.895200000000003,-6.84389,31.7027,-38.2209,-52.825800000000001,-13.448499999999999
7711.0,144.62200000000001,101.789,12.4956,64.645600000000002,-32.676400000000001,-62.383099999999999,-0.60796700000000004
7712.0,153.64099999999999,106.94,16.9209,82.113500000000002,-23.4954,-71.5137,6.37453
7713.0,155.261,96.314400000000006,10.065300000000001,82.386099999999999,-17.297599999999999,-74.5107,6.3523699999999996
7714.0,148.07599999999999,84.592399999999998,6.6871799999999997,84.244600000000005,-13.3126,-71.505200000000002,2.1195300000000001
7715.0,139.98599999999999,68.296199999999999,-0.34748699999999999,80.573400000000007,-12.473100000000001,-66.872,-1.655
7716.0,132.70599999999999,57.708500000000001,-1.9460500000000001,81.810299999999998,-13.145,-61.777299999999997,-4.6902400000000002
7717.0,128.01499999999999,45.351700000000001,-6.2685500000000003,81.035899999999998,-14.371700000000001,-57.358899999999998,-6.2703300000000004
7718.0,125.142,38.017699999999998,-6.6801500000000003,84.644099999999995,-15.512,-53.320900000000002,-7.1457199999999998
7719.0,123.446,30.082100000000001,-8.4082899999999992,87.293199999999999,-16.2056,-49.430500000000002,-7.3978700000000002
7720.0,122.25700000000001,25.278300000000002,-7.6522100000000002,92.312899999999999,-16.5839,-45.358199999999997,-7.39358
7721.0,121.363,19.031199999999998,-8.94102,95.053200000000004,-16.737300000000001,-40.995100000000001,-7.2672400000000001
7722.0,120.527,15.315099999999999,-8.3228200000000001,99.198800000000006,-16.816099999999999,-36.273899999999998,-7.1425900000000002
7723.0,103.702,102.33199999999999,14.672800000000001,31.0535,-28.530899999999999,15.4613,-18.959900000000001
7724.0,103.494,98.250699999999995,9.1240000000000006,26.865500000000001,-29.1555,10.2943,-19.712900000000001
7725.0,105.006,97.385999999999996,6.3490900000000003,24.4284,-30.420999999999999,5.8135300000000001,-19.831
7726.0,107.38,97.958500000000001,4.8659600000000003,22.303100000000001,-32.053600000000003,1.50078,-19.099699999999999
7727.0,110.38200000000001,101.312,6.1455900000000003,22.280100000000001,-33.928600000000003,-2.7839800000000001,-17.569700000000001
7728.0,114.012,103.036,5.4460899999999999,19.791699999999999,-35.724200000000003,-7.1767200000000004,-15.120699999999999
7729.0,119.352,108.393,6.9107900000000004,18.805800000000001,-37.400500000000001,-11.7501,-11.563800000000001
7730.0,126.251,118.3,10.992800000000001,20.424499999999998,-38.1145,-16.726299999999998,-7.0778699999999999
7731.0,135.864,130.589,14.773,22.2181,-37.747100000000003,-22.852399999999999,-1.9247700000000001
7732.0,144.05099999999999,145.858,21.933399999999999,29.988299999999999,-34.976199999999999,-29.710699999999999,1.6940500000000001
7733.0,148.494,151.726,23.436199999999999,37.682899999999997,-31.3504,-37.662700000000001,2.0820799999999999
7734.0,138.83699999999999,141.864,24.365200000000002,50.352699999999999,-29.286000000000001,-41.405099999999997,-6.6271199999999997
7735.0,129.76499999999999,82.388499999999993,-16.501000000000001,29.372199999999999,-26.298200000000001,-45.247500000000002,-20.616
7736.0,127.23699999999999,-8.6185299999999998,-97.049099999999996,-40.741,-31.892600000000002,-39.559899999999999,-28.4697
7737.0,124.483,-36.016199999999998,-114.295,-63.296500000000002,-39.140500000000003,-35.277999999999999,-28.462199999999999
7738.0,127.05200000000001,7.6281800000000004,-70.143500000000003,-29.572800000000001,-41.280200000000001,-42.2577,-19.440300000000001
7739.0,133.08000000000001,87.316900000000004,3.2476099999999999,48.5443,-35.445399999999999,-53.243000000000002,-6.4646499999999998
7740.0,144.97200000000001,106.538,21.1203,82.549899999999994,-22.971399999999999,-67.2376,4.0261300000000002
7741.0,149.154,99.160300000000007,16.2148,83.448999999999998,-14.590199999999999,-72.088300000000004,8.0528399999999998
7742.0,140.78999999999999,85.840299999999999,12.624700000000001,85.5702,-9.2483000000000004,-68.704800000000006,4.5995600000000003
7743.0,131.66399999999999,70.230099999999993,6.01342,81.594200000000001,-8.3730700000000002,-63.614600000000003,0.79574500000000004
7744.0,122.742,55.515900000000002,0.038984199999999997,78.2333,-9.6416400000000007,-57.475000000000001,-2.7459799999999999
7745.0,118.134,46.259799999999998,-2.4176600000000001,79.325299999999999,-11.498200000000001,-52.9709,-4.7885099999999996
7746.0,115.154,36.711100000000002,-6.0039800000000003,79.461500000000001,-13.018599999999999,-48.862400000000001,-6.0882199999999997
7747.0,113.816,31.1191,-6.3160100000000003,83.335099999999997,-14.000500000000001,-45.277999999999999,-6.6604200000000002
7748.0,112.712,24.107099999999999,-8.4728300000000001,85.042699999999996,-14.616300000000001,-41.473599999999998,-6.9054799999999998
7749.0,112.03700000000001,20.8385,-7.2885600000000004,89.9876,-14.934699999999999,-37.522199999999998,-6.87554
7750.0,111.319,15.605700000000001,-8.6040200000000002,91.909300000000002,-15.144,-33.211500000000001,-6.8121299999999998
7751.0,96.781099999999995,95.940600000000003,14.9819,31.5717,-28.300899999999999,13.257300000000001,-17.795500000000001
7752.0,96.681700000000006,92.422399999999996,9.9707600000000003,28.570900000000002,-28.847100000000001,8.5954200000000007,-18.426500000000001
7753.0,97.863799999999998,92.144300000000001,7.9470200000000002,27.506399999999999,-29.823,4.5211100000000002,-18.465
7754.0,100.161,92.661600000000007,6.3435600000000001,25.494,-31.2438,0.83209500000000003,-17.6736
7755.0,102.715,93.116500000000002,4.9566800000000004,22.747499999999999,-32.802500000000002,-2.8242699999999998,-16.106000000000002
7756.0,106.458,98.647800000000004,7.7033699999999996,23.0731,-34.4116,-6.5041200000000003,-13.4735
7757.0,111.736,106.83499999999999,11.8079,23.9937,-35.842799999999997,-10.3713,-9.7888900000000003
7758.0,120.012,118.97499999999999,16.539100000000001,25.0032,-36.288200000000003,-15.065300000000001,-4.9600299999999997
7759.0,129.69900000000001,136.02600000000001,25.016200000000001,30.419899999999998,-35.526400000000002,-20.6797,0.032858499999999999
7760.0,139.39599999999999,149.47300000000001,29.1204,35.624200000000002,-32.519799999999996,-28.758500000000002,3.3288500000000001
7761.0,139.69,152.042,30.913,45.871099999999998,-30.5791,-34.741599999999998,1.00274
7762.0,127.34,120.264,14.5679,48.630000000000003,-27.262499999999999,-40.514600000000002,-10.485300000000001
7763.0,125.41500000000001,26.797799999999999,-64.296499999999995,-9.7128899999999998,-28.578499999999998,-40.984299999999998,-25.3919
7764.0,127.587,-32.639800000000001,-115.976,-48.166899999999998,-36.822899999999997,-27.225300000000001,-36.944899999999997
7765.0,129.251,-51.139400000000002,-130.79900000000001,-55.457099999999997,-40.863799999999998,-22.530000000000001,-37.206400000000002
7766.0,125.465,-26.419799999999999,-111.34399999999999,-50.261099999999999,-42.573300000000003,-30.0901,-24.712299999999999
7767.0,124.533,54.856999999999999,-30.530999999999999,16.540099999999999,-36.291200000000003,-43.749099999999999,-10.455299999999999
7768.0,134.59999999999999,100.97199999999999,17.476299999999998,72.613100000000003,-22.018899999999999,-61.217199999999998,1.9978100000000001
7769.0,142.11099999999999,101.747,22.231300000000001,85.474199999999996,-11.441700000000001,-69.0441,8.3235899999999994
7770.0,134.63399999999999,90.618899999999996,22.186199999999999,89.782300000000006,-6.1364599999999996,-66.503500000000003,6.2940699999999996
7771.0,123.18000000000001,70.976600000000005,11.8912,81.855599999999995,-5.1974999999999998,-60.0717,2.1779700000000002
7772.0,113.535,59.238,8.6426300000000005,81.056799999999996,-7.0558500000000004,-53.535600000000002,-0.96247000000000005
7773.0,108.804,45.339300000000001,0.37659300000000001,76.406199999999998,-9.2370699999999992,-48.874699999999997,-3.2875999999999999
7774.0,106.297,39.283499999999997,-1.0562800000000001,79.043899999999994,-10.9818,-44.918500000000002,-4.9041699999999997
7775.0,105.04900000000001,31.195699999999999,-4.8771199999999997,79.136399999999995,-12.052300000000001,-41.500100000000003,-5.8848200000000004
7776.0,104.122,27.4574,-4.47403,83.178700000000006,-12.816800000000001,-37.966799999999999,-6.3335600000000003
7777.0,103.50700000000001,21.378299999999999,-6.72234,84.334400000000002,-13.3081,-34.318199999999997,-6.50251
7778.0,102.96899999999999,18.4986,-6.1291900000000004,87.995800000000003,-13.670299999999999,-30.3749,-6.4866599999999996
7779.0,90.839399999999998,91.293300000000002,16.447600000000001,33.506500000000003,-28.312899999999999,11.2819,-16.822500000000002
7780.0,90.777199999999993,86.596500000000006,10.1488,29.8415,-28.6981,7.0994200000000003,-17.242999999999999
7781.0,91.727800000000002,85.013300000000001,6.8853099999999996,27.9557,-29.424299999999999,3.4718,-17.1144
7782.0,93.820099999999996,85.393900000000002,5.1523700000000003,25.9712,-30.593599999999999,0.331042,-16.251999999999999
7783.0,96.080200000000005,89.292699999999996,7.1189999999999998,26.699200000000001,-31.840900000000001,-2.7112599999999998,-14.616199999999999
7784.0,99.851200000000006,92.117699999999999,6.83934,23.477499999999999,-33.260300000000001,-5.7425800000000002,-11.863899999999999
7785.0,105.21899999999999,100.792,10.9275,23.2285,-34.206899999999997,-8.9984199999999994,-8.0861499999999999
7786.0,114.56399999999999,113.88,15.8879,22.881399999999999,-34.572800000000001,-13.463800000000001,-3.1140699999999999
7787.0,124.82599999999999,132.48400000000001,25.0517,28.497699999999998,-33.137999999999998,-19.1295,1.42571
7788.0,134.119,143.78700000000001,27.932300000000001,33.252899999999997,-30.707699999999999,-27.555700000000002,3.9497900000000001
7789.0,128.828,144.613,33.502099999999999,50.289400000000001,-29.281099999999999,-32.9499,-1.329
7790.0,119.033,88.673500000000004,-7.8405500000000004,36.054900000000004,-26.433800000000002,-38.811799999999998,-13.518700000000001
7791.0,120.919,-10.4916,-98.692599999999999,-30.613299999999999,-31.566600000000001,-32.660299999999999,-25.964600000000001
7792.0,127.288,-48.934600000000003,-130.69300000000001,-49.7759,-38.970399999999998,-16.595500000000001,-37.432400000000001
7793.0,131.59299999999999,-48.889099999999999,-127.7,-41.9405,-41.043799999999997,-12.948499999999999,-40.632199999999997
7794.0,124.538,-33.879300000000001,-118.676,-46.336599999999997,-40.418199999999999,-22.065999999999999,-30.870200000000001
7795.0,119.867,31.2499,-58.709299999999999,-6.0039600000000002,-35.0291,-36.423000000000002,-13.8789
7796.0,124.25,101.16800000000001,15.321999999999999,67.512600000000006,-21.7681,-52.9253,0.22472700000000001
7797.0,134.274,108.651,33.179900000000004,94.153300000000002,-8.6928199999999993,-65.485699999999994,6.4763000000000002
7798.0,128.34700000000001,86.887,23.202100000000002,84.116900000000001,-3.7547100000000002,-64.3523,6.3267600000000002
7799.0,113.324,71.639799999999994,20.253699999999998,82.9114,-3.0943800000000001,-56.110500000000002,2.6867700000000001
7800.0,104.8,53.631799999999998,8.4265299999999996,74.733699999999999,-5.9708100000000002,-49.775199999999998,0.44759599999999999
7801.0,100.169,47.0779,5.6880499999999996,76.473399999999998,-8.0739900000000002,-44.835999999999999,-2.1307
7802.0,98.426400000000001,36.717199999999998,-1.0519400000000001,74.053299999999993,-9.3742000000000001,-41.440800000000003,-3.7178300000000002
7803.0,97.196600000000004,32.515599999999999,-1.92042,76.953699999999998,-10.4352,-38.097099999999998,-5.0159599999999998
7804.0,96.429100000000005,25.683299999999999,-5.4103000000000003,76.906899999999993,-11.208299999999999,-34.823799999999999,-5.7789299999999999
7805.0,95.696200000000005,22.997499999999999,-4.83141,80.452799999999996,-11.856,-31.361899999999999,-6.0795399999999997
7806.0,95.338999999999999,18.305599999999998,-6.5147000000000004,81.690600000000003,-12.327999999999999,-27.7652,-6.1622599999999998
7807.0,86.034999999999997,84.766800000000003,15.3439,33.113,-28.5426,9.6855600000000006,-16.071200000000001
7808.0,85.607200000000006,81.653199999999998,10.7287,31.681799999999999,-28.622599999999998,5.7248599999999996,-16.220199999999998
7809.0,86.724199999999996,80.995400000000004,8.1028000000000002,30.546900000000001,-29.229800000000001,2.6688499999999999,-15.8695
7810.0,88.2423,81.675399999999996,6.89872,29.373100000000001,-30.010899999999999,0.0308241,-14.9291
7811.0,90.414500000000004,81.912400000000005,4.9712100000000001,25.643599999999999,-30.930700000000002,-2.6014200000000001,-13.261699999999999
7812.0,93.909400000000005,89.514799999999994,9.5326400000000007,26.462800000000001,-32.015300000000003,-4.9371400000000003,-10.6652
7813.0,99.967600000000004,100.794,15.045400000000001,26.743500000000001,-32.646599999999999,-7.7282400000000004,-6.5939899999999998
7814.0,109.485,118.121,24.137699999999999,29.668500000000002,-32.755400000000002,-11.780799999999999,-1.6575200000000001
7815.0,121.34099999999999,136.59999999999999,31.837499999999999,33.737900000000003,-31.045100000000001,-18.566800000000001,2.4822000000000002
7816.0,127.28,149.101,38.332700000000003,44.469000000000001,-29.564299999999999,-25.2685,3.4137300000000002
7817.0,117.65600000000001,129.96299999999999,27.7455,52.889600000000002,-27.339099999999998,-31.917100000000001,-3.37751
7818.0,113.999,51.111699999999999,-39.6661,14.2775,-27.620100000000001,-35.310099999999998,-15.4171
7819.0,118.14100000000001,-26.4773,-111.21599999999999,-33.888199999999998,-34.354599999999998,-22.959900000000001,-27.2485
7820.0,126.968,-49.533999999999999,-129.572,-38.519199999999998,-38.916499999999999,-10.086499999999999,-35.884500000000003
7821.0,128.06899999999999,-47.316800000000001,-127.206,-36.003399999999999,-38.904299999999999,-6.3784400000000003,-37.968499999999999
7822.0,118.496,-39.747700000000002,-124.967,-44.8431,-34.8827,-15.0906,-30.841799999999999
7823.0,114.783,14.040100000000001,-78.362099999999998,-21.486000000000001,-32.186799999999998,-30.4558,-15.9876
7824.0,116.288,101.538,16.1907,64.678899999999999,-21.776599999999998,-46.758000000000003,-3.8459699999999999
7825.0,125.30500000000001,106.569,35.521999999999998,92.9422,-7.7728900000000003,-61.177199999999999,2.98848
7826.0,119.857,88.581900000000005,27.579799999999999,86.038300000000007,-3.55749,-59.730800000000002,4.1600400000000004
7827.0,103.383,71.3964,22.151499999999999,82.962199999999996,-4.3122299999999996,-49.998600000000003,1.1827799999999999
7828.0,95.909300000000002,55.784700000000001,12.9137,75.099699999999999,-7.0252800000000004,-44.763800000000003,-0.18168999999999999
7829.0,92.113600000000005,44.593899999999998,6.3688099999999999,71.994500000000002,-8.0766500000000008,-40.915100000000002,-1.6051
7830.0,91.577399999999997,39.493000000000002,3.9415300000000002,74.854200000000006,-8.5256299999999996,-38.190800000000003,-2.6632699999999998
7831.0,90.495199999999997,32.231900000000003,-0.785694,73.683199999999999,-9.1592000000000002,-35.145299999999999,-4.2870499999999998
7832.0,89.389700000000005,28.747,-1.3854500000000001,75.997900000000001,-9.8134700000000006,-31.913699999999999,-5.2200899999999999
7833.0,88.6845,23.163599999999999,-4.3603899999999998,75.733000000000004,-10.5791,-28.6662,-5.6538000000000004
7834.0,88.313900000000004,20.803599999999999,-4.1974999999999998,78.557000000000002,-11.148300000000001,-25.2986,-5.8312600000000003
7835.0,81.956400000000002,80.037300000000002,15.520300000000001,34.221299999999999,-28.860800000000001,8.4543499999999998,-15.253
7836.0,81.118700000000004,77.425799999999995,11.601000000000001,33.731900000000003,-28.713799999999999,4.6363500000000002,-15.015499999999999
7837.0,82.400099999999995,74.739400000000003,6.5700200000000004,30.0505,-29.187000000000001,2.1960600000000001,-14.398099999999999
7838.0,83.321700000000007,76.320599999999999,6.42042,30.108899999999998,-29.529299999999999,0.0039946599999999997,-13.3569
7839.0,85.299999999999997,79.840100000000007,7.3918100000000004,28.828900000000001,-30.1005,-2.2073700000000001,-11.374499999999999
7840.0,88.455500000000001,83.2226,7.5757700000000003,24.5642,-30.7166,-3.8622100000000001,-8.6248100000000001
7841.0,95.434299999999993,95.5946,13.530099999999999,23.979199999999999,-31.255199999999999,-6.4169799999999997,-4.7338899999999997
7842.0,105.399,115.536,24.5929,28.188700000000001,-30.6936,-10.421099999999999,-0.342669
7843.0,117.80200000000001,130.38499999999999,28.6843,29.180599999999998,-29.3399,-17.950500000000002,3.4307300000000001
7844.0,119.114,140.047,35.9099,44.466000000000001,-28.623799999999999,-23.7895,1.3806099999999999
7845.0,109.494,110.06399999999999,16.0501,50.199300000000001,-26.0365,-31.665800000000001,-7.1369300000000004
7846.0,109.23099999999999,16.351900000000001,-69.5184,-8.5424500000000005,-28.883900000000001,-30.094100000000001,-16.889500000000002
7847.0,113.492,-32.757300000000001,-112.902,-31.821999999999999,-35.091099999999997,-14.398,-26.238700000000001
7848.0,121.57599999999999,-43.447600000000001,-121.404,-26.785799999999998,-36.378900000000002,-6.0657300000000003,-31.866399999999999
7849.0,121.762,-40.052300000000002,-121.59099999999999,-28.832899999999999,-35.193300000000001,-2.94401,-33.640500000000003
7850.0,112.94499999999999,-32.646700000000003,-117.76300000000001,-34.096499999999999,-30.2943,-10.2742,-29.230599999999999
7851.0,106.60599999999999,4.1949899999999998,-85.645799999999994,-26.784199999999998,-27.517900000000001,-25.8278,-16.773900000000001
7852.0,109.14100000000001,77.120999999999995,-5.3555900000000003,38.404499999999999,-19.349599999999999,-43.1218,-5.8306899999999997
7853.0,114.08499999999999,104.926,37.006100000000004,89.322299999999998,-8.7352900000000009,-54.741100000000003,0.079208500000000001
7854.0,109.523,74.233599999999996,21.199000000000002,80.4131,-6.6582499999999998,-53.769500000000001,-1.8376999999999999
7855.0,96.728700000000003,51.926099999999998,8.2842199999999995,63.402799999999999,-10.3796,-46.287399999999998,-4.7774400000000004
7856.0,86.013300000000001,47.066800000000001,4.9397900000000003,59.837899999999998,-11.1374,-38.812199999999997,-3.2252800000000001
7857.0,84.803299999999993,46.316600000000001,9.2822200000000006,72.558199999999999,-8.6543100000000006,-36.168399999999998,-1.86497
7858.0,86.159599999999998,36.3369,2.2850199999999998,69.428799999999995,-8.2611500000000007,-35.719099999999997,-1.8020799999999999
7859.0,84.365300000000005,33.632800000000003,2.0465800000000001,72.487300000000005,-8.0917499999999993,-32.361699999999999,-3.85534
7860.0,83.2256,26.637699999999999,-2.56385,70.423199999999994,-8.6837400000000002,-29.3691,-4.6237899999999996
7861.0,82.191800000000001,24.694099999999999,-2.44163,72.786299999999997,-9.4624900000000007,-26.129999999999999,-5.3018000000000001
7862.0,81.939999999999998,20.149999999999999,-4.9097,72.857900000000001,-10.1149,-23.032800000000002,-5.4390599999999996
7863.0,78.109800000000007,74.716899999999995,14.900499999999999,34.606099999999998,-29.052700000000002,7.2923200000000001,-14.3973
7864.0,77.536600000000007,73.260099999999994,12.0143,34.805,-28.9619,3.9709400000000001,-13.8278
7865.0,78.440399999999997,73.000399999999999,9.3445999999999998,33.443899999999999,-29.098199999999999,1.96638,-12.941000000000001
7866.0,79.146600000000007,74.280900000000003,8.6215499999999992,32.562800000000003,-29.105799999999999,0.14984900000000001,-11.694900000000001
7867.0,80.778400000000005,75.250699999999995,6.8974299999999999,28.542300000000001,-29.303799999999999,-1.4846299999999999,-9.6821999999999999
7868.0,84.166499999999999,85.068200000000004,12.632099999999999,29.437200000000001,-29.4786,-2.9230800000000001,-6.8140999999999998
7869.0,91.264300000000006,99.8429,21.167400000000001,30.069099999999999,-29.726199999999999,-5.1745799999999997,-3.11808
7870.0,102.80800000000001,120.268,31.4313,32.420000000000002,-28.714300000000001,-9.7846200000000003,1.0832999999999999
7871.0,113.44199999999999,138.59100000000001,40.5777,39.713299999999997,-27.916799999999999,-16.218699999999998,4.0774600000000003
7872.0,109.697,134.32599999999999,38.695099999999996,49.971699999999998,-26.248100000000001,-24.301400000000001,0.53690099999999996
7873.0,102.71899999999999,67.898200000000003,-18.655000000000001,19.5305,-24.715699999999998,-30.9528,-8.1604899999999994
7874.0,102.066,-11.6586,-93.491100000000003,-27.999300000000002,-29.024799999999999,-22.267700000000001,-16.086200000000002
7875.0,108.628,-36.548200000000001,-113.806,-28.717199999999998,-33.559699999999999,-8.03932,-23.037199999999999
7876.0,114.48999999999999,-37.825099999999999,-115.423,-21.327000000000002,-33.204300000000003,-3.5570599999999999,-27.009
7877.0,113.264,-33.4666,-115.02,-23.5703,-30.697600000000001,-1.22983,-28.5259
7878.0,105.782,-30.304400000000001,-113.74299999999999,-30.246400000000001,-25.9727,-7.8380299999999998,-25.9161
7879.0,99.526600000000002,-0.61343700000000001,-90.313500000000005,-28.2362,-22.3292,-20.946300000000001,-15.9391
7880.0,102.645,65.880200000000002,-19.7622,28.379000000000001,-16.2012,-37.2057,-4.7107400000000004
7881.0,102.747,100.59399999999999,33.734999999999999,85.697299999999998,-10.6349,-46.595700000000001,-1.63496
7882.0,100.173,41.005600000000001,-2.97946,59.287700000000001,-7.7584600000000004,-47.0458,-6.8573000000000004
7883.0,90.674199999999999,-13.4293,-56.4191,-4.3923199999999998,-12.7263,-41.959899999999998,-6.7269300000000003
7884.0,77.251499999999993,41.725299999999997,-4.0254000000000003,43.488500000000002,-15.3025,-31.727599999999999,-4.7778799999999997
7885.0,78.838200000000001,46.457700000000003,9.4680199999999992,72.181799999999996,-9.9133800000000001,-31.067799999999998,-3.8085399999999998
7886.0,82.181399999999996,38.128700000000002,3.2436400000000001,67.817899999999995,-8.2286099999999998,-33.715499999999999,-1.4512799999999999
7887.0,78.596699999999998,34.834200000000003,4.1861800000000002,71.216899999999995,-7.25786,-29.4373,-3.7274699999999998
7888.0,77.867500000000007,28.538699999999999,0.083920099999999997,69.105699999999999,-7.6693899999999999,-27.2394,-4.13368
7889.0,76.060100000000006,25.331399999999999,-1.4435500000000001,69.236599999999996,-8.5004500000000007,-23.632899999999999,-4.9225399999999997
7890.0,76.237099999999998,22.051200000000001,-3.1282000000000001,70.194299999999998,-9.1568699999999996,-20.979399999999998,-5.03843
7891.0,74.290899999999993,72.324200000000005,17.4406,37.462299999999999,-29.231400000000001,6.3890399999999996,-13.1534
7892.0,74.197199999999995,70.218199999999996,13.4701,35.835000000000001,-29.231999999999999,3.9241000000000001,-12.167299999999999
7893.0,74.355699999999999,69.031999999999996,10.066700000000001,33.425400000000003,-28.919,2.1621800000000002,-10.9641
7894.0,75.101100000000002,70.689400000000006,9.1976300000000002,31.818300000000001,-28.686800000000002,0.72223000000000004,-9.44923
7895.0,76.269599999999997,77.209000000000003,13.0883,32.9756,-28.351900000000001,-0.52692399999999995,-7.5928699999999996
7896.0,80.1678,83.065700000000007,14.1981,28.058800000000002,-28.065100000000001,-1.9961599999999999,-4.8874599999999999
7897.0,87.372699999999995,98.205100000000002,22.925799999999999,28.4619,-27.6904,-3.9444699999999999,-1.43336
7898.0,100.77,116.31399999999999,30.069900000000001,27.059699999999999,-26.788,-9.5010499999999993,2.83507
7899.0,108.54900000000001,135.553,42.472000000000001,38.802399999999999,-26.2806,-14.4963,4.5248699999999999
7900.0,100.923,118.035,28.9436,44.329000000000001,-22.947700000000001,-24.4163,2.1526900000000002
7901.0,95.515900000000002,35.953299999999999,-46.949599999999997,-3.3312900000000001,-22.9499,-27.875699999999998,-4.1907800000000002
7902.0,94.6233,-21.358699999999999,-99.138099999999994,-31.075700000000001,-28.255400000000002,-14.7538,-13.1297
7903.0,102.67400000000001,-29.266400000000001,-103.657,-17.709,-30.581700000000001,-4.4418499999999996,-19.576599999999999
7904.0,106.336,-30.7042,-108.387,-17.558700000000002,-29.644500000000001,-2.2047099999999999,-21.8156
7905.0,104.72,-21.7867,-102.47499999999999,-13.822900000000001,-26.226600000000001,-0.55609299999999995,-23.701000000000001
7906.0,99.044399999999996,-26.310099999999998,-107.666,-25.001799999999999,-22.026599999999998,-6.4299600000000003,-22.385400000000001
7907.0,95.896600000000007,3.7150799999999999,-84.735600000000005,-19.972300000000001,-20.7455,-16.735299999999999,-16.076499999999999
7908.0,98.182000000000002,74.558599999999998,-11.346500000000001,41.7423,-17.622800000000002,-31.075299999999999,-7.6044600000000004
7909.0,94.403000000000006,101.142,33.224600000000002,89.319000000000003,-12.632899999999999,-38.466099999999997,-3.8576999999999999
7910.0,93.084100000000007,18.663599999999999,-30.857900000000001,42.713200000000001,-7.5546499999999996,-37.112499999999997,-6.8237100000000002
7911.0,86.392200000000003,-32.0824,-88.552899999999994,-24.7212,-12.992800000000001,-32.6858,-5.5762200000000002
7912.0,73.890799999999999,29.046299999999999,-26.422799999999999,22.327000000000002,-17.224499999999999,-24.049099999999999,-5.3376200000000003
7913.0,73.292599999999993,47.191299999999998,9.0239899999999995,70.148399999999995,-10.4819,-26.370799999999999,-5.6552899999999999
7914.0,78.281999999999996,33.636299999999999,-1.3595600000000001,60.2849,-8.0462900000000008,-31.893599999999999,-2.2202000000000002
7915.0,73.390299999999996,36.086300000000001,6.4345299999999996,69.712299999999999,-6.7921300000000002,-27.078399999999998,-3.6976599999999999
7916.0,72.712299999999999,26.382899999999999,-1.4269000000000001,63.9054,-6.7326899999999998,-25.041899999999998,-3.8722099999999999
7917.0,70.596800000000002,26.689900000000002,0.239928,66.787599999999998,-7.7204199999999998,-21.421199999999999,-4.4900900000000004
7918.0,70.869799999999998,21.258400000000002,-4.0127300000000004,65.075199999999995,-8.3242999999999991,-18.998799999999999,-4.6882000000000001
7919.0,70.927899999999994,69.068299999999994,19.009599999999999,38.574100000000001,-29.367100000000001,5.9534200000000004,-11.9428
7920.0,70.746700000000004,68.177000000000007,16.0487,36.905099999999997,-29.165700000000001,4.1889700000000003,-10.573499999999999
7921.0,70.5274,70.446600000000004,16.124300000000002,37.3279,-28.614799999999999,2.6628500000000002,-9.0875599999999999
7922.0,71.120500000000007,72.216499999999996,15.152100000000001,34.915999999999997,-28.084,1.48407,-7.4437800000000003
7923.0,72.262500000000003,75.074700000000007,14.963100000000001,31.532900000000001,-27.311800000000002,0.41240100000000002,-5.5263600000000004
7924.0,76.677800000000005,86.905500000000004,21.423300000000001,31.373799999999999,-26.5624,-0.98420799999999997,-2.8606699999999998
7925.0,84.518699999999995,105.166,32.669800000000002,33.999899999999997,-25.5319,-2.9837099999999999,0.147755
7926.0,98.3142,124.521,41.680500000000002,34.067700000000002,-24.621400000000001,-9.0408399999999993,4.10886
7927.0,103.69799999999999,143.10599999999999,55.357300000000002,47.723999999999997,-23.614699999999999,-13.762499999999999,5.3006000000000002
7928.0,93.429199999999994,121.337,38.360399999999998,54.001300000000001,-20.348400000000002,-23.1889,3.7305199999999998
7929.0,88.245800000000003,34.348599999999998,-43.926400000000001,2.9831599999999998,-21.383900000000001,-24.206399999999999,-0.82272199999999995
7930.0,87.926299999999998,-20.686,-94.189599999999999,-25.0214,-26.1875,-10.2806,-9.1957400000000007
7931.0,95.221500000000006,-28.2746,-100.31999999999999,-16.9773,-27.135300000000001,-2.4634999999999998,-15.3612
7932.0,98.182400000000001,-24.013400000000001,-100.836,-14.5327,-25.964500000000001,-1.3138700000000001,-17.245200000000001
7933.0,97.103899999999996,-18.920999999999999,-98.255200000000002,-12.876200000000001,-22.474399999999999,-1.19411,-19.145
7934.0,93.410799999999995,-21.656400000000001,-101.783,-20.723299999999998,-18.964200000000002,-4.7596100000000003,-18.997399999999999
7935.0,89.708600000000004,-8.6426800000000004,-89.304000000000002,-23.182600000000001,-19.754100000000001,-13.524800000000001,-16.159099999999999
7936.0,93.253200000000007,45.638399999999997,-32.625999999999998,19.245899999999999,-20.3033,-27.839400000000001,-11.2264
7937.0,89.656199999999998,92.202500000000001,22.351400000000002,78.165199999999999,-16.669499999999999,-31.393799999999999,-7.1223999999999998
7938.0,90.021199999999993,31.122299999999999,-22.0687,57.814799999999998,-11.5253,-29.061599999999999,-8.3667499999999997
7939.0,85.972099999999998,-37.4193,-97.124300000000005,-27.296700000000001,-15.6928,-27.055199999999999,-7.8511100000000003
7940.0,73.889899999999997,28.941700000000001,-32.007100000000001,18.532800000000002,-17.938800000000001,-19.526599999999998,-7.3430499999999999
7941.0,68.8249,44.3825,2.7112400000000001,62.305500000000002,-10.0182,-22.337599999999998,-6.6900199999999996
7942.0,73.386099999999999,34.4758,-1.0754900000000001,58.2087,-6.4308800000000002,-29.231999999999999,-3.0020899999999999
7943.0,68.679500000000004,34.587600000000002,5.15055,65.019400000000005,-5.8400100000000004,-25.1142,-3.3631000000000002
7944.0,67.578900000000004,30.0626,2.90856,64.597200000000001,-5.9410999999999996,-22.7332,-3.7814199999999998
7945.0,65.660899999999998,25.9559,-0.32125799999999999,62.469099999999997,-6.9118500000000003,-19.4558,-4.0532500000000002
7946.0,65.770200000000003,24.063700000000001,-1.3702099999999999,63.711399999999998,-7.5621499999999999,-17.0519,-4.2676299999999996
7947.0,67.180199999999999,67.892600000000002,23.175799999999999,40.3277,-29.1814,6.3547599999999997,-10.1745
7948.0,66.454599999999999,68.462500000000006,21.910399999999999,38.868299999999998,-28.679400000000001,5.0144500000000001,-8.3269099999999998
7949.0,65.999499999999998,68.475300000000004,19.876999999999999,35.8748,-27.956299999999999,3.76511,-6.5441000000000003
7950.0,66.555099999999996,71.903499999999994,20.4557,34.240900000000003,-27.158300000000001,2.6865100000000002,-4.7440300000000004
7951.0,68.329400000000007,80.189700000000002,24.917000000000002,35.028599999999997,-26.065000000000001,1.6383799999999999,-2.8453400000000002
7952.0,73.678100000000001,87.838499999999996,26.405799999999999,29.660599999999999,-24.785900000000002,0.095343700000000003,-0.51688199999999995
7953.0,82.635099999999994,104.244,35.026600000000002,29.590299999999999,-23.113600000000002,-2.3267500000000001,2.0600100000000001
7954.0,95.622600000000006,122.254,43.8994,30.089400000000001,-21.809799999999999,-8.6504799999999999,5.1631600000000004
7955.0,98.969099999999997,136.32599999999999,53.899700000000003,42.608400000000003,-20.647400000000001,-13.6485,5.9110199999999997
7956.0,86.067300000000003,115.71599999999999,39.563200000000002,53.278100000000002,-18.497299999999999,-21.456,4.3622500000000004
7957.0,79.891000000000005,41.811,-28.380500000000001,16.7197,-19.9895,-21.513200000000001,-0.21423
7958.0,81.640699999999995,-11.1553,-79.679699999999997,-12.726100000000001,-23.8248,-8.3074499999999993,-7.4135499999999999
7959.0,88.182900000000004,-20.590399999999999,-90.484999999999999,-11.3925,-24.166899999999998,-1.28569,-11.639200000000001
7960.0,90.340699999999998,-15.301,-90.256399999999999,-9.0469799999999996,-22.518599999999999,-0.96017600000000003,-13.053900000000001
7961.0,90.495599999999996,-12.2056,-89.843000000000004,-7.7722899999999999,-19.477499999999999,-2.0981299999999998,-14.682499999999999
7962.0,88.906700000000001,-14.463200000000001,-92.854299999999995,-13.5093,-17.318100000000001,-3.2990400000000002,-15.823499999999999
7963.0,83.867900000000006,-14.5718,-90.169600000000003,-19.7148,-16.887899999999998,-8.8917999999999999,-14.004200000000001
7964.0,85.783799999999999,-3.7202299999999999,-77.453299999999999,-21.627400000000002,-18.958500000000001,-23.196100000000001,-8.7468800000000009
7965.0,84.981899999999996,63.867400000000004,-4.8837599999999997,44.6815,-18.973800000000001,-27.380400000000002,-6.2472399999999997
7966.0,80.871200000000002,30.428899999999999,-20.248100000000001,52.194499999999998,-11.2041,-25.214500000000001,-6.0918400000000004
7967.0,79.444400000000002,-37.946100000000001,-92.851600000000005,-23.645299999999999,-10.863200000000001,-25.120100000000001,-4.4719100000000003
7968.0,70.065700000000007,9.9999500000000001,-49.9788,-0.258322,-14.1866,-19.1599,-6.23719
7969.0,64.614699999999999,46.629100000000001,2.4744100000000002,58.3127,-8.4833599999999993,-19.988900000000001,-7.2677399999999999
7970.0,68.098100000000002,36.436,0.54419700000000004,57.796500000000002,-4.8251999999999997,-25.868300000000001,-4.0345399999999998
7971.0,64.472499999999997,35.765099999999997,6.4376699999999998,63.466099999999997,-4.9408200000000004,-23.167999999999999,-3.3343099999999999
7972.0,62.5518,27.772400000000001,1.15913,59.104599999999998,-5.3117200000000002,-20.519400000000001,-3.7023999999999999
7973.0,60.976300000000002,27.341899999999999,1.21201,60.404800000000002,-6.2762799999999999,-17.506,-3.6832799999999999
7974.0,61.177500000000002,23.081700000000001,-2.6506599999999998,58.780900000000003,-6.968,-15.2484,-3.84151
7975.0,63.158299999999997,67.864599999999996,28.2424,42.290799999999997,-28.278600000000001,7.0057700000000001,-8.7947199999999999
7976.0,61.902999999999999,69.727199999999996,28.918199999999999,40.939700000000002,-27.509499999999999,5.9173,-6.7656299999999998
7977.0,61.397799999999997,74.354100000000003,31.902799999999999,41.502800000000001,-26.7241,4.8069100000000002,-4.8682600000000003
7978.0,62.381599999999999,77.511799999999994,32.2149,38.696899999999999,-25.954499999999999,3.7296499999999999,-3.0889099999999998
7979.0,65.298900000000003,82.176400000000001,32.118899999999996,34.436700000000002,-24.790500000000002,2.5971099999999998,-1.27759
7980.0,71.905600000000007,96.642300000000006,39.164499999999997,35.003599999999999,-23.139199999999999,0.84445199999999998,0.78330599999999995
7981.0,81.825299999999999,115.956,49.526299999999999,37.494399999999999,-20.813099999999999,-2.1486700000000001,2.8881199999999998
7982.0,93.060599999999994,132.99799999999999,58.3127,39.771700000000003,-18.787700000000001,-8.4072399999999998,5.2557299999999998
7983.0,92.956800000000001,142.874,66.734499999999997,52.973300000000002,-17.7395,-13.9268,5.1872100000000003
7984.0,77.960400000000007,117.294,49.371600000000001,61.135100000000001,-17.013100000000001,-20.233499999999999,3.08013
7985.0,71.658900000000003,37.385899999999999,-24.491599999999998,17.976900000000001,-18.610399999999998,-19.067799999999998,-0.46617599999999998
7986.0,74.594200000000001,-17.112100000000002,-80.248500000000007,-17.824100000000001,-21.463899999999999,-6.8026299999999997,-5.8196599999999998
7987.0,81.147199999999998,-20.1858,-87.154899999999998,-13.6469,-21.5792,-0.428004,-8.5985899999999997
7988.0,84.011700000000005,-12.138199999999999,-84.999700000000004,-8.2306100000000004,-19.825600000000001,-1.32887,-9.3934899999999999
7989.0,84.544499999999999,-10.719099999999999,-85.994900000000001,-7.9210500000000001,-17.223800000000001,-2.6179399999999999,-10.837400000000001
7990.0,83.482500000000002,-16.144500000000001,-90.7714,-13.626200000000001,-15.637,-2.4194,-12.311999999999999
7991.0,81.027699999999996,-21.110399999999998,-94.649799999999999,-21.333600000000001,-15.4274,-4.5129900000000003,-11.5282
7992.0,80.287899999999993,-15.8742,-88.754400000000004,-25.477,-16.9756,-16.226299999999998,-5.4120799999999996
7993.0,81.4726,29.8642,-40.9114,9.4796399999999998,-16.898299999999999,-24.478400000000001,-0.72131199999999995
7994.0,73.788600000000002,56.760199999999998,0.95676399999999995,64.708100000000002,-8.8780000000000001,-23.004200000000001,-0.061350099999999998
7995.0,74.9876,-7.42448,-58.595799999999997,11.596500000000001,-4.4696999999999996,-23.161999999999999,-0.215227
7996.0,66.564499999999995,5.4956699999999996,-49.500399999999999,1.37608,-8.1506000000000007,-21.471800000000002,-3.3384800000000001
7997.0,59.448500000000003,42.687800000000003,-0.62627299999999997,48.252499999999998,-6.2614799999999997,-19.4833,-6.5727500000000001
7998.0,62.175699999999999,42.418300000000002,9.2979500000000002,62.865600000000001,-3.4914100000000001,-22.7713,-5.2082600000000001
7999.0,60.226199999999999,33.7014,5.2242800000000003,58.556399999999996,-4.1369999999999996,-21.6144,-3.54915
8000.0,57.463000000000001,31.282800000000002,5.0127499999999996,59.328800000000001,-4.6596700000000002,-18.133199999999999,-3.5101300000000002
8001.0,56.645699999999998,26.476700000000001,0.36232599999999998,56.200099999999999,-5.6761400000000002,-15.6982,-3.22194
8002.0,56.831400000000002,25.886199999999999,-0.26250699999999999,57.715899999999998,-6.3305600000000002,-13.4878,-3.39717
8003.0,58.189300000000003,68.9696,34.976799999999997,43.846699999999998,-26.559200000000001,7.88842,-7.0818700000000003
8004.0,56.4238,72.254300000000001,38.136899999999997,43.049999999999997,-25.4438,6.9500200000000003,-5.0351499999999998
8005.0,56.071399999999997,73.170500000000004,38.574199999999998,39.218299999999999,-24.7181,5.9480199999999996,-3.1561699999999999
8006.0,58.237400000000001,78.591200000000001,41.368200000000002,37.661099999999998,-24.320399999999999,4.9583199999999996,-1.42763
8007.0,63.099499999999999,89.352000000000004,46.232700000000001,37.630800000000001,-23.3383,3.78281,0.37176999999999999
8008.0,71.518299999999996,99.135300000000001,47.096600000000002,32.143999999999998,-21.448899999999998,1.6902999999999999,2.3385199999999999
8009.0,82.3322,114.777,52.255499999999998,31.089099999999998,-18.550599999999999,-2.3170099999999998,4.0726100000000001
8010.0,90.723600000000005,129.488,58.912399999999998,35.753900000000002,-16.102599999999999,-8.7131000000000007,4.9480599999999999
8011.0,84.729200000000006,128.87,59.466999999999999,47.228000000000002,-15.0382,-14.6662,3.6191
8012.0,69.664699999999996,87.961500000000001,28.031700000000001,42.511299999999999,-15.7608,-19.781300000000002,0.43773699999999999
8013.0,65.6952,20.229500000000002,-36.152200000000001,6.5525599999999997,-18.207100000000001,-15.309799999999999,-2.7907500000000001
8014.0,70.394199999999998,-16.682400000000001,-76.903400000000005,-15.81,-19.860099999999999,-3.2850299999999999,-4.4660399999999996
8015.0,76.235200000000006,-12.6553,-77.864199999999997,-7.9237700000000002,-19.560400000000001,0.48316799999999999,-5.1692999999999998
8016.0,78.680899999999994,-4.9161599999999996,-75.9499,-3.6294200000000001,-17.601299999999998,-1.76233,-6.1400499999999996
8017.0,79.000799999999998,-5.0663600000000004,-77.481999999999999,-3.3603800000000001,-15.061999999999999,-2.9607999999999999,-7.3884400000000001
8018.0,78.153700000000001,-12.014900000000001,-82.752899999999997,-7.9875499999999997,-13.8123,-1.37985,-8.6597000000000008
8019.0,75.084699999999998,-20.222000000000001,-88.579099999999997,-17.872499999999999,-13.857100000000001,-2.3607300000000002,-8.2891300000000001
8020.0,72.065899999999999,-18.1645,-86.1755,-27.3583,-14.699999999999999,-12.078799999999999,-2.7561900000000001
8021.0,76.3874,31.313500000000001,-35.639400000000002,10.757300000000001,-13.634,-23.823799999999999,3.9034
8022.0,70.851200000000006,72.859099999999998,20.153600000000001,70.624499999999998,-7.8169700000000004,-26.497800000000002,4.6577700000000002
8023.0,70.045100000000005,43.351599999999998,1.9136500000000001,62.944200000000002,-0.46037400000000001,-25.677199999999999,2.2257899999999999
8024.0,64.332099999999997,6.9092500000000001,-38.555500000000002,12.252700000000001,-0.40568900000000002,-24.492100000000001,-0.038491699999999997
8025.0,54.766599999999997,41.873399999999997,2.7740100000000001,46.479999999999997,-2.14961,-20.1188,-3.7025899999999998
8026.0,55.981699999999996,39.019599999999997,9.4727300000000003,58.675600000000003,-1.7222999999999999,-20.028199999999998,-5.2125700000000004
8027.0,55.586300000000001,33.046599999999998,5.2572400000000004,55.024299999999997,-3.16649,-19.607199999999999,-3.6703199999999998
8028.0,52.755499999999998,29.732900000000001,3.4486300000000001,54.500100000000003,-4.4233599999999997,-15.665100000000001,-3.3163999999999998
8029.0,52.809800000000003,27.322800000000001,0.59472499999999995,53.566099999999999,-5.3323400000000003,-13.8286,-2.90659
8030.0,53.061399999999999,25.456800000000001,-1.5755699999999999,53.430399999999999,-5.9455099999999996,-11.7476,-2.9427400000000001
8031.0,4862.1899999999996,3468.6399999999999,713.67999999999995,5409.8699999999999,-1082.8699999999999,-73.619600000000005,1064.6800000000001
8032.0,4890.0,3511.6199999999999,674.50300000000004,5470.0200000000004,-1015.8200000000001,55.189900000000002,1059.3099999999999
8033.0,4917.7700000000004,3566.0900000000001,626.678,5497.1000000000004,-954.91800000000001,180.62899999999999,1049.75
8034.0,4944.0600000000004,3648.2800000000002,585.79399999999998,5508.0500000000002,-897.45699999999999,299.55700000000002,1036.8499999999999
8035.0,4967.04,3739.48,537.80399999999997,5488.96,-843.05799999999999,407.03300000000002,1021.35
8036.0,4984.3400000000001,3846.04,495.726,5454.1000000000004,-790.43200000000002,500.07999999999998,1003.51
8037.0,4994.3800000000001,3950.48,447.68200000000002,5393.7600000000002,-738.68200000000002,576.43600000000004,983.50800000000004
8038.0,4995.3699999999999,4057.6399999999999,405.10300000000001,5321.54,-686.94799999999998,635.48800000000006,961.16200000000003
8039.0,4986.6599999999999,4153.0,357.90699999999998,5230.3599999999997,-634.755,677.15099999999995,936.36300000000006
8040.0,4966.9899999999998,4241.9099999999999,317.07999999999998,5133.1000000000004,-581.73900000000003,702.69100000000003,908.86699999999996
8041.0,4937.5799999999999,4311.96,271.29500000000002,5022.1000000000004,-528.27599999999995,713.12300000000005,878.66099999999994
8042.0,4894.8299999999999,4370.3199999999997,236.017,4911.7700000000004,-473.71199999999999,711.38599999999997,845.346
8043.0,4850.1199999999999,4382.8500000000004,159.38900000000001,4764.1300000000001,-414.44799999999998,696.125,808.54499999999996
8044.0,4807.3000000000002,4360.9200000000001,59.715800000000002,4595.25,-365.87,671.15899999999999,773.31200000000001
8045.0,4749.96,4362.1300000000001,14.122999999999999,4472.1099999999997,-318.61700000000002,642.64800000000002,735.55999999999995
8046.0,4691.0200000000004,4373.7200000000003,-12.993600000000001,4374.3900000000003,-265.80000000000001,607.303,693.08699999999999
8047.0,4634.3900000000003,4368.9099999999999,-47.664200000000001,4274.7700000000004,-217.76900000000001,567.02800000000002,651.02599999999995
8048.0,4575.8000000000002,4361.1899999999996,-73.036199999999994,4187.8500000000004,-170.40100000000001,524.48900000000003,606.02300000000002
8049.0,4518.5699999999997,4342.1999999999998,-100.798,4103.7799999999997,-125.55200000000001,480.577,559.63
8050.0,4461.1999999999998,4318.96,-122.899,4028.7600000000002,-82.610500000000002,436.94299999999998,511.13499999999999
8051.0,4404.6000000000004,4287.3400000000001,-145.005,3957.1799999999998,-42.046300000000002,394.29199999999997,460.995
8052.0,4348.4200000000001,4251.3500000000004,-163.49799999999999,3891.4299999999998,-3.93147,353.52699999999999,409.202
8053.0,4292.9099999999999,4210.2600000000002,-180.02699999999999,3829.5,31.489899999999999,315.15100000000001,355.97699999999998
8054.0,4238.2200000000003,4165.3599999999997,-194.44300000000001,3770.77,64.0578,279.41199999999998,301.54000000000002
8055.0,4184.4399999999996,4118.46,-205.55699999999999,3716.0,93.568899999999999,246.767,246.12200000000001
8056.0,4132.25,4069.0500000000002,-215.63300000000001,3662.8600000000001,119.878,216.84299999999999,189.91
8057.0,4081.4499999999998,4020.9200000000001,-220.869,3614.7399999999998,142.69200000000001,190.511,133.49299999999999
8058.0,4033.2399999999998,3971.3099999999999,-227.22300000000001,3565.1599999999999,162.428,166.73400000000001,75.551699999999997
8059.0,3749.25,2977.4699999999998,541.221,3651.1900000000001,-995.98000000000002,230.422,981.68299999999999
8060.0,3771.21,3024.8600000000001,498.32400000000001,3674.0799999999999,-935.05799999999999,266.68799999999999,990.04100000000005
8061.0,3794.5,3084.4200000000001,458.18200000000002,3687.77,-878.78800000000001,301.964,993.67499999999995
8062.0,3813.0599999999999,3141.9099999999999,411.0,3681.2800000000002,-821.73599999999999,332.149,993.46500000000003
8063.0,3828.0500000000002,3209.6599999999999,370.49400000000003,3669.3800000000001,-766.05399999999997,355.649,989.37199999999996
8064.0,3836.5100000000002,3267.4000000000001,321.113,3636.3499999999999,-710.11699999999996,370.577,981.53300000000002
8065.0,3837.79,3330.21,281.24000000000001,3601.8200000000002,-654.11400000000003,376.00799999999998,970.00800000000004
8066.0,3830.5799999999999,3375.8600000000001,232.46000000000001,3548.5,-597.34799999999996,371.69299999999998,954.81100000000004
8067.0,3813.1799999999998,3419.5900000000001,195.06999999999999,3497.3400000000001,-539.92100000000005,358.00700000000001,935.76700000000005
8068.0,3786.23,3439.4499999999998,147.751,3429.4299999999998,-481.19400000000002,335.81200000000001,912.90200000000004
8069.0,3746.6700000000001,3453.6799999999998,116.71299999999999,3369.3899999999999,-423.27800000000002,306.59399999999999,886.35799999999995
8070.0,3695.96,3434.3000000000002,69.255899999999997,3288.6999999999998,-360.56900000000002,271.44600000000003,855.23099999999999
8071.0,3648.3000000000002,3373.1799999999998,-15.9856,3175.3600000000001,-300.33999999999997,230.631,821.52999999999997
8072.0,3594.4699999999998,3290.5,-100.46299999999999,3058.8099999999999,-249.49799999999999,189.327,787.245
8073.0,3530.0,3240.6700000000001,-130.33799999999999,2995.2600000000002,-195.94300000000001,147.56,749.16899999999998
8074.0,3468.2199999999998,3186.3099999999999,-158.56100000000001,2940.9200000000001,-142.63,103.94,708.88599999999997
8075.0,3408.5100000000002,3131.1700000000001,-179.958,2897.5900000000001,-93.058700000000002,61.934899999999999,667.26099999999997
8076.0,3350.1599999999999,3062.5100000000002,-206.60599999999999,2853.7399999999998,-45.242800000000003,22.483499999999999,623.89200000000005
8077.0,3293.52,2996.27,-223.756,2823.1900000000001,-0.16167799999999999,-13.5274,578.94799999999998
8078.0,3237.9699999999998,2917.8400000000001,-246.22900000000001,2789.9200000000001,42.501199999999997,-45.028100000000002,532.29300000000001
8079.0,3183.3499999999999,2842.6599999999999,-259.327,2767.5799999999999,82.393100000000004,-71.303299999999993,484.09500000000003
8080.0,3129.5999999999999,2757.73,-276.99400000000003,2741.2800000000002,119.45399999999999,-91.956299999999999,434.47399999999999
8081.0,3076.3800000000001,2677.02,-286.113,2722.7800000000002,153.43100000000001,-106.58799999999999,383.64600000000002
8082.0,3024.2600000000002,2588.96,-299.73599999999999,2698.8099999999999,184.315,-115.3,331.86200000000002
8083.0,2972.3899999999999,2507.54,-304.35399999999998,2680.96,211.81100000000001,-117.952,279.471
8084.0,2922.4499999999998,2419.9699999999998,-315.09199999999998,2655.3600000000001,236.21000000000001,-115.172,226.399
8085.0,2872.21,2343.54,-314.29300000000001,2635.9099999999999,256.86200000000002,-106.90600000000001,173.95400000000001
8086.0,2826.2199999999998,2259.9499999999998,-324.17200000000003,2605.4000000000001,275.23899999999998,-95.268299999999996,120.117
8087.0,2615.5599999999999,2177.25,188.89599999999999,2002.95,-766.16700000000003,337.81999999999999,605.63900000000001
8088.0,2640.3600000000001,2242.9000000000001,173.309,2020.04,-730.95399999999995,322.11200000000002,628.678
8089.0,2666.1399999999999,2301.6900000000001,149.98699999999999,2026.23,-697.92399999999998,304.94999999999999,646.79600000000005
8090.0,2685.8600000000001,2358.23,126.613,2027.05,-661.024,283.33600000000001,661.15599999999995
8091.0,2701.9899999999998,2412.5999999999999,104.008,2024.1900000000001,-623.36000000000001,257.13499999999999,671.53800000000001
8092.0,2712.0100000000002,2456.6900000000001,77.296199999999999,2012.46,-583.51300000000003,225.34899999999999,678.06799999999998
8093.0,2715.1399999999999,2496.5999999999999,55.405700000000003,2001.21,-542.06200000000001,187.91999999999999,680.44799999999998
8094.0,2711.02,2518.6100000000001,26.195499999999999,1979.0599999999999,-498.57999999999998,145.107,678.78599999999994
8095.0,2695.9400000000001,2533.4400000000001,6.8654000000000002,1961.8499999999999,-453.44600000000003,97.866600000000005,672.40099999999995
8096.0,2673.21,2522.4400000000001,-24.977499999999999,1930.4100000000001,-405.87299999999999,46.816099999999999,661.71799999999996
8097.0,2634.2199999999998,2503.4699999999998,-36.558,1911.2,-359.31599999999997,-4.9569200000000002,646.40999999999997
8098.0,2588.21,2435.04,-87.980800000000002,1855.0899999999999,-303.524,-59.431899999999999,625.327
8099.0,2549.6999999999998,2319.6999999999998,-180.65299999999999,1761.51,-257.55000000000001,-113.828,604.27099999999996
8100.0,2492.3400000000001,2225.9499999999998,-217.78399999999999,1713.25,-217.51599999999999,-162.63200000000001,579.84500000000003
8101.0,2432.6199999999999,2160.0799999999999,-219.834,1707.9300000000001,-170.774,-210.41399999999999,549.23900000000003
8102.0,2381.3499999999999,2068.29,-244.761,1686.6800000000001,-129.744,-254.36500000000001,520.60400000000004
8103.0,2330.2800000000002,1985.0699999999999,-253.24000000000001,1685.9200000000001,-89.4011,-292.928,489.51600000000002
8104.0,2283.9099999999999,1889.45,-270.42500000000001,1682.0,-52.200000000000003,-326.51600000000002,457.59500000000003
8105.0,2238.71,1799.22,-277.02199999999999,1691.0799999999999,-17.0106,-353.173,423.80599999999998
8106.0,2196.0500000000002,1697.5999999999999,-291.39100000000002,1694.9100000000001,15.637600000000001,-372.93099999999998,388.98599999999999
8107.0,2154.0100000000002,1602.6800000000001,-295.30500000000001,1709.1600000000001,45.6858,-384.98099999999999,352.64699999999999
8108.0,2113.3000000000002,1497.04,-307.71199999999999,1714.4100000000001,73.079599999999999,-389.39800000000002,315.39499999999998
8109.0,2072.8000000000002,1401.26,-308.35399999999998,1729.01,97.478300000000004,-386.00900000000001,277.166
8110.0,2033.3499999999999,1296.23,-318.12099999999998,1731.78,118.964,-375.322,238.38499999999999
8111.0,1993.8,1203.75,-315.51400000000001,1742.29,137.184,-357.40899999999999,199.30000000000001
8112.0,1955.74,1103.45,-323.041,1738.9100000000001,152.535,-333.25,160.00399999999999
8113.0,1917.0699999999999,1018.38,-316.959,1742.4400000000001,164.274,-303.048,121.697
8114.0,1881.99,924.59000000000003,-324.23399999999998,1730.53,173.541,-268.036,82.516999999999996
8115.0,1804.6900000000001,1583.72,80.2697,912.16499999999996,-540.18600000000004,370.21300000000002,299.24099999999999
8116.0,1825.6600000000001,1636.71,62.396299999999997,904.26999999999998,-526.85900000000004,326.39699999999999,326.00900000000001
8117.0,1848.8699999999999,1699.0999999999999,56.6098,910.79899999999998,-513.31500000000005,280.62099999999998,349.84500000000003
8118.0,1867.99,1738.8399999999999,33.726900000000001,900.745,-495.36200000000002,230.45699999999999,371.096
8119.0,1884.79,1787.8900000000001,26.5977,907.57600000000002,-475.28199999999998,176.68199999999999,389.22899999999998
8120.0,1897.47,1809.1800000000001,0.146258,895.78599999999994,-452.15300000000002,118.999,404.17200000000003
8121.0,1904.8399999999999,1838.3399999999999,-7.32118,903.41300000000001,-426.47399999999999,57.971400000000003,415.41399999999999
8122.0,1907.04,1835.0999999999999,-35.632300000000001,891.05600000000004,-398.00200000000001,-5.8883000000000001,422.94900000000001
8123.0,1899.4100000000001,1836.6700000000001,-40.999200000000002,900.19000000000005,-367.18799999999999,-71.062100000000001,425.78399999999999
8124.0,1885.8599999999999,1799.24,-72.1327,884.91800000000001,-333.12299999999999,-137.15199999999999,424.32100000000003
8125.0,1855.8499999999999,1767.3699999999999,-69.088999999999999,897.28099999999995,-299.86099999999999,-199.61199999999999,417.58699999999999
8126.0,1819.22,1671.6900000000001,-120.11,861.15300000000002,-256.75,-262.75999999999999,403.91899999999998
8127.0,1792.4400000000001,1540.03,-201.57300000000001,798.15800000000002,-223.947,-322.79399999999998,390.85399999999998
8128.0,1746.22,1424.4300000000001,-234.06100000000001,771.96900000000005,-195.11500000000001,-372.577,376.13299999999998
8129.0,1700.5699999999999,1341.21,-231.08600000000001,790.83299999999997,-158.35400000000001,-418.83999999999997,356.25599999999997
8130.0,1664.49,1233.74,-251.20099999999999,793.84500000000003,-129.077,-459.46800000000002,337.56900000000002
8131.0,1629.0699999999999,1147.77,-244.61699999999999,828.08500000000004,-99.880700000000004,-492.78300000000002,316.03399999999999
8132.0,1599.9200000000001,1037.1400000000001,-262.62099999999998,843.26900000000001,-73.316900000000004,-518.89200000000005,294.88900000000001
8133.0,1572.1400000000001,946.57899999999995,-257.255,884.23500000000001,-48.398200000000003,-536.75,272.18099999999998
8134.0,1547.1800000000001,836.04200000000003,-271.09300000000002,907.70500000000004,-25.637699999999999,-546.49900000000002,248.726
8135.0,1522.76,743.48099999999999,-265.34800000000001,950.03700000000003,-4.9772499999999997,-547.47199999999998,224.17599999999999
8136.0,1499.6800000000001,634.95399999999995,-275.65300000000002,974.94200000000001,13.3248,-540.19100000000003,198.92099999999999
8137.0,1476.8699999999999,544.03499999999997,-268.93299999999999,1013.61,29.1538,-524.61400000000003,172.99000000000001
8138.0,1455.02,439.834,-277.488,1033.4000000000001,42.535699999999999,-501.44999999999999,146.791
8139.0,1433.2,355.101,-268.99000000000001,1064.8800000000001,53.195700000000002,-471.08499999999998,120.496
8140.0,1412.45,258.37099999999998,-276.327,1075.6199999999999,61.3673,-434.46899999999999,94.226500000000001
8141.0,1391.3199999999999,184.40700000000001,-264.73700000000002,1098.1600000000001,66.520499999999998,-392.09800000000001,68.811099999999996
8142.0,1372.6900000000001,98.508399999999995,-271.387,1098.51,69.654799999999994,-345.14299999999997,43.3797
8143.0,1337.25,1050.9100000000001,-66.228099999999998,162.001,-354.75599999999997,344.78800000000001,54.526299999999999
8144.0,1350.53,1112.24,-60.566899999999997,157.70599999999999,-357.04599999999999,291.62200000000001,80.016900000000007
8145.0,1366.04,1155.4100000000001,-69.0899,144.67500000000001,-357.90499999999997,235.083,104.322
8146.0,1380.1800000000001,1201.6300000000001,-68.3827,145.05000000000001,-354.86900000000003,174.232,127.3
8147.0,1393.5899999999999,1230.27,-77.870500000000007,139.708,-349.19400000000002,109.919,148.423
8148.0,1405.23,1257.77,-79.719800000000006,146.364,-340.37799999999999,42.375100000000003,167.44399999999999
8149.0,1414.1500000000001,1266.4400000000001,-89.560599999999994,149.11699999999999,-328.709,-27.493099999999998,183.77799999999999
8150.0,1420.1099999999999,1269.2,-93.758099999999999,161.578,-314.03800000000001,-98.952799999999996,197.17500000000001
8151.0,1419.8900000000001,1251.3099999999999,-102.542,171.566,-296.69600000000003,-170.238,206.64599999999999
8152.0,1414.9400000000001,1221.46,-109.34099999999999,186.66200000000001,-275.96199999999999,-240.751,212.10900000000001
8153.0,1399.26,1171.23,-113.749,201.041,-255.02600000000001,-306.25,212.66900000000001
8154.0,1374.55,1096.76,-126.536,209.62100000000001,-226.887,-368.95100000000002,206.83799999999999
8155.0,1357.6900000000001,956.00599999999997,-200.98599999999999,162.5,-201.75700000000001,-428.28899999999999,200.59100000000001
8156.0,1333.3599999999999,830.43600000000004,-238.625,144.881,-184.12,-477.22899999999998,194.01300000000001
8157.0,1303.3399999999999,737.33500000000004,-235.47200000000001,172.40100000000001,-162.262,-518.06200000000001,181.28999999999999
8158.0,1281.98,642.82799999999997,-236.94800000000001,203.971,-141.74000000000001,-552.70699999999999,169.56
8159.0,1264.0899999999999,542.04499999999996,-242.43600000000001,235.89599999999999,-123.12,-579.65499999999997,158.626
8160.0,1249.55,452.065,-237.56899999999999,283.25799999999998,-106.039,-598.779,146.453
8161.0,1237.1300000000001,354.26999999999998,-240.69,325.40199999999999,-90.359399999999994,-609.51800000000003,133.95699999999999
8162.0,1225.72,264.416,-236.42099999999999,376.13099999999997,-76.147099999999995,-611.52499999999998,120.87
8163.0,1215.04,169.74600000000001,-237.86699999999999,421.03899999999999,-63.628500000000003,-604.99000000000001,107.084
8164.0,1204.8,81.9054,-234.35599999999999,469.00400000000002,-52.732799999999997,-590.20100000000002,92.920199999999994
8165.0,1194.8199999999999,-7.0385900000000001,-234.28399999999999,510.483,-43.770299999999999,-567.56100000000004,78.311499999999995
8166.0,1185.3,-87.933199999999999,-229.65799999999999,552.50199999999995,-36.748100000000001,-537.827,63.491900000000001
8167.0,1175.9400000000001,-168.37899999999999,-228.69,585.774,-31.795400000000001,-501.61000000000001,48.637300000000003
8168.0,1166.9100000000001,-239.37700000000001,-223.351,617.92999999999995,-28.6798,-459.80900000000003,33.941200000000002
8169.0,1157.76,-309.76999999999998,-222.834,638.79700000000003,-27.5518,-413.14800000000002,19.894300000000001
8170.0,1149.6199999999999,-369.48399999999998,-218.08799999999999,658.86800000000005,-28.1419,-362.57799999999997,6.3917700000000002
8171.0,1109.27,737.60500000000002,-91.872399999999999,-197.92699999999999,-217.768,295.11900000000003,-114.98399999999999
8172.0,1116.21,768.25199999999995,-101.72799999999999,-230.648,-229.73099999999999,241.839,-93.987399999999994
8173.0,1125.0899999999999,818.13800000000003,-88.547700000000006,-234.04400000000001,-239.69999999999999,184.73500000000001,-72.804400000000001
8174.0,1134.1600000000001,837.36599999999999,-100.236,-256.35700000000003,-246.821,123.41800000000001,-51.689799999999998
8175.0,1143.4200000000001,872.69299999999998,-88.866900000000001,-249.24000000000001,-251.39699999999999,58.747900000000001,-31.194299999999998
8176.0,1152.4400000000001,875.09000000000003,-102.352,-260.61599999999999,-253.209,-8.7379499999999997,-11.6082
8177.0,1160.71,891.44799999999998,-92.428799999999995,-242.24299999999999,-252.31100000000001,-78.079499999999996,6.4947499999999998
8178.0,1167.6800000000001,873.13199999999995,-106.438,-241.822,-248.61099999999999,-148.33199999999999,22.6889
8179.0,1172.0999999999999,865.29200000000003,-97.170900000000003,-213.12299999999999,-242.208,-217.97,36.143300000000004
8180.0,1173.1900000000001,820.18600000000004,-111.291,-203.71100000000001,-232.881,-285.75999999999999,46.296399999999998
8181.0,1169.5699999999999,783.09900000000005,-101.157,-168.74199999999999,-221.86600000000001,-349.14800000000002,52.530500000000004
8182.0,1158.6800000000001,705.57600000000002,-114.194,-156.40299999999999,-207.578,-406.72800000000001,53.474200000000003
8183.0,1148.1600000000001,604.85199999999998,-144.35499999999999,-154.00700000000001,-191.08000000000001,-459.15800000000002,50.424399999999999
8184.0,1139.6800000000001,452.36000000000001,-215.32300000000001,-194.24799999999999,-179.696,-504.161,49.278700000000001
8185.0,1127.4400000000001,355.13,-217.49299999999999,-171.577,-168.38200000000001,-540.25699999999995,47.2896
8186.0,1116.25,261.04899999999998,-219.012,-140.369,-156.5,-568.21000000000004,41.0426
8187.0,1108.73,186.46600000000001,-203.917,-83.784700000000001,-146.58600000000001,-589.12300000000005,35.0961
8188.0,1103.0799999999999,89.058499999999995,-213.31,-49.237299999999998,-136.982,-602.48199999999997,30.528099999999998
8189.0,1096.8,17.8919,-198.09299999999999,12.8141,-128.60900000000001,-607.13199999999995,25.512599999999999
8190.0,1090.97,-74.5535,-205.50299999999999,54.243499999999997,-120.821,-604.03800000000001,20.326499999999999
8191.0,1085.0799999999999,-142.434,-190.77099999999999,116.712,-114.33499999999999,-593.14400000000001,15.2197
8192.0,1078.6199999999999,-227.46799999999999,-196.208,157.983,-108.94799999999999,-574.46900000000005,9.5729600000000001
8193.0,1072.1900000000001,-288.81099999999998,-182.21199999999999,216.49000000000001,-104.83499999999999,-548.85799999999995,4.0026999999999999
8194.0,1065.6500000000001,-365.95800000000003,-188.518,251.28999999999999,-101.84699999999999,-516.89300000000003,-1.6385000000000001
8195.0,1059.3299999999999,-417.822,-174.84899999999999,301.88799999999998,-100.172,-479.50599999999997,-7.19984
8196.0,1053.0999999999999,-484.48500000000001,-181.37200000000001,327.12700000000001,-99.886200000000002,-437.423,-12.716799999999999
8197.0,1047.05,-523.44299999999998,-166.28100000000001,368.42000000000002,-101.035,-391.69099999999997,-18.136800000000001
8198.0,1040.76,-576.23099999999999,-171.48400000000001,383.62099999999998,-103.434,-342.971,-22.8309
8199.0,984.0,487.38499999999999,-147.56899999999999,-388.02199999999999,-129.029,239.87299999999999,-209.78800000000001
8200.0,989.73299999999995,530.68600000000004,-131.92699999999999,-403.21100000000001,-145.178,191.74000000000001,-194.62899999999999
8201.0,996.11300000000006,549.55499999999995,-137.202,-433.00099999999998,-159.44800000000001,139.48699999999999,-178.25700000000001
8202.0,1003.03,583.01300000000003,-122.996,-436.91800000000001,-171.91900000000001,83.427099999999996,-161.13999999999999
8203.0,1010.09,589.73199999999997,-129.47399999999999,-454.74000000000001,-182.28800000000001,24.120699999999999,-143.59999999999999
8204.0,1017.2,609.654,-115.86,-445.31200000000001,-190.50800000000001,-37.7044,-125.996
8205.0,1024.1300000000001,601.00599999999997,-122.976,-449.31799999999998,-196.43199999999999,-101.16800000000001,-108.714
8206.0,1030.4000000000001,603.11199999999997,-110.178,-426.32900000000001,-200.01300000000001,-165.23099999999999,-92.319999999999993
8207.0,1035.76,574.95699999999999,-117.72799999999999,-416.98099999999999,-201.12299999999999,-228.65199999999999,-77.352800000000002
8208.0,1039.0799999999999,554.89999999999998,-105.07599999999999,-382.137,-199.92500000000001,-289.86099999999999,-64.660200000000003
8209.0,1040.3399999999999,502.09300000000002,-113.63800000000001,-364.041,-196.15000000000001,-347.29700000000003,-54.860799999999998
8210.0,1038.21,456.61700000000002,-100.267,-323.34699999999998,-191.45500000000001,-398.59500000000003,-48.844999999999999
8211.0,1033.96,374.45800000000003,-113.50700000000001,-306.779,-183.209,-444.14400000000001,-47.686
8212.0,1031.49,272.69,-145.55699999999999,-302.21899999999999,-176.601,-482.608,-47.222200000000001
8213.0,1024.53,143.02199999999999,-194.691,-316.42000000000002,-173.5,-510.94499999999999,-45.383000000000003
8214.0,1019.27,61.794199999999996,-192.251,-280.58600000000001,-165.98400000000001,-533.99800000000005,-44.783299999999997
8215.0,1017.13,-24.781199999999998,-197.851,-251.71799999999999,-161.61600000000001,-550.23699999999997,-43.742899999999999
8216.0,1012.4299999999999,-87.909700000000001,-180.13499999999999,-194.40899999999999,-157.315,-558.14300000000003,-45.342399999999998
8217.0,1010.25,-168.87100000000001,-184.81,-155.35400000000001,-153.024,-560.75400000000002,-46.0488
8218.0,1005.54,-227.53800000000001,-168.96299999999999,-97.633499999999998,-150.95699999999999,-554.91200000000003,-45.733499999999999
8219.0,998.36199999999997,-301.923,-172.41999999999999,-57.173299999999998,-147.88,-541.50300000000004,-46.433599999999998
8220.0,991.13599999999997,-355.70299999999997,-159.17500000000001,-0.36277900000000002,-145.90000000000001,-521.92399999999998,-45.529499999999999
8221.0,983.37699999999995,-421.48399999999998,-162.31100000000001,38.244100000000003,-144.43199999999999,-496.30700000000002,-45.156700000000001
8222.0,975.64300000000003,-464.399,-148.22499999999999,92.323800000000006,-144.011,-465.428,-44.3752
8223.0,968.01199999999994,-519.548,-152.30199999999999,125.355,-144.21299999999999,-430.10500000000002,-43.787799999999997
8224.0,960.27700000000004,-550.79399999999998,-138.727,172.07599999999999,-145.00299999999999,-391.17899999999997,-42.895800000000001
8225.0,952.25300000000004,-597.13999999999999,-146.71700000000001,193.03999999999999,-145.947,-349.38999999999999,-42.090000000000003
8226.0,943.76599999999996,-617.64800000000002,-134.88800000000001,228.358,-147.84299999999999,-305.40499999999997,-40.572000000000003
8227.0,878.37900000000002,378.48399999999998,-127.938,-391.387,-76.206699999999998,189.553,-249.69999999999999
8228.0,884.995,393.13499999999999,-131.27099999999999,-427.98200000000003,-93.212299999999999,148.18100000000001,-239.88999999999999
8229.0,891.73099999999999,420.84800000000001,-118.68899999999999,-443.18400000000003,-108.651,102.866,-228.43600000000001
8230.0,898.62599999999998,429.23000000000002,-121.31999999999999,-467.59699999999998,-123.149,54.239800000000002,-215.67699999999999
8231.0,905.29999999999995,446.96600000000001,-109.634,-471.19400000000002,-136.06899999999999,2.6766800000000002,-201.84899999999999
8232.0,911.71699999999998,444.42099999999999,-112.568,-482.43099999999998,-147.44200000000001,-51.0871,-187.203
8233.0,917.73900000000003,449.185,-101.89,-472.745,-157.00200000000001,-106.29000000000001,-172.06399999999999
8234.0,923.03599999999994,433.36700000000002,-104.361,-468.94099999999997,-164.69,-161.934,-156.88999999999999
8235.0,927.65300000000002,422.27199999999999,-94.549800000000005,-445.54300000000001,-170.303,-216.99100000000001,-142.096
8236.0,930.68799999999999,390.13600000000002,-96.146299999999997,-427.46600000000001,-173.988,-269.87700000000001,-128.46000000000001
8237.0,932.77300000000002,360.26900000000001,-87.355000000000004,-393.07299999999998,-175.22,-319.65199999999999,-116.545
8238.0,932.41600000000005,310.90499999999997,-86.341899999999995,-364.40199999999999,-175.78399999999999,-363.733,-106.792
8239.0,929.88599999999997,260.09800000000001,-79.526700000000005,-326.30700000000002,-172.21000000000001,-402.27300000000002,-100.318
8240.0,930.16999999999996,179.00399999999999,-100.83799999999999,-313.62299999999999,-171.47800000000001,-434.41699999999997,-96.113900000000001
8241.0,926.94100000000003,124.643,-85.015600000000006,-265.33699999999999,-172.018,-457.911,-95.083600000000004
8242.0,923.37400000000002,22.478400000000001,-123.0,-261.19099999999997,-167.29599999999999,-476.78800000000001,-93.647099999999995
8243.0,919.38900000000001,-62.852200000000003,-142.89699999999999,-245.381,-168.62299999999999,-487.18099999999998,-87.226200000000006
8244.0,912.88099999999997,-123.736,-131.351,-202.041,-165.42400000000001,-491.11700000000002,-85.778099999999995
8245.0,909.89099999999996,-204.232,-147.83699999999999,-179.208,-161.51599999999999,-492.08300000000003,-83.2761
8246.0,904.86599999999999,-281.625,-159.89400000000001,-158.018,-162.16800000000001,-485.24400000000003,-78.427300000000002
8247.0,898.64999999999998,-325.06599999999997,-140.017,-103.884,-161.733,-472.20299999999997,-77.322299999999998
8248.0,891.26400000000001,-382.56599999999997,-141.44399999999999,-69.376900000000006,-162.55500000000001,-453.75200000000001,-74.600800000000007
8249.0,881.47900000000004,-422.09899999999999,-129.548,-21.859400000000001,-162.73699999999999,-429.572,-71.347399999999993
8250.0,871.82000000000005,-470.73399999999998,-132.697,10.513199999999999,-163.14099999999999,-401.51999999999998,-66.791399999999996
8251.0,862.12900000000002,-500.16199999999998,-122.64100000000001,54.584400000000002,-163.49700000000001,-369.97800000000001,-62.142200000000003
8252.0,852.67899999999997,-535.66499999999996,-125.55500000000001,84.037700000000001,-164.291,-335.71199999999999,-57.4557
8253.0,843.34799999999996,-550.82299999999998,-114.83199999999999,124.39700000000001,-165.50399999999999,-299.37400000000002,-53.436599999999999
8254.0,833.51400000000001,-571.71699999999998,-115.06999999999999,148.66399999999999,-167.10900000000001,-261.54300000000001,-49.125700000000002
8255.0,766.17899999999997,290.22000000000003,-133.29900000000001,-360.24799999999999,-49.565100000000001,149.179,-248.935
8256.0,774.27099999999996,311.27199999999999,-123.935,-383.14600000000002,-65.229399999999998,114.574,-243.54499999999999
8257.0,782.03200000000004,321.51299999999998,-123.04000000000001,-409.91000000000003,-79.757099999999994,76.424499999999995,-236.303
8258.0,789.70699999999999,336.83499999999998,-113.651,-423.03800000000001,-93.946899999999999,35.547400000000003,-227.55000000000001
8259.0,796.80899999999997,339.25999999999999,-113.09999999999999,-439.274,-107.02500000000001,-7.9175199999999997,-217.399
8260.0,803.34699999999998,346.423,-103.29000000000001,-439.98200000000003,-119.062,-53.242400000000004,-206.00800000000001
8261.0,809.09100000000001,339.34100000000001,-102.61499999999999,-443.12799999999999,-129.74600000000001,-99.823800000000006,-193.619
8262.0,813.88199999999995,335.541,-92.947900000000004,-430.39999999999998,-138.97200000000001,-146.745,-180.54599999999999
8263.0,817.63099999999997,316.78399999999999,-92.254900000000006,-419.61200000000002,-146.572,-193.148,-167.107
8264.0,819.96500000000003,300.36700000000002,-82.346500000000006,-393.19200000000001,-152.47399999999999,-237.69399999999999,-153.887
8265.0,821.02200000000005,267.601,-82.418599999999998,-370.428,-156.53,-279.548,-141.256
8266.0,819.93899999999996,237.75399999999999,-71.968800000000002,-333.03100000000001,-159.215,-316.57499999999999,-129.94
8267.0,818.17700000000002,190.86799999999999,-74.312299999999993,-303.68400000000003,-159.80799999999999,-348.858,-121.018
8268.0,815.82100000000003,150.65199999999999,-64.294200000000004,-261.68400000000003,-160.75299999999999,-375.28199999999998,-112.453
8269.0,811.726,103.545,-55.680599999999998,-223.16300000000001,-159.69999999999999,-395.26999999999998,-105.831
8270.0,809.70000000000005,55.619500000000002,-51.207999999999998,-182.244,-158.923,-410.53399999999999,-102.714
8271.0,806.38199999999995,-11.601800000000001,-65.100899999999996,-158.697,-160.58199999999999,-419.11000000000001,-98.832099999999997
8272.0,799.54899999999998,-72.603700000000003,-71.587900000000005,-130.77600000000001,-159.91499999999999,-421.11099999999999,-95.063999999999993
8273.0,792.37800000000004,-144.48500000000001,-91.123599999999996,-115.461,-159.40100000000001,-417.774,-92.898200000000003
8274.0,785.70799999999997,-222.911,-117.438,-108.84699999999999,-158.709,-410.54899999999998,-89.473600000000005
8275.0,778.03399999999999,-294.14999999999998,-134.75899999999999,-100.586,-159.09200000000001,-398.464,-83.797499999999999
8276.0,770.35000000000002,-336.245,-124.873,-66.726799999999997,-159.68000000000001,-381.66199999999998,-80.826400000000007
8277.0,763.31299999999999,-380.15899999999999,-124.154,-38.667299999999997,-161.24700000000001,-361.447,-77.422200000000004
8278.0,754.36199999999997,-408.065,-114.184,-1.4878400000000001,-163.52699999999999,-337.09699999999998,-72.459100000000007
8279.0,744.40200000000004,-437.43900000000002,-113.679,28.415299999999998,-164.46299999999999,-310.053,-67.268100000000004
8280.0,733.84400000000005,-452.39100000000002,-105.453,65.837999999999994,-164.53200000000001,-281.13799999999998,-60.7301
8281.0,722.55999999999995,-474.666,-111.389,88.629300000000001,-162.42699999999999,-251.17400000000001,-54.894399999999997
8282.0,709.67999999999995,-481.36500000000001,-106.639,117.529,-160.816,-219.53399999999999,-47.619399999999999
8283.0,654.50800000000004,266.08300000000003,-101.845,-273.37799999999999,-38.466900000000003,118.858,-226.31399999999999
8284.0,663.17200000000003,273.91300000000001,-102.044,-302.57400000000001,-51.933100000000003,90.183199999999999,-223.875
8285.0,671.45600000000002,287.46199999999999,-94.616299999999995,-320.45100000000002,-64.620000000000005,58.473599999999998,-219.69399999999999
8286.0,679.49300000000005,291.44499999999999,-93.959599999999995,-340.786,-77.353399999999993,24.558299999999999,-213.97999999999999
8287.0,686.82600000000002,298.93799999999999,-86.481999999999999,-349.50900000000001,-89.305499999999995,-11.5327,-206.79900000000001
8288.0,693.44100000000003,296.21300000000002,-85.6387,-359.49200000000002,-100.58499999999999,-49.167099999999998,-198.22399999999999
8289.0,699.03499999999997,295.738,-78.375200000000007,-357.30599999999998,-110.84399999999999,-87.836799999999997,-188.44200000000001
8290.0,703.54899999999998,285.09100000000001,-76.946600000000004,-354.83199999999999,-119.995,-126.816,-177.614
8291.0,706.72199999999998,275.60700000000003,-69.564800000000005,-340.17599999999999,-127.842,-165.286,-166.018
8292.0,708.52200000000005,255.702,-67.842500000000001,-324.95400000000001,-134.26400000000001,-202.34700000000001,-153.96600000000001
8293.0,708.60199999999998,237.12799999999999,-59.701000000000001,-297.54399999999998,-139.18199999999999,-236.899,-141.84899999999999
8294.0,707.31500000000005,207.90700000000001,-57.901400000000002,-271.47000000000003,-142.511,-267.99000000000001,-130.22499999999999
8295.0,704.66800000000001,181.40000000000001,-48.715699999999998,-234.43799999999999,-144.596,-295.03199999999998,-119.04900000000001
8296.0,700.02200000000005,145.75399999999999,-46.027999999999999,-200.15600000000001,-145.30500000000001,-316.69499999999999,-109.102
8297.0,694.88499999999999,109.036,-43.818199999999997,-163.41,-145.428,-333.21300000000002,-100.627
8298.0,689.59400000000005,72.512500000000003,-37.883699999999997,-125.544,-144.87,-345.089,-92.681799999999996
8299.0,684.44600000000003,41.076300000000003,-25.983799999999999,-81.649199999999993,-143.42699999999999,-352.38600000000002,-87.363399999999999
8300.0,680.55700000000002,-7.3240999999999996,-32.8825,-54.271599999999999,-143.756,-355.25299999999999,-83.445800000000006
8301.0,673.99400000000003,-41.898299999999999,-21.8277,-15.016400000000001,-144.911,-351.709,-80.800899999999999
8302.0,667.52999999999997,-103.899,-42.713799999999999,-4.1477599999999999,-143.648,-344.68400000000003,-80.993899999999996
8303.0,659.11199999999997,-171.881,-71.533799999999999,-6.2218900000000001,-146.39400000000001,-332.47000000000003,-76.672600000000003
8304.0,647.56100000000004,-227.999,-83.420000000000002,0.902478,-146.304,-315.31900000000002,-74.469899999999996
8305.0,640.10599999999999,-290.03399999999999,-106.90000000000001,-1.6616,-145.00999999999999,-298.767,-70.667599999999993
8306.0,631.48000000000002,-331.471,-114.301,7.5009300000000003,-146.536,-279.09500000000003,-63.813600000000001
8307.0,621.88199999999995,-348.23899999999998,-105.80500000000001,38.3322,-146.042,-256.791,-58.973399999999998
8308.0,610.82100000000003,-359.67099999999999,-102.051,67.981800000000007,-145.32300000000001,-232.73699999999999,-52.1678
8309.0,599.67399999999998,-364.20800000000003,-101.334,100.407,-142.45099999999999,-207.33099999999999,-48.097299999999997
8310.0,587.61400000000003,-355.678,-92.517399999999995,135.21299999999999,-142.036,-181.50399999999999,-40.382399999999997
8311.0,550.73000000000002,240.82599999999999,-87.655699999999996,-203.97300000000001,-36.143700000000003,97.602800000000002,-192.499
8312.0,559.09199999999998,251.50700000000001,-83.224100000000007,-224.369,-47.203499999999998,73.8048,-191.78700000000001
8313.0,567.11199999999997,257.88,-81.523799999999994,-244.51900000000001,-57.743400000000001,47.438299999999998,-189.542
8314.0,575.00300000000004,265.22899999999998,-76.622100000000003,-257.971,-68.488799999999998,19.322399999999998,-185.91399999999999
8315.0,582.22400000000005,266.59399999999999,-74.978700000000003,-270.75599999999997,-78.686800000000005,-10.5997,-180.92400000000001
8316.0,588.74599999999998,269.03699999999998,-69.328999999999994,-275.12900000000002,-88.426199999999994,-41.778500000000001,-174.59200000000001
8317.0,594.26099999999997,264.61700000000002,-67.171899999999994,-278.19400000000002,-97.385400000000004,-73.818799999999996,-167.05099999999999
8318.0,598.66700000000003,260.24599999999998,-61.496000000000002,-272.58600000000001,-105.48999999999999,-106.11,-158.37299999999999
8319.0,601.76300000000003,249.102,-58.900100000000002,-264.70800000000003,-112.535,-137.99299999999999,-148.75899999999999
8320.0,603.42200000000003,237.59999999999999,-53.018700000000003,-248.095,-118.41500000000001,-168.72399999999999,-138.37200000000001
8321.0,603.54300000000001,219.15899999999999,-50.491399999999999,-229.63200000000001,-122.99299999999999,-197.46000000000001,-127.544
8322.0,602.13099999999997,200.953,-44.499000000000002,-202.749,-126.271,-223.53299999999999,-116.47
8323.0,598.81500000000005,176.63999999999999,-41.948700000000002,-174.79300000000001,-128.16800000000001,-245.88999999999999,-105.587
8324.0,594.66600000000005,153.12,-36.658499999999997,-141.339,-128.83199999999999,-264.43000000000001,-95.262200000000007
8325.0,589.76199999999994,129.345,-29.3355,-104.13800000000001,-128.52500000000001,-279.036,-85.703599999999994
8326.0,583.67399999999998,101.041,-26.7393,-68.508600000000001,-127.426,-289.06700000000001,-77.189300000000003
8327.0,576.99400000000003,70.685699999999997,-25.114599999999999,-34.777299999999997,-125.94199999999999,-294.67599999999999,-69.853499999999997
8328.0,570.91700000000003,45.618899999999996,-16.5928,4.1744500000000002,-123.71599999999999,-297.084,-63.883400000000002
8329.0,563.83900000000006,14.7277,-12.1296,35.810099999999998,-122.232,-294.84300000000002,-59.340800000000002
8330.0,557.22699999999998,-16.5061,-8.3595500000000005,65.942400000000006,-120.672,-289.00200000000001,-57.905099999999997
8331.0,550.86699999999996,-52.048499999999997,-9.7233699999999992,86.902900000000002,-122.32899999999999,-279.12099999999998,-56.622100000000003
8332.0,540.62099999999998,-91.921499999999995,-15.3119,100.334,-123.08199999999999,-263.89100000000002,-57.169600000000003
8333.0,530.16899999999998,-163.352,-59.551499999999997,77.932599999999994,-122.248,-246.81999999999999,-56.386600000000001
8334.0,519.76199999999994,-223.876,-97.4298,58.220500000000001,-122.248,-229.249,-50.843699999999998
8335.0,508.858,-244.34200000000001,-100.43300000000001,73.022199999999998,-121.718,-210.27600000000001,-45.034799999999997
8336.0,498.91800000000001,-234.91800000000001,-80.029200000000003,114.592,-119.96599999999999,-190.34100000000001,-40.994399999999999
8337.0,493.40699999999998,-229.12,-68.920900000000003,153.76400000000001,-115.973,-171.21600000000001,-37.552599999999998
8338.0,486.05500000000001,-197.47,-32.722000000000001,209.16300000000001,-114.123,-151.57599999999999,-30.2881
8339.0,463.07900000000001,238.887,-58.780200000000001,-130.56800000000001,-37.342199999999998,82.961200000000005,-157.56800000000001
8340.0,470.41699999999997,243.80799999999999,-59.435099999999998,-151.69999999999999,-46.237499999999997,62.904899999999998,-157.648
8341.0,477.661,251.82400000000001,-55.75,-166.167,-54.832999999999998,40.775700000000001,-156.41499999999999
8342.0,484.87200000000001,254.99799999999999,-55.063099999999999,-180.80500000000001,-63.611400000000003,17.251799999999999,-153.982
8343.0,491.60000000000002,259.286,-51.053899999999999,-188.934,-72.000699999999995,-7.7489299999999997,-150.36099999999999
8344.0,497.73099999999999,257.93400000000003,-50.227800000000002,-196.65199999999999,-80.014200000000002,-33.781199999999998,-145.57900000000001
8345.0,503.01799999999997,256.81999999999999,-46.402200000000001,-197.44900000000001,-87.409700000000001,-60.5291,-139.708
8346.0,507.33100000000002,250.512,-44.908700000000003,-196.357,-94.094800000000006,-87.485299999999995,-132.80500000000001
8347.0,510.50099999999998,243.70599999999999,-40.9788,-188.37799999999999,-99.912999999999997,-114.134,-124.96599999999999
8348.0,512.40899999999999,232.06700000000001,-38.996099999999998,-177.81,-104.749,-139.85499999999999,-116.327
8349.0,512.96100000000001,220.37299999999999,-34.353900000000003,-160.04900000000001,-108.488,-164.05199999999999,-107.048
8350.0,512.03499999999997,204.036,-31.894500000000001,-140.196,-111.029,-186.02699999999999,-97.358000000000004
8351.0,509.93599999999998,188.041,-27.012599999999999,-114.294,-112.371,-205.364,-87.547499999999999
8352.0,506.447,168.75999999999999,-23.855499999999999,-86.462500000000006,-112.56999999999999,-221.553,-77.753200000000007
8353.0,501.69600000000003,147.33699999999999,-22.070499999999999,-57.189399999999999,-111.629,-234.10599999999999,-68.353399999999993
8354.0,496.67899999999997,127.453,-17.4377,-24.203700000000001,-109.83199999999999,-243.42599999999999,-59.759099999999997
8355.0,491.07999999999998,107.75,-11.782500000000001,11.1251,-107.41,-249.21799999999999,-52.106400000000001
8356.0,484.28399999999999,82.519300000000001,-11.584099999999999,41.519599999999997,-104.634,-250.84700000000001,-45.588200000000001
8357.0,477.255,60.4026,-7.8808600000000002,73.759399999999999,-101.70999999999999,-248.99799999999999,-40.760199999999998
8358.0,469.66500000000002,34.4876,-6.2636799999999999,100.733,-98.991799999999998,-243.80500000000001,-37.0413
8359.0,460.803,12.9993,1.09362,128.28,-96.4572,-235.221,-34.817799999999998
8360.0,452.02699999999999,-13.148300000000001,2.7265600000000001,146.696,-95.466099999999997,-223.69499999999999,-34.661299999999997
8361.0,442.83600000000001,-41.468600000000002,-1.6758900000000001,158.876,-95.6374,-208.941,-36.264699999999998
8362.0,435.60500000000002,-88.150899999999993,-32.552399999999999,148.464,-95.436999999999998,-193.797,-35.741599999999998
8363.0,426.983,-100.07299999999999,-31.408100000000001,165.126,-95.687799999999996,-178.172,-30.4148
8364.0,418.197,-89.185500000000005,-8.81968,204.25700000000001,-91.285300000000007,-161.69999999999999,-28.659400000000002
8365.0,413.35000000000002,-93.315100000000001,-7.85724,228.88800000000001,-84.391900000000007,-146.14500000000001,-24.729099999999999
8366.0,404.923,-83.654799999999994,7.1991100000000001,259.36799999999999,-78.393000000000001,-128.66200000000001,-19.244800000000001
8367.0,392.36500000000001,227.036,-44.801699999999997,-83.991299999999995,-39.543599999999998,72.991,-125.42100000000001
8368.0,398.49099999999999,234.91999999999999,-42.3446,-98.337199999999996,-46.606699999999996,55.802599999999998,-125.699
8369.0,404.74000000000001,239.99700000000001,-41.749899999999997,-112.56699999999999,-53.540599999999998,36.958300000000001,-124.857
8370.0,411.10300000000001,245.624,-39.113399999999999,-122.408,-60.606499999999997,16.962,-123.008
8371.0,417.17599999999999,247.351,-38.550600000000003,-131.69399999999999,-67.340999999999994,-4.2448199999999998,-120.18300000000001
8372.0,422.83699999999999,249.51499999999999,-35.458799999999997,-135.53399999999999,-73.733500000000006,-26.325399999999998,-116.416
8373.0,427.85399999999998,247.29900000000001,-34.409199999999998,-138.215,-79.587199999999996,-49.006,-111.764
8374.0,432.113,244.501,-31.530100000000001,-135.62,-84.831500000000005,-71.881500000000003,-106.25700000000001
8375.0,435.46600000000001,237.78999999999999,-30.1098,-130.85400000000001,-89.335899999999995,-94.519000000000005,-99.9619
8376.0,437.81099999999998,230.274,-27.137499999999999,-120.78100000000001,-93.008499999999998,-116.44199999999999,-92.944500000000005
8377.0,439.02999999999997,218.85900000000001,-25.840499999999999,-108.63500000000001,-95.736800000000002,-137.13800000000001,-85.318399999999997
8378.0,439.12299999999999,207.28100000000001,-22.7379,-91.068799999999996,-97.458500000000001,-156.148,-77.229200000000006
8379.0,437.96199999999999,192.74700000000001,-20.9602,-71.304299999999998,-98.102900000000005,-172.98099999999999,-68.816699999999997
8380.0,435.786,178.05699999999999,-17.965800000000002,-47.555999999999997,-97.668400000000005,-187.30099999999999,-60.405000000000001
8381.0,432.85500000000002,163.345,-13.7516,-20.233899999999998,-96.287099999999995,-199.018,-52.191899999999997
8382.0,428.79599999999999,146.03200000000001,-11.522399999999999,7.4793900000000004,-93.980900000000005,-207.608,-44.255499999999998
8383.0,424.017,127.247,-10.1989,35.309600000000003,-90.883499999999998,-213.06899999999999,-37.003399999999999
8384.0,418.86200000000002,111.123,-5.1908599999999998,66.739199999999997,-87.309200000000004,-215.565,-30.7453
8385.0,412.952,91.462599999999995,-3.0659999999999998,95.006600000000006,-83.465900000000005,-214.779,-25.5381
8386.0,405.83699999999999,73.380499999999998,0.679091,123.581,-79.675299999999993,-210.399,-21.6051
8387.0,397.64600000000002,51.088799999999999,-0.401951,145.136,-76.120199999999997,-202.71799999999999,-19.296199999999999
8388.0,388.68599999999998,32.354399999999998,2.1338200000000001,165.79900000000001,-73.029600000000002,-192.67500000000001,-17.821000000000002
8389.0,379.49299999999999,15.457100000000001,6.1965199999999996,183.46600000000001,-70.077699999999993,-181.18600000000001,-17.589500000000001
8390.0,372.68000000000001,-0.0257328,7.33901,199.756,-67.421000000000006,-169.15899999999999,-17.453700000000001
8391.0,365.959,-10.821300000000001,9.3758400000000002,216.34899999999999,-64.607900000000001,-156.315,-14.993399999999999
8392.0,359.387,-15.6495,13.8751,237.13999999999999,-59.441499999999998,-142.22200000000001,-13.7433
8393.0,355.38,-23.191700000000001,10.0611,252.804,-54.273400000000002,-127.654,-12.5138
8394.0,350.71699999999998,-28.068200000000001,8.1624499999999998,266.89400000000001,-50.053600000000003,-111.73999999999999,-11.544700000000001
8395.0,338.15699999999998,223.91,-25.1387,-42.886299999999999,-41.057000000000002,65.651799999999994,-99.334999999999994
8396.0,343.072,228.44999999999999,-26.031400000000001,-57.517699999999998,-46.767499999999998,50.665999999999997,-99.450100000000006
8397.0,348.346,235.15299999999999,-24.063500000000001,-67.612499999999997,-52.431100000000001,34.343899999999998,-98.625799999999998
8398.0,353.89499999999998,238.828,-23.9437,-77.578400000000002,-58.161299999999997,17.057300000000001,-96.956500000000005
8399.0,359.30900000000003,242.98099999999999,-21.802099999999999,-83.312600000000003,-63.575600000000001,-1.2602,-94.502799999999993
8400.0,364.47399999999999,243.13300000000001,-21.876999999999999,-88.8155,-68.644099999999995,-20.328099999999999,-91.314499999999995
8401.0,369.18599999999998,242.96700000000001,-20.244499999999999,-89.959900000000005,-73.212299999999999,-39.9253,-87.456199999999995
8402.0,373.35899999999998,239.417,-19.909400000000002,-89.568799999999996,-77.222899999999996,-59.7057,-82.956800000000001
8403.0,376.87099999999998,234.90899999999999,-18.422799999999999,-85.042699999999996,-80.581699999999998,-79.316800000000001,-77.858099999999993
8404.0,379.63,227.50200000000001,-17.800599999999999,-78.317700000000002,-83.213399999999993,-98.359999999999999,-72.203800000000001
8405.0,381.55099999999999,219.672,-15.6973,-67.032300000000006,-85.037199999999999,-116.444,-66.064400000000006
8406.0,382.53800000000001,209.048,-14.666,-53.793300000000002,-85.978499999999997,-133.16200000000001,-59.526600000000002
8407.0,382.625,197.91200000000001,-12.5992,-36.769500000000001,-86.007099999999994,-148.18299999999999,-52.753100000000003
8408.0,381.75099999999998,184.994,-11.0357,-17.559000000000001,-85.118700000000004,-161.196,-45.814500000000002
8409.0,379.858,170.25,-10.3224,3.12039,-83.285600000000002,-171.84100000000001,-38.878300000000003
8410.0,377.32100000000003,156.065,-8.0163899999999995,26.939900000000002,-80.662099999999995,-180.11099999999999,-32.268300000000004
8411.0,374.03500000000003,141.91200000000001,-4.8239599999999996,53.040999999999997,-77.371200000000002,-185.756,-26.062200000000001
8412.0,369.88099999999997,124.79000000000001,-4.2196899999999999,77.484099999999998,-73.482299999999995,-188.49000000000001,-20.407800000000002
8413.0,364.96699999999998,109.155,-1.6621999999999999,103.765,-69.212000000000003,-188.31700000000001,-15.581799999999999
8414.0,359.27499999999998,91.599800000000002,-0.61323899999999998,127.33799999999999,-64.772800000000004,-185.28899999999999,-11.825699999999999
8415.0,352.85199999999998,76.709000000000003,3.2928199999999999,151.80699999999999,-60.438800000000001,-179.584,-9.1555199999999992
8416.0,345.51400000000001,60.0852,4.2856899999999998,171.453,-56.326500000000003,-171.22900000000001,-7.5842400000000003
8417.0,337.99599999999998,44.502499999999998,4.0208300000000001,188.09100000000001,-52.366,-161.05000000000001,-6.68283
8418.0,330.76900000000001,32.298499999999997,5.3316800000000004,203.90600000000001,-48.255299999999998,-150.01300000000001,-5.9707999999999997
8419.0,325.21899999999999,22.333600000000001,5.7600600000000002,218.85599999999999,-44.036099999999998,-138.67400000000001,-5.9398900000000001
8420.0,321.51600000000002,12.1867,3.95709,232.02600000000001,-40.067,-126.818,-5.8183299999999996
8421.0,318.45400000000001,7.3315999999999999,7.63009,248.815,-35.989600000000003,-114.274,-6.0331999999999999
8422.0,316.26999999999998,0.94304399999999999,9.3322299999999991,262.35500000000002,-32.565300000000001,-100.831,-6.61036
8423.0,296.47000000000003,211.602,-16.9177,-21.329599999999999,-41.624600000000001,59.949800000000003,-78.878699999999995
8424.0,300.40499999999997,218.399,-15.5046,-31.322099999999999,-46.295400000000001,46.638800000000003,-78.797300000000007
8425.0,304.93200000000002,223.54599999999999,-15.287599999999999,-41.050600000000003,-51.033099999999997,32.276400000000002,-77.860799999999998
8426.0,309.822,228.958,-13.869300000000001,-47.8444,-55.756799999999998,17.0672,-76.200599999999994
8427.0,314.726,231.577,-13.954499999999999,-54.229599999999998,-60.183,0.96459399999999995,-73.907200000000003
8428.0,319.49799999999999,234.27199999999999,-12.396000000000001,-56.881700000000002,-64.238600000000005,-15.8179,-71.066400000000002
8429.0,323.97899999999998,233.74299999999999,-12.290800000000001,-58.730800000000002,-67.817099999999996,-33.078000000000003,-67.743600000000001
8430.0,328.09300000000002,232.255,-11.304399999999999,-57.302599999999998,-70.870099999999994,-50.5229,-63.976399999999998
8431.0,331.74900000000002,228.083,-11.1492,-54.2102,-73.331800000000001,-67.845200000000006,-59.799999999999997
8432.0,334.86799999999999,222.792,-10.328099999999999,-47.892499999999998,-75.145600000000002,-84.7119,-55.241199999999999
8433.0,337.34699999999998,214.733,-10.582800000000001,-40.087800000000001,-76.245500000000007,-100.788,-50.342799999999997
8434.0,339.11700000000002,206.148,-9.7864900000000006,-28.7547,-76.585499999999996,-115.756,-45.174399999999999
8435.0,340.06,195.66999999999999,-9.4604400000000002,-15.486800000000001,-76.1203,-129.30199999999999,-39.788600000000002
8436.0,340.16500000000002,184.41399999999999,-8.5946099999999994,0.41779899999999998,-74.845399999999998,-141.15600000000001,-34.337800000000001
8437.0,339.50999999999999,172.90100000000001,-6.7381200000000003,19.1556,-72.845500000000001,-151.154,-28.9603
8438.0,337.93799999999999,159.59999999999999,-5.71556,38.786799999999999,-70.115600000000001,-158.977,-23.665500000000002
8439.0,335.57600000000002,144.815,-5.3534300000000004,58.908700000000003,-66.741699999999994,-164.494,-18.648399999999999
8440.0,332.55900000000003,131.31899999999999,-2.84517,81.822599999999994,-62.911099999999998,-167.64699999999999,-14.099500000000001
8441.0,328.79599999999999,115.988,-1.6829499999999999,103.608,-58.7241,-168.23699999999999,-10.1113
8442.0,324.30799999999999,101.77500000000001,0.67791500000000005,126.33,-54.311,-166.215,-6.7825199999999999
8443.0,319.02699999999999,85.5929,0.66451499999999997,145.69900000000001,-49.782299999999999,-161.61600000000001,-4.2421600000000002
8444.0,313.38400000000001,71.841399999999993,2.47742,165.03100000000001,-45.317100000000003,-154.99299999999999,-2.59138
8445.0,307.68599999999998,59.196399999999997,4.4307800000000004,182.62100000000001,-41.028500000000001,-146.76499999999999,-1.70322
8446.0,302.35599999999999,47.491100000000003,5.2717999999999998,197.80000000000001,-36.884300000000003,-137.36799999999999,-1.47838
8447.0,298.17000000000002,37.067799999999998,6.0198099999999997,211.71600000000001,-32.997399999999999,-127.464,-1.72977
8448.0,295.16000000000003,28.6569,7.8624299999999998,226.07400000000001,-29.445,-116.892,-2.3028200000000001
8449.0,292.62900000000002,17.874600000000001,5.9245299999999999,236.126,-26.302299999999999,-105.108,-3.0994899999999999
8450.0,290.12,8.7020400000000002,4.6131099999999998,245.16,-23.717500000000001,-92.259600000000006,-4.1086600000000004
8451.0,264.20999999999998,203.404,-6.5893699999999997,-3.09836,-41.131399999999999,54.889099999999999,-64.075100000000006
8452.0,267.39400000000001,208.09700000000001,-7.0756500000000004,-13.242599999999999,-45.078000000000003,42.907800000000002,-63.811700000000002
8453.0,271.39100000000002,213.96199999999999,-6.1769600000000002,-20.693899999999999,-49.167700000000004,30.111499999999999,-62.751199999999997
8454.0,275.81099999999998,218.334,-6.0157600000000002,-27.368300000000001,-53.2012,16.542200000000001,-61.0473
8455.0,280.35599999999999,222.58099999999999,-4.9089,-31.400200000000002,-56.945900000000002,2.1833,-58.813099999999999
8456.0,284.83600000000001,223.851,-5.3986999999999998,-35.169199999999996,-60.307600000000001,-12.8094,-56.160600000000002
8457.0,289.14699999999999,224.374,-5.0873699999999999,-36.151699999999998,-63.207700000000003,-28.246200000000002,-53.1706
8458.0,293.21499999999997,222.494,-5.54488,-35.82,-65.600399999999993,-43.869500000000002,-49.8962
8459.0,296.98399999999998,219.35499999999999,-5.6397000000000004,-32.968299999999999,-67.441500000000005,-59.405500000000004,-46.365200000000002
8460.0,300.37200000000001,214.22999999999999,-6.13375,-28.335699999999999,-68.682100000000005,-74.564099999999996,-42.608699999999999
8461.0,303.28500000000003,208.46600000000001,-5.7461200000000003,-20.664200000000001,-69.275999999999996,-89.061099999999996,-38.660499999999999
8462.0,305.59199999999998,200.58199999999999,-6.0189399999999997,-11.555899999999999,-69.178899999999999,-102.611,-34.561500000000002
8463.0,307.20800000000003,191.684,-5.88185,-0.105115,-68.385999999999996,-114.96299999999999,-30.402000000000001
8464.0,308.03800000000001,181.43700000000001,-5.7458499999999999,13.150399999999999,-66.912400000000005,-125.877,-26.226700000000001
8465.0,307.96300000000002,169.31899999999999,-6.2542999999999997,27.339200000000002,-64.747900000000001,-135.089,-22.066700000000001
8466.0,307.09800000000001,156.85499999999999,-5.8819100000000004,43.629100000000001,-62.027299999999997,-142.488,-18.085899999999999
8467.0,305.45800000000003,144.43299999999999,-4.4207099999999997,62.063699999999997,-58.854399999999998,-147.89099999999999,-14.3421
8468.0,303.01600000000002,129.88999999999999,-4.3688099999999999,79.8232,-55.254100000000001,-151.10300000000001,-10.850099999999999
8469.0,299.91199999999998,116.04000000000001,-3.0894699999999999,99.101799999999997,-51.355899999999998,-152.09100000000001,-7.7285000000000004
8470.0,296.21499999999997,101.026,-2.7180900000000001,117.23999999999999,-47.283499999999997,-150.83099999999999,-5.1120299999999999
8471.0,292.10899999999998,88.013400000000004,-0.45619799999999999,136.56,-43.1646,-147.45699999999999,-3.0847899999999999
8472.0,287.66800000000001,73.975499999999997,0.072684799999999994,153.286,-39.046700000000001,-142.077,-1.6222099999999999
8473.0,283.161,61.107599999999998,0.58345000000000002,168.72800000000001,-34.994,-135.08699999999999,-0.79494200000000004
8474.0,279.15199999999999,49.334800000000001,1.1918,182.88900000000001,-31.232299999999999,-127.036,-0.62666500000000003
8475.0,275.726,38.481299999999997,1.5755699999999999,195.81800000000001,-27.8584,-117.998,-0.97188099999999999
8476.0,272.834,27.247900000000001,0.56102799999999997,206.23599999999999,-24.972200000000001,-108.063,-1.73655
8477.0,270.399,18.907599999999999,1.96305,217.64099999999999,-22.811,-97.265199999999993,-2.8199200000000002
8478.0,268.108,10.630599999999999,2.6296400000000002,226.80500000000001,-21.2498,-85.543899999999994,-4.0357399999999997
8479.0,238.09299999999999,189.85300000000001,-3.32477,4.7815000000000003,-39.947099999999999,50.217399999999998,-53.286299999999997
8480.0,240.77199999999999,195.59899999999999,-2.4878999999999998,-2.6551399999999998,-43.3553,39.327800000000003,-52.978900000000003
8481.0,244.39699999999999,200.50299999999999,-2.4128400000000001,-9.7465200000000003,-46.977600000000002,27.798200000000001,-51.879100000000001
8482.0,248.518,205.666,-1.5115000000000001,-14.6576,-50.542900000000003,15.572100000000001,-50.169199999999996
8483.0,252.82499999999999,208.64599999999999,-1.88235,-19.3142,-53.8352,2.6244999999999998,-47.990099999999998
8484.0,257.13600000000002,211.642,-1.0276799999999999,-21.074999999999999,-56.747100000000003,-10.9231,-45.485399999999998
8485.0,261.35700000000003,212.02699999999999,-1.4231499999999999,-22.293299999999999,-59.2119,-24.891400000000001,-42.7378
8486.0,265.43700000000001,211.35900000000001,-1.44896,-21.262599999999999,-61.190600000000003,-39.045999999999999,-39.807499999999997
8487.0,269.32999999999998,208.69,-2.0693100000000002,-18.902799999999999,-62.639499999999998,-53.1355,-36.726900000000001
8488.0,272.95100000000002,204.852,-2.48827,-14.4069,-63.513399999999997,-66.897800000000004,-33.521299999999997
8489.0,276.17599999999999,198.774,-3.8012299999999999,-8.9089600000000004,-63.764899999999997,-80.078800000000001,-30.2209
8490.0,278.87,192.03800000000001,-4.4088000000000003,-0.91817599999999999,-63.372199999999999,-92.436099999999996,-26.890599999999999
8491.0,280.87799999999999,183.77199999999999,-5.1713500000000003,8.5696300000000001,-62.322800000000001,-103.733,-23.571300000000001
8492.0,282.08100000000002,174.20599999999999,-5.80267,19.6173,-60.656799999999997,-113.748,-20.3506
8493.0,282.495,164.126,-5.5150100000000002,32.821300000000001,-58.509999999999998,-122.318,-17.355699999999999
8494.0,282.01900000000001,152.607,-5.4028200000000002,46.895600000000002,-55.906599999999997,-129.209,-14.5467
8495.0,280.66399999999999,139.06399999999999,-6.1820399999999998,60.8065,-52.9054,-134.285,-11.8956
8496.0,278.59100000000001,126.20699999999999,-5.3148400000000002,76.883399999999995,-49.671500000000002,-137.47499999999999,-9.4811800000000002
8497.0,275.87,112.131,-5.0812400000000002,92.608599999999996,-46.259500000000003,-138.67500000000001,-7.3185099999999998
8498.0,272.63799999999998,98.897599999999997,-3.7921100000000001,109.395,-42.719999999999999,-137.88300000000001,-5.4069700000000003
8499.0,269.04300000000001,84.326499999999996,-4.0217999999999998,124.363,-39.120100000000001,-135.15899999999999,-3.8222399999999999
8500.0,265.33800000000002,71.729100000000003,-2.7323,140.08000000000001,-35.587800000000001,-130.738,-2.7073900000000002
8501.0,261.78300000000002,59.2684,-1.9705999999999999,154.35900000000001,-32.262599999999999,-124.871,-2.1008399999999998
8502.0,258.435,47.570099999999996,-1.43885,167.441,-29.1892,-117.72199999999999,-1.9723599999999999
8503.0,255.46700000000001,36.341000000000001,-1.2852600000000001,178.98400000000001,-26.552800000000001,-109.548,-2.31196
8504.0,252.86799999999999,26.606200000000001,-0.47583900000000001,190.06200000000001,-24.420400000000001,-100.413,-3.0061900000000001
8505.0,250.24600000000001,15.7309,-1.7369300000000001,197.72,-22.653400000000001,-90.250100000000003,-3.8300000000000001
8506.0,247.77699999999999,5.8755100000000002,-3.0543100000000001,204.03800000000001,-21.3474,-79.2517,-4.7096099999999996
8507.0,216.34100000000001,179.36000000000001,1.3103499999999999,12.314299999999999,-38.317,45.647799999999997,-45.768000000000001
8508.0,218.62200000000001,183.256,0.69499200000000005,4.5361500000000001,-41.324100000000001,35.683199999999999,-45.500700000000002
8509.0,221.98599999999999,188.18600000000001,1.0526899999999999,-1.3304199999999999,-44.610799999999998,25.2301,-44.448900000000002
8510.0,225.898,192.483,1.2109399999999999,-6.2241600000000004,-47.870399999999997,14.1441,-42.788899999999998
8511.0,230.05600000000001,196.54599999999999,1.9002699999999999,-9.2137700000000002,-50.884399999999999,2.39683,-40.689999999999998
8512.0,234.256,198.18000000000001,1.20886,-12.039300000000001,-53.537999999999997,-9.9191800000000008,-38.292999999999999
8513.0,238.44200000000001,199.02500000000001,0.89784799999999998,-12.833600000000001,-55.766800000000003,-22.634599999999999,-35.702399999999997
8514.0,242.56999999999999,198.137,0.060205500000000002,-12.4283,-57.521099999999997,-35.5321,-32.979199999999999
8515.0,246.60499999999999,196.05000000000001,-0.80994600000000005,-10.291399999999999,-58.752200000000002,-48.376399999999997,-30.151299999999999
8516.0,250.43700000000001,192.65000000000001,-1.8428800000000001,-6.5646000000000004,-59.399000000000001,-60.931600000000003,-27.252300000000002
8517.0,253.91900000000001,188.72399999999999,-2.2270099999999999,-0.49685299999999999,-59.415300000000002,-72.970699999999994,-24.3264
8518.0,256.85399999999998,183.023,-3.1212499999999999,6.6463700000000001,-58.775300000000001,-84.272499999999994,-21.4313
8519.0,259.09699999999998,176.00299999999999,-3.9277099999999998,15.3035,-57.5351,-94.635999999999996,-18.6906
8520.0,260.55900000000003,167.767,-4.4777800000000001,25.447900000000001,-55.778100000000002,-103.86,-16.205500000000001
8521.0,261.08699999999999,157.18299999999999,-5.8604200000000004,35.679000000000002,-53.532699999999998,-111.72799999999999,-13.949
8522.0,260.74099999999999,145.30799999999999,-7.0262500000000001,46.824599999999997,-50.9938,-118.11,-12.0023
8523.0,259.613,133.72300000000001,-6.6615099999999998,60.087800000000001,-48.315199999999997,-122.852,-10.417299999999999
8524.0,257.67399999999998,120.099,-7.4049500000000004,72.572699999999998,-45.468200000000003,-125.822,-9.0190900000000003
8525.0,255.06700000000001,106.749,-7.2020900000000001,86.159000000000006,-42.527200000000001,-127.00700000000001,-7.7123799999999996
8526.0,252.01499999999999,92.547499999999999,-7.5656699999999999,99.189499999999995,-39.567500000000003,-126.432,-6.5362799999999996
8527.0,248.71799999999999,80.070499999999996,-6.2541500000000001,113.67,-36.650100000000002,-124.175,-5.5190400000000004
8528.0,245.40299999999999,66.542599999999993,-6.4308899999999998,126.34399999999999,-33.799199999999999,-120.366,-4.69163
8529.0,242.17599999999999,54.4529,-5.8688500000000001,139.137,-31.101900000000001,-115.148,-4.15184
8530.0,239.28700000000001,42.627099999999999,-5.7868000000000004,150.66399999999999,-28.689599999999999,-108.773,-4.0040899999999997
8531.0,236.51900000000001,31.966799999999999,-5.4071100000000003,161.45400000000001,-26.640699999999999,-101.253,-4.1795299999999997
8532.0,233.96600000000001,20.7911,-6.3046199999999999,169.89599999999999,-25.037800000000001,-92.714600000000004,-4.6484199999999998
8533.0,231.554,12.6379,-5.49268,178.83600000000001,-24.039999999999999,-83.332899999999995,-5.3697299999999997
8534.0,229.161,5.3686699999999998,-4.8912399999999998,186.363,-23.3809,-73.123000000000005,-6.1297300000000003
8535.0,197.441,166.613,2.3397199999999998,15.2645,-36.5473,41.252400000000002,-40.170900000000003
8536.0,199.494,170.42500000000001,2.0080300000000002,8.7825399999999991,-39.2517,32.117400000000004,-40.049599999999998
8537.0,202.58600000000001,174.80000000000001,2.1787000000000001,3.5410699999999999,-42.2376,22.569900000000001,-39.1402
8538.0,206.38399999999999,179.05099999999999,2.4781,-0.59877100000000005,-45.303400000000003,12.4964,-37.585099999999997
8539.0,210.40299999999999,181.976,2.1382300000000001,-4.1271199999999997,-48.1312,1.79704,-35.601700000000001
8540.0,214.571,184.77600000000001,2.5389599999999999,-5.5281200000000004,-50.654200000000003,-9.4330400000000001,-33.32
8541.0,218.75999999999999,185.73099999999999,2.0980300000000001,-6.2318600000000002,-52.761800000000001,-21.041,-30.855
8542.0,223.005,185.65600000000001,1.5700700000000001,-5.4172599999999997,-54.417999999999999,-32.821800000000003,-28.242599999999999
8543.0,227.22,184.441,0.81576499999999996,-3.1847799999999999,-55.527200000000001,-44.553800000000003,-25.5289
8544.0,231.28299999999999,182.221,-0.060301100000000003,0.55466400000000005,-56.012500000000003,-56.021599999999999,-22.7273
8545.0,234.94800000000001,178.34200000000001,-1.5905400000000001,5.2024299999999997,-55.798000000000002,-67.014700000000005,-19.897200000000002
8546.0,238.005,173.78399999999999,-2.5894900000000001,11.8232,-54.900799999999997,-77.349199999999996,-17.147300000000001
8547.0,240.268,167.83600000000001,-3.5297299999999998,19.7303,-53.371099999999998,-86.839699999999993,-14.5906
8548.0,241.648,159.768,-4.9026100000000001,28.196400000000001,-51.369700000000002,-95.317300000000003,-12.3725
8549.0,242.28299999999999,151.01900000000001,-5.3103699999999998,38.522799999999997,-49.1892,-102.611,-10.7629
8550.0,242.126,140.88800000000001,-5.6531799999999999,49.464599999999997,-46.8581,-108.503,-9.7233499999999999
8551.0,241.04499999999999,127.66800000000001,-7.7167599999999998,58.8202,-44.365200000000002,-112.85299999999999,-8.9866200000000003
8552.0,239.18799999999999,114.923,-8.2434200000000004,69.840500000000006,-41.894599999999997,-115.58499999999999,-8.4955300000000005
8553.0,236.655,101.36799999999999,-8.9588999999999999,80.723299999999995,-39.454900000000002,-116.643,-8.1255699999999997
8554.0,233.58699999999999,88.511099999999999,-8.6285900000000009,92.585899999999995,-37.045099999999998,-116.07599999999999,-7.67204
8555.0,230.31399999999999,74.654799999999994,-9.3702500000000004,103.30800000000001,-34.685899999999997,-114.008,-7.1355500000000003
8556.0,227.06200000000001,62.814300000000003,-8.4068100000000001,115.474,-32.482700000000001,-110.551,-6.6195700000000004
8557.0,224.10599999999999,50.697699999999998,-8.3416999999999994,126.413,-30.421700000000001,-105.896,-6.23332
8558.0,221.31999999999999,39.715299999999999,-7.8624499999999999,137.13499999999999,-28.649000000000001,-100.039,-5.9878
8559.0,218.89599999999999,28.9147,-8.0795499999999993,146.44999999999999,-27.073899999999998,-93.225499999999997,-6.1119599999999998
8560.0,216.27600000000001,19.9223,-7.3563099999999997,155.322,-26.077400000000001,-85.3369,-6.2514599999999998
8561.0,213.892,9.0308399999999995,-8.7287999999999997,160.97800000000001,-25.2712,-76.572699999999998,-6.8788799999999997
8562.0,212.09899999999999,-0.29559000000000002,-10.136200000000001,165.58799999999999,-24.707899999999999,-67.718699999999998,-7.0764500000000004
8563.0,180.85400000000001,156.94200000000001,5.1466500000000002,19.515000000000001,-34.854300000000002,37.0154,-35.991799999999998
8564.0,182.63999999999999,158.15899999999999,2.6324299999999998,11.8363,-37.2346,28.613900000000001,-36.055599999999998
8565.0,185.49799999999999,162.72800000000001,3.4051300000000002,7.9346399999999999,-39.992899999999999,19.865200000000002,-35.330500000000001
8566.0,189.18199999999999,165.642,2.62107,3.2582800000000001,-42.897799999999997,10.709199999999999,-33.925600000000003
8567.0,193.095,169.798,3.7009400000000001,1.5296000000000001,-45.617199999999997,0.95842099999999997,-32.076999999999998
8568.0,197.23400000000001,170.89699999999999,2.3984200000000002,-1.31359,-48.0762,-9.2661099999999994,-29.8809
8569.0,201.46100000000001,172.352,2.2675999999999998,-1.5639400000000001,-50.149799999999999,-19.8522,-27.4709
8570.0,205.86199999999999,172.12100000000001,1.09775,-1.3687400000000001,-51.768900000000002,-30.5915,-24.863399999999999
8571.0,210.303,171.74299999999999,0.398673,0.82777800000000001,-52.796300000000002,-41.289099999999998,-22.099599999999999
8572.0,214.61000000000001,170.38900000000001,-0.66873300000000002,4.1590199999999999,-53.101199999999999,-51.747599999999998,-19.206700000000001
8573.0,218.423,169.30099999999999,-0.59743999999999997,10.0649,-52.593000000000004,-61.774900000000002,-16.273399999999999
8574.0,221.422,166.30799999999999,-1.1705700000000001,16.6175,-51.291899999999998,-71.203900000000004,-13.3979
8575.0,223.47,161.82599999999999,-1.56019,24.5748,-49.444600000000001,-79.884900000000002,-10.8262
8576.0,224.71799999999999,155.87,-1.67414,33.854799999999997,-47.3215,-87.676900000000003,-8.8255400000000002
8577.0,225.16900000000001,146.464,-3.3950200000000001,42.003700000000002,-44.980699999999999,-94.431100000000001,-7.4055099999999996
8578.0,224.976,134.46100000000001,-6.0476400000000003,49.566299999999998,-42.710500000000003,-99.975099999999998,-6.7104400000000002
8579.0,224.25800000000001,123.464,-6.6748700000000003,59.543700000000001,-40.651699999999998,-104.065,-6.8799400000000004
8580.0,222.61699999999999,110.285,-8.5742499999999993,68.057000000000002,-38.584800000000001,-106.511,-7.4558900000000001
8581.0,220.09200000000001,96.881200000000007,-9.9077699999999993,76.828400000000002,-36.522500000000001,-107.36799999999999,-7.9679900000000004
8582.0,216.91900000000001,83.330600000000004,-10.9778,85.668099999999995,-34.594000000000001,-106.672,-8.3070500000000003
8583.0,213.554,71.057699999999997,-10.757,95.727000000000004,-32.777099999999997,-104.646,-8.35914
8584.0,210.16900000000001,58.529400000000003,-11.067600000000001,105.066,-31.1221,-101.354,-8.1500699999999995
8585.0,207.249,46.832299999999996,-11.1943,114.611,-29.5473,-97.047399999999996,-7.8435800000000002
8586.0,204.45699999999999,36.825899999999997,-10.3277,124.45099999999999,-28.279900000000001,-91.649799999999999,-7.5488499999999998
8587.0,202.30699999999999,25.796900000000001,-11.3322,132.34399999999999,-27.060199999999998,-85.390299999999996,-7.5303300000000002
8588.0,199.733,18.056100000000001,-10.052099999999999,140.655,-26.513500000000001,-78.221699999999998,-7.3404699999999998
8589.0,197.16399999999999,7.0300399999999996,-12.598100000000001,144.89500000000001,-25.5609,-69.810699999999997,-8.0593599999999999
8590.0,195.78899999999999,-6.3099499999999997,-19.505299999999998,144.17400000000001,-24.941199999999998,-61.8752,-7.6631400000000003
8591.0,166.04300000000001,145.446,5.0891999999999999,20.5016,-33.3551,33.116799999999998,-32.496499999999997
8592.0,167.471,147.27799999999999,3.6437499999999998,14.872,-35.402299999999997,25.290199999999999,-32.7804
8593.0,170.15199999999999,150.47300000000001,3.3990399999999998,10.6914,-37.950200000000002,17.287400000000002,-32.265300000000003
8594.0,173.68000000000001,153.69399999999999,3.2309899999999998,7.1475,-40.7044,8.9506200000000007,-31.0305
8595.0,177.51300000000001,156.114,2.75257,4.2172299999999998,-43.346200000000003,0.091944899999999996,-29.308399999999999
8596.0,181.626,158.733,3.0167299999999999,3.1273399999999998,-45.767800000000001,-9.2053799999999999,-27.1983
8597.0,185.94,160.21199999999999,2.7103199999999998,2.74926,-47.835799999999999,-18.826499999999999,-24.797799999999999
8598.0,190.547,161.20599999999999,2.2542300000000002,3.5754000000000001,-49.436100000000003,-28.591899999999999,-22.108799999999999
8599.0,195.29599999999999,162.101,1.9532400000000001,5.9660099999999998,-50.365000000000002,-38.323900000000002,-19.180299999999999
8600.0,199.898,162.59100000000001,1.56395,9.6527700000000003,-50.415900000000001,-47.847299999999997,-16.052700000000002
8601.0,203.791,161.928,0.82652400000000004,14.300000000000001,-49.444200000000002,-56.970799999999997,-12.8445
8602.0,206.53200000000001,160.494,0.79662999999999995,20.873699999999999,-47.582700000000003,-65.522199999999998,-9.7212300000000003
8603.0,207.965,157.22999999999999,1.0696000000000001,28.663799999999998,-45.1098,-73.4071,-6.8429200000000003
8604.0,208.40600000000001,150.23099999999999,0.0305045,35.943100000000001,-42.559600000000003,-80.588499999999996,-4.4581799999999996
8605.0,208.726,142.577,-0.092008199999999998,45.484400000000001,-40.555999999999997,-86.933400000000006,-3.1994500000000001
8606.0,209.07400000000001,133.77099999999999,-0.52714899999999998,55.402799999999999,-38.834899999999998,-92.201800000000006,-3.2190400000000001
8607.0,208.76900000000001,120.092,-4.6859099999999998,61.0899,-36.991100000000003,-96.164199999999994,-4.0082800000000001
8608.0,207.53700000000001,107.125,-7.27691,67.992599999999996,-35.197400000000002,-98.532799999999995,-5.3681999999999999
8609.0,205.16499999999999,93.873199999999997,-9.5407100000000007,74.847499999999997,-33.483800000000002,-99.156000000000006,-6.9442599999999999
8610.0,201.809,81.151799999999994,-10.622400000000001,82.308899999999994,-31.873100000000001,-98.233999999999995,-8.1495899999999999
8611.0,198.114,67.736800000000002,-12.1975,89.078199999999995,-30.468399999999999,-96.057299999999998,-8.7996099999999995
8612.0,194.547,56.748600000000003,-11.606,97.924499999999995,-29.271000000000001,-92.830500000000001,-9.0085899999999999
8613.0,191.45099999999999,45.429499999999997,-11.892799999999999,105.95099999999999,-28.209099999999999,-88.717699999999994,-8.8637200000000007
8614.0,188.767,35.584899999999998,-11.4991,114.35899999999999,-27.2957,-83.754599999999996,-8.6005099999999999
8615.0,186.554,26.019600000000001,-11.629300000000001,122.069,-26.494399999999999,-77.946899999999999,-8.3691899999999997
8616.0,184.245,18.1526,-11.013199999999999,129.23400000000001,-25.9984,-71.386700000000005,-8.1792700000000007
8617.0,182.19900000000001,9.5839300000000005,-12.509600000000001,134.13300000000001,-25.607299999999999,-63.920499999999997,-8.5536100000000008
8618.0,180.71199999999999,1.9102300000000001,-14.567,137.845,-25.378,-56.3461,-8.37561
8619.0,152.779,137.15700000000001,7.3286199999999999,23.472799999999999,-32.0989,29.503599999999999,-29.546399999999998
8620.0,153.80799999999999,136.83199999999999,4.1447000000000003,17.133400000000002,-33.779400000000003,22.166799999999999,-30.047699999999999
8621.0,156.30000000000001,139.69300000000001,3.9276,13.699999999999999,-36.140500000000003,14.847899999999999,-29.7148
8622.0,159.666,141.845,2.9877500000000001,9.9068900000000006,-38.7376,7.2681899999999997,-28.662299999999998
8623.0,163.41200000000001,145.328,3.7694299999999998,8.5303400000000007,-41.308799999999998,-0.74999000000000005,-27.048500000000001
8624.0,167.48699999999999,146.399,2.5278999999999998,6.0737699999999997,-43.698799999999999,-9.1557499999999994,-24.970099999999999
8625.0,171.90600000000001,148.345,2.4548299999999998,5.8936000000000002,-45.7682,-17.8523,-22.4907
8626.0,176.77199999999999,149.744,1.8108200000000001,6.3314300000000001,-47.335599999999999,-26.6844,-19.615200000000002
8627.0,181.92599999999999,151.892,1.7373099999999999,8.5902700000000003,-48.1081,-35.517600000000002,-16.3827
8628.0,186.893,154.11199999999999,1.79112,12.232100000000001,-47.784300000000002,-44.189599999999999,-12.9191
8629.0,190.92099999999999,156.96600000000001,3.2975099999999999,18.523900000000001,-46.190100000000001,-52.521299999999997,-9.4619199999999992
8630.0,193.11199999999999,157.39400000000001,4.4545199999999996,25.422799999999999,-43.447299999999998,-60.254800000000003,-6.1698899999999997
8631.0,193.34700000000001,155.15000000000001,5.9238499999999998,33.860799999999998,-40.444800000000001,-67.242599999999996,-3.2192799999999999
8632.0,192.81399999999999,151.084,8.0018399999999996,44.262900000000002,-37.963999999999999,-73.602099999999993,-0.91070200000000001
8633.0,192.524,141.48400000000001,6.6133899999999999,51.3249,-35.990600000000001,-79.622299999999996,0.71265699999999998
8634.0,193.21799999999999,127.917,1.9563299999999999,55.715000000000003,-34.632800000000003,-85.139200000000002,1.19475
8635.0,194.37100000000001,118.19,0.16902200000000001,64.359800000000007,-33.540300000000002,-89.314999999999998,-0.107238
8636.0,194.10400000000001,105.58499999999999,-4.1802099999999998,69.792699999999996,-31.969999999999999,-91.633899999999997,-2.5108700000000002
8637.0,191.79400000000001,92.311300000000003,-7.69055,74.550700000000006,-30.231400000000001,-92.066299999999998,-4.9875999999999996
8638.0,188.209,78.6357,-10.687799999999999,79.062399999999997,-28.821899999999999,-90.8506,-7.1180599999999998
8639.0,184.05500000000001,67.026399999999995,-11.1958,85.546999999999997,-27.744,-88.386399999999995,-8.5658799999999999
8640.0,180.10300000000001,54.315399999999997,-12.9055,90.782499999999999,-26.921900000000001,-85.065600000000003,-9.2069700000000001
8641.0,176.73099999999999,44.283799999999999,-12.503399999999999,98.221199999999996,-26.264500000000002,-81.052199999999999,-9.2904599999999995
8642.0,174.06200000000001,34.358499999999999,-12.777799999999999,105.068,-25.691600000000001,-76.409400000000005,-9.0846800000000005
8643.0,171.78299999999999,26.038,-12.2919,112.346,-25.181000000000001,-71.065100000000001,-8.7536699999999996
8644.0,169.83099999999999,17.693200000000001,-12.8628,118.074,-24.731999999999999,-65.087900000000005,-8.5863600000000009
8645.0,168.09899999999999,11.420400000000001,-11.952199999999999,124.32299999999999,-24.483699999999999,-58.636200000000002,-8.4114599999999999
8646.0,166.339,6.2274599999999998,-10.856400000000001,129.815,-24.207000000000001,-51.719200000000001,-8.3479200000000002
8647.0,140.85900000000001,127.36199999999999,7.2758200000000004,23.818100000000001,-31.059699999999999,26.279499999999999,-26.879799999999999
8648.0,141.36799999999999,128.10400000000001,5.6339899999999998,20.028300000000002,-32.403100000000002,19.2987,-27.534099999999999
8649.0,143.738,129.196,3.9125800000000002,15.828200000000001,-34.571800000000003,12.637700000000001,-27.3903
8650.0,146.87200000000001,131.929,3.8685800000000001,13.451700000000001,-36.990600000000001,5.7450999999999999,-26.4771
8651.0,150.55099999999999,133.33600000000001,2.7185800000000002,10.4177,-39.4895,-1.46177,-24.9419
8652.0,154.57300000000001,136.38800000000001,3.4952999999999999,10.053699999999999,-41.821399999999997,-9.0266599999999997,-22.871700000000001
8653.0,159.14699999999999,138.536,3.3352599999999999,9.6090199999999992,-43.875300000000003,-16.835899999999999,-20.265699999999999
8654.0,164.333,141.821,3.8928600000000002,10.8781,-45.359999999999999,-24.7944,-17.1173
8655.0,170.05099999999999,145.965,4.6498499999999998,13.422599999999999,-45.935499999999998,-32.822800000000001,-13.5136
8656.0,175.59100000000001,150.97900000000001,5.9798400000000003,17.690200000000001,-45.084699999999998,-40.777999999999999,-9.6952200000000008
8657.0,179.66999999999999,154.32300000000001,6.8554199999999996,22.633199999999999,-42.692999999999998,-48.420999999999999,-6.0718300000000003
8658.0,181.25,155.89500000000001,8.68187,29.690999999999999,-39.079300000000003,-55.438400000000001,-3.1282899999999998
8659.0,179.428,153.06399999999999,10.883699999999999,37.193100000000001,-35.054000000000002,-61.4818,-0.70879599999999998
8660.0,176.12100000000001,143.322,10.9232,42.788600000000002,-32.433799999999998,-67.151600000000002,1.70198
8661.0,175.44,135.40299999999999,12.0268,52.997700000000002,-32.069800000000001,-72.593400000000003,3.6066199999999999
8662.0,178.023,129.745,12.6173,65.211600000000004,-32.094900000000003,-77.937899999999999,4.2540199999999997
8663.0,181.13300000000001,116.339,5.31867,67.912199999999999,-30.8416,-82.917100000000005,3.43058
8664.0,182.02799999999999,104.491,0.26796399999999998,71.962699999999998,-28.8444,-85.836699999999993,1.1318999999999999
8665.0,180.20599999999999,91.946600000000004,-4.4420700000000002,75.747900000000001,-26.904599999999999,-86.211500000000001,-2.13686
8666.0,176.12899999999999,79.212999999999994,-7.6803900000000001,79.123000000000005,-25.359400000000001,-84.589399999999998,-5.2745800000000003
8667.0,171.22200000000001,65.382499999999993,-11.036300000000001,81.581299999999999,-24.439299999999999,-81.683999999999997,-7.4905200000000001
8668.0,166.74600000000001,55.0381,-10.996499999999999,87.352800000000002,-24.017900000000001,-78.114500000000007,-8.7420299999999997
8669.0,163.083,44.063699999999997,-12.1082,92.178399999999996,-23.784800000000001,-74.101200000000006,-9.1845700000000008
8670.0,160.29900000000001,35.3643,-11.7355,98.687899999999999,-23.574300000000001,-69.688000000000002,-9.1023599999999991
8671.0,158.155,26.9009,-12.0238,104.467,-23.3249,-64.796199999999999,-8.8378999999999994
8672.0,156.429,20.3264,-11.287000000000001,110.932,-23.067799999999998,-59.392400000000002,-8.5282300000000006
8673.0,154.78200000000001,13.3451,-12.0044,115.379,-22.711500000000001,-53.435600000000001,-8.2409099999999995
8674.0,153.232,7.6947599999999996,-12.3596,119.407,-22.345700000000001,-47.129800000000003,-8.0911399999999993
8675.0,129.953,121.003,10.0008,26.7559,-30.1252,23.2334,-24.518699999999999
8676.0,130.273,119.318,6.2818800000000001,21.7864,-31.327100000000002,16.724499999999999,-25.317299999999999
8677.0,132.30600000000001,120.241,4.6848000000000001,18.537600000000001,-33.183,10.5907,-25.302199999999999
8678.0,135.33799999999999,121.855,3.74966,15.711,-35.490000000000002,4.3885399999999999,-24.500900000000001
8679.0,138.83699999999999,124.616,4.1329500000000001,14.468,-37.835599999999999,-2.0602399999999998,-23.0245
8680.0,142.851,126.074,3.2906200000000001,12.4247,-40.119599999999998,-8.80138,-20.8764
8681.0,147.53800000000001,129.054,3.6431,12.2148,-42.102200000000003,-15.747400000000001,-18.068000000000001
8682.0,153.185,133.26599999999999,4.2977499999999997,13.008800000000001,-43.473999999999997,-22.9086,-14.5623
8683.0,159.55500000000001,139.428,5.8031199999999998,15.523199999999999,-43.739899999999999,-30.202999999999999,-10.492800000000001
8684.0,166.01300000000001,146.845,7.9157599999999997,19.8139,-42.3782,-37.687100000000001,-6.3705499999999997
8685.0,170.333,154.28999999999999,11.5564,26.8916,-38.975299999999997,-44.760599999999997,-2.9708000000000001
8686.0,170.286,155.33699999999999,14.073700000000001,34.103099999999998,-34.661900000000003,-51.191000000000003,-1.2110000000000001
8687.0,166.08799999999999,150.173,15.1812,42.0182,-30.8262,-56.010599999999997,-0.93768200000000002
8688.0,159.31999999999999,143.83099999999999,19.375900000000001,54.227200000000003,-29.435500000000001,-58.927399999999999,-0.15165500000000001
8689.0,157.29300000000001,129.73599999999999,17.751999999999999,58.689599999999999,-29.999199999999998,-64.289100000000005,1.8184499999999999
8690.0,162.279,115.943,11.942,58.5961,-30.742999999999999,-71.414000000000001,4.4162999999999997
8691.0,168.19300000000001,113.31999999999999,12.0722,70.040499999999994,-29.589099999999998,-77.061999999999998,5.9029199999999999
8692.0,171.93799999999999,105.504,6.8310899999999997,76.807599999999994,-26.502099999999999,-80.961200000000005,4.5830299999999999
8693.0,170.55099999999999,93.186800000000005,0.49001,78.192400000000006,-23.620100000000001,-81.613,1.18215
8694.0,165.583,79.322900000000004,-4.7514200000000004,79.060500000000005,-21.6342,-79.463800000000006,-2.7983500000000001
8695.0,159.803,67.336699999999993,-7.0581899999999997,81.608199999999997,-20.839700000000001,-76.006,-5.8738299999999999
8696.0,154.43799999999999,54.072699999999998,-10.4023,82.854399999999998,-20.692,-71.982799999999997,-7.7685700000000004
8697.0,150.429,44.4101,-10.7752,87.445700000000002,-20.893799999999999,-67.888300000000001,-8.5729699999999998
8698.0,147.547,35.213299999999997,-11.536,91.987499999999997,-21.082100000000001,-63.621000000000002,-8.7710500000000007
8699.0,145.53399999999999,27.831099999999999,-11.338100000000001,97.614000000000004,-21.129999999999999,-59.111899999999999,-8.5816199999999991
8700.0,143.94800000000001,20.7178,-11.7277,102.417,-21.013500000000001,-54.1952,-8.3001799999999992
8701.0,142.62,15.4633,-11.039099999999999,107.755,-20.867799999999999,-48.898299999999999,-8.0584199999999999
8702.0,141.42400000000001,10.687799999999999,-10.6656,112.18300000000001,-20.717099999999999,-43.210500000000003,-7.9005700000000001
8703.0,120.06399999999999,114.557,12.134600000000001,28.781400000000001,-29.427900000000001,20.4038,-22.4053
8704.0,120.31,110.74299999999999,6.4203000000000001,22.826799999999999,-30.450199999999999,14.4649,-23.267499999999998
8705.0,121.952,112.51900000000001,6.02475,21.514800000000001,-32.023899999999998,8.7336600000000004,-23.348400000000002
8706.0,124.896,112.877,3.9584700000000002,18.0047,-34.173699999999997,3.2463700000000002,-22.6067
8707.0,128.173,114.967,3.84239,16.465,-36.3504,-2.51071,-21.133800000000001
8708.0,132.191,117.76300000000001,4.2613599999999998,15.556699999999999,-38.553600000000003,-8.4426400000000008,-18.915600000000001
8709.0,137.04900000000001,122.18899999999999,5.6374000000000004,15.8782,-40.386699999999998,-14.5945,-15.858000000000001
8710.0,143.19499999999999,128.40000000000001,7.50739,17.082000000000001,-41.640000000000001,-20.999400000000001,-11.9862
8711.0,150.58199999999999,137.71100000000001,10.573600000000001,20.2041,-41.463299999999997,-27.799099999999999,-7.4533199999999997
8712.0,157.886,148.43899999999999,14.7666,25.654499999999999,-39.704000000000001,-34.819299999999998,-3.1630699999999998
8713.0,163.02099999999999,155.149,16.2027,30.579799999999999,-35.376300000000001,-42.055599999999998,-0.38578000000000001
8714.0,160.49700000000001,155.536,19.218599999999999,38.850099999999998,-30.862300000000001,-46.932400000000001,-0.85605600000000004
8715.0,151.04499999999999,137.739,14.4169,41.759999999999998,-27.605799999999999,-51.183700000000002,-5.31881
8716.0,143.98400000000001,116.834,9.3245699999999996,41.889200000000002,-29.5122,-53.896900000000002,-9.7686600000000006
8717.0,140.995,105.12,7.2916299999999996,46.196800000000003,-32.392899999999997,-55.524700000000003,-8.2598099999999999
8718.0,145.51599999999999,102.14100000000001,7.1692799999999997,55.280700000000003,-32.249400000000001,-61.3446,-0.29431400000000002
8719.0,156.05500000000001,107.521,13.744,70.108099999999993,-29.983899999999998,-70.376000000000005,6.1212499999999999
8720.0,163.13300000000001,105.83799999999999,13.247199999999999,79.716999999999999,-24.7011,-77.022300000000001,7.0217099999999997
8721.0,162.69999999999999,94.402699999999996,5.6868400000000001,80.521199999999993,-20.486699999999999,-78.132900000000006,4.70364
8722.0,156.71100000000001,82.525899999999993,1.57501,82.016499999999994,-17.667100000000001,-75.520099999999999,0.091792200000000004
8723.0,149.42699999999999,66.331800000000001,-5.2880500000000001,79.065600000000003,-16.7258,-71.288399999999996,-3.6308600000000002
8724.0,143.15000000000001,56.328299999999999,-5.9181999999999997,82.263599999999997,-17.057099999999998,-66.685299999999998,-6.2321900000000001
8725.0,138.702,44.7346,-8.94407,83.454599999999999,-17.753399999999999,-62.344900000000003,-7.5941299999999998
8726.0,135.76499999999999,36.745600000000003,-9.1466999999999992,87.885199999999998,-18.398499999999999,-58.171999999999997,-8.0907900000000001
8727.0,133.89699999999999,28.998999999999999,-10.015700000000001,91.898399999999995,-18.7805,-53.973399999999998,-8.1320200000000007
8728.0,132.55000000000001,23.2545,-9.5971200000000003,97.0608,-18.922799999999999,-49.5105,-7.9600200000000001
8729.0,131.43199999999999,17.415600000000001,-10.0335,100.995,-18.870799999999999,-44.699100000000001,-7.7220500000000003
8730.0,130.39699999999999,12.440899999999999,-10.319599999999999,104.521,-18.757300000000001,-39.517299999999999,-7.5392200000000003
8731.0,111.47799999999999,108.349,13.750500000000001,30.310500000000001,-29.003599999999999,17.934200000000001,-20.6739
8732.0,111.297,104.312,8.0779200000000007,25.345199999999998,-29.7059,12.3118,-21.506900000000002
8733.0,112.84699999999999,104.35899999999999,6.0788599999999997,23.096299999999999,-31.115600000000001,7.1080699999999997,-21.620000000000001
8734.0,115.482,105.146,4.68262,20.718399999999999,-33.010599999999997,2.2249599999999998,-20.920100000000001
8735.0,118.68899999999999,107.623,4.9505100000000004,19.603400000000001,-35.030200000000001,-2.8298299999999998,-19.408000000000001
8736.0,122.488,110.083,5.1133199999999999,18.1877,-37.063200000000002,-7.96549,-17.074100000000001
8737.0,127.756,114.411,5.7044100000000002,17.052,-38.755400000000002,-13.4247,-13.693099999999999
8738.0,134.245,123.601,9.8877799999999993,19.606300000000001,-39.7682,-19.037400000000002,-9.4860199999999999
8739.0,143.18799999999999,133.5,11.744999999999999,20.355,-39.197099999999999,-25.715499999999999,-4.4489099999999997
8740.0,150.995,148.971,19.8062,28.822500000000002,-36.984400000000001,-32.120600000000003,-0.300541
8741.0,156.81899999999999,154.75700000000001,19.722300000000001,33.154800000000002,-32.217799999999997,-40.293100000000003,1.4815
8742.0,151.46100000000001,155.971,25.174800000000001,46.148699999999998,-29.297499999999999,-42.975700000000003,-2.6202800000000002
8743.0,136.19399999999999,120.111,8.2414900000000006,42.759,-25.686399999999999,-45.825299999999999,-11.8972
8744.0,129.95400000000001,36.2119,-57.337299999999999,-18.4329,-29.377099999999999,-46.951999999999998,-18.7972
8745.0,128.34999999999999,23.904699999999998,-59.078200000000002,-20.796299999999999,-36.476500000000001,-45.089100000000002,-20.0669
8746.0,133.01499999999999,74.975399999999993,-7.6620499999999998,38.108699999999999,-37.123800000000003,-51.6586,-11.7064
8747.0,144.57900000000001,102.10899999999999,14.3916,69.227099999999993,-32.352499999999999,-62.8932,1.3089900000000001
8748.0,154.999,108.035,19.468900000000001,84.623599999999996,-23.654699999999998,-72.6601,7.9348900000000002
8749.0,156.60900000000001,98.315600000000003,12.9817,84.381299999999996,-17.674800000000001,-75.564599999999999,7.5735299999999999
8750.0,149.012,84.411000000000001,7.1788699999999999,83.675899999999999,-13.585000000000001,-72.381399999999999,2.89845
8751.0,140.387,70.783299999999997,2.5139100000000001,82.3904,-12.7415,-67.403000000000006,-1.1571400000000001
8752.0,132.703,55.959200000000003,-3.3130099999999998,79.6096,-13.3353,-62.026600000000002,-4.4838100000000001
8753.0,127.851,45.579300000000003,-5.7434099999999999,80.879400000000004,-14.5817,-57.449800000000003,-6.1836399999999996
8754.0,124.919,36.900700000000001,-7.5929099999999998,83.275000000000006,-15.7265,-53.273000000000003,-7.1882299999999999
8755.0,123.258,29.715699999999998,-8.6504899999999996,86.711699999999993,-16.427299999999999,-49.356499999999997,-7.4750800000000002
8756.0,122.07599999999999,23.786000000000001,-9.0792000000000002,90.614699999999999,-16.8111,-45.252099999999999,-7.5060399999999996
8757.0,121.22799999999999,18.688300000000002,-9.2562700000000007,94.511399999999995,-16.9665,-40.908900000000003,-7.3755199999999999
8758.0,120.38500000000001,14.9344,-8.6949699999999996,98.584000000000003,-17.0641,-36.190800000000003,-7.2467800000000002
8759.0,103.8,101.401,14.005699999999999,30.581600000000002,-28.6738,15.706300000000001,-19.182300000000001
8760.0,103.33199999999999,97.718299999999999,8.9418299999999995,26.985399999999998,-29.197199999999999,10.371,-19.936599999999999
8761.0,104.755,97.094300000000004,6.3283300000000002,24.776299999999999,-30.3781,5.6944499999999998,-20.028700000000001
8762.0,107.107,98.222899999999996,5.4365100000000002,23.250900000000001,-32.010599999999997,1.38785,-19.3081
8763.0,110.15000000000001,98.689999999999998,3.7309000000000001,20.2136,-33.856900000000003,-2.9956800000000001,-17.735099999999999
8764.0,113.861,104.333,6.8795000000000002,21.475300000000001,-35.643099999999997,-7.3926699999999999,-15.287699999999999
8765.0,119.42100000000001,109.312,7.6773300000000004,19.648199999999999,-37.202300000000001,-12.1813,-11.662699999999999
8766.0,126.628,122.297,14.5434,23.6814,-37.775799999999997,-17.2379,-7.1280799999999997
8767.0,136.83000000000001,134.40700000000001,17.5657,24.3782,-37.0929,-23.682700000000001,-1.82975
8768.0,145.62799999999999,153.76900000000001,28.236499999999999,35.115600000000001,-34.137099999999997,-30.321400000000001,1.9149700000000001
8769.0,150.34200000000001,154.131,23.744,36.544499999999999,-30.216000000000001,-38.084400000000002,2.3639899999999998
8770.0,140.17599999999999,147.874,26.710000000000001,51.541699999999999,-28.5398,-40.062100000000001,-5.8373799999999996
8771.0,127.967,83.322400000000002,-19.416599999999999,26.812100000000001,-27.041499999999999,-41.028300000000002,-19.907
8772.0,125.73699999999999,-12.891299999999999,-102.979,-43.9163,-33.428800000000003,-34.563400000000001,-29.383900000000001
8773.0,123.931,-46.770699999999998,-125.361,-67.350300000000004,-39.338000000000001,-31.581199999999999,-30.231000000000002
8774.0,125.07899999999999,1.6075900000000001,-76.236900000000006,-26.106999999999999,-40.195900000000002,-40.692399999999999,-19.659500000000001
8775.0,132.69900000000001,83.852599999999995,0.61250800000000005,52.121600000000001,-34.539000000000001,-53.722200000000001,-5.0834599999999996
8776.0,147.03700000000001,109.905,25.406400000000001,88.284800000000004,-22.9604,-68.696799999999996,5.7756999999999996
8777.0,151.041,98.127499999999998,15.9368,82.479799999999997,-14.9312,-73.409800000000004,9.37148
8778.0,142.15199999999999,90.721400000000003,18.2971,90.042199999999994,-9.4028399999999994,-69.889600000000002,5.5309100000000004
8779.0,132.21199999999999,67.537099999999995,3.9048400000000001,77.9803,-8.5957699999999999,-64.366799999999998,1.48061
8780.0,122.742,59.774299999999997,4.8664100000000001,82.039199999999994,-9.7801100000000005,-57.8172,-2.3846500000000002
8781.0,117.965,44.7789,-3.5916100000000002,77.3887,-11.7026,-53.110700000000001,-4.5540099999999999
8782.0,114.911,38.971699999999998,-3.44197,81.526600000000002,-13.2225,-48.838299999999997,-6.0510000000000002
8783.0,113.649,30.0076,-7.3072800000000004,81.995900000000006,-14.2332,-45.238900000000001,-6.6726000000000001
8784.0,112.54000000000001,26.418299999999999,-6.0992899999999999,87.1648,-14.8461,-41.368699999999997,-6.99918
8785.0,111.917,19.824000000000002,-8.3309300000000004,88.753699999999995,-15.1556,-37.445399999999999,-6.9574299999999996
8786.0,111.169,16.9147,-7.3578599999999996,92.962400000000002,-15.363899999999999,-33.111400000000003,-6.9071600000000002
8787.0,96.911199999999994,97.200000000000003,16.434699999999999,33.325699999999998,-28.449200000000001,13.498699999999999,-18.008600000000001
8788.0,96.585599999999999,91.370599999999996,9.1933100000000003,28.2149,-28.910399999999999,8.6707900000000002,-18.654900000000001
8789.0,97.645799999999994,91.334400000000002,7.3811,27.4178,-29.800699999999999,4.3989500000000001,-18.663
8790.0,99.957899999999995,90.875299999999996,4.7749499999999996,24.422799999999999,-31.2179,0.69615400000000005,-17.877700000000001
8791.0,102.53100000000001,94.558300000000003,6.5595499999999998,24.831199999999999,-32.750300000000003,-3.03939,-16.303999999999998
8792.0,106.383,96.851200000000006,5.9176299999999999,21.593399999999999,-34.308799999999998,-6.8064999999999998,-13.6372
8793.0,111.876,105.64100000000001,10.369,22.6008,-35.645200000000003,-10.819699999999999,-9.8677899999999994
8794.0,120.593,117.46599999999999,14.321199999999999,22.463999999999999,-35.862499999999997,-15.768599999999999,-4.9340900000000003
8795.0,131.03800000000001,135.512,23.170999999999999,27.6953,-34.869100000000003,-21.529699999999998,0.227767
8796.0,141.38499999999999,149.49100000000001,27.16,32.472099999999998,-31.5898,-29.512799999999999,3.6409400000000001
8797.0,142.197,157.11600000000001,33.000999999999998,46.480800000000002,-29.638200000000001,-34.946800000000003,1.59666
8798.0,128.102,126.99299999999999,16.816099999999999,50.121499999999997,-27.395800000000001,-37.8506,-9.6926799999999993
8799.0,123.792,26.513000000000002,-67.810000000000002,-11.5585,-30.134499999999999,-36.146099999999997,-25.3339
8800.0,128.381,-38.031599999999997,-120.867,-50.663699999999999,-38.487499999999997,-23.123899999999999,-38.552700000000002
8801.0,131.44200000000001,-58.3628,-135.83199999999999,-57.274999999999999,-41.7254,-19.664100000000001,-40.029800000000002
8802.0,125.70699999999999,-35.840800000000002,-119.166,-51.259999999999998,-42.063699999999997,-28.491099999999999,-26.8508
8803.0,123.908,52.594999999999999,-31.772300000000001,22.851600000000001,-35.060000000000002,-44.147399999999998,-10.416700000000001
8804.0,136.99799999999999,101.389,18.579000000000001,76.855000000000004,-21.721399999999999,-62.958599999999997,3.3653599999999999
8805.0,144.67699999999999,105.017,26.113499999999998,88.9268,-11.5899,-70.804000000000002,9.5536499999999993
8806.0,136.36199999999999,91.558400000000006,23.4818,89.933999999999997,-6.1825599999999996,-67.792299999999997,7.4394900000000002
8807.0,123.871,75.131500000000003,16.243500000000001,84.957300000000004,-5.2558199999999999,-60.799300000000002,3.0808599999999999
8808.0,113.55500000000001,57.778300000000002,7.6304499999999997,79.012799999999999,-7.1397700000000004,-53.885100000000001,-0.35725200000000001
8809.0,108.622,46.133299999999998,1.57223,76.8172,-9.4166799999999995,-49.033299999999997,-2.9114300000000002
8810.0,106.09999999999999,38.212299999999999,-1.82308,77.805499999999995,-11.1858,-44.941000000000003,-4.7322100000000002
8811.0,104.89400000000001,31.115300000000001,-4.8036599999999998,78.871700000000004,-12.2616,-41.486800000000002,-5.8331299999999997
8812.0,103.971,25.881,-5.9656399999999996,81.432599999999994,-13.0236,-37.904499999999999,-6.3669799999999999
8813.0,103.38,21.310099999999998,-6.8007900000000001,84.053200000000004,-13.507199999999999,-34.254600000000003,-6.5648900000000001
8814.0,102.831,17.786100000000001,-6.8810900000000004,87.046400000000006,-13.8781,-30.2943,-6.5635700000000003
8815.0,90.960899999999995,91.442800000000005,16.803000000000001,34.1464,-28.447500000000002,11.537800000000001,-17.023
8816.0,90.693899999999999,84.432100000000005,8.2645,28.3217,-28.755299999999998,7.1811600000000002,-17.454599999999999
8817.0,91.521500000000003,86.003299999999996,8.1590500000000006,29.6541,-29.398900000000001,3.35928,-17.329599999999999
8818.0,93.639499999999998,83.979399999999998,3.9649100000000002,25.200900000000001,-30.562100000000001,0.18399599999999999,-16.452400000000001
8819.0,95.872699999999995,87.835800000000006,5.8681599999999996,25.8095,-31.7669,-2.92042,-14.796200000000001
8820.0,99.809200000000004,91.631299999999996,6.3127899999999997,23.164100000000001,-33.137900000000002,-6.1070799999999998,-11.9742
8821.0,105.444,104.21899999999999,14.0145,26.2743,-33.990400000000001,-9.4989299999999997,-8.1711600000000004
8822.0,115.42700000000001,116.497,17.5228,24.1342,-34.122799999999998,-14.3398,-3.0665200000000001
8823.0,126.554,140.458,31.3111,33.879199999999997,-32.504399999999997,-19.9922,1.62982
8824.0,136.631,150.43299999999999,32.095599999999997,36.340000000000003,-29.846800000000002,-28.4099,4.2746500000000003
8825.0,131.607,151.59999999999999,36.5869,52.174300000000002,-28.7652,-32.450099999999999,-0.56883499999999998
8826.0,118.86,90.835400000000007,-9.7405000000000008,33.674500000000002,-27.431699999999999,-35.285699999999999,-12.9247
8827.0,120.60299999999999,-15.525,-104.946,-35.402200000000001,-33.624200000000002,-28.09,-26.909600000000001
8828.0,129.857,-59.246699999999997,-139.30600000000001,-55.648499999999999,-40.297899999999998,-13.412699999999999,-39.752699999999997
8829.0,134.47399999999999,-56.299599999999998,-132.62799999999999,-44.606499999999997,-41.874499999999998,-10.5725,-43.3292
8830.0,125.649,-43.148499999999999,-125.619,-49.009999999999998,-40.241199999999999,-20.232199999999999,-33.412799999999997
8831.0,119.039,25.043500000000002,-62.885899999999999,-3.39981,-33.744199999999999,-36.754800000000003,-14.853899999999999
8832.0,126.33199999999999,100.875,16.481999999999999,72.238100000000003,-20.937799999999999,-55.125300000000003,0.95745999999999998
8833.0,137.536,111.15000000000001,35.872,96.491,-8.5075599999999998,-67.677999999999997,7.7465200000000003
8834.0,130.22,90.253799999999998,26.477599999999999,86.090000000000003,-3.7390400000000001,-65.638999999999996,7.5411999999999999
8835.0,114.071,71.149799999999999,20.196000000000002,81.483500000000006,-3.0449099999999998,-56.905900000000003,3.6455299999999999
8836.0,104.81399999999999,56.400500000000001,11.555300000000001,76.783900000000003,-6.0872200000000003,-50.097299999999997,1.2858499999999999
8837.0,100.03700000000001,47.301299999999998,6.3426,76.604200000000006,-8.2110400000000006,-44.947899999999997,-1.6068499999999999
8838.0,98.346000000000004,37.573999999999998,0.107234,74.761099999999999,-9.6149000000000004,-41.551900000000003,-3.4156900000000001
8839.0,97.102900000000005,32.810000000000002,-1.4480900000000001,77.168499999999995,-10.6599,-38.098100000000002,-4.9242499999999998
8840.0,96.351200000000006,26.902699999999999,-4.1837999999999997,77.925200000000004,-11.4277,-34.816000000000003,-5.7604699999999998
8841.0,95.582499999999996,23.071899999999999,-4.8018799999999997,80.3262,-12.0504,-31.2865,-6.1360799999999998
8842.0,95.222899999999996,18.8629,-6.0753199999999996,81.973299999999995,-12.5197,-27.705100000000002,-6.2118000000000002
8843.0,86.190799999999996,85.671499999999995,16.4129,34.617600000000003,-28.695,9.9535099999999996,-16.269500000000001
8844.0,85.575199999999995,81.2714,10.5297,32.000500000000002,-28.6874,5.7504499999999998,-16.416599999999999
8845.0,86.599199999999996,79.908100000000005,7.2290700000000001,30.217700000000001,-29.238299999999999,2.5567500000000001,-16.075299999999999
8846.0,88.131299999999996,80.246200000000002,5.6250600000000004,28.667000000000002,-30.0015,-0.13120299999999999,-15.132300000000001
8847.0,90.319500000000005,83.746499999999997,6.8466100000000001,28.110299999999999,-30.880400000000002,-2.82531,-13.445
8848.0,93.941599999999994,88.123999999999995,7.9505699999999999,25.320799999999998,-31.921399999999998,-5.31515,-10.746499999999999
8849.0,100.331,99.820800000000006,13.519299999999999,25.242999999999999,-32.404600000000002,-8.3915199999999999,-6.6155600000000003
8850.0,110.655,117.119,21.9053,26.873799999999999,-32.333500000000001,-12.6974,-1.55087
8851.0,123.411,136.739,29.9772,30.962599999999998,-30.392800000000001,-19.515000000000001,2.74912
8852.0,130.32499999999999,149.11799999999999,35.482300000000002,40.156999999999996,-28.809200000000001,-26.108599999999999,3.9137900000000001
8853.0,119.956,136.77000000000001,30.439499999999999,54.143900000000002,-27.314699999999998,-30.462800000000001,-2.5645099999999998
8854.0,113.23999999999999,52.594900000000003,-41.258699999999997,12.869400000000001,-29.0684,-31.368300000000001,-15.035600000000001
8855.0,119.008,-29.549600000000002,-113.69,-35.022399999999998,-36.258299999999998,-19.215900000000001,-28.648099999999999
8856.0,129.976,-56.779600000000002,-134.18299999999999,-41.1907,-40.050600000000003,-7.7511599999999996,-38.5595
8857.0,131.244,-52.324100000000001,-129.91999999999999,-36.851199999999999,-39.805700000000002,-4.1825700000000001,-40.653100000000002
8858.0,120.34,-48.446199999999997,-131.53899999999999,-48.041699999999999,-34.970599999999997,-13.036099999999999,-33.490400000000001
8859.0,113.88800000000001,9.9132200000000008,-80.397999999999996,-17.376799999999999,-30.783100000000001,-30.4392,-17.434100000000001
8860.0,117.765,101.866,17.424800000000001,70.563400000000001,-20.207699999999999,-48.805,-3.2027299999999999
8861.0,128.994,112.98,41.146799999999999,99.046199999999999,-7.2920600000000002,-63.418900000000001,4.4976000000000003
8862.0,121.723,88.991799999999998,27.142099999999999,84.403400000000005,-3.1944300000000001,-60.918900000000001,5.47736
8863.0,103.79000000000001,78.316800000000001,28.8414,88.702500000000001,-3.78132,-50.460500000000003,2.6619199999999998
8864.0,95.813000000000002,52.959499999999998,10.099,71.690200000000004,-7.0254899999999996,-44.863399999999999,1.03644
8865.0,92.158199999999994,46.858499999999999,8.9944900000000008,74.521699999999996,-8.2354099999999999,-40.9893,-0.98636699999999999
8866.0,91.671800000000005,37.593899999999998,2.2355,72.9315,-8.7641899999999993,-38.339399999999998,-2.2442700000000002
8867.0,90.516400000000004,33.075000000000003,0.22015299999999999,74.521500000000003,-9.3716899999999992,-35.211500000000001,-4.1318299999999999
8868.0,89.357699999999994,26.603200000000001,-3.5101800000000001,73.6751,-10.009600000000001,-31.9603,-5.1566900000000002
8869.0,88.593199999999996,23.634399999999999,-3.9157099999999998,76.025700000000001,-10.754899999999999,-28.621600000000001,-5.6837299999999997
8870.0,88.199200000000005,19.620200000000001,-5.4835399999999996,77.102500000000006,-11.3233,-25.256799999999998,-5.8674799999999996
8871.0,82.0809,77.441699999999997,13.161099999999999,32.224299999999999,-28.977799999999998,8.7578700000000005,-15.470800000000001
8872.0,81.038300000000007,77.1374,11.564299999999999,33.997,-28.728000000000002,4.6173400000000004,-15.223699999999999
8873.0,82.280600000000007,73.473500000000001,5.5885600000000002,29.419699999999999,-29.179600000000001,2.1068899999999999,-14.650700000000001
8874.0,83.169899999999998,76.790800000000004,7.1467099999999997,31.153400000000001,-29.4816,-0.17430699999999999,-13.6008
8875.0,85.201099999999997,75.772099999999995,3.4706100000000002,25.160699999999999,-30.036300000000001,-2.4449299999999998,-11.619199999999999
8876.0,88.487200000000001,84.544899999999998,8.7837399999999999,25.918800000000001,-30.577400000000001,-4.3036000000000003,-8.8373799999999996
8877.0,95.948099999999997,97.443100000000001,14.7157,24.974599999999999,-30.973299999999998,-7.2608600000000001,-4.81182
8878.0,106.883,121.575,29.204999999999998,32.037999999999997,-30.311900000000001,-11.3843,-0.26664900000000002
8879.0,120.29300000000001,137.41200000000001,33.411200000000001,32.9788,-28.789000000000001,-19.005500000000001,3.6103100000000001
8880.0,122.542,150.84700000000001,42.9407,50.382399999999997,-28.067299999999999,-24.107700000000001,2.1404000000000001
8881.0,110.681,115.834,17.4877,50.984099999999998,-26.5077,-29.060199999999998,-6.0289900000000003
8882.0,108.611,13.550599999999999,-74.236800000000002,-12.0623,-30.508199999999999,-26.121500000000001,-16.762499999999999
8883.0,115.196,-41.133000000000003,-119.777,-36.667400000000001,-36.564399999999999,-11.5395,-27.7117
8884.0,124.235,-51.370199999999997,-126.711,-30.279299999999999,-37.287300000000002,-4.18309,-34.159799999999997
8885.0,124.48099999999999,-48.2791,-127.571,-33.525399999999998,-36.010599999999997,-0.92472500000000002,-36.184100000000001
8886.0,114.717,-39.134700000000002,-121.93600000000001,-36.168300000000002,-30.4619,-8.4649000000000001,-31.889199999999999
8887.0,106.15000000000001,-4.13544,-92.262200000000007,-28.358000000000001,-26.426600000000001,-25.3416,-18.508099999999999
8888.0,110.349,76.741500000000002,-5.40341,44.103200000000001,-17.7606,-44.719200000000001,-5.7496
8889.0,118.169,106.90600000000001,37.309800000000003,91.063599999999994,-8.0624000000000002,-57.07,1.40751
8890.0,110.94499999999999,81.003299999999996,24.273099999999999,83.0946,-5.88192,-54.355499999999999,-0.090288499999999994
8891.0,95.841099999999997,51.3125,4.5910799999999998,61.194400000000002,-9.3278999999999996,-45.320700000000002,-2.6043099999999999
8892.0,85.711500000000001,50.540799999999997,7.9439299999999999,64.392799999999994,-10.876899999999999,-38.237900000000003,-1.7038199999999999
8893.0,85.309299999999993,45.185899999999997,8.5350199999999994,72.213700000000003,-8.8677899999999994,-36.3919,-1.1937800000000001
8894.0,86.433300000000003,38.073999999999998,4.0907999999999998,71.209400000000002,-8.5634399999999999,-35.899299999999997,-1.36225
8895.0,84.586100000000002,33.392400000000002,1.91564,72.390000000000001,-8.3126899999999999,-32.493499999999997,-3.6918500000000001
8896.0,83.272999999999996,28.644500000000001,-0.65677399999999997,72.1982,-8.8961199999999998,-29.461300000000001,-4.5241899999999999
8897.0,82.150899999999993,24.274799999999999,-2.9586000000000001,72.197199999999995,-9.6287800000000008,-26.0901,-5.3305499999999997
8898.0,81.846400000000003,21.450399999999998,-3.77711,73.854299999999995,-10.285500000000001,-23.003699999999998,-5.4570699999999999
8899.0,78.230900000000005,74.605199999999996,14.9656,35.154800000000002,-29.1568,7.54779,-14.587400000000001
8900.0,77.525300000000001,74.442899999999995,13.345499999999999,36.561500000000002,-28.9907,3.88849,-14.0236
8901.0,78.367000000000004,71.174000000000007,7.7557499999999999,32.317999999999998,-29.1112,1.88306,-13.1768
8902.0,79.060599999999994,74.013900000000007,8.5118100000000005,32.899799999999999,-29.076899999999998,-0.081448300000000001,-11.9209
8903.0,80.754099999999994,77.2714,8.9831400000000006,30.9756,-29.271599999999999,-1.7487200000000001,-9.9406999999999996
8904.0,84.259600000000006,84.799099999999996,12.148099999999999,29.014399999999998,-29.313300000000002,-3.4758399999999998,-7.0319900000000004
8905.0,91.930999999999997,98.785600000000002,19.334199999999999,27.844799999999999,-29.462399999999999,-6.0064900000000003,-3.1726800000000002
8906.0,104.517,120.288,29.918800000000001,30.0305,-28.327100000000002,-10.886799999999999,1.21566
8907.0,116.504,138.416,37.939999999999998,35.5167,-27.509899999999998,-17.356100000000001,4.2538600000000004
8908.0,113.188,135.375,35.529800000000002,45.497300000000003,-26.141500000000001,-23.6934,1.1535899999999999
8909.0,103.02800000000001,71.004499999999993,-19.562100000000001,19.128699999999998,-25.714700000000001,-27.517600000000002,-7.3983600000000003
8910.0,102.422,-15.334199999999999,-97.776600000000002,-30.059699999999999,-30.550799999999999,-18.907900000000001,-16.513400000000001
8911.0,110.76900000000001,-40.032200000000003,-115.31100000000001,-27.976700000000001,-34.6721,-6.0144399999999996,-24.7319
8912.0,116.83799999999999,-43.446199999999997,-118.583,-22.723199999999999,-33.983699999999999,-1.99807,-29.111599999999999
8913.0,115.45,-36.471299999999999,-116.06399999999999,-23.514399999999998,-31.354199999999999,0.62779600000000002,-30.790199999999999
8914.0,107.244,-36.428600000000003,-118.092,-32.766500000000001,-26.052499999999998,-6.0077499999999997,-28.139900000000001
8915.0,99.148300000000006,-3.30078,-90.919799999999995,-25.160299999999999,-21.590199999999999,-20.340900000000001,-17.805399999999999
8916.0,103.605,61.420999999999999,-22.6066,30.168199999999999,-14.946099999999999,-38.998800000000003,-5.4753100000000003
8917.0,107.283,109.48099999999999,40.0869,93.365899999999996,-10.218500000000001,-49.119399999999999,-0.64117000000000002
8918.0,100.643,43.247999999999998,-7.5849200000000003,54.747,-8.0092599999999994,-46.736199999999997,-5.2621399999999996
8919.0,89.301299999999998,-10.197699999999999,-58.203400000000002,-2.3701500000000002,-12.5482,-39.461799999999997,-5.4487800000000002
8920.0,76.992199999999997,36.535800000000002,-9.7362599999999997,42.0443,-14.9823,-30.449999999999999,-3.93451
8921.0,80.032200000000003,49.858400000000003,12.930199999999999,77.037499999999994,-10.0024,-31.460599999999999,-3.1432799999999999
8922.0,82.597200000000001,35.068399999999997,-0.073582599999999998,64.674700000000001,-8.5271299999999997,-33.9086,-0.97724699999999998
8923.0,79.002799999999993,36.955100000000002,6.4682700000000004,73.767200000000003,-7.38741,-29.6234,-3.5697100000000002
8924.0,77.989699999999999,25.3124,-3.3132799999999998,65.535700000000006,-7.8804400000000001,-27.444199999999999,-3.9912399999999999
8925.0,76.022599999999997,26.8095,0.017807799999999999,70.646900000000002,-8.6310500000000001,-23.580300000000001,-4.9621700000000004
8926.0,76.164000000000001,19.817900000000002,-5.5193300000000001,67.635599999999997,-9.3147199999999994,-21.014500000000002,-5.0252800000000004
8927.0,74.271600000000007,71.203199999999995,16.593499999999999,36.723100000000002,-29.214099999999998,6.5682,-13.3954
8928.0,74.057199999999995,67.703100000000006,11.302,33.6111,-29.171199999999999,3.8658100000000002,-12.4663
8929.0,74.124099999999999,69.5745,11.0626,34.378700000000002,-28.8309,2.06094,-11.327999999999999
8930.0,74.867000000000004,69.049499999999995,7.9339000000000004,30.3902,-28.572099999999999,0.46487400000000001,-9.8038799999999995
8931.0,76.061599999999999,74.645499999999998,10.8439,30.3978,-28.2166,-0.81331699999999996,-7.9463299999999997
8932.0,80.243200000000002,82.664000000000001,13.712300000000001,27.021999999999998,-27.836200000000002,-2.6665700000000001,-5.1420300000000001
8933.0,88.190799999999996,103.271,27.305099999999999,31.880299999999998,-27.430399999999999,-4.7768899999999999,-1.5947100000000001
8934.0,102.685,120.749,33.0565,28.828199999999999,-26.401199999999999,-10.7982,2.8632300000000002
8935.0,112.122,146.94800000000001,51.2532,45.627499999999998,-26.102399999999999,-15.624599999999999,4.7418100000000001
8936.0,104.16200000000001,128.16200000000001,35.2239,48.723100000000002,-23.527000000000001,-23.162199999999999,2.2002299999999999
8937.0,95.504199999999997,37.194400000000002,-48.320300000000003,-4.5150899999999998,-24.347999999999999,-24.408300000000001,-4.8174999999999999
8938.0,95.505099999999999,-29.870799999999999,-106.898,-36.771099999999997,-29.4146,-12.2629,-14.436
8939.0,104.416,-34.865499999999997,-107.01000000000001,-19.190200000000001,-31.332100000000001,-2.9648300000000001,-21.210699999999999
8940.0,107.971,-40.316600000000001,-115.65300000000001,-23.290700000000001,-30.219799999999999,-0.84531999999999996,-23.577400000000001
8941.0,106.235,-25.7807,-104.758,-15.311299999999999,-26.689399999999999,1.07758,-25.635000000000002
8942.0,100.2,-34.474600000000002,-114.345,-30.364699999999999,-22.098400000000002,-4.6249900000000004,-24.401599999999998
8943.0,95.285200000000003,-1.2760100000000001,-87.733500000000006,-19.8064,-19.690100000000001,-16.040500000000002,-17.588799999999999
8944.0,98.307000000000002,72.114900000000006,-11.863300000000001,45.206499999999998,-15.8965,-32.707700000000003,-7.7483000000000004
8945.0,98.589100000000002,105.877,35.7211,92.271799999999999,-12.6052,-41.113599999999998,-2.5616099999999999
8946.0,93.393900000000002,21.570699999999999,-33.713700000000003,37.893000000000001,-9.4072300000000002,-37.075800000000001,-5.9980700000000002
8947.0,86.213499999999996,-39.711599999999997,-99.111699999999999,-33.111800000000002,-14.1197,-30.345500000000001,-6.0047800000000002
8948.0,73.970799999999997,28.138000000000002,-26.959900000000001,26.494399999999999,-17.0623,-22.770600000000002,-5.6240100000000002
8949.0,74.972899999999996,47.6008,9.1534700000000004,72.506900000000002,-10.4567,-26.8064,-5.1979899999999999
8950.0,78.935100000000006,33.5334,-2.1646800000000002,60.011200000000002,-8.3548600000000004,-32.095599999999997,-1.85467
8951.0,73.985100000000003,38.151800000000001,8.4902999999999995,72.4071,-6.8754900000000001,-27.228400000000001,-3.5829900000000001
8952.0,72.947100000000006,26.666799999999999,-1.4798199999999999,63.761499999999998,-6.9356400000000002,-25.3171,-3.7315900000000002
8953.0,70.590999999999994,28.210000000000001,1.6554199999999999,68.231800000000007,-7.8442400000000001,-21.346900000000002,-4.5376399999999997
8954.0,70.833600000000004,21.107900000000001,-4.41805,64.554900000000004,-8.4652499999999993,-19.051300000000001,-4.6660399999999997
8955.0,70.869299999999996,71.268100000000004,21.387899999999998,41.061300000000003,-29.3171,6.0056599999999998,-12.1381
8956.0,70.604399999999998,68.725999999999999,16.8764,37.776000000000003,-29.096599999999999,4.1035000000000004,-10.849
8957.0,70.2667,70.635999999999996,16.7242,37.902900000000002,-28.5154,2.5110800000000002,-9.4140499999999996
8958.0,70.8977,71.462199999999996,14.7239,34.381999999999998,-27.991800000000001,1.2286300000000001,-7.7683499999999999
8959.0,72.120900000000006,79.887500000000003,19.946000000000002,36.348599999999998,-27.2026,0.10198500000000001,-5.8486200000000004
8960.0,76.869200000000006,86.283100000000005,20.5549,30.025200000000002,-26.365100000000002,-1.6729099999999999,-3.03911
8961.0,85.540800000000004,106.133,32.831000000000003,33.055199999999999,-25.2698,-3.85989,0.072962899999999997
8962.0,100.482,123.684,39.448300000000003,30.226299999999998,-24.232600000000001,-10.3971,4.2032499999999997
8963.0,107.501,144.13200000000001,54.097299999999997,43.776600000000002,-23.485800000000001,-14.918100000000001,5.5412499999999998
8964.0,96.177199999999999,120.34,34.908299999999997,46.9861,-21.1798,-22.051300000000001,3.3088500000000001
8965.0,87.238900000000001,35.111600000000003,-43.723300000000002,1.10947,-22.746300000000002,-21.223299999999998,-2.3538600000000001
8966.0,88.0886,-25.462,-97.158299999999997,-27.300000000000001,-27.036100000000001,-8.1336899999999996,-10.898400000000001
8967.0,96.456699999999998,-29.456099999999999,-99.167199999999994,-14.2134,-27.669499999999999,-1.1671499999999999,-16.817
8968.0,99.367099999999994,-28.7254,-103.452,-15.7483,-26.4284,-0.075424400000000003,-18.763200000000001
8969.0,98.197699999999998,-18.8596,-96.818600000000004,-10.5733,-22.807500000000001,0.30827700000000002,-20.734100000000002
8970.0,94.388099999999994,-26.166399999999999,-105.36199999999999,-23.270700000000001,-19.0047,-3.0471400000000002,-20.720400000000001
8971.0,89.822299999999998,-8.3269000000000002,-88.762,-19.439699999999998,-18.601099999999999,-12.15,-17.202000000000002
8972.0,92.891099999999994,41.634999999999998,-36.9512,20.797699999999999,-18.082000000000001,-28.038699999999999,-10.2783
8973.0,92.841200000000001,101.899,29.544899999999998,87.864199999999997,-16.2851,-33.345300000000002,-4.8821300000000001
8974.0,90.811700000000002,33.296900000000001,-25.0151,52.880000000000003,-13.765499999999999,-29.382200000000001,-7.3631599999999997
8975.0,86.607900000000001,-33.259700000000002,-95.964299999999994,-24.745699999999999,-17.149999999999999,-24.865600000000001,-8.66892
8976.0,74.288899999999998,21.633900000000001,-39.170400000000001,16.258500000000002,-17.7104,-18.097999999999999,-8.08399
8977.0,70.774500000000003,48.206699999999998,6.1723100000000004,68.498500000000007,-10.011200000000001,-22.721599999999999,-6.5304099999999998
8978.0,74.283500000000004,30.482299999999999,-5.8114100000000004,54.178100000000001,-6.7695299999999996,-29.5306,-2.9238300000000002
8979.0,69.357699999999994,36.8917,7.4567100000000002,67.983400000000003,-5.9153200000000004,-25.3186,-3.3725000000000001
8980.0,67.854699999999994,26.628900000000002,-0.78422000000000003,60.828299999999999,-6.0709900000000001,-23.0534,-3.6837800000000001
8981.0,65.6434,27.438600000000001,1.1120300000000001,63.851999999999997,-7.0212000000000003,-19.4374,-4.0848199999999997
8982.0,65.709599999999995,21.577300000000001,-4.0043300000000004,60.924300000000002,-7.6791700000000001,-17.100899999999999,-4.25664
8983.0,66.825100000000006,66.625799999999998,22.358699999999999,38.909300000000002,-28.9192,6.4110500000000004,-10.5275
8984.0,65.926400000000001,65.570800000000006,19.710899999999999,35.743400000000001,-28.382100000000001,4.9551699999999999,-8.77637
8985.0,65.378299999999996,68.983199999999997,21.251000000000001,36.164000000000001,-27.661999999999999,3.6226400000000001,-7.0816299999999996
8986.0,65.992900000000006,70.403599999999997,19.8079,32.2851,-26.889399999999998,2.4118900000000001,-5.2970800000000002
8987.0,67.977199999999996,76.720200000000006,22.140899999999998,30.745899999999999,-25.8063,1.25021,-3.4175
8988.0,73.904200000000003,88.147000000000006,26.8977,28.458100000000002,-24.488499999999998,-0.68612099999999998,-1.0027600000000001
8989.0,83.934299999999993,109.759,40.005099999999999,32.490699999999997,-22.7803,-3.3244500000000001,1.7123200000000001
8990.0,98.115799999999993,128.52699999999999,48.997300000000003,32.819899999999997,-21.419799999999999,-9.9803499999999996,5.1055700000000002
8991.0,102.816,148.57900000000001,64.152299999999997,49.772399999999998,-20.501300000000001,-14.6668,6.2219699999999998
8992.0,88.361900000000006,127.623,49.693300000000001,59.4039,-19.157,-20.330300000000001,4.3330000000000002
8993.0,78.0715,43.361499999999999,-26.630800000000001,15.654299999999999,-21.015000000000001,-18.612500000000001,-1.1064499999999999
8994.0,81.010499999999993,-17.613900000000001,-83.917400000000001,-16.979900000000001,-24.443300000000001,-6.1081000000000003,-8.5587599999999995
8995.0,88.704400000000007,-27.342300000000002,-94.608400000000003,-14.3025,-24.5657,-0.15675800000000001,-12.728899999999999
8996.0,90.841899999999995,-22.334800000000001,-95.224299999999999,-13.062799999999999,-22.852499999999999,0.072602200000000006,-14.269399999999999
8997.0,91.046899999999994,-17.072399999999998,-93.441699999999997,-10.7675,-19.713200000000001,-0.73782999999999999,-16.005600000000001
8998.0,89.642300000000006,-20.149799999999999,-97.970299999999995,-17.920200000000001,-17.3827,-1.75084,-17.180900000000001
8999.0,84.917500000000004,-18.998100000000001,-95.341999999999999,-22.634499999999999,-16.4923,-7.07395,-15.065200000000001
9000.0,86.405699999999996,-9.4973700000000001,-84.555000000000007,-22.468800000000002,-17.706,-22.2103,-8.5095200000000002
9001.0,87.553399999999996,62.764600000000002,-7.8979799999999996,46.6494,-18.6677,-28.553000000000001,-4.4783299999999997
9002.0,82.831400000000002,34.115000000000002,-20.0002,51.277700000000003,-13.7675,-26.183,-5.2910700000000004
9003.0,80.145099999999999,-49.0381,-106.309,-37.2879,-13.2203,-23.807600000000001,-5.98691
9004.0,70.642899999999997,9.7788900000000005,-50.079300000000003,3.7564500000000001,-14.2577,-17.764399999999998,-7.6389500000000004
9005.0,66.468299999999999,44.736899999999999,0.65284600000000004,59.288600000000002,-8.4042700000000004,-20.346900000000002,-7.4720500000000003
9006.0,69.178200000000004,37.8279,1.4853499999999999,59.266500000000001,-5.1414099999999996,-26.4193,-4.1971800000000004
9007.0,65.141599999999997,36.739600000000003,7.2064399999999997,64.743600000000001,-5.00143,-23.4498,-3.4267300000000001
9008.0,62.858499999999999,29.5244,2.5046400000000002,60.511099999999999,-5.3776599999999997,-20.7912,-3.65727
9009.0,60.991799999999998,28.084599999999998,1.7308300000000001,60.932499999999997,-6.3601200000000002,-17.496300000000002,-3.7017500000000001
9010.0,61.137700000000002,24.003499999999999,-1.9806900000000001,59.380800000000001,-7.0639599999999998,-15.252700000000001,-3.8384999999999998
9011.0,62.7136,70.407899999999998,31.0214,44.436,-27.9099,6.8610899999999999,-9.1648399999999999
9012.0,61.302799999999998,72.944500000000005,32.664299999999997,43.801099999999998,-27.1022,5.6546900000000004,-7.3162700000000003
9013.0,60.7346,75.058199999999999,33.4467,41.9236,-26.351500000000001,4.5605200000000004,-5.5514599999999996
9014.0,61.869500000000002,79.238799999999998,34.795200000000001,40.019300000000001,-25.683700000000002,3.4186999999999999,-3.8063400000000001
9015.0,65.145799999999994,88.693100000000001,39.205500000000001,40.1877,-24.606100000000001,2.2180499999999999,-1.9550399999999999
9016.0,72.4285,98.619799999999998,41.143700000000003,35.371400000000001,-22.927199999999999,0.110306,0.31745499999999999
9017.0,83.504599999999996,117.32599999999999,50.176900000000003,36.017099999999999,-20.504200000000001,-3.1848700000000001,2.6439499999999998
9018.0,95.934200000000004,133.75800000000001,57.872599999999998,36.600499999999997,-18.3399,-9.7948900000000005,5.2040199999999999
9019.0,96.817499999999995,142.51599999999999,64.817999999999998,47.273600000000002,-17.387799999999999,-14.953900000000001,5.4081400000000004
9020.0,79.581199999999995,115.78,46.838299999999997,53.848399999999998,-17.310199999999998,-18.989699999999999,3.3496999999999999
9021.0,69.032399999999996,37.768900000000002,-23.321000000000002,15.7448,-19.452300000000001,-15.891299999999999,-0.60716099999999995
9022.0,73.766099999999994,-20.1922,-81.006900000000002,-18.793700000000001,-22.1799,-4.3625800000000003,-6.40489
9023.0,81.527900000000002,-20.636199999999999,-85.148799999999994,-10.4603,-22.0428,0.718194,-9.4107099999999999
9024.0,84.313000000000002,-14.0168,-85.143799999999999,-7.4839200000000003,-20.1661,-0.363286,-10.3583
9025.0,84.9084,-9.6782800000000009,-83.997100000000003,-5.3467200000000004,-17.456600000000002,-1.3143,-11.9175
9026.0,84.181899999999999,-17.895299999999999,-92.257400000000004,-14.3856,-15.7628,-0.83294800000000002,-13.367699999999999
9027.0,82.2072,-19.645099999999999,-93.788600000000002,-19.166,-15.649100000000001,-2.6442299999999999,-12.508100000000001
9028.0,81.479500000000002,-21.191299999999998,-94.836399999999998,-27.2743,-17.0091,-14.775,-5.8723200000000002
9029.0,83.772999999999996,31.683399999999999,-39.928600000000003,16.187899999999999,-17.151399999999999,-25.011199999999999,-0.0080799200000000009
9030.0,77.029200000000003,58.315100000000001,1.0039100000000001,65.257199999999997,-11.448399999999999,-24.559899999999999,0.18254999999999999
9031.0,75.320300000000003,0.44042399999999998,-52.503100000000003,16.104600000000001,-7.6199899999999996,-23.140599999999999,-2.2210399999999999
9032.0,67.445099999999996,-2.4773700000000001,-58.053100000000001,-4.3978799999999998,-8.8824400000000008,-20.311800000000002,-5.44123
9033.0,61.0852,46.113599999999998,2.91574,55.102800000000002,-5.91676,-19.436800000000002,-7.2535600000000002
9034.0,63.405099999999997,39.546500000000002,6.0781700000000001,60.366500000000002,-3.4442300000000001,-23.418399999999998,-5.4450900000000004
9035.0,60.728700000000003,35.163899999999998,6.4441800000000002,60.042499999999997,-4.0800700000000001,-21.907699999999998,-3.64744
9036.0,57.6982,28.303699999999999,1.8740399999999999,56.218899999999998,-4.6514899999999999,-18.3596,-3.5299100000000001
9037.0,56.607399999999998,27.110900000000001,0.88311399999999995,56.597299999999997,-5.7319100000000001,-15.745900000000001,-3.2314799999999999
9038.0,56.732799999999997,23.687200000000001,-2.5566200000000001,55.2898,-6.3981300000000001,-13.468,-3.4062399999999999
9039.0,57.284599999999998,66.736199999999997,33.740000000000002,41.106999999999999,-25.9786,8.3227600000000006,-7.0500400000000001
9040.0,55.379100000000001,69.105000000000004,36.465800000000002,39.2363,-24.8749,7.3020199999999997,-4.7622499999999999
9041.0,55.156300000000002,72.944199999999995,40.144399999999997,38.136200000000002,-24.229500000000002,6.1019699999999997,-2.80396
9042.0,57.746299999999998,77.308199999999999,41.8996,35.1449,-23.964300000000001,4.8139000000000003,-1.1084499999999999
9043.0,63.275700000000001,84.241399999999999,42.5428,30.6511,-23.052099999999999,3.30566,0.51272899999999999
9044.0,72.664500000000004,100.428,49.054600000000001,30.664999999999999,-21.144400000000001,0.89516600000000002,2.1855600000000002
9045.0,84.745500000000007,120.52500000000001,57.722900000000003,32.911999999999999,-18.162800000000001,-3.1407099999999999,3.85982
9046.0,94.222700000000003,138.077,66.284499999999994,39.432200000000002,-15.656000000000001,-9.28064,5.2012200000000002
9047.0,88.468100000000007,142.36000000000001,70.669600000000003,54.805300000000003,-14.6295,-13.946400000000001,4.9158099999999996
9048.0,69.860600000000005,100.98999999999999,39.188899999999997,50.892400000000002,-15.741300000000001,-17.172899999999998,2.5416799999999999
9049.0,63.686399999999999,20.0868,-35.5383,6.6357600000000003,-18.7638,-12.4863,-1.30749
9050.0,70.158500000000004,-23.528500000000001,-80.829400000000007,-18.371099999999998,-20.403300000000002,-2.0815299999999999,-4.2747400000000004
9051.0,76.196799999999996,-20.968,-83.2149,-11.8276,-19.841899999999999,0.76958199999999999,-5.6532999999999998
9052.0,78.454099999999997,-10.2576,-79.394199999999998,-6.4170600000000002,-17.808299999999999,-1.14131,-6.8212900000000003
9053.0,78.852400000000003,-11.1394,-82.543999999999997,-8.2827000000000002,-15.223699999999999,-1.82948,-8.1977200000000003
9054.0,78.392300000000006,-16.012699999999999,-86.434700000000007,-11.6898,-14.0267,0.24679899999999999,-9.5315200000000004
9055.0,75.795900000000003,-27.327200000000001,-95.225899999999996,-23.560500000000001,-14.254,-0.61972300000000002,-9.2042599999999997
9056.0,72.445999999999998,-22.2559,-88.216099999999997,-26.239000000000001,-15.5501,-11.1135,-4.0243500000000001
9057.0,77.041799999999995,21.7041,-41.737900000000003,8.8265600000000006,-14.7828,-25.0702,2.6178699999999999
9058.0,73.570400000000006,75.528400000000005,25.709299999999999,75.679599999999994,-9.7595200000000002,-29.375699999999998,4.0236599999999996
9059.0,69.631100000000004,34.5184,-5.3492499999999996,51.218899999999998,-3.0671300000000001,-27.593599999999999,0.79534099999999996
9060.0,63.942399999999999,8.7214899999999993,-35.7819,13.211600000000001,-2.1272500000000001,-24.879100000000001,-2.42231
9061.0,55.836799999999997,37.760100000000001,-0.877278,43.394500000000001,-2.46408,-20.668600000000001,-5.0224500000000001
9062.0,57.085500000000003,43.255400000000002,13.1305,62.368099999999998,-1.66059,-20.8996,-5.52386
9063.0,56.0169,32.380699999999997,3.8938100000000002,53.529800000000002,-3.18954,-20.027200000000001,-3.7790400000000002
9064.0,52.964300000000001,33.866,7.2226299999999997,58.327800000000003,-4.3940000000000001,-15.8474,-3.3608899999999999
9065.0,52.816499999999998,26.605899999999998,-0.50781100000000001,52.384300000000003,-5.3793199999999999,-13.8909,-2.9022199999999998
9066.0,53.002000000000002,28.264199999999999,1.02339,56.002899999999997,-6.01335,-11.6503,-2.9672100000000001
163882.0,3816.04,3641.0900000000001,-237.44999999999999,3397.9499999999998,346.101,98.071799999999996,70.266800000000003
163883.0,3794.1399999999999,3611.1500000000001,-244.18600000000001,3365.23,362.58699999999999,91.482200000000006,0.77968800000000005
163884.0,3774.4299999999998,3598.3299999999999,-235.26900000000001,3344.8800000000001,374.40499999999997,86.331199999999995,-69.0702
163885.0,3756.8299999999999,3579.2399999999998,-233.786,3313.9299999999998,382.13200000000001,80.858999999999995,-139.25399999999999
163886.0,3740.9899999999998,3572.2199999999998,-220.751,3291.3699999999999,385.91000000000003,75.036799999999999,-209.018
163887.0,3726.8899999999999,3557.0500000000002,-216.261,3257.3000000000002,385.86599999999999,68.306100000000001,-278.31400000000002
163888.0,3715.1700000000001,3554.8099999999999,-199.53999999999999,3233.9499999999998,381.95400000000001,60.349400000000003,-346.61200000000002
163889.0,3705.5999999999999,3544.9400000000001,-190.751,3201.0300000000002,374.32299999999998,50.969000000000001,-414.10399999999998
163890.0,3700.23,3546.7199999999998,-171.74799999999999,3180.46,363.16300000000001,40.078499999999998,-480.27300000000002
163891.0,3696.0300000000002,3544.0500000000002,-156.49100000000001,3153.7800000000002,348.46199999999999,27.814800000000002,-545.26499999999999
163892.0,3703.4200000000001,3546.0500000000002,-142.298,3136.52,330.73700000000002,15.3377,-612.46000000000004
163893.0,3707.4699999999998,3564.5999999999999,-109.825,3140.5799999999999,314.40199999999999,-0.066616999999999996,-664.74400000000003
163894.0,3695.0799999999999,3628.0100000000002,-13.078799999999999,3180.75,289.56900000000002,-22.2088,-723.78200000000004
163895.0,3701.8899999999999,3642.75,27.870999999999999,3178.2199999999998,254.815,-42.086100000000002,-795.81299999999999
163896.0,3714.27,3640.2600000000002,46.599699999999999,3167.5999999999999,223.28200000000001,-60.573099999999997,-855.57000000000005
163897.0,3717.3200000000002,3628.5599999999999,69.403300000000002,3149.9099999999999,188.43899999999999,-82.622500000000002,-912.56299999999999
163898.0,3719.1900000000001,3618.1300000000001,98.887,3139.3699999999999,149.744,-104.428,-966.61099999999999
163899.0,3716.2399999999998,3595.29,124.995,3122.7800000000002,108.059,-127.19199999999999,-1016.59
163900.0,3711.4699999999998,3572.8600000000001,158.02500000000001,3112.4099999999999,64.035499999999999,-149.90199999999999,-1063.73
163901.0,3704.29,3537.4299999999998,184.29499999999999,3094.4699999999998,18.346900000000002,-172.32300000000001,-1107.1400000000001
163902.0,3695.3499999999999,3505.0799999999999,218.584,3084.0900000000001,-29.534300000000002,-193.71799999999999,-1146.8399999999999
163903.0,3684.9000000000001,3462.9400000000001,247.364,3068.4299999999998,-79.339100000000002,-213.44399999999999,-1182.6400000000001
163904.0,3673.54,3424.5,282.98000000000002,3059.8699999999999,-130.93299999999999,-231.244,-1214.7
163905.0,3662.02,3377.9899999999998,312.34199999999998,3045.9699999999998,-184.19200000000001,-246.68000000000001,-1243.04
163906.0,3650.8800000000001,3338.3299999999999,348.69,3040.1300000000001,-239.05600000000001,-260.03500000000003,-1267.4400000000001
163907.0,3641.8400000000001,3294.9899999999998,380.43099999999998,3032.6799999999998,-296.05700000000002,-271.03800000000001,-1288.51
163908.0,2685.6100000000001,1981.0799999999999,-335.72000000000003,2474.9200000000001,365.54500000000002,-108.008,83.848799999999997
163909.0,2680.7800000000002,1984.8399999999999,-315.35399999999998,2500.9099999999999,376.22199999999998,-73.253299999999996,22.8506
163910.0,2678.5799999999999,1963.1199999999999,-324.55399999999997,2492.5999999999999,383.56,-36.7502,-37.737499999999997
163911.0,2675.6500000000001,1972.6700000000001,-305.54599999999999,2503.0,387.34899999999999,0.74091399999999996,-98.778099999999995
163912.0,2673.52,1962.2,-310.45800000000003,2482.0300000000002,387.52800000000002,37.966500000000003,-159.45400000000001
163913.0,2671.29,1982.78,-287.59100000000001,2480.5,384.005,74.137600000000006,-219.565
163914.0,2670.21,1981.8399999999999,-289.99799999999999,2447.21,377.04500000000002,108.55,-278.76100000000002
163915.0,2669.6799999999998,2011.6099999999999,-264.86099999999999,2434.6599999999999,366.572,140.583,-336.85399999999998
163916.0,2672.3200000000002,2019.4000000000001,-266.15899999999999,2392.4099999999999,353.02499999999998,170.11199999999999,-393.77999999999997
163917.0,2675.02,2059.9899999999998,-237.00800000000001,2374.3099999999999,336.22300000000001,196.09200000000001,-448.80000000000001
163918.0,2686.4299999999998,2074.3099999999999,-241.095,2325.71,315.214,220.114,-505.66800000000001
163919.0,2698.3200000000002,2133.9699999999998,-203.44900000000001,2319.9699999999998,295.904,241.488,-550.88300000000004
163920.0,2694.6500000000001,2210.9099999999999,-134.93000000000001,2320.5999999999999,272.851,254.54300000000001,-597.51999999999998
163921.0,2701.0700000000002,2292.02,-65.911600000000007,2323.3499999999999,238.22999999999999,263.24099999999999,-653.952
163922.0,2714.8200000000002,2319.5999999999999,-59.279299999999999,2273.3299999999999,201.94900000000001,270.11599999999999,-701.87300000000005
163923.0,2721.71,2368.4299999999998,-24.5154,2241.4400000000001,164.566,271.25299999999999,-745.48699999999997
163924.0,2726.7199999999998,2384.4000000000001,-17.415099999999999,2177.1300000000001,126.027,267.80500000000001,-787.05399999999997
163925.0,2727.7800000000002,2416.3200000000002,11.811199999999999,2130.3299999999999,86.9208,259.673,-824.63699999999994
163926.0,2723.6100000000001,2421.5300000000002,20.843499999999999,2060.1900000000001,45.8187,246.33000000000001,-856.99699999999996
163927.0,2714.6399999999999,2445.9000000000001,55.166899999999998,2012.1800000000001,2.3037399999999999,228.303,-884.31899999999996
163928.0,2702.3099999999999,2442.1399999999999,67.206299999999999,1940.6300000000001,-41.949800000000003,206.74700000000001,-907.04100000000005
163929.0,2686.7199999999998,2454.3299999999999,100.758,1890.1400000000001,-86.591999999999999,181.61699999999999,-925.07399999999996
163930.0,2668.8899999999999,2440.8000000000002,113.158,1819.0799999999999,-131.37700000000001,153.32300000000001,-938.68399999999997
163931.0,2650.2399999999998,2444.6700000000001,146.18000000000001,1770.76,-176.22,122.396,-948.23400000000004
163932.0,2630.0799999999999,2424.1199999999999,158.75399999999999,1704.48,-220.26599999999999,89.018299999999996,-953.67600000000004
163933.0,2612.5999999999999,2417.6999999999998,186.625,1657.21,-265.26999999999998,54.386699999999998,-956.79600000000005
163934.0,1838.0999999999999,774.76199999999994,-303.23099999999999,1697.8900000000001,251.178,-237.32300000000001,60.584699999999998
163935.0,1843.3299999999999,772.07899999999995,-293.24200000000002,1737.54,261.63,-178.97499999999999,17.123899999999999
163936.0,1850.52,758.30100000000004,-300.654,1752.6900000000001,268.68099999999998,-119.146,-26.270900000000001
163937.0,1855.52,769.41600000000005,-287.12200000000001,1776.76,272.404,-57.801200000000001,-70.694199999999995
163938.0,1860.27,767.923,-291.553,1772.9000000000001,272.94900000000001,3.8977400000000002,-115.28400000000001
163939.0,1863.77,790.23900000000003,-276.99799999999999,1776.97,270.08100000000002,64.972399999999993,-159.61600000000001
163940.0,1867.0599999999999,801.02099999999996,-279.17000000000002,1754.5599999999999,264.09800000000001,124.497,-203.42400000000001
163941.0,1870.03,836.17899999999997,-262.089,1741.9300000000001,254.89599999999999,181.51599999999999,-246.25299999999999
163942.0,1874.1500000000001,858.93600000000004,-263.13299999999998,1703.5799999999999,242.83099999999999,235.52500000000001,-288.04300000000001
163943.0,1879.1199999999999,906.375,-244.685,1677.47,227.94900000000001,285.69900000000001,-328.25099999999998
163944.0,1887.8,940.55399999999997,-246.023,1626.77,210.21299999999999,332.59899999999999,-367.988
163945.0,1900.0699999999999,1004.22,-225.02600000000001,1595.3,192.148,375.62799999999999,-403.82999999999998
163946.0,1908.23,1067.29,-203.51499999999999,1552.77,173.81899999999999,412.11000000000001,-437.267
163947.0,1915.4200000000001,1164.0,-145.90799999999999,1537.8900000000001,149.46000000000001,441.81900000000002,-472.85500000000002
163948.0,1925.22,1234.1400000000001,-118.03700000000001,1491.3900000000001,119.636,466.08199999999999,-506.44
163949.0,1937.4000000000001,1309.23,-88.865200000000002,1444.54,87.101500000000001,483.76100000000002,-537.43799999999999
163950.0,1946.29,1360.1600000000001,-84.839600000000004,1373.45,53.677399999999999,492.31900000000002,-561.202
163951.0,1945.1900000000001,1431.27,-55.050699999999999,1319.3599999999999,16.0227,489.87599999999998,-579.56799999999998
163952.0,1943.55,1474.3,-48.948500000000003,1234.6700000000001,-23.245999999999999,481.524,-596.51300000000003
163953.0,1937.6500000000001,1526.6400000000001,-25.887599999999999,1164.75,-59.2774,468.02800000000002,-607.54700000000003
163954.0,1924.4000000000001,1549.74,-22.261500000000002,1071.9400000000001,-95.219800000000006,446.80900000000003,-613.41600000000005
163955.0,1907.8800000000001,1588.6600000000001,2.21943,1000.36,-130.274,419.31099999999998,-614.28200000000004
163956.0,1887.9400000000001,1600.29,5.4841600000000001,908.80200000000002,-164.09999999999999,386.03100000000001,-610.38599999999997
163957.0,1867.03,1627.1900000000001,28.067399999999999,840.15899999999999,-196.76400000000001,347.79599999999999,-602.41399999999999
163958.0,1844.1600000000001,1629.3499999999999,31.0029,756.01900000000001,-227.28700000000001,305.14499999999998,-590.21199999999999
163959.0,1823.9100000000001,1648.27,52.4696,696.17899999999997,-257.73700000000002,258.49900000000002,-575.37900000000002
163960.0,1364.0699999999999,-4.3986799999999997,-275.15499999999997,1085.73,116.593,-294.66300000000001,29.2331
163961.0,1370.0999999999999,11.193300000000001,-245.59899999999999,1156.53,125.23999999999999,-229.67400000000001,2.4577300000000002
163962.0,1377.3099999999999,-21.9239,-271.637,1163.8599999999999,131.41200000000001,-162.054,-24.753399999999999
163963.0,1382.4100000000001,3.0054099999999999,-244.56399999999999,1212.1199999999999,134.86699999999999,-92.096999999999994,-53.116100000000003
163964.0,1386.9200000000001,-16.554600000000001,-267.87799999999999,1199.24,135.65100000000001,-21.095099999999999,-81.916200000000003
163965.0,1390.0699999999999,22.366,-238.46600000000001,1227.4300000000001,133.56200000000001,49.964399999999998,-110.69199999999999
163966.0,1392.49,15.647600000000001,-260.786,1192.97,128.79499999999999,120.027,-139.15899999999999
163967.0,1394.3,67.180099999999996,-230.96000000000001,1200.1500000000001,121.31399999999999,188.10400000000001,-166.80699999999999
163968.0,1396.0699999999999,73.564800000000005,-252.45099999999999,1146.4100000000001,111.386,253.315,-193.434
163969.0,1398.7,138.59999999999999,-222.08099999999999,1136.48,99.111199999999997,314.95499999999998,-218.72200000000001
163970.0,1402.51,159.81299999999999,-242.928,1068.1800000000001,84.7971,372.22500000000002,-242.64500000000001
163971.0,1409.04,238.61500000000001,-214.50800000000001,1044.27,68.5154,424.62700000000001,-265.15899999999999
163972.0,1417.3900000000001,276.63,-233.673,967.17200000000003,51.567599999999999,471.38900000000001,-285.62799999999999
163973.0,1427.78,372.65699999999998,-199.185,937.89800000000002,34.319899999999997,511.416,-305.86000000000001
163974.0,1438.5599999999999,423.10500000000002,-211.929,856.41099999999994,14.507,543.07500000000005,-325.495
163975.0,1455.1400000000001,520.90800000000002,-183.38499999999999,818.5,-10.051299999999999,567.85199999999998,-344.28100000000001
163976.0,1464.46,586.45399999999995,-186.238,748.57399999999996,-32.999600000000001,584.06799999999998,-350.892
163977.0,1456.9000000000001,733.08799999999997,-92.662800000000004,750.50599999999997,-62.880099999999999,587.29200000000003,-355.625
163978.0,1459.28,790.01700000000005,-91.531000000000006,658.20799999999997,-96.997600000000006,584.45399999999995,-364.32900000000001
163979.0,1457.99,867.31200000000001,-67.873699999999999,595.03300000000002,-122.914,574.32799999999997,-363.67899999999997
163980.0,1445.77,894.08100000000002,-82.208799999999997,486.423,-148.822,553.30499999999995,-357.78199999999998
163981.0,1432.3399999999999,958.99000000000001,-54.2468,422.387,-173.06299999999999,525.63300000000004,-347.36900000000003
163982.0,1415.24,970.697,-72.408699999999996,314.149,-195.291,490.83999999999997,-332.392
163983.0,1398.3399999999999,1024.1099999999999,-44.763599999999997,256.71600000000001,-215.70500000000001,450.38200000000001,-314.16000000000003
163984.0,1380.1500000000001,1024.46,-64.528499999999994,157.55199999999999,-233.31,404.69299999999998,-292.584
163985.0,1364.6700000000001,1064.05,-42.3018,107.598,-249.596,354.529,-269.38999999999999
163986.0,1142.75,-402.76600000000002,-197.36799999999999,696.87800000000004,1.6138600000000001,-305.68700000000001,0.59201300000000001
163987.0,1146.95,-432.12200000000001,-209.35400000000001,728.43899999999996,8.2320600000000006,-242.75700000000001,-12.8751
163988.0,1151.5,-433.79199999999997,-200.006,773.38800000000003,13.024900000000001,-176.56200000000001,-27.152699999999999
163989.0,1154.76,-449.19900000000001,-209.81200000000001,788.428,15.724600000000001,-107.357,-42.454300000000003
163990.0,1157.4100000000001,-438.60000000000002,-199.87700000000001,812.98699999999997,16.323,-36.317100000000003,-58.219700000000003
163991.0,1159.1500000000001,-442.19999999999999,-210.221,806.221,14.5977,35.537599999999998,-74.043099999999995
163992.0,1160.3599999999999,-418.05700000000002,-199.19499999999999,810.17600000000004,10.6653,107.01900000000001,-89.603899999999996
163993.0,1160.9100000000001,-407.59399999999999,-208.553,783.33900000000006,4.5635700000000003,177.012,-104.47799999999999
163994.0,1161.24,-369.83800000000002,-197.834,767.26599999999996,-3.4218500000000001,244.51900000000001,-118.42700000000001
163995.0,1161.49,-345.36900000000003,-207.79400000000001,721.87900000000002,-13.181900000000001,308.67500000000001,-131.107
163996.0,1162.78,-293.68200000000002,-198.07599999999999,689.34000000000003,-24.494199999999999,368.73099999999999,-142.46000000000001
163997.0,1165.1400000000001,-252.738,-206.95400000000001,632.36199999999997,-37.162199999999999,423.80700000000002,-152.315
163998.0,1169.79,-186.25800000000001,-199.78100000000001,588.64400000000001,-51.069000000000003,473.00599999999997,-161.50700000000001
163999.0,1175.8699999999999,-131.31399999999999,-213.51400000000001,521.97900000000004,-66.333299999999994,515.33299999999997,-168.846
164000.0,1186.1199999999999,-50.400100000000002,-207.81100000000001,473.98500000000001,-82.794499999999999,550.56899999999996,-177.61600000000001
164001.0,1198.96,23.565799999999999,-216.16999999999999,417.08199999999999,-98.155299999999997,578.32299999999998,-181.25399999999999
164002.0,1199.8099999999999,157.749,-158.714,409.69499999999999,-113.196,595.01700000000005,-178.52799999999999
164003.0,1198.78,270.99400000000003,-111.902,370.548,-132.864,602.49800000000005,-182.98699999999999
164004.0,1203.5899999999999,358.75099999999998,-91.474400000000003,311.61700000000002,-152.81299999999999,603.24900000000002,-185.43000000000001
164005.0,1200.21,411.29399999999998,-101.64700000000001,223.11500000000001,-170.297,593.56399999999996,-177.52099999999999
164006.0,1190.9000000000001,476.90699999999998,-90.444000000000003,151.01400000000001,-186.88,574.11699999999996,-164.773
164007.0,1179.8199999999999,516.94399999999996,-98.825400000000002,61.933700000000002,-201.49799999999999,547.25999999999999,-147.94999999999999
164008.0,1167.3699999999999,569.346,-89.0137,-5.5925700000000003,-213.99000000000001,513.49900000000002,-127.62
164009.0,1155.2,597.08900000000006,-98.999499999999998,-87.058300000000003,-224.279,474.05599999999998,-104.931
164010.0,1143.0899999999999,638.13300000000004,-90.568100000000001,-143.37700000000001,-231.88499999999999,429.642,-80.212599999999995
164011.0,1132.75,657.21900000000005,-100.54300000000001,-210.42099999999999,-237.452,381.00700000000001,-54.603099999999998
164012.0,1024.9100000000001,-605.78800000000001,-178.697,408.76100000000002,-85.691199999999995,-287.83199999999999,-22.087599999999998
164013.0,1029.0,-593.06799999999998,-145.208,482.28699999999998,-81.426299999999998,-232.053,-26.159800000000001
164014.0,1032.5899999999999,-643.11300000000006,-180.09700000000001,480.06400000000002,-78.336100000000002,-172.30199999999999,-31.150700000000001
164015.0,1035.54,-621.56399999999996,-148.61199999999999,535.28099999999995,-76.840900000000005,-109.13800000000001,-36.798900000000003
164016.0,1038.24,-659.41999999999996,-182.251,516.27300000000002,-77.022400000000005,-43.652200000000001,-42.7883
164017.0,1040.48,-624.697,-149.607,554.05499999999995,-78.941699999999997,23.095400000000001,-48.788400000000003
164018.0,1042.28,-650.30600000000004,-184.041,515.38699999999994,-82.467799999999997,90.040700000000001,-54.499499999999998
164019.0,1043.6700000000001,-603.01700000000005,-152.41499999999999,533.43299999999999,-87.677199999999999,156.066,-59.584000000000003
164020.0,1044.8599999999999,-614.81899999999996,-186.911,476.73000000000002,-94.377600000000001,220.101,-63.7286
164021.0,1045.77,-552.96500000000003,-155.40700000000001,478.55599999999998,-102.267,280.976,-66.852699999999999
164022.0,1046.3699999999999,-549.62300000000005,-191.374,407.40899999999999,-110.678,337.88299999999998,-68.926699999999997
164023.0,1047.0599999999999,-472.99099999999999,-163.34,396.24200000000002,-119.47799999999999,390.05399999999997,-70.234499999999997
164024.0,1049.55,-452.24299999999999,-200.672,318.69,-128.71100000000001,437.10500000000002,-70.718100000000007
164025.0,1052.97,-353.87299999999999,-167.80600000000001,308.745,-137.83099999999999,478.16699999999997,-71.726699999999994
164026.0,1060.49,-319.37200000000001,-211.297,228.24299999999999,-147.346,513.38800000000003,-73.9953
164027.0,1064.0799999999999,-182.47,-158.12700000000001,242.584,-154.71899999999999,540.36699999999996,-67.204099999999997
164028.0,1060.4400000000001,-74.9375,-123.544,212.40899999999999,-166.32599999999999,556.85699999999997,-64.231499999999997
164029.0,1062.5699999999999,48.314799999999998,-75.128900000000002,195.57400000000001,-180.904,566.33500000000004,-67.259699999999995
164030.0,1061.1700000000001,81.287700000000001,-115.70699999999999,94.721999999999994,-190.89699999999999,566.84900000000005,-61.009599999999999
164031.0,1054.0599999999999,177.858,-82.552899999999994,58.637700000000002,-201.405,557.11300000000006,-49.157299999999999
164032.0,1046.1300000000001,201.17500000000001,-117.976,-45.452199999999998,-210.31999999999999,539.87800000000004,-33.212699999999998
164033.0,1036.1900000000001,282.71600000000001,-88.768799999999999,-82.999099999999999,-217.34,514.95000000000005,-13.7959
164034.0,1026.51,294.68299999999999,-124.577,-180.542,-222.33099999999999,484.041,7.5940899999999996
164035.0,1016.8099999999999,365.64600000000002,-96.486999999999995,-208.20599999999999,-225.06700000000001,447.76100000000002,30.472300000000001
164036.0,1007.74,367.79000000000002,-132.75299999999999,-293.28100000000001,-225.553,407.23500000000001,53.981200000000001
164037.0,999.221,427.06400000000002,-107.76300000000001,-309.51900000000001,-223.661,363.13900000000001,77.698700000000002
164038.0,923.40999999999997,-604.59100000000001,-116.268,284.65899999999999,-137.79400000000001,-256.13200000000001,-36.190300000000001
164039.0,929.19799999999998,-659.41200000000003,-147.31100000000001,287.029,-136.048,-208.91499999999999,-34.738300000000002
164040.0,934.10699999999997,-649.99199999999996,-118.562,342.30000000000001,-135.22399999999999,-157.58199999999999,-34.0364
164041.0,938.428,-693.28999999999996,-147.946,332.786,-135.34399999999999,-102.718,-33.525700000000001
164042.0,942.21900000000005,-674.86099999999999,-121.47799999999999,371.76299999999998,-136.501,-45.198500000000003,-33.063000000000002
164043.0,945.976,-707.94299999999998,-152.65299999999999,345.56900000000002,-138.916,14.0185,-32.453400000000002
164044.0,949.74800000000005,-676.97400000000005,-126.20999999999999,369.26900000000001,-142.624,73.681399999999996,-31.504999999999999
164045.0,953.06399999999996,-696.73299999999995,-157.60599999999999,327.67099999999999,-147.28,132.62,-30.084599999999998
164046.0,955.327,-653.13699999999994,-133.55099999999999,334.70699999999999,-152.489,189.73099999999999,-28.054300000000001
164047.0,956.65800000000002,-659.55999999999995,-167.5,277.47399999999999,-158.29400000000001,244.30600000000001,-25.087
164048.0,957.98599999999999,-600.64300000000003,-144.31,273.33800000000002,-164.74700000000001,295.34399999999999,-21.3855
164049.0,958.99900000000002,-588.21400000000006,-176.44200000000001,211.61500000000001,-171.36000000000001,341.95999999999998,-16.753799999999998
164050.0,959.61099999999999,-511.76799999999997,-154.55199999999999,203.786,-176.64500000000001,384.11399999999998,-14.1028
164051.0,959.86199999999997,-484.14699999999999,-194.75700000000001,140.80199999999999,-180.61199999999999,420.17700000000002,-11.146000000000001
164052.0,959.06100000000004,-367.50200000000001,-155.32499999999999,156.28399999999999,-186.16300000000001,450.01299999999998,-4.3487099999999996
164053.0,957.53800000000001,-272.53100000000001,-133.786,136.41300000000001,-191.221,475.19600000000003,0.66042000000000001
164054.0,955.77300000000002,-146.70400000000001,-75.850300000000004,141.91399999999999,-196.048,493.39800000000002,0.10059999999999999
164055.0,953.67600000000004,-104.61199999999999,-103.595,64.215900000000005,-202.32499999999999,502.77199999999999,2.63036
164056.0,948.53800000000001,-13.5749,-80.0197,34.805500000000002,-207.83500000000001,503.21100000000001,12.9689
164057.0,940.70500000000004,16.115400000000001,-111.146,-54.058900000000001,-212.84899999999999,494.85899999999998,26.860800000000001
164058.0,932.17899999999997,95.162899999999993,-88.385599999999997,-87.165300000000002,-216.374,479.34300000000002,43.694200000000002
164059.0,923.02599999999995,115.473,-119.589,-171.22300000000001,-218.17699999999999,457.28899999999999,62.651600000000002
164060.0,913.89999999999998,185.87299999999999,-96.620999999999995,-195.857,-218.108,429.86799999999999,82.572400000000002
164061.0,904.75199999999995,197.035,-128.58699999999999,-269.517,-216.04900000000001,397.899,102.946
164062.0,895.822,258.428,-106.41200000000001,-282.43099999999998,-212.184,362.28399999999999,122.97799999999999
164063.0,886.85900000000004,263.15899999999999,-136.77500000000001,-341.14600000000002,-206.03200000000001,323.839,142.71899999999999
164064.0,813.43499999999995,-574.35400000000004,-121.05800000000001,180.29499999999999,-161.19999999999999,-220.08000000000001,-42.901000000000003
164065.0,820.29100000000005,-579.73500000000001,-102.096,225.245,-161.203,-181.42599999999999,-38.857900000000001
164066.0,825.93299999999999,-622.11500000000001,-123.346,224.024,-161.62899999999999,-138.279,-35.296399999999998
164067.0,831.66899999999998,-621.32799999999997,-105.804,256.35000000000002,-163.09399999999999,-91.864099999999993,-31.289999999999999
164068.0,837.399,-652.80100000000004,-125.855,245.423,-165.68000000000001,-42.856299999999997,-27.171900000000001
164069.0,842.87599999999998,-639.72500000000002,-107.935,267.32999999999998,-168.833,7.7286400000000004,-22.805499999999999
164070.0,847.73299999999995,-660.375,-130.91900000000001,242.965,-172.40299999999999,58.972000000000001,-18.096399999999999
164071.0,852.25400000000002,-635.32299999999998,-115.26300000000001,251.63200000000001,-176.74299999999999,109.905,-12.949
164072.0,856.68700000000001,-641.76300000000003,-138.17500000000001,216.88,-181.88999999999999,159.19999999999999,-7.30098
164073.0,859.27300000000002,-601.33500000000004,-121.65000000000001,216.60300000000001,-186.86699999999999,205.60300000000001,-1.38167
164074.0,859.68399999999997,-595.75599999999997,-148.70099999999999,170.33500000000001,-190.19,249.14400000000001,4.2187599999999996
164075.0,857.63199999999995,-543.02300000000002,-136.929,160.71700000000001,-191.68799999999999,289.041,9.7858599999999996
164076.0,856.17399999999998,-521.69399999999996,-169.249,112.718,-193.53999999999999,325.09300000000002,12.9611
164077.0,856.26400000000001,-430.86200000000002,-141.97800000000001,130.18600000000001,-195.19399999999999,356.44499999999999,22.911799999999999
164078.0,853.35599999999999,-327.80399999999997,-98.259799999999998,142.94999999999999,-198.423,383.44299999999998,30.408300000000001
164079.0,851.26999999999998,-220.958,-53.158200000000001,149.32400000000001,-201.339,407.25200000000001,28.014099999999999
164080.0,847.91700000000003,-181.85400000000001,-80.052400000000006,88.822800000000001,-202.01499999999999,423.35500000000002,30.4008
164081.0,841.92100000000005,-104.46299999999999,-64.776600000000002,62.031500000000001,-204.84100000000001,430.48000000000002,37.967100000000002
164082.0,835.81100000000004,-70.777900000000002,-89.505300000000005,-8.6333800000000007,-207.328,430.899,49.0852
164083.0,828.15200000000004,-2.4576500000000001,-75.382999999999996,-41.606999999999999,-208.988,423.77800000000002,63.374400000000001
164084.0,819.81100000000004,25.3202,-98.489699999999999,-109.59,-209.28100000000001,410.27499999999998,79.352699999999999
164085.0,810.83399999999995,85.516599999999997,-85.392399999999995,-137.54900000000001,-207.95599999999999,391.17500000000001,96.291700000000006
164086.0,801.59199999999998,105.66200000000001,-109.105,-197.30799999999999,-204.99000000000001,367.495,113.25700000000001
164087.0,791.94899999999996,159.596,-95.306299999999993,-214.18100000000001,-200.28999999999999,339.96699999999998,129.995
164088.0,782.53200000000004,172.82300000000001,-118.86499999999999,-262.86200000000002,-194.27699999999999,309.541,145.898
164089.0,772.56700000000001,218.65000000000001,-105.663,-268.94400000000002,-186.251,276.928,161.17400000000001
164090.0,692.02700000000004,-466.87200000000001,-99.515500000000003,159.529,-157.637,-184.17500000000001,-42.328600000000002
164091.0,702.76300000000003,-506.42599999999999,-112.98999999999999,165.977,-160.53200000000001,-152.483,-38.472200000000001
164092.0,712.24300000000005,-514.82100000000003,-97.476500000000001,194.09800000000001,-164.77500000000001,-117.56699999999999,-34.115299999999998
164093.0,719.745,-546.26300000000003,-110.07299999999999,190.078,-168.49299999999999,-79.556299999999993,-29.441400000000002
164094.0,725.78499999999997,-548.82799999999997,-99.8523,205.852,-171.53100000000001,-38.784399999999998,-23.759799999999998
164095.0,731.59299999999996,-570.53300000000002,-115.68000000000001,192.94499999999999,-174.87100000000001,3.7412299999999998,-17.578600000000002
164096.0,737.50699999999995,-558.94399999999996,-105.30200000000001,203.523,-178.584,46.883400000000002,-11.335599999999999
164097.0,742.02099999999996,-567.10699999999997,-121.90300000000001,183.72900000000001,-181.578,89.277699999999996,-5.2934900000000003
164098.0,744.04399999999998,-545.84299999999996,-116.27500000000001,182.05199999999999,-183.178,130.715,0.37488300000000002
164099.0,744.70699999999999,-543.87099999999998,-137.90299999999999,151.392,-184.35900000000001,169.869,6.0593899999999996
164100.0,743.33299999999997,-503.03300000000002,-130.09399999999999,148.82599999999999,-186.84200000000001,205.27500000000001,12.9102
164101.0,741.19500000000005,-477.31599999999997,-145.94999999999999,121.947,-190.364,237.60400000000001,17.731999999999999
164102.0,742.64499999999998,-417.11000000000001,-134.27600000000001,127.29900000000001,-192.31899999999999,268.59399999999999,24.0488
164103.0,742.38900000000001,-340.80099999999999,-103.768,140.34299999999999,-190.59299999999999,297.32600000000002,33.2637
164104.0,738.452,-240.785,-47.645400000000002,163.27799999999999,-189.50899999999999,322.31999999999999,33.526000000000003
164105.0,736.54200000000003,-200.542,-61.132300000000001,122.876,-190.35400000000001,342.37400000000002,32.571100000000001
164106.0,733.64099999999996,-141.31299999999999,-56.838999999999999,97.936099999999996,-191.28899999999999,355.76100000000002,39.122300000000003
164107.0,728.94399999999996,-105.014,-71.399299999999997,44.883899999999997,-193.04400000000001,362.411,48.222000000000001
164108.0,723.27999999999997,-48.831800000000001,-64.436999999999998,13.010400000000001,-194.04300000000001,362.59300000000002,59.7804
164109.0,716.24199999999996,-18.481000000000002,-80.432900000000004,-41.705500000000001,-194.089,356.37,73.153899999999993
164110.0,708.43399999999997,31.7728,-74.1113,-71.198800000000006,-192.786,344.803,87.178100000000001
164111.0,699.60699999999997,57.613399999999999,-89.397499999999994,-118.64700000000001,-189.99600000000001,328.41000000000003,101.369
164112.0,690.35299999999995,103.916,-81.599800000000002,-138.53200000000001,-185.80799999999999,308.24900000000002,115.098
164113.0,680.51199999999994,124.086,-96.729900000000001,-176.72,-180.202,284.91899999999998,128.221
164114.0,670.43399999999997,164.19900000000001,-89.262799999999999,-187.602,-173.55000000000001,259.12900000000002,140.048
164115.0,659.90099999999995,179.87799999999999,-102.52500000000001,-214.536,-165.22999999999999,231.63499999999999,151.29599999999999
164116.0,574.63199999999995,-336.97800000000001,-83.088099999999997,173.14699999999999,-143.916,-151.04900000000001,-38.503
164117.0,586.15999999999997,-373.12599999999998,-90.859200000000001,181.256,-143.614,-125.069,-37.6419
164118.0,595.35500000000002,-419.45999999999998,-108.44,167.798,-145.774,-97.969300000000004,-31.343499999999999
164119.0,602.95000000000005,-433.06599999999997,-99.427099999999996,177.24100000000001,-150.339,-66.820800000000006,-26.969200000000001
164120.0,610.404,-454.90699999999998,-107.798,171.244,-155.62700000000001,-33.422699999999999,-21.412299999999998
164121.0,616.65700000000004,-452.94,-99.664400000000001,181.26900000000001,-159.714,1.53352,-15.9085
164122.0,621.48500000000001,-463.87700000000001,-112.56999999999999,170.74799999999999,-161.91999999999999,36.834899999999998,-10.040900000000001
164123.0,624.36099999999999,-447.81900000000002,-108.146,177.05600000000001,-164.15199999999999,71.503100000000003,-4.37399
164124.0,625.88300000000004,-435.90800000000002,-117.51300000000001,168.78800000000001,-167.65799999999999,104.718,1.0424899999999999
164125.0,627.221,-400.49599999999998,-108.86199999999999,175.858,-171.47399999999999,136.541,6.2065099999999997
164126.0,629.21000000000004,-368.81599999999997,-102.998,174.29400000000001,-173.92599999999999,166.79900000000001,11.9589
164127.0,632.5,-315.12400000000002,-75.889799999999994,189.81299999999999,-175.86099999999999,195.84999999999999,16.400300000000001
164128.0,634.43600000000004,-270.95999999999998,-63.2879,188.68199999999999,-174.75999999999999,224.029,21.406099999999999
164129.0,631.37699999999995,-207.40100000000001,-33.840400000000002,196.48699999999999,-171.16999999999999,248.876,24.302399999999999
164130.0,628.75800000000004,-173.38800000000001,-39.668100000000003,167.67699999999999,-170.00800000000001,269.73000000000002,24.260200000000001
164131.0,627.90200000000004,-126.898,-36.253399999999999,147.36099999999999,-170.398,286.46300000000002,28.267900000000001
164132.0,626.024,-95.601799999999997,-47.018999999999998,106.09699999999999,-171.93299999999999,297.89999999999998,35.337299999999999
164133.0,622.77800000000002,-51.799199999999999,-45.101300000000002,75.248599999999996,-173.27099999999999,303.57799999999997,44.613399999999999
164134.0,617.95699999999999,-23.977399999999999,-57.467799999999997,29.5349,-173.917,303.37299999999999,55.518500000000003
164135.0,611.93600000000004,17.649999999999999,-54.583500000000001,0.65383500000000006,-173.47399999999999,297.98700000000002,67.127899999999997
164136.0,604.59400000000005,43.894799999999996,-65.125,-38.978400000000001,-171.715,287.928,78.843999999999994
164137.0,596.25,82.111800000000002,-61.560600000000001,-61.155000000000001,-168.655,273.97500000000002,90.203599999999994
164138.0,586.91399999999999,103.625,-72.510400000000004,-94.098399999999998,-164.27000000000001,256.75799999999998,100.744
164139.0,576.92899999999997,138.44300000000001,-67.730000000000004,-107.60899999999999,-158.64099999999999,236.88399999999999,110.581
164140.0,567.34000000000003,156.16200000000001,-77.810699999999997,-132.303,-152.386,215.15700000000001,119.542
164141.0,557.32299999999998,185.85499999999999,-72.5321,-137.72200000000001,-144.875,192.15700000000001,127.81699999999999
164142.0,480.50700000000001,-172.70699999999999,-8.5278200000000002,253.02500000000001,-117.696,-126.524,-31.617699999999999
164143.0,489.029,-235.61600000000001,-55.469299999999997,223.99000000000001,-118.69499999999999,-104.03100000000001,-34.269500000000001
164144.0,493.48200000000003,-283.86399999999998,-88.178200000000004,198.119,-122.64400000000001,-80.958200000000005,-28.596900000000002
164145.0,497.06400000000002,-315.83300000000003,-100.536,182.57599999999999,-127.56,-54.835000000000001,-24.3552
164146.0,503.59399999999999,-330.22199999999998,-98.301400000000001,183.10599999999999,-131.38499999999999,-27.390899999999998,-21.0444
164147.0,509.95499999999998,-346.66699999999997,-107.932,175.63200000000001,-134.399,-0.077531900000000001,-15.979200000000001
164148.0,514.13400000000001,-333.13400000000001,-99.011200000000002,187.94,-138.316,27.633400000000002,-10.1967
164149.0,519.404,-315.39400000000001,-90.988200000000006,198.977,-141.876,57.048900000000003,-6.3898900000000003
164150.0,526.14099999999996,-277.976,-63.972299999999997,226.459,-144.31100000000001,85.710899999999995,-1.5289600000000001
164151.0,530.51199999999994,-241.03800000000001,-38.982500000000002,244.072,-146.50700000000001,113.875,1.69476
164152.0,533.08799999999997,-208.88999999999999,-23.731000000000002,249.66800000000001,-146.333,141.733,2.8855599999999999
164153.0,533.36300000000006,-189.91,-25.4328,235.65899999999999,-143.80000000000001,167.51900000000001,5.4266500000000004
164154.0,532.279,-157.09999999999999,-17.532800000000002,227.178,-142.114,190.66499999999999,7.2416999999999998
164155.0,532.33799999999997,-137.18299999999999,-27.589600000000001,200.21799999999999,-142.30600000000001,210.94900000000001,9.2763100000000005
164156.0,533.34199999999998,-103.456,-26.3886,181.27699999999999,-144.08699999999999,228.476,12.881500000000001
164157.0,533.74699999999996,-79.922600000000003,-36.293500000000002,146.99600000000001,-146.20699999999999,242.376,18.4574
164158.0,532.84299999999996,-45.499600000000001,-35.469299999999997,120.098,-148.47399999999999,251.62299999999999,25.710100000000001
164159.0,530.69299999999998,-20.3188,-43.846400000000003,83.008300000000006,-150.28299999999999,256.03399999999999,34.441099999999999
164160.0,526.86500000000001,14.6173,-41.883299999999998,56.601300000000002,-151.14400000000001,255.559,43.945399999999999
164161.0,521.62900000000002,38.692300000000003,-49.554900000000004,22.235299999999999,-150.89099999999999,250.71199999999999,53.593400000000003
164162.0,515.05799999999999,70.241399999999999,-48.157800000000002,-0.72558299999999998,-149.44300000000001,242.03,62.974499999999999
164163.0,507.06900000000002,92.168199999999999,-54.511499999999998,-28.7254,-146.738,229.96299999999999,71.824299999999994
164164.0,498.35899999999998,122.15600000000001,-51.113599999999998,-43.917999999999999,-142.96000000000001,215.19900000000001,80.186400000000006
164165.0,489.04599999999999,141.07900000000001,-56.678699999999999,-64.927099999999996,-138.16900000000001,198.267,87.858500000000006
164166.0,479.40499999999997,166.36099999999999,-54.374899999999997,-75.251999999999995,-132.48599999999999,179.607,94.210099999999997
164167.0,469.983,181.982,-59.466299999999997,-89.878399999999999,-125.786,159.92500000000001,100.20699999999999
164168.0,403.82299999999998,-86.092399999999998,10.4116,278.54300000000001,-79.381399999999999,-109.09699999999999,-21.435300000000002
164169.0,412.11200000000002,-106.901,2.4583200000000001,284.08100000000002,-85.003900000000002,-90.023399999999995,-24.341799999999999
164170.0,418.64299999999997,-140.61000000000001,-19.619700000000002,269.40499999999997,-93.706400000000002,-68.570400000000006,-23.598299999999998
164171.0,421.17000000000002,-159.22900000000001,-25.451599999999999,262.48200000000003,-100.667,-45.7575,-21.445799999999998
164172.0,424.214,-189.49700000000001,-46.920099999999998,241.07499999999999,-104.566,-22.287099999999999,-21.087399999999999
164173.0,429.90899999999999,-200.93700000000001,-54.915399999999998,237.14099999999999,-107.697,-0.22861999999999999,-15.9163
164174.0,434.529,-183.38900000000001,-34.123199999999997,256.04000000000002,-111.121,23.1751,-11.168799999999999
164175.0,439.97399999999999,-159.80099999999999,-11.3644,277.59399999999999,-111.78100000000001,49.356400000000001,-10.964399999999999
164176.0,443.63200000000001,-150.619,-8.1514100000000003,279.17500000000001,-109.203,75.220500000000001,-9.5063300000000002
164177.0,444.96100000000001,-129.785,3.85656,283.08800000000002,-107.09099999999999,100.30500000000001,-9.2075899999999997
164178.0,447.31999999999999,-118.61499999999999,-0.41195500000000002,270.02100000000002,-107.574,123.874,-9.5264399999999991
164179.0,449.37,-101.864,-4.2844199999999999,255.79599999999999,-109.68300000000001,145.048,-7.8315999999999999
164180.0,451.41500000000002,-89.486400000000003,-13.2957,232.18299999999999,-112.54000000000001,164.238,-5.4460199999999999
164181.0,454.30200000000002,-66.256799999999998,-12.175700000000001,215.364,-115.82899999999999,181.773,-2.0693700000000002
164182.0,456.63200000000001,-49.3001,-19.140899999999998,186.92099999999999,-119.286,196.82499999999999,2.5196800000000001
164183.0,457.88099999999997,-22.886500000000002,-18.511900000000001,163.84399999999999,-122.736,208.31700000000001,8.2527600000000003
164184.0,457.67899999999997,-2.6116600000000001,-25.299800000000001,132.059,-125.73099999999999,215.756,15.1249
164185.0,455.87200000000001,24.691400000000002,-25.372599999999998,106.774,-127.938,218.95699999999999,22.619299999999999
164186.0,452.71699999999998,44.649900000000002,-32.443100000000001,75.341499999999996,-129.21100000000001,218.209,30.3826
164187.0,448.06999999999999,71.580399999999997,-31.542000000000002,53.316000000000003,-129.441,213.761,38.021299999999997
164188.0,442.15100000000001,91.847800000000007,-35.838299999999997,27.889399999999998,-128.64099999999999,206.101,45.432000000000002
164189.0,435.06299999999999,116.268,-33.893599999999999,10.750500000000001,-126.895,195.672,52.512999999999998
164190.0,426.38900000000001,132.03999999999999,-38.5595,-11.1031,-123.82299999999999,182.80099999999999,58.846200000000003
164191.0,416.99099999999999,153.38300000000001,-36.508200000000002,-23.893699999999999,-119.41,167.96600000000001,64.921800000000005
164192.0,408.99400000000003,169.405,-39.578800000000001,-38.293799999999997,-114.83199999999999,151.90600000000001,70.906899999999993
164193.0,401.37700000000001,189.98400000000001,-36.2834,-43.265500000000003,-109.73699999999999,135.15100000000001,76.058000000000007
164194.0,351.97899999999998,-36.428899999999999,6.9988200000000003,279.93299999999999,-50.791400000000003,-95.566100000000006,-13.1525
164195.0,356.05399999999997,-53.2562,5.7267000000000001,286.779,-53.283099999999997,-78.614400000000003,-14.9429
164196.0,359.286,-63.297899999999998,11.281599999999999,295.68599999999998,-57.728299999999997,-59.386000000000003,-16.838899999999999
164197.0,361.83199999999999,-79.148399999999995,6.7271799999999997,291.89499999999998,-63.5518,-39.467599999999997,-17.7818
164198.0,364.92500000000001,-87.993399999999994,3.6869299999999998,289.75400000000002,-69.782300000000006,-18.936900000000001,-18.433199999999999
164199.0,369.13400000000001,-98.906400000000005,-3.3846799999999999,283.94799999999998,-73.605400000000003,1.9454400000000001,-16.9709
164200.0,372.07499999999999,-95.533199999999994,3.9140799999999998,289.32499999999999,-73.852500000000006,23.284099999999999,-15.4719
164201.0,375.10599999999999,-91.148799999999994,5.3073100000000002,289.38900000000001,-73.882199999999997,45.174300000000002,-16.316600000000001
164202.0,379.25,-81.921899999999994,4.1608200000000002,287.87400000000002,-75.209699999999998,67.387600000000006,-17.431699999999999
164203.0,383.10300000000001,-78.512699999999995,-4.9750899999999998,274.77699999999999,-77.336399999999998,88.812700000000007,-17.520099999999999
164204.0,386.44099999999997,-67.171300000000002,-5.6060100000000004,264.44499999999999,-80.418800000000005,109.11799999999999,-17.043099999999999
164205.0,390.18700000000001,-57.421799999999998,-8.0398899999999998,248.08000000000001,-84.382199999999997,128.417,-15.574299999999999
164206.0,393.63999999999999,-42.139000000000003,-7.4392699999999996,231.964,-88.874600000000001,145.97399999999999,-12.988
164207.0,396.411,-30.975300000000001,-13.786899999999999,206.90299999999999,-93.4589,161.11199999999999,-9.5608299999999993
164208.0,398.53100000000001,-11.917999999999999,-14.4329,185.96600000000001,-97.9756,173.47800000000001,-5.2542900000000001
164209.0,399.505,3.6996699999999998,-20.253,158.50399999999999,-102.04000000000001,182.68600000000001,-0.150117
164210.0,399.11700000000002,25.8568,-20.599,135.946,-105.405,188.39699999999999,5.5144299999999999
164211.0,397.42500000000001,44.588999999999999,-24.8675,109.64100000000001,-107.928,190.642,11.4589
164212.0,394.47000000000003,69.043700000000001,-23.115200000000002,90.075500000000005,-109.548,189.571,17.4954
164213.0,390.625,87.562600000000003,-26.164899999999999,66.733500000000006,-110.455,185.596,23.453700000000001
164214.0,385.30000000000001,108.285,-25.028099999999998,48.795499999999997,-110.48999999999999,178.75999999999999,29.358499999999999
164215.0,378.834,123.43600000000001,-27.463200000000001,28.034800000000001,-109.71899999999999,169.452,35.507100000000001
164216.0,371.85899999999998,141.94800000000001,-24.842600000000001,15.549099999999999,-108.30800000000001,158.18899999999999,42.041200000000003
164217.0,363.32799999999997,155.57599999999999,-25.6889,2.15517,-105.76000000000001,144.78299999999999,48.235599999999998
164218.0,354.77499999999998,169.191,-26.0364,-11.012600000000001,-101.345,130.77799999999999,52.718800000000002
164219.0,347.13200000000001,179.99199999999999,-29.1111,-23.926100000000002,-95.820099999999996,116.48699999999999,56.514699999999998
164220.0,317.68000000000001,-11.654199999999999,6.6680299999999999,271.10199999999998,-33.186999999999998,-86.219899999999996,-8.3445499999999999
164221.0,319.74599999999998,-19.841699999999999,8.1790000000000003,282.72500000000002,-33.9741,-69.781300000000002,-10.209300000000001
164222.0,320.5,-31.683399999999999,5.1228800000000003,285.36000000000001,-35.9499,-52.239400000000003,-12.303100000000001
164223.0,321.96800000000002,-38.858899999999998,6.39438,289.42200000000003,-38.874600000000001,-34.3294,-14.536099999999999
164224.0,323.221,-45.523200000000003,7.6366399999999999,290.01799999999997,-42.411200000000001,-16.030200000000001,-15.5829
164225.0,325.06700000000001,-48.525199999999998,8.5792199999999994,289.99099999999999,-45.282800000000002,3.3388300000000002,-17.8904
164226.0,328.99900000000002,-59.035699999999999,-4.0211399999999999,279.44400000000002,-47.502200000000002,22.152899999999999,-18.485199999999999
164227.0,332.04399999999998,-50.0105,2.0909399999999998,283.423,-50.348500000000001,41.156999999999996,-18.6797
164228.0,336.89999999999998,-45.415500000000002,3.1187900000000002,279.69299999999998,-53.5961,61.4895,-20.567299999999999
164229.0,341.79700000000003,-38.028500000000001,4.35419,273.97399999999999,-57.072899999999997,81.370900000000006,-20.584900000000001
164230.0,345.10899999999998,-31.059200000000001,2.2546300000000001,260.50599999999997,-61.432600000000001,100.26000000000001,-20.129899999999999
164231.0,348.15899999999999,-21.822399999999998,-0.37532799999999999,244.59899999999999,-66.099400000000003,117.34999999999999,-18.867899999999999
164232.0,350.77600000000001,-13.1069,-5.1358699999999997,224.05699999999999,-71.236900000000006,132.36000000000001,-16.761600000000001
164233.0,353.22000000000003,2.0303499999999999,-5.24953,206.54900000000001,-76.427999999999997,145.25399999999999,-13.836399999999999
164234.0,354.74799999999999,14.749599999999999,-9.4923500000000001,183.583,-81.240099999999998,155.50399999999999,-10.276300000000001
164235.0,355.209,33.377099999999999,-9.3030399999999993,164.31800000000001,-85.422399999999996,162.899,-6.3033700000000001
164236.0,354.39800000000002,49.476900000000001,-12.602399999999999,141.27799999999999,-88.787800000000004,167.28700000000001,-2.0662099999999999
164237.0,352.47800000000001,69.710599999999999,-12.0938,122.089,-91.378200000000007,168.773,2.4138899999999999
164238.0,349.827,85.538600000000002,-15.6699,99.506600000000006,-93.277199999999993,167.61600000000001,6.8196399999999997
164239.0,346.19,104.961,-14.687799999999999,82.142600000000002,-94.506299999999996,163.86000000000001,11.5015
164240.0,342.072,120.084,-15.9396,63.173099999999998,-95.618600000000001,157.916,16.040700000000001
164241.0,335.47300000000001,135.11099999999999,-14.2029,48.494399999999999,-95.556600000000003,149.23699999999999,22.1326
164242.0,328.47899999999998,141.011,-17.654399999999999,24.566099999999999,-95.572000000000003,138.642,29.286200000000001
164243.0,323.80900000000003,147.76900000000001,-19.452999999999999,6.4984500000000001,-93.623699999999999,129.46600000000001,36.400700000000001
164244.0,315.70299999999997,158.786,-19.1587,1.9699,-90.103300000000004,117.536,42.883200000000002
164245.0,307.11799999999999,176.66300000000001,-14.578900000000001,1.6694,-87.217100000000002,102.21299999999999,46.291600000000003
164246.0,291.14800000000002,-2.09666,4.7265899999999998,254.44399999999999,-23.784500000000001,-79.265600000000006,-6.0964299999999998
164247.0,293.10899999999998,-12.7128,3.1704400000000001,262.47199999999998,-23.8782,-64.302099999999996,-7.95723
164248.0,294.22300000000001,-17.399000000000001,6.2479899999999997,272.077,-24.8066,-47.987200000000001,-10.0397
164249.0,295.01600000000002,-24.923300000000001,4.3560999999999996,274.34100000000001,-26.340199999999999,-30.835999999999999,-12.1976
164250.0,295.45499999999998,-27.620000000000001,5.2795800000000002,276.755,-28.388100000000001,-13.6693,-14.1752
164251.0,297.01400000000001,-33.319299999999998,1.26227,272.98399999999998,-31.208400000000001,3.6618400000000002,-16.639199999999999
164252.0,300.298,-32.761499999999998,2.1377100000000002,273.46699999999998,-34.372900000000001,21.251200000000001,-18.004999999999999
164253.0,303.25099999999998,-32.480200000000004,1.98875,269.61000000000001,-37.232399999999998,39.561,-18.912400000000002
164254.0,306.625,-27.671199999999999,2.97193,265.226,-40.333199999999998,58.134799999999998,-20.390000000000001
164255.0,310.12900000000002,-25.704000000000001,-2.0624099999999999,253.126,-44.227200000000003,75.937399999999997,-20.813199999999998
164256.0,313.11200000000002,-18.221499999999999,-3.1215799999999998,241.447,-48.942799999999998,92.840000000000003,-20.500699999999998
164257.0,315.93200000000002,-10.426500000000001,-5.72241,226.01599999999999,-54.089300000000001,108.15600000000001,-19.389099999999999
164258.0,318.32900000000001,1.75196,-5.8982200000000002,211.23500000000001,-59.269799999999996,121.541,-17.639399999999998
164259.0,320.14999999999998,11.4998,-10.2293,191.13800000000001,-64.173500000000004,132.62899999999999,-15.5411
164260.0,321.19200000000001,26.943000000000001,-10.269299999999999,174.489,-68.615200000000002,141.273,-13.174200000000001
164261.0,320.94299999999998,40.486499999999999,-13.174799999999999,154.191,-72.419499999999999,147.22200000000001,-10.6112
164262.0,319.60399999999998,58.454099999999997,-12.389699999999999,137.33600000000001,-75.446799999999996,150.61099999999999,-7.9595000000000002
164263.0,316.928,74.925399999999996,-13.305199999999999,118.545,-77.689999999999998,151.35400000000001,-5.0469099999999996
164264.0,314.34800000000001,94.5762,-11.2377,103.208,-79.512699999999995,150.16800000000001,-1.99505
164265.0,311.03699999999998,111.627,-10.118399999999999,87.335899999999995,-81.107600000000005,146.67699999999999,1.98885
164266.0,308.42099999999999,125.02800000000001,-11.4422,69.236699999999999,-83.260999999999996,141.541,5.8309800000000003
164267.0,302.38900000000001,137.47499999999999,-8.9629200000000004,57.029600000000002,-83.731700000000004,133.93000000000001,12.3667
164268.0,293.08600000000001,138.45099999999999,-13.9076,31.6937,-86.208299999999994,121.45699999999999,18.292100000000001
164269.0,288.00099999999998,105.80500000000001,-54.3703,-25.3004,-84.299800000000005,112.739,23.4543
164270.0,281.40199999999999,115.925,-46.916800000000002,-28.544,-77.9589,106.224,32.863399999999999
164271.0,275.41199999999998,147.75299999999999,-21.104299999999999,-9.7928999999999995,-76.739800000000002,94.333500000000001,39.821899999999999
164272.0,268.74000000000001,-1.64086,1.0942099999999999,233.42400000000001,-20.991900000000001,-73.447400000000002,-5.6421400000000004
164273.0,270.35599999999999,-6.9145500000000002,3.4556,245.184,-20.331600000000002,-59.594299999999997,-7.0969499999999996
164274.0,271.59500000000003,-14.843500000000001,1.80179,250.64699999999999,-20.273,-44.5364,-8.8997700000000002
164275.0,272.42099999999999,-18.089400000000001,3.5163199999999999,256.755,-20.976500000000001,-28.696999999999999,-10.8713
164276.0,273.37900000000002,-22.619399999999999,2.5261100000000001,257.858,-22.503599999999999,-12.464600000000001,-12.9567
164277.0,274.76400000000001,-22.5518,4.6960699999999997,260.17099999999999,-24.619399999999999,4.1076600000000001,-14.7837
164278.0,276.54199999999997,-24.357199999999999,2.89893,256.83499999999998,-27.092199999999998,20.906600000000001,-16.4739
164279.0,279.05799999999999,-22.559999999999999,2.0436700000000001,253.286,-30.114699999999999,37.790999999999997,-17.877300000000002
164280.0,281.827,-20.729600000000001,-0.51002199999999998,245.69900000000001,-33.741,54.644799999999996,-18.682700000000001
164281.0,284.65499999999997,-13.6579,0.424398,239.06200000000001,-37.874699999999997,71.027199999999993,-19.007400000000001
164282.0,287.346,-7.2373599999999998,-1.69316,227.374,-42.259999999999998,86.388000000000005,-18.693999999999999
164283.0,289.71899999999999,1.7432700000000001,-3.24756,214.43700000000001,-46.709800000000001,100.158,-18.000800000000002
164284.0,291.90800000000002,10.697100000000001,-6.4679500000000001,198.59700000000001,-51.137,112.054,-17.033200000000001
164285.0,293.58499999999998,24.9588,-5.6319499999999998,185.744,-55.385399999999997,121.81999999999999,-15.950900000000001
164286.0,294.33499999999998,37.540500000000002,-7.3647400000000003,169.41200000000001,-59.213799999999999,129.25800000000001,-14.867800000000001
164287.0,293.67399999999998,54.338299999999997,-5.30748,155.88,-62.5105,134.19999999999999,-13.759399999999999
164288.0,291.55000000000001,69.2196,-5.5475700000000003,139.27699999999999,-65.128699999999995,136.721,-12.4076
164289.0,288.41699999999997,87.159400000000005,-2.8961000000000001,125.18000000000001,-67.248199999999997,137.00700000000001,-10.407299999999999
164290.0,285.47000000000003,101.59999999999999,-4.0982200000000004,107.496,-68.907899999999998,135.68000000000001,-7.9768699999999999
164291.0,282.57400000000001,117.389,-3.1396000000000002,92.541799999999995,-70.343800000000002,132.637,-5.0255799999999997
164292.0,280.32299999999998,130.524,-4.1016300000000001,76.056200000000004,-72.411500000000004,127.914,-1.44855
164293.0,275.36700000000002,140.90600000000001,-2.7018300000000002,63.036700000000003,-73.968999999999994,120.904,4.28566
164294.0,267.83199999999999,139.46299999999999,-9.9451599999999996,42.551699999999997,-77.935000000000002,109.404,11.099399999999999
164295.0,261.524,119.83199999999999,-38.5884,6.6459700000000002,-80.009200000000007,97.216499999999996,16.933700000000002
164296.0,252.52199999999999,93.256200000000007,-69.801100000000005,-33.729199999999999,-74.768699999999995,88.284000000000006,23.143000000000001
164297.0,245.56200000000001,100.77200000000001,-61.965200000000003,-39.893999999999998,-69.513499999999993,81.063199999999995,30.0671
164298.0,248.24199999999999,-3.1592199999999999,-2.1391499999999999,212.47399999999999,-21.070699999999999,-68.083699999999993,-5.9752200000000002
164299.0,249.899,-11.5106,-3.36565,220.06800000000001,-20.514900000000001,-55.447600000000001,-7.1843700000000004
164300.0,251.184,-15.446099999999999,-1.4275500000000001,228.845,-20.311900000000001,-41.5745,-8.5746300000000009
164301.0,252.179,-20.492100000000001,-2.1360100000000002,232.81999999999999,-20.6206,-26.8218,-10.102399999999999
164302.0,253.102,-22.200800000000001,-1.1343700000000001,236.38999999999999,-21.492599999999999,-11.5214,-11.7044
164303.0,254.15700000000001,-25.040800000000001,-3.0077699999999998,235.108,-22.999600000000001,4.0785900000000002,-13.2651
164304.0,255.66,-23.855799999999999,-2.4515899999999999,234.42500000000001,-25.222100000000001,19.767099999999999,-14.636799999999999
164305.0,257.673,-22.7455,-3.5885699999999998,230.22499999999999,-28.029199999999999,35.541200000000003,-15.641400000000001
164306.0,259.90699999999998,-18.398199999999999,-3.7294,225.23099999999999,-31.134499999999999,51.168599999999998,-16.248000000000001
164307.0,262.18799999999999,-14.693099999999999,-6.7972599999999996,215.50999999999999,-34.468400000000003,66.141300000000001,-16.492799999999999
164308.0,264.59399999999999,-7.4528999999999996,-8.2679500000000008,205.751,-38.056699999999999,80.052599999999998,-16.424399999999999
164309.0,267.06200000000001,1.8640099999999999,-9.4630899999999993,194.959,-41.730400000000003,92.584900000000005,-16.1355
164310.0,269.41300000000001,14.179500000000001,-9.0666700000000002,184.72200000000001,-45.2911,103.408,-15.9148
164311.0,271.29199999999997,25.099799999999998,-10.976000000000001,171.23599999999999,-48.645600000000002,112.264,-15.93
164312.0,272.06299999999999,39.800199999999997,-9.4159699999999997,159.99799999999999,-51.768000000000001,118.886,-16.242699999999999
164313.0,270.99599999999998,52.975099999999998,-9.3130699999999997,145.81700000000001,-54.553100000000001,123.038,-16.4587
164314.0,267.98000000000002,68.863699999999994,-6.1260899999999996,133.047,-56.892600000000002,124.84099999999999,-16.242100000000001
164315.0,263.399,82.846500000000006,-5.0289400000000004,117.44799999999999,-58.167299999999997,124.57899999999999,-15.375
164316.0,259.18099999999998,100.874,-1.5258400000000001,104.693,-58.976999999999997,122.917,-13.203099999999999
164317.0,257.702,117.495,0.059144500000000003,91.752499999999998,-60.704700000000003,120.572,-10.194699999999999
164318.0,255.89500000000001,131.018,0.64186399999999999,78.400499999999994,-62.933599999999998,116.27500000000001,-6.6931799999999999
164319.0,252.47399999999999,139.05000000000001,-1.14636,63.209200000000003,-65.492599999999996,109.675,-2.2773300000000001
164320.0,246.732,143.66399999999999,-1.63039,50.685899999999997,-68.246399999999994,100.974,4.8456200000000003
164321.0,240.69200000000001,139.31700000000001,-9.3628499999999999,34.950899999999997,-71.721800000000002,90.418800000000005,12.8224
164322.0,233.37700000000001,130.89599999999999,-23.495899999999999,20.725100000000001,-71.977500000000006,78.884399999999999,20.7318
164323.0,225.416,111.10899999999999,-46.595599999999997,-11.4427,-69.714600000000004,67.4465,25.961500000000001
164324.0,229.45500000000001,-5.0853599999999997,-5.9274500000000003,192.13900000000001,-22.823899999999998,-62.933199999999999,-6.84518
164325.0,230.80500000000001,-9.9915199999999995,-4.00563,202.029,-21.999099999999999,-51.412599999999998,-7.5230499999999996
164326.0,232.042,-16.3169,-4.96333,207.63399999999999,-21.664400000000001,-38.636699999999998,-8.5010200000000005
164327.0,233.09800000000001,-19.370699999999999,-3.9636,213.184,-21.864999999999998,-25.079599999999999,-9.6195199999999996
164328.0,233.97800000000001,-22.6873,-4.76485,214.89599999999999,-22.6188,-10.8697,-10.757099999999999
164329.0,235.01400000000001,-22.349799999999998,-3.5349400000000002,216.82400000000001,-23.907299999999999,3.6825000000000001,-11.805899999999999
164330.0,236.25399999999999,-22.771000000000001,-4.8952799999999996,214.434,-25.633099999999999,18.397600000000001,-12.699199999999999
164331.0,237.797,-20.055900000000001,-5.11538,211.614,-27.729700000000001,33.017099999999999,-13.379899999999999
164332.0,239.678,-16.921399999999998,-6.8641300000000003,205.70400000000001,-30.195900000000002,47.309100000000001,-13.8042
164333.0,241.82599999999999,-9.4588199999999993,-6.2881400000000003,200.66999999999999,-32.822600000000001,61.002299999999998,-13.9808
164334.0,244.18299999999999,-1.26799,-6.9404199999999996,193.17599999999999,-35.408099999999997,73.766900000000007,-14.0913
164335.0,246.785,8.41493,-7.7293500000000002,184.63800000000001,-37.873800000000003,85.283199999999994,-14.3758
164336.0,249.50200000000001,18.714700000000001,-9.1053300000000004,174.68000000000001,-40.282600000000002,95.333699999999993,-15.052099999999999
164337.0,251.88999999999999,33.480400000000003,-6.5616899999999996,167.69800000000001,-42.6798,103.595,-16.289100000000001
164338.0,253.03899999999999,46.642299999999999,-5.3730399999999996,157.68000000000001,-45.238300000000002,109.727,-17.874400000000001
164339.0,251.661,62.336799999999997,-0.52924000000000004,148.745,-47.853400000000001,113.26000000000001,-19.402799999999999
164340.0,247.161,75.245999999999995,1.91876,135.11199999999999,-50.363399999999999,114.057,-19.162500000000001
164341.0,241.56399999999999,90.9298,6.4199799999999998,123.238,-53.025300000000001,112.70699999999999,-17.256799999999998
164342.0,237.11199999999999,104.467,7.5535199999999998,109.53400000000001,-54.071800000000003,110.938,-14.3825
164343.0,234.673,116.369,6.1403100000000004,93.758300000000006,-53.878500000000003,109.16,-12.190899999999999
164344.0,233.52799999999999,130.87,6.90862,80.516199999999998,-54.844799999999999,105.733,-10.2081
164345.0,232.77000000000001,141.02600000000001,5.2248099999999997,66.846599999999995,-57.225499999999997,100.57899999999999,-6.7915299999999998
164346.0,227.589,144.16999999999999,2.6676500000000001,53.671199999999999,-59.826799999999999,92.458200000000005,-1.45645
164347.0,221.40600000000001,142.73500000000001,-1.11934,39.723199999999999,-62.0899,83.454800000000006,4.9756299999999998
164348.0,212.52600000000001,143.33099999999999,2.0914899999999998,36.8247,-62.086300000000001,74.730400000000003,14.1449
164349.0,205.87700000000001,130.25899999999999,-12.5481,16.131599999999999,-65.045699999999997,61.479900000000001,20.268799999999999
164350.0,211.64599999999999,-6.1513900000000001,-8.5267800000000005,173.47399999999999,-24.192,-58.247900000000001,-7.34856
164351.0,212.959,-12.657,-9.4355799999999999,180.70599999999999,-23.575700000000001,-47.307899999999997,-8.01966
164352.0,214.33799999999999,-16.6187,-8.2714200000000009,188.029,-23.3276,-35.821599999999997,-8.4897799999999997
164353.0,215.107,-20.822900000000001,-8.7338000000000005,191.64599999999999,-23.509599999999999,-23.340299999999999,-9.2752300000000005
164354.0,215.93899999999999,-22.367999999999999,-8.0192599999999992,194.874,-24.058,-10.2475,-9.9213900000000006
164355.0,216.76400000000001,-24.284500000000001,-9.3355999999999995,194.31899999999999,-25.027799999999999,3.1803400000000002,-10.5504
164356.0,217.858,-22.7349,-8.9553600000000007,193.97800000000001,-26.368500000000001,16.749400000000001,-11.0474
164357.0,219.25299999999999,-20.699100000000001,-9.9232399999999998,190.87799999999999,-27.971699999999998,30.183199999999999,-11.406700000000001
164358.0,220.88800000000001,-15.643599999999999,-9.8436199999999996,187.51400000000001,-29.602499999999999,43.304099999999998,-11.672000000000001
164359.0,222.86000000000001,-10.579599999999999,-11.7125,181.17599999999999,-31.108499999999999,55.811199999999999,-11.975099999999999
164360.0,225.155,-2.51756,-12.4138,175.05000000000001,-32.476999999999997,67.525499999999994,-12.4635
164361.0,228.084,8.3416099999999993,-11.870100000000001,169.67400000000001,-33.674799999999998,78.280500000000004,-13.4077
164362.0,231.298,22.146799999999999,-9.32437,165.423,-34.969200000000001,87.812700000000007,-14.9369
164363.0,234.73699999999999,33.8675,-9.0436499999999995,158.06800000000001,-36.504399999999997,95.9071,-17.439800000000002
164364.0,236.24100000000001,49.235599999999998,-4.2157,152.68600000000001,-38.667700000000004,101.694,-20.085000000000001
164365.0,235.28100000000001,59.821100000000001,-2.6238700000000001,140.928,-41.711100000000002,104.929,-22.837499999999999
164366.0,227.672,73.175700000000006,4.5363100000000003,130.35400000000001,-44.671999999999997,104.14700000000001,-21.6266
164367.0,219.47499999999999,74.316100000000006,1.8109200000000001,102.03,-48.003700000000002,103.387,-19.6203
164368.0,215.22,73.462500000000006,-6.6433900000000001,79.684399999999997,-46.126399999999997,103.65600000000001,-15.798
164369.0,210.16499999999999,103.627,6.7684199999999999,86.134600000000006,-45.189900000000002,99.384200000000007,-11.8047
164370.0,212.94200000000001,129.97200000000001,12.7364,80.847999999999999,-48.4285,95.789000000000001,-11.3064
164371.0,215.358,137.95699999999999,8.0436300000000003,66.658600000000007,-49.9831,92.939099999999996,-9.5361499999999992
164372.0,210.88300000000001,145.01499999999999,9.5583299999999998,57.412599999999998,-52.903700000000001,85.284899999999993,-5.72668
164373.0,205.34200000000001,142.22499999999999,2.5065,42.060699999999997,-54.904499999999999,76.508300000000006,-0.83392999999999995
164374.0,195.48699999999999,137.98500000000001,-0.037792300000000001,34.383400000000002,-55.266399999999997,67.028800000000004,5.4565799999999998
164375.0,188.77699999999999,129.10499999999999,-8.2998399999999997,21.392099999999999,-57.567300000000003,56.616500000000002,11.500299999999999
164376.0,194.99000000000001,-6.0402800000000001,-12.286899999999999,156.42500000000001,-24.851900000000001,-53.402200000000001,-7.3981199999999996
164377.0,196.42400000000001,-8.2539599999999993,-8.2322799999999994,167.61500000000001,-24.486599999999999,-43.377800000000001,-8.4144199999999998
164378.0,197.703,-15.317600000000001,-10.7281,170.834,-24.245200000000001,-33.113300000000002,-8.452
164379.0,198.16999999999999,-17.209700000000002,-9.0521799999999999,176.03399999999999,-24.491,-21.5946,-8.9427900000000005
164380.0,198.952,-20.764299999999999,-10.577999999999999,176.922,-24.998200000000001,-9.6825299999999999,-9.2412600000000005
164381.0,199.60599999999999,-19.950600000000001,-9.2886900000000008,178.946,-25.811499999999999,2.6304699999999999,-9.4908000000000001
164382.0,200.60400000000001,-20.033799999999999,-10.6145,177.21799999999999,-26.730899999999998,15.0374,-9.6766299999999994
164383.0,201.81999999999999,-16.635200000000001,-10.260300000000001,175.96899999999999,-27.6601,27.2972,-9.8528199999999995
164384.0,203.33199999999999,-12.5854,-11.086,172.52500000000001,-28.4758,39.206600000000002,-10.1578
164385.0,205.18000000000001,-4.3065499999999997,-9.4964999999999993,170.69,-28.9435,50.608199999999997,-10.693199999999999
164386.0,207.39599999999999,5.70512,-7.8682100000000004,168.09899999999999,-29.082599999999999,61.400599999999997,-11.6251
164387.0,210.63499999999999,16.365600000000001,-7.0036300000000002,164.506,-28.918099999999999,71.590800000000002,-13.2782
164388.0,214.446,28.579799999999999,-5.4035099999999998,160.804,-28.9193,80.830699999999993,-15.770200000000001
164389.0,219.18799999999999,43.619300000000003,-1.08758,158.999,-29.555399999999999,89.106800000000007,-19.4359
164390.0,221.404,58.4407,4.5826700000000002,155.244,-31.663,94.742800000000003,-23.081900000000001
164391.0,220.70699999999999,70.550299999999993,9.4596800000000005,146.41399999999999,-35.7425,97.857799999999997,-26.002500000000001
164392.0,209.62,80.442300000000003,16.3918,134.18199999999999,-40.360300000000002,94.808599999999998,-23.488600000000002
164393.0,198.47300000000001,68.702500000000001,-2.81826,92.148099999999999,-46.267800000000001,89.965100000000007,-21.184200000000001
164394.0,193.60599999999999,51.313299999999998,-30.939399999999999,59.827399999999997,-44.023800000000001,88.384600000000006,-15.221
164395.0,187.452,97.287400000000005,6.1495699999999998,86.884,-42.026400000000002,85.9833,-8.0402000000000005
164396.0,193.40000000000001,125.95,18.664400000000001,81.751000000000005,-44.723799999999997,86.471199999999996,-9.1164500000000004
164397.0,198.75,133.417,11.765599999999999,67.086399999999998,-44.293199999999999,86.013499999999993,-9.8522999999999996
164398.0,196.35300000000001,142.10400000000001,12.686999999999999,57.166499999999999,-47.102699999999999,79.029300000000006,-7.9794700000000001
164399.0,191.50899999999999,141.297,8.8145100000000003,45.433100000000003,-49.216700000000003,71.432199999999995,-4.4729000000000001
164400.0,182.654,137.982,6.8103800000000003,37.703800000000001,-50.657299999999999,62.053699999999999,1.15821
164401.0,175.821,132.62,1.3058700000000001,28.639399999999998,-51.292099999999998,53.186999999999998,6.6458300000000001
164402.0,180.13499999999999,-2.4640499999999999,-12.288,145.09399999999999,-24.860199999999999,-48.605200000000004,-7.9073500000000001
164403.0,181.04599999999999,-8.9355100000000007,-12.491,150.55199999999999,-24.3825,-39.8705,-8.34633
164404.0,182.005,-12.399900000000001,-11.7494,156.327,-24.360499999999998,-30.404299999999999,-8.4218799999999998
164405.0,182.44800000000001,-16.206199999999999,-12.252599999999999,159.09399999999999,-24.635400000000001,-19.9451,-8.5666399999999996
164406.0,182.93700000000001,-17.571100000000001,-11.772399999999999,161.63399999999999,-25.063199999999998,-9.1000599999999991,-8.6419099999999993
164407.0,183.51400000000001,-19.008500000000002,-12.840199999999999,161.39400000000001,-25.630199999999999,2.1012900000000001,-8.6288300000000007
164408.0,184.39400000000001,-17.335599999999999,-12.4208,161.66999999999999,-26.179200000000002,13.3432,-8.6388400000000001
164409.0,185.62899999999999,-14.747999999999999,-12.7003,160.38300000000001,-26.562100000000001,24.453399999999998,-8.7810100000000002
164410.0,187.04900000000001,-9.3513199999999994,-11.7559,159.41800000000001,-26.549299999999999,35.214100000000002,-9.2727299999999993
164411.0,188.702,-3.2604899999999999,-11.6629,156.82900000000001,-25.9556,45.563099999999999,-10.251899999999999
164412.0,190.66800000000001,5.57972,-10.302300000000001,154.73400000000001,-24.700700000000001,55.476900000000001,-11.870200000000001
164413.0,193.91,18.283000000000001,-6.5128599999999999,154.78999999999999,-23.049399999999999,65.234399999999994,-14.2204
164414.0,198.66499999999999,34.031199999999998,-0.60483900000000002,156.56999999999999,-21.863600000000002,74.506500000000003,-17.514600000000002
164415.0,204.74600000000001,47.551299999999998,2.99797,155.036,-21.970500000000001,83.099299999999999,-21.829599999999999
164416.0,208.48400000000001,62.813899999999997,10.270099999999999,153.56200000000001,-24.433900000000001,89.119100000000003,-26.353300000000001
164417.0,206.44499999999999,71.150899999999993,12.846399999999999,141.55699999999999,-29.758900000000001,91.433899999999994,-28.405799999999999
164418.0,193.035,74.952399999999997,16.176100000000002,124.001,-37.934800000000003,86.509699999999995,-24.1541
164419.0,179.875,61.454300000000003,0.24057899999999999,85.410899999999998,-47.720300000000002,79.745000000000005,-14.811
164420.0,175.64400000000001,48.369300000000003,-16.290700000000001,60.563899999999997,-49.149900000000002,78.428799999999995,-3.2853500000000002
164421.0,170.72999999999999,73.428100000000001,1.9779,73.113699999999994,-44.230400000000003,77.848799999999997,2.2768600000000001
164422.0,173.20500000000001,108.02800000000001,15.119,76.112300000000005,-41.985399999999998,77.472200000000001,-2.6162700000000001
164423.0,182.52099999999999,128.32900000000001,14.7121,67.785399999999996,-41.169600000000003,78.247900000000001,-7.4236500000000003
164424.0,184.21899999999999,139.10900000000001,16.062799999999999,58.773400000000002,-42.880000000000003,74.195800000000006,-8.0897699999999997
164425.0,179.44800000000001,137.029,11.4421,45.7029,-45.117600000000003,66.645099999999999,-6.5037000000000003
164426.0,171.20400000000001,133.417,8.3127899999999997,36.555100000000003,-46.133899999999997,57.717399999999998,-2.3468900000000001
164427.0,163.38399999999999,128.08099999999999,4.13889,28.846599999999999,-46.4514,49.304099999999998,2.49736
164428.0,166.20699999999999,-0.015145799999999999,-11.9941,134.33699999999999,-23.693000000000001,-44.4818,-8.1951999999999998
164429.0,166.858,-3.79833,-11.0352,140.679,-23.569700000000001,-36.540999999999997,-8.1144499999999997
164430.0,167.38900000000001,-8.7636299999999991,-11.844200000000001,143.999,-23.6465,-27.818100000000001,-8.2326999999999995
164431.0,167.78200000000001,-11.401899999999999,-11.534800000000001,147.31700000000001,-23.946899999999999,-18.402000000000001,-8.2033799999999992
164432.0,168.041,-13.8202,-12.273099999999999,148.33699999999999,-24.328900000000001,-8.5304300000000008,-8.1102000000000007
164433.0,168.53700000000001,-13.466799999999999,-11.629,149.86099999999999,-24.6891,1.5905,-7.9457500000000003
164434.0,169.41300000000001,-12.777100000000001,-12.0616,149.59700000000001,-24.840699999999998,11.742900000000001,-7.8769999999999998
164435.0,170.69300000000001,-9.5139999999999993,-11.3239,149.86799999999999,-24.654299999999999,21.758500000000002,-8.1278400000000008
164436.0,172.26300000000001,-4.6921600000000003,-10.2704,149.749,-23.960899999999999,31.428699999999999,-9.0180900000000008
164437.0,173.63300000000001,3.9556900000000002,-6.4910100000000002,151.13900000000001,-22.571200000000001,40.711599999999997,-10.617800000000001
164438.0,175.26599999999999,15.4642,-1.1627000000000001,153.238,-20.3918,49.748800000000003,-12.871700000000001
164439.0,178.054,28.075199999999999,3.8373699999999999,154.464,-17.734100000000002,58.882399999999997,-15.634499999999999
164440.0,183.71700000000001,41.190300000000001,8.3944899999999993,155.381,-15.2125,68.430400000000006,-19.5745
164441.0,190.69300000000001,58.871699999999997,17.102,159.30600000000001,-14.4587,77.421499999999995,-23.996400000000001
164442.0,196.5,72.137699999999995,22.484300000000001,156.41499999999999,-17.640699999999999,84.508300000000006,-28.873799999999999
164443.0,192.15100000000001,85.0839,30.221299999999999,150.31700000000001,-25.074200000000001,85.127300000000005,-28.587399999999999
164444.0,176.97800000000001,80.106499999999997,24.839600000000001,121.044,-37.904600000000002,78.810699999999997,-21.4848
164445.0,162.072,41.124600000000001,-10.7516,61.923099999999998,-48.414200000000001,70.317700000000002,-8.1480700000000006
164446.0,155.13,-14.6829,-65.384799999999998,-3.6823999999999999,-50.186900000000001,66.361800000000002,4.0078199999999997
164447.0,154.999,0.13361999999999999,-58.203200000000002,8.4052000000000007,-44.465400000000002,67.860299999999995,10.394600000000001
164448.0,157.07900000000001,81.6083,2.4624000000000001,67.588300000000004,-41.4193,68.283100000000005,7.9276600000000004
164449.0,167.65700000000001,119.794,16.307500000000001,69.315600000000003,-41.6541,70.387699999999995,-1.48763
164450.0,173.10599999999999,128.321,12.491,55.443600000000004,-40.277700000000003,69.938100000000006,-6.7939800000000004
164451.0,168.58500000000001,135.072,16.203099999999999,48.6586,-42.160699999999999,62.217100000000002,-7.0794699999999997
164452.0,161.327,129.32300000000001,10.692399999999999,37.257100000000001,-43.035899999999998,54.137500000000003,-4.08324
164453.0,152.37,124.699,8.0903399999999994,31.289100000000001,-43.069800000000001,45.532800000000002,0.61026499999999995
164454.0,153.10499999999999,3.50529,-11.327199999999999,125.184,-22.006699999999999,-40.693600000000004,-7.9559100000000003
164455.0,153.70599999999999,-2.6577299999999999,-12.819800000000001,128.369,-22.182500000000001,-33.453400000000002,-7.94184
164456.0,154.02099999999999,-5.3491499999999998,-11.8108,133.035,-22.376000000000001,-25.469899999999999,-7.9187000000000003
164457.0,154.15600000000001,-8.9240600000000008,-12.707599999999999,134.67099999999999,-22.6709,-16.935300000000002,-7.8439800000000002
164458.0,154.31100000000001,-9.8304500000000008,-12.067600000000001,136.90100000000001,-22.9544,-8.0081900000000008,-7.6419699999999997
164459.0,154.649,-11.043699999999999,-12.9777,136.81200000000001,-23.069800000000001,1.1187800000000001,-7.4173999999999998
164460.0,155.67699999999999,-9.1899899999999999,-12.0586,138.31999999999999,-22.848400000000002,10.2719,-7.3449
164461.0,157.19900000000001,-6.2982399999999998,-11.200100000000001,139.30500000000001,-22.183199999999999,19.252500000000001,-7.8584899999999998
164462.0,159.10300000000001,-1.0539499999999999,-8.8000399999999992,141.166,-20.9877,27.983699999999999,-9.21936
164463.0,160.42099999999999,5.4044800000000004,-5.7420299999999997,141.87700000000001,-19.390699999999999,36.2149,-11.581899999999999
164464.0,161.239,13.1693,-1.4958800000000001,141.70699999999999,-16.780899999999999,44.307899999999997,-14.624000000000001
164465.0,162.41300000000001,26.965,7.5372500000000002,145.00999999999999,-13.3424,52.706699999999998,-17.363
164466.0,168.43899999999999,43.540599999999998,16.544499999999999,150.46199999999999,-10.306699999999999,62.521299999999997,-20.646799999999999
164467.0,176.22,61.513399999999997,25.8293,155.98099999999999,-9.5137199999999993,71.673400000000001,-24.508800000000001
164468.0,183.30500000000001,74.407799999999995,29.870000000000001,152.36699999999999,-13.3719,79.765199999999993,-28.538599999999999
164469.0,176.505,83.047300000000007,33.3825,142.18700000000001,-22.9068,79.168999999999997,-25.002700000000001
164470.0,160.79400000000001,66.963700000000003,14.060600000000001,96.977500000000006,-39.789099999999998,71.011499999999998,-15.165900000000001
164471.0,150.60499999999999,-0.19124099999999999,-53.478000000000002,18.515499999999999,-52.017200000000003,58.814599999999999,-0.48982700000000001
164472.0,144.49700000000001,-41.334600000000002,-98.415300000000002,-24.113299999999999,-55.375900000000001,47.056800000000003,12.8996
164473.0,145.47200000000001,-40.657699999999998,-103.58499999999999,-28.029,-50.314999999999998,50.164400000000001,19.183599999999998
164474.0,148.05099999999999,24.501000000000001,-44.356299999999997,24.817799999999998,-42.849600000000002,59.818899999999999,17.441500000000001
164475.0,153.768,92.527000000000001,3.16465,58.486800000000002,-41.258299999999998,64.141900000000007,5.5651200000000003
164476.0,161.76400000000001,121.839,13.8422,58.342599999999997,-39.503,64.769499999999994,-4.5867000000000004
164477.0,159.42099999999999,129.386,16.4407,48.292400000000001,-40.037999999999997,58.532699999999998,-7.1604900000000002
164478.0,151.77000000000001,123.911,12.0528,37.114800000000002,-40.566099999999999,50.591000000000001,-5.2281199999999997
164479.0,142.185,117.95399999999999,8.3321500000000004,30.506599999999999,-40.2196,41.972499999999997,-0.51012199999999996
164480.0,141.19499999999999,5.7344799999999996,-11.086600000000001,116.27200000000001,-20.366599999999998,-37.212400000000002,-7.6665999999999999
164481.0,141.58799999999999,2.6153200000000001,-10.07,121.483,-20.514600000000002,-30.610399999999998,-7.6414799999999996
164482.0,141.74299999999999,-1.9128099999999999,-11.2189,123.52,-20.789100000000001,-23.3368,-7.6027500000000003
164483.0,141.72300000000001,-3.9756499999999999,-10.8414,126.086,-21.062999999999999,-15.5966,-7.49559
164484.0,141.65799999999999,-6.1005500000000001,-11.553000000000001,126.681,-21.2469,-7.5333899999999998,-7.2538
164485.0,142.035,-5.5913399999999998,-10.6563,128.49700000000001,-21.131799999999998,0.68010000000000004,-7.0267799999999996
164486.0,143.09399999999999,-4.6410200000000001,-10.342000000000001,129.62700000000001,-20.540400000000002,8.9048700000000007,-6.9869000000000003
164487.0,145.37299999999999,-1.4780800000000001,-8.5889100000000003,132.453,-19.456700000000001,17.0732,-7.8022099999999996
164488.0,147.71299999999999,3.6695000000000002,-5.2959100000000001,135.74199999999999,-18.0335,24.819900000000001,-9.7930899999999994
164489.0,149.18899999999999,11.369199999999999,0.65342,138.94800000000001,-16.9773,32.386299999999999,-12.7515
164490.0,148.846,22.427900000000001,9.02163,142.04900000000001,-16.1297,38.860100000000003,-15.829599999999999
164491.0,147.74100000000001,35.2273,17.6264,143.965,-14.325699999999999,45.4099,-18.053799999999999
164492.0,151.321,46.742400000000004,24.353000000000002,145.625,-11.404400000000001,54.381,-19.519600000000001
164493.0,159.77199999999999,63.566499999999998,35.013399999999997,151.99799999999999,-9.98813,64.712400000000002,-22.3931
164494.0,166.38200000000001,78.848500000000001,39.824300000000001,151.46899999999999,-13.1586,72.701599999999999,-23.638100000000001
164495.0,158.66800000000001,88.022800000000004,40.430999999999997,136.529,-25.014299999999999,71.6554,-17.967400000000001
164496.0,148.37,46.006599999999999,-7.2151100000000001,67.565700000000007,-43.147399999999998,62.821599999999997,-6.9341499999999998
164497.0,143.56999999999999,-31.223199999999999,-85.406899999999993,-11.5312,-54.5595,48.498399999999997,8.8547399999999996
164498.0,143.23500000000001,-57.418900000000001,-112.044,-33.221400000000003,-58.563000000000002,34.374200000000002,24.435300000000002
164499.0,143.62,-59.155099999999997,-121.886,-43.490600000000001,-56.3566,34.798499999999997,27.703399999999998
164500.0,142.029,-32.2898,-102.679,-23.696300000000001,-45.727899999999998,48.115099999999998,20.981000000000002
164501.0,142.833,54.772599999999997,-27.860099999999999,38.768999999999998,-39.4011,56.891599999999997,9.5260300000000004
164502.0,150.095,111.419,11.755100000000001,58.468600000000002,-39.485100000000003,58.796799999999998,-2.6265800000000001
164503.0,151.25999999999999,123.84699999999999,16.973800000000001,48.7806,-38.824599999999997,55.2376,-7.5209700000000002
164504.0,142.387,119.553,14.4323,38.513199999999998,-38.568800000000003,46.958599999999997,-5.6916900000000004
164505.0,132.70500000000001,111.98999999999999,8.8084799999999994,30.907,-37.830800000000004,38.555999999999997,-0.984433
164506.0,130.27000000000001,8.7543000000000006,-9.6963799999999996,109.214,-18.563199999999998,-34.098199999999999,-7.3572600000000001
164507.0,130.54499999999999,3.5211100000000002,-11.140700000000001,111.526,-18.815899999999999,-28.0229,-7.3171099999999996
164508.0,130.55099999999999,1.2878099999999999,-10.340199999999999,115.12,-19.081900000000001,-21.407299999999999,-7.2961299999999998
164509.0,130.369,-1.7776000000000001,-11.180400000000001,116.131,-19.343399999999999,-14.3727,-7.1684799999999997
164510.0,130.18799999999999,-2.4366300000000001,-10.4682,117.94,-19.3962,-7.1258999999999997,-6.9762700000000004
164511.0,130.47399999999999,-3.4455800000000001,-10.961499999999999,118.30800000000001,-19.088899999999999,0.281893,-6.6972199999999997
164512.0,131.874,-1.4712499999999999,-9.1726200000000002,121.336,-18.128599999999999,7.6738600000000003,-6.8701299999999996
164513.0,134.74299999999999,1.43581,-7.1467900000000002,125.19499999999999,-16.739999999999998,15.116899999999999,-7.6841400000000002
164514.0,138.65299999999999,6.53965,-2.8028200000000001,130.70599999999999,-15.398,22.436900000000001,-10.6218
164515.0,139.78800000000001,11.8499,1.25813,132.00399999999999,-15.4129,28.5627,-13.648199999999999
164516.0,137.125,14.983499999999999,4.8940900000000003,124.871,-18.926100000000002,34.933900000000001,-16.141999999999999
164517.0,135.31700000000001,17.816800000000001,9.1410599999999995,119.748,-22.0426,39.929499999999997,-15.496499999999999
164518.0,134.13999999999999,34.572400000000002,21.1616,127.601,-21.874600000000001,44.539299999999997,-13.228899999999999
164519.0,141.56299999999999,51.048900000000003,26.828600000000002,132.88200000000001,-20.698799999999999,54.362000000000002,-14.419700000000001
164520.0,147.15000000000001,73.742400000000004,37.807200000000002,141.958,-22.482700000000001,61.351399999999998,-12.2318
164521.0,143.28100000000001,68.186199999999999,21.144400000000001,106.64400000000001,-33.9544,61.630400000000002,-7.6299999999999999
164522.0,139.952,-2.10806,-58.442300000000003,16.869599999999998,-46.110300000000002,53.534500000000001,1.59137
164523.0,136.73099999999999,-52.872399999999999,-115.85899999999999,-33.7196,-53.235900000000001,36.0167,15.9293
164524.0,140.92500000000001,-59.320900000000002,-124.84999999999999,-37.662799999999997,-57.515799999999999,21.953900000000001,27.7334
164525.0,141.971,-64.471000000000004,-132.15899999999999,-44.312399999999997,-57.064900000000002,21.719000000000001,29.5457
164526.0,138.36699999999999,-48.556600000000003,-122.47499999999999,-33.579999999999998,-48.534199999999998,35.663499999999999,22.119900000000001
164527.0,136.72800000000001,30.405200000000001,-50.484999999999999,26.7927,-39.304499999999997,49.817100000000003,10.8119
164528.0,139.25200000000001,104.81999999999999,13.053900000000001,62.560299999999998,-38.608400000000003,53.466900000000003,-2.1842800000000002
164529.0,142.51599999999999,118.134,18.085899999999999,48.804900000000004,-37.865499999999997,51.375999999999998,-8.3863299999999992
164530.0,133.489,113.711,14.847200000000001,38.331600000000002,-36.576099999999997,43.574599999999997,-5.9376699999999998
164531.0,123.383,104.999,8.1550999999999991,30.5548,-35.750300000000003,35.004199999999997,-0.80261800000000005
164532.0,120.337,10.504899999999999,-9.2247400000000006,101.911,-16.907299999999999,-31.235099999999999,-7.0412999999999997
164533.0,120.456,8.0265699999999995,-8.2593800000000002,106.193,-17.1753,-25.668700000000001,-7.0131800000000002
164534.0,120.44499999999999,3.9169800000000001,-9.59741,107.395,-17.437899999999999,-19.653199999999998,-7.0051399999999999
164535.0,120.02500000000001,2.5863200000000002,-8.9032199999999992,109.521,-17.690799999999999,-13.2713,-6.9081599999999996
164536.0,119.905,0.18058099999999999,-9.9413599999999995,109.553,-17.6234,-6.74064,-6.76518
164537.0,119.917,1.6384099999999999,-7.8030999999999997,112.246,-17.183700000000002,-0.14421400000000001,-6.49803
164538.0,121.98099999999999,1.12744,-7.9701000000000004,113.995,-15.8902,6.6667800000000002,-6.8265099999999999
164539.0,125.10299999999999,6.5382100000000003,-2.7599999999999998,121.366,-14.2844,13.244899999999999,-7.5934699999999999
164540.0,131.381,8.0857700000000001,-1.4743299999999999,125.69499999999999,-13.1214,20.966999999999999,-11.222
164541.0,132.45599999999999,20.7348,9.8448700000000002,134.994,-14.939299999999999,25.209599999999998,-13.5465
164542.0,126.523,19.0274,6.7016200000000001,115.504,-22.644100000000002,31.480599999999999,-16.812999999999999
164543.0,124.258,-23.641300000000001,-31.921299999999999,64.616299999999995,-29.6311,34.879800000000003,-13.7552
164544.0,122.29000000000001,-23.2395,-29.264500000000002,61.631500000000003,-34.166800000000002,34.721200000000003,-5.3312299999999997
164545.0,128.49100000000001,2.21536,-11.6897,78.680700000000002,-36.061500000000002,42.795099999999998,-1.90784
164546.0,133.815,26.607700000000001,1.67919,91.262299999999996,-36.593499999999999,49.878999999999998,2.0056799999999999
164547.0,134.381,20.9526,-22.5867,56.854599999999998,-43.093499999999999,50.6599,3.6562199999999998
164548.0,134.232,-22.477799999999998,-85.919499999999999,-0.92713400000000001,-47.739600000000003,40.999899999999997,9.6884800000000002
164549.0,135.24100000000001,-36.238,-108.81699999999999,-18.645800000000001,-52.592100000000002,24.378299999999999,21.255299999999998
164550.0,140.40299999999999,-52.921700000000001,-125.08199999999999,-34.509300000000003,-56.6828,14.264099999999999,29.3767
164551.0,139.28399999999999,-65.318700000000007,-135.904,-42.843699999999998,-54.9788,14.0456,29.8124
164552.0,131.93100000000001,-48.3705,-121.815,-30.5444,-47.691800000000001,27.346699999999998,20.957100000000001
164553.0,128.79900000000001,15.433999999999999,-61.551200000000001,17.749099999999999,-38.302199999999999,44.320799999999998,7.8477100000000002
164554.0,129.72200000000001,93.917299999999997,8.6349300000000007,58.331000000000003,-36.469000000000001,49.2605,-4.2228700000000003
164555.0,133.37299999999999,116.04300000000001,23.024000000000001,51.6661,-36.338200000000001,47.432400000000001,-9.4660299999999999
164556.0,124.499,106.51600000000001,14.5327,36.294600000000003,-34.753700000000002,40.128599999999999,-6.1301500000000004
164557.0,113.986,95.348299999999995,5.3460200000000002,26.621300000000002,-33.244399999999999,31.8245,-0.42491000000000001
164558.0,111.239,13.025499999999999,-7.6350800000000003,96.262,-15.3409,-28.618400000000001,-6.73733
164559.0,111.312,8.2834099999999999,-9.3010900000000003,97.603399999999993,-15.664899999999999,-23.524999999999999,-6.7348499999999998
164560.0,111.241,6.6535000000000002,-8.4156300000000002,100.759,-15.9291,-18.037199999999999,-6.7385999999999999
164561.0,110.756,3.9592200000000002,-9.2698199999999993,101.09399999999999,-16.168500000000002,-12.2788,-6.7130000000000001
164562.0,110.541,3.2543799999999998,-8.5883400000000005,102.642,-16.035499999999999,-6.3814500000000001,-6.5987400000000003
164563.0,110.559,2.7702399999999998,-8.1643699999999999,103.55200000000001,-15.4834,-0.528972,-6.4490400000000001
164564.0,112.851,3.6667900000000002,-6.4138999999999999,107.429,-13.9703,5.7338899999999997,-6.7571300000000001
164565.0,116.788,8.0297199999999993,-1.52197,115.21599999999999,-12.2141,11.7279,-7.64473
164566.0,124.506,10.7737,1.05491,122.2,-11.192500000000001,19.686599999999999,-11.1091
164567.0,126.27800000000001,19.2986,7.6601699999999999,127.69199999999999,-14.5829,23.494800000000001,-12.9894
164568.0,119.27800000000001,15.19,-5.1063700000000001,98.677000000000007,-26.597899999999999,27.495799999999999,-15.920199999999999
164569.0,117.968,-41.984400000000001,-69.027199999999993,23.885899999999999,-37.975499999999997,27.395299999999999,-12.741400000000001
164570.0,116.919,-76.585099999999997,-102.74299999999999,-12.532500000000001,-43.736199999999997,22.0823,-1.42753
164571.0,120.193,-66.503900000000002,-95.453699999999998,-7.0229200000000001,-45.668999999999997,25.929300000000001,4.9805400000000004
164572.0,124.801,-49.016300000000001,-86.770799999999994,2.8625699999999998,-44.986499999999999,32.843400000000003,8.0099099999999996
164573.0,129.29400000000001,-42.177399999999999,-97.314999999999998,-8.1576799999999992,-47.1297,34.957599999999999,10.228899999999999
164574.0,132.965,-34.792200000000001,-104.855,-10.8104,-49.354199999999999,28.017299999999999,16.864699999999999
164575.0,134.785,-30.770700000000001,-107.246,-14.942600000000001,-52.590800000000002,16.682600000000001,23.981000000000002
164576.0,134.357,-46.240299999999998,-121.91,-29.561199999999999,-52.681399999999996,8.9903700000000004,27.185199999999998
164577.0,128.93299999999999,-57.795000000000002,-129.75700000000001,-37.986400000000003,-49.674199999999999,9.5580599999999993,25.5001
164578.0,120.422,-47.7378,-119.08199999999999,-29.6599,-42.459699999999998,23.961300000000001,14.877599999999999
164579.0,118.02,24.873100000000001,-48.7851,28.9131,-34.3626,39.340699999999998,1.12182
164580.0,121.83199999999999,99.819400000000002,18.197800000000001,63.843899999999998,-34.131100000000004,45.177599999999998,-8.2735400000000006
164581.0,124.73999999999999,110.68300000000001,25.130800000000001,50.560600000000001,-33.9527,44.599899999999998,-10.708500000000001
164582.0,114.706,100.306,15.088900000000001,35.029899999999998,-32.498699999999999,35.993600000000001,-6.8800400000000002
164583.0,105.008,85.196600000000004,-0.16028999999999999,22.663599999999999,-30.266300000000001,28.3584,-1.56779
164584.0,102.929,14.0467,-7.4200600000000003,89.808499999999995,-13.960100000000001,-26.189800000000002,-6.4541000000000004
164585.0,103.01900000000001,12.208600000000001,-6.4912799999999997,93.517899999999997,-14.3156,-21.5351,-6.4645900000000003
164586.0,102.90900000000001,8.5060400000000005,-7.9473099999999999,94.0732,-14.6099,-16.5549,-6.5179299999999998
164587.0,102.43899999999999,7.47112,-7.2987000000000002,95.769800000000004,-14.838800000000001,-11.339399999999999,-6.5432499999999996
164588.0,102.123,5.3641399999999999,-8.0338799999999999,95.661100000000005,-14.6981,-6.0709099999999996,-6.5199499999999997
164589.0,102.223,6.3637699999999997,-5.9031500000000001,98.287199999999999,-14.0794,-0.817604,-6.4500799999999998
164590.0,104.52500000000001,6.1227299999999998,-4.7443,101.497,-12.479100000000001,4.8121900000000002,-6.7845300000000002
164591.0,109.288,10.3613,0.64471299999999998,110.51900000000001,-10.599500000000001,10.5579,-7.5996300000000003
164592.0,117.758,13.4183,3.8212899999999999,118.892,-9.6300899999999992,18.456600000000002,-10.6105
164593.0,120.34,25.341100000000001,11.547599999999999,127.08199999999999,-13.881500000000001,22.542200000000001,-12.0336
164594.0,114.128,26.7165,-0.165993,100.114,-29.007899999999999,25.069800000000001,-13.321
164595.0,118.46299999999999,-34.008499999999998,-76.136499999999998,14.683299999999999,-45.517000000000003,21.273199999999999,-9.3735400000000002
164596.0,126.298,-79.243499999999997,-131.03899999999999,-35.483699999999999,-54.130699999999997,9.6663399999999999,2.3168000000000002
164597.0,131.636,-71.300799999999995,-129.86199999999999,-31.1675,-56.319400000000002,7.6068600000000002,9.1028300000000009
164598.0,133.53899999999999,-58.799399999999999,-123.29300000000001,-20.658100000000001,-54.183500000000002,13.632199999999999,11.4519
164599.0,134.208,-42.280799999999999,-113.877,-11.859400000000001,-52.025199999999998,18.4481,14.6218
164600.0,131.96600000000001,-32.6006,-107.27,-10.1266,-50.503,17.033000000000001,19.444700000000001
164601.0,129.83500000000001,-34.793199999999999,-110.93899999999999,-18.9892,-50.364800000000002,11.457700000000001,23.109400000000001
164602.0,127.178,-46.063000000000002,-121.29300000000001,-28.9879,-48.395299999999999,5.34884,24.6739
164603.0,118.676,-54.535699999999999,-127.93000000000001,-37.576000000000001,-44.322000000000003,7.4786400000000004,19.180900000000001
164604.0,110.059,-30.3005,-100.881,-11.4299,-35.511600000000001,22.588100000000001,6.57043
164605.0,108.226,54.854399999999998,-15.0198,55.451599999999999,-30.647300000000001,36.080199999999998,-4.6617899999999999
164606.0,115.56399999999999,102.59399999999999,26.223600000000001,62.584299999999999,-32.152999999999999,42.725900000000003,-11.5389
164607.0,116.249,104.163,25.956600000000002,47.110799999999998,-30.947700000000001,42.045999999999999,-11.941000000000001
164608.0,105.09999999999999,97.852800000000002,18.596800000000002,38.008600000000001,-29.657800000000002,32.407400000000003,-6.7512699999999999
164609.0,96.740700000000004,85.969899999999996,5.15381,29.993400000000001,-27.811399999999999,25.1249,-1.11741
164610.0,95.326499999999996,16.027899999999999,-6.0599800000000004,84.999899999999997,-12.7296,-23.9346,-6.1631600000000004
164611.0,95.475099999999998,12.1099,-7.5578900000000004,86.119399999999999,-13.1317,-19.684999999999999,-6.2142600000000003
164612.0,95.389499999999998,10.6084,-7.0963200000000004,88.422399999999996,-13.4503,-15.176,-6.30694
164613.0,94.931700000000006,8.4929400000000008,-7.7048800000000002,88.719099999999997,-13.6995,-10.4557,-6.4016000000000002
164614.0,94.646699999999996,7.5149499999999998,-7.3332600000000001,89.616900000000001,-13.565099999999999,-5.7567500000000003,-6.4876699999999996
164615.0,94.674199999999999,7.2555699999999996,-6.2978500000000004,90.983000000000004,-12.9697,-1.07006,-6.4902699999999998
164616.0,97.114500000000007,7.3332100000000002,-4.3132700000000002,95.052599999999998,-11.3575,4.0339200000000002,-6.9156700000000004
164617.0,101.971,11.7722,1.7967599999999999,104.88800000000001,-9.4306999999999999,9.4282800000000009,-7.4299999999999997
164618.0,111.339,13.9817,4.4686399999999997,113.59699999999999,-8.3735599999999994,17.515599999999999,-10.0732
164619.0,114.032,24.3004,9.0746300000000009,119.818,-12.551399999999999,21.584800000000001,-10.3805
164620.0,108.66800000000001,20.594200000000001,-12.6976,84.267099999999999,-28.241199999999999,24.410900000000002,-10.740399999999999
164621.0,116.843,-38.017499999999998,-90.482299999999995,-0.67819200000000002,-46.206800000000001,18.399000000000001,-6.4743899999999996
164622.0,130.22399999999999,-77.779700000000005,-141.02699999999999,-45.938699999999997,-57.288600000000002,2.4543699999999999,4.6982299999999997
164623.0,140.18000000000001,-72.019000000000005,-141.99000000000001,-42.965600000000002,-61.835000000000001,-2.5773299999999999,11.3568
164624.0,141.02000000000001,-60.554600000000001,-133.80199999999999,-29.404499999999999,-59.670499999999997,2.0393699999999999,13.8484
164625.0,136.37299999999999,-51.699599999999997,-128.126,-24.413799999999998,-54.894300000000001,6.8919600000000001,15.749700000000001
164626.0,130.113,-45.259099999999997,-124.325,-24.8842,-50.1312,7.9322400000000002,17.546600000000002
164627.0,125.2,-45.234999999999999,-125.5,-29.7422,-46.6462,5.3059099999999999,19.466699999999999
164628.0,118.66,-43.753700000000002,-119.589,-28.2806,-43.786700000000003,2.5534599999999998,19.535799999999998
164629.0,107.928,-43.178400000000003,-113.197,-26.027899999999999,-38.869,8.7515400000000003,12.7644
164630.0,100.11799999999999,1.9162699999999999,-61.343299999999999,20.641500000000001,-30.3215,23.956399999999999,1.50959
164631.0,99.538499999999999,79.858000000000004,17.712499999999999,72.3309,-27.920500000000001,36.072099999999999,-8.4599799999999998
164632.0,109.535,107.8,39.025399999999998,64.471000000000004,-29.0213,41.866900000000001,-13.9673
164633.0,107.575,100.09399999999999,28.1265,45.010100000000001,-27.755299999999998,39.016399999999997,-12.180099999999999
164634.0,96.0321,92.981499999999997,19.456800000000001,37.6173,-26.304600000000001,29.700500000000002,-5.7613700000000003
164635.0,88.192800000000005,81.203000000000003,6.25847,29.994700000000002,-25.0244,22.345700000000001,-0.21875700000000001
164636.0,88.431200000000004,16.786899999999999,-5.9061899999999996,79.569999999999993,-11.6418,-21.825199999999999,-5.86029
164637.0,88.590199999999996,15.4978,-5.1321000000000003,82.758499999999998,-12.089499999999999,-17.943300000000001,-5.9634600000000004
164638.0,88.623199999999997,12.0214,-6.9092000000000002,82.758300000000006,-12.434799999999999,-13.875,-6.0959700000000003
164639.0,88.177899999999994,11.5151,-6.1234299999999999,84.312100000000001,-12.716699999999999,-9.6186699999999998,-6.2739599999999998
164640.0,88.011300000000006,9.1077899999999996,-7.2252799999999997,83.736900000000006,-12.6143,-5.4154400000000003,-6.4667300000000001
164641.0,87.923900000000003,10.4246,-4.5402500000000003,86.537700000000001,-12.102,-1.28799,-6.5851300000000004
164642.0,90.446899999999999,8.8779299999999992,-3.75563,89.4011,-10.5677,3.4011800000000001,-7.0715599999999998
164643.0,94.890299999999996,13.6487,3.26214,99.722200000000001,-8.6633499999999994,8.2776800000000001,-7.3687699999999996
164644.0,104.765,14.803599999999999,5.2497299999999996,108.232,-7.3583600000000002,16.716000000000001,-9.3501200000000004
164645.0,107.61,30.970600000000001,15.0891,120.851,-10.4834,20.4876,-8.8082499999999992
164646.0,101.97199999999999,32.401699999999998,-3.84118,88.835300000000004,-24.529800000000002,24.600999999999999,-8.8288799999999998
164647.0,110.66500000000001,-37.7134,-96.312299999999993,-7.1394799999999998,-40.782400000000003,18.454899999999999,-5.0022099999999998
164648.0,125.63500000000001,-71.168800000000005,-144.97200000000001,-48.162799999999997,-51.8446,-0.63931300000000002,3.8882699999999999
164649.0,137.38200000000001,-60.862099999999998,-142.114,-42.508400000000002,-57.949599999999997,-7.8940099999999997,7.8003299999999998
164650.0,137.584,-58.589599999999997,-138.63800000000001,-34.871600000000001,-56.798000000000002,-5.4720399999999998,9.8746200000000002
164651.0,133.387,-43.497,-123.742,-20.59,-53.305500000000002,-1.55091,12.3626
164652.0,127.45699999999999,-37.9876,-118.542,-18.222999999999999,-48.848799999999997,1.24916,14.2621
164653.0,120.374,-35.110900000000001,-114.514,-18.686,-44.025199999999998,1.0741000000000001,16.2575
164654.0,110.55500000000001,-46.849800000000002,-121.346,-33.093299999999999,-40.298400000000001,2.0673499999999998,13.831099999999999
164655.0,96.437799999999996,-42.925199999999997,-107.06,-25.630700000000001,-33.133099999999999,11.3606,5.7165600000000003
164656.0,88.797300000000007,16.895900000000001,-36.339599999999997,31.9175,-25.339500000000001,26.124300000000002,-4.1591899999999997
164657.0,93.340900000000005,85.381500000000003,30.956,69.914199999999994,-24.799199999999999,36.812800000000003,-12.1439
164658.0,103.333,101.776,39.415999999999997,57.218200000000003,-25.559000000000001,40.747100000000003,-14.6214
164659.0,98.625600000000006,96.707800000000006,29.8477,44.081400000000002,-24.625499999999999,35.746600000000001,-10.849
164660.0,87.823700000000002,88.1434,18.524899999999999,37.156199999999998,-23.196300000000001,26.649899999999999,-4.87758
164661.0,80.945300000000003,76.784899999999993,5.4031599999999997,30.929400000000001,-22.2654,19.487200000000001,-0.52121300000000004
164662.0,82.089600000000004,18.539000000000001,-4.6922899999999998,75.603999999999999,-10.685600000000001,-19.843499999999999,-5.5697999999999999
164663.0,82.356499999999997,15.004,-6.5145299999999997,76.120199999999997,-11.158300000000001,-16.317299999999999,-5.6846199999999998
164664.0,82.474400000000003,13.971500000000001,-6.1528700000000001,78.177000000000007,-11.536899999999999,-12.644399999999999,-5.8782800000000002
164665.0,82.155000000000001,12.045299999999999,-6.9898300000000004,78.102699999999999,-11.827299999999999,-8.8192299999999992,-6.1410299999999998
164666.0,82.048599999999993,11.077999999999999,-6.7696500000000004,78.803600000000003,-11.7926,-5.0641800000000003,-6.4237700000000002
164667.0,82.008600000000001,10.7765,-5.6434499999999996,79.988900000000001,-11.355399999999999,-1.4207799999999999,-6.7351099999999997
164668.0,84.285200000000003,10.0692,-3.80863,83.632800000000003,-9.9899000000000004,2.8107799999999998,-7.20641
164669.0,88.379099999999994,14.2074,3.1876500000000001,93.480500000000006,-8.1579099999999993,7.2961200000000002,-7.5781900000000002
164670.0,97.459800000000001,15.209300000000001,5.6412800000000001,101.872,-6.44869,15.4986,-8.6009499999999992
164671.0,101.07899999999999,26.645900000000001,11.979200000000001,111.435,-8.1664600000000007,19.958100000000002,-7.6157599999999999
164672.0,95.069699999999997,25.550699999999999,-9.6385400000000008,80.079400000000007,-17.3779,24.4421,-8.3576200000000007
164673.0,97.991699999999994,-34.057499999999997,-91.560400000000001,-5.4943600000000004,-28.7334,20.2638,-6.5519600000000002
164674.0,107.315,-69.095699999999994,-137.91,-47.665300000000002,-40.005499999999998,3.8516599999999999,0.66203100000000004
164675.0,121.798,-64.223100000000002,-141.49799999999999,-48.271099999999997,-49.120600000000003,-5.6638200000000003,3.7155900000000002
164676.0,128.143,-57.793999999999997,-138.596,-39.487900000000003,-51.124000000000002,-7.5122900000000001,4.7267900000000003
164677.0,127.014,-54.315600000000003,-135.65700000000001,-35.477800000000002,-49.425800000000002,-6.0720299999999998,7.9525100000000002
164678.0,120.155,-51.802900000000001,-130.874,-34.005800000000001,-45.435400000000001,-2.2897699999999999,9.1665799999999997
164679.0,108.84699999999999,-46.104399999999998,-120.069,-27.766200000000001,-38.411900000000003,-0.21712400000000001,9.2671799999999998
164680.0,95.580200000000005,-39.909799999999997,-108.371,-28.907699999999998,-33.9238,3.7621199999999999,5.14635
164681.0,84.412999999999997,-28.275600000000001,-84.743799999999993,-14.2263,-27.235199999999999,15.3102,-2.4280300000000001
164682.0,81.403000000000006,33.357399999999998,-12.383100000000001,44.486699999999999,-21.303100000000001,27.441299999999998,-9.6747200000000007
164683.0,88.316299999999998,92.5608,43.1556,70.997500000000002,-22.2592,35.9651,-14.0519
164684.0,96.319199999999995,101.10599999999999,43.8033,57.410299999999999,-22.168600000000001,39.072000000000003,-13.3431
164685.0,89.575999999999993,92.175200000000004,29.053699999999999,43.021099999999997,-21.656700000000001,32.147300000000001,-8.5381900000000002
164686.0,80.789500000000004,80.805499999999995,14.136799999999999,34.458599999999997,-20.694900000000001,23.875900000000001,-3.1128999999999998
164687.0,75.328999999999994,71.925600000000003,3.4817399999999998,31.805900000000001,-20.082899999999999,17.470099999999999,0.47455000000000003
164688.0,76.193700000000007,19.494700000000002,-4.3324199999999999,71.172799999999995,-9.8146400000000007,-17.931699999999999,-5.2332900000000002
164689.0,76.759200000000007,17.8919,-4.5316999999999998,73.415099999999995,-10.273199999999999,-14.807399999999999,-5.38232
164690.0,76.844700000000003,15.383699999999999,-5.9774200000000004,73.478999999999999,-10.6945,-11.4673,-5.63157
164691.0,76.820499999999996,14.5434,-5.8874300000000002,74.511899999999997,-10.966799999999999,-8.0476399999999995,-5.9847400000000004
164692.0,76.661900000000003,12.929500000000001,-6.5115499999999997,74.212100000000007,-11.0152,-4.7160700000000002,-6.3615000000000004
164693.0,76.898099999999999,13.130100000000001,-4.83066,76.143699999999995,-10.6409,-1.4434499999999999,-6.8873100000000003
164694.0,78.608199999999997,12.452400000000001,-2.8803100000000001,79.306799999999996,-9.5027600000000003,2.21055,-7.3941699999999999
164695.0,82.555599999999998,14.2835,2.40395,87.127600000000001,-7.7812400000000004,6.5674900000000003,-7.9926899999999996
164696.0,89.726699999999994,17.5032,8.1466899999999995,97.212199999999996,-5.7164299999999999,13.6858,-8.2481899999999992
164697.0,94.042500000000004,29.183599999999998,17.1922,108.629,-5.6677099999999996,19.754999999999999,-7.5019999999999998
164698.0,90.321399999999997,41.450800000000001,12.7948,100.209,-9.8454999999999995,23.938600000000001,-7.9698399999999996
164699.0,88.426699999999997,12.5154,-40.139200000000002,44.793900000000001,-14.5482,21.515899999999998,-9.6869899999999998
164700.0,89.175399999999996,-29.358000000000001,-96.881900000000002,-10.1287,-19.795200000000001,10.504099999999999,-8.5249699999999997
164701.0,96.552899999999994,-39.102600000000002,-113.44,-27.818899999999999,-30.222999999999999,1.64296,-5.2243599999999999
164702.0,108.592,-48.868200000000002,-125.041,-35.655999999999999,-39.895400000000002,-2.5236499999999999,-2.2313100000000001
164703.0,114.361,-41.3626,-119.017,-24.729099999999999,-42.134399999999999,-6.7970699999999997,2.2538999999999998
164704.0,110.22,-41.6678,-119.16800000000001,-28.334900000000001,-40.372999999999998,-2.9354800000000001,2.2665000000000002
164705.0,98.837900000000005,-28.672899999999998,-96.311000000000007,-4.65259,-31.573799999999999,0.60398099999999999,-0.42785400000000001
164706.0,83.620000000000005,-5.8766600000000002,-70.323300000000003,2.0117600000000002,-26.585999999999999,4.1149199999999997,-5.6885000000000003
164707.0,77.677899999999994,-10.693,-63.540500000000002,-5.3958700000000004,-22.5562,18.762599999999999,-10.8095
164708.0,76.238399999999999,45.444800000000001,7.1243299999999996,54.104799999999997,-18.856300000000001,28.430800000000001,-12.1843
164709.0,81.823700000000002,92.972700000000003,46.133899999999997,67.918700000000001,-20.8673,33.0593,-12.409000000000001
164710.0,88.809799999999996,89.069999999999993,33.160400000000003,49.688699999999997,-19.878299999999999,36.063299999999998,-10.409599999999999
164711.0,80.958699999999993,86.714600000000004,25.305299999999999,43.311100000000003,-19.4087,27.879100000000001,-5.8566200000000004
164712.0,74.989599999999996,73.356899999999996,7.9680499999999999,31.675000000000001,-18.352699999999999,20.9297,-1.93781
164713.0,70.511700000000005,65.3536,-0.55768600000000002,30.0991,-18.0228,15.621,0.79270600000000002
164714.0,70.882300000000001,20.959800000000001,-3.4046500000000002,67.759500000000003,-9.0388699999999993,-16.173300000000001,-4.8433099999999998
164715.0,71.612499999999997,17.3261,-5.9537699999999996,67.6434,-9.4661299999999997,-13.3819,-5.0707899999999997
164716.0,71.798199999999994,17.1328,-5.3878399999999997,69.687200000000004,-9.8914500000000007,-10.372199999999999,-5.3545999999999996
164717.0,71.983000000000004,14.917899999999999,-6.8318099999999999,69.291899999999998,-10.137700000000001,-7.3127000000000004,-5.7910500000000003
164718.0,71.910899999999998,14.7028,-6.2231699999999996,70.217500000000001,-10.223699999999999,-4.3680399999999997,-6.2954299999999996
164719.0,72.315799999999996,13.3569,-6.0655099999999997,70.731300000000005,-9.8919599999999992,-1.4195,-6.9900700000000002
164720.0,73.664699999999996,13.7471,-2.9967899999999998,74.569699999999997,-8.9586400000000008,1.71157,-7.7195099999999996
164721.0,77.150999999999996,14.8415,1.99607,81.533199999999994,-7.35297,5.8779000000000003,-8.5040899999999997
164722.0,82.532700000000006,17.913900000000002,9.0057399999999994,91.070899999999995,-5.2224500000000003,11.8497,-8.6712900000000008
164723.0,87.085599999999999,22.126000000000001,13.8568,96.822199999999995,-3.6867700000000001,18.838999999999999,-8.4224999999999994
164724.0,86.384200000000007,28.6236,12.8725,93.571399999999997,-4.26288,23.997800000000002,-7.9733099999999997
164725.0,82.852500000000006,42.948500000000003,10.5608,89.505300000000005,-6.9060199999999998,23.957699999999999,-9.57728
164726.0,81.536799999999999,48.588700000000003,-2.5064099999999998,78.295500000000004,-10.4346,17.292300000000001,-11.739699999999999
164727.0,81.889600000000002,22.962900000000001,-41.2485,34.110199999999999,-17.434899999999999,11.411199999999999,-12.113
164728.0,86.280500000000004,-37.469900000000003,-103.121,-28.058,-25.442399999999999,7.9086999999999996,-9.9699100000000005
164729.0,90.338200000000001,-54.386200000000002,-118.142,-38.506900000000002,-30.3932,-0.78636600000000001,-4.41892
164730.0,91.928899999999999,-55.8264,-122.173,-45.9178,-32.780900000000003,2.2136,-4.2819099999999999
164731.0,88.582099999999997,-28.357700000000001,-82.521500000000003,1.9133,-26.536799999999999,6.0166300000000001,-6.73149
164732.0,75.146699999999996,49.080199999999998,-2.91004,58.886699999999998,-24.988099999999999,7.2877599999999996,-10.090999999999999
164733.0,73.499499999999998,30.623899999999999,-15.1945,28.502099999999999,-21.9023,21.269200000000001,-14.133800000000001
164734.0,70.474699999999999,54.127000000000002,19.1005,58.972499999999997,-17.263400000000001,27.342600000000001,-11.686299999999999
164735.0,74.809899999999999,90.496899999999997,43.538200000000003,65.514200000000002,-20.299299999999999,28.9558,-7.9357800000000003
164736.0,80.833799999999997,77.241100000000003,23.2713,45.527500000000003,-18.728999999999999,32.455599999999997,-6.18485
164737.0,73.567300000000003,79.400400000000005,18.762499999999999,42.5899,-17.2944,23.7544,-2.7198699999999998
164738.0,71.121799999999993,65.713999999999999,0.72857799999999995,28.890899999999998,-16.881599999999999,18.393000000000001,-0.88571299999999997
164739.0,66.4559,57.736400000000003,-6.0489199999999999,27.642499999999998,-16.2788,13.7445,0.0318851
164740.0,66.092299999999994,21.325800000000001,-3.6078199999999998,63.668799999999997,-8.2292299999999994,-14.559699999999999,-4.4234
164741.0,66.849599999999995,20.557099999999998,-3.5966100000000001,65.984300000000005,-8.6480999999999995,-12.026300000000001,-4.70214
164742.0,67.263800000000003,18.055099999999999,-5.5701200000000002,65.592299999999994,-9.0302000000000007,-9.3516999999999992,-5.0468900000000003
164743.0,67.568399999999997,17.684899999999999,-5.32857,66.897400000000005,-9.2569599999999994,-6.6238700000000001,-5.5602299999999998
164744.0,67.721500000000006,16.1449,-6.1497599999999997,66.546099999999996,-9.3354300000000006,-4.0082500000000003,-6.2058400000000002
164745.0,68.212199999999996,16.249199999999998,-4.5306100000000002,68.519800000000004,-9.0528600000000008,-1.3994500000000001,-7.0939399999999999
164746.0,69.455600000000004,15.6225,-2.38571,71.2029,-8.2831499999999991,1.37107,-8.1287599999999998
164747.0,72.271900000000002,16.0626,2.4218299999999999,77.134,-6.8717899999999998,5.1222399999999997,-9.2013400000000001
164748.0,76.413600000000002,18.905999999999999,10.476699999999999,86.153199999999998,-4.8639900000000003,10.3207,-9.8051100000000009
164749.0,80.903300000000002,26.978300000000001,22.3992,97.6815,-2.61307,17.147200000000002,-9.9853900000000007
164750.0,82.829400000000007,40.121400000000001,36.393099999999997,108.303,-0.843804,23.547599999999999,-9.6301600000000001
164751.0,81.537499999999994,46.235599999999998,40.377200000000002,106.417,-1.46509,28.002700000000001,-9.6736299999999993
164752.0,75.917400000000001,58.010399999999997,44.393000000000001,106.526,-5.0361200000000004,26.8474,-10.410299999999999
164753.0,70.8279,61.887300000000003,29.151399999999999,87.299999999999997,-9.9545100000000009,23.139099999999999,-13.707700000000001
164754.0,73.660600000000002,16.191400000000002,-33.173299999999998,28.5579,-11.747,18.2547,-16.4513
164755.0,71.792400000000001,-7.7276300000000004,-61.719700000000003,3.21407,-14.449,9.0355500000000006,-14.801600000000001
164756.0,73.753500000000003,-25.097799999999999,-79.228399999999993,-18.59,-19.4406,10.723100000000001,-14.5611
164757.0,73.654300000000006,-10.9831,-49.789900000000003,14.765000000000001,-19.572099999999999,14.037100000000001,-13.1212
164758.0,66.950000000000003,45.710799999999999,9.1140299999999996,56.162100000000002,-23.208500000000001,14.3612,-11.784700000000001
164759.0,68.759500000000003,50.019100000000002,9.3616799999999998,48.957900000000002,-21.818999999999999,19.322099999999999,-13.7674
164760.0,65.5154,63.244500000000002,20.838000000000001,62.087800000000001,-18.972200000000001,20.623699999999999,-7.87033
164761.0,71.480000000000004,59.933100000000003,8.1221200000000007,41.146099999999997,-20.8263,23.910599999999999,-3.1133199999999999
164762.0,73.103499999999997,56.479199999999999,0.97908399999999995,36.539900000000003,-17.359100000000002,25.919899999999998,-4.2177899999999999
164763.0,69.258700000000005,71.639200000000002,9.0414100000000008,40.342100000000002,-15.750999999999999,19.191199999999998,-1.7047699999999999
164764.0,67.761700000000005,56.679400000000001,-6.9178199999999999,24.994700000000002,-15.4887,16.659400000000002,-1.39941
164765.0,63.002899999999997,59.782200000000003,-2.1900900000000001,34.210999999999999,-14.624499999999999,11.7615,-0.99863500000000005
164766.0,61.695,22.779599999999999,-2.70092,60.945399999999999,-7.5338900000000004,-13.0312,-4.0079099999999999
164767.0,62.592700000000001,19.839300000000001,-5.1666999999999996,60.776600000000002,-7.9198899999999997,-10.784599999999999,-4.3169700000000004
164768.0,63.151600000000002,19.823899999999998,-4.8031600000000001,62.750799999999998,-8.2220099999999992,-8.4024099999999997,-4.73102
164769.0,63.637999999999998,17.865400000000001,-6.2682700000000002,62.443300000000001,-8.3999199999999998,-5.9997100000000003,-5.3128799999999998
164770.0,63.966900000000003,17.782900000000001,-5.6132900000000001,63.670000000000002,-8.4169999999999998,-3.6749100000000001,-6.1134599999999999
164771.0,64.609800000000007,16.473299999999998,-5.3252300000000004,64.376099999999994,-8.1313700000000004,-1.37018,-7.2196899999999999
164772.0,65.806200000000004,16.856999999999999,-1.9993099999999999,68.0107,-7.4542799999999998,1.12649,-8.6239100000000004
164773.0,68.144800000000004,17.484999999999999,3.3134899999999998,73.707800000000006,-6.2907099999999998,4.4532699999999998,-10.1142
164774.0,71.464600000000004,19.4846,11.2837,81.430800000000005,-4.6885700000000003,9.0308600000000006,-11.3133
164775.0,75.538499999999999,20.225000000000001,18.462800000000001,86.856999999999999,-2.7442700000000002,15.266299999999999,-11.887700000000001
164776.0,78.778499999999994,23.4115,26.7592,90.975999999999999,-0.595163,21.912299999999998,-11.7552
164777.0,81.192099999999996,37.055900000000001,42.555599999999998,100.577,1.35175,28.502600000000001,-12.023400000000001
164778.0,79.550600000000003,48.443300000000001,52.551400000000001,103.625,1.2372700000000001,31.640000000000001,-12.7179
164779.0,73.764399999999995,53.436900000000001,45.640999999999998,92.277699999999996,-2.59307,31.4542,-13.9131
164780.0,70.1982,56.951500000000003,30.239599999999999,81.511200000000002,-6.0376599999999998,26.434000000000001,-15.805300000000001
164781.0,69.020499999999998,47.405700000000003,5.9508900000000002,60.306199999999997,-9.0481300000000005,19.2714,-18.114000000000001
164782.0,72.024299999999997,21.239899999999999,-23.090399999999999,28.625699999999998,-11.888299999999999,19.235399999999998,-20.8674
164783.0,69.266199999999998,19.484200000000001,-15.4163,34.059199999999997,-13.905799999999999,18.755600000000001,-20.192499999999999
164784.0,64.777799999999999,46.277999999999999,9.1708700000000007,49.967599999999997,-20.564399999999999,17.098500000000001,-13.2028
164785.0,67.001099999999994,56.6785,15.088100000000001,59.301699999999997,-25.335999999999999,14.586499999999999,-5.1436900000000003
164786.0,68.280900000000003,40.689599999999999,-7.2480099999999998,41.143900000000002,-24.8413,12.791,0.247533
164787.0,70.083299999999994,19.535299999999999,-34.8536,11.7925,-21.005199999999999,18.171600000000002,0.37600899999999998
164788.0,69.008099999999999,47.402299999999997,-8.6353200000000001,37.048900000000003,-16.7301,20.444199999999999,-0.65782399999999996
164789.0,67.198800000000006,62.3658,-0.37704199999999999,37.535499999999999,-15.3094,16.442,-1.4430099999999999
164790.0,64.779499999999999,57.803800000000003,-4.8674999999999997,31.148299999999999,-14.0693,14.2514,-2.9190200000000002
164791.0,60.408799999999999,59.402900000000002,-0.93166599999999999,36.424599999999998,-13.6835,9.9767100000000006,-1.5305800000000001
164792.0,57.731400000000001,23.203099999999999,-2.8648099999999999,57.516199999999998,-6.8067900000000003,-11.6234,-3.52156
164793.0,58.665500000000002,22.9634,-2.8888799999999999,59.6843,-7.1257000000000001,-9.6132200000000001,-3.9155099999999998
164794.0,59.4604,20.646100000000001,-4.9072699999999996,59.405500000000004,-7.3506200000000002,-7.5353899999999996,-4.37392
164795.0,60.066699999999997,20.561399999999999,-4.5767899999999999,60.9191,-7.4722299999999997,-5.4243699999999997,-5.0677199999999996
164796.0,60.681600000000003,19.217099999999999,-5.1105299999999998,61.178199999999997,-7.4335599999999999,-3.3829899999999999,-6.0213299999999998
164797.0,61.491300000000003,19.502500000000001,-3.09789,63.643599999999999,-7.1656199999999997,-1.34901,-7.4129500000000004
164798.0,62.814100000000003,18.951799999999999,-0.47655999999999998,66.459299999999999,-6.6082299999999998,0.90946700000000003,-9.2141000000000002
164799.0,64.825699999999998,19.254100000000001,4.7404700000000002,71.342100000000002,-5.7774099999999997,3.8572700000000002,-11.222200000000001
164800.0,67.542400000000001,21.096399999999999,12.972300000000001,78.295199999999994,-4.73034,7.9312800000000001,-12.958
164801.0,70.702299999999994,27.914300000000001,26.453099999999999,89.260499999999993,-3.42178,13.2614,-13.915900000000001
164802.0,73.980500000000006,37.979900000000001,43.371600000000001,101.43600000000001,-2.1388400000000001,19.549099999999999,-14.1332
164803.0,76.751300000000001,39.022199999999998,48.775700000000001,101.08799999999999,-1.2056800000000001,25.926600000000001,-13.264799999999999
164804.0,77.824200000000005,47.668799999999997,55.1434,102.86199999999999,-1.0456099999999999,30.873699999999999,-12.963900000000001
164805.0,76.016499999999994,60.312100000000001,60.768900000000002,104.29600000000001,-2.1278700000000002,33.465000000000003,-12.7865
164806.0,72.405799999999999,63.099800000000002,57.378399999999999,97.148499999999999,-5.8863700000000003,33.241599999999998,-12.0663
164807.0,69.7958,72.584299999999999,58.429600000000001,97.378500000000003,-10.4795,30.6875,-13.5495
164808.0,71.490399999999994,72.858099999999993,48.348300000000002,88.238,-13.2568,28.680099999999999,-17.337599999999998
164809.0,69.322000000000003,74.443700000000007,43.4985,85.573999999999998,-16.087700000000002,23.1601,-18.202500000000001
164810.0,63.044600000000003,50.808799999999998,6.9579599999999999,46.231900000000003,-20.812799999999999,14.4466,-10.097
164811.0,67.144499999999994,-12.1061,-62.205500000000001,-17.796099999999999,-25.652100000000001,9.6088299999999993,0.118108
164812.0,70.191400000000002,-32.372199999999999,-81.705100000000002,-21.920200000000001,-23.6523,7.8689600000000004,1.17774
164813.0,67.384200000000007,-3.2389600000000001,-59.8429,-0.72080599999999995,-17.090800000000002,9.7370699999999992,-3.00163
164814.0,66.764300000000006,24.099699999999999,-36.101900000000001,13.819699999999999,-13.8117,15.4915,-4.2500400000000003
164815.0,64.876800000000003,56.123800000000003,-4.6021900000000002,37.692300000000003,-13.9046,15.0365,-3.7684899999999999
164816.0,61.617199999999997,63.125900000000001,2.6278800000000002,40.053800000000003,-13.7857,11.5504,-3.1518799999999998
164817.0,57.8536,57.307200000000002,-0.61705299999999996,36.295499999999997,-13.0877,8.8579600000000003,-2.4606699999999999
164818.0,54.329300000000003,24.3492,-2.7485400000000002,54.818800000000003,-6.2618200000000002,-10.272600000000001,-3.1156000000000001
164819.0,55.314300000000003,22.572199999999999,-4.4482699999999999,55.235999999999997,-6.4911899999999996,-8.4984500000000001,-3.5104700000000002
164820.0,56.298400000000001,22.258700000000001,-4.4833299999999996,57.0182,-6.61252,-6.7320000000000002,-4.0609400000000004
164821.0,57.042900000000003,20.8203,-5.4741999999999997,57.278799999999997,-6.64567,-4.8991800000000003,-4.8342400000000003
164822.0,57.8949,20.588699999999999,-4.6833,59.029600000000002,-6.5127600000000001,-3.1199400000000002,-5.9864100000000002
164823.0,58.9497,19.738099999999999,-3.5759099999999999,60.706000000000003,-6.2282599999999997,-1.28183,-7.6751800000000001
164824.0,60.456499999999998,20.130299999999998,0.19914599999999999,64.532399999999996,-5.8575600000000003,0.83252999999999999,-9.9362899999999996
164825.0,62.347000000000001,21.550599999999999,6.2885299999999997,69.783699999999996,-5.6009799999999998,3.53037,-12.3848
164826.0,64.507199999999997,23.027699999999999,13.1341,74.851200000000006,-5.4373100000000001,6.9683599999999997,-14.4975
164827.0,66.183499999999995,22.836400000000001,18.267700000000001,76.907399999999996,-5.8801399999999999,11.273999999999999,-15.315
164828.0,68.263599999999997,21.253299999999999,20.578199999999999,76.3733,-6.1116400000000004,16.061299999999999,-15.2545
164829.0,69.036199999999994,36.654499999999999,37.955500000000001,90.072100000000006,-5.7027799999999997,20.73,-14.0664
164830.0,71.503399999999999,39.436700000000002,42.783900000000003,89.634500000000003,-7.3226500000000003,26.853100000000001,-11.911
164831.0,72.932400000000001,34.254399999999997,38.850499999999997,80.472499999999997,-8.3268000000000004,30.947500000000002,-9.8835499999999996
164832.0,73.347300000000004,37.1175,37.997300000000003,74.925700000000006,-6.7227800000000002,34.169899999999998,-10.7164
164833.0,74.587800000000001,36.539700000000003,31.974900000000002,66.552499999999995,-7.0687899999999999,35.638599999999997,-13.472200000000001
164834.0,73.987799999999993,52.166800000000002,38.031199999999998,70.652799999999999,-12.238200000000001,34.581400000000002,-14.5419
164835.0,68.449399999999997,61.8735,32.4495,71.556899999999999,-17.703600000000002,25.982900000000001,-12.586499999999999
164836.0,64.506,58.1751,5.3837099999999998,48.712200000000003,-21.413399999999999,9.3249399999999998,-7.0151599999999998
164837.0,71.067499999999995,-33.542000000000002,-99.141400000000004,-46.508899999999997,-21.123999999999999,2.24884,-5.0316299999999998
164838.0,72.639399999999995,-65.619200000000006,-122.255,-48.866799999999998,-14.7189,2.7437200000000002,-7.46
164839.0,69.866799999999998,20.444299999999998,-39.758800000000001,28.7986,-12.4519,3.0751300000000001,-7.9726400000000002
164840.0,68.721800000000002,52.633099999999999,-12.7097,40.910600000000002,-13.6335,10.5533,-7.9548699999999997
164841.0,63.183300000000003,56.198399999999999,-3.1445799999999999,40.4587,-13.4556,13.111000000000001,-5.7150999999999996
164842.0,57.6905,59.210000000000001,2.50705,39.127000000000002,-13.255599999999999,9.6460899999999992,-3.7475499999999999
164843.0,55.258499999999998,53.634700000000002,-1.65581,35.355600000000003,-12.472899999999999,7.4957399999999996,-3.5459299999999998
164844.0,3999.7800000000002,3943.48,-227.5,3529.1100000000001,177.274,143.28399999999999,25.420300000000001
164845.0,3977.4099999999999,3925.9400000000001,-227.27099999999999,3498.5799999999999,193.422,124.946,-35.520899999999997
164846.0,3956.79,3909.0599999999999,-226.279,3466.1700000000001,205.816,107.93000000000001,-97.393799999999999
164847.0,3938.7199999999998,3898.2199999999998,-219.74000000000001,3438.2800000000002,214.47200000000001,89.910899999999998,-159.32900000000001
164848.0,3922.2800000000002,3885.0900000000001,-214.77099999999999,3407.0900000000001,219.49199999999999,71.404300000000006,-221.24799999999999
164849.0,3907.75,3877.71,-203.50200000000001,3381.0799999999999,221.08600000000001,51.776699999999998,-282.67399999999998
164850.0,3895.8200000000002,3866.4099999999999,-195.73599999999999,3351.8899999999999,219.35499999999999,31.0046,-343.721
164851.0,3885.8600000000001,3861.6100000000001,-180.54499999999999,3329.9499999999998,214.46799999999999,8.9382599999999996,-403.74599999999998
164852.0,3880.6999999999998,3850.7399999999998,-171.85400000000001,3305.6500000000001,206.375,-14.2859,-463.94299999999998
164853.0,3876.2800000000002,3851.4000000000001,-149.81899999999999,3294.04,195.56399999999999,-38.4651,-521.56899999999996
164854.0,3882.25,3837.1999999999998,-145.923,3273.9000000000001,180.54900000000001,-62.751100000000001,-584.05799999999999
164855.0,3889.3000000000002,3854.8600000000001,-110.262,3293.4200000000001,165.86500000000001,-88.132199999999997,-634.97400000000005
164856.0,3883.0700000000002,3915.8000000000002,-14.0509,3351.6799999999998,146.077,-118.36199999999999,-689.71900000000005
164857.0,3892.5500000000002,3926.6500000000001,27.714600000000001,3370.1399999999999,119.36,-145.31100000000001,-753.71000000000004
164858.0,3903.0300000000002,3903.4099999999999,35.387599999999999,3363.3299999999999,95.004900000000006,-170.297,-807.32100000000003
164859.0,3905.5300000000002,3886.0,62.748600000000003,3365.4899999999998,65.983599999999996,-197.49100000000001,-861.19799999999998
164860.0,3907.7399999999998,3856.48,82.406800000000004,3363.4400000000001,33.957900000000002,-222.518,-911.49199999999996
164861.0,3904.73,3826.6700000000001,112.11499999999999,3368.1599999999999,-1.46333,-247.30600000000001,-958.88900000000001
164862.0,3899.8899999999999,3785.3000000000002,136.762,3367.9299999999998,-38.783799999999999,-270.01499999999999,-1003.77
164863.0,3891.96,3740.52,165.21199999999999,3369.8099999999999,-77.900099999999995,-290.78699999999998,-1045.72
164864.0,3882.3000000000002,3689.8800000000001,192.422,3369.8299999999999,-119.212,-308.68799999999999,-1084.51
164865.0,3870.8600000000001,3637.0700000000002,221.78700000000001,3371.4000000000001,-162.607,-323.18900000000002,-1120.04
164866.0,3858.4699999999998,3581.5599999999999,250.91300000000001,3372.2600000000002,-208.03399999999999,-334.06200000000001,-1152.27
164867.0,3845.6399999999999,3525.9899999999998,281.358,3374.2800000000002,-255.53399999999999,-340.92500000000001,-1181.23
164868.0,3833.25,3472.0700000000002,312.23099999999999,3376.5500000000002,-304.89100000000002,-344.19900000000001,-1206.5999999999999
164869.0,3822.25,3418.77,343.15699999999998,3379.6399999999999,-356.68799999999999,-343.87599999999998,-1229.1700000000001
164870.0,2801.5799999999999,2221.2800000000002,-320.226,2600.8000000000002,289.255,-75.967699999999994,64.952699999999993
164871.0,2796.1100000000001,2209.5700000000002,-318.34100000000001,2603.75,299.35700000000003,-48.6511,6.6318799999999998
164872.0,2793.73,2207.1799999999998,-310.97399999999999,2609.0599999999999,306.20299999999997,-19.923100000000002,-51.1113
164873.0,2790.75,2202.8600000000001,-308.02100000000002,2601.4000000000001,309.86200000000002,9.5334599999999998,-109.419
164874.0,2788.73,2210.0500000000002,-296.94400000000002,2595.6100000000001,310.09100000000001,38.445500000000003,-167.196
164875.0,2786.5,2213.73,-291.74799999999999,2576.3699999999999,307.03100000000001,66.132599999999996,-224.458
164876.0,2785.6799999999998,2228.73,-278.36500000000001,2560.1700000000001,300.71100000000001,91.993700000000004,-281.07499999999999
164877.0,2785.21,2240.79,-270.12599999999998,2532.8800000000001,291.27999999999997,115.45999999999999,-336.387
164878.0,2788.2399999999998,2262.9400000000001,-255.51599999999999,2509.8899999999999,278.71899999999999,136.61799999999999,-391.46100000000001
164879.0,2791.3299999999999,2285.1799999999998,-242.43000000000001,2480.6199999999999,263.55200000000002,154.417,-443.69900000000001
164880.0,2801.6199999999999,2310.3800000000001,-231.0,2450.9099999999999,244.136,170.352,-499.24000000000001
164881.0,2814.9400000000001,2347.3000000000002,-211.93899999999999,2432.52,225.02699999999999,184.34200000000001,-546.17899999999997
164882.0,2816.4400000000001,2443.3200000000002,-123.43600000000001,2465.0,202.62200000000001,191.762,-592.88099999999997
164883.0,2827.3699999999999,2504.4899999999998,-73.312399999999997,2462.4099999999999,171.84200000000001,196.065,-645.95600000000002
164884.0,2841.8000000000002,2539.5799999999999,-53.6374,2435.29,140.21299999999999,198.51599999999999,-691.23599999999999
164885.0,2849.1199999999999,2566.8200000000002,-33.232100000000003,2398.3200000000002,106.29300000000001,196.059,-734.33900000000006
164886.0,2853.8899999999999,2588.9000000000001,-12.2577,2358.1199999999999,71.510000000000005,190.43299999999999,-774.94000000000005
164887.0,2853.8099999999999,2596.3200000000002,1.6483399999999999,2304.9499999999998,35.849499999999999,181.31299999999999,-812.51099999999997
164888.0,2848.7399999999998,2606.9000000000001,25.196899999999999,2258.7800000000002,-1.8950800000000001,167.95400000000001,-845.18600000000004
164889.0,2839.0900000000001,2607.1799999999998,44.399099999999997,2204.9299999999998,-42.1128,150.87,-873.32399999999996
164890.0,2825.6500000000001,2608.02,70.110399999999998,2156.0900000000001,-83.105500000000006,131.33199999999999,-896.94899999999996
164891.0,2808.9400000000001,2597.3699999999999,89.774900000000002,2099.9499999999998,-124.922,109.23099999999999,-916.40899999999999
164892.0,2789.6300000000001,2589.29,116.348,2050.7199999999998,-166.91399999999999,85.007900000000006,-931.50599999999997
164893.0,2769.6199999999999,2570.1599999999999,134.71600000000001,1994.3199999999999,-209.59899999999999,59.0077,-943.04700000000003
164894.0,2747.96,2556.1900000000001,161.51400000000001,1948.3599999999999,-251.46600000000001,31.524699999999999,-950.47199999999998
164895.0,2729.23,2531.0500000000002,177.59299999999999,1894.4100000000001,-295.11500000000001,3.5632899999999998,-955.96400000000006
164896.0,1867.97,881.18399999999997,-318.82100000000003,1749.52,183.125,-221.505,42.687199999999997
164897.0,1874.0,873.65499999999997,-317.16800000000001,1779.3199999999999,192.84700000000001,-166.86099999999999,2.0067699999999999
164898.0,1881.6900000000001,873.62900000000002,-313.90699999999998,1803.9200000000001,199.089,-111.15900000000001,-38.174399999999999
164899.0,1887.3599999999999,875.928,-311.85000000000002,1816.01,202.517,-54.258899999999997,-79.730400000000003
164900.0,1892.6199999999999,887.87699999999995,-305.14699999999999,1823.3800000000001,202.78,2.7250100000000002,-121.17400000000001
164901.0,1896.54,900.87300000000005,-301.62799999999999,1817.0799999999999,200.03700000000001,58.906100000000002,-162.52799999999999
164902.0,1900.1099999999999,924.40099999999995,-292.30200000000002,1807.48,194.18600000000001,113.383,-203.36500000000001
164903.0,1903.4100000000001,947.95899999999995,-287.44999999999999,1784.6900000000001,185.547,165.29300000000001,-243.34200000000001
164904.0,1907.7,981.76300000000003,-277.50900000000001,1759.97,174.06700000000001,214.215,-282.49900000000002
164905.0,1913.1400000000001,1015.41,-272.39100000000002,1724.23,160.19300000000001,259.44200000000001,-320.16800000000001
164906.0,1921.52,1060.6500000000001,-261.15300000000002,1689.72,143.387,301.44299999999998,-357.55799999999999
164907.0,1934.1300000000001,1108.8599999999999,-253.71199999999999,1649.48,125.408,339.69299999999998,-392.435
164908.0,1943.98,1184.27,-219.42400000000001,1627.1600000000001,106.36499999999999,372.25,-424.73899999999998
164909.0,1954.1600000000001,1269.49,-173.92099999999999,1609.5,83.019999999999996,399.32799999999997,-458.20400000000001
164910.0,1965.6500000000001,1351.5799999999999,-133.25999999999999,1584.52,56.1175,421.49200000000002,-488.697
164911.0,1978.1700000000001,1408.23,-119.553,1528.8800000000001,26.7227,437.54199999999997,-517.58500000000004
164912.0,1988.0599999999999,1468.1099999999999,-102.765,1475.96,-3.5322800000000001,445.47300000000001,-540.67399999999998
164913.0,1989.3099999999999,1519.4100000000001,-88.2761,1412.8599999999999,-36.718600000000002,443.56200000000001,-559.27200000000005
164914.0,1988.0999999999999,1569.02,-70.285899999999998,1347.5,-71.531499999999994,435.98700000000002,-575.52499999999998
164915.0,1981.0699999999999,1600.4300000000001,-62.768799999999999,1268.3499999999999,-104.123,423.53899999999999,-585.87800000000004
164916.0,1966.3900000000001,1631.71,-45.570999999999998,1194.6199999999999,-137.12700000000001,403.95499999999998,-591.476
164917.0,1948.5699999999999,1648.8699999999999,-37.957099999999997,1111.27,-169.17699999999999,378.94799999999998,-592.36900000000003
164918.0,1926.5999999999999,1668.6099999999999,-21.468800000000002,1037.21,-200.23099999999999,348.64600000000002,-588.48400000000004
164919.0,1904.0,1674.97,-14.816000000000001,956.06799999999998,-230.45599999999999,314.01600000000002,-580.99199999999996
164920.0,1879.1099999999999,1686.3800000000001,1.5269900000000001,888.274,-258.44600000000003,275.55700000000002,-569.16899999999998
164921.0,1857.0899999999999,1683.3099999999999,4.6878599999999997,811.91700000000003,-286.78199999999998,233.45699999999999,-555.02700000000004
164922.0,1366.4100000000001,60.835099999999997,-262.90699999999998,1131.8399999999999,75.259600000000006,-288.95400000000001,18.300000000000001
164923.0,1372.6900000000001,43.4101,-268.70299999999997,1167.2,83.203900000000004,-225.327,-6.83399
164924.0,1379.8900000000001,45.497199999999999,-261.786,1207.3499999999999,88.564099999999996,-159.346,-31.919499999999999
164925.0,1385.04,39.300699999999999,-267.94099999999997,1222.55,91.482100000000003,-91.217100000000002,-58.439900000000002
164926.0,1389.4400000000001,55.089500000000001,-257.87,1243.47,91.671000000000006,-22.2989,-85.1203
164927.0,1392.45,60.5518,-263.52699999999999,1237.23,89.294499999999999,46.5321,-111.923
164928.0,1394.5699999999999,88.764600000000002,-252.267,1237.25,84.308099999999996,114.19499999999999,-138.304
164929.0,1396.1600000000001,106.063,-257.66000000000003,1210.51,76.862499999999997,179.82599999999999,-164.023
164930.0,1397.51,147.809,-244.40000000000001,1193.0799999999999,66.940200000000004,242.50200000000001,-188.65700000000001
164931.0,1400.01,178.054,-249.06700000000001,1150.21,54.882899999999999,301.70100000000002,-212.25700000000001
164932.0,1403.51,232.82599999999999,-236.11799999999999,1118.02,40.921900000000001,356.56200000000001,-234.40199999999999
164933.0,1410.23,274.44200000000001,-244.047,1060.48,25.075500000000002,406.83300000000003,-255.673
164934.0,1418.8299999999999,344.82600000000002,-229.93199999999999,1020.08,8.0028299999999994,451.67700000000002,-274.73399999999998
164935.0,1430.3399999999999,403.76600000000002,-232.596,958.00699999999995,-9.6664999999999992,490.43400000000003,-293.923
164936.0,1441.8800000000001,488.79500000000002,-211.18700000000001,915.65599999999995,-28.693100000000001,521.16300000000001,-311.30900000000003
164937.0,1458.6300000000001,550.47500000000002,-217.38499999999999,844.83699999999999,-52.020200000000003,545.30100000000004,-329.20999999999998
164938.0,1470.9100000000001,648.029,-186.946,810.03999999999996,-73.594300000000004,561.74900000000002,-337.60899999999998
164939.0,1468.0,768.14200000000005,-120.375,791.33199999999999,-99.812299999999993,566.06700000000001,-343.142
164940.0,1471.5,856.02800000000002,-87.930700000000002,737.28399999999999,-129.37700000000001,564.13400000000001,-349.89299999999997
164941.0,1468.52,895.08699999999999,-99.503699999999995,641.77099999999996,-152.31700000000001,554.44399999999996,-347.99400000000003
164942.0,1455.3099999999999,952.60299999999995,-80.247799999999998,568.68700000000001,-176.35599999999999,534.26499999999999,-341.88299999999998
164943.0,1441.1099999999999,981.64599999999996,-85.886399999999995,473.27999999999997,-198.22900000000001,508.16199999999998,-331.09699999999998
164944.0,1422.5999999999999,1023.67,-70.804699999999997,399.27699999999999,-218.571,474.92000000000002,-315.95400000000001
164945.0,1404.8599999999999,1041.25,-76.713399999999993,309.05500000000001,-237.13999999999999,436.46100000000001,-297.80099999999999
164946.0,1385.55,1072.0,-63.7896,242.88900000000001,-252.97200000000001,392.89499999999998,-276.226
164947.0,1369.4200000000001,1079.72,-71.607600000000005,162.61600000000001,-267.745,344.97399999999999,-253.29499999999999
164948.0,1147.1700000000001,-412.20600000000002,-219.99600000000001,687.06700000000001,-25.333500000000001,-305.43599999999998,-6.7226499999999998
164949.0,1151.0,-423.65100000000001,-215.66999999999999,735.54200000000003,-19.476199999999999,-242.67599999999999,-19.049299999999999
164950.0,1155.05,-437.596,-220.24000000000001,767.03700000000003,-15.541499999999999,-176.85300000000001,-31.785299999999999
164951.0,1157.8099999999999,-438.0,-216.54400000000001,796.05600000000004,-13.422800000000001,-108.121,-45.684800000000003
164952.0,1159.8900000000001,-440.125,-220.79400000000001,806.96000000000004,-13.3461,-37.712499999999999,-59.861600000000003
164953.0,1161.05,-428.286,-216.946,814.91999999999996,-15.4253,33.422199999999997,-74.136899999999997
164954.0,1161.6600000000001,-416.89800000000002,-219.803,805.654,-19.7179,104.04300000000001,-88.097499999999997
164955.0,1161.6199999999999,-391.94099999999997,-215.53999999999999,793.18799999999999,-25.969799999999999,173.10400000000001,-101.41
164956.0,1161.3599999999999,-368.464,-219.77000000000001,763.03200000000004,-33.9831,239.61799999999999,-113.871
164957.0,1161.0899999999999,-330.77199999999999,-216.96700000000001,731.44000000000005,-43.593400000000003,302.82100000000003,-125.114
164958.0,1162.0,-292.26999999999998,-220.74700000000001,686.63099999999997,-54.866500000000002,361.95400000000001,-135.19900000000001
164959.0,1164.26,-237.178,-215.71600000000001,645.13499999999999,-67.376000000000005,416.26900000000001,-143.80799999999999
164960.0,1169.05,-183.71700000000001,-221.32900000000001,589.98299999999995,-80.986699999999999,464.93599999999998,-152.066
164961.0,1175.8800000000001,-116.008,-222.113,538.02599999999995,-95.691000000000003,507.10399999999998,-158.47399999999999
164962.0,1186.0899999999999,-48.981299999999997,-229.619,477.44799999999998,-111.71299999999999,542.10799999999995,-166.221
164963.0,1200.02,35.5229,-226.28399999999999,430.93000000000001,-126.753,570.16300000000001,-171.446
164964.0,1204.25,161.16,-178.59299999999999,416.96699999999998,-140.90000000000001,587.41300000000001,-170.98699999999999
164965.0,1205.8699999999999,290.76799999999997,-119.441,398.56700000000001,-158.35499999999999,595.48500000000001,-174.137
164966.0,1210.0799999999999,363.62700000000001,-115.751,327.96600000000001,-175.55099999999999,596.49400000000003,-173.624
164967.0,1205.5899999999999,426.892,-114.20999999999999,251.94800000000001,-191.08500000000001,587.03800000000001,-164.65700000000001
164968.0,1195.77,479.60700000000003,-115.157,168.541,-206.059,568.14099999999996,-151.26900000000001
164969.0,1184.21,528.67499999999995,-113.538,89.936000000000007,-219.03200000000001,542.05399999999997,-133.90700000000001
164970.0,1171.27,567.399,-116.245,9.7334300000000002,-230.042,509.108,-113.16200000000001
164971.0,1158.8900000000001,605.26300000000003,-115.033,-60.980600000000003,-238.935,470.642,-90.243700000000004
164972.0,1146.6400000000001,632.68100000000004,-119.185,-130.65600000000001,-245.142,427.24900000000002,-65.346800000000002
164973.0,1136.46,659.69899999999996,-120.42,-190.02199999999999,-249.441,379.654,-39.710799999999999
164974.0,1039.1199999999999,-599.70600000000002,-160.816,424.78899999999999,-102.625,-290.66199999999998,-26.805299999999999
164975.0,1042.76,-631.83399999999995,-172.90000000000001,453.49299999999999,-98.825900000000004,-234.44,-29.9847
164976.0,1045.8,-638.35199999999998,-165.07900000000001,494.55900000000003,-96.260000000000005,-174.315,-33.848199999999999
164977.0,1048.21,-659.17999999999995,-176.81899999999999,507.08300000000003,-95.242199999999997,-110.795,-38.398600000000002
164978.0,1050.3800000000001,-652.90099999999995,-167.23599999999999,531.77099999999996,-95.984300000000005,-45.031500000000001,-43.207000000000001
164979.0,1052.1199999999999,-661.63499999999999,-178.84899999999999,525.702,-98.2851,21.923500000000001,-48.021299999999997
164980.0,1053.4300000000001,-643.79499999999996,-170.58099999999999,530.072,-102.11499999999999,88.997600000000006,-52.508699999999997
164981.0,1054.3900000000001,-639.92100000000005,-183.00200000000001,504.39699999999999,-107.497,155.09700000000001,-56.368099999999998
164982.0,1055.2,-607.41999999999996,-173.84100000000001,491.71499999999997,-114.474,219.12700000000001,-59.305599999999998
164983.0,1055.77,-588.12800000000004,-185.36099999999999,450.87,-122.462,279.959,-61.2911
164984.0,1056.0699999999999,-542.70600000000002,-179.59700000000001,421.74200000000002,-130.827,336.86700000000002,-62.450600000000001
164985.0,1056.47,-509.62200000000001,-195.23699999999999,367.01900000000001,-139.245,389.15699999999998,-62.950400000000002
164986.0,1058.8499999999999,-447.37700000000001,-191.56700000000001,330.77199999999999,-148.285,436.39999999999998,-63.140099999999997
164987.0,1062.1600000000001,-389.76299999999998,-200.01599999999999,279.99299999999999,-156.83199999999999,477.79199999999997,-63.341200000000001
164988.0,1069.3699999999999,-313.67200000000003,-200.934,239.88900000000001,-165.99799999999999,513.471,-66.341399999999993
164989.0,1074.01,-217.018,-188.762,213.06800000000001,-173.208,541.04100000000005,-62.466700000000003
164990.0,1072.3299999999999,-58.424500000000002,-107.393,235.958,-183.82499999999999,558.06799999999998,-59.754100000000001
164991.0,1075.0,22.319199999999999,-105.404,178.97900000000001,-196.696,568.02999999999997,-59.786299999999997
164992.0,1072.47,97.026899999999998,-105.199,119.887,-205.429,568.51099999999997,-51.422699999999999
164993.0,1064.98,153.09200000000001,-113.114,42.715499999999999,-214.91300000000001,558.99400000000003,-38.8902
164994.0,1056.7,216.56899999999999,-108.84999999999999,-21.476199999999999,-222.50299999999999,542.07299999999998,-22.017800000000001
164995.0,1046.49,257.74299999999999,-119.95699999999999,-100.08,-228.483,517.35799999999995,-2.08657
164996.0,1036.74,310.94200000000001,-114.529,-157.05699999999999,-232.34899999999999,486.74900000000002,19.805499999999999
164997.0,1027.0899999999999,339.959,-128.20599999999999,-227.584,-234.06299999999999,450.71199999999999,42.994700000000002
164998.0,1018.2,384.06700000000001,-122.43300000000001,-271.58300000000003,-233.56100000000001,410.42700000000002,66.831400000000002
164999.0,1010.03,404.04899999999998,-136.739,-328.26900000000001,-230.76400000000001,366.50999999999999,90.724299999999999
165000.0,942.14400000000001,-654.01599999999996,-143.327,248.501,-148.042,-260.02499999999998,-39.207999999999998
165001.0,947.73599999999999,-668.53399999999999,-134.39599999999999,291.565,-146.92599999999999,-212.17699999999999,-37.044199999999996
165002.0,952.39599999999996,-696.00699999999995,-143.065,310.10300000000001,-146.709,-160.21799999999999,-35.574100000000001
165003.0,956.38800000000003,-701.79700000000003,-135.363,338.084,-147.322,-104.69799999999999,-34.190899999999999
165004.0,959.89400000000001,-721.03300000000002,-146.886,339.36399999999998,-148.779,-46.515500000000003,-32.847900000000003
165005.0,963.40599999999995,-716.15800000000002,-140.429,350.959,-151.49000000000001,13.3521,-31.285399999999999
165006.0,967.05600000000004,-722.11800000000005,-151.262,337.53699999999998,-155.46700000000001,73.616500000000002,-29.401
165007.0,970.26999999999998,-704.36099999999999,-145.37200000000001,333.19999999999999,-160.29400000000001,133.08500000000001,-27.017800000000001
165008.0,972.428,-699.053,-159.655,301.71499999999997,-165.40199999999999,190.71700000000001,-24.156700000000001
165009.0,973.59299999999996,-669.24400000000003,-157.45599999999999,280.34199999999998,-171.03800000000001,245.78100000000001,-20.359100000000002
165010.0,974.67999999999995,-646.15499999999997,-170.49799999999999,239.74799999999999,-177.43799999999999,297.25599999999997,-16.0977
165011.0,975.39499999999998,-595.74699999999996,-165.41200000000001,215.31100000000001,-184.011,344.22699999999998,-10.9907
165012.0,975.53899999999999,-553.93899999999996,-178.76900000000001,171.852,-189.32400000000001,386.75099999999998,-7.8636200000000001
165013.0,975.35299999999995,-490.04199999999997,-182.404,143.185,-193.036,423.721,-5.5848899999999997
165014.0,974.50400000000002,-409.74700000000001,-179.20699999999999,120.95099999999999,-197.726,454.57900000000001,-1.2791999999999999
165015.0,973.27300000000002,-272.23599999999999,-118.184,144.81,-202.33099999999999,479.935,2.6093999999999999
165016.0,971.678,-179.602,-98.547399999999996,118.374,-206.85300000000001,498.17599999999999,4.0152900000000002
165017.0,969.01400000000001,-100.693,-92.344700000000003,76.924599999999998,-212.19800000000001,507.78500000000003,8.79894
165018.0,963.26400000000001,-45.547199999999997,-105.816,10.238,-216.84200000000001,508.42399999999998,20.215599999999998
165019.0,955.07299999999998,20.547000000000001,-101.751,-43.566099999999999,-221.19399999999999,500.16699999999997,34.916800000000002
165020.0,946.25999999999999,64.763499999999993,-114.66,-112.81100000000001,-223.89699999999999,484.73099999999999,52.478900000000003
165021.0,936.89400000000001,120.22,-111.249,-163.148,-224.97300000000001,462.63900000000001,71.979399999999998
165022.0,927.70600000000002,154.54599999999999,-124.84,-225.251,-224.16900000000001,435.17099999999999,92.322299999999998
165023.0,918.54100000000005,202.34399999999999,-120.515,-263.59300000000002,-221.374,403.08999999999997,113.063
165024.0,909.64200000000005,226.96100000000001,-135.39599999999999,-314.62799999999999,-216.80199999999999,367.31200000000001,133.30699999999999
165025.0,900.78499999999997,265.95499999999998,-131.89400000000001,-340.41199999999998,-209.93199999999999,328.66000000000003,153.21700000000001
165026.0,832.39099999999996,-587.79999999999995,-108.584,180.37299999999999,-167.84399999999999,-224.13,-44.869900000000001
165027.0,839.25599999999997,-621.61099999999999,-117.721,197.53200000000001,-168.09999999999999,-184.91399999999999,-40.229900000000001
165028.0,844.88099999999997,-639.38800000000003,-114.07899999999999,221.43700000000001,-168.767,-141.08600000000001,-36.015500000000003
165029.0,850.55600000000004,-664.09199999999998,-121.947,228.5,-170.625,-93.875200000000007,-31.315000000000001
165030.0,856.26800000000003,-670.06500000000005,-116.629,243.15100000000001,-173.60499999999999,-44.011099999999999,-26.573399999999999
165031.0,861.76599999999996,-682.63599999999997,-124.389,239.41,-177.02600000000001,7.4029199999999999,-21.471800000000002
165032.0,866.68499999999995,-679.11900000000003,-123.105,239.191,-180.643,59.485199999999999,-16.1142
165033.0,871.221,-679.20299999999997,-132.596,222.505,-184.971,111.196,-10.2218
165034.0,875.65899999999999,-660.23000000000002,-130.44900000000001,212.738,-190.19399999999999,161.19300000000001,-4.0135100000000001
165035.0,878.14800000000002,-642.96100000000001,-137.42500000000001,188.77699999999999,-195.173,208.13900000000001,2.6211700000000002
165036.0,878.55999999999995,-614.65899999999999,-141.63499999999999,164.73099999999999,-198.429,252.31999999999999,8.5204299999999993
165037.0,876.39300000000003,-585.827,-153.584,130.73699999999999,-199.71000000000001,292.80399999999997,14.6272
165038.0,873.97799999999995,-541.95399999999995,-162.745,103.244,-201.374,329.57999999999998,17.319500000000001
165039.0,873.01900000000001,-474.62700000000001,-159.279,94.701499999999996,-202.55099999999999,362.05500000000001,24.417300000000001
165040.0,869.63999999999999,-337.96199999999999,-85.317999999999998,141.214,-204.78299999999999,389.59500000000003,30.194400000000002
165041.0,867.32600000000002,-252.506,-66.248599999999996,127.785,-207.11600000000001,413.30099999999999,29.601800000000001
165042.0,863.53800000000001,-190.23599999999999,-72.869399999999999,89.816800000000001,-207.911,429.40699999999998,34.2057
165043.0,857.27499999999998,-134.185,-80.897499999999994,39.834099999999999,-210.715,436.79899999999998,42.776200000000003
165044.0,850.84799999999996,-75.419200000000004,-82.216499999999996,-7.1933199999999999,-212.703,437.42500000000001,54.857799999999997
165045.0,842.86599999999999,-29.3246,-91.482799999999997,-64.187600000000003,-213.96299999999999,430.32400000000001,69.845299999999995
165046.0,834.29499999999996,21.663,-92.431299999999993,-110.699,-213.733,416.80099999999999,86.404799999999994
165047.0,825.09100000000001,60.024299999999997,-101.92700000000001,-162.15899999999999,-211.929,397.52800000000002,103.81999999999999
165048.0,815.68299999999999,104.721,-101.813,-198.98699999999999,-208.465,373.62799999999999,121.11199999999999
165049.0,805.86300000000006,135.0,-112.304,-240.96000000000001,-203.20099999999999,345.815,138.14099999999999
165050.0,796.31500000000005,173.66300000000001,-111.032,-265.50099999999998,-196.762,314.99400000000003,154.29499999999999
165051.0,786.26800000000003,198.24000000000001,-119.777,-294.005,-188.24100000000001,282.0,169.749
165052.0,708.024,-503.57100000000003,-110.175,135.51900000000001,-161.107,-187.94999999999999,-43.490699999999997
165053.0,718.625,-523.84299999999996,-105.00700000000001,161.07300000000001,-164.60900000000001,-155.875,-39.059100000000001
165054.0,727.83000000000004,-548.11599999999999,-106.03400000000001,173.17599999999999,-169.38399999999999,-120.13800000000001,-34.328899999999997
165055.0,735.35900000000004,-563.81600000000003,-102.871,185.084,-173.40700000000001,-81.397800000000004,-29.132300000000001
165056.0,741.55999999999995,-583.68399999999997,-109.51000000000001,183.797,-176.65700000000001,-39.793599999999998,-23.004999999999999
165057.0,747.54100000000005,-589.39300000000003,-108.98099999999999,187.07300000000001,-180.09399999999999,3.5834600000000001,-16.3996
165058.0,753.61199999999997,-593.62199999999996,-114.303,181.82599999999999,-183.922,47.569200000000002,-9.6696399999999993
165059.0,758.43100000000004,-585.75599999999997,-114.509,178.173,-186.93000000000001,90.730800000000002,-3.1336499999999998
165060.0,760.83500000000004,-581.75599999999997,-125.345,159.36799999999999,-188.435,132.91499999999999,3.09199
165061.0,761.68100000000004,-565.31399999999996,-131.49799999999999,142.983,-189.38300000000001,172.92500000000001,8.9569600000000005
165062.0,760.01499999999999,-539.577,-138.23400000000001,124.803,-191.184,209.28999999999999,15.599600000000001
165063.0,756.81600000000003,-498.02199999999999,-137.821,112.997,-193.65100000000001,242.238,20.2622
165064.0,756.64499999999998,-452.89699999999999,-141.22,101.492,-195.15000000000001,273.67399999999998,24.967199999999998
165065.0,755.33100000000002,-353.86900000000003,-91.2059,136.08099999999999,-193.72499999999999,302.488,32.082799999999999
165066.0,751.36099999999999,-264.416,-51.341000000000001,148.99600000000001,-192.94800000000001,327.28199999999998,33.137900000000002
165067.0,749.29399999999998,-209.096,-53.2624,123.53400000000001,-193.74600000000001,347.45100000000002,34.505400000000002
165068.0,746.09299999999996,-163.77199999999999,-64.063100000000006,83.247399999999999,-194.654,361.17700000000002,42.053199999999997
165069.0,741.303,-110.98399999999999,-63.661099999999998,45.142800000000001,-196.29499999999999,368.18099999999998,51.754100000000001
165070.0,735.43799999999999,-70.930300000000003,-74.153899999999993,-4.4122500000000002,-197.036,368.52699999999999,64.066100000000006
165071.0,728.197,-24.317599999999999,-74.919899999999998,-44.610900000000001,-196.87299999999999,362.31299999999999,77.967500000000001
165072.0,720.197,11.972200000000001,-83.487899999999996,-89.664400000000001,-195.28800000000001,350.66399999999999,92.443100000000001
165073.0,711.11400000000003,53.102499999999999,-84.232299999999995,-123.373,-192.172,334.06400000000002,106.971
165074.0,701.625,84.070800000000006,-92.542400000000001,-159.97999999999999,-187.69300000000001,313.60399999999998,120.96599999999999
165075.0,691.52700000000004,121.453,-91.161699999999996,-182.149,-181.72200000000001,289.94099999999997,134.30600000000001
165076.0,681.12099999999998,145.09999999999999,-100.696,-210.63,-174.73099999999999,263.72899999999998,146.232
165077.0,670.33799999999997,175.477,-99.945899999999995,-223.89500000000001,-166.00999999999999,235.84200000000001,157.53399999999999
165078.0,584.98599999999999,-352.00999999999999,-73.494500000000002,170.006,-142.99600000000001,-154.67400000000001,-38.345300000000002
165079.0,597.09000000000003,-402.517,-96.194699999999997,162.739,-144.417,-128.81899999999999,-36.365299999999998
165080.0,606.78999999999996,-438.24299999999999,-103.40900000000001,159.37299999999999,-148.178,-100.608,-30.558499999999999
165081.0,614.94200000000001,-462.31299999999999,-104.97,158.739,-153.34299999999999,-68.413499999999999,-26.4513
165082.0,622.51300000000003,-473.77300000000002,-102.946,163.184,-158.852,-34.259599999999999,-20.600100000000001
165083.0,628.84900000000005,-482.68700000000001,-105.48399999999999,162.31999999999999,-163.054,1.5348900000000001,-14.9147
165084.0,633.98400000000004,-484.38400000000001,-108.253,161.38200000000001,-165.15899999999999,37.752200000000002,-8.7887000000000004
165085.0,636.90599999999995,-480.04899999999998,-114.345,156.262,-166.83199999999999,73.463200000000001,-3.2415699999999998
165086.0,637.95899999999995,-457.83999999999997,-112.229,158.542,-169.173,107.66500000000001,2.1247699999999998
165087.0,638.39300000000003,-433.39999999999998,-113.68899999999999,154.56100000000001,-171.76900000000001,140.184,6.8569399999999998
165088.0,639.30100000000004,-390.202,-96.885400000000004,163.99700000000001,-173.392,170.739,12.111499999999999
165089.0,641.43399999999997,-343.29700000000003,-78.019199999999998,171.68600000000001,-174.947,199.90000000000001,16.052299999999999
165090.0,642.52999999999997,-286.22699999999998,-54.886099999999999,182.47900000000001,-174.11500000000001,227.94999999999999,20.325700000000001
165091.0,639.58100000000002,-230.374,-36.9009,182.321,-171.58799999999999,252.44999999999999,23.3855
165092.0,637.61699999999996,-185.75200000000001,-35.469099999999997,163.911,-171.36799999999999,273.45100000000002,24.682700000000001
165093.0,636.88099999999997,-147.92699999999999,-42.373600000000003,133.87700000000001,-171.99700000000001,290.63,29.7834
165094.0,634.99099999999999,-105.842,-43.6629,102.136,-173.61500000000001,302.43599999999998,37.401400000000002
165095.0,631.75400000000002,-71.230599999999995,-52.220300000000002,60.828499999999998,-174.95099999999999,308.36700000000002,47.358199999999997
165096.0,626.88300000000004,-31.124500000000001,-53.206800000000001,25.9284,-175.56200000000001,308.30799999999999,58.742100000000001
165097.0,620.74900000000002,1.1434899999999999,-60.505600000000001,-13.7445,-174.959,302.96899999999999,70.764700000000005
165098.0,613.20699999999999,36.891599999999997,-62.267600000000002,-45.295999999999999,-173.04599999999999,292.80200000000002,82.7667
165099.0,604.62599999999998,66.830600000000004,-67.683800000000005,-76.968500000000006,-169.77500000000001,278.65699999999998,94.382999999999996
165100.0,594.98099999999999,99.156800000000004,-68.416899999999998,-100.279,-165.18600000000001,261.149,105.057
165101.0,584.66800000000001,123.833,-74.422399999999996,-124.92400000000001,-159.24100000000001,240.97300000000001,115.024
165102.0,574.77599999999995,153.46299999999999,-73.264600000000002,-138.49700000000001,-152.845,218.79300000000001,124.125
165103.0,564.51800000000003,175.66200000000001,-76.224999999999994,-152.06200000000001,-145.108,195.42099999999999,132.46700000000001
165104.0,483.98899999999998,-185.33799999999999,-4.9253400000000003,248.66,-113.947,-128.98500000000001,-30.430900000000001
165105.0,492.80700000000002,-245.23699999999999,-46.8033,222.31299999999999,-116.26000000000001,-106.752,-31.205400000000001
165106.0,497.82400000000001,-305.11200000000002,-88.287599999999998,185.20099999999999,-121.048,-82.965999999999994,-26.5367
165107.0,502.57999999999998,-331.62099999999998,-94.298199999999994,175.94900000000001,-126.499,-56.183500000000002,-23.235299999999999
165108.0,509.73200000000003,-353.20499999999998,-99.304599999999994,169.142,-131.08799999999999,-28.2471,-19.941600000000001
165109.0,516.18499999999995,-363.13200000000001,-102.036,167.91,-134.42400000000001,0.20874200000000001,-15.4238
165110.0,520.14599999999996,-356.56599999999997,-99.221100000000007,173.63999999999999,-137.614,28.997599999999998,-10.286899999999999
165111.0,524.74199999999996,-330.82499999999999,-83.091999999999999,192.721,-140.23400000000001,58.984400000000001,-7.0209700000000002
165112.0,530.66499999999996,-297.61700000000002,-61.499400000000001,215.46700000000001,-141.97300000000001,88.043800000000005,-2.7512500000000002
165113.0,534.35400000000004,-249.80199999999999,-27.442599999999999,243.54599999999999,-143.55000000000001,116.303,0.31102299999999999
165114.0,536.49699999999996,-221.85599999999999,-18.3674,244.554,-143.42400000000001,143.84299999999999,1.83307
165115.0,536.60699999999997,-196.28899999999999,-15.5695,236.30600000000001,-141.66,169.376,4.4931400000000004
165116.0,535.85400000000004,-168.511,-14.7911,222.39400000000001,-140.96100000000001,192.40299999999999,6.5010899999999996
165117.0,536.62699999999995,-142.25299999999999,-19.953900000000001,201.81299999999999,-142.03,212.869,9.1689900000000009
165118.0,538.197,-113.967,-25.0852,176.99000000000001,-144.34999999999999,230.881,13.3216
165119.0,538.91399999999999,-84.295199999999994,-29.769300000000001,148.18899999999999,-146.749,245.18700000000001,19.3917
165120.0,538.21400000000006,-55.357399999999998,-35.294199999999996,114.89100000000001,-149.19,254.77000000000001,27.1203
165121.0,536.16499999999996,-24.0168,-38.1374,82.924300000000002,-150.999,259.47399999999999,36.258400000000002
165122.0,532.33600000000001,3.2960500000000001,-44.416499999999999,47.714100000000002,-151.851,259.14400000000001,46.082000000000001
165123.0,527.05499999999995,34.130899999999997,-45.906199999999998,19.039899999999999,-151.55199999999999,254.32599999999999,56.013300000000001
165124.0,520.35900000000004,60.9375,-49.767899999999997,-9.6605299999999996,-150.054,245.55500000000001,65.596000000000004
165125.0,512.12599999999998,88.822000000000003,-50.657800000000002,-32.560600000000001,-147.214,233.315,74.590699999999998
165126.0,503.10899999999998,112.486,-54.1798,-54.822400000000002,-143.35599999999999,218.24199999999999,83.049899999999994
165127.0,493.45800000000003,139.76499999999999,-51.990900000000003,-68.056600000000003,-138.40799999999999,200.994,90.784599999999998
165128.0,483.452,157.17500000000001,-57.893999999999998,-86.955399999999997,-132.52799999999999,182.00899999999999,97.131200000000007
165129.0,473.81099999999998,178.517,-57.767899999999997,-96.487399999999994,-125.58499999999999,162.07300000000001,103.119
165130.0,403.77499999999998,-85.058300000000003,18.1981,282.99400000000003,-76.212999999999994,-109.89400000000001,-20.478400000000001
165131.0,411.59100000000001,-115.127,3.79956,279.86399999999998,-81.682100000000005,-90.8369,-21.992999999999999
165132.0,417.762,-145.399,-11.2682,269.66199999999998,-89.672399999999996,-69.279799999999994,-21.6663
165133.0,420.63099999999997,-170.898,-22.163900000000002,256.62700000000001,-96.540199999999999,-46.485599999999998,-19.7988
165134.0,423.81599999999997,-197.81899999999999,-38.866,238.624,-100.86499999999999,-22.790199999999999,-19.7134
165135.0,429.459,-217.322,-54.137,226.38,-104.21299999999999,0.020856400000000001,-15.9056
165136.0,434.173,-190.87100000000001,-25.389399999999998,254.089,-107.34399999999999,24.0244,-12.464700000000001
165137.0,439.84100000000001,-170.83500000000001,-7.97722,272.012,-107.941,50.125900000000001,-12.2895
165138.0,443.60399999999998,-155.43899999999999,-0.70346600000000004,279.09399999999999,-105.96299999999999,75.766000000000005,-10.872999999999999
165139.0,445.267,-138.55699999999999,4.9538399999999996,278.50700000000001,-104.57899999999999,100.73699999999999,-10.404999999999999
165140.0,447.91000000000003,-123.754,3.1608499999999999,269.03100000000001,-105.593,124.26900000000001,-10.1388
165141.0,450.262,-111.883,-5.7036600000000002,250.071,-108.258,145.51599999999999,-8.1556200000000008
165142.0,452.82100000000003,-95.513400000000004,-10.7637,230.68600000000001,-111.64700000000001,164.93799999999999,-5.6227600000000004
165143.0,456.19900000000001,-77.280699999999996,-14.772600000000001,208.93799999999999,-115.306,182.83099999999999,-2.0434000000000001
165144.0,458.92899999999997,-55.911099999999998,-17.707799999999999,184.66399999999999,-119.063,198.25899999999999,2.7960699999999998
165145.0,460.51400000000001,-33.751300000000001,-21.713000000000001,156.91200000000001,-122.72,210.12299999999999,8.8585899999999995
165146.0,460.54700000000003,-9.1235300000000006,-24.5151,128.78999999999999,-125.855,217.89400000000001,16.040600000000001
165147.0,458.88999999999999,14.5389,-28.644400000000001,99.0916,-128.16300000000001,221.31,23.831
165148.0,455.83199999999999,41.1629,-29.3933,73.519999999999996,-129.48599999999999,220.708,31.828099999999999
165149.0,451.16199999999998,63.908299999999997,-32.987000000000002,46.547699999999999,-129.68000000000001,216.316,39.626199999999997
165150.0,445.14800000000002,87.575999999999993,-34.242199999999997,23.836200000000002,-128.82900000000001,208.614,47.144100000000002
165151.0,437.86700000000002,108.819,-35.8264,3.0731899999999999,-127.032,198.03800000000001,54.315199999999997
165152.0,428.91300000000001,129.58699999999999,-35.761499999999998,-14.231299999999999,-123.877,184.95400000000001,60.723500000000001
165153.0,419.22800000000001,145.50999999999999,-39.474400000000003,-32.855899999999998,-119.34399999999999,169.864,66.889600000000002
165154.0,410.92000000000002,168.273,-36.461199999999998,-40.805900000000001,-114.79000000000001,153.357,72.903499999999994
165155.0,403.12700000000001,186.37,-36.316400000000002,-48.619700000000002,-109.602,136.30699999999999,78.004199999999997
165156.0,350.762,-37.933399999999999,7.16181,278.911,-48.563400000000001,-95.482200000000006,-12.546099999999999
165157.0,354.53399999999999,-49.510599999999997,11.717599999999999,291.07799999999997,-50.761200000000002,-78.486599999999996,-14.000500000000001
165158.0,357.28699999999998,-63.228999999999999,14.5138,296.38099999999997,-54.649799999999999,-59.278100000000002,-15.7751
165159.0,359.46100000000001,-76.493600000000001,13.8119,295.39600000000002,-60.0914,-39.472499999999997,-16.649999999999999
165160.0,362.18599999999998,-90.007999999999996,7.9434399999999998,289.00400000000002,-65.964699999999993,-18.965,-17.566700000000001
165161.0,366.27699999999999,-97.496700000000004,4.9941199999999997,286.589,-69.821299999999994,1.7470300000000001,-16.9681
165162.0,369.68900000000002,-96.927599999999998,8.1313800000000001,288.77800000000002,-70.688199999999995,23.0626,-16.3249
165163.0,373.37200000000001,-89.011200000000002,11.8306,292.47300000000001,-71.247699999999995,44.955800000000004,-17.177499999999998
165164.0,377.98399999999998,-84.066000000000003,6.27372,287.13799999999998,-73.014099999999999,67.038899999999998,-18.046099999999999
165165.0,382.29300000000001,-77.9452,-0.159694,277.13,-75.695999999999998,88.459900000000005,-18.013300000000001
165166.0,385.96499999999997,-68.817700000000002,-2.8994900000000001,264.91800000000001,-79.081299999999999,108.88200000000001,-17.4726
165167.0,389.95499999999998,-56.377899999999997,-2.4023500000000002,251.608,-83.150700000000001,128.346,-15.9192
165168.0,393.68200000000002,-44.253799999999998,-4.8383099999999999,232.53700000000001,-87.848200000000006,146.11799999999999,-13.237500000000001
165169.0,396.774,-29.770099999999999,-7.8879299999999999,210.876,-92.718699999999998,161.488,-9.6629100000000001
165170.0,399.221,-13.9641,-11.791,186.62299999999999,-97.502099999999999,174.13900000000001,-5.1710799999999999
165171.0,400.45400000000001,4.6404699999999997,-14.686199999999999,161.85900000000001,-101.756,183.63900000000001,0.11766
165172.0,400.24000000000001,23.875599999999999,-18.031400000000001,135.96100000000001,-105.229,189.60499999999999,5.9619400000000002
165173.0,398.64999999999998,45.011200000000002,-19.958600000000001,111.505,-107.77500000000001,192.07499999999999,12.034800000000001
165174.0,395.74200000000002,64.232299999999995,-23.6111,86.137500000000003,-109.38500000000001,191.14099999999999,18.183900000000001
165175.0,391.96699999999998,86.226100000000002,-23.427,65.796400000000006,-110.33499999999999,187.21600000000001,24.262799999999999
165176.0,386.65499999999997,105.351,-24.106100000000001,45.9908,-110.39400000000001,180.36699999999999,30.2563
165177.0,380.08499999999998,122.955,-24.3065,27.5639,-109.605,170.96700000000001,36.5075
165178.0,372.73500000000001,137.81200000000001,-25.616700000000002,11.395099999999999,-108.241,159.39400000000001,42.944899999999997
165179.0,363.608,156.392,-21.844999999999999,2.8570000000000002,-105.52200000000001,145.626,49.020899999999997
165180.0,354.92399999999998,164.779,-27.585100000000001,-15.963900000000001,-100.982,131.434,53.697499999999998
165181.0,347.44299999999998,178.23400000000001,-28.2681,-26.5961,-95.556899999999999,116.977,57.653399999999998
165182.0,316.37700000000001,-6.7874600000000003,10.998100000000001,275.31799999999998,-31.2639,-85.826300000000003,-7.7813999999999997
165183.0,318.37599999999998,-20.1936,7.3094400000000004,281.63200000000001,-32.065300000000001,-69.394000000000005,-9.6241500000000002
165184.0,318.88499999999999,-29.004899999999999,7.3673099999999998,287.053,-34.038899999999998,-51.916200000000003,-11.6388
165185.0,320.00400000000002,-39.588099999999997,5.5950199999999999,287.51900000000001,-36.802500000000002,-34.092399999999998,-14.042899999999999
165186.0,321.053,-42.661099999999998,10.7683,291.71899999999999,-40.0593,-15.9703,-15.240500000000001
165187.0,322.70299999999997,-49.321100000000001,8.4398400000000002,288.00700000000001,-42.957000000000001,3.0424600000000002,-17.621200000000002
165188.0,326.81299999999999,-58.5916,-2.5210900000000001,278.887,-45.591999999999999,21.720199999999998,-18.640899999999998
165189.0,330.322,-51.9054,1.3545400000000001,280.96499999999997,-48.663400000000003,40.757599999999996,-19.270099999999999
165190.0,335.58199999999999,-43.788600000000002,5.9995599999999998,281.40300000000002,-51.892400000000002,60.998899999999999,-21.106400000000001
165191.0,340.62,-39.629600000000003,4.3341799999999999,272.88400000000001,-55.43,80.871399999999994,-21.023099999999999
165192.0,344.166,-31.2332,3.7730399999999999,261.14299999999997,-59.991399999999999,99.848699999999994,-20.572299999999998
165193.0,347.43000000000001,-24.9313,-1.7779700000000001,242.56800000000001,-64.948599999999999,116.979,-19.1662
165194.0,350.27100000000002,-14.036,-4.1293499999999996,224.41999999999999,-70.363900000000001,132.126,-17.0045
165195.0,352.96100000000001,-2.72993,-7.7299600000000002,203.29599999999999,-75.736699999999999,145.24199999999999,-13.975
165196.0,354.68599999999998,12.1684,-9.5058199999999999,182.50200000000001,-80.7136,155.73599999999999,-10.3513
165197.0,355.30200000000002,27.8064,-12.1008,160.13999999999999,-84.992500000000007,163.36500000000001,-6.2744799999999996
165198.0,354.589,46.162999999999997,-13.052899999999999,139.04400000000001,-88.439800000000005,167.952,-1.97153
165199.0,352.75200000000001,64.909099999999995,-14.120699999999999,118.056,-91.081400000000002,169.56299999999999,2.63944
165200.0,350.20100000000002,85.864800000000002,-12.658300000000001,100.20999999999999,-93.059600000000003,168.506,7.1067099999999996
165201.0,346.65499999999997,102.72199999999999,-14.316000000000001,80.036699999999996,-94.208699999999993,164.887,11.8704
165202.0,342.59100000000001,118.70699999999999,-14.7958,61.724699999999999,-95.357600000000005,158.96899999999999,16.470400000000001
165203.0,336.16199999999998,132.059,-14.8446,45.512500000000003,-95.251199999999997,150.441,22.599599999999999
165204.0,328.88200000000001,140.43700000000001,-16.058299999999999,25.5427,-95.302800000000005,139.655,29.9666
165205.0,323.43700000000001,143.78700000000001,-22.264099999999999,4.7892000000000001,-93.857600000000005,129.35900000000001,37.280900000000003
165206.0,314.96899999999999,159.74100000000001,-17.6919,3.77271,-90.5428,116.616,43.509999999999998
165207.0,306.608,175.83699999999999,-14.593,0.61887300000000001,-87.243499999999997,101.72,46.6736
165208.0,290.048,-0.053954599999999998,4.3846800000000004,255.03700000000001,-22.360700000000001,-78.680499999999995,-5.6953800000000001
165209.0,291.94999999999999,-6.5810599999999999,7.1017999999999999,267.12099999999998,-22.339099999999998,-63.801900000000003,-7.5453299999999999
165210.0,292.93200000000002,-13.5444,8.2521799999999992,274.43700000000001,-23.1145,-47.601599999999998,-9.6121999999999996
165211.0,293.51600000000002,-19.136700000000001,8.5374199999999991,278.50299999999999,-24.5745,-30.553899999999999,-11.8454
165212.0,293.827,-24.638400000000001,6.6679199999999996,277.95400000000001,-26.642399999999999,-13.583600000000001,-13.9292
165213.0,295.25,-28.1538,5.24498,276.435,-29.4603,3.5425200000000001,-16.476900000000001
165214.0,298.51499999999999,-29.785799999999998,4.577,275.036,-32.571100000000001,20.953600000000002,-18.154800000000002
165215.0,301.71100000000001,-27.215,6.6504399999999997,273.738,-35.558300000000003,39.1098,-19.325500000000002
165216.0,305.35199999999998,-25.367699999999999,4.32355,266.60199999999998,-38.913400000000003,57.572000000000003,-20.772200000000002
165217.0,309.00299999999999,-21.5428,1.1846000000000001,256.63200000000001,-43.055900000000001,75.290499999999994,-21.1328
165218.0,312.17500000000001,-15.3681,-0.86798299999999995,244.02199999999999,-47.958599999999997,92.2346,-20.8141
165219.0,315.14999999999998,-6.5515499999999998,-1.88347,230.04499999999999,-53.219200000000001,107.658,-19.6387
165220.0,317.71600000000001,2.8925700000000001,-4.31325,212.79499999999999,-58.540500000000002,121.21599999999999,-17.881799999999998
165221.0,319.67399999999998,15.4053,-5.4959199999999999,195.666,-63.570599999999999,132.446,-15.744
165222.0,320.846,28.2424,-7.8054600000000001,176.46100000000001,-68.124399999999994,141.268,-13.395899999999999
165223.0,320.62599999999998,44.530700000000003,-7.69156,158.898,-71.959199999999996,147.351,-10.8048
165224.0,319.30200000000002,59.921599999999998,-9.3241499999999995,139.24299999999999,-75.014300000000006,150.87700000000001,-8.1922999999999995
165225.0,316.56099999999998,78.172200000000004,-8.2662999999999993,122.04000000000001,-77.127600000000001,151.761,-5.2441000000000004
165226.0,314.02499999999998,91.986099999999993,-12.1027,100.399,-78.943600000000004,150.68700000000001,-2.2236099999999999
165227.0,310.88999999999999,112.914,-7.3664199999999997,88.369299999999996,-80.460899999999995,147.31200000000001,1.9039600000000001
165228.0,308.41300000000001,124.54300000000001,-10.5998,68.331999999999994,-82.816400000000002,142.142,5.8619599999999998
165229.0,302.947,139.744,-5.74932,59.0244,-83.243200000000002,134.88999999999999,12.4215
165230.0,293.60500000000002,136.011,-15.067,31.0762,-85.214500000000001,122.937,19.117000000000001
165231.0,287.74900000000002,101.913,-56.323,-25.326799999999999,-84.081900000000005,113.396,25.297899999999998
165232.0,280.81400000000002,110.126,-51.706600000000002,-31.003499999999999,-79.3596,105.066,34.536499999999997
165233.0,275.03199999999998,149.06200000000001,-20.338200000000001,-6.8879200000000003,-78.184200000000004,92.681299999999993,40.562399999999997
165234.0,267.88299999999998,2.5828799999999998,2.93302,236.27199999999999,-20.012699999999999,-72.901799999999994,-5.38171
165235.0,269.44999999999999,-5.9585299999999997,1.84718,244.56800000000001,-19.291899999999998,-59.097900000000003,-6.8333399999999997
165236.0,270.61200000000002,-11.850099999999999,2.04678,251.845,-19.173100000000002,-44.119799999999998,-8.6546500000000002
165237.0,271.31599999999997,-16.632899999999999,2.2708300000000001,256.26900000000001,-19.788499999999999,-28.4192,-10.6576
165238.0,272.15600000000001,-19.065000000000001,3.6423999999999999,259.45800000000003,-21.228999999999999,-12.3599,-12.8171
165239.0,273.45499999999998,-21.054200000000002,3.9612400000000001,259.74200000000002,-23.2879,4.05098,-14.7578
165240.0,275.209,-21.509699999999999,3.5255399999999999,257.78800000000001,-25.8005,20.642099999999999,-16.563099999999999
165241.0,277.84100000000001,-21.863199999999999,0.64078800000000002,252.32400000000001,-28.988099999999999,37.3401,-18.049399999999999
165242.0,280.76600000000002,-18.366399999999999,0.137577,246.79599999999999,-32.753599999999999,54.136800000000001,-18.8995
165243.0,283.726,-13.390599999999999,-0.55564100000000005,238.47800000000001,-36.970399999999998,70.523499999999999,-19.2301
165244.0,286.53899999999999,-7.3455500000000002,-2.7069299999999998,226.71899999999999,-41.466799999999999,85.930300000000003,-18.903600000000001
165245.0,289.03199999999998,0.82797500000000002,-4.7828299999999997,213.209,-46.043900000000001,99.758600000000001,-18.214300000000001
165246.0,291.351,10.9047,-6.4997100000000003,198.732,-50.567,111.756,-17.2697
165247.0,293.13099999999997,22.553799999999999,-7.8174700000000001,183.47300000000001,-54.871099999999998,121.65300000000001,-16.233000000000001
165248.0,293.93900000000002,36.082700000000003,-8.2256599999999995,168.19800000000001,-58.729700000000001,129.21000000000001,-15.2224
165249.0,293.238,50.935000000000002,-7.7809299999999997,152.76300000000001,-62.0105,134.232,-14.1768
165250.0,290.99700000000001,67.004000000000005,-6.7133900000000004,137.19800000000001,-64.590100000000007,136.78299999999999,-12.890000000000001
165251.0,287.74799999999999,85.179900000000004,-4.0037000000000003,123.15000000000001,-66.669300000000007,137.02600000000001,-10.860900000000001
165252.0,284.83300000000003,104.458,-0.62948700000000002,109.955,-68.350300000000004,135.71000000000001,-8.3898799999999998
165253.0,282.13,118.526,-1.41255,93.093900000000005,-69.650499999999994,132.886,-5.34476
165254.0,280.12599999999998,131.02099999999999,-3.0112000000000001,75.797499999999999,-71.705100000000002,128.35599999999999,-1.6106100000000001
165255.0,275.69099999999997,140.75899999999999,-2.6823899999999998,62.202199999999998,-73.275700000000001,121.607,4.2481799999999996
165256.0,268.32799999999997,140.96000000000001,-7.84734,44.049599999999998,-76.5595,110.884,11.779299999999999
165257.0,261.39800000000002,115.099,-40.337499999999999,3.3458800000000002,-78.4495,99.2166,18.7546
165258.0,252.19999999999999,86.383300000000006,-72.527699999999996,-37.930599999999998,-74.653499999999994,89.407499999999999,25.5123
165259.0,245.40100000000001,93.702399999999997,-66.716300000000004,-43.856299999999997,-70.884900000000002,80.638499999999993,31.888000000000002
165260.0,247.54599999999999,-1.5374399999999999,-2.7800699999999998,212.80799999999999,-20.450099999999999,-67.604900000000001,-5.8156400000000001
165261.0,249.19300000000001,-6.8245699999999996,-1.0080899999999999,223.363,-19.846699999999998,-55.033999999999999,-7.0247900000000003
165262.0,250.43899999999999,-12.2475,-0.52346700000000002,230.57400000000001,-19.584499999999998,-41.244500000000002,-8.4254200000000008
165263.0,251.364,-16.001100000000001,0.0098426599999999996,235.70699999999999,-19.847799999999999,-26.5855,-9.9747199999999996
165264.0,252.20500000000001,-19.352699999999999,-0.72140499999999996,237.48400000000001,-20.694400000000002,-11.4099,-11.614800000000001
165265.0,253.20400000000001,-20.694700000000001,-1.09775,237.63999999999999,-22.209599999999998,4.0300700000000003,-13.2319
165266.0,254.70400000000001,-20.777100000000001,-1.59674,235.81299999999999,-24.460899999999999,19.5687,-14.6645
165267.0,256.75400000000002,-18.525600000000001,-1.2917000000000001,232.98500000000001,-27.293199999999999,35.242899999999999,-15.7272
165268.0,259.05399999999997,-15.847899999999999,-2.9254699999999998,226.52500000000001,-30.459700000000002,50.798900000000003,-16.371099999999998
165269.0,261.423,-11.016500000000001,-4.7058400000000002,218.12899999999999,-33.8827,65.742199999999997,-16.634799999999998
165270.0,263.92599999999999,-3.4935399999999999,-5.53179,208.922,-37.5381,79.680300000000003,-16.5824
165271.0,266.51299999999998,5.1345999999999998,-6.9522500000000003,197.71899999999999,-41.2498,92.307400000000001,-16.3292
165272.0,268.97800000000001,16.148900000000001,-7.43323,186.404,-44.847499999999997,103.236,-16.170300000000001
165273.0,270.97000000000003,28.715499999999999,-7.32219,174.755,-48.228999999999999,112.19199999999999,-16.2913
165274.0,271.76600000000002,42.795299999999997,-5.9892300000000001,163.065,-51.336300000000001,118.88200000000001,-16.729299999999999
165275.0,270.61500000000001,57.220999999999997,-4.3427300000000004,150.22800000000001,-54.0505,123.05200000000001,-17.091100000000001
165276.0,267.339,72.698300000000003,-1.36374,137.054,-56.267200000000003,124.789,-16.950500000000002
165277.0,262.45499999999998,85.745000000000005,-0.96913899999999997,120.2,-57.357700000000001,124.551,-16.1282
165278.0,258.08999999999997,99.914000000000001,-1.4374899999999999,103.08,-57.928699999999999,122.968,-13.8674
165279.0,256.92599999999999,118.113,0.99802800000000003,91.208299999999994,-59.666600000000003,120.68600000000001,-10.7485
165280.0,255.56399999999999,133.72399999999999,3.1957100000000001,79.867000000000004,-61.920400000000001,116.55200000000001,-7.0553400000000002
165281.0,252.52799999999999,140.91900000000001,0.48206199999999999,63.923000000000002,-64.5458,110.176,-2.4479500000000001
165282.0,246.83799999999999,144.56800000000001,-0.79457199999999994,50.585500000000003,-66.980199999999996,101.807,4.9828200000000002
165283.0,240.279,141.37,-5.9442599999999999,36.066499999999998,-70.062899999999999,91.642700000000005,13.351100000000001
165284.0,232.79499999999999,130.899,-20.137799999999999,20.434999999999999,-70.353999999999999,80.802199999999999,21.813199999999998
165285.0,224.76300000000001,107.06699999999999,-46.621000000000002,-13.3179,-68.936599999999999,69.1815,27.643699999999999
165286.0,228.935,-2.6751299999999998,-5.2087000000000003,193.559,-22.5153,-62.562100000000001,-6.7551199999999998
165287.0,230.28100000000001,-10.133100000000001,-5.9338899999999999,200.803,-21.661000000000001,-51.084899999999998,-7.45627
165288.0,231.488,-14.766400000000001,-5.3497899999999996,207.964,-21.273499999999999,-38.368200000000002,-8.4219600000000003
165289.0,232.49700000000001,-18.884799999999998,-5.4642099999999996,212.34299999999999,-21.438600000000001,-24.8995,-9.54209
165290.0,233.322,-20.6203,-4.6283099999999999,215.589,-22.1677,-10.782,-10.697800000000001
165291.0,234.32300000000001,-21.810400000000001,-4.8252699999999997,215.999,-23.441600000000001,3.6688100000000001,-11.770099999999999
165292.0,235.53899999999999,-21.204799999999999,-5.09781,214.65600000000001,-25.172699999999999,18.285699999999999,-12.698399999999999
165293.0,237.095,-19.872199999999999,-6.6213100000000003,210.53100000000001,-27.300799999999999,32.813800000000001,-13.414099999999999
165294.0,239.01499999999999,-15.6211,-6.99817,205.916,-29.8048,47.058799999999998,-13.864599999999999
165295.0,241.22399999999999,-9.9486399999999993,-7.8558199999999996,199.31700000000001,-32.445300000000003,60.768599999999999,-14.0738
165296.0,243.65000000000001,-2.6135000000000002,-9.0697899999999994,191.13800000000001,-35.040199999999999,73.581000000000003,-14.222200000000001
165297.0,246.363,7.4987599999999999,-9.1488499999999995,183.19,-37.514800000000001,85.175899999999999,-14.5869
165298.0,249.20099999999999,18.9621,-8.9839699999999993,174.595,-39.903599999999997,95.330100000000002,-15.371499999999999
165299.0,251.71600000000001,31.5091,-8.2356999999999996,165.59700000000001,-42.2517,103.71599999999999,-16.7882
165300.0,252.91300000000001,45.355699999999999,-5.9724000000000004,156.50800000000001,-44.732199999999999,109.902,-18.548300000000001
165301.0,251.40799999999999,59.296500000000002,-2.5975100000000002,145.99799999999999,-47.256,113.373,-20.269300000000001
165302.0,246.53299999999999,73.239400000000003,0.95950299999999999,133.47499999999999,-49.5745,113.98999999999999,-20.147099999999998
165303.0,240.23599999999999,89.872500000000002,5.7077200000000001,122.241,-52.013599999999997,112.128,-18.467600000000001
165304.0,235.35900000000001,109.773,12.0616,113.95699999999999,-52.855499999999999,110.02800000000001,-15.499599999999999
165305.0,233.54599999999999,119.723,8.51755,95.317499999999995,-52.723399999999998,108.708,-12.9617
165306.0,233.12200000000001,133.32300000000001,8.7721699999999991,81.243099999999998,-53.670000000000002,105.86799999999999,-10.6737
165307.0,232.81100000000001,142.44900000000001,5.97905,66.508399999999995,-56.069400000000002,100.98399999999999,-7.0488299999999997
165308.0,227.703,147.47,5.5095900000000002,55.779800000000002,-58.601999999999997,93.088200000000001,-1.4936499999999999
165309.0,221.12700000000001,141.38399999999999,-2.4842,37.453600000000002,-61.066499999999998,83.8399,5.0052899999999996
165310.0,212.233,144.964,4.1901000000000002,37.681699999999999,-60.847099999999998,75.542599999999993,14.0434
165311.0,204.86600000000001,129.982,-10.684200000000001,16.636199999999999,-63.287999999999997,63.083199999999998,21.019100000000002
165312.0,211.26599999999999,-5.59999,-9.3233499999999996,173.286,-24.1572,-57.844099999999997,-7.41364
165313.0,212.63200000000001,-9.78233,-7.7858900000000002,182.83000000000001,-23.470400000000001,-47.074100000000001,-8.0128000000000004
165314.0,213.953,-14.974600000000001,-7.9279099999999998,188.78700000000001,-23.2197,-35.643999999999998,-8.4514399999999998
165315.0,214.697,-18.2333,-7.4940100000000003,193.28800000000001,-23.367999999999999,-23.2026,-9.2450299999999999
165316.0,215.476,-20.935099999999998,-8.0084300000000006,195.261,-23.901199999999999,-10.183199999999999,-9.8664799999999993
165317.0,216.27199999999999,-21.707799999999999,-8.2009000000000007,195.80600000000001,-24.861899999999999,3.18405,-10.522500000000001
165318.0,217.34700000000001,-20.955400000000001,-8.51267,194.70599999999999,-26.206099999999999,16.673500000000001,-11.018599999999999
165319.0,218.75200000000001,-18.303100000000001,-8.6684599999999996,192.32599999999999,-27.808700000000002,30.071999999999999,-11.420400000000001
165320.0,220.38399999999999,-14.0722,-9.2291399999999992,188.23400000000001,-29.4251,43.162300000000002,-11.7073
165321.0,222.38999999999999,-7.9581499999999998,-9.8530599999999993,183.04300000000001,-30.911999999999999,55.694200000000002,-12.0868
165322.0,224.71700000000001,1.47366,-8.8462800000000001,178.447,-32.2301,67.456800000000001,-12.622299999999999
165323.0,227.756,10.6549,-9.5909099999999992,171.53999999999999,-33.3568,78.357399999999998,-13.710599999999999
165324.0,231.102,23.990300000000001,-7.1628600000000002,167.02600000000001,-34.562899999999999,88.000100000000003,-15.346299999999999
165325.0,234.75399999999999,37.048299999999998,-5.2396000000000003,161.13300000000001,-36.0687,96.244299999999996,-18.122499999999999
165326.0,236.376,53.016300000000001,0.57748100000000002,156.79599999999999,-38.0792,102.059,-20.921399999999998
165327.0,235.28200000000001,64.091700000000003,2.9704100000000002,145.66499999999999,-41.067700000000002,105.199,-23.9529
165328.0,227.38200000000001,77.874899999999997,10.638,136.33000000000001,-43.683,104.158,-22.826000000000001
165329.0,217.834,77.129999999999995,5.20526,106.648,-46.9345,102.336,-20.4755
165330.0,212.72800000000001,72.668700000000001,-8.5216200000000004,78.191699999999997,-45.474800000000002,101.94199999999999,-16.348600000000001
165331.0,208.696,105.008,6.6555799999999996,84.405699999999996,-44.436,98.476100000000002,-12.4657
165332.0,212.65299999999999,134.06200000000001,15.684699999999999,82.408699999999996,-47.091000000000001,95.872699999999995,-11.930199999999999
165333.0,215.42500000000001,140.32599999999999,9.1852900000000002,66.924700000000001,-48.614100000000001,93.210899999999995,-9.8911200000000008
165334.0,211.238,147.27199999999999,10.8917,57.873100000000001,-51.660699999999999,85.846800000000002,-5.95505
165335.0,205.45599999999999,144.51300000000001,4.4184599999999996,43.253399999999999,-53.806800000000003,77.094800000000006,-0.80618100000000004
165336.0,195.46600000000001,138.96799999999999,0.69863399999999998,34.888800000000003,-54.402000000000001,67.523499999999999,5.4770599999999998
165337.0,187.97999999999999,128.06700000000001,-8.4727300000000003,20.589099999999998,-56.368499999999997,57.333500000000001,11.877700000000001
165338.0,194.76599999999999,-5.1731600000000002,-11.9795,156.92699999999999,-24.9938,-53.098100000000002,-7.6455299999999999
165339.0,196.26300000000001,-9.2622400000000003,-10.0175,166.125,-24.538499999999999,-43.221600000000002,-8.4639199999999999
165340.0,197.428,-15.037100000000001,-11.3222,170.43199999999999,-24.3127,-33.0017,-8.4321000000000002
165341.0,197.893,-17.671399999999998,-10.419700000000001,174.87899999999999,-24.5243,-21.488299999999999,-8.9439899999999994
165342.0,198.63399999999999,-20.033799999999999,-10.7537,176.90299999999999,-25.036999999999999,-9.6489700000000003,-9.1881199999999996
165343.0,199.27099999999999,-20.556899999999999,-10.7463,177.59200000000001,-25.8432,2.65327,-9.4678400000000007
165344.0,200.25,-19.585100000000001,-10.962199999999999,176.93299999999999,-26.750900000000001,15.001899999999999,-9.6413799999999998
165345.0,201.464,-17.397200000000002,-11.722799999999999,174.50999999999999,-27.657399999999999,27.256,-9.8828200000000006
165346.0,202.95400000000001,-12.0558,-11.0364,172.453,-28.430399999999999,39.137799999999999,-10.221299999999999
165347.0,204.797,-6.02501,-11.398400000000001,168.459,-28.8188,50.609900000000003,-10.879099999999999
165348.0,206.994,3.5965699999999998,-9.8762500000000006,165.56999999999999,-28.834700000000002,61.452800000000003,-11.885400000000001
165349.0,210.34899999999999,14.877800000000001,-8.1503099999999993,162.62200000000001,-28.567900000000002,71.812299999999993,-13.742599999999999
165350.0,214.32599999999999,29.573,-3.64527,161.648,-28.398800000000001,81.195499999999996,-16.366
165351.0,219.39400000000001,41.287700000000001,-2.28105,156.63,-28.938700000000001,89.721199999999996,-20.368099999999998
165352.0,221.84299999999999,58.157400000000003,5.85785,155.55199999999999,-30.812999999999999,95.391400000000004,-24.1707
165353.0,221.06899999999999,66.742099999999994,7.3206100000000003,143.37299999999999,-34.886699999999998,98.340199999999996,-27.394500000000001
165354.0,209.63999999999999,79.177499999999995,16.666,134.96000000000001,-39.002800000000001,94.937200000000004,-24.761800000000001
165355.0,196.34800000000001,64.380899999999997,-5.6177599999999996,90.564099999999996,-44.672600000000003,88.971000000000004,-21.601299999999998
165356.0,190.184,51.584699999999998,-30.2285,59.492199999999997,-43.190899999999999,86.474800000000002,-15.673500000000001
165357.0,185.143,101.592,9.0589700000000004,87.484700000000004,-41.25,84.5959,-9.0876199999999994
165358.0,193.06299999999999,130.77799999999999,21.290199999999999,83.469399999999993,-43.328299999999999,86.219300000000004,-9.8978099999999998
165359.0,198.97900000000001,135.65000000000001,12.1647,66.836600000000004,-42.904000000000003,86.168899999999994,-10.146599999999999
165360.0,197.09999999999999,147.60599999999999,16.592400000000001,60.301699999999997,-45.9328,79.506399999999999,-8.2942
165361.0,192.024,141.297,7.86409,44.067999999999998,-48.069499999999998,72.092200000000005,-4.6577799999999998
165362.0,182.74199999999999,140.60300000000001,9.3200599999999998,39.429099999999998,-49.7547,62.6511,1.10087
165363.0,175.322,132.613,1.9945299999999999,28.3415,-50.398600000000002,53.748399999999997,6.75448
165364.0,179.971,-2.6465800000000002,-12.647399999999999,144.61699999999999,-25.035399999999999,-48.486400000000003,-8.1055799999999998
165365.0,180.928,-7.19909,-11.2447,151.88200000000001,-24.569099999999999,-39.7669,-8.4239700000000006
165366.0,181.83600000000001,-11.729100000000001,-11.559799999999999,156.52500000000001,-24.5625,-30.330400000000001,-8.4411699999999996
165367.0,182.267,-14.8697,-11.436999999999999,159.93100000000001,-24.8231,-19.879799999999999,-8.5679599999999994
165368.0,182.72,-17.091899999999999,-11.848000000000001,161.55500000000001,-25.246700000000001,-9.0694499999999998,-8.6087000000000007
165369.0,183.28800000000001,-17.6218,-11.994199999999999,162.21600000000001,-25.803100000000001,2.1246,-8.6036400000000004
165370.0,184.16300000000001,-16.526399999999999,-12.063599999999999,161.952,-26.338699999999999,13.338100000000001,-8.6263400000000008
165371.0,185.405,-13.569699999999999,-11.803900000000001,161.11699999999999,-26.6875,24.454599999999999,-8.8365799999999997
165372.0,186.78899999999999,-8.5721799999999995,-11.0448,159.83099999999999,-26.597200000000001,35.212400000000002,-9.4212299999999995
165373.0,188.39599999999999,-1.08935,-9.3232400000000002,158.67400000000001,-25.8856,45.611400000000003,-10.557700000000001
165374.0,190.303,9.7380099999999992,-5.5674000000000001,158.64599999999999,-24.449400000000001,55.614699999999999,-12.328799999999999
165375.0,193.62,20.3675,-3.4371900000000002,156.67099999999999,-22.5745,65.587500000000006,-14.8833
165376.0,198.63,35.8279,2.4879099999999998,158.28800000000001,-21.161899999999999,75.071200000000005,-18.3721
165377.0,205.19999999999999,51.340699999999998,8.2336299999999998,158.88200000000001,-21.133600000000001,83.911000000000001,-22.984000000000002
165378.0,209.358,67.379000000000005,16.601099999999999,158.82400000000001,-23.4129,89.995099999999994,-27.7194
165379.0,207.31899999999999,76.440200000000004,20.0581,148.173,-28.635400000000001,92.141800000000003,-29.899000000000001
165380.0,193.13,79.767099999999999,22.779,131.666,-36.3521,86.569199999999995,-25.5168
165381.0,177.249,64.117500000000007,4.1837900000000001,91.673599999999993,-45.738700000000001,78.371099999999998,-15.4084
165382.0,171.18899999999999,48.002600000000001,-17.770399999999999,60.697200000000002,-48.0199,75.315399999999997,-4.0177500000000004
165383.0,167.08799999999999,76.392200000000003,0.70265500000000003,72.094499999999996,-43.652200000000001,74.781300000000002,0.99590599999999996
165384.0,172.46000000000001,113.026,16.031300000000002,76.406199999999998,-40.846299999999999,76.3874,-3.4104399999999999
165385.0,183.14599999999999,131.51499999999999,15.35,67.702299999999994,-39.863300000000002,78.403400000000005,-7.7522599999999997
165386.0,185.37299999999999,141.76400000000001,16.487500000000001,58.744999999999997,-41.752699999999997,74.689499999999995,-8.4023400000000006
165387.0,180.465,140.23099999999999,13.186400000000001,47.207799999999999,-44.131,67.360399999999998,-6.7614299999999998
165388.0,171.636,135.16399999999999,9.3008500000000005,37.396900000000002,-45.345599999999997,58.238700000000001,-2.5969199999999999
165389.0,163.209,128.346,4.4204499999999998,28.918700000000001,-45.829599999999999,49.6616,2.26031
165390.0,166.066,0.32257000000000002,-11.7745,134.37899999999999,-23.9145,-44.410299999999999,-8.2960899999999995
165391.0,166.738,-5.2590599999999998,-12.701700000000001,138.892,-23.822299999999998,-36.469799999999999,-8.1886299999999999
165392.0,167.26599999999999,-8.9403400000000008,-12.285500000000001,143.465,-23.887,-27.763500000000001,-8.2742100000000001
165393.0,167.63499999999999,-12.3025,-12.731299999999999,146.012,-24.1965,-18.3672,-8.1984300000000001
165394.0,167.88200000000001,-13.8195,-12.5504,147.929,-24.578600000000002,-8.4969400000000004,-8.0954200000000007
165395.0,168.374,-14.4262,-12.821400000000001,148.506,-24.938099999999999,1.61392,-7.9203799999999998
165396.0,169.274,-13.1828,-12.6088,148.86000000000001,-25.064399999999999,11.781700000000001,-7.9043299999999999
165397.0,170.56999999999999,-10.232799999999999,-12.035299999999999,148.911,-24.827200000000001,21.792400000000001,-8.2333700000000007
165398.0,172.14099999999999,-5.0742799999999999,-10.391,149.25200000000001,-24.037600000000001,31.4846,-9.3039500000000004
165399.0,173.40700000000001,2.3326500000000001,-7.5202499999999999,149.47300000000001,-22.4679,40.778700000000001,-11.0982
165400.0,174.93700000000001,12.0402,-3.7635000000000001,149.67400000000001,-20.022400000000001,49.912599999999998,-13.641999999999999
165401.0,177.744,27.9298,4.6995100000000001,154.083,-17.040900000000001,59.185000000000002,-16.614100000000001
165402.0,183.78299999999999,42.068100000000001,10.634399999999999,155.99199999999999,-14.254,69.081599999999995,-20.834
165403.0,191.44499999999999,58.654699999999998,18.6693,159.25700000000001,-13.2112,78.416399999999996,-25.416699999999999
165404.0,197.834,71.281000000000006,23.531700000000001,156.18700000000001,-16.275099999999998,85.641999999999996,-30.534300000000002
165405.0,193.602,83.2226,30.285900000000002,150.31299999999999,-23.444600000000001,86.081900000000005,-30.264099999999999
165406.0,176.99299999999999,76.773399999999995,22.8048,121.752,-35.873699999999999,78.610900000000001,-22.830300000000001
165407.0,159.08699999999999,37.447600000000001,-14.8901,63.507399999999997,-46.238300000000002,68.074799999999996,-8.3675300000000004
165408.0,150.745,-17.6023,-71.162999999999997,-4.1336599999999999,-49.545099999999998,61.988900000000001,4.4902600000000001
165409.0,151.28100000000001,1.94329,-62.250700000000002,6.6268700000000003,-45.383400000000002,63.1387,10.0656
165410.0,155.738,87.889499999999998,2.2874599999999998,67.5197,-41.498600000000003,65.682400000000001,6.9842500000000003
165411.0,168.74000000000001,125.74299999999999,17.820599999999999,70.831199999999995,-40.698,70.130499999999998,-2.0890900000000001
165412.0,174.72399999999999,133.107,14.3405,57.303199999999997,-39.349299999999999,70.443600000000004,-7.0169699999999997
165413.0,170.15100000000001,138.011,17.253299999999999,49.488199999999999,-41.436599999999999,63.003,-7.3828500000000004
165414.0,162.18000000000001,130.62200000000001,11.146800000000001,37.620899999999999,-42.352400000000003,54.933300000000003,-4.31508
165415.0,152.51599999999999,126.16500000000001,9.4608399999999993,32.398800000000001,-42.6282,45.971600000000002,0.40212199999999998
165416.0,152.99700000000001,2.86849,-12.074299999999999,124.274,-22.274699999999999,-40.610999999999997,-8.0647500000000001
165417.0,153.59999999999999,-1.01729,-11.283300000000001,129.71299999999999,-22.465299999999999,-33.407299999999999,-8.0133299999999998
165418.0,153.922,-5.5175099999999997,-12.1136,132.56299999999999,-22.667100000000001,-25.427800000000001,-7.96258
165419.0,154.029,-7.6797300000000002,-11.613799999999999,135.56800000000001,-22.972999999999999,-16.913599999999999,-7.8439199999999998
165420.0,154.184,-10.2454,-12.632,136.14500000000001,-23.251000000000001,-7.9713500000000002,-7.6363599999999998
165421.0,154.518,-9.6306600000000007,-11.6747,137.898,-23.359500000000001,1.14951,-7.4052499999999997
165422.0,155.61799999999999,-9.4080300000000001,-12.2707,137.89599999999999,-23.111999999999998,10.3484,-7.4122300000000001
165423.0,157.197,-5.0133700000000001,-9.6947200000000002,140.55199999999999,-22.3947,19.322199999999999,-8.0337399999999999
165424.0,159.184,-1.34443,-8.6044800000000006,141.03299999999999,-21.0929,28.095099999999999,-9.6479800000000004
165425.0,160.41499999999999,8.5325100000000003,-1.8545199999999999,145.268,-19.297499999999999,36.232999999999997,-12.280900000000001
165426.0,161.08000000000001,17.0764,3.44672,145.72200000000001,-16.4329,44.383499999999998,-15.6867
165427.0,162.142,30.675899999999999,12.5547,148.66200000000001,-12.600899999999999,52.872199999999999,-18.620699999999999
165428.0,168.56399999999999,44.871499999999997,19.026700000000002,151.25200000000001,-9.2119099999999996,63.0931,-22.232199999999999
165429.0,177.22999999999999,68.365700000000004,33.770400000000002,162.696,-7.9939200000000001,72.569299999999998,-26.214700000000001
165430.0,185.02799999999999,79.132599999999996,35.604700000000001,157.41200000000001,-11.808999999999999,80.872699999999995,-30.366
165431.0,178.46700000000001,91.698700000000002,42.969200000000001,153.25299999999999,-20.950600000000001,80.040800000000004,-26.7774
165432.0,160.18600000000001,70.952200000000005,17.962,106.253,-37.298000000000002,70.249499999999998,-15.879300000000001
165433.0,148.12899999999999,0.22272,-54.476999999999997,24.625299999999999,-50.174500000000002,56.171700000000001,0.72633999999999999
165434.0,143.39099999999999,-50.074100000000001,-108.429,-29.754000000000001,-55.486800000000002,43.281300000000002,15.2834
165435.0,144.684,-46.159199999999998,-112.33799999999999,-34.834600000000002,-52.170200000000001,45.680799999999998,20.419
165436.0,146.738,25.959800000000001,-49.822800000000001,20.778300000000002,-44.427300000000002,55.861800000000002,17.047999999999998
165437.0,154.999,99.072699999999998,3.0464799999999999,59.038800000000002,-41.469799999999999,62.747999999999998,4.97227
165438.0,164.12899999999999,122.84399999999999,11.115,55.680100000000003,-39.073399999999999,65.316500000000005,-4.7998099999999999
165439.0,161.51900000000001,134.595,19.459,51.235500000000002,-39.596600000000002,59.4694,-7.4733799999999997
165440.0,153.00999999999999,124.59099999999999,11.582000000000001,36.896900000000002,-40.065100000000001,51.482500000000002,-5.5972400000000002
165441.0,142.57400000000001,120.142,10.1174,32.421700000000001,-39.888800000000003,42.4375,-0.83951399999999998
165442.0,141.08500000000001,5.9340700000000002,-10.878500000000001,116.248,-20.633500000000002,-37.150599999999997,-7.7622900000000001
165443.0,141.477,1.1084499999999999,-11.6271,119.709,-20.7864,-30.5656,-7.70845
165444.0,141.626,-2.1303399999999999,-11.507899999999999,123.01000000000001,-21.068999999999999,-23.307300000000001,-7.63565
165445.0,141.59100000000001,-4.9764400000000002,-11.9206,124.773,-21.351800000000001,-15.571300000000001,-7.5043199999999999
165446.0,141.51900000000001,-6.2298400000000003,-11.7484,126.239,-21.539999999999999,-7.5038799999999997,-7.2433399999999999
165447.0,141.92699999999999,-6.68438,-11.749700000000001,127.154,-21.420100000000001,0.74106899999999998,-7.0446200000000001
165448.0,143.07900000000001,-5.11348,-10.699999999999999,129.05099999999999,-20.795100000000001,9.0071999999999992,-7.0771800000000002
165449.0,145.52799999999999,-2.17509,-8.9461099999999991,131.90799999999999,-19.6647,17.229099999999999,-8.0738599999999998
165450.0,148.059,3.2898100000000001,-5.0314300000000003,135.85499999999999,-18.125499999999999,24.958100000000002,-10.345599999999999
165451.0,149.58199999999999,9.4830199999999998,-0.34526000000000001,137.762,-16.883099999999999,32.3842,-13.668699999999999
165452.0,148.93700000000001,18.568899999999999,6.0245199999999999,138.58799999999999,-15.6,38.683,-17.276199999999999
165453.0,147.374,35.386800000000001,18.464700000000001,143.80099999999999,-13.184200000000001,45.238700000000001,-19.862300000000001
165454.0,151.20699999999999,48.849499999999999,26.8673,146.86500000000001,-9.8715700000000002,54.603700000000003,-21.459800000000001
165455.0,160.57900000000001,64.489800000000002,36.210599999999999,152.13300000000001,-8.2524899999999999,65.430000000000007,-24.3475
165456.0,168.30600000000001,79.184100000000001,40.525799999999997,151.898,-11.2744,73.934100000000001,-25.5215
165457.0,160.45699999999999,86.120199999999997,38.199300000000001,137.779,-22.517399999999999,72.212699999999998,-19.499300000000002
165458.0,147.05199999999999,41.636299999999999,-13.507899999999999,68.989999999999995,-40.434399999999997,61.345199999999998,-6.6398900000000003
165459.0,142.35400000000001,-39.594099999999997,-95.750399999999999,-15.559200000000001,-53.435000000000002,45.633600000000001,11.113899999999999
165460.0,144.38,-59.9955,-115.14700000000001,-33.639699999999998,-59.046799999999998,31.379899999999999,27.337199999999999
165461.0,145.41300000000001,-61.523800000000001,-125.512,-45.014800000000001,-57.925800000000002,31.207799999999999,30.185300000000002
165462.0,142.673,-35.033799999999999,-110.39400000000001,-29.958600000000001,-48.240099999999998,44.016800000000003,22.168500000000002
165463.0,144.196,59.996699999999997,-29.1889,37.241599999999998,-41.1965,54.722799999999999,9.5725800000000003
165464.0,153.25999999999999,118.38500000000001,14.4123,60.8583,-39.912999999999997,59.288400000000003,-2.9241299999999999
165465.0,153.851,126.423,17.289100000000001,49.287199999999999,-38.659199999999998,56.448,-7.8627700000000003
165466.0,143.90700000000001,121.536,15.3109,39.584400000000002,-38.313600000000001,47.961500000000001,-6.0579099999999997
165467.0,133.29400000000001,112.52,8.9682099999999991,31.232299999999999,-37.578200000000002,39.212699999999998,-1.26624
165468.0,130.16,8.4847599999999996,-10.022600000000001,108.693,-18.816800000000001,-34.031300000000002,-7.4466999999999999
165469.0,130.43600000000001,4.6135900000000003,-10.104100000000001,112.34699999999999,-19.0901,-27.977599999999999,-7.3788600000000004
165470.0,130.43100000000001,1.4776,-10.2156,115.012,-19.367100000000001,-21.378599999999999,-7.3311700000000002
165471.0,130.233,-1.2660199999999999,-10.7453,116.32299999999999,-19.638000000000002,-14.3485,-7.17441
165472.0,130.04400000000001,-2.2578299999999998,-10.3438,117.806,-19.6891,-7.0883799999999999,-6.9796399999999998
165473.0,130.37899999999999,-2.9559500000000001,-10.485099999999999,118.559,-19.367999999999999,0.35599700000000001,-6.7209099999999999
165474.0,131.90700000000001,-0.85408099999999998,-8.4226200000000002,121.899,-18.380700000000001,7.8284200000000004,-7.0083500000000001
165475.0,135.08600000000001,1.48329,-6.7222099999999996,125.596,-16.9312,15.3438,-8.0063300000000002
165476.0,139.32300000000001,7.5002199999999997,-1.1952799999999999,132.416,-15.527799999999999,22.6584,-11.2768
165477.0,140.893,13.676399999999999,4.0918000000000001,135.26400000000001,-15.4002,28.5763,-14.7058
165478.0,137.76400000000001,21.5779,11.482100000000001,132.62299999999999,-18.485600000000002,33.945,-17.726900000000001
165479.0,134.55699999999999,22.198699999999999,10.8681,122.883,-20.910499999999999,38.466200000000001,-17.780100000000001
165480.0,132.84100000000001,40.712699999999998,23.326899999999998,130.857,-20.061299999999999,43.582299999999996,-15.7639
165481.0,141.25999999999999,58.376800000000003,30.333200000000001,137.19300000000001,-18.640999999999998,54.263300000000001,-17.0273
165482.0,148.33799999999999,83.391099999999994,43.891100000000002,150.422,-19.984400000000001,61.812600000000003,-14.6343
165483.0,143.98500000000001,77.076700000000002,26.3293,118.395,-31.016999999999999,61.2134,-8.6611799999999999
165484.0,139.38499999999999,0.89617800000000003,-58.859699999999997,24.5761,-44.090800000000002,51.6935,3.3128500000000001
165485.0,138.12799999999999,-55.984299999999998,-120.66,-34.080199999999998,-53.287100000000002,33.523899999999998,19.233799999999999
165486.0,144.03999999999999,-67.3202,-133.458,-43.789499999999997,-58.518799999999999,19.3279,30.925599999999999
165487.0,145.364,-75.046599999999998,-143.16999999999999,-53.2896,-58.524099999999997,18.683900000000001,32.720100000000002
165488.0,140.452,-52.627499999999998,-128.726,-39.971400000000003,-51.228700000000003,32.339799999999997,24.5063
165489.0,138.22399999999999,31.173400000000001,-54.5443,21.2057,-41.973999999999997,47.722799999999999,11.482699999999999
165490.0,142.79599999999999,108.428,12.4518,61.051400000000001,-39.822899999999997,53.865299999999998,-2.5560499999999999
165491.0,145.542,120.693,18.566700000000001,49.475900000000003,-38.009700000000002,52.871400000000001,-8.8238199999999996
165492.0,135.15299999999999,116.354,16.426300000000001,40.298299999999998,-36.4861,44.640900000000002,-6.4353899999999999
165493.0,124.02800000000001,105.679,8.2998399999999997,31.274699999999999,-35.552700000000002,35.649500000000003,-1.2988599999999999
165494.0,120.229,10.255800000000001,-9.4926899999999996,101.44799999999999,-17.140499999999999,-31.168399999999998,-7.1273600000000004
165495.0,120.321,7.0843400000000001,-9.2611399999999993,104.958,-17.422000000000001,-25.630500000000001,-7.0592800000000002
165496.0,120.31699999999999,3.2265199999999998,-10.3461,106.42700000000001,-17.683900000000001,-19.612100000000002,-7.0451800000000002
165497.0,119.85599999999999,2.2859699999999998,-9.2835900000000002,108.873,-17.953800000000001,-13.2653,-6.8980100000000002
165498.0,119.754,-0.65631300000000004,-10.8294,108.416,-17.881699999999999,-6.6711099999999997,-6.7934999999999999
165499.0,119.807,1.46248,-7.9830300000000003,111.842,-17.427900000000001,-0.088021600000000005,-6.5064200000000003
165500.0,122.06,-0.188361,-9.1712600000000002,112.654,-16.116399999999999,6.9200799999999996,-7.0248900000000001
165501.0,125.627,7.1461300000000003,-1.7796700000000001,122.529,-14.4191,13.5115,-7.9157900000000003
165502.0,132.36799999999999,6.8202100000000003,-2.1722100000000002,125.34699999999999,-13.2841,21.353200000000001,-11.954800000000001
165503.0,134.40100000000001,19.4071,9.4940899999999999,135.93199999999999,-14.8805,25.3353,-14.632099999999999
165504.0,127.98399999999999,12.9939,0.60727399999999998,112.38500000000001,-22.385999999999999,29.755299999999998,-17.8626
165505.0,123.79600000000001,-25.6386,-38.364600000000003,62.225299999999997,-29.478200000000001,31.697299999999998,-15.320600000000001
165506.0,120.429,-20.2913,-34.965200000000003,60.058399999999999,-33.819499999999998,31.853300000000001,-7.69489
165507.0,127.017,6.2436999999999996,-17.595400000000001,77.315600000000003,-35.195,40.9786,-4.6793899999999997
165508.0,133.55199999999999,29.475000000000001,-5.2028299999999996,91.021000000000001,-34.907499999999999,48.496200000000002,-0.24490300000000001
165509.0,134.941,19.3933,-32.142899999999997,55.6295,-41.169800000000002,49.160699999999999,3.5339499999999999
165510.0,135.64599999999999,-31.258099999999999,-98.674300000000002,-7.8960999999999997,-46.948799999999999,39.4831,12.176
165511.0,137.63399999999999,-43.633899999999997,-116.60899999999999,-24.459700000000002,-53.100999999999999,22.8629,24.6557
165512.0,143.83600000000001,-56.259999999999998,-127.887,-35.625,-57.628500000000003,12.348100000000001,32.832299999999996
165513.0,143.10300000000001,-67.2346,-137.726,-43.155200000000001,-56.365000000000002,11.4161,33.218400000000003
165514.0,134.32900000000001,-52.129399999999997,-126.983,-36.282699999999998,-50.138199999999998,24.454599999999999,23.581600000000002
165515.0,130.483,17.886099999999999,-62.488500000000002,14.566800000000001,-41.360500000000002,42.610199999999999,8.9936699999999998
165516.0,133.452,101.11,12.5326,60.598599999999998,-38.358800000000002,49.789400000000001,-4.4553000000000003
165517.0,136.648,119.04600000000001,24.306899999999999,53.017899999999997,-36.729799999999997,49.127299999999998,-10.0852
165518.0,126.202,107.494,14.6753,37.144199999999998,-34.768599999999999,41.360999999999997,-6.67258
165519.0,114.63200000000001,95.813999999999993,5.2406300000000003,27.48,-33.156300000000002,32.438299999999998,-0.81523199999999996
165520.0,111.134,12.106199999999999,-8.6391600000000004,95.099000000000004,-15.556699999999999,-28.552600000000002,-6.8098799999999997
165521.0,111.17700000000001,10.0871,-7.5961999999999996,99.097300000000004,-15.906700000000001,-23.4785,-6.7844899999999999
165522.0,111.114,6.0721299999999996,-9.1042699999999996,99.874399999999994,-16.168500000000002,-17.996099999999998,-6.7731399999999997
165523.0,110.58499999999999,5.2412400000000003,-8.1052499999999998,102.005,-16.425899999999999,-12.27,-6.7101899999999999
165524.0,110.38500000000001,2.64662,-9.3011599999999994,101.70399999999999,-16.279900000000001,-6.3079700000000001,-6.6265700000000001
165525.0,110.455,4.1439199999999996,-6.8458699999999997,104.682,-15.7111,-0.459731,-6.4714999999999998
165526.0,112.962,3.4103300000000001,-6.6320199999999998,107.145,-14.172000000000001,6.0339,-6.9604699999999999
165527.0,117.468,9.0709599999999995,-0.190052,116.91,-12.319599999999999,12.090199999999999,-7.9819000000000004
165528.0,125.81399999999999,10.9064,1.6268199999999999,123.461,-11.3611,20.209499999999998,-11.797800000000001
165529.0,128.86799999999999,22.488099999999999,11.432399999999999,133.56800000000001,-14.5984,23.7684,-13.9483
165530.0,121.575,20.5168,0.58332399999999995,108.514,-26.627199999999998,25.6738,-16.1356
165531.0,119.17,-43.134900000000002,-72.549999999999997,24.993600000000001,-38.948099999999997,23.546399999999998,-12.6043
165532.0,118.962,-79.689800000000005,-112.75,-18.404299999999999,-45.656599999999997,18.361699999999999,-1.98854
165533.0,122.652,-63.959400000000002,-102.651,-9.2534299999999998,-47.4893,23.283200000000001,3.87121
165534.0,127.77800000000001,-45.951799999999999,-93.733199999999997,2.7146300000000001,-46.0548,30.642099999999999,7.5388799999999998
165535.0,132.749,-36.948399999999999,-100.01300000000001,-4.6388400000000001,-47.811,33.281500000000001,11.2981
165536.0,136.10300000000001,-31.098500000000001,-105.251,-7.51851,-49.898699999999998,26.7728,19.1556
165537.0,137.601,-28.961099999999998,-107.077,-12.416399999999999,-53.049999999999997,15.190099999999999,26.650200000000002
165538.0,137.63,-54.857999999999997,-131.03999999999999,-36.290500000000002,-53.226199999999999,7.0309100000000004,30.175999999999998
165539.0,132.56200000000001,-67.423000000000002,-139.41900000000001,-46.198099999999997,-50.908000000000001,7.0251400000000004,28.796500000000002
165540.0,122.65900000000001,-53.088700000000003,-125.31999999999999,-37.474899999999998,-45.081600000000002,21.563300000000002,17.9282
165541.0,119.42700000000001,24.442299999999999,-50.633699999999997,22.992100000000001,-37.649000000000001,38.552199999999999,2.7149200000000002
165542.0,125.56999999999999,100.524,17.377800000000001,60.463500000000003,-36.149000000000001,46.335099999999997,-8.5524299999999993
165543.0,127.88500000000001,113.842,27.150500000000001,52.629100000000001,-34.391500000000001,46.378300000000003,-11.513299999999999
165544.0,116.324,101.309,15.547499999999999,36.042999999999999,-32.5488,37.302300000000002,-7.3330799999999998
165545.0,105.586,85.813599999999994,0.28457199999999999,23.783200000000001,-30.222899999999999,29.110499999999998,-1.66743
165546.0,102.81,14.0366,-7.5059300000000002,89.553200000000004,-14.1555,-26.124400000000001,-6.5206200000000001
165547.0,102.878,11.025,-7.7759099999999997,92.033799999999999,-14.521000000000001,-21.489599999999999,-6.50481
165548.0,102.762,8.2565600000000003,-8.3100299999999994,93.507499999999993,-14.8169,-16.5166,-6.5469499999999998
165549.0,102.26000000000001,6.8068499999999998,-8.0946700000000007,94.734899999999996,-15.058400000000001,-11.325900000000001,-6.54209
165550.0,101.946,5.0529299999999999,-8.4649199999999993,95.001999999999995,-14.9099,-6.0046799999999996,-6.54434
165551.0,102.116,5.7195,-6.6342100000000004,97.392200000000003,-14.271000000000001,-0.72613499999999997,-6.4831099999999999
165552.0,104.643,5.57165,-5.3055500000000002,100.917,-12.638,5.1345499999999999,-6.9733999999999998
165553.0,110.06100000000001,10.568899999999999,1.0182899999999999,111.39,-10.666600000000001,11.025600000000001,-7.9255699999999996
165554.0,119.3,13.214499999999999,3.89602,119.95699999999999,-9.7360699999999998,19.124400000000001,-11.185700000000001
165555.0,123.29300000000001,22.821999999999999,9.4526900000000005,127.551,-13.885999999999999,23.011199999999999,-12.742599999999999
165556.0,116.703,19.4941,-6.8780299999999999,98.065799999999996,-28.957100000000001,23.462599999999998,-13.058400000000001
165557.0,120.271,-40.294400000000003,-83.381399999999999,11.940799999999999,-46.5655,17.567499999999999,-8.1341400000000004
165558.0,130.99600000000001,-82.963700000000003,-138.678,-40.287399999999998,-56.8934,6.1490999999999998,3.31412
165559.0,137.547,-76.326099999999997,-140.625,-39.309699999999999,-59.6404,5.3298399999999999,9.6336399999999998
165560.0,139.18899999999999,-63.811100000000003,-134.00399999999999,-27.849799999999998,-56.975000000000001,11.930199999999999,12.431800000000001
165561.0,139.00399999999999,-50.544199999999996,-127.128,-21.916499999999999,-54.089399999999998,17.162400000000002,16.170999999999999
165562.0,135.75899999999999,-39.963999999999999,-118.42,-18.1831,-51.625500000000002,15.661099999999999,21.2943
165563.0,133.297,-43.204900000000002,-121.952,-27.164100000000001,-51.085700000000003,9.7097899999999999,25.392700000000001
165564.0,130.756,-46.592399999999998,-122.887,-28.197600000000001,-49.092100000000002,3.3725299999999998,27.508400000000002
165565.0,121.748,-55.618499999999997,-129.05500000000001,-38.2791,-45.667999999999999,5.1577599999999997,22.503900000000002
165566.0,110.57299999999999,-32.327199999999998,-102.786,-17.310199999999998,-38.246299999999998,20.943000000000001,9.5606899999999992
165567.0,109.268,59.166499999999999,-10.5015,54.446399999999997,-33.634700000000002,36.333799999999997,-3.5615999999999999
165568.0,119.218,110.374,33.658799999999999,67.765799999999999,-33.707099999999997,44.442599999999999,-12.207100000000001
165569.0,118.95,105.35599999999999,26.647400000000001,47.819299999999998,-31.334299999999999,43.716700000000003,-12.824299999999999
165570.0,106.56999999999999,99.838099999999997,20.323799999999999,39.7866,-29.706600000000002,33.662700000000001,-7.2200899999999999
165571.0,97.157600000000002,85.008499999999998,4.3810599999999997,29.4983,-27.719000000000001,25.970099999999999,-1.25224
165572.0,95.207899999999995,15.962899999999999,-6.2491399999999997,84.676500000000004,-12.9153,-23.849299999999999,-6.2333499999999997
165573.0,95.350700000000003,13.2889,-6.5451100000000002,86.966300000000004,-13.3346,-19.6494,-6.2443099999999996
165574.0,95.249899999999997,10.5845,-7.2850099999999998,88.061400000000006,-13.654500000000001,-15.1212,-6.3450699999999998
165575.0,94.764600000000002,9.3417899999999996,-7.0478800000000001,89.166200000000003,-13.9148,-10.4558,-6.3941499999999998
165576.0,94.476900000000001,7.3610699999999998,-7.6639699999999999,89.085300000000004,-13.771699999999999,-5.6772799999999997,-6.5242100000000001
165577.0,94.569100000000006,8.3325999999999993,-5.3789800000000003,91.773600000000002,-13.148,-0.99301300000000003,-6.5119699999999998
165578.0,97.233099999999993,7.4237599999999997,-4.3225199999999999,95.064400000000006,-11.4991,4.3948099999999997,-7.1025600000000004
165579.0,102.76900000000001,12.612500000000001,2.6960000000000002,106.376,-9.4525699999999997,9.9402600000000003,-7.6852999999999998
165580.0,112.96299999999999,14.532400000000001,5.06006,115.33499999999999,-8.4402399999999993,18.340900000000001,-10.5207
165581.0,117.22,27.968699999999998,12.994199999999999,126.61499999999999,-12.5739,22.2761,-10.7262
165582.0,111.465,26.852399999999999,-6.3998499999999998,95.836799999999997,-28.270900000000001,22.8673,-9.9935799999999997
165583.0,119.166,-39.981200000000001,-93.892200000000003,0.78545500000000001,-47.302900000000001,14.786799999999999,-4.6849800000000004
165584.0,135.62700000000001,-83.5749,-149.88499999999999,-52.6693,-60.1997,-0.73962399999999995,6.3080400000000001
165585.0,146.49000000000001,-72.224100000000007,-146.166,-45.693600000000004,-65.322599999999994,-4.6333000000000002,12.3947
165586.0,146.74199999999999,-59.765799999999999,-137.327,-30.711500000000001,-62.576900000000002,0.33557500000000001,14.966900000000001
165587.0,141.30699999999999,-46.753300000000003,-127.337,-21.159500000000001,-57.113,5.4420500000000001,17.144400000000001
165588.0,134.54400000000001,-41.544600000000003,-124.047,-21.682300000000001,-51.6693,6.3579999999999997,19.4237
165589.0,129.26599999999999,-43.788800000000002,-126.642,-28.1647,-47.816899999999997,3.4939800000000001,21.683199999999999
165590.0,122.0,-50.976700000000001,-128.036,-34.627299999999998,-44.640700000000002,0.43294500000000002,21.9069
165591.0,109.72199999999999,-52.274700000000003,-122.556,-36.378,-40.351900000000001,6.4961399999999996,15.4719
165592.0,99.304500000000004,1.5634300000000001,-61.467500000000001,15.2744,-32.875100000000003,22.789899999999999,3.4561099999999998
165593.0,101.111,81.813999999999993,20.152200000000001,69.542699999999996,-30.129000000000001,36.906799999999997,-8.5182900000000004
165594.0,112.907,107.01000000000001,38.593000000000004,62.164099999999998,-29.884699999999999,43.847799999999999,-15.0229
165595.0,109.83799999999999,101.56399999999999,29.6892,46.248399999999997,-28.026900000000001,40.603700000000003,-13.063499999999999
165596.0,97.302199999999999,94.935900000000004,21.3049,39.441800000000001,-26.302199999999999,30.8507,-6.3767100000000001
165597.0,88.475099999999998,81.619299999999996,6.7698499999999999,30.973600000000001,-24.850200000000001,23.0778,-0.53573099999999996
165598.0,88.311300000000003,16.942900000000002,-5.8539399999999997,79.485200000000006,-11.805999999999999,-21.745699999999999,-5.9191900000000004
165599.0,88.453900000000004,14.2102,-6.5735799999999998,81.140199999999993,-12.263400000000001,-17.9146,-5.9851000000000001
165600.0,88.481399999999994,11.803800000000001,-7.27799,82.221299999999999,-12.6106,-13.8164,-6.13096
165601.0,88.002600000000001,10.9536,-6.8770800000000003,83.343599999999995,-12.9046,-9.6303400000000003,-6.2620899999999997
165602.0,87.840400000000002,8.5720899999999993,-7.9393599999999998,82.828299999999999,-12.794600000000001,-5.3272599999999999,-6.5068200000000003
165603.0,87.803600000000003,10.130100000000001,-5.0043300000000004,85.942800000000005,-12.2525,-1.2316400000000001,-6.5964799999999997
165604.0,90.539299999999997,7.9528400000000001,-4.83047,88.348500000000001,-10.682,3.7896200000000002,-7.2423900000000003
165605.0,95.638199999999998,14.629899999999999,4.22173,101.289,-8.6320399999999999,8.79575,-7.54969
165606.0,106.298,14.2079,4.5435699999999999,108.629,-7.3544700000000001,17.676200000000001,-9.6344100000000008
165607.0,110.77200000000001,28.724900000000002,13.132,121.68000000000001,-10.331099999999999,21.460100000000001,-8.8560800000000004
165608.0,104.667,23.170200000000001,-12.635899999999999,85.173199999999994,-24.5486,23.342400000000001,-7.44102
165609.0,113.312,-44.785299999999999,-104.63500000000001,-10.674300000000001,-42.2044,15.1562,-2.5701200000000002
165610.0,131.37,-75.850899999999996,-152.88,-53.940100000000001,-54.831499999999998,-3.5659999999999998,5.7450299999999999
165611.0,143.791,-66.776700000000005,-151.85599999999999,-50.706299999999999,-61.298000000000002,-10.0009,8.9307099999999995
165612.0,143.57599999999999,-66.550899999999999,-150.57900000000001,-44.715600000000002,-59.7592,-7.5011599999999996,10.949400000000001
165613.0,138.464,-52.838900000000002,-137.01599999999999,-31.607900000000001,-55.5762,-3.3526500000000001,13.524800000000001
165614.0,131.62100000000001,-47.986699999999999,-131.703,-29.053899999999999,-50.406300000000002,-0.482072,15.8011
165615.0,124.11199999999999,-43.028799999999997,-124.59099999999999,-26.567799999999998,-45.241500000000002,-0.63010100000000002,18.223500000000001
165616.0,113.849,-47.613799999999998,-123.185,-33.082799999999999,-41.524500000000003,-0.059095099999999998,16.0045
165617.0,97.398300000000006,-40.427599999999998,-105.113,-25.4071,-35.008400000000002,9.0725800000000003,7.7728900000000003
165618.0,87.739699999999999,18.5718,-34.723100000000002,28.278300000000002,-27.7285,25.2134,-3.2972000000000001
165619.0,95.696700000000007,92.0137,37.861499999999999,72.731499999999997,-26.4695,37.824800000000003,-12.957800000000001
165620.0,106.38800000000001,109.006,47.0259,63.613700000000001,-26.038399999999999,42.556600000000003,-15.9429
165621.0,100.536,98.645899999999997,32.055900000000001,45.932600000000001,-24.7135,37.196899999999999,-11.8553
165622.0,88.786299999999997,88.854699999999994,19.251000000000001,37.929000000000002,-23.0639,27.6938,-5.5635000000000003
165623.0,81.130499999999998,76.054000000000002,4.7275499999999999,30.669599999999999,-22.050000000000001,20.097899999999999,-0.74538599999999999
165624.0,81.9876,18.095199999999998,-5.3058300000000003,74.898499999999999,-10.8445,-19.753599999999999,-5.6288999999999998
165625.0,82.240300000000005,16.711200000000002,-5.0221799999999996,77.471100000000007,-11.3353,-16.287199999999999,-5.7028600000000003
165626.0,82.353399999999993,13.504,-6.8364700000000003,77.364099999999993,-11.713100000000001,-12.58,-5.9140899999999998
165627.0,82.002499999999998,13.411,-5.8676000000000004,79.041499999999999,-12.017899999999999,-8.8314199999999996,-6.1333200000000003
165628.0,81.897599999999997,10.523300000000001,-7.56121,77.8489,-11.9742,-4.9820000000000002,-6.4621700000000004
165629.0,81.892499999999998,12.3477,-4.2891000000000004,81.224400000000003,-11.5092,-1.37134,-6.7496700000000001
165630.0,84.347399999999993,9.7105399999999999,-4.3629800000000003,83.097800000000007,-10.0947,3.18011,-7.3453400000000002
165631.0,88.999700000000004,15.4544,4.3643900000000002,95.1768,-8.1013000000000002,7.8171799999999996,-7.7021100000000002
165632.0,98.802800000000005,15.404,5.6782899999999996,102.863,-6.3746400000000003,16.506699999999999,-8.7273499999999995
165633.0,103.92100000000001,31.802299999999999,17.174499999999998,119.09399999999999,-7.91587,21.1145,-7.3804600000000002
165634.0,97.715699999999998,32.7943,-1.3948199999999999,92.5334,-17.614000000000001,23.917100000000001,-6.3620400000000004
165635.0,100.108,-36.701300000000003,-93.176699999999997,-3.5297200000000002,-30.953600000000002,17.8276,-3.1950099999999999
165636.0,112.843,-76.298500000000004,-146.148,-54.300600000000003,-43.952199999999998,1.35914,3.3294899999999998
165637.0,128.315,-63.745100000000001,-143.52000000000001,-48.939300000000003,-53.031599999999997,-7.7023000000000001,5.3349599999999997
165638.0,133.91399999999999,-58.462299999999999,-142.001,-41.338999999999999,-54.309699999999999,-9.57559,5.9703999999999997
165639.0,132.077,-48.167400000000001,-132.506,-30.3581,-51.841900000000003,-8.0775699999999997,9.1978399999999993
165640.0,124.48999999999999,-48.252899999999997,-130.38999999999999,-31.520800000000001,-47.2682,-4.3633899999999999,10.600099999999999
165641.0,112.631,-42.061599999999999,-118.20399999999999,-24.205300000000001,-40.058999999999997,-1.8721000000000001,11.325200000000001
165642.0,98.449600000000004,-48.737000000000002,-117.22,-36.9895,-35.941099999999999,2.08345,7.5613299999999999
165643.0,84.333799999999997,-36.553899999999999,-92.330699999999993,-24.6721,-29.723500000000001,13.4877,-0.58162599999999998
165644.0,80.520099999999999,34.122500000000002,-11.117699999999999,40.3583,-23.672699999999999,26.928599999999999,-9.2946299999999997
165645.0,91.000900000000001,94.352099999999993,45.922499999999999,69.872500000000002,-23.565200000000001,37.277700000000003,-15.1348
165646.0,98.877600000000001,97.571700000000007,41.214799999999997,53.438000000000002,-22.2972,40.841200000000001,-14.658799999999999
165647.0,91.140900000000002,94.198800000000006,31.396799999999999,44.975999999999999,-21.557300000000001,33.486800000000002,-9.5344300000000004
165648.0,81.460800000000006,81.520899999999997,14.8522,35.465200000000003,-20.465199999999999,24.769300000000001,-3.8062999999999998
165649.0,75.415099999999995,73.448400000000007,4.9410800000000004,33.592599999999997,-19.835599999999999,17.847799999999999,0.21340400000000001
165650.0,76.066000000000003,20.296600000000002,-3.6376200000000001,71.750900000000001,-9.9526400000000006,-17.8216,-5.2956599999999998
165651.0,76.647599999999997,15.861599999999999,-6.7314499999999997,71.059200000000004,-10.4259,-14.803699999999999,-5.3849499999999999
165652.0,76.705200000000005,15.751099999999999,-5.7823500000000001,73.516999999999996,-10.8522,-11.3963,-5.6647100000000004
165653.0,76.678200000000004,13.3416,-7.2913800000000002,72.925399999999996,-11.1347,-8.0639299999999992,-5.9771799999999997
165654.0,76.500500000000002,12.8529,-6.7908600000000003,73.745400000000004,-11.180099999999999,-4.6487800000000004,-6.3921200000000002
165655.0,76.775300000000001,12.2765,-5.86524,74.967699999999994,-10.7818,-1.38435,-6.9117699999999997
165656.0,78.619900000000001,11.959899999999999,-3.5299,78.630399999999995,-9.5868500000000001,2.5262099999999998,-7.4970800000000004
165657.0,82.996399999999994,14.9528,2.99004,88.060000000000002,-7.7237499999999999,7.0922200000000002,-8.0872299999999999
165658.0,90.816999999999993,17.226299999999998,7.8653899999999997,97.629199999999997,-5.5455399999999999,14.673500000000001,-8.2588500000000007
165659.0,96.177899999999994,26.449000000000002,14.714,107.702,-5.2342399999999998,21.003900000000002,-7.09964
165660.0,92.428899999999999,30.9313,4.2939400000000001,93.699100000000001,-9.8305500000000006,24.673400000000001,-5.9310999999999998
165661.0,88.174300000000002,6.0389400000000002,-41.834200000000003,43.636499999999998,-16.646899999999999,21.109999999999999,-5.8057499999999997
165662.0,89.391099999999994,-37.840699999999998,-100.283,-14.5434,-24.1494,9.6514299999999995,-4.6606800000000002
165663.0,99.683199999999999,-48.707500000000003,-120.384,-34.756700000000002,-34.566800000000001,0.101012,-2.5827800000000001
165664.0,112.95,-58.977600000000002,-135.80000000000001,-45.386099999999999,-43.052399999999999,-4.6416000000000004,-0.81671099999999996
165665.0,118.529,-52.162300000000002,-131.82300000000001,-35.846499999999999,-44.210900000000002,-8.9405099999999997,3.3548200000000001
165666.0,113.557,-54.371899999999997,-134.07900000000001,-42.543700000000001,-42.204900000000002,-5.0845200000000004,3.55911
165667.0,100.41,-36.783900000000003,-105.14,-14.818899999999999,-33.742100000000001,-0.32079200000000002,1.81104
165668.0,83.769599999999997,-6.24613,-67.851299999999995,2.1857199999999999,-29.2225,3.8407,-2.9148200000000002
165669.0,76.406199999999998,-6.5787100000000001,-56.252800000000001,-1.9271799999999999,-25.157399999999999,17.8917,-9.2857699999999994
165670.0,75.462000000000003,47.332700000000003,10.5786,52.037599999999998,-20.802800000000001,28.183800000000002,-12.481199999999999
165671.0,84.282200000000003,101.203,55.581000000000003,74.045599999999993,-21.518699999999999,34.369199999999999,-14.0322
165672.0,90.597300000000004,95.293099999999995,39.9146,55.909700000000001,-19.526,37.3782,-12.0533
165673.0,82.215800000000002,90.343299999999999,28.8705,46.655900000000003,-19.1494,28.946100000000001,-6.9237099999999998
165674.0,75.458100000000002,71.678700000000006,6.27257,30.520199999999999,-18.017299999999999,21.755500000000001,-2.5934599999999999
165675.0,70.627499999999998,65.634100000000004,-0.59806999999999999,30.5852,-17.801100000000002,15.738200000000001,0.50795100000000004
165676.0,70.770700000000005,22.093399999999999,-2.4481099999999998,68.642499999999998,-9.1806400000000004,-16.042000000000002,-4.9027599999999998
165677.0,71.534999999999997,17.82,-5.7109399999999999,67.784899999999993,-9.6145800000000001,-13.3773,-5.0716900000000003
165678.0,71.681700000000006,17.943100000000001,-4.8145100000000003,70.138599999999997,-10.055199999999999,-10.292,-5.3866399999999999
165679.0,71.877200000000002,15.2117,-6.7959800000000001,69.192899999999995,-10.304500000000001,-7.3237399999999999,-5.7896400000000003
165680.0,71.775300000000001,15.3523,-5.8136200000000002,70.461200000000005,-10.399100000000001,-4.3115800000000002,-6.32714
165681.0,72.207400000000007,13.860200000000001,-5.75908,70.900599999999997,-10.0436,-1.3572900000000001,-7.0271999999999997
165682.0,73.640100000000004,14.465299999999999,-2.3870800000000001,75.099500000000006,-9.0533800000000006,1.97343,-7.8090700000000002
165683.0,77.404399999999995,14.8241,1.9897,81.650199999999998,-7.3102999999999998,6.3736800000000002,-8.5852599999999999
165684.0,83.306799999999996,19.037700000000001,10.276,92.7256,-4.9917800000000003,12.767099999999999,-8.6404099999999993
165685.0,88.514399999999995,27.6007,19.686699999999998,103.401,-3.2704,20.030799999999999,-7.9770899999999996
165686.0,87.972499999999997,39.6462,25.513000000000002,106.607,-3.8583599999999998,25.404199999999999,-6.5429700000000004
165687.0,82.653899999999993,46.817300000000003,19.3062,96.644800000000004,-7.31738,25.293399999999998,-6.8636400000000002
165688.0,79.036600000000007,46.112900000000003,2.91439,80.594300000000004,-12.4253,18.5045,-8.4011499999999995
165689.0,79.531099999999995,24.278600000000001,-32.2712,41.790500000000002,-20.3172,10.9916,-8.7471599999999992
165690.0,87.333100000000002,-41.156399999999998,-103.667,-28.180800000000001,-28.677800000000001,6.1017299999999999,-7.3263100000000003
165691.0,93.968299999999999,-47.311100000000003,-111.148,-30.052199999999999,-33.210799999999999,-2.9874399999999999,-2.5567000000000002
165692.0,94.936999999999998,-51.396500000000003,-119.22799999999999,-42.842799999999997,-35.285699999999999,-0.15027299999999999,-2.7831100000000002
165693.0,88.3797,-19.761199999999999,-74.626400000000004,6.4930700000000003,-28.853200000000001,5.1642999999999999,-5.5831900000000001
165694.0,73.606300000000005,46.4895,-1.9069700000000001,55.359200000000001,-26.727,7.8506,-8.9413400000000003
165695.0,72.122399999999999,22.398,-18.508700000000001,21.0807,-23.624300000000002,21.385400000000001,-13.3429
165696.0,69.894800000000004,53.769599999999997,21.334099999999999,56.608699999999999,-18.588899999999999,27.210999999999999,-12.5847
165697.0,76.0916,91.9131,46.102899999999998,65.624399999999994,-20.142800000000001,29.916499999999999,-10.039400000000001
165698.0,81.831599999999995,70.087999999999994,16.2898,38.335500000000003,-18.095400000000001,33.389699999999998,-7.6420300000000001
165699.0,74.622399999999999,82.587100000000007,21.387899999999998,45.203000000000003,-16.994399999999999,24.548100000000002,-3.6152600000000001
165700.0,71.6374,65.021500000000003,-0.32539499999999999,28.8414,-16.5228,19.077100000000002,-1.4315899999999999
165701.0,66.741500000000002,59.838299999999997,-4.4139400000000002,29.878599999999999,-16.210100000000001,13.7255,0.061566799999999998
165702.0,65.963800000000006,21.995699999999999,-3.0287500000000001,64.116200000000006,-8.3574800000000007,-14.463100000000001,-4.46225
165703.0,66.745000000000005,18.3277,-5.9653799999999997,63.465499999999999,-8.7787699999999997,-12.0167,-4.70383
165704.0,67.136200000000002,18.3996,-5.37296,65.629099999999994,-9.1793700000000005,-9.29087,-5.0661500000000004
165705.0,67.450100000000006,16.2532,-6.9218799999999998,65.135300000000001,-9.4087300000000003,-6.6254600000000003,-5.5636200000000002
165706.0,67.581900000000005,16.042100000000001,-6.3997099999999998,66.100700000000003,-9.4975199999999997,-3.9628100000000002,-6.2367400000000002
165707.0,68.088499999999996,15.1486,-5.7171500000000002,67.143000000000001,-9.1976399999999998,-1.3288,-7.1474000000000002
165708.0,69.387500000000003,15.163399999999999,-2.8332000000000002,70.587199999999996,-8.3812899999999999,1.60016,-8.2277400000000007
165709.0,72.375500000000002,16.608799999999999,3.1385399999999999,77.756299999999996,-6.8575400000000002,5.5789900000000001,-9.3026300000000006
165710.0,76.847399999999993,18.5867,10.617800000000001,86.240899999999996,-4.6409399999999996,11.1464,-9.8058999999999994
165711.0,81.750799999999998,23.2224,19.7182,94.745800000000003,-2.1105,18.360199999999999,-9.6613600000000002
165712.0,84.008399999999995,28.7514,27.138400000000001,98.139499999999998,-0.087767499999999998,25.1403,-8.7946799999999996
165713.0,82.515600000000006,43.945,41.505499999999998,105.443,-0.52282499999999998,29.7697,-8.3920600000000007
165714.0,76.470399999999998,58.554000000000002,50.182400000000001,109.45699999999999,-4.0324099999999996,28.735900000000001,-8.8378099999999993
165715.0,68.911500000000004,57.601500000000001,32.146500000000003,88.242000000000004,-9.8434100000000004,23.9664,-11.0785
165716.0,69.969700000000003,5.3317199999999998,-36.945399999999999,22.881,-13.9183,18.124300000000002,-12.804399999999999
165717.0,69.676500000000004,-23.841999999999999,-72.222899999999996,-8.6400799999999993,-17.842600000000001,8.2713800000000006,-11.360799999999999
165718.0,72.926400000000001,-41.920499999999997,-92.843000000000004,-34.274000000000001,-22.991599999999998,9.4193700000000007,-11.906499999999999
165719.0,72.763599999999997,-21.011199999999999,-58.258400000000002,2.1624500000000002,-22.4757,13.3484,-12.3424
165720.0,66.294600000000003,51.093899999999998,17.154499999999999,59.690100000000001,-24.316400000000002,14.5945,-12.4444
165721.0,67.4114,57.8324,21.9407,57.211199999999998,-22.065000000000001,19.7974,-14.6241
165722.0,64.160499999999999,63.629800000000003,24.544,62.564399999999999,-18.714500000000001,20.715800000000002,-9.8530700000000007
165723.0,71.087900000000005,66.811199999999999,14.698499999999999,47.338900000000002,-19.700900000000001,23.864899999999999,-5.7836299999999996
165724.0,73.732900000000001,63.584099999999999,6.6918300000000004,42.603099999999998,-16.605699999999999,25.988199999999999,-5.7696800000000001
165725.0,70.399100000000004,75.233599999999996,11.5625,43.217500000000001,-15.5021,19.807400000000001,-2.4190299999999998
165726.0,68.395200000000003,54.006700000000002,-10.095499999999999,22.763400000000001,-15.3209,17.163699999999999,-1.57694
165727.0,63.287700000000001,60.021299999999997,-2.2752400000000002,34.262799999999999,-14.690799999999999,11.7834,-0.73613099999999998
165728.0,61.6036,23.536899999999999,-2.1553900000000001,61.423900000000003,-7.6498100000000004,-12.9321,-4.0337699999999996
165729.0,62.522799999999997,20.955200000000001,-4.2928800000000003,61.569899999999997,-8.0454899999999991,-10.745900000000001,-4.3214100000000002
165730.0,63.063299999999998,20.441600000000001,-4.4223499999999998,63.030000000000001,-8.3637499999999996,-8.3392900000000001,-4.7466799999999996
165731.0,63.559800000000003,18.491599999999998,-5.8666900000000002,62.729999999999997,-8.5520399999999999,-5.9838699999999996,-5.3257500000000002
165732.0,63.866799999999998,18.515599999999999,-5.0561999999999996,64.068899999999999,-8.5856700000000004,-3.6338400000000002,-6.1565099999999999
165733.0,64.515699999999995,16.9864,-4.8688399999999996,64.648499999999999,-8.2935099999999995,-1.3023800000000001,-7.2993199999999998
165734.0,65.721000000000004,17.790500000000002,-0.93222300000000002,68.837500000000006,-7.5742399999999996,1.3108500000000001,-8.7541600000000006
165735.0,68.145499999999998,16.8673,3.0990899999999999,73.203999999999994,-6.28139,4.8386899999999997,-10.2658
165736.0,71.644300000000001,20.9849,13.473599999999999,83.244100000000003,-4.44407,9.7072800000000008,-11.4117
165737.0,75.985100000000003,26.192799999999998,25.381499999999999,93.200900000000004,-2.1841300000000001,16.290099999999999,-11.807
165738.0,79.596299999999999,38.575800000000001,43.415300000000002,106.60599999999999,0.42639500000000002,23.250599999999999,-11.415900000000001
165739.0,82.371200000000002,42.798699999999997,50.566600000000001,106.788,2.7923200000000001,30.059100000000001,-11.4459
165740.0,81.000200000000007,49.565600000000003,56.696300000000001,105.572,2.8939900000000001,33.269799999999996,-11.930999999999999
165741.0,74.185100000000006,59.419499999999999,56.203099999999999,100.256,-1.27119,32.826000000000001,-12.337400000000001
165742.0,68.212800000000001,62.288800000000002,42.376300000000001,89.784099999999995,-5.9608400000000001,27.7836,-13.299200000000001
165743.0,64.917699999999996,59.563000000000002,26.0822,76.498000000000005,-10.382300000000001,20.212299999999999,-15.1721
165744.0,68.208399999999997,29.505400000000002,-8.0052599999999998,39.664000000000001,-14.479799999999999,19.582799999999999,-18.088899999999999
165745.0,67.847399999999993,28.445900000000002,-1.4034500000000001,44.004600000000003,-16.600300000000001,18.859400000000001,-19.2532
165746.0,64.758099999999999,40.608800000000002,6.9546099999999997,44.792000000000002,-21.421399999999998,16.978999999999999,-14.846299999999999
165747.0,64.700299999999999,51.080599999999997,11.998699999999999,54.364899999999999,-23.908200000000001,13.9536,-8.5767900000000008
165748.0,65.745500000000007,41.959699999999998,-5.82158,43.020600000000002,-22.688500000000001,11.7174,-3.2354799999999999
165749.0,69.845200000000006,14.4163,-42.324199999999998,6.0356100000000001,-19.845400000000001,17.065899999999999,-1.72248
165750.0,69.746799999999993,41.255200000000002,-17.259599999999999,28.9437,-16.515699999999999,19.858000000000001,-1.6476999999999999
165751.0,68.5655,63.797899999999998,-0.51604799999999995,37.865900000000003,-15.2576,16.854800000000001,-1.7918400000000001
165752.0,65.494600000000005,58.083500000000001,-5.06752,31.5261,-14.182600000000001,14.6883,-2.7478500000000001
165753.0,60.7134,61.890799999999999,1.3513200000000001,38.770200000000003,-13.816700000000001,10.127800000000001,-1.3922699999999999
165754.0,57.6036,23.155200000000001,-2.9940099999999998,57.233400000000003,-6.9010800000000003,-11.5732,-3.5240499999999999
165755.0,58.544699999999999,20.893599999999999,-5.0595800000000004,57.363799999999998,-7.2234400000000001,-9.5706600000000002,-3.9155899999999999
165756.0,59.345599999999997,20.513500000000001,-5.1459799999999998,59.014600000000002,-7.4654699999999998,-7.4972200000000004,-4.3747199999999999
165757.0,59.957299999999996,19.188700000000001,-6.0547500000000003,59.285200000000003,-7.5918299999999999,-5.3943099999999999,-5.08399
165758.0,60.575099999999999,18.7133,-5.6601900000000001,60.452599999999997,-7.5676100000000002,-3.3232699999999999,-6.0780599999999998
165759.0,61.3902,18.428899999999999,-4.0963099999999999,62.421999999999997,-7.3047599999999999,-1.2297100000000001,-7.5368399999999998
165760.0,62.738399999999999,18.240100000000002,-0.88413600000000003,65.730199999999996,-6.7483700000000004,1.16001,-9.4198500000000003
165761.0,64.797700000000006,19.9937,6.1202899999999998,72.218999999999994,-5.8797699999999997,4.2893299999999996,-11.4795
165762.0,67.601200000000006,20.494,13.5083,78.024699999999996,-4.6936900000000001,8.6038399999999999,-13.181699999999999
165763.0,70.909400000000005,22.668500000000002,23.136099999999999,84.569500000000005,-3.07443,14.2409,-14.004300000000001
165764.0,74.509200000000007,23.635400000000001,31.7456,87.757900000000006,-1.4666999999999999,20.850999999999999,-13.945499999999999
165765.0,77.734999999999999,36.0824,49.1098,98.981399999999994,-0.187916,27.376100000000001,-12.7501
165766.0,79.188599999999994,49.717199999999998,61.304299999999998,106.139,0.53023299999999995,32.4223,-12.2804
165767.0,77.224900000000005,56.279299999999999,61.627600000000001,101.822,-0.093949000000000005,35.031599999999997,-11.872
165768.0,72.914900000000003,58.542200000000001,58.036799999999999,94.051500000000004,-3.9203299999999999,34.747799999999998,-11.092499999999999
165769.0,69.448099999999997,60.753100000000003,52.553800000000003,87.3917,-9.2754100000000008,32.176000000000002,-12.4338
165770.0,70.392499999999998,61.077100000000002,43.256700000000002,78.043499999999995,-13.3841,30.1601,-16.135300000000001
165771.0,68.7727,64.222800000000007,39.919600000000003,77.379099999999994,-17.075399999999998,24.572199999999999,-17.889700000000001
165772.0,62.091500000000003,54.551400000000001,15.7864,54.731699999999996,-20.646100000000001,14.570499999999999,-11.9712
165773.0,64.888499999999993,-8.3186800000000005,-57.7746,-9.9596800000000005,-23.3188,7.3973899999999997,-3.9840900000000001
165774.0,70.353099999999998,-36.156199999999998,-89.658299999999997,-26.363800000000001,-21.491199999999999,4.9234600000000004,-1.72695
165775.0,69.662700000000001,1.9110100000000001,-59.173299999999998,2.0955300000000001,-17.219200000000001,7.9082699999999999,-3.3252000000000002
165776.0,68.6417,31.9422,-31.068300000000001,19.932200000000002,-14.7447,14.6996,-4.2200100000000003
165777.0,66.159700000000001,58.383200000000002,-3.9153899999999999,38.478299999999997,-14.338900000000001,15.0336,-3.8725000000000001
165778.0,62.1999,62.673400000000001,1.8886700000000001,39.118000000000002,-13.9993,12.0328,-3.0929700000000002
165779.0,58.023800000000001,55.936199999999999,-1.98522,34.911299999999997,-13.158300000000001,9.1318999999999999,-2.4511699999999998
165780.0,54.268300000000004,24.1358,-3.1788699999999999,54.321199999999997,-6.3706100000000001,-10.2026,-3.12338
165781.0,55.25,25.0685,-2.1322999999999999,57.478200000000001,-6.6242999999999999,-8.4016599999999997,-3.5265200000000001
165782.0,56.248600000000003,22.084399999999999,-4.8410500000000001,56.5747,-6.7606099999999998,-6.6791799999999997,-4.0712799999999998
165783.0,56.996200000000002,22.546199999999999,-3.8798599999999999,58.764800000000001,-6.8211199999999996,-4.8525499999999999,-4.8681400000000004
165784.0,57.859400000000001,20.757999999999999,-4.5435999999999996,59.033099999999997,-6.7077900000000001,-3.1086499999999999,-6.0595100000000004
165785.0,58.921399999999998,21.101900000000001,-2.05443,62.038800000000002,-6.4096000000000002,-1.2925899999999999,-7.8202400000000001
165786.0,60.449800000000003,20.530999999999999,1.0029699999999999,65.084500000000006,-5.9134700000000002,0.81413199999999997,-10.1797
165787.0,62.372700000000002,21.325700000000001,6.7019900000000003,69.878500000000003,-5.3316600000000003,3.5216400000000001,-12.7361
165788.0,64.567599999999999,24.017099999999999,14.9863,76.197599999999994,-4.7244799999999998,7.1439700000000004,-14.981299999999999
165789.0,66.185299999999998,30.926100000000002,26.944900000000001,85.097099999999998,-4.4657200000000001,11.5329,-15.8706
165790.0,68.179699999999997,39.660600000000002,39.265900000000002,94.294799999999995,-3.6896900000000001,16.635999999999999,-16.028500000000001
165791.0,69.098600000000005,44.158799999999999,46.224200000000003,96.733400000000003,-2.40971,21.828900000000001,-14.9214
165792.0,71.433999999999997,42.013599999999997,45.544899999999998,90.533600000000007,-3.6437200000000001,28.164899999999999,-12.7525
165793.0,72.517200000000003,45.746400000000001,49.783499999999997,89.511799999999994,-4.5273300000000001,32.149999999999999,-10.667
165794.0,73.443200000000004,46.501600000000003,47.1693,81.485699999999994,-3.3818899999999998,35.494199999999999,-11.241300000000001
165795.0,75.279499999999999,53.567999999999998,50.0105,81.660600000000002,-4.5484600000000004,37.018500000000003,-14.0481
165796.0,74.452500000000001,68.001099999999994,56.260300000000001,86.088700000000003,-10.2445,35.631399999999999,-15.7285
165797.0,68.584500000000006,75.552899999999994,49.750300000000003,87.488900000000001,-15.807600000000001,26.999099999999999,-14.7323
165798.0,62.424399999999999,51.2605,2.6501000000000001,48.463999999999999,-19.591000000000001,9.3288499999999992,-9.1186600000000002
165799.0,72.473299999999995,-49.573799999999999,-115.26000000000001,-57.137,-20.816099999999999,-0.47869899999999999,-5.0538100000000004
165800.0,76.303700000000006,-69.406400000000005,-130.351,-53.611600000000003,-16.412700000000001,-0.61682300000000001,-5.3737700000000004
165801.0,71.298299999999998,15.959300000000001,-46.658200000000001,21.881799999999998,-14.555899999999999,2.1546699999999999,-5.9724000000000004
165802.0,69.580399999999997,42.982500000000002,-22.407299999999999,31.229299999999999,-15.027799999999999,11.057600000000001,-7.11069
165803.0,63.990000000000002,55.987900000000003,-3.6170399999999998,39.995899999999999,-14.1706,13.4604,-5.5819700000000001
165804.0,58.279299999999999,61.425699999999999,4.5291100000000002,41.189399999999999,-13.501300000000001,10.133599999999999,-3.9239000000000002
165805.0,55.485199999999999,54.942599999999999,-0.33196199999999998,36.916800000000002,-12.546900000000001,7.8109400000000004,-3.6270500000000001
165806.0,4743.5600000000004,4078.4200000000001,1353.78,4718.0299999999997,-1435.1600000000001,-18.515999999999998,-1499.54
165807.0,4772.04,4084.5700000000002,1358.51,4675.1499999999996,-1517.51,1.93153,-1468.98
165808.0,4804.4700000000003,4150.7200000000003,1417.6099999999999,4692.0500000000002,-1599.22,18.521699999999999,-1433.76
165809.0,4839.4799999999996,4170.6800000000003,1425.1700000000001,4662.8199999999997,-1679.0599999999999,31.848299999999998,-1393.8699999999999
165810.0,4876.6199999999999,4244.71,1482.6800000000001,4688.4799999999996,-1757.0899999999999,41.998100000000001,-1349.3800000000001
165811.0,4915.3199999999997,4273.4300000000003,1491.01,4669.9799999999996,-1832.6400000000001,49.552799999999998,-1300.6199999999999
165812.0,4955.5600000000004,4352.0,1545.73,4702.7700000000004,-1905.74,55.049300000000002,-1247.72
165813.0,4997.2399999999998,4385.8599999999997,1552.1500000000001,4691.9099999999999,-1975.99,58.702199999999998,-1191.3099999999999
165814.0,5040.21,4465.0,1600.6700000000001,4727.1400000000003,-2043.6099999999999,61.194499999999998,-1131.29
165815.0,5084.1300000000001,4502.25,1602.99,4720.5,-2107.8000000000002,62.137,-1068.0599999999999
165816.0,5126.54,4588.9399999999996,1649.77,4761.5600000000004,-2167.21,62.4495,-1000.5599999999999
165817.0,5161.8400000000001,4636.8500000000004,1653.6199999999999,4763.5699999999997,-2218.1199999999999,59.393799999999999,-927.38199999999995
165818.0,5176.2600000000002,4714.3000000000002,1684.27,4793.29,-2250.9499999999998,55.112699999999997,-848.04399999999998
165819.0,5199.4099999999999,4033.3200000000002,1214.27,4853.9499999999998,-1565.3800000000001,50.224299999999999,-1706.96
165820.0,5238.46,4131.9099999999999,1303.0,4882.2600000000002,-1663.77,80.8155,-1676.21
165821.0,5276.9499999999998,4138.46,1295.5799999999999,4815.3100000000004,-1760.47,104.989,-1638.21
165822.0,5317.71,4236.6000000000004,1373.98,4838.0200000000004,-1855.1300000000001,124.191,-1594.72
165823.0,5361.71,4251.6599999999999,1364.95,4777.8800000000001,-1948.6800000000001,138.374,-1545.9000000000001
165824.0,5407.9899999999998,4354.6300000000001,1438.95,4805.9099999999999,-2039.8900000000001,148.42699999999999,-1491.78
165825.0,5456.3000000000002,4378.4799999999996,1430.1300000000001,4756.2799999999997,-2128.8099999999999,154.64099999999999,-1432.3099999999999
165826.0,5506.1400000000003,4489.0600000000004,1502.8800000000001,4793.8599999999997,-2214.4200000000001,157.535,-1367.6900000000001
165827.0,5556.9099999999999,4525.6000000000004,1497.9000000000001,4759.1199999999999,-2296.5700000000002,157.661,-1297.8800000000001
165828.0,5607.4399999999996,4647.1999999999998,1571.55,4808.9499999999998,-2373.71,154.72399999999999,-1222.6700000000001
165829.0,5655.1599999999999,4693.3599999999997,1565.4100000000001,4785.1899999999996,-2444.25,149.666,-1141.75
165830.0,5693.6999999999998,4821.1499999999996,1631.95,4841.9300000000003,-2503.1300000000001,140.28700000000001,-1052.7
165831.0,5710.54,4898.5799999999999,1639.9300000000001,4850.0799999999999,-2540.6900000000001,128.38399999999999,-954.37300000000005
165832.0,5320.21,3982.4899999999998,1250.6400000000001,4860.6499999999996,-1608.8599999999999,57.2453,-1816.26
165833.0,5360.0600000000004,4058.73,1317.1900000000001,4861.8699999999999,-1714.27,91.3386,-1781.96
165834.0,5400.4899999999998,4082.3699999999999,1327.2,4807.1000000000004,-1818.0699999999999,118.456,-1741.0799999999999
165835.0,5443.1199999999999,4172.7299999999996,1397.75,4816.8199999999997,-1919.5699999999999,140.31800000000001,-1694.26
165836.0,5488.7799999999997,4209.04,1409.74,4772.2399999999998,-2019.8,156.79599999999999,-1641.5899999999999
165837.0,5536.4899999999998,4305.3500000000004,1476.6700000000001,4787.4799999999996,-2117.4699999999998,168.78399999999999,-1583.0899999999999
165838.0,5586.1300000000001,4349.1099999999997,1487.4200000000001,4751.3299999999999,-2212.6900000000001,176.30500000000001,-1518.9400000000001
165839.0,5637.2700000000004,4445.3199999999997,1546.05,4768.1999999999998,-2304.6500000000001,180.16399999999999,-1449.25
165840.0,5689.7399999999998,4491.4700000000003,1551.24,4736.8400000000001,-2393.2600000000002,180.28,-1374.29
165841.0,5741.9099999999999,4583.3000000000002,1597.8,4751.1400000000003,-2477.4099999999999,177.03399999999999,-1293.6300000000001
165842.0,5791.71,4631.04,1598.6099999999999,4725.3100000000004,-2555.6900000000001,169.22800000000001,-1207.3299999999999
165843.0,5832.2799999999997,4716.6999999999998,1635.4200000000001,4736.71,-2624.5300000000002,155.66200000000001,-1113.8399999999999
165844.0,5860.3699999999999,4732.6099999999997,1603.8199999999999,4689.8800000000001,-2680.73,136.94399999999999,-1011.8099999999999
165845.0,5456.0699999999997,4176.9799999999996,1398.76,5150.1199999999999,-1633.72,116.768,-1857.5599999999999
165846.0,5495.3999999999996,4250.3000000000002,1453.99,5132.6700000000001,-1741.5,156.495,-1822.29
165847.0,5538.1000000000004,4309.0100000000002,1489.8900000000001,5097.1400000000003,-1848.3599999999999,188.44300000000001,-1781.79
165848.0,5584.4700000000003,4388.04,1539.1900000000001,5079.4499999999998,-1953.5699999999999,214.47999999999999,-1735.4400000000001
165849.0,5633.9799999999996,4456.2399999999998,1571.8699999999999,5049.2799999999997,-2057.4400000000001,234.59700000000001,-1682.8199999999999
165850.0,5685.54,4543.54,1618.48,5037.3800000000001,-2158.8899999999999,249.114,-1624.04
165851.0,5738.5799999999999,4618.8800000000001,1648.99,5013.3900000000003,-2257.6300000000001,258.11799999999999,-1559.1900000000001
165852.0,5792.5,4714.25,1695.9000000000001,5010.2200000000003,-2352.9899999999998,262.108,-1488.3800000000001
165853.0,5846.6199999999999,4796.4799999999996,1726.76,4995.1099999999997,-2444.52,260.84699999999998,-1411.79
165854.0,5898.5799999999999,4898.04,1775.46,5000.9499999999998,-2531.0300000000002,254.80699999999999,-1328.8900000000001
165855.0,5946.1700000000001,4973.1999999999998,1797.6700000000001,4985.04,-2610.9499999999998,241.96000000000001,-1239.4100000000001
165856.0,5980.0799999999999,5060.1300000000001,1836.1800000000001,4983.7600000000002,-2679.9899999999998,222.38999999999999,-1142.0
165857.0,5997.4300000000003,5105.8900000000003,1843.79,4960.1599999999999,-2735.8600000000001,194.01900000000001,-1035.1099999999999
165858.0,5604.1999999999998,4195.9099999999999,1391.3900000000001,5264.6099999999997,-1664.78,171.13399999999999,-1914.8599999999999
165859.0,5644.7399999999998,4260.3299999999999,1431.7,5223.6999999999998,-1776.7,216.05099999999999,-1879.6099999999999
165860.0,5690.4200000000001,4335.2299999999996,1475.97,5189.6199999999999,-1887.8800000000001,252.77799999999999,-1839.27
165861.0,5740.0200000000004,4415.6599999999999,1518.8199999999999,5157.9700000000003,-1997.8299999999999,282.88299999999998,-1792.6400000000001
165862.0,5792.5,4506.0799999999999,1565.3499999999999,5133.5100000000002,-2106.23,306.27600000000001,-1739.3800000000001
165863.0,5847.0200000000004,4593.9200000000001,1603.9000000000001,5104.8999999999996,-2212.3600000000001,323.03100000000001,-1679.47
165864.0,5902.8900000000003,4694.3100000000004,1650.26,5087.9300000000003,-2315.52,333.44,-1613.0999999999999
165865.0,5959.8199999999997,4782.4499999999998,1680.29,5059.21,-2415.3600000000001,337.74900000000002,-1540.22
165866.0,6016.8400000000001,4887.7799999999997,1723.74,5048.2299999999996,-2510.9499999999998,336.029,-1461.1099999999999
165867.0,6071.96,4970.0200000000004,1742.3199999999999,5016.1099999999997,-2601.4400000000001,328.33300000000003,-1375.25
165868.0,6122.9499999999998,5076.8699999999999,1785.6199999999999,5013.0100000000002,-2685.48,312.55599999999998,-1282.6800000000001
165869.0,6160.8800000000001,5144.7600000000002,1796.77,4976.2700000000004,-2759.1199999999999,288.81099999999998,-1182.45
165870.0,6183.5100000000002,5208.1499999999996,1816.29,4955.5699999999997,-2821.1500000000001,253.59700000000001,-1073.0699999999999
165871.0,5729.4499999999998,4322.3199999999997,1495.1600000000001,5483.6499999999996,-1686.8299999999999,228.18600000000001,-1958.6900000000001
165872.0,5771.0799999999999,4389.3800000000001,1532.23,5431.0100000000002,-1802.02,277.91500000000002,-1924.1800000000001
165873.0,5819.4200000000001,4488.3400000000001,1593.0,5406.3999999999996,-1916.78,319.18400000000003,-1884.5
165874.0,5871.9899999999998,4567.3999999999996,1625.96,5358.0,-2030.5599999999999,353.50099999999998,-1837.8699999999999
165875.0,5927.5200000000004,4678.8699999999999,1684.27,5338.0699999999997,-2142.6999999999998,380.41699999999997,-1784.3399999999999
165876.0,5985.1700000000001,4768.5900000000001,1715.03,5293.9200000000001,-2252.71,399.75799999999998,-1723.79
165877.0,6043.9899999999998,4888.0200000000004,1770.48,5277.7399999999998,-2359.5999999999999,411.74900000000002,-1656.51
165878.0,6103.6800000000003,4986.3900000000003,1800.99,5240.6199999999999,-2463.23,416.44400000000002,-1582.29
165879.0,6163.1099999999997,5111.1499999999996,1854.6199999999999,5230.2299999999996,-2562.46,413.892,-1501.5999999999999
165880.0,6220.2299999999996,5213.8500000000004,1884.97,5200.0699999999997,-2656.5,404.05099999999999,-1413.5899999999999
165881.0,6272.2200000000003,5328.8100000000004,1927.46,5186.4499999999998,-2743.3200000000002,385.01499999999999,-1318.25
165882.0,6309.96,5411.96,1945.29,5147.6099999999997,-2818.8200000000002,356.72699999999998,-1214.55
165883.0,6331.9899999999998,5491.4300000000003,1970.4100000000001,5125.6400000000003,-2881.79,315.71499999999997,-1101.1300000000001
165884.0,5870.1400000000003,4378.5699999999997,1523.6800000000001,5641.4899999999998,-1711.0599999999999,290.97199999999998,-2005.8699999999999
165885.0,5913.79,4454.6400000000003,1561.9100000000001,5582.4200000000001,-1829.8499999999999,346.46699999999998,-1971.9400000000001
165886.0,5964.7700000000004,4557.1700000000001,1617.3800000000001,5545.2600000000002,-1948.3199999999999,392.99799999999999,-1932.52
165887.0,6020.3299999999999,4652.1599999999999,1657.0599999999999,5495.6000000000004,-2066.0799999999999,431.863,-1885.96
165888.0,6079.0100000000002,4773.1599999999999,1715.1400000000001,5466.9099999999999,-2182.27,462.495,-1832.26
165889.0,6139.8299999999999,4878.2200000000003,1750.97,5418.7799999999997,-2296.3800000000001,484.54599999999999,-1771.1400000000001
165890.0,6201.6499999999996,5011.1199999999999,1809.1199999999999,5395.9099999999999,-2407.23,498.21100000000001,-1702.8
165891.0,6264.1700000000001,5117.5,1836.3800000000001,5346.0,-2514.6399999999999,503.435,-1627.02
165892.0,6325.9899999999998,5256.46,1892.51,5328.5699999999997,-2617.2399999999998,500.31200000000001,-1544.1800000000001
165893.0,6385.3199999999997,5356.25,1908.1900000000001,5274.2700000000004,-2714.4099999999999,488.56200000000001,-1453.6099999999999
165894.0,6439.6700000000001,5495.8400000000001,1964.4100000000001,5264.4799999999996,-2804.5500000000002,466.24200000000002,-1355.6400000000001
165895.0,6480.2600000000002,5577.75,1971.23,5205.3199999999997,-2883.71,433.154,-1249.1300000000001
165896.0,6505.3599999999997,5670.3699999999999,2002.01,5178.8100000000004,-2951.0700000000002,385.26400000000001,-1133.22
165897.0,6002.54,4469.3699999999999,1592.8299999999999,5835.0200000000004,-1731.1400000000001,356.09500000000003,-2048.7199999999998
165898.0,6047.8699999999999,4563.46,1641.5699999999999,5778.2200000000003,-1853.26,417.21499999999997,-2015.6400000000001
165899.0,6101.2399999999998,4673.6000000000004,1696.3599999999999,5732.3100000000004,-1975.3,468.86799999999999,-1976.8099999999999
165900.0,6159.3400000000001,4784.3500000000004,1742.48,5680.8900000000003,-2096.6199999999999,512.40800000000002,-1930.3199999999999
165901.0,6220.6599999999999,4910.8000000000002,1796.1700000000001,5639.0799999999999,-2216.4299999999998,546.88999999999999,-1876.3399999999999
165902.0,6284.0699999999997,5034.1800000000003,1839.76,5589.5100000000002,-2334.0799999999999,571.84199999999998,-1814.5899999999999
165903.0,6348.4200000000001,5170.6700000000001,1890.8199999999999,5549.7299999999996,-2448.52,587.24699999999996,-1745.26
165904.0,6413.29,5303.2399999999998,1933.3699999999999,5504.8299999999999,-2559.3800000000001,592.97199999999998,-1668.1600000000001
165905.0,6477.3699999999999,5445.2799999999997,1982.1099999999999,5469.1999999999998,-2665.4899999999998,589.05100000000004,-1583.6500000000001
165906.0,6538.7399999999998,5580.9700000000003,2023.1800000000001,5429.4399999999996,-2765.9699999999998,575.13199999999995,-1491.02
165907.0,6594.25,5712.6899999999996,2060.9699999999998,5390.6099999999997,-2858.7399999999998,549.46000000000004,-1390.29
165908.0,6635.7600000000002,5825.3199999999997,2088.0300000000002,5341.9799999999996,-2940.1900000000001,511.42599999999999,-1280.6199999999999
165909.0,6661.75,5919.9200000000001,2109.7199999999998,5297.6700000000001,-3009.5100000000002,457.25999999999999,-1161.3599999999999
165910.0,6136.4899999999998,4531.2200000000003,1634.3699999999999,6004.46,-1749.3399999999999,425.47500000000002,-2089.8899999999999
165911.0,6183.4099999999999,4641.9499999999998,1691.1900000000001,5947.71,-1874.6099999999999,492.72500000000002,-2057.4099999999999
165912.0,6238.8599999999997,4750.7799999999997,1735.55,5883.1499999999996,-1999.9300000000001,549.91099999999994,-2018.97
165913.0,6299.4300000000003,4883.5,1793.98,5835.1700000000001,-2124.6700000000001,598.32399999999996,-1972.74
165914.0,6363.4300000000003,5014.1300000000001,1841.6800000000001,5777.9099999999999,-2248.0799999999999,636.82100000000003,-1918.71
165915.0,6429.5,5159.5699999999997,1896.51,5729.54,-2369.2399999999998,664.77499999999998,-1856.5699999999999
165916.0,6496.3100000000004,5304.4700000000003,1944.8,5676.4700000000003,-2487.1700000000001,682.02999999999997,-1786.3399999999999
165917.0,6563.3900000000003,5451.8599999999997,1990.47,5623.8699999999999,-2601.25,688.37800000000004,-1707.9000000000001
165918.0,6629.1599999999999,5603.9899999999998,2037.4000000000001,5575.4499999999998,-2710.2399999999998,683.82399999999996,-1621.4400000000001
165919.0,6691.9399999999996,5743.6999999999998,2070.5,5516.6700000000001,-2813.27,667.84400000000005,-1526.49
165920.0,6749.0900000000001,5895.8800000000001,2117.6199999999999,5475.8599999999997,-2908.8699999999999,638.63800000000003,-1423.3099999999999
165921.0,6792.75,6015.1999999999998,2140.48,5412.5699999999997,-2993.3200000000002,595.46500000000003,-1311.0
165922.0,6821.3900000000003,6120.21,2162.8899999999999,5358.4300000000003,-3066.21,534.43700000000001,-1189.3099999999999
165923.0,6265.4399999999996,4611.0600000000004,1700.0799999999999,6194.29,-1764.1600000000001,497.67200000000003,-2128.1300000000001
165924.0,6313.9300000000003,4732.21,1759.01,6130.9700000000003,-1892.52,571.01300000000003,-2096.6199999999999
165925.0,6371.4200000000001,4856.1800000000003,1809.5599999999999,6063.75,-2021.0699999999999,633.77999999999997,-2058.8600000000001
165926.0,6434.1700000000001,4997.9099999999999,1867.1600000000001,6005.8100000000004,-2148.9699999999998,687.26599999999996,-2012.8299999999999
165927.0,6500.3699999999999,5142.1800000000003,1918.1199999999999,5941.9899999999998,-2275.5799999999999,729.98599999999999,-1958.6099999999999
165928.0,6568.5500000000002,5298.4200000000001,1972.71,5882.9499999999998,-2399.8600000000001,761.11599999999999,-1895.95
165929.0,6637.3800000000001,5455.1199999999999,2021.47,5819.2799999999997,-2520.9099999999999,780.34000000000003,-1824.8399999999999
165930.0,6706.3100000000004,5621.3599999999997,2074.4499999999998,5762.3999999999996,-2638.0100000000002,787.32600000000002,-1745.1700000000001
165931.0,6773.8400000000001,5784.0900000000001,2120.6500000000001,5701.1599999999999,-2750.0300000000002,782.00999999999999,-1657.1500000000001
165932.0,6838.1800000000003,5952.46,2171.1700000000001,5647.5799999999999,-2855.9299999999998,763.80499999999995,-1560.27
165933.0,6896.1800000000003,6104.54,2206.79,5583.3900000000003,-2953.79,731.01499999999999,-1454.5
165934.0,6940.79,6247.2700000000004,2241.79,5521.1099999999997,-3040.4299999999998,682.54700000000003,-1339.3599999999999
165935.0,6970.5699999999997,6362.0799999999999,2262.6199999999999,5455.1300000000001,-3115.4200000000001,614.77999999999997,-1214.8099999999999
165936.0,6391.3900000000003,4675.1599999999999,1754.75,6371.8400000000001,-1775.75,573.48800000000006,-2163.4000000000001
165937.0,6441.1700000000001,4800.5500000000002,1808.9200000000001,6295.0699999999997,-1906.9200000000001,653.23699999999997,-2132.6799999999998
165938.0,6500.29,4937.1999999999998,1862.6800000000001,6222.0299999999997,-2038.29,721.89499999999998,-2095.4499999999998
165939.0,6565.0600000000004,5087.6899999999996,1919.1099999999999,6153.1400000000003,-2169.1700000000001,780.56899999999996,-2049.8099999999999
165940.0,6633.3199999999997,5249.25,1976.8399999999999,6085.6000000000004,-2298.7800000000002,827.66300000000001,-1995.6300000000001
165941.0,6703.5299999999997,5415.2299999999996,2030.1400000000001,6014.0500000000002,-2426.0900000000001,862.03999999999996,-1932.6700000000001
165942.0,6774.1000000000004,5593.3599999999997,2088.7399999999998,5948.46,-2549.98,883.34400000000005,-1860.77
165943.0,6844.5299999999997,5762.1400000000003,2132.3600000000001,5870.0200000000004,-2669.7800000000002,891.053,-1779.8800000000001
165944.0,6913.04,5948.4200000000001,2189.8899999999999,5807.6599999999999,-2784.0799999999999,885.11300000000006,-1690.0799999999999
165945.0,6978.0600000000004,6108.9700000000003,2220.4099999999999,5721.5299999999997,-2892.0100000000002,864.75400000000002,-1591.05
165946.0,7036.8900000000003,6294.2299999999996,2277.73,5666.25,-2992.0900000000001,828.20399999999995,-1483.01
165947.0,7082.9099999999999,6432.8400000000001,2297.1199999999999,5576.5299999999997,-3081.1399999999999,774.31899999999996,-1365.3699999999999
165948.0,7114.75,6571.3699999999999,2330.7199999999998,5511.9200000000001,-3158.9499999999998,699.46600000000001,-1238.5599999999999
165949.0,6512.3299999999999,4741.4399999999996,1818.97,6554.1499999999996,-1783.76,652.18899999999996,-2195.8099999999999
165950.0,6563.4899999999998,4877.7700000000004,1875.0999999999999,6470.1999999999998,-1917.7,738.40999999999997,-2166.2199999999998
165951.0,6624.2399999999998,5029.0900000000001,1934.23,6392.8999999999996,-2051.8600000000001,813.02700000000004,-2129.8000000000002
165952.0,6690.6499999999996,5189.5900000000001,1990.55,6313.7700000000004,-2185.4099999999999,877.11699999999996,-2084.4499999999998
165953.0,6760.5,5364.79,2051.2800000000002,6238.3000000000002,-2317.6799999999998,928.779,-2030.1800000000001
165954.0,6832.1800000000003,5542.1599999999999,2104.6199999999999,6155.1700000000001,-2447.54,966.62800000000004,-1966.76
165955.0,6904.1000000000004,5731.8100000000004,2163.1500000000001,6077.1000000000004,-2573.98,990.12199999999996,-1894.0799999999999
165956.0,6975.6499999999996,5920.4700000000003,2214.77,5993.6700000000001,-2696.1999999999998,998.596,-1812.0699999999999
165957.0,7045.0900000000001,6116.4499999999998,2270.3600000000001,5915.7799999999997,-2812.9000000000001,991.92999999999995,-1720.8
165958.0,7110.9200000000001,6306.6000000000004,2318.8200000000002,5833.9300000000003,-2923.0700000000002,969.27099999999996,-1619.98
165959.0,7169.9300000000003,6491.6300000000001,2364.0799999999999,5753.1800000000003,-3024.8299999999999,928.95699999999999,-1509.55
165960.0,7216.46,6654.5699999999997,2395.98,5663.46,-3115.6399999999999,869.51999999999998,-1389.28
165961.0,7249.1400000000003,6802.3599999999997,2427.1100000000001,5584.6999999999998,-3195.25,787.52700000000004,-1259.97
165962.0,6628.1499999999996,4784.2299999999996,1866.52,6715.8500000000004,-1787.79,734.23699999999997,-2224.5999999999999
165963.0,6680.3299999999999,4947.3900000000003,1939.97,6640.0299999999997,-1924.1099999999999,827.21799999999996,-2196.0
165964.0,6742.29,5089.9799999999996,1980.6800000000001,6534.4499999999998,-2060.6799999999998,908.03499999999997,-2160.25
165965.0,6810.0699999999997,5281.0699999999997,2057.3699999999999,6465.0299999999997,-2196.5599999999999,977.71299999999997,-2115.3400000000001
165966.0,6881.3000000000002,5451.3100000000004,2102.5500000000002,6362.3699999999999,-2331.27,1034.05,-2061.1399999999999
165967.0,6954.2299999999996,5660.7600000000002,2176.6700000000001,6287.6099999999997,-2463.4299999999998,1075.47,-1997.5
165968.0,7027.0900000000001,5849.9499999999998,2223.1300000000001,6184.29,-2592.1199999999999,1101.22,-1924.0999999999999
165969.0,7099.25,6063.0299999999997,2287.0300000000002,6099.4799999999996,-2716.27,1110.5599999999999,-1840.99
165970.0,7168.8500000000004,6261.4399999999996,2332.8099999999999,5997.7600000000002,-2834.6399999999999,1103.3099999999999,-1748.0599999999999
165971.0,7234.5,6465.4799999999996,2382.71,5903.25,-2946.0999999999999,1078.4200000000001,-1645.27
165972.0,7293.4399999999996,6662.3500000000004,2428.1999999999998,5808.3000000000002,-3049.4200000000001,1034.1900000000001,-1532.71
165973.0,7340.5200000000004,6842.8299999999999,2465.7600000000002,5710.9499999999998,-3141.9099999999999,969.05700000000002,-1410.1600000000001
165974.0,7374.5299999999997,6993.9499999999998,2488.8800000000001,5611.3699999999999,-3223.7399999999998,879.62699999999995,-1278.8399999999999
165975.0,6738.1099999999997,4833.3100000000004,1928.97,6886.2799999999997,-1787.7,819.23900000000003,-2250.0799999999999
165976.0,6791.3000000000002,5011.9099999999999,2008.3599999999999,6806.8000000000002,-1926.3099999999999,919.05999999999995,-2222.7399999999998
165977.0,6854.4200000000001,5164.8500000000004,2049.8600000000001,6691.6199999999999,-2065.1999999999998,1006.16,-2187.9099999999999
165978.0,6923.1999999999998,5370.2700000000004,2130.6100000000001,6615.1199999999999,-2203.0900000000001,1081.6199999999999,-2143.3899999999999
165979.0,6995.3100000000004,5550.7399999999998,2175.3699999999999,6499.8900000000003,-2339.8499999999999,1142.8299999999999,-2089.1599999999999
165980.0,7068.8599999999997,5775.04,2252.8899999999999,6415.5900000000001,-2473.8099999999999,1188.01,-2025.1400000000001
165981.0,7142.1899999999996,5972.3400000000001,2295.8299999999999,6294.8800000000001,-2604.3499999999999,1216.1600000000001,-1951.01
165982.0,7214.54,6208.9700000000003,2371.27,6207.1300000000001,-2730.1300000000001,1226.4100000000001,-1866.8800000000001
165983.0,7284.1300000000001,6413.2600000000002,2411.2399999999998,6084.3999999999996,-2850.1599999999999,1218.47,-1772.5899999999999
165984.0,7349.6099999999997,6650.5,2482.54,5995.9700000000003,-2963.0599999999999,1191.22,-1668.1700000000001
165985.0,7407.8599999999997,6844.04,2512.8099999999999,5870.7200000000003,-3067.3800000000001,1143.0599999999999,-1553.3800000000001
165986.0,7454.6300000000001,7052.0900000000001,2565.9400000000001,5774.8100000000004,-3160.9200000000001,1072.0799999999999,-1428.55
165987.0,7488.8299999999999,7209.96,2583.8499999999999,5656.7600000000002,-3243.9899999999998,975.154,-1295.04
165988.0,6841.46,4869.7799999999997,1987.3499999999999,7046.6099999999997,-1782.9000000000001,907.51900000000001,-2271.3499999999999
165989.0,6895.3999999999996,5059.54,2068.02,6958.6800000000003,-1923.5,1014.37,-2245.21
165990.0,6959.1499999999996,5220.1999999999998,2107.3400000000001,6830.6700000000001,-2064.1700000000001,1108.0,-2211.1700000000001
165991.0,7028.6099999999997,5440.04,2192.3400000000001,6746.6800000000003,-2203.7600000000002,1189.3699999999999,-2167.1300000000001
165992.0,7101.1999999999998,5630.8699999999999,2236.8299999999999,6618.3400000000001,-2342.1599999999999,1255.5899999999999,-2112.9899999999998
165993.0,7175.1000000000004,5871.6899999999996,2319.73,6525.5799999999999,-2477.6900000000001,1304.5799999999999,-2048.8099999999999
165994.0,7248.3699999999999,6083.9399999999996,2365.9899999999998,6393.5500000000002,-2609.6100000000001,1335.23,-1974.01
165995.0,7320.3500000000004,6329.2399999999998,2438.0700000000002,6287.1899999999996,-2736.5300000000002,1346.47,-1888.8599999999999
165996.0,7389.0699999999997,6551.4799999999996,2483.73,6154.4399999999996,-2857.3499999999999,1337.99,-1793.0599999999999
165997.0,7453.3000000000002,6787.3699999999999,2541.4099999999999,6036.4899999999998,-2970.73,1308.45,-1686.8199999999999
165998.0,7510.4399999999996,7007.2600000000002,2586.3800000000001,5909.8199999999997,-3075.7199999999998,1256.1900000000001,-1570.0999999999999
165999.0,7556.6999999999998,7218.4899999999998,2630.8400000000001,5790.1899999999996,-3170.1199999999999,1179.26,-1443.23
166000.0,7591.3100000000004,7394.04,2654.8000000000002,5663.8699999999999,-3254.5900000000001,1074.5899999999999,-1307.98
166001.0,6937.8299999999999,4906.79,2056.3800000000001,7209.6999999999998,-1773.29,998.755,-2288.7199999999998
166002.0,6992.4700000000003,5100.8699999999999,2131.5599999999999,7106.1300000000001,-1915.79,1112.6800000000001,-2264.04
166003.0,7056.7399999999998,5282.7399999999998,2182.3299999999999,6978.3599999999997,-2058.0500000000002,1212.95,-2231.02
166004.0,7126.3900000000003,5506.0299999999997,2260.6500000000001,6875.4399999999996,-2198.9899999999998,1300.3900000000001,-2187.3699999999999
166005.0,7198.9300000000003,5717.9700000000003,2315.6599999999999,6744.1700000000001,-2338.5500000000002,1371.8,-2133.27
166006.0,7272.4700000000003,5962.7600000000002,2391.3699999999999,6629.8100000000004,-2475.0700000000002,1424.8099999999999,-2068.6900000000001
166007.0,7345.1800000000003,6193.1099999999997,2444.1500000000001,6488.8900000000003,-2607.8899999999999,1458.0799999999999,-1993.26
166008.0,7416.25,6451.8400000000001,2517.9699999999998,6368.0500000000002,-2735.5999999999999,1470.3499999999999,-1907.1600000000001
166009.0,7483.8100000000004,6689.4099999999999,2567.3299999999999,6222.0699999999997,-2857.0700000000002,1461.21,-1810.1500000000001
166010.0,7546.7299999999996,6948.4499999999998,2636.6199999999999,6098.5799999999999,-2971.0,1429.28,-1702.4100000000001
166011.0,7602.0699999999997,7174.7200000000003,2676.2199999999998,5949.6099999999997,-3076.04,1372.9000000000001,-1583.72
166012.0,7646.9799999999996,7403.8100000000004,2726.6500000000001,5820.0299999999997,-3170.6500000000001,1289.8900000000001,-1454.79
166013.0,7680.8999999999996,7595.4700000000003,2754.77,5682.9499999999998,-3255.5500000000002,1177.4000000000001,-1317.74
166014.0,7026.3000000000002,4923.0699999999997,2115.0599999999999,7354.1999999999998,-1758.26,1093.1400000000001,-2301.2800000000002
166015.0,7081.29,5133.0100000000002,2195.9299999999998,7246.0500000000002,-1902.27,1214.3399999999999,-2277.9699999999998
166016.0,7145.5299999999997,5318.2600000000002,2240.1300000000001,7100.2200000000003,-2045.5899999999999,1321.4400000000001,-2245.8299999999999
166017.0,7214.9899999999998,5560.1599999999999,2327.0500000000002,6993.0200000000004,-2187.4400000000001,1415.0899999999999,-2202.6700000000001
166018.0,7287.0500000000002,5777.1499999999996,2376.6700000000001,6842.2200000000003,-2327.71,1491.8099999999999,-2148.6799999999998
166019.0,7359.8800000000001,6042.7600000000002,2462.3899999999999,6722.5,-2464.9000000000001,1548.9200000000001,-2083.9299999999998
166020.0,7431.4099999999999,6283.1800000000003,2513.9200000000001,6564.0299999999997,-2598.0999999999999,1584.8699999999999,-2007.9300000000001
166021.0,7500.9099999999999,6554.5799999999999,2588.7399999999998,6427.1499999999996,-2725.9499999999998,1598.27,-1920.8599999999999
166022.0,7566.4099999999999,6805.1999999999998,2639.29,6264.7700000000004,-2847.1999999999998,1588.5899999999999,-1822.51
166023.0,7626.8400000000001,7067.1199999999999,2699.6300000000001,6114.4700000000003,-2960.5900000000001,1554.29,-1713.0999999999999
166024.0,7679.8599999999997,7314.5,2748.9899999999998,5957.21,-3065.2600000000002,1493.6900000000001,-1592.7
166025.0,7723.1300000000001,7551.04,2795.3099999999999,5806.6000000000004,-3159.7800000000002,1404.48,-1462.01
166026.0,7756.3999999999996,7755.6099999999997,2824.8600000000001,5654.8699999999999,-3245.1599999999999,1283.9200000000001,-1323.6300000000001
166027.0,7106.5799999999999,4939.4300000000003,2185.6500000000001,7500.6700000000001,-1737.6600000000001,1190.4300000000001,-2309.1999999999998
166028.0,7161.8800000000001,5152.8699999999999,2259.8099999999999,7375.2700000000004,-1882.99,1318.98,-2287.5
166029.0,7225.9099999999999,5360.1800000000003,2316.4000000000001,7229.71,-2027.1800000000001,1432.97,-2256.4699999999998
166030.0,7294.6700000000001,5603.7200000000003,2395.1300000000001,7100.8299999999999,-2169.4899999999998,1532.99,-2213.75
166031.0,7365.6400000000003,5843.3500000000004,2457.2199999999998,6947.6000000000004,-2309.9699999999998,1615.1700000000001,-2159.79
166032.0,7436.9200000000001,6110.3800000000001,2533.6399999999999,6802.54,-2447.0999999999999,1676.52,-2094.6700000000001
166033.0,7506.6499999999996,6370.2299999999996,2593.5500000000002,6635.2600000000002,-2580.1199999999999,1715.26,-2018.0799999999999
166034.0,7573.9799999999996,6652.3999999999996,2667.96,6479.8599999999997,-2707.6500000000001,1729.79,-1930.1500000000001
166035.0,7636.9899999999998,6920.2299999999996,2724.5999999999999,6304.7200000000003,-2828.4000000000001,1719.51,-1830.6800000000001
166036.0,7694.8199999999997,7201.7700000000004,2793.5100000000002,6143.8500000000004,-2941.2199999999998,1682.75,-1719.95
166037.0,7744.8000000000002,7458.1800000000003,2840.7199999999998,5965.4399999999996,-3044.8600000000001,1617.8800000000001,-1597.8499999999999
166038.0,7785.46,7708.8699999999999,2889.8299999999999,5799.6899999999996,-3138.5100000000002,1522.3499999999999,-1465.4200000000001
166039.0,7816.96,7932.5600000000004,2926.8600000000001,5638.6800000000003,-3223.3400000000001,1393.6700000000001,-1325.6099999999999
166040.0,7177.8999999999996,4932.7700000000004,2245.54,7625.9099999999999,-1710.8900000000001,1290.76,-2311.6700000000001
166041.0,7233.1099999999997,5164.2799999999997,2327.3299999999999,7497.3999999999996,-1857.1099999999999,1426.79,-2291.54
166042.0,7296.3299999999999,5372.5900000000001,2375.1300000000001,7330.6099999999997,-2001.5599999999999,1547.8599999999999,-2261.4499999999998
166043.0,7363.9099999999999,5636.6599999999999,2464.7600000000002,7198.5,-2143.8000000000002,1654.3599999999999,-2219.1999999999998
166044.0,7433.2399999999998,5877.6999999999998,2518.4299999999998,7021.1400000000003,-2283.9400000000001,1742.0999999999999,-2165.3299999999999
166045.0,7502.5600000000004,6167.6899999999996,2607.6300000000001,6871.7700000000004,-2420.5900000000001,1807.73,-2100.04
166046.0,7569.8199999999997,6433.9899999999998,2663.3600000000001,6682.1300000000001,-2552.8299999999999,1849.3299999999999,-2022.9100000000001
166047.0,7634.2600000000002,6731.2200000000003,2741.8200000000002,6511.8100000000004,-2679.3000000000002,1865.0899999999999,-1934.0899999999999
166048.0,7693.8599999999997,7007.5100000000002,2795.8299999999999,6314.3500000000004,-2798.6199999999999,1854.29,-1833.4000000000001
166049.0,7747.8500000000004,7295.4300000000003,2860.02,6128.8000000000002,-2909.6700000000001,1815.0899999999999,-1721.2
166050.0,7794.1400000000003,7567.5299999999997,2912.3299999999999,5935.2799999999997,-3011.6799999999998,1745.8499999999999,-1597.6300000000001
166051.0,7831.8299999999999,7829.5500000000002,2961.8800000000001,5750.9399999999996,-3104.0700000000002,1643.8900000000001,-1463.77
166052.0,7861.5200000000004,8060.6999999999998,2995.4299999999998,5568.4399999999996,-3188.3099999999999,1506.8800000000001,-1323.01
166053.0,7239.9099999999999,4922.25,2315.3800000000001,7748.7299999999996,-1677.71,1393.8499999999999,-2308.73
166054.0,7294.8999999999996,5161.1099999999997,2394.0999999999999,7606.1300000000001,-1824.5599999999999,1537.4400000000001,-2290.3800000000001
166055.0,7357.1000000000004,5387.2399999999998,2450.3099999999999,7434.6800000000003,-1969.0,1665.6099999999999,-2261.4499999999998
166056.0,7422.9099999999999,5655.6499999999996,2534.9699999999998,7282.7600000000002,-2110.6300000000001,1778.71,-2219.5999999999999
166057.0,7489.9399999999996,5915.6000000000004,2598.1300000000001,7098.3699999999999,-2249.8400000000001,1872.0999999999999,-2165.7399999999998
166058.0,7556.4300000000003,6208.96,2680.7600000000002,6924.5799999999999,-2385.1900000000001,1942.1900000000001,-2100.0599999999999
166059.0,7620.5299999999997,6491.0,2742.0900000000001,6721.3999999999996,-2515.9899999999998,1986.71,-2022.3399999999999
166060.0,7681.4099999999999,6800.1499999999996,2822.1399999999999,6532.5100000000002,-2640.79,2003.71,-1932.76
166061.0,7737.1499999999996,7091.2700000000004,2880.8200000000002,6318.6899999999996,-2758.3299999999999,1992.3199999999999,-1831.0799999999999
166062.0,7787.0699999999997,7398.1300000000001,2953.9000000000001,6120.6199999999999,-2867.4299999999998,1950.5699999999999,-1717.76
166063.0,7828.9499999999998,7677.96,3003.77,5903.3999999999996,-2967.1100000000001,1876.9100000000001,-1592.74
166064.0,7862.7299999999996,7953.4200000000001,3056.2199999999998,5701.8900000000003,-3057.3200000000002,1768.4400000000001,-1457.5
166065.0,7889.46,8203.1800000000003,3097.52,5508.3000000000002,-3139.8499999999999,1623.05,-1315.77
166066.0,7291.9099999999999,4886.6599999999999,2374.6199999999999,7847.7299999999996,-1637.4300000000001,1499.79,-2299.54
166067.0,7346.3000000000002,5148.8999999999996,2466.1599999999999,7706.75,-1784.47,1651.04,-2282.96
166068.0,7406.8699999999999,5370.2299999999996,2508.1900000000001,7507.6800000000003,-1928.26,1786.45,-2255.04
166069.0,7470.3900000000003,5663.8900000000003,2609.1799999999998,7356.5100000000002,-2068.6799999999998,1906.22,-2213.6399999999999
166070.0,7534.5299999999997,5918.1800000000003,2657.79,7140.1300000000001,-2206.3200000000002,2005.3499999999999,-2159.7800000000002
166071.0,7597.6899999999996,6239.3000000000002,2758.96,6965.9200000000001,-2339.8000000000002,2079.9200000000001,-2093.8899999999999
166072.0,7657.9899999999998,6520.5100000000002,2809.9299999999998,6732.1599999999999,-2468.4899999999998,2127.4000000000001,-2015.6400000000001
166073.0,7714.5299999999997,6849.8800000000001,2900.3600000000001,6532.4399999999996,-2590.79,2145.6799999999998,-1925.26
166074.0,7765.4700000000003,7140.8500000000004,2949.0500000000002,6286.6599999999999,-2705.4699999999998,2133.77,-1822.5
166075.0,7810.1800000000003,7461.1599999999999,3025.6199999999999,6069.8000000000002,-2811.3499999999999,2089.5300000000002,-1707.9200000000001
166076.0,7847.0299999999997,7747.0,3072.1399999999999,5826.6800000000003,-2908.0,2011.3599999999999,-1581.6800000000001
166077.0,7876.4799999999996,8040.6499999999996,3133.04,5612.2799999999997,-2995.54,1896.25,-1445.4200000000001
166078.0,7900.0900000000001,8288.2299999999996,3162.2399999999998,5386.3800000000001,-3076.1599999999999,1742.28,-1303.1700000000001
166079.0,7333.7399999999998,4849.4700000000003,2448.27,7946.0200000000004,-1589.8,1608.3199999999999,-2284.1199999999999
166080.0,7387.3599999999997,5113.5900000000001,2531.2199999999998,7785.0,-1736.71,1767.23,-2269.48
166081.0,7445.9799999999996,5357.4099999999999,2586.8600000000001,7585.3999999999996,-1879.48,1909.8800000000001,-2242.7399999999998
166082.0,7506.5699999999997,5648.5699999999997,2676.9400000000001,7406.96,-2018.05,2036.4100000000001,-2201.6999999999998
166083.0,7567.1899999999996,5926.5299999999997,2740.8800000000001,7187.6099999999997,-2153.4000000000001,2141.3499999999999,-2147.77
166084.0,7626.2200000000003,6243.7399999999998,2829.52,6980.9499999999998,-2284.1799999999998,2220.5,-2081.4699999999998
166085.0,7681.9399999999996,6544.96,2891.6599999999999,6737.0600000000004,-2409.9000000000001,2271.0,-2002.6400000000001
166086.0,7733.54,6878.71,2977.5500000000002,6510.3299999999999,-2529.0300000000002,2290.5599999999999,-1911.55
166087.0,7779.2200000000003,7189.8400000000001,3037.6199999999999,6252.54,-2640.3499999999999,2278.0500000000002,-1807.9400000000001
166088.0,7818.4300000000003,7519.5200000000004,3114.98,6012.6099999999997,-2742.6799999999998,2231.1999999999998,-1692.4100000000001
166089.0,7849.5799999999999,7819.3000000000002,3166.77,5751.0600000000004,-2835.4299999999998,2148.4699999999998,-1565.04
166090.0,7873.7600000000002,8117.1999999999998,3222.8499999999999,5509.25,-2919.29,2026.6300000000001,-1427.8
166091.0,7893.2299999999996,8390.4699999999993,3268.0799999999999,5278.3599999999997,-2996.77,1864.0899999999999,-1285.05
166092.0,7364.9899999999998,4786.7799999999997,2513.3499999999999,8019.4499999999998,-1534.1300000000001,1719.4200000000001,-2261.6599999999999
166093.0,7417.4200000000001,5065.9799999999996,2600.8800000000001,7851.3800000000001,-1680.45,1886.04,-2248.96
166094.0,7473.46,5312.0799999999999,2650.0700000000002,7630.7799999999997,-1821.4100000000001,2036.05,-2223.2399999999998
166095.0,7530.6899999999996,5619.7700000000004,2748.8800000000001,7443.9200000000001,-1957.52,2169.3499999999999,-2182.5799999999999
166096.0,7587.1599999999999,5897.8199999999997,2805.25,7197.71,-2089.79,2280.1700000000001,-2128.5500000000002
166097.0,7641.5200000000004,6233.6999999999998,2904.9200000000001,6980.9300000000003,-2217.1999999999998,2363.8499999999999,-2061.96
166098.0,7692.0900000000001,6539.8699999999999,2964.0300000000002,6711.4799999999996,-2339.1500000000001,2417.4099999999999,-1982.5999999999999
166099.0,7738.0,6884.8500000000004,3053.02,6464.2399999999998,-2454.1399999999999,2438.2600000000002,-1890.75
166100.0,7777.5600000000004,7199.9399999999996,3108.8699999999999,6177.7399999999998,-2560.8800000000001,2425.1999999999998,-1786.1900000000001
166101.0,7810.3400000000001,7536.5600000000004,3185.1199999999999,5911.8000000000002,-2658.3699999999999,2375.7600000000002,-1669.6400000000001
166102.0,7835.2399999999998,7844.9099999999999,3237.8299999999999,5626.0500000000002,-2746.3600000000001,2288.3800000000001,-1541.3599999999999
166103.0,7853.8199999999997,8154.9300000000003,3298.0900000000001,5364.5,-2825.8899999999999,2159.73,-1403.49
166104.0,7869.0299999999997,8427.3400000000001,3333.9899999999998,5101.7799999999997,-2899.9099999999999,1988.45,-1260.7
166105.0,7385.6499999999996,4716.7799999999997,2589.6599999999999,8085.8199999999997,-1470.04,1832.8099999999999,-2232.02
166106.0,7436.7200000000003,4994.4700000000003,2665.3299999999999,7894.0500000000002,-1615.4100000000001,2007.1099999999999,-2221.4499999999998
166107.0,7489.9499999999998,5265.1800000000003,2731.0300000000002,7674.7200000000003,-1754.1600000000001,2164.4499999999998,-2196.9400000000001
166108.0,7543.1700000000001,5565.2799999999997,2815.1199999999999,7455.1099999999997,-1887.04,2304.5599999999999,-2156.5100000000002
166109.0,7594.8699999999999,5869.0200000000004,2890.46,7207.4700000000003,-2015.4200000000001,2421.2399999999998,-2102.3200000000002
166110.0,7643.8500000000004,6195.3199999999997,2973.6900000000001,6952.0900000000001,-2138.46,2509.5500000000002,-2035.21
166111.0,7688.6199999999999,6523.0699999999997,3047.3600000000001,6673.5,-2255.6799999999998,2566.1599999999999,-1955.25
166112.0,7728.3199999999997,6866.29,3127.7199999999998,6392.5600000000004,-2365.73,2588.27,-1862.73
166113.0,7761.4099999999999,7204.4499999999998,3199.9499999999998,6096.3999999999996,-2467.2800000000002,2574.5300000000002,-1757.45
166114.0,7787.54,7541.2700000000004,3269.8899999999999,5797.6199999999999,-2559.3499999999999,2522.4099999999999,-1640.1400000000001
166115.0,7805.7600000000002,7868.3900000000003,3334.8099999999999,5497.6400000000003,-2641.6399999999999,2430.3200000000002,-1511.0699999999999
166116.0,7818.1199999999999,8173.1999999999998,3382.8200000000002,5198.6300000000001,-2715.73,2294.8200000000002,-1372.6500000000001
166117.0,7828.2600000000002,8477.8400000000001,3443.1399999999999,4936.8500000000004,-2784.9400000000001,2114.8000000000002,-1229.8900000000001
166118.0,7395.75,4611.2200000000003,2650.0900000000001,8116.5500000000002,-1396.8699999999999,1948.3900000000001,-2194.46
166119.0,7444.9799999999996,4916.04,2742.6100000000001,7929.6099999999997,-1540.71,2130.3800000000001,-2185.9899999999998
166120.0,7494.7600000000002,5175.2799999999997,2789.1700000000001,7675.3500000000004,-1676.4400000000001,2295.0599999999999,-2162.48
166121.0,7543.6199999999999,5503.1099999999997,2894.6300000000001,7458.2299999999996,-1805.29,2441.9699999999998,-2122.3200000000002
166122.0,7590.1199999999999,5791.7799999999997,2949.1300000000001,7168.3000000000002,-1928.96,2564.52,-2067.9000000000001
166123.0,7633.3400000000001,6147.3999999999996,3056.0500000000002,6913.1199999999999,-2046.79,2657.4000000000001,-2000.3900000000001
166124.0,7671.8699999999999,6465.0900000000001,3113.9699999999998,6593.6300000000001,-2158.4299999999998,2716.9899999999998,-1919.8699999999999
166125.0,7704.8500000000004,6829.79,3209.9099999999999,6302.0299999999997,-2262.3499999999999,2740.3899999999999,-1826.5799999999999
166126.0,7730.96,7155.4399999999996,3263.8600000000001,5960.3500000000004,-2357.4000000000001,2726.0100000000002,-1720.5
166127.0,7749.9200000000001,7512.1300000000001,3348.0799999999999,5648.0699999999997,-2442.6900000000001,2671.1900000000001,-1602.4200000000001
166128.0,7761.2200000000003,7829.6700000000001,3398.27,5305.4200000000001,-2518.2600000000002,2574.3299999999999,-1472.76
166129.0,7767.29,8159.46,3465.7199999999998,4999.1199999999999,-2586.0900000000001,2431.8800000000001,-1334.1700000000001
166130.0,7772.4399999999996,8444.1800000000003,3499.9400000000001,4686.1400000000003,-2650.0500000000002,2242.98,-1191.9000000000001
166131.0,7395.8299999999999,4499.8100000000004,2726.0300000000002,8140.8500000000004,-1314.1800000000001,2065.8499999999999,-2148.79
166132.0,7443.0100000000002,4805.3999999999996,2809.29,7932.4799999999996,-1456.05,2255.4699999999998,-2142.5500000000002
166133.0,7489.1199999999999,5085.0600000000004,2869.4099999999999,7675.2399999999998,-1588.24,2427.3800000000001,-2120.1999999999998
166134.0,7533.0699999999997,5405.6099999999997,2962.21,7425.5699999999997,-1712.1700000000001,2581.0599999999999,-2080.1300000000001
166135.0,7573.9700000000003,5715.5500000000002,3033.4200000000001,7129.6999999999998,-1830.22,2709.4200000000001,-2025.3800000000001
166136.0,7610.96,6061.1599999999999,3125.7800000000002,6835.2799999999997,-1941.72,2806.8600000000001,-1957.24
166137.0,7642.8800000000001,6395.0500000000002,3195.4699999999998,6501.1700000000001,-2046.6199999999999,2869.4499999999998,-1876.02
166138.0,7669.0299999999997,6757.5,3284.9000000000001,6175.1999999999998,-2143.54,2894.02,-1782.1199999999999
166139.0,7688.1599999999999,7102.0699999999997,3353.8400000000001,5819.5699999999997,-2231.2800000000002,2878.8899999999999,-1675.4300000000001
166140.0,7700.1000000000004,7455.3699999999999,3430.9400000000001,5470.6999999999998,-2308.9899999999998,2821.25,-1556.8099999999999
166141.0,7704.5900000000001,7788.9799999999996,3493.6199999999999,5111.0900000000001,-2376.8000000000002,2719.5599999999999,-1426.71
166142.0,7704.2700000000004,8110.1700000000001,3548.23,4763.8100000000004,-2437.1100000000001,2570.1100000000001,-1288.0699999999999
166143.0,7704.21,8426.1900000000005,3608.5300000000002,4450.7200000000003,-2494.3499999999999,2372.4200000000001,-1146.4000000000001
166144.0,7386.4399999999996,4354.3500000000004,2790.6300000000001,8130.1099999999997,-1221.21,2185.0,-2094.1900000000001
166145.0,7431.1800000000003,4680.7700000000004,2884.9400000000001,7920.4399999999996,-1360.54,2382.1799999999998,-2090.1799999999998
166146.0,7473.1800000000003,4952.8900000000003,2931.2199999999998,7632.3100000000004,-1488.24,2561.3099999999999,-2068.79
166147.0,7512.1400000000003,5293.3900000000003,3039.6599999999999,7377.3999999999996,-1606.45,2721.6599999999999,-2028.8499999999999
166148.0,7547.1999999999998,5590.9499999999998,3095.1700000000001,7041.9799999999996,-1717.8,2855.77,-1973.6199999999999
166149.0,7577.9399999999996,5957.2700000000004,3205.3200000000002,6739.1999999999998,-1822.04,2957.6500000000001,-1904.9300000000001
166150.0,7603.3400000000001,6284.1300000000001,3265.1700000000001,6367.3199999999997,-1919.2,3023.1199999999999,-1823.0599999999999
166151.0,7622.6199999999999,6658.6499999999996,3363.8400000000001,6021.3699999999999,-2007.79,3048.8400000000001,-1728.4200000000001
166152.0,7634.8900000000003,6992.1999999999998,3419.23,5621.8500000000004,-2086.8000000000002,3032.9400000000001,-1621.05
166153.0,7640.04,7358.6599999999999,3507.1900000000001,5252.9899999999998,-2155.5,2972.48,-1501.9000000000001
166154.0,7638.2399999999998,7682.6999999999998,3558.4099999999999,4850.8699999999999,-2214.3200000000002,2865.8699999999999,-1371.5899999999999
166155.0,7632.1999999999998,8022.0,3628.8600000000001,4489.6400000000003,-2266.1599999999999,2709.3699999999999,-1233.26
166156.0,7627.6199999999999,8317.0599999999995,3664.9400000000001,4124.46,-2316.0,2502.79,-1092.6199999999999
166157.0,7368.9399999999996,4198.96,2869.8299999999999,8107.8999999999996,-1117.46,2305.48,-2030.4000000000001
166158.0,7411.1300000000001,4520.8199999999997,2950.1900000000001,7871.8199999999997,-1253.79,2510.0900000000001,-2028.78
166159.0,7449.0299999999997,4815.3900000000003,3013.6700000000001,7583.0200000000004,-1376.3900000000001,2696.2800000000002,-2008.51
166160.0,7482.71,5142.4399999999996,3105.5999999999999,7289.6199999999999,-1487.8599999999999,2863.1700000000001,-1968.4200000000001
166161.0,7512.0200000000004,5461.4499999999998,3180.7800000000002,6948.6800000000003,-1591.46,3002.9000000000001,-1912.6600000000001
166162.0,7536.6000000000004,5811.5799999999999,3273.3600000000001,6600.8299999999999,-1687.21,3109.1399999999999,-1843.1199999999999
166163.0,7555.6599999999999,6152.9300000000003,3346.5599999999999,6212.9099999999999,-1775.27,3177.4200000000001,-1760.46
166164.0,7568.7600000000002,6519.8699999999999,3436.8699999999999,5827.6700000000001,-1854.52,3204.1399999999999,-1665.21
166165.0,7575.0200000000004,6870.9799999999996,3509.4699999999998,5413.2299999999996,-1923.8099999999999,3187.3400000000001,-1557.3299999999999
166166.0,7574.3900000000003,7226.1099999999997,3586.0900000000001,5000.3699999999999,-1982.5,3123.9000000000001,-1437.8499999999999
166167.0,7567.5,7565.6899999999996,3652.9499999999998,4581.21,-2031.1400000000001,3012.3400000000001,-1307.5
166168.0,7556.7799999999997,7889.1899999999996,3707.0900000000001,4172.3299999999999,-2073.1199999999999,2848.77,-1169.6400000000001
166169.0,7548.4700000000003,8216.0200000000004,3773.27,3808.0700000000002,-2113.98,2633.3800000000001,-1030.1900000000001
166170.0,7345.0500000000002,4002.0500000000002,2933.6700000000001,8042.1499999999996,-1002.1900000000001,2426.98,-1956.6800000000001
166171.0,7384.29,4347.5299999999997,3028.6500000000001,7808.1099999999997,-1134.8,2638.8800000000001,-1957.4100000000001
166172.0,7417.9200000000001,4628.9200000000001,3074.5700000000002,7483.2299999999996,-1251.3099999999999,2832.02,-1937.99
166173.0,7446.7600000000002,4976.1300000000001,3184.9899999999998,7185.2700000000004,-1355.0899999999999,3005.29,-1897.78
166174.0,7470.6999999999998,5276.21,3241.0700000000002,6798.7200000000003,-1449.77,3150.4699999999998,-1841.29
166175.0,7489.8500000000004,5645.9099999999999,3353.8099999999999,6441.8999999999996,-1535.8800000000001,3260.9000000000001,-1770.96
166176.0,7503.6499999999996,5974.5200000000004,3415.2199999999998,6011.1400000000003,-1613.79,3331.8099999999999,-1687.5699999999999
166177.0,7511.4899999999998,6350.4099999999999,3515.6100000000001,5603.4899999999998,-1682.1700000000001,3359.46,-1591.52
166178.0,7513.0600000000004,6684.6499999999996,3572.8800000000001,5140.0699999999997,-1740.1500000000001,3341.6900000000001,-1483.0799999999999
166179.0,7508.3400000000001,7051.0299999999997,3662.6799999999998,4706.1599999999999,-1787.29,3275.25,-1363.3299999999999
166180.0,7498.2700000000004,7374.8699999999999,3716.1799999999998,4239.2399999999998,-1824.3800000000001,3158.6500000000001,-1233.1500000000001
166181.0,7485.0299999999997,7713.1700000000001,3787.0,3813.9200000000001,-1855.3599999999999,2987.9899999999998,-1096.1300000000001
166182.0,7475.0299999999997,8013.0799999999999,3826.9699999999998,3392.54,-1886.3900000000001,2763.7399999999998,-958.327
166183.0,7317.4300000000003,3791.4299999999998,3011.8400000000001,7960.0,-874.80399999999997,2549.0900000000001,-1872.6800000000001
166184.0,7353.6700000000001,4134.6999999999998,3096.2199999999998,7702.6499999999996,-1003.17,2768.0799999999999,-1875.8800000000001
166185.0,7383.4099999999999,4432.3800000000001,3155.2800000000002,7371.6000000000004,-1112.8699999999999,2967.9099999999999,-1857.4300000000001
166186.0,7407.8199999999997,4766.8000000000002,3252.8499999999999,7036.5,-1207.78,3147.3499999999999,-1816.8099999999999
166187.0,7427.3800000000001,5080.5100000000002,3324.3299999999999,6637.3299999999999,-1292.4100000000001,3297.77,-1759.47
166188.0,7442.2799999999997,5433.8199999999997,3423.25,6236.0900000000001,-1367.49,3412.1999999999998,-1688.0899999999999
166189.0,7452.21,5767.3999999999996,3492.6900000000001,5780.6899999999996,-1433.6700000000001,3485.6199999999999,-1603.73
166190.0,7456.8800000000001,6136.6999999999998,3590.1700000000001,5335.79,-1490.0599999999999,3513.9699999999998,-1507.04
166191.0,7456.1800000000003,6477.6999999999998,3658.46,4847.8100000000004,-1535.5699999999999,3495.0500000000002,-1398.2
166192.0,7450.0500000000002,6832.8100000000004,3741.6799999999998,4371.1300000000001,-1569.9300000000001,3425.46,-1278.3299999999999
166193.0,7439.8999999999996,7160.7399999999998,3804.1999999999998,3877.0799999999999,-1594.0999999999999,3303.75,-1148.52
166194.0,7427.1499999999996,7485.4799999999996,3865.8099999999999,3407.6100000000001,-1612.51,3126.0100000000002,-1012.53
166195.0,7418.2299999999996,7805.1999999999998,3928.3899999999999,2976.5599999999999,-1632.0599999999999,2893.0100000000002,-876.55899999999997
166196.0,7289.3800000000001,3543.6399999999999,3082.7600000000002,7837.4200000000001,-734.48000000000002,2671.3899999999999,-1777.6300000000001
166197.0,7322.5,3897.04,3169.5100000000002,7569.6099999999997,-857.91099999999994,2897.25,-1783.24
166198.0,7348.79,4190.8999999999996,3222.71,7212.7299999999996,-959.65300000000002,3103.5599999999999,-1765.51
166199.0,7370.0699999999997,4529.25,3325.96,6857.8000000000002,-1044.6800000000001,3288.9000000000001,-1724.46
166200.0,7386.8000000000002,4832.1400000000003,3390.3800000000001,6422.1199999999999,-1117.8499999999999,3444.3099999999999,-1666.05
166201.0,7399.5600000000004,5187.9799999999996,3496.8899999999999,5996.0299999999997,-1180.6900000000001,3562.46,-1593.6099999999999
166202.0,7408.2399999999998,5516.6400000000003,3567.0300000000002,5506.8699999999999,-1233.9100000000001,3638.0999999999999,-1508.3099999999999
166203.0,7412.5600000000004,5876.0799999999999,3660.8000000000002,5022.1800000000003,-1276.54,3667.04,-1410.78
166204.0,7412.9899999999998,6208.1999999999998,3726.8800000000001,4494.7700000000004,-1307.8599999999999,3646.8299999999999,-1301.47
166205.0,7409.4799999999996,6556.4700000000003,3810.6100000000001,3980.5799999999999,-1327.8,3574.02,-1181.5899999999999
166206.0,7403.6800000000003,6876.3900000000003,3872.77,3448.2800000000002,-1337.55,3447.1199999999999,-1052.3900000000001
166207.0,7396.0900000000001,7196.5100000000002,3937.1399999999999,2944.6300000000001,-1342.0599999999999,3262.3299999999999,-917.78300000000002
166208.0,7392.5200000000004,7496.8999999999996,3986.0100000000002,2465.9299999999998,-1348.97,3020.5900000000001,-784.08100000000002
166209.0,7265.6000000000004,3272.6700000000001,3162.54,7687.6899999999996,-580.60699999999997,2793.3699999999999,-1671.1400000000001
166210.0,7295.7700000000004,3620.4000000000001,3236.6199999999999,7394.3299999999999,-698.53200000000004,3025.79,-1679.28
166211.0,7319.7600000000002,3928.9299999999998,3304.0500000000002,7030.8299999999999,-791.46299999999997,3238.25,-1662.3399999999999
166212.0,7339.5,4249.54,3393.3099999999999,6635.0,-865.32500000000005,3429.1500000000001,-1620.5599999999999
166213.0,7355.8400000000001,4561.9200000000001,3473.4000000000001,6183.8999999999996,-925.76099999999997,3589.1900000000001,-1560.9000000000001
166214.0,7369.4099999999999,4895.0799999999999,3564.8200000000002,5708.6000000000004,-974.72900000000004,3710.8000000000002,-1487.0799999999999
166215.0,7380.3999999999996,5223.4200000000001,3642.8699999999999,5191.1700000000001,-1013.29,3788.4400000000001,-1400.5999999999999
166216.0,7388.7399999999998,5570.6099999999997,3733.7399999999998,4665.3999999999996,-1040.9300000000001,3817.6599999999999,-1302.3800000000001
166217.0,7395.21,5902.6400000000003,3809.6300000000001,4108.5500000000002,-1056.6800000000001,3795.9299999999998,-1192.72
166218.0,7399.8000000000002,6233.6199999999999,3886.8099999999999,3547.7399999999998,-1060.71,3719.7600000000002,-1072.96
166219.0,7404.3599999999997,6549.6300000000001,3955.8099999999999,2982.48,-1054.45,3587.5900000000001,-944.55200000000002
166220.0,7408.0299999999997,6852.96,4013.9899999999998,2433.7600000000002,-1043.4300000000001,3395.7600000000002,-811.59400000000005
166221.0,7415.4399999999996,7163.25,4081.23,1937.8,-1035.97,3145.4200000000001,-680.37300000000005
166222.0,7251.7700000000004,2963.1399999999999,3237.9299999999998,7494.71,-412.351,2914.4899999999998,-1552.4100000000001
166223.0,7279.2299999999996,3311.98,3306.8299999999999,7183.3900000000003,-523.95600000000002,3153.1300000000001,-1563.03
166224.0,7302.3699999999999,3620.8000000000002,3375.6900000000001,6799.6099999999997,-606.83900000000006,3371.4299999999998,-1546.6199999999999
166225.0,7323.29,3932.3499999999999,3461.8099999999999,6372.46,-668.38099999999997,3567.4899999999998,-1503.96
166226.0,7342.7799999999997,4237.1899999999996,3543.02,5889.7600000000002,-714.51800000000003,3731.8099999999999,-1442.8699999999999
166227.0,7361.4899999999998,4558.5799999999999,3633.3099999999999,5377.2399999999998,-748.32600000000002,3856.4499999999998,-1367.6199999999999
166228.0,7379.8000000000002,4884.6700000000001,3720.6500000000001,4830.8000000000002,-770.73699999999997,3935.6999999999998,-1279.97
166229.0,7397.8000000000002,5205.8199999999997,3797.8200000000002,4251.3999999999996,-781.43499999999995,3964.98,-1180.79
166230.0,7416.8500000000004,5532.6800000000003,3881.5999999999999,3661.2399999999998,-779.73500000000001,3941.5599999999999,-1070.75
166231.0,7436.8299999999999,5839.6000000000004,3948.6700000000001,3048.4699999999998,-766.17700000000002,3861.8899999999999,-951.221
166232.0,7459.5200000000004,6152.3599999999997,4028.8299999999999,2452.3899999999999,-742.23500000000001,3724.3899999999999,-823.89200000000005
166233.0,7482.3900000000003,6430.6899999999996,4075.9699999999998,1852.01,-714.125,3525.5500000000002,-692.86500000000001
166234.0,7508.2200000000003,6728.8299999999999,4143.1400000000003,1318.24,-690.84900000000005,3266.7600000000002,-564.58900000000006
166235.0,7255.3299999999999,2614.9400000000001,3311.1199999999999,7257.6400000000003,-229.095,3034.0599999999999,-1421.0999999999999
166236.0,7280.6800000000003,2970.5500000000002,3381.4699999999998,6934.9700000000003,-333.625,3278.5500000000002,-1434.26
166237.0,7305.29,3275.3499999999999,3449.4000000000001,6527.6000000000004,-405.596,3502.2399999999998,-1418.3699999999999
166238.0,7330.8800000000001,3579.5700000000002,3536.5300000000002,6071.8599999999997,-453.37099999999998,3702.9899999999998,-1374.55
166239.0,7358.1700000000001,3872.75,3617.8400000000001,5554.5600000000004,-483.82999999999998,3871.0799999999999,-1311.79
166240.0,7387.6199999999999,4179.3299999999999,3706.8600000000001,5003.0,-500.548,3998.3800000000001,-1234.7
166241.0,7419.8100000000004,4483.96,3787.5900000000001,4409.6700000000001,-505.03899999999999,4078.9000000000001,-1145.6500000000001
166242.0,7454.9399999999996,4799.5799999999999,3875.3499999999999,3798.7600000000002,-497.38400000000001,4107.8400000000001,-1045.6300000000001
166243.0,7494.8299999999999,5104.75,3954.5999999999999,3160.5900000000001,-476.69900000000001,4082.4699999999998,-935.34299999999996
166244.0,7538.9300000000003,5399.5200000000004,4027.4099999999999,2509.5999999999999,-443.80799999999999,3999.0500000000002,-816.14099999999996
166245.0,7589.2600000000002,5687.7700000000004,4101.4200000000001,1863.26,-400.399,3856.1999999999998,-690.09799999999996
166246.0,7640.6400000000003,5954.21,4154.5,1226.2,-353.488,3650.3600000000001,-561.27700000000004
166247.0,7693.6300000000001,6243.6099999999997,4228.8000000000002,659.91700000000003,-312.59500000000003,3383.3400000000001,-436.25099999999998
166248.0,7285.0100000000002,2225.9000000000001,3382.1700000000001,6973.4399999999996,-29.938600000000001,3151.4099999999999,-1276.4300000000001
166249.0,7309.1300000000001,2590.6199999999999,3457.4200000000001,6642.8599999999997,-126.46299999999999,3401.3699999999999,-1292.02
166250.0,7338.1099999999997,2881.27,3516.29,6202.96,-186.31,3629.9299999999998,-1276.3399999999999
166251.0,7373.1300000000001,3180.3299999999999,3609.1999999999998,5721.8800000000001,-218.83799999999999,3834.8600000000001,-1231.1800000000001
166252.0,7414.3199999999997,3449.6799999999998,3681.5599999999999,5159.2299999999996,-232.011,4006.1999999999998,-1166.45
166253.0,7461.7700000000004,3748.0999999999999,3779.6399999999999,4576.6999999999998,-230.18000000000001,4135.6000000000004,-1087.53
166254.0,7515.96,4031.8899999999999,3858.3400000000001,3938.9000000000001,-215.14099999999999,4216.8800000000001,-997.00800000000004
166255.0,7577.2399999999998,4324.9499999999998,3943.29,3281.0799999999999,-186.976,4245.1899999999996,-895.89800000000002
166256.0,7647.7299999999996,4605.71,4019.1999999999998,2594.1599999999999,-145.34299999999999,4217.5699999999997,-785.298
166257.0,7726.5100000000002,4879.7700000000004,4093.2600000000002,1898.28,-91.237300000000005,4130.3000000000002,-666.58600000000001
166258.0,7815.0100000000002,5144.7700000000004,4166.7399999999998,1205.3199999999999,-26.712800000000001,3981.9499999999998,-542.11199999999997
166259.0,7905.6499999999996,5388.8400000000001,4219.6400000000003,523.08000000000004,40.891800000000003,3769.2600000000002,-415.84800000000001
166260.0,7995.1700000000001,5645.3000000000002,4280.9799999999996,-97.447599999999994,100.91800000000001,3494.1100000000001,-294.43000000000001
166261.0,7351.2299999999996,1800.24,3457.8099999999999,6645.3900000000003,185.87299999999999,3265.7600000000002,-1117.98
166262.0,7375.5100000000002,2165.6500000000001,3530.9000000000001,6299.9300000000003,98.050799999999995,3520.6900000000001,-1136.02
166263.0,7412.7399999999998,2450.0599999999999,3590.8899999999999,5836.6999999999998,51.397799999999997,3753.52,-1120.53
166264.0,7463.0,2734.5799999999999,3683.27,5322.3400000000001,35.522500000000001,3962.0,-1073.75
166265.0,7525.4399999999996,2985.8499999999999,3756.0599999999999,4721.6000000000004,41.272100000000002,4135.9200000000001,-1006.74
166266.0,7599.5,3260.5,3851.29,4094.2800000000002,63.687199999999997,4266.8699999999999,-925.54899999999998
166267.0,7685.25,3515.0999999999999,3923.5799999999999,3405.4899999999998,100.23099999999999,4348.4200000000001,-833.26199999999994
166268.0,7782.9799999999996,3793.5799999999999,4018.4400000000001,2711.1199999999999,150.495,4375.5900000000001,-731.178
166269.0,7894.9499999999998,4042.1300000000001,4087.9200000000001,1969.9200000000001,214.81299999999999,4345.3500000000004,-620.34900000000005
166270.0,8019.6300000000001,4296.8599999999997,4169.3900000000003,1233.1700000000001,291.98399999999998,4254.0200000000004,-502.255
166271.0,8157.6000000000004,4524.5299999999997,4232.79,481.81299999999999,379.613,4100.1199999999999,-379.512
166272.0,8298.2099999999991,4752.8100000000004,4296.9200000000001,-236.184,469.66800000000001,3880.6399999999999,-256.19499999999999
166273.0,8434.2199999999993,4984.79,4358.4499999999998,-900.19500000000005,550.81500000000005,3597.6300000000001,-138.62299999999999
166274.0,7465.7299999999996,1329.72,3532.3299999999999,6264.4200000000001,419.16800000000001,3376.2399999999998,-945.04300000000001
166275.0,7491.8299999999999,1695.9200000000001,3604.71,5905.6700000000001,340.94900000000001,3635.5900000000001,-965.42100000000005
166276.0,7542.0,1966.8199999999999,3661.0700000000002,5413.3699999999999,308.93299999999999,3872.0999999999999,-949.76700000000005
166277.0,7614.4399999999996,2232.4400000000001,3751.7199999999998,4862.9700000000003,311.255,4083.3899999999999,-901.00800000000004
166278.0,7706.9200000000001,2459.4400000000001,3822.4699999999998,4219.7299999999996,337.69900000000001,4259.2299999999996,-831.524
166279.0,7817.2700000000004,2710.3299999999999,3919.3299999999999,3549.6900000000001,382.22399999999999,4390.9700000000003,-747.96299999999997
166280.0,7945.2600000000002,2942.6799999999998,3996.8899999999999,2819.1700000000001,442.10300000000001,4472.1800000000003,-653.88499999999999
166281.0,8090.5500000000002,3180.79,4080.2399999999998,2064.8400000000001,516.60199999999998,4497.7399999999998,-550.53800000000001
166282.0,8255.6000000000004,3405.6700000000001,4156.6499999999996,1280.47,605.779,4464.6099999999997,-439.495
166283.0,8437.3500000000004,3617.8299999999999,4227.21,482.45400000000001,707.90599999999995,4368.8900000000003,-322.09399999999999
166284.0,8635.9799999999996,3825.9400000000001,4303.75,-306.56299999999999,820.54200000000003,4209.4300000000003,-201.51599999999999
166285.0,8836.7600000000002,4004.8899999999999,4350.46,-1090.98,934.93299999999999,3983.2199999999998,-81.262900000000002
166286.0,9028.7199999999993,4212.9099999999999,4417.7399999999998,-1794.9400000000001,1039.02,3692.7600000000002,31.802299999999999
166287.0,7641.0200000000004,810.73199999999997,3604.8699999999999,5825.9499999999998,670.70000000000005,3481.8299999999999,-757.13
166288.0,7671.1999999999998,1182.1900000000001,3682.6999999999998,5460.1700000000001,602.94399999999996,3745.02,-779.86199999999997
166289.0,7739.71,1432.8599999999999,3731.3899999999999,4933.8000000000002,586.59299999999996,3984.4299999999998,-763.97799999999995
166290.0,7842.2200000000003,1686.0599999999999,3830.5100000000002,4355.6800000000003,608.66999999999996,4197.7399999999998,-713.02099999999996
166291.0,7974.1000000000004,1877.1600000000001,3891.8800000000001,3660.48,657.51199999999994,4374.6099999999997,-640.63
166292.0,8131.4399999999996,2103.6999999999998,3994.1599999999999,2949.3099999999999,726.41200000000003,4506.4899999999998,-554.26400000000001
166293.0,8312.5499999999993,2287.98,4055.96,2153.96,811.59900000000005,4586.6499999999996,-458.09800000000001
166294.0,8516.7199999999993,2510.0599999999999,4157.7700000000004,1366.78,912.19600000000003,4610.04,-353.55700000000002
166295.0,8745.6000000000004,2681.4899999999998,4216.8000000000002,512.87900000000002,1028.01,4573.4499999999998,-242.34899999999999
166296.0,8995.5200000000004,2874.3600000000001,4305.54,-320.13999999999999,1157.1800000000001,4473.2399999999998,-125.81
166297.0,9264.2700000000004,3022.02,4359.46,-1184.05,1296.71,4308.0200000000004,-7.5750099999999998
166298.0,9535.2399999999998,3188.1100000000001,4431.4200000000001,-1995.4400000000001,1437.4000000000001,4075.4099999999999,109.15600000000001
166299.0,9790.3099999999995,3345.2600000000002,4482.5799999999999,-2762.2199999999998,1566.1099999999999,3777.5300000000002,217.488
166300.0,7890.1099999999997,245.268,3680.1199999999999,5330.9899999999998,941.29100000000005,3581.5100000000002,-553.74699999999996
166301.0,7926.8900000000003,614.55499999999995,3757.77,4952.7200000000003,884.952,3847.8600000000001,-578.61300000000006
166302.0,8019.6999999999998,844.822,3801.5900000000001,4394.0799999999999,885.74099999999999,4089.3699999999999,-562.08399999999995
166303.0,8160.8100000000004,1071.6400000000001,3899.0300000000002,3776.4400000000001,929.33100000000002,4303.8500000000004,-508.55500000000001
166304.0,8341.9500000000007,1227.98,3956.5700000000002,3032.6599999999999,1002.36,4480.8400000000001,-432.98000000000002
166305.0,8556.7999999999993,1423.9000000000001,4063.3800000000001,2276.9299999999998,1097.26,4611.9200000000001,-343.79500000000002
166306.0,8801.7199999999993,1570.6300000000001,4125.3599999999997,1430.1300000000001,1209.6600000000001,4690.2200000000003,-245.39699999999999
166307.0,9075.5200000000004,1748.05,4222.3900000000003,584.78300000000002,1338.5999999999999,4710.8800000000001,-139.47200000000001
166308.0,9378.3700000000008,1876.04,4279.6800000000003,-325.39699999999999,1483.1400000000001,4670.3699999999999,-28.0914
166309.0,9705.9799999999996,2025.8,4368.79,-1213.3599999999999,1641.3599999999999,4565.4499999999998,87.385400000000004
166310.0,10053.4,2127.4299999999998,4420.6599999999999,-2134.1399999999999,1809.6400000000001,4394.3199999999997,203.005
166311.0,10402.5,2250.9899999999998,4494.2200000000003,-2998.0999999999999,1978.7,4155.5600000000004,315.78500000000003
166312.0,10727.9,2347.0,4525.1400000000003,-3834.5599999999999,2133.8400000000001,3850.5799999999999,419.18000000000001
166313.0,8225.4099999999999,-366.42899999999997,3761.1599999999999,4778.7399999999998,1231.73,3674.1300000000001,-334.42099999999999
166314.0,8271.5200000000004,-10.5441,3829.4499999999998,4379.0200000000004,1187.55,3942.8200000000002,-361.37400000000002
166315.0,8394.9599999999991,207.53,3879.9400000000001,3798.5900000000001,1206.72,4185.5799999999999,-344.137
166316.0,8582.8799999999992,398.69299999999998,3970.77,3134.5100000000002,1273.1700000000001,4400.1000000000004,-287.76600000000002
166317.0,8823.1599999999999,525.41399999999999,4034.71,2350.0100000000002,1372.4300000000001,4576.2299999999996,-208.59399999999999
166318.0,9105.5300000000007,667.26700000000005,4127.75,1529.25,1495.5,4705.5100000000002,-116.057
166319.0,9424.5400000000009,775.44799999999998,4194.7299999999996,633.31700000000001,1637.3699999999999,4781.2299999999996,-15.1799
166320.0,9777.0699999999997,900.59000000000003,4285.6899999999996,-273.928,1796.3599999999999,4798.2799999999997,92.093699999999998
166321.0,10163.1,989.18200000000002,4351.8599999999997,-1232.47,1971.72,4753.4799999999996,203.559
166322.0,10575.9,1076.75,4428.46,-2190.1199999999999,2160.8200000000002,4643.3500000000004,317.85199999999998
166323.0,11009.9,1140.05,4492.8000000000002,-3156.1199999999999,2360.0500000000002,4466.5299999999997,430.50200000000001
166324.0,11442.5,1197.53,4550.5699999999997,-4091.5300000000002,2558.9200000000001,4221.5299999999997,539.06600000000003
166325.0,11845.700000000001,1279.0,4614.6499999999996,-4947.3400000000001,2742.7800000000002,3910.3200000000002,636.84900000000005
166326.0,8658.0,-1036.1300000000001,3839.25,4156.5,1542.75,3758.3099999999999,-98.673100000000005
166327.0,8716.4799999999996,-689.36800000000005,3904.5300000000002,3742.0799999999999,1511.6700000000001,4028.5999999999999,-127.54000000000001
166328.0,8876.7999999999993,-496.28699999999998,3952.4200000000001,3129.5100000000002,1550.79,4271.6000000000004,-109.09699999999999
166329.0,9119.8400000000001,-343.97899999999998,4038.0100000000002,2418.52,1641.95,4485.0900000000001,-49.430900000000001
166330.0,9428.2800000000007,-259.92099999999999,4100.5600000000004,1583.24,1769.21,4659.21,33.5398
166331.0,9787.2299999999996,-161.48400000000001,4196.6300000000001,711.51400000000001,1922.1199999999999,4785.5799999999999,129.46899999999999
166332.0,10189.0,-102.38500000000001,4264.3699999999999,-240.24299999999999,2095.3400000000001,4857.71,232.923
166333.0,10628.6,-34.778199999999998,4350.3299999999999,-1210.72,2286.5999999999999,4870.4399999999996,341.69
166334.0,11105.299999999999,-1.9642599999999999,4415.7799999999997,-2229.4099999999999,2494.8499999999999,4820.7799999999997,453.23200000000003
166335.0,11610.0,27.9102,4491.3199999999997,-3247.79,2716.7399999999998,4705.1800000000003,566.09500000000003
166336.0,12136.4,33.225299999999997,4555.4099999999999,-4273.71,2948.7199999999998,4522.6000000000004,675.38999999999999
166337.0,12658.5,32.491500000000002,4612.3100000000004,-5268.1899999999996,3179.3099999999999,4271.75,779.43399999999997
166338.0,13144.0,41.056100000000001,4657.8999999999996,-6196.7799999999997,3393.5,3954.5700000000002,871.12199999999996
166339.0,9197.1499999999996,-1758.6700000000001,3922.5,3468.3499999999999,1875.0799999999999,3832.6199999999999,153.79400000000001
166340.0,9271.0400000000009,-1430.3599999999999,3978.0700000000002,3032.7800000000002,1857.9300000000001,4103.6099999999997,123.173
166341.0,9474.0300000000007,-1257.78,4031.71,2395.3299999999999,1918.1099999999999,4345.79,142.82900000000001
166342.0,9779.5699999999997,-1148.96,4112.4499999999998,1635.8099999999999,2035.3800000000001,4557.0,206.03
166343.0,10164.299999999999,-1107.8,4179.1000000000004,752.85900000000004,2192.5700000000002,4727.8100000000004,293.25900000000001
166344.0,10608.200000000001,-1074.8499999999999,4262.3100000000004,-188.12700000000001,2377.6900000000001,4850.1400000000003,393.08800000000002
166345.0,11100.4,-1068.6800000000001,4333.6700000000001,-1195.29,2584.3299999999999,4917.5799999999999,499.38099999999997
166346.0,11634.200000000001,-1065.5999999999999,4414.9399999999996,-2231.23,2809.7199999999998,4925.1899999999996,609.58199999999999
166347.0,12207.5,-1089.99,4485.3699999999999,-3306.5900000000001,3052.6300000000001,4870.04,721.01999999999998
166348.0,12810.200000000001,-1131.3399999999999,4554.0,-4394.0200000000004,3309.2199999999998,4748.75,832.23099999999999
166349.0,13433.5,-1185.6099999999999,4623.2600000000002,-5476.2299999999996,3575.6100000000001,4560.3599999999997,937.81700000000001
166350.0,14050.299999999999,-1257.04,4674.6000000000004,-6537.1800000000003,3839.5999999999999,4304.0699999999997,1036.8800000000001
166351.0,14622.299999999999,-1289.1900000000001,4740.7399999999998,-7500.8999999999996,4085.6500000000001,3981.4699999999998,1122.02
166352.0,9850.0900000000001,-2545.98,4002.1300000000001,2701.4200000000001,2229.3600000000001,3895.4699999999998,423.39699999999999
166353.0,9942.3999999999996,-2230.5500000000002,4056.0700000000002,2253.2800000000002,2227.1399999999999,4166.2799999999997,391.16800000000001
166354.0,10193.6,-2092.1799999999998,4105.8900000000003,1580.4400000000001,2309.8400000000001,4406.5,412.58100000000002
166355.0,10568.6,-2033.02,4180.7799999999997,769.49699999999996,2455.1700000000001,4614.1400000000003,479.79700000000003
166356.0,11036.700000000001,-2045.73,4246.6599999999999,-168.34999999999999,2643.96,4780.2600000000002,571.41999999999996
166357.0,11572.4,-2069.0799999999999,4333.1000000000004,-1165.23,2862.77,4897.1899999999996,675.11800000000005
166358.0,12161.200000000001,-2126.3699999999999,4404.6099999999997,-2233.5999999999999,3104.6399999999999,4958.79,784.28499999999997
166359.0,12795.4,-2194.9000000000001,4481.5900000000001,-3337.0100000000002,3366.21,4960.3699999999999,895.97400000000005
166360.0,13470.9,-2288.46,4552.75,-4475.4399999999996,3645.6300000000001,4899.1199999999999,1007.21
166361.0,14176.4,-2403.6999999999998,4619.3400000000001,-5629.0900000000001,3938.5999999999999,4771.96,1116.46
166362.0,14901.299999999999,-2529.79,4689.5799999999999,-6773.9899999999998,4240.9899999999998,4577.7200000000003,1217.8900000000001
166363.0,15617.1,-2674.5500000000002,4740.3500000000004,-7898.3999999999996,4539.8900000000003,4316.5100000000002,1311.5699999999999
166364.0,16279.799999999999,-2796.0100000000002,4785.8999999999996,-8940.5599999999995,4819.2399999999998,3988.98,1389.6500000000001
166365.0,10622.0,-3393.0500000000002,4086.1700000000001,1859.74,2606.2600000000002,3945.1199999999999,710.221
166366.0,10735.5,-3097.25,4134.7600000000002,1395.8,2619.73,4214.7600000000002,676.59199999999998
166367.0,11039.700000000001,-2992.9200000000001,4185.46,691.07899999999995,2726.0500000000002,4451.7700000000004,699.83399999999995
166368.0,11489.799999999999,-2982.29,4261.3900000000003,-166.416,2900.6100000000001,4654.3199999999997,771.14999999999998
166369.0,12047.799999999999,-3056.8800000000001,4325.04,-1163.0699999999999,3123.0,4814.2700000000004,867.71400000000006
166370.0,12681.5,-3154.21,4403.9099999999999,-2228.8400000000001,3377.8000000000002,4924.3900000000003,975.71000000000004
166371.0,13373.200000000001,-3283.6500000000001,4474.8999999999996,-3361.75,3656.79,4978.8999999999996,1087.8599999999999
166372.0,14112.9,-3426.9699999999998,4552.2200000000003,-4529.9700000000003,3956.1599999999999,4973.5600000000004,1200.9200000000001
166373.0,14895.4,-3600.4299999999998,4621.3100000000004,-5736.4399999999996,4273.71,4905.6599999999999,1311.6900000000001
166374.0,15708.0,-3794.9699999999998,4688.8900000000003,-6955.2399999999998,4604.5200000000004,4772.2700000000004,1418.6300000000001
166375.0,16538.599999999999,-4003.0599999999999,4757.7399999999998,-8167.1400000000003,4944.3000000000002,4572.5100000000002,1515.47
166376.0,17357.0,-4227.1800000000003,4809.9499999999998,-9354.75,5279.2299999999996,4306.7200000000003,1603.21
166377.0,18115.200000000001,-4409.0100000000002,4872.2799999999997,-10440.5,5593.0299999999997,3975.29,1673.6400000000001
166378.0,11516.4,-4305.9499999999998,4171.8999999999996,936.58600000000001,3006.3600000000001,3979.6500000000001,1014.51
166379.0,11653.6,-4033.6199999999999,4214.21,456.56,3036.3600000000001,4247.1599999999999,979.72500000000002
166380.0,12015.5,-3968.96,4264.9700000000003,-281.74599999999998,3167.7600000000002,4479.6899999999996,1005.3099999999999
166381.0,12546.4,-4024.27,4330.21,-1199.3199999999999,3373.5100000000002,4675.6599999999999,1081.28
166382.0,13199.6,-4160.5900000000001,4398.8500000000004,-2250.0900000000001,3630.8899999999999,4827.71,1182.71
166383.0,13936.4,-4333.3699999999999,4476.4200000000001,-3380.8899999999999,3922.9099999999999,4929.4300000000003,1294.9000000000001
166384.0,14735.9,-4537.7399999999998,4551.4700000000003,-4575.6099999999997,4240.6499999999996,4975.71,1409.95
166385.0,15586.0,-4773.4200000000001,4620.1800000000003,-5819.9399999999996,4579.4399999999996,4962.3000000000002,1524.24
166386.0,16480.299999999999,-5023.1499999999996,4700.0600000000004,-7083.75,4936.5900000000001,4887.2200000000003,1634.3099999999999
166387.0,17403.799999999999,-5317.6999999999998,4755.5600000000004,-8382.1700000000001,5306.4799999999996,4747.5699999999997,1738.5
166388.0,18343.900000000001,-5602.0,4837.6999999999998,-9648.4099999999999,5684.6999999999998,4542.3999999999996,1830.1400000000001
166389.0,19268.799999999999,-5926.4099999999999,4878.4200000000001,-10913.700000000001,6056.6199999999999,4272.8199999999997,1911.55
166390.0,20126.099999999999,-6201.5600000000004,4932.1000000000004,-12070.200000000001,6405.9099999999999,3938.23,1973.54
166391.0,12535.6,-5289.6400000000003,4257.2799999999997,-73.895799999999994,3430.3299999999999,3996.98,1336.4100000000001
166392.0,12698.9,-5037.6300000000001,4300.1300000000001,-562.54999999999995,3477.46,4261.3400000000001,1300.5599999999999
166393.0,13121.9,-5022.1899999999996,4346.3800000000001,-1340.0999999999999,3634.7199999999998,4487.9399999999996,1328.46
166394.0,13737.9,-5131.2700000000004,4419.7399999999998,-2301.0500000000002,3872.5700000000002,4675.5900000000001,1409.1199999999999
166395.0,14491.6,-5351.0500000000002,4478.46,-3422.7600000000002,4166.8599999999997,4818.0699999999997,1515.9100000000001
166396.0,15337.200000000001,-5605.8500000000004,4556.0799999999999,-4619.4799999999996,4498.2399999999998,4909.71,1632.6099999999999
166397.0,16249.700000000001,-5903.6400000000003,4626.5699999999997,-5887.3999999999996,4856.3599999999997,4946.1099999999997,1750.49
166398.0,17214.5,-6223.3599999999997,4702.9799999999996,-7192.6400000000003,5235.79,4924.1099999999997,1865.77
166399.0,18224.200000000001,-6581.9799999999996,4768.3500000000004,-8540.2199999999993,5633.6599999999999,4841.3999999999996,1974.6300000000001
166400.0,19262.900000000001,-6957.8299999999999,4840.5600000000004,-9891.6900000000005,6043.5799999999999,4695.2200000000003,2075.5500000000002
166401.0,20315.900000000001,-7353.6000000000004,4908.5500000000002,-11240.799999999999,6460.9499999999998,4485.3000000000002,2161.4099999999999
166402.0,21350.200000000001,-7760.5900000000001,4963.8999999999996,-12559.299999999999,6870.1700000000001,4212.5500000000002,2235.6900000000001
166403.0,22310.5,-8120.6999999999998,5026.0100000000002,-13771.299999999999,7255.29,3876.0999999999999,2288.6199999999999
166404.0,13680.9,-6340.7299999999996,4349.6700000000001,-1168.5799999999999,3878.52,3994.6100000000001,1675.77
166405.0,13872.5,-6121.21,4384.0200000000004,-1673.6900000000001,3943.5300000000002,4254.9200000000001,1639.27
166406.0,14360.700000000001,-6154.8900000000003,4430.7600000000002,-2485.8200000000002,4128.04,4474.3800000000001,1670.0799999999999
166407.0,15066.4,-6343.4700000000003,4492.3699999999999,-3511.4899999999998,4399.8299999999999,4652.0100000000002,1755.8800000000001
166408.0,15924.9,-6636.9300000000003,4559.3599999999997,-4688.71,4731.9799999999996,4782.6899999999996,1867.72
166409.0,16883.5,-6983.75,4635.8599999999997,-5954.5,5103.6099999999997,4862.5100000000002,1988.6099999999999
166410.0,17912.700000000001,-7376.6499999999996,4706.5100000000002,-7291.0900000000001,5503.29,4888.2399999999998,2109.0100000000002
166411.0,18997.0,-7804.3699999999999,4777.0500000000002,-8673.6700000000001,5924.5900000000001,4856.25,2224.8499999999999
166412.0,20126.799999999999,-8247.8199999999997,4863.5799999999999,-10071.700000000001,6363.8599999999997,4765.4099999999999,2332.0599999999999
166413.0,21283.299999999999,-8749.6399999999994,4914.21,-11514.6,6814.3500000000004,4613.2399999999998,2429.0300000000002
166414.0,22452.400000000001,-9229.25,5005.0299999999997,-12911.1,7271.1599999999999,4398.7399999999998,2508.3099999999999
166415.0,23599.5,-9755.1700000000001,5046.8199999999997,-14312.0,7718.0200000000004,4124.2399999999998,2574.9200000000001
166416.0,24665.299999999999,-10224.4,5099.7600000000002,-15598.4,8139.0500000000002,3787.04,2617.8699999999999
166417.0,14953.200000000001,-7472.71,4437.2600000000002,-2361.0100000000002,4351.6199999999999,3970.4499999999998,2033.01
166418.0,15174.9,-7275.3800000000001,4477.7299999999996,-2867.4299999999998,4434.8000000000002,4225.6300000000001,1995.6800000000001
166419.0,15731.1,-7371.8900000000003,4517.4300000000003,-3723.4299999999998,4647.04,4436.1000000000004,2029.3599999999999
166420.0,16530.5,-7621.9300000000003,4593.1199999999999,-4790.29,4953.4799999999996,4601.5200000000004,2120.29
166421.0,17498.5,-8020.5799999999999,4643.5600000000004,-6048.4899999999998,5325.5,4718.6599999999999,2237.73
166422.0,18575.0,-8462.0499999999993,4724.9099999999999,-7379.0799999999999,5739.1899999999996,4784.8199999999997,2362.6399999999999
166423.0,19727.299999999999,-8962.2099999999991,4797.7299999999996,-8786.6000000000004,6181.3999999999996,4797.8000000000002,2485.21
166424.0,20934.400000000001,-9488.9400000000005,4878.3900000000003,-10229.6,6645.1999999999998,4756.2200000000003,2601.1700000000001
166425.0,22185.799999999999,-10075.6,4931.6400000000003,-11731.6,7126.5,4657.3900000000003,2705.8200000000002
166426.0,23464.299999999999,-10652.9,5023.5600000000004,-13205.299999999999,7617.71,4498.7799999999997,2798.1300000000001
166427.0,24752.200000000001,-11276.9,5084.1899999999996,-14702.5,8113.8500000000004,4281.2799999999997,2869.9699999999998
166428.0,26013.900000000001,-11889.700000000001,5152.0900000000001,-16147.0,8597.7399999999998,4005.8299999999999,2927.9099999999999
166429.0,27189.299999999999,-12460.1,5213.8699999999999,-17492.099999999999,9054.3299999999999,3669.8200000000002,2960.0999999999999
166430.0,16353.0,-8668.3400000000001,4541.8299999999999,-3633.3499999999999,4849.6999999999998,3921.2199999999998,2407.4699999999998
166431.0,16606.599999999999,-8520.2700000000004,4564.6599999999999,-4163.1700000000001,4951.71,4170.4799999999996,2370.2600000000002
166432.0,17234.5,-8671.6599999999999,4609.46,-5050.21,5193.5,4370.8800000000001,2407.7199999999998
166433.0,18131.599999999999,-9022.5100000000002,4666.1099999999997,-6192.8100000000004,5536.3400000000001,4521.8000000000002,2504.0100000000002
166434.0,19213.799999999999,-9501.3799999999992,4737.3199999999997,-7498.6700000000001,5948.4899999999998,4622.1000000000004,2626.0999999999999
166435.0,20413.099999999999,-10056.700000000001,4815.1000000000004,-8903.6200000000008,6404.7200000000003,4673.3400000000001,2754.5700000000002
166436.0,21689.200000000001,-10677.6,4877.4899999999998,-10390.799999999999,6890.3100000000004,4674.4300000000003,2878.6399999999999
166437.0,23024.0,-11331.200000000001,4953.3599999999997,-11913.6,7397.0699999999997,4620.9099999999999,2993.6500000000001
166438.0,24404.400000000001,-11989.799999999999,5063.25,-13433.9,7920.3999999999996,4513.5500000000002,3095.4000000000001
166439.0,25805.5,-12742.700000000001,5099.0100000000002,-15033.700000000001,8452.1800000000003,4350.5200000000004,3181.8400000000001
166440.0,27213.799999999999,-13439.299999999999,5210.0200000000004,-16551.700000000001,8987.0400000000009,4130.0799999999999,3245.0999999999999
166441.0,28592.799999999999,-14197.4,5254.0299999999997,-18090.0,9507.2299999999996,3856.4000000000001,3293.5300000000002
166442.0,29877.5,-14887.799999999999,5308.0600000000004,-19510.0,9998.1499999999996,3523.6300000000001,3313.7199999999998
166443.0,17877.700000000001,-9962.2600000000002,4623.6599999999999,-5018.6300000000001,5373.4300000000003,3845.8600000000001,2800.9699999999998
166444.0,18165.900000000001,-9835.1900000000005,4664.4399999999996,-5538.1000000000004,5494.9399999999996,4087.29,2762.9499999999998
166445.0,18869.799999999999,-10063.700000000001,4703.8800000000001,-6473.1800000000003,5766.0699999999997,4273.6999999999998,2803.79
166446.0,19871.0,-10485.299999999999,4784.75,-7652.1099999999997,6146.3699999999999,4406.5699999999997,2905.8299999999999
166447.0,21072.700000000001,-11097.4,4829.1099999999997,-9050.5900000000001,6601.5799999999999,4489.6800000000003,3033.2800000000002
166448.0,22400.0,-11769.0,4910.1700000000001,-10525.0,7101.9300000000003,4524.5,3164.3400000000001
166449.0,23811.0,-12490.9,5007.6000000000004,-12056.5,7631.0,4510.1700000000001,3289.21
166450.0,25275.0,-13264.1,5089.1999999999998,-13643.4,8180.9300000000003,4448.0100000000002,3402.8699999999999
166451.0,26778.299999999999,-14125.0,5115.8900000000003,-15314.4,8746.1200000000008,4333.5500000000002,3499.6199999999999
166452.0,28307.5,-14919.700000000001,5247.3500000000004,-16892.5,9317.6900000000005,4164.8299999999999,3579.1599999999999
166453.0,29838.299999999999,-15806.1,5298.54,-18540.5,9890.2299999999996,3945.3299999999999,3632.6599999999999
166454.0,31333.599999999999,-16651.400000000001,5380.4700000000003,-20110.5,10445.1,3674.4299999999998,3670.0799999999999
166455.0,32732.5,-17445.400000000001,5456.6899999999996,-21578.700000000001,10969.200000000001,3347.98,3677.1999999999998
166456.0,19516.0,-11294.700000000001,4740.1099999999997,-6453.79,5919.6700000000001,3739.3200000000002,3207.98
166457.0,19848.099999999999,-11247.6,4752.7200000000003,-7013.2299999999996,6062.1999999999998,3970.8099999999999,3173.1300000000001
166458.0,20637.5,-11547.9,4799.1700000000001,-7984.8599999999997,6367.9399999999996,4141.2799999999997,3221.1900000000001
166459.0,21752.099999999999,-12109.1,4846.9200000000001,-9261.4899999999998,6789.6999999999998,4252.8800000000001,3329.7199999999998
166460.0,23084.599999999999,-12804.5,4939.9499999999998,-10687.799999999999,7288.25,4313.9899999999998,3460.4899999999998
166461.0,24547.700000000001,-13608.799999999999,5022.6999999999998,-12235.200000000001,7832.9300000000003,4333.8999999999996,3593.9400000000001
166462.0,26084.099999999999,-14505.799999999999,5060.2700000000004,-13890.5,8406.7600000000002,4309.3400000000001,3718.29
166463.0,27683.5,-15423.0,5141.3999999999996,-15557.200000000001,8999.7999999999993,4232.7700000000004,3828.1700000000001
166464.0,29328.799999999999,-16287.700000000001,5325.3800000000001,-17152.0,9606.25,4110.5100000000002,3919.98
166465.0,30980.700000000001,-17357.799999999999,5309.8800000000001,-18942.599999999999,10216.700000000001,3942.4299999999998,3990.4400000000001
166466.0,32631.200000000001,-18272.5,5466.1899999999996,-20553.900000000001,10825.200000000001,3723.3000000000002,4031.8600000000001
166467.0,34244.900000000001,-19291.599999999999,5509.3900000000003,-22232.599999999999,11412.5,3460.6700000000001,4056.8400000000001
166468.0,35749.599999999999,-20222.799999999999,5563.6000000000004,-23788.700000000001,11966.5,3143.6700000000001,4049.3499999999999
166469.0,21239.799999999999,-12739.200000000001,4782.1999999999998,-8001.46,6484.4099999999999,3605.8299999999999,3630.79
166470.0,21635.700000000001,-12709.0,4859.25,-8534.5699999999997,6652.3999999999996,3817.25,3600.71
166471.0,22541.700000000001,-13136.0,4910.6499999999996,-9580.5,6994.8199999999997,3958.1399999999999,3660.1399999999999
166472.0,23794.099999999999,-13783.6,5013.8599999999997,-10876.5,7463.9399999999996,4044.2600000000002,3777.6300000000001
166473.0,25265.799999999999,-14681.4,5033.1000000000004,-12445.700000000001,8012.2200000000003,4092.0799999999999,3913.8499999999999
166474.0,26867.200000000001,-15629.5,5108.3999999999996,-14079.5,8604.1700000000001,4094.0799999999999,4047.5799999999999
166475.0,28560.0,-16575.400000000001,5277.4799999999996,-15698.1,9222.0699999999997,4050.2800000000002,4170.2200000000003
166476.0,30292.5,-17629.799999999999,5359.3999999999996,-17428.0,9858.1700000000001,3971.3200000000002,4276.4399999999996
166477.0,32048.299999999999,-18848.900000000001,5294.04,-19324.799999999999,10506.0,3847.0,4357.9399999999996
166478.0,33832.599999999999,-19834.799999999999,5520.8500000000004,-20947.799999999999,11153.9,3675.6300000000001,4416.5900000000001
166479.0,35606.400000000001,-21021.900000000001,5548.0100000000002,-22756.5,11796.0,3466.6900000000001,4444.5600000000004
166480.0,37327.5,-22109.099999999999,5646.3100000000004,-24444.200000000001,12413.1,3213.9400000000001,4452.6099999999997
166481.0,38946.400000000001,-23115.299999999999,5761.3999999999996,-26014.200000000001,12994.299999999999,2911.9400000000001,4429.1999999999998
166482.0,22982.400000000001,-14028.0,4987.3599999999997,-9395.7900000000009,7044.6599999999999,3437.2600000000002,4037.5799999999999
166483.0,23510.099999999999,-14280.5,4951.5600000000004,-10136.9,7241.46,3605.79,4043.5999999999999
166484.0,24576.900000000001,-14853.799999999999,5006.3699999999999,-11256.4,7646.4499999999998,3718.0999999999999,4132.1199999999999
166485.0,25994.0,-15750.4,5018.4499999999998,-12733.0,8174.8699999999999,3783.3499999999999,4261.4300000000003
166486.0,27635.099999999999,-16707.0,5161.8500000000004,-14287.6,8774.6100000000006,3804.9499999999998,4400.54
166487.0,29391.700000000001,-17775.099999999999,5281.6700000000001,-15958.1,9415.5900000000001,3792.9000000000001,4536.1999999999998
166488.0,31203.0,-19061.400000000001,5205.21,-17867.099999999999,10085.6,3747.4699999999998,4655.5500000000002
166489.0,33082.300000000003,-20250.700000000001,5318.9099999999999,-19649.900000000001,10769.0,3651.4299999999998,4751.1199999999999
166490.0,35009.900000000001,-21276.799999999999,5670.5,-21229.0,11456.6,3524.0700000000002,4823.75
166491.0,36909.300000000003,-22729.5,5553.3500000000004,-23248.200000000001,12142.9,3367.96,4866.7700000000004
166492.0,38790.400000000001,-23867.200000000001,5755.1499999999996,-24942.0,12817.6,3168.29,4872.6599999999999
166493.0,40620.900000000001,-25113.599999999999,5831.5,-26716.200000000001,13460.0,2936.8299999999999,4861.6999999999998
166494.0,42323.099999999999,-26319.400000000001,5837.5100000000002,-28452.5,14062.799999999999,2658.7199999999998,4814.5
166495.0,24585.599999999999,-15556.200000000001,4788.9799999999996,-11017.9,7555.0200000000004,3253.2399999999998,4445.0799999999999
166496.0,25412.200000000001,-15851.5,5034.2700000000004,-11699.5,7830.21,3349.5599999999999,4525.8100000000004
166497.0,26743.200000000001,-16669.799999999999,5127.8500000000004,-12968.700000000001,8313.5699999999997,3410.0599999999999,4647.8400000000001
166498.0,28379.400000000001,-17667.0,5264.7299999999996,-14466.799999999999,8908.6900000000005,3443.3699999999999,4795.9899999999998
166499.0,30188.400000000001,-18947.599999999999,5231.7600000000002,-16277.0,9575.5900000000001,3447.9099999999999,4946.3599999999997
166500.0,32116.400000000001,-20273.299999999999,5265.04,-18126.299999999999,10280.700000000001,3413.4400000000001,5080.8500000000004
166501.0,34139.099999999999,-21387.900000000001,5638.3199999999997,-19716.700000000001,10999.4,3343.29,5194.1700000000001
166502.0,36162.0,-22779.700000000001,5703.5100000000002,-21599.0,11732.9,3263.6199999999999,5282.0699999999997
166503.0,38168.300000000003,-24520.799999999999,5384.0600000000004,-23861.200000000001,12473.799999999999,3151.25,5330.1099999999997
166504.0,40206.900000000001,-25623.599999999999,5801.3800000000001,-25424.799999999999,13197.200000000001,2999.5900000000001,5347.3000000000002
166505.0,42211.199999999997,-27111.299999999999,5814.29,-27372.200000000001,13902.1,2832.7199999999998,5327.8199999999997
166506.0,44127.900000000001,-28464.299999999999,5883.6099999999997,-29213.900000000001,14567.9,2630.8299999999999,5283.6499999999996
166507.0,45932.099999999999,-29569.099999999999,6123.5500000000002,-30791.5,15188.799999999999,2380.3899999999999,5214.4300000000003
166508.0,49151.900000000001,-81078.100000000006,-28837.299999999999,-70753.0,-5309.75,-1533.5799999999999,3052.7800000000002
166509.0,43884.400000000001,-84251.300000000003,-36854.400000000001,-63442.800000000003,-8040.0100000000002,296.89100000000002,3579.6700000000001
166510.0,44739.0,-72673.300000000003,-32684.400000000001,-49304.900000000001,-8283.1499999999996,5653.8699999999999,12768.799999999999
166511.0,48516.400000000001,-51390.599999999999,-13030.700000000001,-38802.900000000001,-2434.0,9116.2299999999996,17698.200000000001
166512.0,42126.199999999997,-30844.599999999999,4467.0100000000002,-27537.299999999999,3544.6700000000001,6517.1000000000004,12495.9
166513.0,33854.400000000001,-23369.900000000001,6996.0200000000004,-20514.099999999999,4773.6400000000003,3008.3000000000002,8308.2000000000007
166514.0,29587.0,-21476.599999999999,5820.8800000000001,-17464.700000000001,4607.9300000000003,1493.45,7147.5699999999997
166515.0,26298.799999999999,-18071.200000000001,6565.6999999999998,-13281.299999999999,4446.6800000000003,490.54399999999998,6315.96
166516.0,23456.799999999999,-16436.599999999999,5793.3400000000001,-10872.0,4135.9799999999996,-226.21899999999999,5695.46
166517.0,21102.700000000001,-14315.1,5816.1400000000003,-8211.1000000000004,3836.5100000000002,-713.48299999999995,5163.9300000000003
166518.0,18981.200000000001,-12757.1,5400.0200000000004,-6213.6899999999996,3524.7199999999998,-1097.24,4680.3699999999999
166519.0,17109.900000000001,-11097.200000000001,5247.9700000000003,-4241.3999999999996,3229.2399999999998,-1387.6800000000001,4226.1199999999999
166520.0,15423.200000000001,-9681.5,4958.8800000000001,-2589.3200000000002,2942.27,-1624.6099999999999,3793.8299999999999
166521.0,13924.1,-8287.1700000000001,4766.0,-1033.25,2669.8000000000002,-1813.72,3381.8299999999999
166522.0,12602.1,-7021.5699999999997,4552.4099999999999,335.84500000000003,2409.9400000000001,-1966.02,2992.1700000000001
166523.0,11445.200000000001,-5818.9899999999998,4383.3100000000004,1579.24,2170.1700000000001,-2086.2800000000002,2611.8099999999999
166524.0,10437.9,-4710.8900000000003,4202.7799999999997,2683.1500000000001,1945.97,-2183.8600000000001,2240.8899999999999
166525.0,9583.1499999999996,-3694.8200000000002,4014.7199999999998,3655.23,1734.1199999999999,-2258.5599999999999,1890.0799999999999
166526.0,8874.8999999999996,-2748.4699999999998,3842.8400000000001,4520.2200000000003,1536.8900000000001,-2312.0100000000002,1556.97
166527.0,8305.2399999999998,-1884.53,3669.0100000000002,5272.4700000000003,1355.4200000000001,-2347.6999999999998,1239.98
166528.0,7865.3199999999997,-1086.02,3507.0100000000002,5934.3199999999997,1188.8099999999999,-2368.3499999999999,941.58900000000006
166529.0,7540.0799999999999,-366.16000000000003,3341.0999999999999,6494.8299999999999,1035.8599999999999,-2376.1100000000001,661.97299999999996
166530.0,7311.5299999999997,307.69600000000003,3199.5799999999999,6989.5900000000001,895.26300000000003,-2372.4499999999998,400.38499999999999
166531.0,7161.2600000000002,906.37599999999998,3049.4699999999998,7392.4799999999996,766.10900000000004,-2358.4899999999998,156.524
166532.0,7071.6300000000001,1460.1400000000001,2917.8099999999999,7736.8599999999997,647.73599999999999,-2335.3699999999999,-70.086100000000002
166533.0,7026.5100000000002,1945.71,2777.71,8002.1700000000001,539.48800000000006,-2304.3299999999999,-279.767
166534.0,7011.5600000000004,2390.75,2653.27,8218.2199999999993,440.67399999999998,-2266.3800000000001,-473.04700000000003
166535.0,7014.9799999999996,2779.1599999999999,2524.79,8370.9099999999999,350.529,-2222.4299999999998,-650.38199999999995
166536.0,7027.4099999999999,3135.7600000000002,2413.8200000000002,8486.8799999999992,268.45800000000003,-2173.23,-812.51700000000005
166537.0,7041.8699999999999,3434.8800000000001,2291.4400000000001,8542.2600000000002,193.88800000000001,-2119.5700000000002,-959.97699999999998
166538.0,7052.8900000000003,3709.8600000000001,2188.1399999999999,8571.7399999999998,126.31999999999999,-2062.0900000000001,-1093.4200000000001
166539.0,7056.96,3935.9099999999999,2075.9899999999998,8551.9200000000001,65.188299999999998,-2001.5,-1213.48
166540.0,7051.2600000000002,4147.8299999999999,1987.23,8518.6599999999999,10.0015,-1938.27,-1320.79
166541.0,7034.4200000000001,4308.6800000000003,1882.0799999999999,8436.0699999999997,-39.682400000000001,-1872.95,-1416.01
166542.0,7005.3699999999999,4458.79,1798.5599999999999,8345.3199999999997,-84.258099999999999,-1805.96,-1499.8099999999999
166543.0,6963.8999999999996,4562.5,1698.49,8211.6000000000004,-124.16,-1737.75,-1572.77
166544.0,6909.8400000000001,4665.21,1625.25,8080.8800000000001,-159.75700000000001,-1668.6500000000001,-1635.49
166545.0,6843.71,4724.54,1534.21,7911.4300000000003,-191.404,-1599.03,-1688.6099999999999
166546.0,6765.8599999999997,4785.9799999999996,1469.03,7749.1700000000001,-219.405,-1529.1300000000001,-1732.6600000000001
166547.0,6677.1499999999996,4806.3400000000001,1384.51,7551.3800000000001,-244.07300000000001,-1459.28,-1768.22
166548.0,6578.0100000000002,4835.1899999999996,1328.74,7367.8999999999996,-265.70999999999998,-1389.6400000000001,-1795.77
166549.0,6469.8100000000004,4816.2399999999998,1243.45,7142.8100000000004,-284.548,-1320.54,-1816.03
166550.0,6352.5600000000004,4810.3100000000004,1188.3,6937.0200000000004,-300.846,-1251.9400000000001,-1829.0799999999999
166551.0,6228.4899999999998,4765.46,1109.29,6699.1000000000004,-314.80700000000002,-1184.3399999999999,-1835.99
166552.0,6096.3400000000001,4747.3800000000001,1071.72,6494.5500000000002,-326.80900000000003,-1117.4300000000001,-1836.1199999999999
166553.0,5960.6700000000001,4676.9300000000003,993.51900000000001,6245.1300000000001,-336.93000000000001,-1052.1099999999999,-1831.6700000000001
166554.0,5816.4399999999996,4640.1999999999998,961.84699999999998,6035.9300000000003,-345.64800000000002,-987.25099999999998,-1819.9100000000001
166555.0,5675.5699999999997,4540.0299999999997,873.57100000000003,5772.6899999999996,-352.95999999999998,-925.178,-1806.3499999999999
166556.0,5520.8800000000001,4510.7200000000003,869.10799999999995,5585.8500000000004,-359.738,-862.39300000000003,-1782.1600000000001
166557.0,5387.0799999999999,4376.3100000000004,757.00599999999997,5308.3900000000003,-365.70499999999998,-805.75900000000001,-1763.53
166558.0,5223.21,4401.2399999999998,819.19399999999996,5196.4200000000001,-374.399,-744.79100000000005,-1721.0
166559.0,5098.4499999999998,4190.6499999999996,642.27300000000002,4855.3900000000003,-377.68400000000003,-694.68899999999996,-1705.5699999999999
166560.0,4970.04,4330.5699999999997,759.07899999999995,4974.3599999999997,-431.70600000000002,-641.471,-1574.6400000000001
166561.0,4500.4899999999998,4202.8699999999999,831.42999999999995,4646.71,-452.15600000000001,-521.95100000000002,-1386.0899999999999
166562.0,44986.800000000003,-113496.0,-70676.300000000003,-92565.899999999994,-14694.299999999999,324.154,332.99299999999999
166563.0,44802.300000000003,-100207.0,-71735.199999999997,-75968.199999999997,-14850.5,7398.0,12561.9
166564.0,54777.599999999999,-69805.699999999997,-42362.0,-56003.699999999997,-7829.1099999999997,11888.9,24683.200000000001
166565.0,51489.099999999999,-38852.0,-6166.5900000000001,-38593.400000000001,1400.8,9903.3700000000008,20745.0
166566.0,40011.099999999999,-24437.0,7023.79,-26061.700000000001,5051.5500000000002,4992.3800000000001,11633.700000000001
166567.0,32600.400000000001,-22716.099999999999,5553.6199999999999,-21210.799999999999,5152.4399999999996,2474.0300000000002,8284.4400000000005
166568.0,28843.0,-19591.700000000001,6306.0,-16330.5,4993.96,1369.25,7178.8500000000004
166569.0,25533.700000000001,-17587.400000000001,5959.8299999999999,-12944.1,4705.5699999999997,533.774,6271.3599999999997
166570.0,22884.299999999999,-15703.0,5762.1700000000001,-10052.5,4379.3699999999999,-2.00867,5620.1800000000003
166571.0,20591.700000000001,-14011.299999999999,5513.6700000000001,-7642.4099999999999,4046.5900000000001,-406.97899999999998,5064.8900000000003
166572.0,18569.099999999999,-12415.0,5302.5500000000002,-5511.96,3724.52,-715.096,4560.7299999999996
166573.0,16758.700000000001,-10932.799999999999,5085.0299999999997,-3641.4000000000001,3410.8899999999999,-965.75400000000002,4091.1500000000001
166574.0,15135.4,-9539.7700000000004,4879.9099999999999,-1963.24,3109.3099999999999,-1169.04,3646.8499999999999
166575.0,13684.200000000001,-8243.3600000000006,4670.8299999999999,-471.34899999999999,2820.0599999999999,-1337.47,3226.04
166576.0,12398.0,-7021.7700000000004,4480.3500000000004,871.71500000000003,2543.7399999999998,-1475.4200000000001,2825.73
166577.0,11269.299999999999,-5886.54,4294.25,2064.27,2284.1300000000001,-1587.3299999999999,2440.4699999999998
166578.0,10293.0,-4824.8900000000003,4115.6199999999999,3132.0100000000002,2043.5,-1677.9200000000001,2070.9099999999999
166579.0,9467.5499999999993,-3839.8400000000001,3939.3699999999999,4077.8600000000001,1820.1500000000001,-1750.49,1721.46
166580.0,8786.9500000000007,-2927.46,3770.0100000000002,4911.4099999999999,1612.95,-1807.01,1391.21
166581.0,8242.2700000000004,-2087.5,3605.04,5638.7700000000004,1420.8699999999999,-1849.6800000000001,1079.55
166582.0,7821.2200000000003,-1308.6199999999999,3452.6599999999999,6275.6300000000001,1242.97,-1879.9100000000001,786.20799999999997
166583.0,7509.29,-596.298,3303.6700000000001,6820.9899999999998,1078.54,-1898.9100000000001,510.97300000000001
166584.0,7290.3299999999999,52.731099999999998,3158.3400000000001,7282.1599999999999,927.02499999999998,-1907.8900000000001,253.685
166585.0,7146.9399999999996,640.48099999999999,3015.2800000000002,7664.4499999999998,787.63699999999994,-1908.03,14.2652
166586.0,7061.7799999999997,1180.78,2884.8000000000002,7984.54,659.60000000000002,-1900.25,-207.77799999999999
166587.0,7019.0799999999999,1662.8399999999999,2752.7199999999998,8234.3600000000006,542.11199999999997,-1885.3800000000001,-412.863
166588.0,7005.3000000000002,2109.0500000000002,2638.21,8438.8299999999999,434.50599999999997,-1864.1900000000001,-601.56600000000003
166589.0,7009.1999999999998,2494.8800000000001,2513.5900000000001,8575.6299999999992,336.202,-1837.4300000000001,-774.46799999999996
166590.0,7021.8000000000002,2851.0500000000002,2406.5700000000002,8677.4400000000005,246.55500000000001,-1805.78,-932.15700000000004
166591.0,7036.3299999999999,3156.77,2293.21,8725.2299999999996,164.94999999999999,-1769.8900000000001,-1075.26
166592.0,7047.4799999999996,3439.3699999999999,2198.1599999999999,8747.7999999999993,90.816500000000005,-1730.27,-1204.3900000000001
166593.0,7051.8199999999997,3670.9000000000001,2090.5999999999999,8718.6299999999992,23.667100000000001,-1687.48,-1320.3399999999999
166594.0,7046.7299999999996,3882.5100000000002,1999.21,8670.0799999999999,-37.032499999999999,-1641.96,-1423.6400000000001
166595.0,7030.7299999999996,4052.1199999999999,1899.3900000000001,8581.1700000000001,-91.7316,-1594.1500000000001,-1514.99
166596.0,7002.8299999999999,4211.0600000000004,1820.1600000000001,8484.1599999999999,-140.89599999999999,-1544.4400000000001,-1594.98
166597.0,6962.75,4328.7200000000003,1728.6099999999999,8349.2099999999991,-184.90299999999999,-1493.1900000000001,-1664.3199999999999
166598.0,6910.3599999999997,4437.7600000000002,1655.4100000000001,8209.7099999999991,-224.19300000000001,-1440.71,-1723.51
166599.0,6846.1300000000001,4506.6700000000001,1566.99,8034.7600000000002,-259.07100000000003,-1387.3099999999999,-1773.3
166600.0,6770.3599999999997,4575.1599999999999,1501.28,7864.6199999999999,-289.94799999999998,-1333.22,-1814.0699999999999
166601.0,6683.8599999999997,4604.0699999999997,1417.28,7660.5,-317.065,-1278.72,-1846.5699999999999
166602.0,6587.1199999999999,4637.0600000000004,1357.0799999999999,7466.46,-340.79700000000003,-1223.97,-1871.1099999999999
166603.0,6481.3599999999997,4638.4200000000001,1283.26,7247.1899999999996,-361.36500000000001,-1169.26,-1888.48
166604.0,6366.6199999999999,4651.1000000000004,1237.6099999999999,7045.8000000000002,-379.10399999999998,-1114.5999999999999,-1898.6700000000001
166605.0,6245.0100000000002,4621.0600000000004,1164.22,6808.6000000000004,-394.161,-1060.4000000000001,-1902.95
166606.0,6115.4899999999998,4603.6599999999999,1117.78,6590.8299999999999,-406.952,-1006.42,-1900.5599999999999
166607.0,5982.1400000000003,4547.7200000000003,1044.6400000000001,6342.25,-417.55099999999999,-953.40200000000004,-1893.6500000000001
166608.0,5840.4700000000003,4524.4300000000003,1016.6799999999999,6133.04,-426.45400000000001,-900.46400000000006,-1879.5799999999999
166609.0,5701.1199999999999,4444.1199999999999,939.23699999999997,5876.3000000000002,-433.68799999999999,-849.48699999999997,-1863.5699999999999
166610.0,5548.7399999999998,4422.1700000000001,932.41099999999994,5683.5299999999997,-440.02600000000001,-797.625,-1837.3699999999999
166611.0,5413.6400000000003,4293.8900000000003,818.98699999999997,5397.7799999999997,-445.17099999999999,-750.26599999999996,-1816.1099999999999
166612.0,5254.0699999999997,4307.5600000000004,858.21400000000006,5261.5299999999997,-452.601,-699.221,-1772.51
166613.0,5116.9200000000001,4110.8500000000004,694.26800000000003,4910.5500000000002,-452.56999999999999,-654.52300000000002,-1754.8399999999999
166614.0,5000.4499999999998,4173.8500000000004,718.74199999999996,4933.3999999999996,-495.315,-606.10400000000004,-1635.78
166615.0,4536.1800000000003,4200.1499999999996,914.99599999999998,4740.96,-507.79700000000003,-497.19499999999999,-1437.6300000000001
166616.0,50386.599999999999,-129332.0,-121784.0,-109887.0,-19670.099999999999,11202.700000000001,15419.299999999999
166617.0,59427.099999999999,-82727.5,-76609.199999999997,-75020.899999999994,-7006.1800000000003,13574.200000000001,30451.5
166618.0,59798.300000000003,-48420.800000000003,-27641.099999999999,-52802.599999999999,1607.5699999999999,10436.200000000001,29996.099999999999
166619.0,47826.5,-27204.200000000001,2701.3000000000002,-34368.300000000003,5966.5699999999997,5904.7200000000003,17474.400000000001
166620.0,36193.599999999999,-22178.200000000001,6118.4799999999996,-24530.700000000001,6113.5100000000002,2739.6500000000001,10042.1
166621.0,31146.200000000001,-21392.700000000001,4964.4399999999996,-20202.900000000001,5614.04,1720.79,8203.6100000000006
166622.0,27590.200000000001,-18096.299999999999,6321.0600000000004,-14860.799999999999,5350.8900000000003,1023.63,6940.3400000000001
166623.0,24492.799999999999,-16936.799999999999,5413.8999999999996,-12081.5,4937.0600000000004,500.99000000000001,6093.9799999999996
166624.0,22059.599999999999,-14893.5,5636.9499999999998,-8996.0200000000004,4577.3599999999997,157.63499999999999,5431.0900000000001
166625.0,19871.900000000001,-13510.5,5232.3699999999999,-6810.5900000000001,4206.8999999999996,-131.755,4869.5600000000004
166626.0,17963.0,-11906.200000000001,5181.5500000000002,-4655.0900000000001,3865.27,-356.096,4351.3199999999997
166627.0,16222.799999999999,-10563.1,4927.6700000000001,-2887.3800000000001,3527.9099999999999,-553.03399999999999,3870.6100000000001
166628.0,14671.4,-9221.5799999999999,4767.5100000000002,-1247.3699999999999,3208.1399999999999,-714.577,3421.04
166629.0,13282.299999999999,-7998.9899999999998,4563.6599999999999,184.97800000000001,2903.4000000000001,-853.125,2997.8699999999999
166630.0,12054.200000000001,-6834.25,4385.7299999999996,1476.4300000000001,2618.2199999999998,-969.56500000000005,2595.4200000000001
166631.0,10979.9,-5748.25,4206.0299999999997,2626.2399999999998,2350.04,-1069.1199999999999,2213.9099999999999
166632.0,10057.799999999999,-4736.2700000000004,4033.54,3645.3099999999999,2099.7199999999998,-1153.01,1851.98
166633.0,9281.9400000000005,-3792.9000000000001,3869.2600000000002,4549.2600000000002,1866.03,-1223.97,1509.1199999999999
166634.0,8644.8099999999995,-2918.4899999999998,3710.5700000000002,5342.6899999999996,1648.5999999999999,-1283.04,1185.01
166635.0,8137.1800000000003,-2103.4499999999998,3563.5799999999999,6041.5,1446.4400000000001,-1331.3399999999999,879.77999999999997
166636.0,7747.1400000000003,-1359.02,3414.8000000000002,6639.1899999999996,1259.1199999999999,-1369.6700000000001,593.10299999999995
166637.0,7460.5299999999997,-670.34100000000001,3275.98,7155.4899999999998,1085.75,-1399.0599999999999,325.02499999999998
166638.0,7260.7600000000002,-37.277200000000001,3144.27,7594.04,925.62300000000005,-1420.28,75.076099999999997
166639.0,7131.1999999999998,544.59699999999998,3020.8899999999999,7963.0600000000004,777.91399999999999,-1434.02,-157.01300000000001
166640.0,7055.4700000000003,1069.0999999999999,2896.79,8259.3799999999992,642.02099999999996,-1440.98,-371.90600000000001
166641.0,7018.8400000000001,1548.4000000000001,2781.02,8498.1100000000006,517.19799999999998,-1441.76,-569.82500000000005
166642.0,7008.5500000000002,1973.0599999999999,2661.1300000000001,8672.25,402.79899999999998,-1437.05,-751.577
166643.0,7014.0799999999999,2363.8400000000001,2554.8800000000001,8804.8899999999994,298.08199999999999,-1427.3299999999999,-917.56500000000005
166644.0,7026.9499999999998,2707.5500000000002,2446.3499999999999,8884.6700000000001,202.51599999999999,-1413.1199999999999,-1068.6099999999999
166645.0,7041.0600000000004,3015.75,2344.21,8925.25,115.42400000000001,-1394.9000000000001,-1205.23
166646.0,7051.3800000000001,3283.6500000000001,2241.1999999999998,8923.1200000000008,36.318100000000001,-1373.1199999999999,-1328.21
166647.0,7054.7700000000004,3524.1700000000001,2147.52,8892.8899999999994,-35.427799999999998,-1348.1900000000001,-1438.04
166648.0,7048.7799999999997,3733.8000000000002,2057.3800000000001,8832.1000000000004,-100.23999999999999,-1320.5,-1535.5999999999999
166649.0,7032.0200000000004,3913.0700000000002,1968.9200000000001,8742.5300000000007,-158.68899999999999,-1290.3699999999999,-1621.3199999999999
166650.0,7003.5600000000004,4064.1199999999999,1882.23,8627.1100000000006,-211.15199999999999,-1258.1400000000001,-1696.0599999999999
166651.0,6963.1999999999998,4189.3800000000001,1797.48,8489.3299999999999,-258.13299999999998,-1224.0999999999999,-1760.23
166652.0,6910.8500000000004,4295.5200000000004,1719.53,8336.3600000000006,-299.96499999999997,-1188.55,-1814.6300000000001
166653.0,6846.9200000000001,4378.75,1642.5899999999999,8165.29,-337.10399999999998,-1151.7,-1859.6700000000001
166654.0,6771.7200000000003,4445.1899999999996,1571.2,7982.5200000000004,-369.82600000000002,-1113.8,-1896.0899999999999
166655.0,6686.0500000000002,4491.04,1499.74,7784.9899999999998,-398.55500000000001,-1075.05,-1924.25
166656.0,6590.3100000000004,4525.9399999999996,1436.52,7582.3900000000003,-423.5,-1035.6400000000001,-1944.8599999999999
166657.0,6485.8100000000004,4533.4200000000001,1363.23,7358.9899999999998,-445.06799999999998,-995.77499999999998,-1958.3299999999999
166658.0,6372.5,4533.8400000000001,1299.3499999999999,7134.8999999999996,-463.46199999999999,-955.53899999999999,-1965.0699999999999
166659.0,6252.4300000000003,4515.8400000000001,1231.52,6899.6999999999998,-479.04700000000003,-915.21500000000003,-1965.76
166660.0,6124.5200000000004,4504.6899999999996,1184.6800000000001,6678.0,-491.94499999999999,-874.65899999999999,-1960.22
166661.0,5992.8100000000004,4461.04,1116.75,6431.96,-502.57600000000002,-834.47500000000002,-1949.95
166662.0,5852.8500000000004,4430.8599999999997,1074.8499999999999,6205.6999999999998,-511.029,-793.92899999999997,-1933.24
166663.0,5714.9799999999996,4356.8400000000001,996.29200000000003,5945.7399999999998,-517.93299999999999,-754.601,-1914.03
166664.0,5564.0500000000002,4332.8800000000001,980.32799999999997,5740.5799999999999,-523.17399999999998,-713.93499999999995,-1885.72
166665.0,5429.21,4224.3500000000004,879.62199999999996,5465.4099999999999,-527.70899999999995,-676.60500000000002,-1860.9200000000001
166666.0,5270.8999999999996,4246.5799999999999,920.63300000000004,5327.1199999999999,-533.01900000000001,-635.26499999999999,-1816.23
166667.0,5129.9499999999998,4072.6700000000001,775.15899999999999,4988.7200000000003,-531.84500000000003,-599.16499999999996,-1794.2
166668.0,5012.7399999999998,4155.8400000000001,814.77800000000002,5017.9799999999996,-566.51599999999996,-556.26800000000003,-1678.29
166669.0,4557.9200000000001,4098.3599999999997,902.78200000000004,4725.6300000000001,-569.83399999999995,-463.25299999999999,-1477.27
166670.0,73597.199999999997,-88452.100000000006,-110394.0,-93767.800000000003,3325.02,13389.200000000001,38524.900000000001
166671.0,67074.899999999994,-50621.099999999999,-42635.800000000003,-61593.0,8948.9400000000005,7964.4300000000003,35574.900000000001
166672.0,53133.400000000001,-28410.299999999999,-3226.4899999999998,-39101.900000000001,8800.5499999999993,3745.1900000000001,22590.099999999999
166673.0,40647.0,-23102.700000000001,5275.8800000000001,-28767.599999999999,7463.5500000000002,1991.0899999999999,12582.700000000001
166674.0,33329.599999999999,-21498.900000000001,5042.8699999999999,-22335.400000000001,6600.8900000000003,1350.8199999999999,9079.4300000000003
166675.0,29377.5,-19166.700000000001,5671.3299999999999,-17258.400000000001,6069.0,1046.75,7661.1800000000003
166676.0,26035.900000000001,-17406.799999999999,5594.4899999999998,-13504.799999999999,5574.7700000000004,754.125,6542.0500000000002
166677.0,23331.900000000001,-15791.6,5412.8299999999999,-10472.700000000001,5123.7299999999996,525.30200000000002,5763.6000000000004
166678.0,21036.700000000001,-14230.1,5270.75,-7910.8999999999996,4701.0200000000004,328.73599999999999,5129.4300000000003
166679.0,19013.099999999999,-12762.9,5106.6999999999998,-5702.8999999999996,4306.79,162.28700000000001,4574.1199999999999
166680.0,17199.700000000001,-11350.0,4961.1599999999999,-3757.98,3939.1900000000001,11.3224,4058.7199999999998
166681.0,15556.299999999999,-10037.4,4774.2299999999996,-2043.9200000000001,3588.6500000000001,-126.05200000000001,3579.1700000000001
166682.0,14086.4,-8792.3400000000001,4596.0799999999999,-510.26900000000001,3255.3400000000001,-248.47300000000001,3135.2800000000002
166683.0,12778.5,-7628.7399999999998,4412.7299999999996,852.00300000000004,2940.8499999999999,-357.25700000000001,2717.98
166684.0,11626.5,-6525.8000000000002,4245.7799999999997,2076.4099999999999,2645.54,-454.90499999999997,2323.2399999999998
166685.0,10624.5,-5498.6000000000004,4077.4699999999998,3161.1999999999998,2368.48,-542.46699999999998,1949.52
166686.0,9767.4599999999991,-4529.3199999999997,3924.4099999999999,4132.0100000000002,2109.0999999999999,-620.71400000000006,1595.72
166687.0,9050.0699999999997,-3628.0799999999999,3774.2399999999998,4987.5,1866.6800000000001,-689.99199999999996,1261.5899999999999
166688.0,8465.3899999999994,-2788.0500000000002,3632.3099999999999,5740.9399999999996,1640.8699999999999,-750.97400000000005,946.61000000000001
166689.0,8003.9799999999996,-2016.05,3489.3299999999999,6391.5600000000004,1430.9200000000001,-804.19899999999996,650.851
166690.0,7653.1599999999999,-1294.3399999999999,3360.4699999999998,6961.71,1236.0999999999999,-850.20299999999997,373.86500000000001
166691.0,7398.3100000000004,-635.44299999999998,3230.3499999999999,7443.2700000000004,1055.5999999999999,-889.33100000000002,115.496
166692.0,7223.5,-29.926300000000001,3105.77,7849.5900000000001,888.80200000000002,-922.08399999999995,-124.872
166693.0,7112.6499999999996,516.40300000000002,2978.0300000000002,8178.5299999999997,734.87099999999998,-948.88,-347.42200000000003
166694.0,7050.1300000000001,1024.6099999999999,2865.3899999999999,8453.9699999999993,593.17200000000003,-970.15200000000004,-552.89599999999996
166695.0,7022.2399999999998,1475.78,2746.0,8660.0200000000004,462.90600000000001,-986.23900000000003,-741.58199999999999
166696.0,7017.1400000000003,1899.96,2647.2399999999998,8829.0200000000004,343.48599999999999,-997.572,-914.40700000000004
166697.0,7025.2799999999997,2263.6999999999998,2532.8400000000001,8929.9599999999991,234.15899999999999,-1004.5,-1071.71
166698.0,7039.04,2605.8600000000001,2439.1300000000001,9003.5300000000007,134.36699999999999,-1007.42,-1214.4300000000001
166699.0,7052.7399999999998,2897.0700000000002,2334.0300000000002,9022.3700000000008,43.422600000000003,-1006.63,-1342.9400000000001
166700.0,7061.9099999999999,3172.3699999999999,2250.3299999999999,9022.7900000000009,-39.149799999999999,-1002.48,-1458.21
166701.0,7063.75,3395.4699999999998,2149.1700000000001,8970.25,-114.02200000000001,-995.245,-1560.6300000000001
166702.0,7056.0299999999997,3604.9099999999999,2067.0599999999999,8904.2099999999991,-181.61699999999999,-985.26599999999996,-1651.1900000000001
166703.0,7037.5799999999999,3771.1999999999998,1972.1400000000001,8796.6100000000006,-242.523,-972.745,-1730.1300000000001
166704.0,7007.5799999999999,3932.3099999999999,1900.5599999999999,8686.0400000000009,-297.09399999999999,-957.99800000000005,-1798.49
166705.0,6965.8599999999997,4050.6599999999999,1812.5699999999999,8536.1100000000006,-345.90199999999999,-941.18700000000001,-1856.48
166706.0,6912.46,4165.1499999999996,1745.48,8386.1200000000008,-389.233,-922.62400000000002,-1905.1900000000001
166707.0,6847.7299999999996,4237.9200000000001,1659.45,8199.2199999999993,-427.61000000000001,-902.41700000000003,-1944.6700000000001
166708.0,6772.0200000000004,4314.25,1598.3800000000001,8020.7799999999997,-461.26999999999998,-880.85199999999998,-1975.97
166709.0,6686.1300000000001,4349.5900000000001,1515.8499999999999,7807.2299999999996,-490.71300000000002,-858.02700000000004,-1999.1600000000001
166710.0,6590.4700000000003,4392.1899999999996,1459.0699999999999,7606.6400000000003,-516.10799999999995,-834.178,-2015.22
166711.0,6486.1999999999998,4401.8500000000004,1385.9100000000001,7379.8900000000003,-537.94100000000003,-809.37800000000004,-2024.1199999999999
166712.0,6373.4300000000003,4425.6499999999996,1342.8,7173.4200000000001,-556.25599999999997,-783.81299999999999,-2026.8299999999999
166713.0,6253.9799999999996,4405.1999999999998,1269.27,6930.1599999999999,-571.61900000000003,-757.61599999999999,-2023.4000000000001
166714.0,6127.0100000000002,4399.3699999999999,1224.1300000000001,6707.8699999999999,-584.02200000000005,-730.82500000000005,-2014.3900000000001
166715.0,5996.1700000000001,4353.8699999999999,1150.21,6454.3900000000003,-594.11699999999996,-703.77300000000002,-2000.3499999999999
166716.0,5857.4200000000001,4342.6300000000001,1122.8499999999999,6241.0900000000001,-601.63199999999995,-676.02499999999998,-1980.6400000000001
166717.0,5720.5200000000004,4273.1700000000001,1044.01,5980.3800000000001,-607.65899999999999,-648.70500000000004,-1957.8299999999999
166718.0,5570.8800000000001,4263.0200000000004,1037.0799999999999,5782.6199999999999,-611.33900000000006,-619.90899999999999,-1927.23
166719.0,5436.7799999999997,4144.5,921.01499999999999,5492.5799999999999,-614.89800000000002,-593.34400000000005,-1898.6300000000001
166720.0,5279.5200000000004,4168.6099999999997,958.91899999999998,5348.3299999999999,-617.61199999999997,-562.90599999999995,-1852.75
166721.0,5139.1199999999999,3980.1100000000001,792.226,4989.8299999999999,-615.928,-537.29499999999996,-1826.23
166722.0,5019.4300000000003,4048.1599999999999,809.99800000000005,4990.9399999999996,-643.48400000000004,-499.57600000000002,-1710.4000000000001
166723.0,4574.1599999999999,4081.52,969.38499999999999,4776.5200000000004,-636.77599999999995,-422.447,-1509.9400000000001
166724.0,75331.800000000003,-44117.199999999997,-36971.5,-57074.599999999999,23109.5,1601.8599999999999,35371.800000000003
166725.0,55833.5,-28476.5,-4314.0799999999999,-38976.699999999997,13677.700000000001,-581.11900000000003,23146.900000000001
166726.0,43140.400000000001,-25366.700000000001,3100.3800000000001,-31366.0,9336.3600000000006,65.925299999999993,13933.5
166727.0,35269.400000000001,-21685.5,5106.3999999999996,-23508.900000000001,7787.5900000000001,443.55099999999999,9855.9099999999999
166728.0,30843.599999999999,-20208.0,4981.54,-19044.5,6898.4700000000003,688.149,8176.8800000000001
166729.0,27368.400000000001,-17791.799999999999,5704.5699999999997,-14542.1,6273.75,749.41399999999999,6903.6400000000003
166730.0,24463.900000000001,-16522.799999999999,5190.6700000000001,-11706.200000000001,5704.8400000000001,719.25,6033.3900000000003
166731.0,22056.099999999999,-14762.1,5291.8000000000002,-8839.6000000000004,5219.1300000000001,662.65899999999999,5321.9099999999999
166732.0,19919.5,-13432.700000000001,4996.46,-6646.9700000000003,4759.2600000000002,580.72400000000005,4732.8800000000001
166733.0,18046.799999999999,-11958.299999999999,4945.21,-4550.4899999999998,4343.1499999999996,499.58999999999997,4201.7200000000003
166734.0,16348.0,-10674.9,4756.2299999999996,-2792.1599999999999,3956.2399999999998,409.846,3705.0300000000002
166735.0,14816.4,-9394.3099999999995,4629.3400000000001,-1160.76,3593.8800000000001,318.55799999999999,3239.5
166736.0,13443.299999999999,-8236.9500000000007,4443.8199999999997,254.285,3249.9000000000001,228.89099999999999,2807.8600000000001
166737.0,12225.9,-7111.9300000000003,4299.4700000000003,1550.4100000000001,2926.7399999999998,143.191,2401.9200000000001
166738.0,11156.200000000001,-6073.3400000000001,4138.1599999999999,2690.6700000000001,2622.8099999999999,61.033499999999997,2018.51
166739.0,10231.0,-5085.1199999999999,3997.2600000000002,3719.6700000000001,2338.0300000000002,-16.612300000000001,1656.0699999999999
166740.0,9445.7700000000004,-4171.6199999999999,3850.3200000000002,4622.7600000000002,2071.6700000000001,-89.6708,1313.8199999999999
166741.0,8794.7600000000002,-3317.96,3711.0,5421.2700000000004,1823.0799999999999,-157.911,991.55399999999997
166742.0,8269.7099999999991,-2523.5900000000001,3577.3499999999999,6121.9200000000001,1591.4100000000001,-221.30500000000001,688.70100000000002
166743.0,7860.1199999999999,-1785.7,3450.0100000000002,6732.6400000000003,1375.8900000000001,-279.73099999999999,405.10300000000001
166744.0,7553.1400000000003,-1106.1700000000001,3324.73,7256.2399999999998,1175.8499999999999,-333.26400000000001,140.119
166745.0,7334.0600000000004,-482.19299999999998,3201.8099999999999,7699.7299999999996,990.53300000000002,-381.93299999999999,-106.26900000000001
166746.0,7187.1899999999996,98.466800000000006,3090.77,8078.9200000000001,819.21299999999997,-425.93900000000002,-334.88600000000002
166747.0,7097.0,627.82899999999995,2980.9400000000001,8389.1900000000005,661.08500000000004,-465.35700000000003,-545.93499999999995
166748.0,7049.0699999999997,1110.9000000000001,2874.73,8638.3999999999996,515.47299999999996,-500.41800000000001,-740.26099999999997
166749.0,7030.79,1548.6300000000001,2770.4099999999999,8830.3099999999995,381.62299999999999,-531.255,-918.221
166750.0,7031.4300000000003,1941.0799999999999,2665.52,8967.2399999999998,258.899,-558.13300000000004,-1080.6800000000001
166751.0,7042.3699999999999,2299.8299999999999,2569.0,9063.0300000000007,146.59200000000001,-581.18600000000004,-1228.04
166752.0,7056.8800000000001,2619.4099999999999,2472.9899999999998,9114.0100000000002,44.110500000000002,-600.69100000000003,-1361.24
166753.0,7069.8800000000001,2903.79,2379.0100000000002,9126.0499999999993,-49.241300000000003,-616.80399999999997,-1480.6900000000001
166754.0,7077.5200000000004,3154.27,2286.1999999999998,9101.75,-133.96000000000001,-629.779,-1587.3199999999999
166755.0,7077.2799999999997,3378.0999999999999,2199.5,9049.9799999999996,-210.67500000000001,-639.774,-1681.52
166756.0,7067.3000000000002,3576.0700000000002,2117.6999999999998,8972.4899999999998,-279.83600000000001,-647.04300000000001,-1764.25
166757.0,7046.5600000000004,3744.4200000000001,2034.9100000000001,8866.8400000000001,-342.04000000000002,-651.70100000000002,-1835.8
166758.0,7014.4499999999998,3888.3800000000001,1954.6500000000001,8738.9400000000005,-397.68099999999998,-654.02599999999995,-1897.1900000000001
166759.0,6970.8299999999999,4007.5500000000002,1874.51,8589.4799999999996,-447.30200000000002,-654.10500000000002,-1948.6099999999999
166760.0,6915.7799999999997,4110.3900000000003,1801.46,8427.3500000000004,-491.22699999999998,-652.19600000000003,-1991.0699999999999
166761.0,6849.7200000000003,4191.4799999999996,1728.1900000000001,8248.1299999999992,-529.96900000000005,-648.37400000000002,-2024.6900000000001
166762.0,6773.0100000000002,4257.8400000000001,1660.52,8058.9300000000003,-563.779,-642.87800000000004,-2050.4699999999998
166763.0,6686.4099999999999,4304.4700000000003,1591.6300000000001,7855.71,-593.15200000000004,-635.75300000000004,-2068.4400000000001
166764.0,6590.4200000000001,4341.8999999999996,1531.0699999999999,7648.8400000000001,-618.26199999999994,-627.24599999999998,-2079.6399999999999
166765.0,6485.9799999999996,4352.3900000000003,1459.3599999999999,7421.54,-639.63099999999997,-617.38,-2083.96
166766.0,6373.4899999999998,4357.2299999999996,1397.1500000000001,7194.6700000000001,-657.36400000000003,-606.39099999999996,-2082.4400000000001
166767.0,6254.3699999999999,4344.0500000000002,1330.1099999999999,6957.0600000000004,-671.96299999999997,-594.28300000000002,-2074.9299999999998
166768.0,6128.1199999999999,4338.9399999999996,1284.25,6733.7399999999998,-683.38800000000003,-581.18100000000004,-2062.1900000000001
166769.0,5997.96,4301.75,1216.71,6486.6499999999996,-692.34900000000005,-567.27099999999996,-2044.53
166770.0,5860.3800000000001,4278.1400000000003,1174.5,6258.8800000000001,-698.548,-552.34500000000003,-2021.6700000000001
166771.0,5724.3599999999997,4212.1000000000004,1096.21,5999.46,-703.24400000000003,-537.13800000000003,-1995.54
166772.0,5576.2299999999996,4194.75,1078.74,5791.8299999999999,-705.18399999999997,-520.34400000000005,-1962.4400000000001
166773.0,5443.0,4095.6999999999998,978.36599999999999,5519.1599999999999,-707.29499999999996,-504.55700000000002,-1930.48
166774.0,5287.1000000000004,4124.6700000000001,1017.23,5375.6499999999996,-707.36900000000003,-485.036,-1883.0899999999999
166775.0,5147.5500000000002,3960.3400000000001,870.14400000000001,5039.7700000000004,-704.63900000000001,-469.55200000000002,-1852.5799999999999
166776.0,5025.8900000000003,4050.6700000000001,905.20799999999997,5055.8699999999999,-724.70600000000002,-437.31599999999997,-1736.29
166777.0,4588.4099999999999,4000.3899999999999,965.29300000000001,4749.3500000000004,-707.51900000000001,-377.75,-1535.99
166778.0,55224.300000000003,-27904.799999999999,6523.29,-31843.0,15745.1,-3579.27,17617.900000000001
166779.0,42689.199999999997,-27006.900000000001,2817.9200000000001,-29770.0,10909.4,-1959.98,12572.9
166780.0,36523.300000000003,-22774.799999999999,4855.9700000000003,-23683.799999999999,8918.2800000000007,-443.803,10088.799999999999
166781.0,32001.5,-20716.0,5112.8100000000004,-19313.599999999999,7807.7600000000002,225.828,8330.3799999999992
166782.0,28407.799999999999,-18488.900000000001,5501.79,-15292.200000000001,6957.8999999999996,615.16399999999999,7107.4799999999996
166783.0,25448.5,-16975.400000000001,5234.3599999999997,-12376.1,6282.8699999999999,816.64599999999996,6189.3599999999997
166784.0,22949.799999999999,-15271.4,5253.1800000000003,-9581.9799999999996,5723.9499999999998,908.94200000000001,5448.9099999999999
166785.0,20747.700000000001,-13891.1,5009.3900000000003,-7354.6499999999996,5215.5200000000004,932.39800000000002,4824.9200000000001
166786.0,18793.799999999999,-12447.5,4907.1400000000003,-5251.7200000000003,4749.3800000000001,922.21400000000006,4277.8999999999996
166787.0,17045.299999999999,-11154.1,4735.25,-3453.46,4317.3400000000001,887.93700000000001,3779.1399999999999
166788.0,15466.5,-9875.6399999999994,4618.4499999999998,-1790.4200000000001,3916.6900000000001,838.93200000000002,3307.52
166789.0,14042.5,-8704.2000000000007,4456.25,-329.16300000000001,3541.7800000000002,778.80499999999995,2864.71
166790.0,12770.9,-7575.9899999999998,4316.8699999999999,1006.03,3190.29,712.98400000000004,2450.2399999999998
166791.0,11647.0,-6531.6899999999996,4162.2399999999998,2185.5700000000002,2860.48,643.60500000000002,2060.1900000000001
166792.0,10666.1,-5537.3000000000002,4026.0100000000002,3253.5999999999999,2551.4200000000001,572.68700000000001,1691.79
166793.0,9824.2600000000002,-4615.96,3883.6599999999999,4195.3900000000003,2261.9699999999998,501.46300000000002,1344.3599999999999
166794.0,9116.2199999999993,-3744.3699999999999,3756.9099999999999,5040.8800000000001,1991.3099999999999,431.02499999999998,1017.01
166795.0,8535.4699999999993,-2935.5900000000001,3630.8899999999999,5783.0500000000002,1738.6199999999999,362.17700000000002,709.404
166796.0,8073.21,-2181.5999999999999,3511.5999999999999,6435.1300000000001,1503.22,295.48899999999998,421.05500000000001
166797.0,7718.2399999999998,-1489.4400000000001,3389.6500000000001,6994.8699999999999,1284.3099999999999,231.387,151.69499999999999
166798.0,7457.0,-841.81500000000005,3280.02,7483.4099999999999,1081.1700000000001,170.13200000000001,-99.214500000000001
166799.0,7274.7600000000002,-250.81399999999999,3168.0599999999999,7892.5500000000002,892.93700000000001,112.001,-331.976
166800.0,7156.3900000000003,292.22800000000001,3059.96,8234.25,718.92999999999995,57.067,-547.36699999999996
166801.0,7087.1800000000003,781.98000000000002,2947.8800000000001,8506.1800000000003,558.39999999999998,5.4735399999999998,-745.65800000000002
166802.0,7053.9499999999998,1237.9100000000001,2848.6799999999998,8730.5499999999993,410.61399999999998,-42.8155,-927.64300000000003
166803.0,7045.1999999999998,1643.4200000000001,2743.2800000000002,8893.2600000000002,274.83999999999997,-87.742000000000004,-1093.79
166804.0,7051.4300000000003,2024.3699999999999,2655.1700000000001,9022.3299999999999,150.41,-129.38499999999999,-1244.9200000000001
166805.0,7064.96,2352.4499999999998,2553.6199999999999,9091.4799999999996,36.630099999999999,-167.77600000000001,-1381.53
166806.0,7079.9399999999996,2659.0300000000002,2467.7199999999998,9133.8199999999997,-67.123800000000003,-203.03999999999999,-1504.46
166807.0,7092.0100000000002,2923.4699999999998,2374.5300000000002,9130.4699999999993,-161.49700000000001,-235.22999999999999,-1614.2
166808.0,7097.8000000000002,3169.8000000000002,2296.1399999999999,9106.7199999999993,-247.042,-264.48500000000001,-1711.5899999999999
166809.0,7095.1700000000001,3373.75,2206.0500000000002,9039.7299999999996,-324.36500000000001,-290.88099999999997,-1797.1199999999999
166810.0,7082.6499999999996,3559.6100000000001,2126.75,8954.8400000000001,-393.98000000000002,-314.589,-1871.6300000000001
166811.0,7059.29,3713.5100000000002,2042.3699999999999,8839.3099999999995,-456.416,-335.67200000000003,-1935.48
166812.0,7024.75,3855.6799999999998,1971.52,8714.1200000000008,-512.11800000000005,-354.31299999999999,-1989.5699999999999
166813.0,6978.8699999999999,3967.3899999999999,1893.6500000000001,8561.4799999999996,-561.58399999999995,-370.56200000000001,-2034.1700000000001
166814.0,6921.9099999999999,4066.5900000000001,1825.24,8399.8400000000001,-605.20600000000002,-384.62900000000002,-2070.1999999999998
166815.0,6854.21,4137.4700000000003,1748.8299999999999,8214.2299999999996,-643.452,-396.54199999999997,-2097.8400000000001
166816.0,6776.2600000000002,4201.5200000000004,1684.6800000000001,8026.3900000000003,-676.63099999999997,-406.512,-2117.9899999999998
166817.0,6688.6700000000001,4239.1199999999999,1611.5899999999999,7817.4700000000003,-705.18799999999999,-414.55799999999999,-2130.7399999999998
166818.0,6592.1000000000004,4271.6800000000003,1549.95,7608.9399999999996,-729.38999999999999,-420.88499999999999,-2136.98
166819.0,6487.29,4287.1899999999996,1486.22,7389.4799999999996,-749.61900000000003,-425.49599999999998,-2136.7399999999998
166820.0,6374.7700000000004,4302.5500000000002,1436.54,7175.79,-766.08900000000006,-428.58199999999999,-2130.8699999999999
166821.0,6255.8599999999997,4291.2399999999998,1372.71,6942.29,-779.26300000000003,-430.16899999999998,-2119.4200000000001
166822.0,6130.1199999999999,4277.5200000000004,1318.8399999999999,6712.4700000000003,-789.21199999999999,-430.38600000000002,-2102.9400000000001
166823.0,6000.5900000000001,4244.2200000000003,1255.28,6471.0100000000002,-796.54200000000003,-429.33600000000001,-2081.8699999999999
166824.0,5863.9700000000003,4225.1599999999999,1216.96,6249.3800000000001,-800.98099999999999,-426.90199999999999,-2055.7800000000002
166825.0,5728.79,4171.1000000000004,1149.6800000000001,6003.1599999999999,-803.79499999999996,-423.54599999999999,-2026.6300000000001
166826.0,5582.04,4152.4099999999999,1129.1800000000001,5795.1499999999996,-803.64200000000005,-418.46300000000002,-1990.9300000000001
166827.0,5449.8500000000004,4051.8099999999999,1025.4200000000001,5521.8500000000004,-803.82399999999996,-413.36399999999998,-1956.26
166828.0,5295.0699999999997,4067.3499999999999,1048.6099999999999,5364.54,-801.09100000000001,-404.702,-1906.98
166829.0,5156.9099999999999,3894.8099999999999,890.58699999999999,5021.6999999999998,-796.86400000000003,-399.73000000000002,-1873.3800000000001
166830.0,5033.96,3961.98,897.11500000000001,5009.7299999999996,-809.87400000000002,-373.45600000000002,-1756.1600000000001
166831.0,4602.29,4006.6399999999999,1040.01,4793.5,-782.14800000000002,-330.66300000000001,-1556.0
166832.0,40484.300000000003,-27168.900000000001,3435.73,-27444.200000000001,10631.0,-1590.4000000000001,10757.799999999999
166833.0,36541.0,-24288.900000000001,4340.3900000000003,-23082.700000000001,9651.7099999999991,-629.03499999999997,9452.1700000000001
166834.0,32695.900000000001,-21187.700000000001,5398.8699999999999,-18832.200000000001,8550.0599999999995,39.701599999999999,8163.6499999999996
166835.0,29082.200000000001,-19251.099999999999,5227.4200000000001,-15652.9,7534.8500000000004,581.06600000000003,7079.8400000000001
166836.0,26181.200000000001,-17361.099999999999,5287.9099999999999,-12678.0,6797.6999999999998,929.71100000000001,6201.9700000000003
166837.0,23658.5,-15748.200000000001,5164.0,-10124.0,6169.7399999999998,1130.28,5488.0699999999997
166838.0,21441.799999999999,-14235.700000000001,5047.0900000000001,-7863.0500000000002,5617.5299999999997,1250.3699999999999,4859.29
166839.0,19447.799999999999,-12816.1,4904.5600000000004,-5820.6800000000003,5115.3199999999997,1309.21,4304.2299999999996
166840.0,17657.599999999999,-11488.5,4754.75,-4004.5999999999999,4651.4399999999996,1327.8800000000001,3799.21
166841.0,16036.1,-10215.1,4622.5,-2343.6300000000001,4217.6000000000004,1319.1500000000001,3329.23
166842.0,14573.5,-9028.3700000000008,4475.9200000000001,-861.01099999999997,3812.9000000000001,1291.2,2886.4099999999999
166843.0,13260.4,-7893.6300000000001,4344.3599999999997,495.87200000000001,3434.2399999999998,1249.1099999999999,2469.4699999999998
166844.0,12093.4,-6840.0799999999999,4200.71,1703.8900000000001,3079.73,1196.53,2076.4699999999998
166845.0,11067.299999999999,-5833.4700000000003,4077.1399999999999,2806.5799999999999,2747.25,1136.48,1705.51
166846.0,10178.5,-4901.2200000000003,3945.4499999999998,3782.6399999999999,2435.6900000000001,1071.3299999999999,1355.4100000000001
166847.0,9422.6800000000003,-4017.8699999999999,3829.1300000000001,4664.0900000000001,2144.0,1002.89,1025.48
166848.0,8794.3400000000001,-3205.04,3704.8499999999999,5434.5200000000004,1871.4100000000001,932.56399999999996,715.22900000000004
166849.0,8286.0100000000002,-2444.1100000000001,3589.1999999999998,6117.4700000000003,1617.1099999999999,861.39099999999996,424.29700000000003
166850.0,7887.8199999999997,-1741.78,3473.1199999999999,6710.5699999999997,1380.25,790.26900000000001,152.34200000000001
166851.0,7587.6999999999998,-1084.46,3367.9099999999999,7231.3100000000004,1160.0599999999999,719.84799999999996,-101.194
166852.0,7371.8699999999999,-487.02999999999997,3256.3499999999999,7668.29,955.77499999999998,650.69299999999998,-336.666
166853.0,7225.8199999999997,68.278899999999993,3153.7199999999998,8042.6499999999996,766.62699999999995,583.22199999999998,-554.64499999999998
166854.0,7135.0200000000004,577.06200000000001,3053.1799999999998,8352.8700000000008,591.86800000000005,517.774,-755.59199999999998
166855.0,7085.8900000000003,1049.0799999999999,2962.04,8611.3899999999994,430.73500000000001,454.58600000000001,-940.17600000000004
166856.0,7066.3900000000003,1470.27,2863.8200000000002,8806.5499999999993,282.46800000000002,393.858,-1108.98
166857.0,7066.3900000000003,1860.6300000000001,2776.1599999999999,8960.6700000000001,146.33000000000001,335.714,-1262.6900000000001
166858.0,7077.4200000000001,2200.6700000000001,2677.3299999999999,9056.1299999999992,21.659600000000001,280.255,-1401.9100000000001
166859.0,7092.9700000000003,2520.6399999999999,2595.2399999999998,9125.0799999999999,-92.208200000000005,227.53399999999999,-1527.29
166860.0,7107.9300000000003,2796.8400000000001,2504.1100000000001,9145.4200000000001,-195.92400000000001,177.57400000000001,-1639.55
166861.0,7118.5900000000001,3049.8200000000002,2422.3800000000001,9139.2399999999998,-290.13299999999998,130.38999999999999,-1739.28
166862.0,7122.1199999999999,3264.9899999999998,2333.5500000000002,9093.1499999999996,-375.38999999999999,85.928399999999996,-1827.21
166863.0,7116.8199999999997,3463.7399999999998,2256.96,9029.8999999999996,-452.28500000000003,44.210599999999999,-1903.8599999999999
166864.0,7101.3900000000003,3633.6700000000001,2178.52,8937.9799999999996,-521.31700000000001,5.1398400000000004,-1969.99
166865.0,7075.1700000000001,3782.3699999999999,2103.98,8826.0300000000007,-583.04300000000001,-31.295999999999999,-2026.04
166866.0,7037.9300000000003,3904.2399999999998,2026.22,8689.2000000000007,-637.92899999999997,-65.2333,-2072.8299999999999
166867.0,6989.5699999999997,4008.3699999999999,1952.6600000000001,8537.4099999999999,-686.45100000000002,-96.6661,-2110.5999999999999
166868.0,6930.5,4094.3400000000001,1881.5,8370.7999999999993,-729.02099999999996,-125.751,-2140.2600000000002
166869.0,6860.9399999999996,4164.4799999999996,1813.52,8192.3700000000008,-766.053,-152.47800000000001,-2161.9400000000001
166870.0,6781.54,4218.1700000000001,1746.96,8001.8400000000001,-797.92700000000002,-177.03899999999999,-2176.54
166871.0,6692.8599999999997,4257.3500000000004,1682.27,7801.8100000000004,-825.048,-199.405,-2184.1500000000001
166872.0,6595.5100000000002,4285.3900000000003,1621.9200000000001,7595.7200000000003,-847.72500000000002,-219.76900000000001,-2185.6100000000001
166873.0,6490.29,4291.7299999999996,1553.8800000000001,7373.6899999999996,-866.35000000000002,-238.114,-2180.9699999999998
166874.0,6377.6899999999996,4289.4300000000003,1490.5799999999999,7148.6099999999997,-881.14599999999996,-254.63800000000001,-2171.04
166875.0,6258.8500000000004,4274.9700000000003,1426.8299999999999,6917.8299999999999,-892.51099999999997,-269.28100000000001,-2155.77
166876.0,6133.5699999999997,4264.79,1378.9400000000001,6697.1199999999999,-900.54300000000001,-282.22500000000002,-2135.8099999999999
166877.0,6004.5900000000001,4229.1700000000001,1314.8399999999999,6458.4499999999998,-905.86199999999997,-293.46100000000001,-2111.4899999999998
166878.0,5868.9399999999996,4201.4200000000001,1268.9200000000001,6232.9499999999998,-908.21100000000001,-303.036,-2082.4899999999998
166879.0,5734.6700000000001,4139.75,1194.6300000000001,5983.4899999999998,-908.88400000000001,-311.10300000000001,-2050.5900000000001
166880.0,5589.2600000000002,4118.3100000000004,1171.3199999999999,5776.7799999999997,-906.36599999999999,-317.334,-2012.5
166881.0,5458.1599999999999,4026.9000000000001,1076.26,5516.3500000000004,-904.26300000000003,-322.53699999999998,-1975.4100000000001
166882.0,5304.5299999999997,4051.9299999999998,1107.9000000000001,5371.1199999999999,-898.48699999999997,-324.38400000000001,-1924.3299999999999
166883.0,5167.6599999999999,3896.3000000000002,965.35299999999995,5048.9099999999999,-892.29200000000003,-329.31099999999998,-1888.0
166884.0,5043.8699999999999,3987.8099999999999,991.63,5059.0699999999997,-897.98199999999997,-308.63900000000001,-1770.25
166885.0,4616.79,3946.5799999999999,1039.8800000000001,4756.4099999999999,-859.43899999999996,-282.87,-1570.5799999999999
166886.0,37039.5,-24612.5,4696.7700000000004,-21940.799999999999,10580.5,-570.00599999999997,9078.2199999999993
166887.0,32915.699999999997,-21483.0,5521.1199999999999,-18247.200000000001,9042.0300000000007,186.292,7868.7299999999996
166888.0,29507.299999999999,-19654.900000000001,5228.5699999999997,-15572.5,8009.6599999999999,763.18200000000002,6884.7299999999996
166889.0,26705.200000000001,-17766.900000000001,5223.1599999999999,-12865.4,7243.6800000000003,1135.96,6110.1199999999999
166890.0,24213.900000000001,-16078.799999999999,5135.71,-10453.799999999999,6568.8500000000004,1391.3099999999999,5437.3400000000001
166891.0,21987.700000000001,-14529.4,5018.6099999999997,-8274.3799999999992,5975.3599999999997,1567.49,4830.4200000000001
166892.0,19987.0,-13082.299999999999,4892.3599999999997,-6289.9499999999998,5440.0900000000001,1677.8699999999999,4286.2399999999998
166893.0,18175.5,-11735.6,4751.6999999999998,-4499.8500000000004,4946.25,1741.5999999999999,3784.4000000000001
166894.0,16530.299999999999,-10452.299999999999,4623.2600000000002,-2854.6100000000001,4486.9700000000003,1769.3099999999999,3316.71
166895.0,15039.799999999999,-9255.5599999999995,4481.8299999999999,-1371.6600000000001,4057.7600000000002,1770.29,2876.9499999999998
166896.0,13696.799999999999,-8115.9700000000003,4354.2700000000004,-11.608000000000001,3655.6599999999999,1750.8199999999999,2462.3800000000001
166897.0,12496.200000000001,-7052.3999999999996,4220.8100000000004,1212.5,3278.3099999999999,1715.53,2070.4899999999998
166898.0,11433.9,-6042.2799999999997,4101.7799999999997,2329.7600000000002,2924.0900000000001,1668.0999999999999,1699.95
166899.0,10506.799999999999,-5105.3100000000004,3975.6399999999999,3325.7800000000002,2591.8000000000002,1611.3900000000001,1349.8499999999999
166900.0,9711.2199999999993,-4221.3000000000002,3860.5799999999999,4225.75,2280.4499999999998,1547.6900000000001,1019.64
166901.0,9042.4599999999991,-3402.23,3742.6700000000001,5022.1300000000001,1989.1099999999999,1478.79,708.92600000000004
166902.0,8494.1200000000008,-2632.4899999999998,3635.2600000000002,5734.75,1716.9400000000001,1406.2,417.34899999999999
166903.0,8057.6099999999997,-1917.8599999999999,3530.3499999999999,6361.5900000000001,1463.1300000000001,1331.1600000000001,144.529
166904.0,7722.1599999999999,-1255.9200000000001,3427.98,6908.6999999999998,1226.8399999999999,1254.6400000000001,-109.996
166905.0,7475.0900000000001,-647.971,3324.54,7377.96,1007.28,1177.47,-346.649
166906.0,7302.5500000000002,-82.429900000000004,3229.1700000000001,7783.96,803.71299999999997,1100.3399999999999,-565.88599999999997
166907.0,7190.4099999999999,434.66000000000003,3133.3499999999999,8123.4700000000003,615.31500000000005,1023.79,-768.279
166908.0,7124.9899999999998,905.77599999999995,3037.2399999999998,8401.3899999999994,441.31900000000002,948.28499999999997,-954.404
166909.0,7094.0200000000004,1331.5,2938.98,8620.7600000000002,280.96499999999997,874.21699999999998,-1124.8099999999999
166910.0,7086.71,1725.49,2849.9699999999998,8797.25,133.56399999999999,801.875,-1280.21
166911.0,7094.1700000000001,2076.0799999999999,2756.2600000000002,8921.2600000000002,-1.6112299999999999,731.529,-1421.0999999999999
166912.0,7109.1000000000004,2404.5500000000002,2676.9899999999998,9015.7399999999998,-125.23999999999999,663.351,-1548.26
166913.0,7125.9300000000003,2686.1599999999999,2585.2199999999998,9057.6100000000006,-238.02699999999999,597.51499999999999,-1662.24
166914.0,7140.3400000000001,2948.8800000000001,2506.9899999999998,9076.2600000000002,-340.58800000000002,534.08600000000001,-1763.8099999999999
166915.0,7149.1899999999996,3174.3400000000001,2421.8800000000001,9054.7000000000007,-433.55599999999998,473.19400000000002,-1853.4300000000001
166916.0,7150.21,3384.29,2349.8899999999999,9015.7800000000007,-517.5,414.85199999999998,-1931.9200000000001
166917.0,7141.9799999999996,3556.02,2266.4099999999999,8937.9599999999991,-593.03099999999995,359.12700000000001,-1999.74
166918.0,7123.4700000000003,3711.9499999999998,2192.3299999999999,8844.5100000000002,-660.64999999999998,305.97500000000002,-2057.6399999999999
166919.0,7094.2799999999997,3839.5799999999999,2113.3299999999999,8723.9400000000005,-720.87300000000005,255.47,-2105.98
166920.0,7054.1800000000003,3957.71,2046.8699999999999,8595.6200000000008,-774.16099999999994,207.501,-2145.5799999999999
166921.0,7003.3000000000002,4048.29,1973.25,8442.3400000000001,-821.00099999999998,162.131,-2176.6900000000001
166922.0,6941.96,4128.1999999999998,1908.1700000000001,8281.4300000000003,-861.82600000000002,119.22,-2200.1399999999999
166923.0,6870.5299999999997,4182.4099999999999,1835.0699999999999,8098.5500000000002,-897.05700000000002,78.836699999999993,-2216.0599999999999
166924.0,6789.6099999999997,4231.3699999999999,1773.4400000000001,7914.3900000000003,-927.05799999999999,40.794699999999999,-2225.3699999999999
166925.0,6699.7700000000004,4256.0600000000004,1702.76,7710.6400000000003,-952.22699999999998,5.1797399999999998,-2228.0500000000002
166926.0,6601.5900000000001,4277.1499999999996,1642.96,7507.9200000000001,-972.86900000000003,-28.225300000000001,-2225.0
166927.0,6495.8500000000004,4282.6400000000003,1580.52,7295.0100000000002,-989.351,-59.292900000000003,-2216.1100000000001
166928.0,6383.04,4290.0299999999997,1532.51,7089.1000000000004,-1001.9299999999999,-88.296499999999995,-2202.3499999999999
166929.0,6264.25,4271.2399999999998,1469.1700000000001,6863.0500000000002,-1011.02,-115.08199999999999,-2183.5100000000002
166930.0,6139.3800000000001,4251.9499999999998,1416.1900000000001,6641.8100000000004,-1016.75,-139.934,-2160.3899999999999
166931.0,6010.9399999999996,4213.3000000000002,1352.3199999999999,6408.3199999999997,-1019.6900000000001,-162.64500000000001,-2133.04
166932.0,5876.1800000000003,4190.79,1314.26,6195.8100000000004,-1019.5599999999999,-183.477,-2101.4200000000001
166933.0,5742.7399999999998,4133.7600000000002,1246.6099999999999,5958.2299999999996,-1017.72,-202.22499999999999,-2066.9899999999998
166934.0,5598.6000000000004,4112.9499999999998,1225.3199999999999,5758.9399999999996,-1012.53,-219.11799999999999,-2026.8199999999999
166935.0,5468.6400000000003,4011.0999999999999,1120.75,5494.3900000000003,-1007.9299999999999,-234.01900000000001,-1987.6700000000001
166936.0,5315.9899999999998,4026.3499999999999,1143.1400000000001,5344.6300000000001,-998.92100000000005,-245.887,-1935.04
166937.0,5180.5600000000004,3850.46,980.40899999999999,5008.5500000000002,-990.529,-260.33800000000002,-1896.4300000000001
166938.0,5056.0500000000002,3927.8699999999999,988.59799999999996,5004.3800000000001,-988.928,-245.24600000000001,-1778.29
166939.0,4632.46,3965.8600000000001,1109.99,4783.9200000000001,-939.38400000000001,-235.755,-1579.46
166940.0,32786.099999999999,-21733.799999999999,5642.7399999999998,-17608.599999999999,9312.6200000000008,586.63,7306.6300000000001
166941.0,29772.400000000001,-20104.099999999999,5044.6300000000001,-15587.9,8419.0400000000009,1064.01,6610.1499999999996
166942.0,27105.5,-18033.200000000001,5196.9399999999996,-12981.799999999999,7621.71,1420.25,5960.2200000000003
166943.0,24661.799999999999,-16321.5,5114.5799999999999,-10720.700000000001,6913.4799999999996,1698.1400000000001,5333.8500000000004
166944.0,22453.599999999999,-14750.799999999999,4993.7299999999996,-8636.4300000000003,6295.0200000000004,1900.0899999999999,4758.96
166945.0,20453.400000000001,-13277.1,4875.71,-6715.5600000000004,5733.9700000000003,2040.45,4232.8500000000004
166946.0,18631.0,-11901.1,4749.25,-4956.6199999999999,5215.3100000000004,2134.8899999999999,3742.0999999999999
166947.0,16970.099999999999,-10603.4,4625.9300000000003,-3337.6199999999999,4732.5500000000002,2190.6100000000001,3282.6300000000001
166948.0,15460.1,-9389.1499999999996,4496.8900000000003,-1860.96,4280.6999999999998,2216.0500000000002,2849.0
166949.0,14094.0,-8239.75,4376.9099999999999,-503.50999999999999,3857.0100000000002,2216.7800000000002,2438.9200000000001
166950.0,12866.700000000001,-7163.5299999999997,4255.0299999999997,729.65300000000002,3458.8400000000001,2197.8299999999999,2050.4099999999999
166951.0,11774.9,-6147.46,4141.7299999999996,1855.8199999999999,3084.6599999999999,2163.1199999999999,1682.4400000000001
166952.0,10815.700000000001,-5201.1000000000004,4025.3400000000001,2869.1500000000001,2733.25,2115.8099999999999,1334.4200000000001
166953.0,9986.2199999999993,-4308.2299999999996,3919.6500000000001,3789.9499999999998,2403.5300000000002,2058.4000000000001,1005.84
166954.0,9282.3099999999995,-3478.4899999999998,3812.96,4611.9499999999998,2094.5900000000001,1992.97,696.26300000000003
166955.0,8698.5900000000001,-2702.4400000000001,3712.29,5348.1000000000004,1805.5599999999999,1921.29,405.512
166956.0,8227.5499999999993,-1985.05,3610.3600000000001,5996.6099999999997,1535.6300000000001,1844.8099999999999,133.11699999999999
166957.0,7859.6000000000004,-1323.03,3507.98,6563.8699999999999,1283.97,1764.78,-121.20099999999999
166958.0,7583.1599999999999,-707.39099999999996,3411.71,7061.6599999999999,1049.8199999999999,1682.25,-357.93299999999999
166959.0,7385.1899999999996,-140.07400000000001,3317.1900000000001,7490.7200000000003,832.41899999999998,1598.1099999999999,-577.43100000000004
166960.0,7252.0200000000004,380.23899999999998,3223.3499999999999,7854.8800000000001,630.93299999999999,1513.1099999999999,-780.32600000000002
166961.0,7170.2299999999996,855.40700000000004,3129.5700000000002,8158.3500000000004,444.59199999999998,1427.9100000000001,-967.09199999999998
166962.0,7127.1899999999996,1296.46,3044.6399999999999,8414.2000000000007,272.69200000000001,1343.04,-1138.3199999999999
166963.0,7111.8900000000003,1697.9400000000001,2960.6999999999998,8619.0799999999999,114.459,1258.99,-1294.55
166964.0,7114.8199999999997,2060.52,2876.3299999999999,8775.3899999999994,-30.862100000000002,1176.0799999999999,-1436.5799999999999
166965.0,7128.2600000000002,2389.4400000000001,2794.48,8890.1200000000008,-163.99299999999999,1094.6900000000001,-1564.8599999999999
166966.0,7145.9899999999998,2679.0599999999999,2707.5500000000002,8959.0900000000001,-285.62200000000001,1015.03,-1680.1700000000001
166967.0,7163.3100000000004,2946.2399999999998,2630.2600000000002,9000.6399999999994,-396.38099999999997,937.39999999999998,-1782.95
166968.0,7176.6099999999997,3179.3400000000001,2549.21,9004.3199999999997,-496.91199999999998,861.87900000000002,-1874.0799999999999
166969.0,7183.3000000000002,3387.52,2471.5500000000002,8980.5400000000009,-587.84199999999998,788.69200000000001,-1953.9000000000001
166970.0,7181.6000000000004,3566.21,2391.1199999999999,8925.6700000000001,-669.76499999999999,717.86800000000005,-2023.29
166971.0,7170.25,3727.0900000000001,2317.75,8852.4500000000007,-743.20399999999995,649.57899999999995,-2082.52
166972.0,7148.6000000000004,3866.6399999999999,2246.5100000000002,8758.0699999999997,-808.68600000000004,583.79399999999998,-2132.4899999999998
166973.0,7116.3299999999999,3983.6100000000001,2174.4200000000001,8642.2000000000007,-866.75800000000004,520.64499999999998,-2173.4200000000001
166974.0,7073.3800000000001,4080.2399999999998,2102.5999999999999,8507.5799999999999,-917.89200000000005,460.03300000000002,-2206.2199999999998
166975.0,7019.9399999999996,4157.8400000000001,2030.6400000000001,8356.3400000000001,-962.52999999999997,402.108,-2230.96
166976.0,6956.3400000000001,4223.3800000000001,1964.55,8195.7600000000002,-1001.1,346.70499999999998,-2248.5900000000001
166977.0,6883.0,4271.3400000000001,1897.22,8021.0299999999997,-1034.03,293.98599999999999,-2259.0500000000002
166978.0,6800.54,4309.0200000000004,1835.22,7839.5900000000001,-1061.6900000000001,243.72800000000001,-2263.4099999999999
166979.0,6709.4499999999998,4329.5100000000002,1770.0999999999999,7645.2299999999996,-1084.45,196.10499999999999,-2261.4499999999998
166980.0,6610.4700000000003,4345.3000000000002,1713.8199999999999,7450.3999999999996,-1102.6900000000001,150.851,-2254.25
166981.0,6504.1599999999999,4336.1599999999999,1644.5799999999999,7235.54,-1116.73,108.164,-2241.4899999999998
166982.0,6391.1400000000003,4324.5799999999999,1584.6500000000001,7022.8699999999999,-1126.8599999999999,67.713899999999995,-2224.29
166983.0,6272.3900000000003,4297.2600000000002,1518.8800000000001,6800.0699999999997,-1133.4300000000001,29.801600000000001,-2202.1999999999998
166984.0,6147.8400000000001,4280.8599999999997,1474.1900000000001,6593.0,-1136.5699999999999,-5.9660200000000003,-2176.21
166985.0,6019.8800000000001,4234.8500000000004,1407.54,6362.8900000000003,-1136.8800000000001,-39.235199999999999,-2146.1599999999999
166986.0,5886.0,4203.1300000000001,1364.24,6151.4499999999998,-1134.1099999999999,-70.469700000000003,-2112.2800000000002
166987.0,5753.3299999999999,4133.1300000000001,1286.9400000000001,5910.5,-1129.5599999999999,-99.121899999999997,-2075.6500000000001
166988.0,5610.4899999999998,4109.2600000000002,1265.27,5717.4499999999998,-1121.54,-125.892,-2033.73
166989.0,5481.5500000000002,4012.1100000000001,1167.4200000000001,5466.0900000000001,-1114.1700000000001,-149.762,-1992.78
166990.0,5329.8500000000004,4036.5700000000002,1200.6700000000001,5333.21,-1101.7,-170.96100000000001,-1938.8699999999999
166991.0,5195.6700000000001,3875.0799999999999,1053.4300000000001,5019.9300000000003,-1090.79,-194.108,-1898.22
166992.0,5070.5699999999997,3974.4699999999998,1080.29,5038.9499999999998,-1081.8399999999999,-184.137,-1780.23
166993.0,4649.79,3927.1199999999999,1112.95,4740.2299999999996,-1021.25,-190.44,-1582.6199999999999
166994.0,29912.200000000001,-20258.0,4927.5299999999997,-15550.6,8759.1800000000003,1499.5,6322.2799999999997
166995.0,27434.099999999999,-18055.900000000001,5332.1800000000003,-12968.200000000001,7945.3400000000001,1768.02,5772.6199999999999
166996.0,25074.799999999999,-16516.599999999999,5091.3999999999996,-11020.799999999999,7227.3400000000001,2024.72,5208.6199999999999
166997.0,22910.5,-14938.200000000001,4979.3100000000004,-9037.2299999999996,6590.96,2233.3499999999999,4676.5600000000004
166998.0,20916.200000000001,-13436.799999999999,4876.2600000000002,-7167.21,6007.4499999999998,2390.5500000000002,4171.9700000000003
166999.0,19085.0,-12041.5,4751.6800000000003,-5447.6899999999996,5468.5,2504.4400000000001,3694.5
167000.0,17409.799999999999,-10725.6,4633.1099999999997,-3853.96,4965.5500000000002,2580.54,3244.6500000000001
167001.0,15881.200000000001,-9496.6200000000008,4508.9200000000001,-2391.77,4493.4799999999996,2625.48,2818.4299999999998
167002.0,14492.4,-8331.7800000000007,4396.8699999999999,-1037.45,4049.6999999999998,2643.5500000000002,2414.1700000000001
167003.0,13239.299999999999,-7246.9200000000001,4278.0500000000002,194.53700000000001,3631.8800000000001,2639.6599999999999,2030.25
167004.0,12119.0,-6219.5100000000002,4171.9499999999998,1329.3499999999999,3238.6999999999998,2617.3899999999999,1665.8900000000001
167005.0,11129.1,-5266.6800000000003,4059.04,2352.0700000000002,2868.8800000000001,2579.9200000000001,1320.71
167006.0,10266.9,-4364.3900000000003,3960.5799999999999,3289.6500000000001,2521.4000000000001,2529.8400000000001,994.48400000000004
167007.0,9529.0499999999993,-3533.8200000000002,3852.9899999999998,4123.5100000000002,2195.3099999999999,2469.3600000000001,686.79499999999996
167008.0,8910.8899999999994,-2751.8400000000001,3756.8299999999999,4879.54,1889.79,2400.3899999999999,397.42000000000002
167009.0,8405.9699999999993,-2032.6500000000001,3655.4200000000001,5546.0699999999997,1604.0599999999999,2324.5599999999999,126.09999999999999
167010.0,8005.8100000000004,-1358.1800000000001,3564.3200000000002,6143.79,1337.3399999999999,2243.27,-127.47199999999999
167011.0,7699.9300000000003,-735.25099999999998,3474.1700000000001,6668.3100000000004,1088.8399999999999,2157.7800000000002,-363.75299999999999
167012.0,7476.04,-160.90299999999999,3385.5300000000002,7124.8199999999997,857.76700000000005,2069.0700000000002,-583.13599999999997
167013.0,7321.1000000000004,364.47000000000003,3295.4699999999998,7515.1700000000001,643.32100000000003,1978.0999999999999,-786.08500000000004
167014.0,7221.8699999999999,850.71000000000004,3211.4400000000001,7851.2299999999996,444.745,1885.6500000000001,-973.13
167015.0,7165.7600000000002,1294.1099999999999,3127.3499999999999,8131.2399999999998,261.26499999999999,1792.4100000000001,-1144.8599999999999
167016.0,7141.29,1694.3,3040.6100000000001,8356.5900000000001,92.105800000000002,1698.9400000000001,-1301.8299999999999
167017.0,7138.7299999999996,2055.0300000000002,2952.6399999999999,8532.7800000000007,-63.499200000000002,1605.8,-1444.6600000000001
167018.0,7149.6499999999996,2386.3099999999999,2871.3899999999999,8671.2399999999998,-206.21100000000001,1513.3900000000001,-1573.9400000000001
167019.0,7167.54,2680.27,2786.7600000000002,8765.6399999999994,-336.745,1422.1199999999999,-1690.28
167020.0,7187.0200000000004,2953.9499999999998,2713.9400000000001,8834.2299999999996,-455.76299999999998,1332.28,-1794.3
167021.0,7204.1599999999999,3186.3499999999999,2629.9499999999998,8857.2800000000007,-563.96100000000001,1244.1600000000001,-1886.5799999999999
167022.0,7215.9799999999996,3401.9299999999998,2557.48,8860.2900000000009,-661.96400000000006,1157.95,-1967.8399999999999
167023.0,7220.3900000000003,3584.54,2478.48,8828.1800000000003,-750.35299999999995,1073.9000000000001,-2038.48
167024.0,7215.8500000000004,3754.3099999999999,2411.6300000000001,8781.8799999999992,-829.71400000000006,992.077,-2099.2800000000002
167025.0,7201.4700000000003,3889.0700000000002,2332.9899999999998,8700.1299999999992,-900.60599999999999,912.68700000000001,-2150.5700000000002
167026.0,7176.7600000000002,4010.8800000000001,2263.3299999999999,8605.6499999999996,-963.59199999999998,835.71400000000006,-2193.1500000000001
167027.0,7141.5500000000002,4106.6400000000003,2187.8699999999999,8486.1499999999996,-1019.13,761.37099999999998,-2227.2399999999998
167028.0,7095.8900000000003,4196.3100000000004,2125.4899999999998,8362.0100000000002,-1067.7,689.57299999999998,-2253.6900000000001
167029.0,7039.9700000000003,4259.5799999999999,2054.27,8213.6399999999994,-1109.75,620.52099999999996,-2272.5599999999999
167030.0,6974.2299999999996,4315.8800000000001,1992.8399999999999,8060.6999999999998,-1145.73,554.024,-2284.8299999999999
167031.0,6899.0699999999997,4346.7799999999997,1921.1600000000001,7885.4899999999998,-1176.03,490.32900000000001,-2290.3499999999999
167032.0,6815.1400000000003,4376.1700000000001,1862.55,7711.96,-1201.0799999999999,429.17099999999999,-2290.1999999999998
167033.0,6722.8599999999997,4381.1800000000003,1792.54,7517.8800000000001,-1221.1800000000001,370.81799999999998,-2284.0599999999999
167034.0,6623.0699999999997,4386.4399999999996,1735.3900000000001,7327.8299999999999,-1236.74,314.94200000000001,-2273.1300000000001
167035.0,6516.1599999999999,4375.0600000000004,1672.5899999999999,7125.6000000000004,-1248.0,261.88,-2256.8499999999999
167036.0,6402.9099999999999,4370.1099999999997,1627.1600000000001,6933.9200000000001,-1255.3399999999999,211.202,-2236.5500000000002
167037.0,6284.0900000000001,4337.1300000000001,1562.73,6719.2700000000004,-1259.0699999999999,163.31200000000001,-2211.5700000000002
167038.0,6159.8599999999997,4308.0,1511.72,6512.7600000000002,-1259.4300000000001,117.669,-2183.1599999999999
167039.0,6032.2600000000002,4257.3800000000001,1446.03,6290.79,-1256.8699999999999,74.895700000000005,-2150.7399999999998
167040.0,5899.1199999999999,4227.4899999999998,1409.55,6093.46,-1251.2,34.2699,-2114.9299999999998
167041.0,5767.1099999999997,4160.9200000000001,1339.9100000000001,5867.5299999999997,-1243.7,-3.2681399999999998,-2076.3899999999999
167042.0,5625.4799999999996,4134.3500000000004,1319.3299999999999,5683.0,-1232.6700000000001,-39.0319,-2033.1300000000001
167043.0,5497.4799999999996,4025.0599999999999,1212.3900000000001,5429.8000000000002,-1222.4400000000001,-71.001900000000006,-1990.6900000000001
167044.0,5346.6499999999996,4036.6999999999998,1235.73,5293.5799999999999,-1206.5,-100.86199999999999,-1935.9400000000001
167045.0,5213.5900000000001,3851.3899999999999,1066.9100000000001,4966.6300000000001,-1192.96,-132.012,-1893.6099999999999
167046.0,5087.6800000000003,3937.3600000000001,1077.6099999999999,4974.6700000000001,-1176.53,-126.82299999999999,-1776.04
167047.0,4668.7200000000003,3961.6300000000001,1180.4400000000001,4757.7799999999997,-1104.6600000000001,-147.89699999999999,-1579.8099999999999
167048.0,27746.299999999999,-18088.900000000001,5410.7399999999998,-13122.1,8223.9200000000001,2140.3200000000002,5568.71
167049.0,25517.0,-16747.400000000001,5007.3699999999999,-11473.299999999999,7537.54,2351.9400000000001,5090.1899999999996
167050.0,23440.299999999999,-15127.799999999999,4997.4200000000001,-9527.5799999999999,6893.0100000000002,2546.23,4610.6099999999997
167051.0,21475.200000000001,-13639.9,4895.6000000000004,-7741.4899999999998,6293.6000000000004,2711.4099999999999,4134.1499999999996
167052.0,19634.799999999999,-12228.700000000001,4772.2799999999997,-6057.3100000000004,5735.3900000000003,2838.71,3672.6799999999998
167053.0,17937.900000000001,-10888.6,4658.8900000000003,-4478.6199999999999,5212.8299999999999,2930.7800000000002,3231.4499999999998
167054.0,16381.700000000001,-9630.1299999999992,4545.04,-3014.8699999999999,4720.8800000000001,2992.4699999999998,2811.3899999999999
167055.0,14962.5,-8446.4899999999998,4435.25,-1661.4400000000001,4257.1300000000001,3026.8099999999999,2411.6900000000001
167056.0,13676.4,-7338.3900000000003,4325.1899999999996,-418.01499999999999,3819.5100000000002,3037.6999999999998,2031.4100000000001
167057.0,12520.9,-6295.4200000000001,4222.1400000000003,726.80399999999997,3406.9299999999998,3028.25,1669.9400000000001
167058.0,11493.799999999999,-5322.2600000000002,4118.5200000000004,1769.8599999999999,3018.0599999999999,3001.5,1326.97
167059.0,10592.9,-4407.2799999999997,4023.0900000000001,2724.4899999999998,2652.1100000000001,2959.9699999999998,1002.3099999999999
167060.0,9815.3999999999996,-3559.9499999999998,3923.6900000000001,3583.27,2308.1199999999999,2905.98,695.79499999999996
167061.0,9157.5200000000004,-2763.4200000000001,3834.4400000000001,4365.1400000000003,1985.3800000000001,2841.5100000000002,407.24400000000003
167062.0,8613.7299999999996,-2028.1900000000001,3742.2600000000002,5061.6800000000003,1683.05,2768.27,136.33099999999999
167063.0,8176.6599999999999,-1342.51,3656.27,5686.71,1400.4300000000001,2687.8000000000002,-117.136
167064.0,7836.7700000000004,-713.16300000000001,3567.0700000000002,6235.3800000000001,1136.6900000000001,2601.4299999999998,-353.61099999999999
167065.0,7582.8900000000003,-135.12700000000001,3477.0900000000001,6714.8100000000004,891.05100000000004,2510.3499999999999,-573.40899999999999
167066.0,7402.4899999999998,399.76600000000002,3392.0599999999999,7134.9099999999999,662.78300000000002,2415.5900000000001,-777.01900000000001
167067.0,7282.7200000000003,890.25599999999997,3308.0599999999999,7496.2799999999997,451.11700000000002,2318.1399999999999,-964.87599999999998
167068.0,7210.8100000000004,1337.3399999999999,3223.8800000000001,7801.5100000000002,255.261,2218.71,-1137.6400000000001
167069.0,7175.1099999999997,1743.29,3139.3099999999999,8054.5500000000002,74.465000000000003,2118.0799999999999,-1295.7
167070.0,7165.2799999999997,2118.8600000000001,3062.9200000000001,8267.6399999999994,-92.020200000000003,2016.8499999999999,-1439.79
167071.0,7172.5799999999999,2458.5799999999999,2986.8800000000001,8436.7099999999991,-244.91499999999999,1915.6199999999999,-1570.3800000000001
167072.0,7189.5699999999997,2763.0100000000002,2909.9299999999998,8563.4899999999998,-384.96600000000001,1814.74,-1688.24
167073.0,7210.5900000000001,3037.0100000000002,2834.6500000000001,8654.1700000000001,-512.85699999999997,1714.75,-1793.73
167074.0,7231.1700000000001,3275.4099999999999,2754.1799999999998,8704.6200000000008,-629.32399999999996,1615.8599999999999,-1887.75
167075.0,7247.8299999999999,3494.0999999999999,2682.3099999999999,8731.7700000000004,-734.93899999999996,1518.54,-1970.51
167076.0,7258.1800000000003,3682.1300000000001,2606.6100000000001,8725.5599999999995,-830.37900000000002,1422.8900000000001,-2043.0
167077.0,7260.4099999999999,3848.0,2533.6300000000001,8695.4400000000005,-916.20699999999999,1329.28,-2105.3699999999999
167078.0,7253.3599999999997,3987.4699999999998,2457.8200000000002,8637.7900000000009,-993.03800000000001,1237.73,-2158.5799999999999
167079.0,7236.2700000000004,4111.2799999999997,2388.0900000000001,8564.1900000000005,-1061.3399999999999,1148.5799999999999,-2202.6900000000001
167080.0,7208.8900000000003,4217.0699999999997,2321.0,8472.7999999999993,-1121.7,1061.77,-2238.7399999999998
167081.0,7171.0799999999999,4301.6899999999996,2251.5900000000001,8361.1800000000003,-1174.5699999999999,977.62,-2266.6799999999998
167082.0,7123.0500000000002,4369.1800000000003,2183.1599999999999,8233.7399999999998,-1220.52,895.93100000000004,-2287.5900000000001
167083.0,7064.9300000000003,4418.4899999999998,2112.8899999999999,8090.0699999999997,-1259.8900000000001,817.05999999999995,-2301.23
167084.0,6997.3299999999999,4459.3900000000003,2049.98,7940.1400000000003,-1293.21,740.75599999999997,-2308.8200000000002
167085.0,6920.4700000000003,4482.54,1983.3399999999999,7775.2299999999996,-1320.74,667.37900000000002,-2309.8899999999999
167086.0,6835.25,4499.6099999999997,1924.3299999999999,7607.0600000000004,-1343.05,596.56700000000001,-2305.8400000000001
167087.0,6741.8299999999999,4498.25,1858.8299999999999,7423.8500000000004,-1360.3099999999999,528.73800000000006,-2295.9899999999998
167088.0,6641.29,4496.9300000000003,1805.3,7244.0600000000004,-1373.0799999999999,463.43900000000002,-2281.8400000000001
167089.0,6533.7399999999998,4468.7600000000002,1734.97,7041.3299999999999,-1381.5,401.12900000000002,-2262.52
167090.0,6420.29,4442.9300000000003,1677.3399999999999,6844.6700000000001,-1386.0699999999999,341.267,-2239.6500000000001
167091.0,6301.2600000000002,4399.0299999999997,1609.79,6634.4399999999996,-1386.8900000000001,284.47199999999998,-2212.1399999999999
167092.0,6177.25,4371.3100000000004,1567.3900000000001,6444.2399999999998,-1384.3599999999999,230.035,-2181.6700000000001
167093.0,6049.7700000000004,4311.0600000000004,1498.46,6226.8199999999997,-1378.79,178.75700000000001,-2147.21
167094.0,5917.2700000000004,4270.1000000000004,1456.8599999999999,6032.2200000000003,-1370.2,129.66900000000001,-2109.8699999999999
167095.0,5785.71,4188.1099999999997,1376.9400000000001,5803.8999999999996,-1359.6800000000001,84.109499999999997,-2069.73
167096.0,5645.0799999999999,4156.6999999999998,1356.3,5627.2700000000004,-1345.5799999999999,40.238300000000002,-2025.45
167097.0,5517.8500000000004,4050.1399999999999,1255.8299999999999,5388.5100000000002,-1332.29,1.0305,-1981.79
167098.0,5367.4700000000003,4069.3200000000002,1290.6199999999999,5270.8699999999999,-1312.6099999999999,-36.634799999999998,-1926.4200000000001
167099.0,5235.0,3897.5300000000002,1138.75,4968.7600000000002,-1296.1500000000001,-74.994600000000005,-1882.78
167100.0,5108.04,4000.9400000000001,1164.7,4997.4700000000003,-1272.3,-74.088200000000001,-1765.95
167101.0,4689.21,3942.98,1186.4000000000001,4711.8000000000002,-1188.8900000000001,-108.986,-1570.9300000000001
167102.0,25958.599999999999,-16922.799999999999,4927.6199999999999,-12003.700000000001,7827.5600000000004,2661.4499999999998,4987.7399999999998
167103.0,24095.0,-15338.4,5075.1000000000004,-10109.6,7218.1800000000003,2819.0999999999999,4586.4499999999998
167104.0,22212.5,-14003.9,4883.5500000000002,-8546.2199999999993,6623.75,2982.6100000000001,4149.0900000000001
167105.0,20387.900000000001,-12568.0,4796.9399999999996,-6892.7299999999996,6054.4799999999996,3121.2600000000002,3709.0100000000002
167106.0,18666.200000000001,-11203.200000000001,4690.7399999999998,-5323.0799999999999,5513.4499999999998,3229.9699999999998,3276.1199999999999
167107.0,17068.400000000001,-9905.0200000000004,4587.6899999999996,-3844.6100000000001,5000.7399999999998,3309.3099999999999,2858.8099999999999
167108.0,15601.700000000001,-8690.0,4478.3299999999999,-2477.3600000000001,4515.0200000000004,3361.6799999999998,2460.4400000000001
167109.0,14265.799999999999,-7545.8100000000004,4375.6300000000001,-1209.3299999999999,4055.2600000000002,3389.2199999999998,2080.5700000000002
167110.0,13059.0,-6473.6700000000001,4275.1000000000004,-41.341200000000001,3620.6799999999998,3394.6199999999999,1719.1800000000001
167111.0,11979.200000000001,-5470.6700000000001,4177.0100000000002,1030.3099999999999,3210.2399999999998,3380.6100000000001,1375.77
167112.0,11024.9,-4531.9399999999996,4083.0300000000002,2011.8,2823.1599999999999,3349.8099999999999,1050.25
167113.0,10193.700000000001,-3659.6199999999999,3988.3800000000001,2902.2600000000002,2458.6599999999999,3304.4299999999998,742.55399999999997
167114.0,9482.7600000000002,-2842.79,3901.0100000000002,3714.25,2116.0599999999999,3246.5900000000001,452.51799999999997
167115.0,8887.5100000000002,-2090.6100000000001,3809.0300000000002,4440.2700000000004,1794.5799999999999,3178.0900000000001,179.93799999999999
167116.0,8401.7000000000007,-1389.1700000000001,3723.5300000000002,5095.79,1493.51,3100.5900000000001,-75.456699999999998
167117.0,8017.0799999999999,-745.10000000000002,3635.1300000000001,5675.8699999999999,1212.1199999999999,3015.5300000000002,-313.91800000000001
167118.0,7723.5,-145.95699999999999,3553.6599999999999,6194.5699999999997,949.68100000000004,2924.23,-535.89300000000003
167119.0,7509.25,406.41399999999999,3474.5300000000002,6651.5699999999997,705.46100000000001,2827.8800000000001,-741.74199999999996
167120.0,7361.6400000000003,911.43499999999995,3394.7199999999998,7047.8100000000004,478.63600000000002,2727.4499999999998,-932.04600000000005
167121.0,7268.1199999999999,1370.98,3313.48,7386.7200000000003,268.43099999999998,2623.9299999999998,-1107.1600000000001
167122.0,7216.4799999999996,1794.4100000000001,3237.9200000000001,7678.9200000000001,74.103800000000007,2518.0900000000001,-1267.8
167123.0,7195.8000000000002,2176.6599999999999,3160.4499999999998,7920.6899999999996,-105.07599999999999,2410.71,-1414.3399999999999
167124.0,7196.6499999999996,2520.2199999999998,3081.4200000000001,8115.8100000000004,-269.95600000000002,2302.3600000000001,-1547.5999999999999
167125.0,7211.04,2824.8000000000002,2998.29,8265.1499999999996,-421.24599999999998,2193.71,-1667.9300000000001
167126.0,7232.3500000000004,3105.4899999999998,2924.27,8384.7600000000002,-559.62,2085.1399999999999,-1776.0999999999999
167127.0,7255.5699999999997,3348.5900000000001,2843.4099999999999,8462.0499999999993,-685.745,1977.24,-1872.45
167128.0,7276.8199999999997,3577.25,2777.1799999999998,8521.0200000000004,-800.34699999999998,1870.25,-1957.9300000000001
167129.0,7293.0200000000004,3763.8000000000002,2695.8899999999999,8534.9099999999999,-904.01099999999997,1764.6300000000001,-2032.7
167130.0,7302.1599999999999,3939.5500000000002,2629.4200000000001,8535.7700000000004,-997.46699999999998,1660.53,-2097.73
167131.0,7302.6199999999999,4080.8899999999999,2552.1700000000001,8500.7000000000007,-1081.1900000000001,1558.3699999999999,-2153.0999999999999
167132.0,7293.5799999999999,4215.3299999999999,2490.4899999999998,8457.8700000000008,-1155.8599999999999,1458.1600000000001,-2199.8299999999999
167133.0,7274.3400000000001,4313.4499999999998,2413.1500000000001,8378.5,-1221.9300000000001,1360.27,-2237.9400000000001
167134.0,7244.8699999999999,4403.7399999999998,2347.6300000000001,8291.5900000000001,-1280.0699999999999,1264.6700000000001,-2268.4299999999998
167135.0,7204.9399999999996,4467.1700000000001,2273.1300000000001,8178.6800000000003,-1330.5999999999999,1171.72,-2291.1799999999998
167136.0,7154.9899999999998,4529.0299999999997,2214.1500000000001,8065.3599999999997,-1374.1400000000001,1081.25,-2307.3200000000002
167137.0,7095.0,4563.8999999999996,2143.6199999999999,7926.7200000000003,-1410.98,993.60500000000002,-2316.5700000000002
167138.0,7025.8599999999997,4595.3900000000003,2084.5900000000001,7786.6599999999999,-1441.77,908.56100000000004,-2320.1399999999999
167139.0,6947.5600000000004,4601.4799999999996,2013.3699999999999,7623.5799999999999,-1466.6900000000001,826.50099999999998,-2317.5300000000002
167140.0,6861.1400000000003,4608.7799999999997,1956.3,7464.25,-1486.3599999999999,747.09299999999996,-2310.0900000000001
167141.0,6766.6899999999996,4592.3599999999997,1886.74,7284.1300000000001,-1500.9000000000001,670.73000000000002,-2297.21
167142.0,6665.3599999999997,4578.0,1830.3499999999999,7109.0799999999999,-1510.9100000000001,597.03999999999996,-2280.25
167143.0,6557.1099999999997,4548.0600000000004,1767.8,6921.8299999999999,-1516.4200000000001,526.46000000000004,-2258.4200000000001
167144.0,6443.21,4525.8000000000002,1722.52,6745.5799999999999,-1518.0699999999999,458.49400000000003,-2233.25
167145.0,6323.8400000000001,4477.0299999999997,1658.3199999999999,6546.6700000000001,-1515.9000000000001,393.68900000000002,-2203.77
167146.0,6199.6999999999998,4432.0799999999999,1606.27,6355.0900000000001,-1510.4100000000001,331.41500000000002,-2171.4499999999998
167147.0,6072.1700000000001,4368.3900000000003,1541.0,6149.3800000000001,-1501.8,272.47399999999999,-2135.4699999999998
167148.0,5939.8100000000004,4324.1400000000003,1502.49,5966.29,-1490.0999999999999,215.92400000000001,-2096.6999999999998
167149.0,5808.5799999999999,4247.4300000000003,1433.7,5757.1800000000003,-1476.49,163.197,-2055.4899999999998
167150.0,5668.4099999999999,4207.5600000000004,1409.9300000000001,5585.8299999999999,-1459.1900000000001,112.158,-2010.23
167151.0,5542.3299999999999,4090.5,1303.5599999999999,5349.1800000000003,-1443.0999999999999,66.403300000000002,-1966.1600000000001
167152.0,5391.6899999999996,4091.1199999999999,1324.2,5225.1000000000004,-1419.6900000000001,21.75,-1909.8900000000001
167153.0,5259.6599999999999,3895.29,1154.03,4910.54,-1400.5799999999999,-23.783999999999999,-1866.29
167154.0,5131.5799999999999,3980.3800000000001,1158.6700000000001,4925.71,-1369.0899999999999,-26.391300000000001,-1749.73
167155.0,4708.9700000000003,3994.7800000000002,1255.5999999999999,4727.1000000000004,-1272.98,-73.933800000000005,-1554.6900000000001
167156.0,24874.099999999999,-15592.6,5241.9899999999998,-10724.1,7549.9899999999998,3025.8899999999999,4615.1199999999999
167157.0,23178.299999999999,-14528.9,4897.29,-9529.7800000000007,7018.1099999999997,3185.0900000000001,4234.1400000000003
167158.0,21424.5,-13097.9,4867.0600000000004,-7950.8599999999997,6460.25,3332.54,3817.5999999999999
167159.0,19695.900000000001,-11732.299999999999,4762.5,-6426.71,5908.3000000000002,3461.6399999999999,3393.2199999999998
167160.0,18047.0,-10392.5,4665.1499999999996,-4936.4300000000003,5373.3199999999997,3565.23,2977.5500000000002
167161.0,16511.099999999999,-9122.4099999999999,4563.1999999999998,-3534.6999999999998,4861.7200000000003,3640.29,2575.9299999999998
167162.0,15100.0,-7925.7600000000002,4462.1099999999997,-2227.71,4375.0600000000004,3688.8400000000001,2192.5599999999999
167163.0,13815.700000000001,-6802.75,4364.1300000000001,-1016.89,3913.54,3712.5999999999999,1826.8299999999999
167164.0,12658.5,-5754.1499999999996,4266.3800000000001,97.284199999999998,3476.54,3714.7800000000002,1479.1300000000001
167165.0,11626.799999999999,-4770.8599999999997,4175.3500000000004,1124.5,3063.5300000000002,3697.6399999999999,1149.03
167166.0,10719.299999999999,-3857.0,4083.79,2061.4299999999998,2673.77,3663.77,836.69100000000003
167167.0,9933.7299999999996,-3001.8800000000001,3999.4400000000001,2919.9000000000001,2306.7199999999998,3615.23,541.83699999999999
167168.0,9266.6700000000001,-2213.4099999999999,3911.3299999999999,3693.0599999999999,1961.6600000000001,3554.04,264.46699999999998
167169.0,8713.1399999999994,-1475.99,3832.0999999999999,4397.8000000000002,1637.97,3481.9299999999998,4.2483000000000004
167170.0,8266.3299999999999,-799.06399999999996,3749.4000000000001,5025.9700000000003,1334.9000000000001,3400.5,-239.08099999999999
167171.0,7917.2700000000004,-170.84200000000001,3672.27,5590.6199999999999,1051.79,3311.1599999999999,-465.82799999999997
167172.0,7655.2200000000003,401.95800000000003,3591.0900000000001,6086.3900000000003,787.81700000000001,3215.21,-676.44899999999996
167173.0,7468.1400000000003,924.92399999999998,3508.8000000000002,6520.1599999999999,542.21500000000003,3113.8099999999999,-871.38999999999999
167174.0,7343.29,1405.48,3430.21,6900.4499999999998,314.31599999999997,3008.02,-1051.1199999999999
167175.0,7268.1700000000001,1844.21,3353.1799999999998,7229.1199999999999,103.316,2898.7800000000002,-1216.1500000000001
167176.0,7231.0200000000004,2239.5999999999999,3273.9400000000001,7505.75,-91.626099999999994,2786.8800000000001,-1367.1300000000001
167177.0,7221.3599999999997,2597.6199999999999,3195.9400000000001,7737.4099999999999,-271.18599999999998,2673.1500000000001,-1504.45
167178.0,7230.3299999999999,2924.8600000000001,3123.52,7931.6800000000003,-436.19099999999997,2558.23,-1628.9200000000001
167179.0,7250.3400000000001,3220.5300000000002,3053.6399999999999,8088.7299999999996,-587.28800000000001,2442.73,-1740.9200000000001
167180.0,7275.4200000000001,3479.5999999999999,2979.3200000000002,8204.3400000000001,-725.31200000000001,2327.0900000000001,-1841.23
167181.0,7300.8999999999996,3713.1999999999998,2909.5599999999999,8290.5699999999997,-850.89700000000005,2211.8800000000001,-1930.2
167182.0,7323.2200000000003,3909.5,2830.8400000000001,8336.2999999999993,-964.81100000000004,2097.4299999999998,-2008.6700000000001
167183.0,7339.6599999999999,4091.3000000000002,2763.9400000000001,8365.1000000000004,-1067.5899999999999,1984.1800000000001,-2076.8800000000001
167184.0,7348.4499999999998,4240.2299999999996,2688.98,8359.2000000000007,-1159.99,1872.3599999999999,-2135.73
167185.0,7348.0799999999999,4372.8900000000003,2620.7199999999998,8335.8099999999995,-1242.46,1762.3399999999999,-2185.3299999999999
167186.0,7337.9499999999998,4476.2700000000004,2544.8800000000001,8282.4500000000007,-1315.75,1654.24,-2226.6500000000001
167187.0,7317.4499999999998,4570.0600000000004,2479.4000000000001,8219.3799999999992,-1380.26,1548.3800000000001,-2259.7399999999998
167188.0,7286.6000000000004,4642.6499999999996,2411.5599999999999,8135.3699999999999,-1436.6500000000001,1444.8399999999999,-2285.5
167189.0,7245.25,4700.2799999999997,2346.0100000000002,8037.1499999999996,-1485.28,1343.8699999999999,-2303.9400000000001
167190.0,7193.8999999999996,4737.1199999999999,2276.0999999999999,7919.1999999999998,-1526.8399999999999,1245.4300000000001,-2316.0100000000002
167191.0,7132.5600000000004,4762.3999999999996,2209.4699999999998,7791.1400000000003,-1561.5599999999999,1149.8099999999999,-2321.5700000000002
167192.0,7062.0900000000001,4774.9200000000001,2144.23,7652.0299999999997,-1590.0799999999999,1056.9100000000001,-2321.6199999999999
167193.0,6982.6000000000004,4776.8800000000001,2081.0599999999999,7504.4200000000001,-1612.5999999999999,966.99900000000002,-2315.9000000000001
167194.0,6895.0100000000002,4767.6899999999996,2018.99,7347.8500000000004,-1629.75,879.875,-2305.48
167195.0,6799.54,4747.7399999999998,1956.9100000000001,7183.0600000000004,-1641.6800000000001,795.82000000000005,-2290.0100000000002
167196.0,6697.1800000000003,4721.8800000000001,1899.3800000000001,7014.9799999999996,-1648.98,714.60699999999997,-2270.5100000000002
167197.0,6588.1599999999999,4678.0699999999997,1832.9000000000001,6831.8699999999999,-1651.77,636.51400000000001,-2246.5900000000001
167198.0,6473.3999999999996,4628.8699999999999,1770.02,6646.2799999999997,-1650.5899999999999,561.23800000000006,-2219.3200000000002
167199.0,6353.4099999999999,4572.0100000000002,1706.6700000000001,6456.3900000000003,-1645.52,489.19499999999999,-2188.1700000000001
167200.0,6228.5100000000002,4522.25,1658.05,6276.6199999999999,-1636.96,419.93400000000003,-2154.0700000000002
167201.0,6100.5299999999997,4451.9300000000003,1594.0799999999999,6080.3199999999997,-1625.3,354.048,-2116.8400000000001
167202.0,5967.6599999999999,4389.7600000000002,1544.8299999999999,5894.9799999999996,-1610.4200000000001,290.84399999999999,-2076.6300000000001
167203.0,5836.2399999999998,4300.6899999999996,1470.6099999999999,5688.4300000000003,-1593.6900000000001,231.56700000000001,-2034.5999999999999
167204.0,5696.1599999999999,4248.7799999999997,1440.4200000000001,5519.9700000000003,-1572.98,174.42400000000001,-1988.24
167205.0,5570.8000000000002,4138.8100000000004,1347.1800000000001,5303.8699999999999,-1553.8599999999999,122.637,-1944.4200000000001
167206.0,5420.96,4138.1099999999997,1369.55,5192.6599999999999,-1526.4100000000001,72.894499999999994,-1887.1900000000001
167207.0,5286.4799999999996,3966.1900000000001,1233.3599999999999,4913.2799999999997,-1503.97,20.077100000000002,-1844.48
167208.0,5161.5799999999999,4045.5700000000002,1228.45,4929.9899999999998,-1466.24,15.1646,-1730.3
167209.0,4724.5,4008.2800000000002,1279.0699999999999,4695.3199999999997,-1354.45,-43.370600000000003,-1529.27
167210.0,49793.5,-33472.900000000001,5986.8000000000002,-33646.800000000003,16409.0,2095.9000000000001,5612.1199999999999
167211.0,54055.300000000003,-37107.300000000003,6512.0200000000004,-36012.199999999997,17770.599999999999,1802.8299999999999,6021.2600000000002
167212.0,58751.300000000003,-42270.599999999999,5798.7700000000004,-39727.099999999999,19365.099999999999,1565.8,6441.2799999999997
167213.0,64363.199999999997,-46662.599999999999,6592.3699999999999,-42389.300000000003,21347.900000000001,1367.24,6905.21
167214.0,70892.100000000006,-54314.800000000003,4563.5799999999999,-48184.099999999999,23894.299999999999,1408.29,7385.4799999999996
167215.0,80329.5,-60279.699999999997,5836.6099999999997,-52434.400000000001,27905.0,1784.3399999999999,8020.5900000000001
167216.0,89894.600000000006,-73662.199999999997,-2613.54,-67307.699999999997,32523.900000000001,2626.5300000000002,9131.1399999999994
167217.0,110531.0,-76955.0,1574.05,-72005.800000000003,44643.900000000001,2751.7600000000002,11726.1
167218.0,157153.0,-112361.0,-70973.300000000003,-129596.0,83047.699999999997,2988.4099999999999,20463.0
167219.0,184193.0,-165240.0,-262779.0,-248144.0,86208.899999999994,12054.4,31063.0
167220.0,136849.0,-224351.0,-361680.0,-321611.0,-5147.9099999999999,21548.200000000001,27646.900000000001
167221.0,126347.0,-290839.0,-287676.0,-319833.0,-65598.100000000006,17345.700000000001,20077.400000000001
167222.0,115660.0,-258148.0,-169061.0,-242551.0,-41997.400000000001,9396.3199999999997,18535.700000000001
167223.0,47986.900000000001,-31891.299999999999,6230.7299999999996,-31557.0,15792.299999999999,2287.77,5721.1700000000001
167224.0,52189.599999999999,-36249.800000000003,5941.3500000000004,-34639.0,17162.400000000001,1947.5,6164.7200000000003
167225.0,56990.599999999999,-40339.400000000001,6473.0600000000004,-37102.099999999999,18777.299999999999,1604.9300000000001,6635.6099999999997
167226.0,62608.0,-46538.599999999999,5448.1700000000001,-41293.400000000001,20857.900000000001,1354.28,7109.6199999999999
167227.0,69638.899999999994,-52240.0,6051.4099999999999,-44402.599999999999,23593.900000000001,1293.95,7573.8000000000002
167228.0,79420.399999999994,-62793.599999999999,3174.8600000000001,-51444.699999999997,28110.900000000001,1813.51,8064.3299999999999
167229.0,91580.5,-73549.199999999997,528.99599999999998,-60037.599999999999,34081.0,4454.5500000000002,7608.8400000000001
167230.0,115367.0,-87321.100000000006,-6415.7299999999996,-78618.100000000006,48291.5,8148.5600000000004,8098.5
167231.0,146697.0,-103412.0,-63338.099999999999,-128999.0,74164.199999999997,12746.0,20377.700000000001
167232.0,155276.0,-124411.0,-181684.0,-210894.0,61933.400000000001,26016.400000000001,39859.599999999999
167233.0,127060.0,-187420.0,-255653.0,-288750.0,-7044.6099999999997,36376.900000000001,36588.199999999997
167234.0,121161.0,-232419.0,-202177.0,-290826.0,-45309.900000000001,23014.400000000001,16729.400000000001
167235.0,113919.0,-212046.0,-123907.0,-233647.0,-28128.0,3760.6300000000001,11868.5
167236.0,45993.699999999997,-30573.200000000001,6010.1800000000003,-29812.099999999999,15116.799999999999,2432.3299999999999,5803.5699999999997
167237.0,50178.699999999997,-34582.199999999997,6062.4399999999996,-32508.799999999999,16475.799999999999,2013.01,6308.0
167238.0,54968.900000000001,-39264.199999999997,5926.8299999999999,-35551.0,18129.400000000001,1571.22,6829.6700000000001
167239.0,60649.0,-44563.900000000001,5907.5200000000004,-38650.599999999999,20214.099999999999,1107.0699999999999,7414.25
167240.0,68054.5,-52125.099999999999,4897.21,-43023.0,23258.900000000001,798.90300000000002,7983.2399999999998
167241.0,78307.800000000003,-61526.5,3713.9699999999998,-47966.0,28000.400000000001,748.99400000000003,8618.6700000000001
167242.0,92797.699999999997,-78018.100000000006,-2626.46,-56289.300000000003,35803.599999999999,2042.4100000000001,8857.2999999999993
167243.0,125721.0,-98174.300000000003,-13312.799999999999,-70992.5,56966.0,10577.1,5806.4899999999998
167244.0,187991.0,-119430.0,-64129.0,-134891.0,96135.399999999994,33171.400000000001,-7328.4799999999996
167245.0,234828.0,-153739.0,-185151.0,-277034.0,100582.0,52726.5,-37139.0
167246.0,213508.0,-195681.0,-253861.0,-380990.0,32054.5,35976.900000000001,-62388.699999999997
167247.0,174732.0,-216158.0,-191157.0,-346133.0,-28321.400000000001,-2334.6500000000001,-49465.900000000001
167248.0,138824.0,-198159.0,-106398.0,-247559.0,-26907.099999999999,-19126.799999999999,-14248.700000000001
167249.0,43931.199999999997,-29199.5,5808.9499999999998,-28019.599999999999,14389.799999999999,2559.52,5871.6899999999996
167250.0,47987.900000000001,-32897.699999999997,5986.3000000000002,-30524.799999999999,15717.5,2046.5899999999999,6424.54
167251.0,52833.900000000001,-37643.900000000001,5838.3999999999996,-33550.5,17377.900000000001,1482.8399999999999,7056.3199999999997
167252.0,58431.699999999997,-43008.599999999999,5472.71,-36880.599999999999,19530.0,860.399,7678.79
167253.0,65963.0,-50054.800000000003,5153.0699999999997,-40556.599999999999,22499.5,42.768500000000003,8537.6299999999992
167254.0,77687.5,-60827.599999999999,2891.3400000000001,-46334.5,28479.900000000001,-374.15600000000001,9218.5799999999999
167255.0,89941.0,-76577.0,-3725.4099999999999,-55301.5,34330.099999999999,-1879.27,10537.0
167256.0,142432.0,-99411.899999999994,-5521.9399999999996,-53144.5,66293.699999999997,1938.02,12638.799999999999
167257.0,277742.0,-176654.0,-166586.0,-147253.0,156015.0,27573.5,-19733.0
167258.0,408175.0,-268448.0,-494362.0,-370270.0,165521.0,40855.599999999999,-116914.0
167259.0,393167.0,-326109.0,-577157.0,-507404.0,12920.6,-8606.4200000000001,-185722.0
167260.0,306061.0,-338681.0,-349949.0,-442705.0,-80099.199999999997,-59887.099999999999,-134028.0
167261.0,193396.0,-246706.0,-131136.0,-271238.0,-45935.599999999999,-51254.300000000003,-46178.599999999999
167262.0,41788.300000000003,-27219.599999999999,6156.6899999999996,-25665.400000000001,13619.799999999999,2648.9000000000001,5893.4799999999996
167263.0,45726.699999999997,-31834.099999999999,5222.96,-29212.5,14920.1,2100.1999999999998,6504.4200000000001
167264.0,50438.900000000001,-34883.099999999999,6633.0,-30689.700000000001,16481.900000000001,1352.4000000000001,7224.0900000000001
167265.0,56153.199999999997,-42242.5,4110.8999999999996,-35978.5,18809.799999999999,587.63300000000004,8025.0900000000001
167266.0,63223.099999999999,-46573.099999999999,5838.1099999999997,-37661.599999999999,21665.099999999999,-502.53100000000001,8736.7999999999993
167267.0,76823.899999999994,-59762.900000000001,876.21500000000003,-46046.599999999999,29249.400000000001,-1934.24,9842.2600000000002
167268.0,84574.399999999994,-76669.699999999997,-12773.799999999999,-60364.099999999999,34493.800000000003,-4248.4099999999999,8612.5900000000001
167269.0,140637.0,-93472.100000000006,-4576.0299999999997,-53851.0,64169.300000000003,-13301.0,17745.099999999999
167270.0,312914.0,-193714.0,-232274.0,-152127.0,170843.0,-6593.5200000000004,42438.5
167271.0,478310.0,-346318.0,-758490.0,-396539.0,158902.0,20959.799999999999,1316.04
167272.0,458803.0,-529765.0,-957402.0,-596294.0,-77724.899999999994,-8292.8799999999992,-105390.0
167273.0,390734.0,-551141.0,-575140.0,-517315.0,-175305.0,-68660.300000000003,-120835.0
167274.0,238309.0,-329663.0,-181803.0,-272861.0,-79054.300000000003,-64212.5,-54719.599999999999
167275.0,39542.0,-26211.700000000001,5384.2600000000002,-24362.599999999999,12837.200000000001,2747.7199999999998,5866.0500000000002
167276.0,43499.800000000003,-29157.5,6219.3500000000004,-26236.400000000001,14065.4,2126.3099999999999,6543.3999999999996
167277.0,47764.599999999999,-34380.699999999997,4764.3299999999999,-30358.400000000001,15546.700000000001,1328.9400000000001,7302.9499999999998
167278.0,53750.400000000001,-37510.199999999997,6879.3400000000001,-31376.099999999999,17718.299999999999,235.84200000000001,8393.4400000000005
167279.0,60252.699999999997,-47798.800000000003,628.89099999999996,-39681.0,21266.099999999999,-942.57600000000002,9182.7399999999998
167280.0,71507.300000000003,-52441.5,973.33000000000004,-41523.0,27971.099999999999,-3693.04,10584.4
167281.0,78865.300000000003,-81185.600000000006,-30562.5,-68435.399999999994,34577.699999999997,-7492.4300000000003,11323.4
167282.0,113847.0,-83421.100000000006,-21360.0,-64451.0,50199.699999999997,-20019.099999999999,19704.400000000001
167283.0,262054.0,-154474.0,-166243.0,-155825.0,126013.0,-25131.200000000001,79614.800000000003
167284.0,432366.0,-333084.0,-662092.0,-410695.0,119047.0,20277.299999999999,134728.0
167285.0,435634.0,-524131.0,-906950.0,-553903.0,-108909.0,40906.199999999997,66167.300000000003
167286.0,394814.0,-598145.0,-603638.0,-475792.0,-214800.0,-12911.200000000001,-20722.599999999999
167287.0,251064.0,-385567.0,-217519.0,-253637.0,-104993.0,-40551.599999999999,-22760.700000000001
167288.0,37339.599999999999,-24679.099999999999,5242.04,-22464.900000000001,12041.200000000001,2841.23,5806.1700000000001
167289.0,41137.199999999997,-27321.200000000001,6200.1400000000003,-24221.700000000001,13190.4,2156.73,6505.4499999999998
167290.0,45163.800000000003,-32360.5,4603.0200000000004,-28397.0,14572.299999999999,1357.8599999999999,7341.0100000000002
167291.0,50840.800000000003,-34986.5,6945.6199999999999,-29456.900000000001,16455.5,103.292,8473.3500000000004
167292.0,57349.300000000003,-44407.599999999999,572.08500000000004,-37589.0,19996.5,-1425.71,10332.799999999999
167293.0,64859.800000000003,-49365.699999999997,-2772.0100000000002,-41668.599999999999,24238.700000000001,-3916.0100000000002,13249.6
167294.0,75144.300000000003,-69754.800000000003,-24351.0,-63145.599999999999,29731.599999999999,-7663.9700000000003,18379.700000000001
167295.0,94172.5,-85885.600000000006,-43241.5,-84709.600000000006,38359.699999999997,-15201.299999999999,25762.200000000001
167296.0,176538.0,-112335.0,-107383.0,-142058.0,76151.800000000003,-23080.400000000001,60868.599999999999
167297.0,296829.0,-198384.0,-368413.0,-297860.0,75940.399999999994,9384.5900000000001,127346.0
167298.0,335139.0,-360256.0,-579568.0,-421756.0,-70817.0,58231.0,127420.0
167299.0,324559.0,-466008.0,-441823.0,-377192.0,-167471.0,42839.300000000003,55881.300000000003
167300.0,234174.0,-353990.0,-184858.0,-220747.0,-100283.0,1645.5599999999999,16693.599999999999
167301.0,35211.099999999999,-22772.099999999999,5615.3900000000003,-20139.0,11241.0,2892.5599999999999,5703.96
167302.0,38673.699999999997,-26181.099999999999,5332.3999999999996,-22949.700000000001,12319.799999999999,2235.3200000000002,6419.3100000000004
167303.0,42641.699999999997,-29235.200000000001,5787.9799999999996,-25248.099999999999,13544.799999999999,1376.76,7288.4399999999996
167304.0,47640.300000000003,-34067.0,4963.0799999999999,-29178.799999999999,15277.4,186.35400000000001,8422.9200000000001
167305.0,54053.300000000003,-38447.300000000003,4413.1300000000001,-33152.5,17747.099999999999,-1299.4300000000001,10546.700000000001
167306.0,62210.099999999999,-47218.599999999999,-1223.4200000000001,-42435.0,20981.099999999999,-2578.21,14272.5
167307.0,72981.800000000003,-56660.099999999999,-10134.9,-56080.400000000001,26335.0,-3778.3800000000001,18841.0
167308.0,86433.699999999997,-70789.899999999994,-33988.199999999997,-84230.300000000003,33178.099999999999,-7067.9300000000003,25748.299999999999
167309.0,119117.0,-90384.300000000003,-84502.199999999997,-131642.0,40396.300000000003,-11863.200000000001,47928.800000000003
167310.0,178778.0,-130761.0,-189009.0,-205984.0,32147.5,4611.7700000000004,89680.5
167311.0,209977.0,-223710.0,-304970.0,-286646.0,-27014.299999999999,45352.099999999999,100467.0
167312.0,207878.0,-291525.0,-262258.0,-271975.0,-89000.199999999997,54481.400000000001,57384.5
167313.0,185054.0,-266167.0,-123504.0,-185969.0,-71376.600000000006,25459.5,23618.299999999999
167314.0,33091.699999999997,-21378.900000000001,5435.5600000000004,-18360.099999999999,10472.799999999999,2936.4400000000001,5567.0100000000002
167315.0,36307.300000000003,-24286.400000000001,5409.9399999999996,-20823.200000000001,11438.0,2308.8099999999999,6290.75
167316.0,40003.099999999999,-27383.5,5517.0500000000002,-23421.299999999999,12556.0,1452.1300000000001,7145.4399999999996
167317.0,44549.800000000003,-31205.799999999999,5273.9200000000001,-26735.400000000001,14016.9,339.33800000000002,8311.4200000000001
167318.0,50343.900000000001,-35886.599999999999,4679.46,-31060.700000000001,16023.799999999999,-889.48199999999997,9810.2999999999993
167319.0,58531.800000000003,-42017.699999999997,3441.98,-37369.5,19242.099999999999,-1782.1700000000001,11955.4
167320.0,71237.699999999997,-49897.0,-2920.4899999999998,-49114.300000000003,27369.900000000001,-611.66200000000003,14784.200000000001
167321.0,79026.300000000003,-61661.5,-31969.900000000001,-82305.199999999997,34398.0,1534.0899999999999,15997.299999999999
167322.0,84605.800000000003,-73759.100000000006,-60119.199999999997,-125704.0,24730.799999999999,29.697199999999999,24017.299999999999
167323.0,115375.0,-101451.0,-87882.600000000006,-164251.0,14956.4,5662.21,50213.5
167324.0,134045.0,-136789.0,-145195.0,-189246.0,908.52999999999997,28685.900000000001,66119.899999999994
167325.0,124656.0,-178560.0,-161776.0,-189779.0,-38244.199999999997,40943.800000000003,42918.900000000001
167326.0,128628.0,-193645.0,-92945.699999999997,-154615.0,-44525.0,26651.400000000001,15636.1
167327.0,31050.099999999999,-20101.799999999999,5190.1000000000004,-16686.599999999999,9741.4699999999993,2976.4000000000001,5412.1999999999998
167328.0,34042.699999999997,-22407.599999999999,5607.4099999999999,-18654.200000000001,10587.9,2364.3099999999999,6111.4700000000003
167329.0,37329.400000000001,-25701.900000000001,5023.5600000000004,-21727.799999999999,11591.200000000001,1576.47,6957.3999999999996
167330.0,41550.300000000003,-28214.0,6023.3800000000001,-23840.900000000001,12795.200000000001,533.77099999999996,8017.2200000000003
167331.0,46635.900000000001,-33822.699999999997,3785.9000000000001,-29175.599999999999,14675.0,-724.14800000000002,9416.9599999999991
167332.0,53768.099999999999,-37961.900000000001,4578.3800000000001,-31830.5,17533.599999999999,-2053.3899999999999,11100.1
167333.0,69931.800000000003,-49832.400000000001,-6556.5299999999997,-43876.800000000003,30434.599999999999,-714.49000000000001,12377.5
167334.0,75864.5,-71520.5,-61281.900000000001,-87661.699999999997,40889.699999999997,5153.21,6563.3100000000004
167335.0,55897.900000000001,-80067.600000000006,-83836.600000000006,-124332.0,20236.200000000001,4610.1000000000004,-2921.2800000000002
167336.0,74497.199999999997,-85124.5,-53635.800000000003,-135918.0,6571.9300000000003,599.34100000000001,9095.6000000000004
167337.0,94330.800000000003,-94809.600000000006,-66890.5,-143548.0,9044.2800000000007,12328.9,35029.599999999999
167338.0,90573.100000000006,-123903.0,-100028.0,-146975.0,-12581.5,26717.599999999999,36212.0
167339.0,90452.300000000003,-145109.0,-75986.699999999997,-126923.0,-25208.900000000001,22717.599999999999,17081.700000000001
167340.0,29192.900000000001,-18753.099999999999,5204.8000000000002,-14905.4,9062.0,2991.6799999999998,5241.2399999999998
167341.0,31847.900000000001,-20914.099999999999,5424.6099999999997,-16881.5,9805.6700000000001,2419.1900000000001,5902.0699999999997
167342.0,34780.300000000003,-23666.700000000001,5116.4300000000003,-19524.400000000001,10644.700000000001,1711.8499999999999,6696.9499999999998
167343.0,38525.5,-26045.700000000001,5788.21,-21693.0,11709.6,706.03300000000002,7694.0900000000001
167344.0,43015.5,-30742.900000000001,4076.4299999999998,-26416.700000000001,13186.5,-517.49400000000003,9081.2600000000002
167345.0,50217.300000000003,-34327.800000000003,5291.4799999999996,-28774.900000000001,15819.299999999999,-2377.6199999999999,11158.700000000001
167346.0,65418.800000000003,-47389.800000000003,-12150.299999999999,-39781.199999999997,28391.0,-3935.3099999999999,16159.799999999999
167347.0,73893.5,-71916.800000000003,-78101.199999999997,-74106.399999999994,39338.099999999999,1907.22,16097.4
167348.0,45559.5,-107412.0,-137360.0,-127182.0,19856.799999999999,7622.6099999999997,-2758.6799999999998
167349.0,46637.400000000001,-121669.0,-110090.0,-152757.0,-1120.1300000000001,374.58999999999997,-15387.799999999999
167350.0,67994.899999999994,-92490.0,-51189.900000000001,-129332.0,2072.73,-1173.55,2688.1399999999999
167351.0,71350.100000000006,-90775.100000000006,-50348.400000000001,-116768.0,-279.97300000000001,11431.799999999999,21117.299999999999
167352.0,71799.199999999997,-107264.0,-52023.0,-105707.0,-10093.0,16852.200000000001,18525.099999999999
167353.0,27577.099999999999,-17581.0,5251.2299999999996,-13303.6,8468.0300000000007,2969.0,5065.7399999999998
167354.0,29746.900000000001,-19635.900000000001,5076.1000000000004,-15322.799999999999,9088.2800000000007,2479.27,5655.3100000000004
167355.0,32391.400000000001,-21524.200000000001,5522.8000000000002,-17070.700000000001,9768.6599999999999,1829.79,6375.9300000000003
167356.0,35462.800000000003,-24399.700000000001,4937.3100000000004,-20135.599999999999,10652.299999999999,943.95100000000002,7320.6700000000001
167357.0,39578.699999999997,-26781.299999999999,5610.4399999999996,-22530.599999999999,11746.1,-264.04199999999997,8616.8199999999997
167358.0,45791.900000000001,-31999.5,3561.5799999999999,-28086.900000000001,14196.4,-2156.46,10607.799999999999
167359.0,57518.099999999999,-36475.800000000003,-3730.4899999999998,-34339.099999999999,19597.299999999999,-5112.9099999999999,18893.400000000001
167360.0,77381.399999999994,-62356.400000000001,-52261.400000000001,-59035.300000000003,30070.099999999999,-784.77599999999995,32629.200000000001
167361.0,71224.0,-108451.0,-145212.0,-110585.0,25643.700000000001,10842.799999999999,22135.0
167362.0,34079.699999999997,-134073.0,-162904.0,-143924.0,-6043.5699999999997,5476.04,-10289.1
167363.0,53995.5,-125996.0,-93014.300000000003,-136063.0,-14740.1,-7389.1999999999998,-13889.299999999999
167364.0,58017.300000000003,-89798.899999999994,-39801.199999999997,-102302.0,-841.38999999999999,-1515.5699999999999,5024.9700000000003
167365.0,58620.400000000001,-82825.600000000006,-32902.900000000001,-88112.100000000006,-2338.6300000000001,7821.4799999999996,12278.299999999999
167366.0,26224.099999999999,-16481.200000000001,5421.5799999999999,-11842.799999999999,7991.5799999999999,2928.5500000000002,4855.4700000000003
167367.0,27789.5,-18457.5,4761.5600000000004,-13843.1,8442.4500000000007,2560.6700000000001,5338.0900000000001
167368.0,30051.0,-19379.799999999999,5921.6700000000001,-14637.200000000001,8965.2299999999996,1953.9300000000001,5995.0799999999999
167369.0,32532.700000000001,-22877.799999999999,4207.1300000000001,-18485.299999999999,9659.0699999999997,1237.5,6830.6300000000001
167370.0,36179.0,-23091.700000000001,6828.0900000000001,-18983.799999999999,10427.9,75.622,8031.54
167371.0,41258.300000000003,-29640.900000000001,2205.5999999999999,-26772.400000000001,12422.6,-1403.51,10038.200000000001
167372.0,47888.800000000003,-29291.599999999999,3623.8600000000001,-30806.0,12917.9,-3255.1599999999999,14437.9
167373.0,71952.399999999994,-39991.599999999999,-7307.3900000000003,-41978.5,22615.299999999999,-2734.7600000000002,28770.400000000001
167374.0,88617.600000000006,-80331.600000000006,-99154.199999999997,-86864.399999999994,29604.599999999999,7976.4200000000001,39828.400000000001
167375.0,60410.300000000003,-123857.0,-168191.0,-124064.0,-5338.4899999999998,12558.4,19445.700000000001
167376.0,49513.900000000001,-145800.0,-125944.0,-130280.0,-26259.099999999999,181.047,-4317.79
167377.0,51945.900000000001,-104106.0,-51798.900000000001,-96743.0,-8567.9599999999991,-4677.9499999999998,-1567.8599999999999
167378.0,50968.099999999999,-75269.699999999997,-25620.799999999999,-74919.300000000003,-2518.1799999999998,691.38599999999997,6571.3199999999997
167379.0,5313.9099999999999,4545.9899999999998,1404.4100000000001,5481.75,-1539.6400000000001,183.56899999999999,-1564.2
167380.0,5346.0200000000004,4620.5600000000004,1450.75,5457.2600000000002,-1627.8800000000001,218.94200000000001,-1536.9000000000001
167381.0,5381.3400000000001,4682.3500000000004,1477.3499999999999,5416.1099999999997,-1715.46,247.375,-1503.8499999999999
167382.0,5419.4399999999996,4764.6599999999999,1518.49,5393.5799999999999,-1801.4100000000001,269.03800000000001,-1465.51
167383.0,5460.3000000000002,4838.2200000000003,1545.52,5361.71,-1885.5799999999999,284.67899999999997,-1421.96
167384.0,5503.9399999999996,4928.8100000000004,1584.3099999999999,5347.29,-1967.54,294.41699999999997,-1373.47
167385.0,5549.6800000000003,5013.4899999999998,1613.02,5327.9899999999998,-2046.8399999999999,299.37099999999998,-1320.3299999999999
167386.0,5598.3299999999999,5111.3900000000003,1649.8099999999999,5323.4899999999998,-2123.4299999999998,299.28100000000001,-1262.8
167387.0,5648.7399999999998,5209.4300000000003,1682.8399999999999,5319.8900000000003,-2196.8299999999999,295.61799999999999,-1201.3
167388.0,5702.0299999999997,5315.1300000000001,1717.9200000000001,5325.8500000000004,-2267.0799999999999,287.14699999999999,-1135.54
167389.0,5755.5500000000002,5431.7399999999998,1758.78,5341.1300000000001,-2332.6599999999999,275.774,-1065.8699999999999
167390.0,5808.7399999999998,5552.9700000000003,1791.76,5360.4499999999998,-2391.0,258.315,-988.44299999999998
167391.0,5858.3199999999997,5732.7600000000002,1857.0799999999999,5433.1499999999996,-2430.6300000000001,242.24600000000001,-907.48199999999997
167392.0,5698.0500000000002,4122.2299999999996,1173.8499999999999,5163.3299999999999,-1701.9200000000001,147.05699999999999,-1903.23
167393.0,5737.4799999999996,4169.4899999999998,1199.1900000000001,5110.4899999999998,-1812.3599999999999,189.63499999999999,-1866.6900000000001
167394.0,5778.5100000000002,4249.1000000000004,1251.3199999999999,5085.0900000000001,-1921.4000000000001,223.34,-1823.4200000000001
167395.0,5822.0,4308.0699999999997,1277.1300000000001,5035.7700000000004,-2028.6199999999999,249.64500000000001,-1773.99
167396.0,5868.6499999999996,4396.2200000000003,1326.8,5014.8900000000003,-2134.0,268.93000000000001,-1718.4400000000001
167397.0,5918.21,4463.5900000000001,1350.6900000000001,4972.6700000000001,-2237.2600000000002,281.63499999999999,-1657.02
167398.0,5970.3599999999997,4556.8000000000002,1396.5999999999999,4958.2200000000003,-2337.77,288.68000000000001,-1589.8800000000001
167399.0,6025.3400000000001,4629.4799999999996,1417.3199999999999,4923.8000000000002,-2435.6799999999998,289.98599999999999,-1517.1099999999999
167400.0,6082.8900000000003,4725.4200000000001,1457.97,4915.8500000000004,-2530.1500000000001,287.15699999999998,-1439.27
167401.0,6143.5699999999997,4802.3100000000004,1473.5899999999999,4889.0699999999997,-2621.6100000000001,279.00700000000001,-1355.8199999999999
167402.0,6206.0600000000004,4901.7200000000003,1507.4400000000001,4888.6000000000004,-2707.9899999999998,268.15100000000001,-1267.95
167403.0,6266.1700000000001,4979.7600000000002,1513.48,4868.7200000000003,-2787.0999999999999,250.477,-1173.3599999999999
167404.0,6318.25,5074.5799999999999,1527.22,4869.5299999999997,-2852.5700000000002,226.499,-1073.3800000000001
167405.0,5692.1999999999998,4361.8199999999997,1374.53,5465.1000000000004,-1676.79,211.357,-1861.48
167406.0,5730.6800000000003,4428.5299999999997,1413.5799999999999,5418.8500000000004,-1785.0,256.50999999999999,-1828.3
167407.0,5772.7600000000002,4515.1999999999998,1463.28,5386.9700000000003,-1892.3800000000001,293.38099999999997,-1787.77
167408.0,5817.29,4592.5699999999997,1497.52,5342.5500000000002,-1997.77,322.68799999999999,-1740.9000000000001
167409.0,5865.0799999999999,4689.4799999999996,1544.5699999999999,5315.5500000000002,-2101.4299999999998,344.29500000000002,-1687.6199999999999
167410.0,5914.9899999999998,4776.4399999999996,1577.1700000000001,5277.8900000000003,-2202.5700000000002,358.93799999999999,-1628.45
167411.0,5967.2600000000002,4879.7200000000003,1621.27,5257.3299999999999,-2300.96,366.685,-1563.23
167412.0,6021.0100000000002,4975.0100000000002,1653.97,5229.3900000000003,-2396.04,368.51100000000002,-1492.5699999999999
167413.0,6076.79,5082.6599999999999,1695.3499999999999,5216.9099999999999,-2487.6500000000001,364.161,-1416.3
167414.0,6132.0299999999997,5185.4700000000003,1730.1300000000001,5199.7299999999996,-2575.0100000000002,354.209,-1334.72
167415.0,6185.6499999999996,5287.4399999999996,1765.1199999999999,5189.8699999999999,-2657.3000000000002,337.024,-1247.02
167416.0,6228.7399999999998,5381.2700000000004,1797.77,5172.46,-2731.7399999999998,309.68700000000001,-1152.5999999999999
167417.0,6260.1599999999999,5443.5299999999997,1814.9100000000001,5149.8999999999996,-2796.5100000000002,272.71600000000001,-1051.5599999999999
167418.0,5901.2700000000004,4374.5100000000002,1358.0,5591.0799999999999,-1726.9000000000001,268.30399999999997,-1950.49
167419.0,5944.3800000000001,4452.9700000000003,1399.54,5541.5900000000001,-1841.8800000000001,321.173,-1916.25
167420.0,5991.5500000000002,4543.9899999999998,1444.96,5497.6099999999997,-1956.22,363.94099999999997,-1875.47
167421.0,6041.5,4637.3699999999999,1486.25,5451.75,-2068.8899999999999,398.20499999999998,-1827.95
167422.0,6095.0100000000002,4741.1800000000003,1530.6099999999999,5412.71,-2180.02,423.67599999999999,-1773.74
167423.0,6150.5299999999997,4844.5500000000002,1569.6400000000001,5371.8500000000004,-2288.6199999999999,441.137,-1712.8800000000001
167424.0,6208.4799999999996,4955.54,1611.04,5338.1199999999999,-2394.5799999999999,450.39999999999998,-1645.5
167425.0,6267.6899999999996,5064.5699999999997,1647.0899999999999,5303.2399999999998,-2496.98,452.63099999999997,-1571.9100000000001
167426.0,6329.0900000000001,5178.3699999999999,1683.7,5275.1599999999999,-2596.0500000000002,447.16699999999997,-1492.0699999999999
167427.0,6389.2600000000002,5290.0100000000002,1716.3900000000001,5246.1999999999998,-2689.8000000000002,435.42399999999998,-1406.25
167428.0,6447.3199999999997,5398.5,1744.5899999999999,5221.3100000000004,-2777.7199999999998,414.55200000000002,-1312.79
167429.0,6490.1400000000003,5499.3500000000004,1771.2,5191.7600000000002,-2853.1100000000001,384.44299999999998,-1212.5699999999999
167430.0,6515.0,5558.46,1767.3499999999999,5147.3900000000003,-2913.7600000000002,340.58699999999999,-1102.1600000000001
167431.0,6035.4899999999998,4501.5500000000002,1455.8699999999999,5816.3299999999999,-1749.0899999999999,329.88900000000001,-1992.78
167432.0,6079.3199999999997,4595.3299999999999,1506.3699999999999,5767.0,-1867.23,388.017,-1959.01
167433.0,6129.1700000000001,4694.6700000000001,1551.52,5715.54,-1984.99,435.767,-1918.8699999999999
167434.0,6182.3199999999997,4803.4899999999998,1598.96,5668.6899999999996,-2101.46,474.41800000000001,-1871.49
167435.0,6239.0500000000002,4916.0100000000002,1642.0,5620.6499999999996,-2216.2600000000002,503.42200000000003,-1817.26
167436.0,6297.6099999999997,5036.3500000000004,1687.6199999999999,5578.2399999999998,-2328.6199999999999,523.47799999999995,-1755.77
167437.0,6358.4700000000003,5156.6700000000001,1727.3900000000001,5534.3100000000004,-2438.0599999999999,534.33000000000004,-1687.5599999999999
167438.0,6420.1199999999999,5285.5900000000001,1772.3599999999999,5499.5799999999999,-2543.8000000000002,536.99800000000005,-1612.4300000000001
167439.0,6483.46,5409.6999999999998,1808.23,5461.4200000000001,-2645.7399999999998,530.80700000000002,-1530.8699999999999
167440.0,6544.4399999999996,5543.9499999999998,1853.7,5435.4799999999996,-2742.02,516.82899999999995,-1442.5699999999999
167441.0,6602.0699999999997,5657.9700000000003,1880.1800000000001,5396.8400000000001,-2832.52,491.67700000000002,-1346.51
167442.0,6642.1499999999996,5774.9700000000003,1920.8399999999999,5367.5600000000004,-2910.3000000000002,454.995,-1243.3099999999999
167443.0,6662.8000000000002,5833.8400000000001,1921.3399999999999,5311.7299999999996,-2974.5,401.72699999999998,-1129.6500000000001
167444.0,6206.4399999999996,4570.0699999999997,1489.3399999999999,5996.7200000000003,-1780.8699999999999,396.709,-2050.3600000000001
167445.0,6252.8400000000001,4674.5699999999997,1542.3,5941.4799999999996,-1903.52,461.39999999999998,-2016.98
167446.0,6306.1599999999999,4781.1999999999998,1585.6900000000001,5879.9399999999996,-2025.95,514.73299999999995,-1977.3499999999999
167447.0,6363.1499999999996,4905.3199999999997,1638.4100000000001,5829.8199999999997,-2147.3400000000001,558.33299999999997,-1929.9100000000001
167448.0,6423.7700000000004,5028.0900000000001,1681.03,5772.21,-2267.0300000000002,591.27599999999995,-1875.3299999999999
167449.0,6486.1499999999996,5164.4200000000001,1731.3800000000001,5724.8400000000001,-2384.3299999999999,614.25599999999997,-1812.8699999999999
167450.0,6550.79,5296.4200000000001,1771.3599999999999,5670.8599999999997,-2498.6300000000001,626.73299999999995,-1743.45
167451.0,6616.1400000000003,5439.4099999999999,1818.75,5627.8999999999996,-2609.2600000000002,629.78300000000002,-1666.48
167452.0,6682.9899999999998,5574.71,1854.3399999999999,5578.4200000000001,-2715.9200000000001,622.57000000000005,-1582.8099999999999
167453.0,6747.4300000000003,5719.1899999999996,1898.49,5540.3800000000001,-2816.7800000000002,606.28800000000001,-1491.72
167454.0,6808.3500000000004,5846.7200000000003,1925.72,5492.6700000000001,-2911.1700000000001,577.70600000000002,-1392.4000000000001
167455.0,6851.3299999999999,5973.8299999999999,1963.29,5452.5500000000002,-2991.9499999999998,536.63599999999997,-1285.29
167456.0,6875.3699999999999,6042.1300000000001,1957.03,5384.5500000000002,-3058.6300000000001,476.77600000000001,-1167.47
167457.0,6357.0600000000004,4670.6300000000001,1563.8800000000001,6206.6300000000001,-1804.8800000000001,464.85300000000001,-2098.25
167458.0,6405.1599999999999,4785.6199999999999,1619.49,6145.3599999999997,-1931.1700000000001,535.63999999999999,-2065.4699999999998
167459.0,6461.3199999999997,4905.21,1666.74,6079.6000000000004,-2057.5100000000002,594.57299999999998,-2026.3299999999999
167460.0,6521.4700000000003,5040.3500000000004,1720.79,6022.0600000000004,-2183.0500000000002,642.96100000000001,-1979.0799999999999
167461.0,6585.3500000000004,5176.4499999999998,1766.47,5958.21,-2306.9099999999999,679.81799999999998,-1924.4000000000001
167462.0,6651.0,5325.5699999999997,1818.8299999999999,5902.9399999999996,-2428.46,705.65200000000004,-1861.3900000000001
167463.0,6718.7799999999997,5471.1499999999996,1861.0799999999999,5841.0500000000002,-2546.8600000000001,719.89200000000005,-1790.99
167464.0,6787.04,5629.8699999999999,1912.52,5791.6199999999999,-2661.4299999999998,723.47500000000002,-1712.49
167465.0,6856.4300000000003,5779.1499999999996,1950.1800000000001,5733.5799999999999,-2771.6599999999999,715.58199999999999,-1626.8
167466.0,6922.8699999999999,5942.25,2001.25,5691.5799999999999,-2875.7800000000002,697.13499999999999,-1533.1099999999999
167467.0,6984.9099999999999,6079.6999999999998,2028.3399999999999,5631.8699999999999,-2973.25,664.70500000000004,-1430.96
167468.0,7028.2399999999998,6221.8699999999999,2072.5999999999999,5586.6499999999996,-3056.9899999999998,617.81799999999998,-1320.51
167469.0,7052.2200000000003,6301.2600000000002,2071.0900000000001,5511.6599999999999,-3126.9099999999999,550.17399999999998,-1199.3599999999999
167470.0,6518.29,4749.4700000000003,1618.01,6401.6999999999998,-1830.23,537.09900000000005,-2149.6900000000001
167471.0,6568.6400000000003,4872.0900000000001,1672.73,6330.6499999999996,-1960.55,614.46000000000004,-2117.6500000000001
167472.0,6627.6300000000001,5003.6599999999999,1722.72,6258.6700000000001,-2091.0999999999999,679.27800000000002,-2078.9400000000001
167473.0,6690.9899999999998,5150.1000000000004,1777.77,6192.8299999999999,-2220.9400000000001,732.83900000000006,-2031.77
167474.0,6758.1899999999996,5300.9899999999998,1827.28,6122.9899999999998,-2349.1700000000001,773.971,-1976.74
167475.0,6827.2600000000002,5462.8000000000002,1880.5999999999999,6058.2799999999997,-2475.0900000000001,803.00599999999997,-1913.02
167476.0,6898.25,5624.8699999999999,1927.4200000000001,5989.9399999999996,-2597.8099999999999,819.17399999999998,-1841.4300000000001
167477.0,6969.5799999999999,5794.6199999999999,1977.74,5927.8100000000004,-2716.6100000000001,823.29100000000005,-1761.3399999999999
167478.0,7041.6099999999997,5960.3900000000003,2020.05,5862.3599999999997,-2830.8899999999999,814.505,-1673.5899999999999
167479.0,7110.5299999999997,6130.8400000000001,2066.8099999999999,5803.8599999999997,-2938.9000000000001,793.64300000000003,-1577.3699999999999
167480.0,7175.0100000000002,6287.5500000000002,2100.5999999999999,5739.5100000000002,-3039.75,757.64999999999998,-1472.2
167481.0,7221.0500000000002,6437.6400000000003,2140.1399999999999,5679.5299999999997,-3126.75,705.62900000000002,-1358.28
167482.0,7248.3900000000003,6532.7600000000002,2140.4499999999998,5597.9300000000003,-3199.8899999999999,631.05999999999995,-1233.74
167483.0,6671.8400000000001,4837.1599999999999,1687.0899999999999,6607.5100000000002,-1851.1700000000001,612.31399999999996,-2196.5300000000002
167484.0,6723.96,4967.6999999999998,1741.01,6526.6000000000004,-1985.0599999999999,696.322,-2165.1599999999999
167485.0,6785.4300000000003,5115.0600000000004,1797.1300000000001,6451.7200000000003,-2119.4000000000001,767.25300000000004,-2126.8400000000001
167486.0,6851.6199999999999,5270.6499999999996,1851.05,6374.9300000000003,-2253.1599999999999,826.05399999999997,-2079.9099999999999
167487.0,6921.6199999999999,5437.8599999999997,1906.03,6300.0600000000004,-2385.3699999999999,871.51499999999999,-2024.6700000000001
167488.0,6993.5200000000004,5610.25,1958.6300000000001,6223.3699999999999,-2515.29,903.69000000000005,-1960.46
167489.0,7067.2200000000003,5788.9300000000003,2010.1400000000001,6148.1099999999997,-2641.9099999999999,921.86800000000005,-1887.8099999999999
167490.0,7141.0799999999999,5972.21,2061.73,6075.2299999999996,-2764.4400000000001,926.61500000000001,-1806.23
167491.0,7215.3500000000004,6154.8199999999997,2108.1999999999998,6001.8299999999999,-2882.1300000000001,917.173,-1716.4200000000001
167492.0,7286.1300000000001,6341.6499999999996,2158.73,5934.8400000000001,-2993.2399999999998,894.08500000000004,-1617.6700000000001
167493.0,7351.7200000000003,6511.1499999999996,2194.0300000000002,5859.0299999999997,-3097.02,854.12599999999998,-1509.6500000000001
167494.0,7398.9799999999996,6674.9200000000001,2236.5500000000002,5789.7600000000002,-3187.04,796.27200000000005,-1392.5
167495.0,7427.8599999999997,6785.6400000000003,2242.4699999999998,5702.2600000000002,-3263.5300000000002,714.07100000000003,-1264.8399999999999
167496.0,6825.8400000000001,4910.4799999999996,1747.45,6803.0799999999999,-1870.3099999999999,690.80899999999997,-2243.0
167497.0,6879.7799999999997,5051.96,1803.4100000000001,6714.7600000000002,-2007.8499999999999,781.721,-2212.4000000000001
167498.0,6943.5299999999997,5209.1999999999998,1859.8699999999999,6630.3299999999999,-2145.9699999999998,858.85000000000002,-2174.6100000000001
167499.0,7012.3900000000003,5378.8000000000002,1917.3399999999999,6546.8100000000004,-2283.6100000000001,923.154,-2127.8600000000001
167500.0,7085.1700000000001,5558.6300000000001,1973.7,6462.3999999999996,-2419.73,973.20100000000002,-2072.4000000000001
167501.0,7159.8199999999997,5746.5600000000004,2029.9100000000001,6377.79,-2553.5100000000002,1008.85,-2007.53
167502.0,7236.0799999999999,5939.6499999999996,2083.6100000000001,6292.3999999999996,-2683.9499999999998,1029.1600000000001,-1933.8199999999999
167503.0,7312.2600000000002,6136.9099999999999,2136.8400000000001,6208.25,-2810.1799999999998,1034.5799999999999,-1850.74
167504.0,7388.3900000000003,6334.0600000000004,2185.7199999999998,6123.7200000000003,-2931.3600000000001,1024.25,-1758.97
167505.0,7460.8199999999997,6531.6300000000001,2235.0799999999999,6041.8900000000003,-3045.79,998.72500000000002,-1657.8
167506.0,7527.9499999999998,6718.21,2274.8499999999999,5957.54,-3152.4400000000001,954.91099999999994,-1546.9000000000001
167507.0,7577.2799999999997,6893.6700000000001,2316.3600000000001,5875.3999999999996,-3245.4200000000001,891.50999999999999,-1426.51
167508.0,7609.0,7018.6300000000001,2323.0599999999999,5778.3800000000001,-3325.0300000000002,801.99699999999996,-1295.75
167509.0,6974.8100000000004,4983.4799999999996,1814.29,7001.2399999999998,-1885.6800000000001,772.55200000000002,-2286.2199999999998
167510.0,7030.3500000000004,5136.7700000000004,1872.8399999999999,6905.8500000000004,-2026.5999999999999,870.57100000000003,-2256.3800000000001
167511.0,7096.1700000000001,5306.4399999999996,1931.75,6813.8599999999997,-2168.1999999999998,954.17600000000004,-2219.0999999999999
167512.0,7167.2799999999997,5488.7700000000004,1991.3800000000001,6721.6800000000003,-2309.3899999999999,1024.1400000000001,-2172.5300000000002
167513.0,7242.4099999999999,5682.0500000000002,2050.0100000000002,6627.8699999999999,-2449.1100000000001,1078.8699999999999,-2116.9699999999998
167514.0,7319.3000000000002,5884.0100000000002,2108.6500000000001,6533.1899999999996,-2586.4899999999998,1118.0,-2051.5799999999999
167515.0,7397.6700000000001,6090.79,2163.8099999999999,6436.1899999999996,-2720.4099999999999,1140.52,-1976.9000000000001
167516.0,7475.6999999999998,6305.0799999999999,2221.4200000000001,6342.9799999999996,-2849.9200000000001,1146.75,-1892.3
167517.0,7553.4099999999999,6515.96,2271.04,6245.4499999999998,-2974.0799999999999,1135.75,-1798.5599999999999
167518.0,7627.1300000000001,6733.3199999999997,2327.1399999999999,6156.5799999999999,-3091.1999999999998,1107.97,-1694.8900000000001
167519.0,7694.9700000000003,6930.1400000000003,2365.2399999999998,6056.1800000000003,-3200.4000000000001,1060.01,-1581.29
167520.0,7745.3999999999996,7122.8999999999996,2412.1900000000001,5966.1000000000004,-3296.0799999999999,990.65700000000004,-1457.75
167521.0,7778.9099999999999,7261.4200000000001,2420.9200000000001,5858.79,-3378.8200000000002,893.25800000000004,-1324.1400000000001
167522.0,7120.2600000000002,5045.7600000000002,1878.3399999999999,7191.9300000000003,-1897.8699999999999,857.399,-2327.4200000000001
167523.0,7177.25,5211.3000000000002,1939.8199999999999,7089.3299999999999,-2042.0699999999999,962.65099999999995,-2298.4899999999998
167524.0,7244.8500000000004,5390.21,1998.23,6986.1000000000004,-2187.0500000000002,1052.8299999999999,-2261.8000000000002
167525.0,7318.0299999999997,5587.8000000000002,2062.4400000000001,6887.1899999999996,-2331.6199999999999,1128.6600000000001,-2215.4899999999998
167526.0,7395.2700000000004,5792.6800000000003,2121.3699999999999,6781.5500000000002,-2474.75,1188.28,-2159.7800000000002
167527.0,7474.1899999999996,6011.4899999999998,2184.7600000000002,6678.7799999999997,-2615.4400000000001,1231.1800000000001,-2093.7800000000002
167528.0,7554.3000000000002,6231.8000000000002,2241.1199999999999,6569.25,-2752.5900000000001,1256.05,-2018.0999999999999
167529.0,7633.8500000000004,6461.2299999999996,2301.3200000000002,6464.21,-2885.2199999999998,1263.1099999999999,-1932.0699999999999
167530.0,7712.6099999999997,6686.2399999999998,2352.77,6353.4399999999996,-3012.29,1251.29,-1836.47
167531.0,7787.1099999999997,6915.4700000000003,2408.6700000000001,6249.0500000000002,-3132.1399999999999,1220.98,-1730.51
167532.0,7855.6300000000001,7128.7700000000004,2450.5900000000001,6137.6899999999996,-3243.6599999999999,1168.95,-1614.1700000000001
167533.0,7907.3699999999999,7334.6700000000001,2497.9299999999998,6034.3699999999999,-3341.8499999999999,1093.71,-1487.54
167534.0,7943.0,7487.21,2507.1900000000001,5915.6499999999996,-3427.27,988.56500000000005,-1351.1600000000001
167535.0,7260.5799999999999,5107.9099999999999,1950.47,7385.5200000000004,-1906.0799999999999,945.54200000000003,-2365.4499999999998
167536.0,7318.8699999999999,5278.2600000000002,2007.0699999999999,7267.6999999999998,-2053.3099999999999,1058.24,-2337.4899999999998
167537.0,7388.04,5476.9200000000001,2075.0700000000002,7163.2299999999996,-2201.3800000000001,1155.3099999999999,-2301.3000000000002
167538.0,7462.9099999999999,5680.1499999999996,2134.25,7047.29,-2349.02,1237.1199999999999,-2255.3499999999999
167539.0,7541.7799999999997,5905.8599999999997,2202.73,6938.3900000000003,-2495.23,1301.8199999999999,-2199.46
167540.0,7622.21,6131.5100000000002,2261.23,6816.7799999999997,-2638.9699999999998,1348.46,-2133.0500000000002
167541.0,7703.6300000000001,6372.8599999999997,2326.2800000000002,6701.5,-2779.0100000000002,1375.8199999999999,-2056.3600000000001
167542.0,7784.2700000000004,6612.3299999999999,2383.77,6578.6300000000001,-2914.3600000000001,1383.8,-1968.96
167543.0,7863.7200000000003,6858.1599999999999,2443.02,6460.25,-3043.8099999999999,1371.3900000000001,-1871.4100000000001
167544.0,7938.6199999999999,7099.9700000000003,2498.4400000000001,6339.7700000000004,-3165.7600000000002,1338.6700000000001,-1763.0999999999999
167545.0,8007.0500000000002,7330.9799999999996,2545.8600000000001,6217.8999999999996,-3279.2199999999998,1282.4000000000001,-1644.1099999999999
167546.0,8059.2200000000003,7546.9499999999998,2591.1599999999999,6097.5299999999997,-3379.6100000000001,1200.9100000000001,-1514.55
167547.0,8096.1899999999996,7721.0100000000002,2609.6399999999999,5974.3999999999996,-3467.6799999999998,1087.5699999999999,-1375.53
167548.0,7395.3299999999999,5155.9700000000003,2018.22,7567.75,-1910.27,1036.6900000000001,-2400.6700000000001
167549.0,7454.7799999999997,5337.9300000000003,2076.8000000000002,7441.1599999999999,-2060.4000000000001,1156.9400000000001,-2373.8200000000002
167550.0,7525.1499999999996,5547.1000000000004,2145.3600000000001,7325.6199999999999,-2211.3699999999999,1260.98,-2338.2399999999998
167551.0,7601.3900000000003,5764.4399999999996,2207.98,7200.6899999999996,-2361.8000000000002,1348.98,-2292.6199999999999
167552.0,7681.54,6002.5600000000004,2277.5900000000001,7079.5100000000002,-2510.8299999999999,1418.9300000000001,-2236.5500000000002
167553.0,7763.1999999999998,6244.2399999999998,2340.0500000000002,6947.6099999999997,-2657.21,1469.6199999999999,-2169.6399999999999
167554.0,7845.4700000000003,6499.8599999999997,2407.0799999999999,6819.0200000000004,-2799.8400000000001,1499.5799999999999,-2091.9499999999998
167555.0,7926.6700000000001,6753.6999999999998,2466.5300000000002,6681.9799999999996,-2937.6300000000001,1508.47,-2003.26
167556.0,8006.1599999999999,7014.3599999999997,2528.3200000000002,6549.3100000000004,-3069.3000000000002,1495.3099999999999,-1903.8800000000001
167557.0,8080.8199999999997,7267.4099999999999,2582.9699999999998,6410.9499999999998,-3193.25,1459.99,-1793.4000000000001
167558.0,8148.9300000000003,7515.4799999999996,2634.8600000000001,6276.8800000000001,-3308.3299999999999,1399.5,-1671.78
167559.0,8201.3999999999996,7744.1499999999996,2680.1399999999999,6141.0900000000001,-3410.5599999999999,1311.79,-1539.3399999999999
167560.0,8239.6800000000003,7932.9099999999999,2699.75,6005.4399999999996,-3500.7600000000002,1190.4000000000001,-1397.72
167561.0,7523.96,5198.6800000000003,2090.5100000000002,7747.4499999999998,-1909.9100000000001,1131.0899999999999,-2432.4000000000001
167562.0,7584.25,5389.4300000000003,2148.0100000000002,7608.7600000000002,-2062.6799999999998,1259.1099999999999,-2406.5799999999999
167563.0,7655.6199999999999,5614.4700000000003,2222.1900000000001,7487.0,-2216.21,1370.3599999999999,-2371.6399999999999
167564.0,7732.8599999999997,5841.2799999999997,2283.5999999999999,7347.8800000000001,-2369.1199999999999,1464.75,-2326.3400000000001
167565.0,7813.8500000000004,6096.54,2359.1300000000001,7218.4399999999996,-2520.5799999999999,1540.0799999999999,-2270.1700000000001
167566.0,7896.1499999999996,6348.5200000000004,2420.3299999999999,7069.9300000000003,-2669.3299999999999,1594.8299999999999,-2202.8600000000001
167567.0,7978.79,6621.5799999999999,2492.5999999999999,6930.3900000000003,-2814.1799999999998,1627.47,-2124.2600000000002
167568.0,8059.9399999999996,6888.4799999999996,2552.6399999999999,6777.0699999999997,-2953.8899999999999,1637.4300000000001,-2034.2
167569.0,8139.0799999999999,7166.4700000000003,2618.9200000000001,6631.5600000000004,-3087.1999999999998,1623.6800000000001,-1933.0
167570.0,8213.0900000000001,7435.29,2676.4499999999998,6478.6000000000004,-3212.48,1585.95,-1820.25
167571.0,8280.0499999999993,7697.5500000000002,2730.5599999999999,6328.7700000000004,-3328.7800000000002,1520.99,-1696.1500000000001
167572.0,8332.1299999999992,7939.6800000000003,2777.04,6177.46,-3432.52,1426.8299999999999,-1560.96
167573.0,8370.9599999999991,8147.04,2802.7600000000002,6032.6400000000003,-3524.7600000000002,1296.9200000000001,-1416.9200000000001
167574.0,7645.5799999999999,5226.1199999999999,2158.98,7914.3100000000004,-1904.76,1228.47,-2460.6500000000001
167575.0,7706.5200000000004,5432.8999999999996,2222.6300000000001,7770.4200000000001,-2059.9699999999998,1364.3699999999999,-2435.9499999999998
167576.0,7778.5100000000002,5664.1400000000003,2293.0700000000002,7632.3199999999997,-2215.8400000000001,1482.8900000000001,-2401.79
167577.0,7856.3400000000001,5909.3299999999999,2362.3400000000001,7487.4799999999996,-2370.9200000000001,1583.8299999999999,-2356.8000000000002
167578.0,7937.75,6172.1700000000001,2434.4099999999999,7339.6899999999996,-2524.46,1664.6800000000001,-2300.5700000000002
167579.0,8020.2600000000002,6444.4200000000001,2504.1799999999998,7183.9099999999999,-2675.1399999999999,1723.77,-2232.73
167580.0,8102.6800000000003,6726.8999999999996,2573.8800000000001,7024.7299999999996,-2821.75,1759.1800000000001,-2153.2399999999998
167581.0,8183.21,7012.3800000000001,2640.3899999999999,6859.9399999999996,-2963.04,1770.26,-2061.8400000000001
167582.0,8261.2000000000007,7300.1999999999998,2704.5700000000002,6693.5200000000004,-3097.6999999999998,1755.75,-1958.9400000000001
167583.0,8333.7800000000007,7584.5500000000002,2765.96,6525.3299999999999,-3224.1399999999999,1715.4100000000001,-1844.0999999999999
167584.0,8399.1800000000003,7858.7700000000004,2819.8899999999999,6356.5600000000004,-3341.21,1645.98,-1717.55
167585.0,8450.4200000000001,8117.9899999999998,2871.0900000000001,6192.5500000000002,-3445.9899999999998,1545.3699999999999,-1579.6600000000001
167586.0,8489.5699999999997,8335.3500000000004,2893.4400000000001,6028.8500000000004,-3539.6500000000001,1407.04,-1433.3599999999999
167587.0,7759.9200000000001,5248.96,2234.6700000000001,8079.1599999999999,-1894.4200000000001,1329.01,-2484.9000000000001
167588.0,7821.3299999999999,5462.8000000000002,2295.1999999999998,7920.5799999999999,-2051.8000000000002,1472.99,-2461.3600000000001
167589.0,7893.6199999999999,5711.6899999999996,2373.1999999999998,7777.1800000000003,-2209.5900000000001,1599.03,-2427.9099999999999
167590.0,7971.5299999999997,5963.75,2438.98,7614.4899999999998,-2366.46,1706.6400000000001,-2383.25
167591.0,8052.8100000000004,6245.8500000000004,2519.5,7459.5,-2521.6399999999999,1793.1700000000001,-2326.9699999999998
167592.0,8134.7799999999997,6525.2700000000004,2585.3699999999999,7282.6899999999996,-2673.8499999999999,1856.5699999999999,-2258.6900000000001
167593.0,8216.3700000000008,6827.1400000000003,2662.8000000000002,7113.21,-2821.7600000000002,1894.8399999999999,-2178.3499999999999
167594.0,8295.7299999999996,7122.75,2727.3400000000001,6927.6999999999998,-2964.1100000000001,1907.1600000000001,-2085.5900000000001
167595.0,8372.1000000000004,7430.1400000000003,2798.8000000000002,6749.2200000000003,-3099.4499999999998,1892.0899999999999,-1980.98
167596.0,8442.7700000000004,7726.6899999999996,2860.0999999999999,6561.2600000000002,-3226.3400000000001,1849.24,-1863.97
167597.0,8505.8199999999997,8017.8800000000001,2919.4699999999998,6377.8599999999997,-3343.6900000000001,1775.22,-1735.1300000000001
167598.0,8555.3500000000004,8286.5900000000001,2968.3899999999999,6192.7799999999997,-3449.0500000000002,1667.8800000000001,-1594.6400000000001
167599.0,8594.0200000000004,8525.8199999999997,3000.3600000000001,6021.4700000000003,-3543.9899999999998,1520.71,-1446.26
167600.0,7865.9700000000003,5253.4899999999998,2305.4899999999998,8227.7700000000004,-1878.55,1432.4300000000001,-2505.0500000000002
167601.0,7927.6000000000004,5484.5200000000004,2373.1599999999999,8064.3500000000004,-2037.8599999999999,1584.5599999999999,-2482.8000000000002
167602.0,7999.6999999999998,5738.1499999999996,2446.1900000000001,7902.3199999999997,-2197.3000000000002,1718.1400000000001,-2450.1500000000001
167603.0,8077.2700000000004,6009.4899999999998,2521.1100000000001,7733.8599999999997,-2355.5500000000002,1832.6199999999999,-2405.79
167604.0,8157.8299999999999,6296.8599999999997,2596.46,7557.1999999999998,-2511.9299999999998,1924.9300000000001,-2349.4400000000001
167605.0,8238.7999999999993,6597.6199999999999,2672.5700000000002,7372.9799999999996,-2665.1199999999999,1992.8900000000001,-2280.6199999999999
167606.0,8318.9200000000001,6906.4799999999996,2745.6100000000001,7180.1899999999996,-2813.8099999999999,2034.1600000000001,-2199.3800000000001
167607.0,8396.3899999999994,7221.9200000000001,2818.5500000000002,6983.0500000000002,-2956.79,2047.6800000000001,-2105.3699999999999
167608.0,8470.2999999999993,7536.21,2885.7399999999998,6779.3299999999999,-3092.4899999999998,2031.8900000000001,-1999.1600000000001
167609.0,8538.1100000000006,7850.04,2953.4099999999999,6576.4099999999999,-3219.4699999999998,1986.3399999999999,-1880.1600000000001
167610.0,8598.2800000000007,8149.6300000000001,3009.7800000000002,6368.96,-3336.5799999999999,1907.71,-1749.05
167611.0,8645.7399999999998,8437.9500000000007,3066.4499999999998,6172.1499999999996,-3442.0100000000002,1793.7,-1606.0799999999999
167612.0,8683.4599999999991,8683.4200000000001,3091.8699999999999,5976.7299999999996,-3537.46,1637.8099999999999,-1455.73
167613.0,7963.4499999999998,5252.0299999999997,2384.29,8372.5599999999995,-1856.6800000000001,1538.8800000000001,-2520.5700000000002
167614.0,8024.9799999999996,5488.6000000000004,2447.3099999999999,8192.2000000000007,-2017.5899999999999,1699.3,-2499.6100000000001
167615.0,8096.5799999999999,5760.9499999999998,2529.29,8025.1700000000001,-2178.2399999999998,1840.6500000000001,-2467.7199999999998
167616.0,8173.2700000000004,6037.04,2599.1599999999999,7835.9200000000001,-2337.4200000000001,1962.0699999999999,-2423.7199999999998
167617.0,8252.5400000000009,6344.8100000000004,2684.7399999999998,7652.1899999999996,-2494.4899999999998,2060.3200000000002,-2367.2600000000002
167618.0,8331.7299999999996,6649.9200000000001,2754.8800000000001,7443.0699999999997,-2648.1999999999998,2132.8299999999999,-2297.98
167619.0,8409.7299999999996,6979.4499999999998,2837.8200000000002,7240.0799999999999,-2797.1799999999998,2177.1300000000001,-2215.9000000000001
167620.0,8484.6000000000004,7301.6999999999998,2906.4099999999999,7017.6300000000001,-2940.1199999999999,2191.9499999999998,-2120.6100000000001
167621.0,8555.4300000000003,7637.21,2983.5300000000002,6802.1499999999996,-3075.3899999999999,2175.6199999999999,-2012.74
167622.0,8619.8099999999995,7959.0200000000004,3047.96,6573.9099999999999,-3201.6900000000001,2127.46,-1891.71
167623.0,8676.2700000000004,8277.9899999999998,3113.1199999999999,6352.8800000000001,-3317.98,2044.0999999999999,-1758.48
167624.0,8720.7800000000007,8571.6200000000008,3164.1700000000001,6129.3599999999997,-3423.0,1923.1300000000001,-1613.2
167625.0,8756.6800000000003,8842.0300000000007,3202.8499999999999,5927.9099999999999,-3518.6900000000001,1758.1199999999999,-1461.03
167626.0,8051.5,5229.8400000000001,2458.0,8498.3099999999995,-1828.47,1648.0699999999999,-2531.3099999999999
167627.0,8112.6999999999998,5483.3400000000001,2527.8699999999999,8312.1900000000005,-1990.6800000000001,1816.8299999999999,-2511.7800000000002
167628.0,8183.1899999999996,5759.9399999999996,2604.8200000000002,8125.3299999999999,-2152.1599999999999,1965.97,-2480.6700000000001
167629.0,8258.4300000000003,6054.5,2683.79,7928.6899999999996,-2311.79,2094.4499999999998,-2436.9899999999998
167630.0,8335.7700000000004,6366.29,2763.8299999999999,7721.1800000000003,-2469.0599999999999,2198.71,-2380.4099999999999
167631.0,8412.6599999999999,6692.2299999999996,2844.6900000000001,7503.1400000000003,-2622.6599999999999,2275.9699999999998,-2310.5900000000001
167632.0,8487.75,7026.9799999999996,2922.5700000000002,7273.9799999999996,-2771.2600000000002,2323.4000000000001,-2227.6100000000001
167633.0,8559.2800000000007,7368.71,3000.4499999999998,7038.4399999999996,-2913.6599999999999,2339.5,-2131.1199999999999
167634.0,8626.1299999999992,7708.5799999999999,3071.8600000000001,6793.9300000000003,-3048.04,2322.48,-2021.71
167635.0,8686.2000000000007,8048.3400000000001,3144.4000000000001,6550.1000000000004,-3173.1999999999998,2271.5799999999999,-1898.79
167636.0,8738.2099999999991,8372.2099999999991,3204.4000000000001,6300.3100000000004,-3288.0300000000002,2183.4000000000001,-1763.47
167637.0,8779.1900000000005,8686.5100000000002,3265.5700000000002,6064.9099999999999,-3391.9699999999998,2055.52,-1616.0
167638.0,8812.8799999999992,8959.7800000000007,3295.0900000000001,5834.5600000000004,-3487.0999999999999,1881.5699999999999,-1462.2
167639.0,8129.96,5200.3599999999997,2540.8000000000002,8618.4799999999996,-1793.4000000000001,1760.0799999999999,-2536.8099999999999
167640.0,8190.4499999999998,5456.3100000000004,2603.0,8411.6900000000005,-1956.5699999999999,1937.26,-2518.71
167641.0,8259.4799999999996,5753.8599999999997,2691.7199999999998,8221.4899999999998,-2118.3699999999999,2094.4000000000001,-2488.3000000000002
167642.0,8332.6599999999999,6049.0799999999999,2762.4299999999998,7999.2299999999996,-2277.9200000000001,2229.98,-2444.9499999999998
167643.0,8407.3999999999996,6383.3400000000001,2855.9000000000001,7785.9700000000003,-2434.7600000000002,2340.3800000000001,-2388.1799999999998
167644.0,8481.1200000000008,6709.0100000000002,2927.4200000000001,7537.5100000000002,-2587.6999999999998,2422.3200000000002,-2317.9099999999999
167645.0,8552.5699999999997,7066.3400000000001,3018.5100000000002,7299.1400000000003,-2735.3299999999999,2472.9000000000001,-2234.0599999999999
167646.0,8619.9599999999991,7409.7600000000002,3088.2800000000002,7032.1300000000001,-2876.3699999999999,2490.3699999999999,-2136.3000000000002
167647.0,8682.2900000000009,7773.5600000000004,3173.75,6777.5,-3009.0500000000002,2472.8299999999999,-2025.3199999999999
167648.0,8737.4200000000001,8115.1899999999996,3238.52,6501.1599999999999,-3132.25,2419.1999999999998,-1900.53
167649.0,8784.2299999999996,8461.7700000000004,3312.0900000000001,6239.9799999999996,-3244.9000000000001,2326.1700000000001,-1763.27
167650.0,8820.6800000000003,8774.6399999999994,3362.29,5970.0200000000004,-3347.1199999999999,2191.0799999999999,-1613.73
167651.0,8851.25,9077.4200000000001,3410.77,5736.96,-3441.3600000000001,2007.8099999999999,-1458.48
167652.0,8197.8899999999994,5145.1000000000004,2616.02,8713.9200000000001,-1751.0699999999999,1874.55,-2536.8099999999999
167653.0,8257.4200000000001,5420.0500000000002,2687.3299999999999,8502.9899999999998,-1914.8399999999999,2060.2199999999998,-2520.23
167654.0,8324.4500000000007,5718.6099999999997,2768.5,8289.2199999999993,-2076.5500000000002,2225.29,-2490.6399999999999
167655.0,8395.0200000000004,6033.8699999999999,2850.9200000000001,8060.5699999999997,-2235.46,2368.0999999999999,-2447.5300000000002
167656.0,8466.4599999999991,6367.8400000000001,2935.8699999999999,7818.54,-2391.2800000000002,2484.6399999999999,-2390.5599999999999
167657.0,8536.4300000000003,6715.71,3020.98,7561.7600000000002,-2542.8099999999999,2571.4699999999998,-2319.6799999999998
167658.0,8603.4599999999991,7073.4700000000003,3103.7399999999998,7291.6199999999999,-2688.6900000000001,2625.27,-2234.8600000000001
167659.0,8666.0100000000002,7438.0699999999997,3186.1799999999998,7012.3299999999999,-2827.8200000000002,2644.0700000000002,-2135.9699999999998
167660.0,8722.8199999999997,7800.6000000000004,3262.1100000000001,6722.1499999999996,-2958.21,2625.79,-2023.51
167661.0,8772.1200000000008,8162.6000000000004,3339.1300000000001,6431.6400000000003,-3078.8000000000002,2569.3499999999999,-1896.97
167662.0,8813.0499999999993,8507.7900000000009,3403.02,6134.4799999999996,-3188.5700000000002,2471.3699999999999,-1757.8099999999999
167663.0,8844.5300000000007,8844.5300000000007,3468.1399999999999,5854.8299999999999,-3288.3200000000002,2329.1700000000001,-1606.3900000000001
167664.0,8871.3899999999994,9143.0900000000001,3502.0599999999999,5584.9099999999999,-3380.7399999999998,2136.7600000000002,-1449.8499999999999
167665.0,8255.3899999999994,5079.8699999999999,2700.3299999999999,8800.4799999999996,-1700.9100000000001,1991.54,-2530.8099999999999
167666.0,8313.5100000000002,5358.6400000000003,2765.6799999999998,8569.9400000000005,-1864.8699999999999,2185.7199999999998,-2515.71
167667.0,8378.1499999999996,5675.4899999999998,2856.8899999999999,8349.7199999999993,-2025.9200000000001,2358.8499999999999,-2486.9099999999999
167668.0,8445.4099999999999,5991.3199999999997,2932.29,8094.9300000000003,-2183.5799999999999,2508.8899999999999,-2443.9899999999998
167669.0,8512.9200000000001,6344.8999999999996,3029.3499999999999,7843.6999999999998,-2337.6700000000001,2631.6599999999999,-2386.79
167670.0,8578.3299999999999,6691.8000000000002,3106.1100000000001,7555.2700000000004,-2487.1399999999999,2723.29,-2315.3299999999999
167671.0,8640.2999999999993,7069.4200000000001,3201.23,7272.4899999999998,-2630.6399999999999,2780.3000000000002,-2229.6599999999999
167672.0,8697.1700000000001,7434.1700000000001,3275.98,6959.5200000000004,-2766.8699999999999,2800.4899999999998,-2129.4499999999998
167673.0,8747.8999999999996,7818.2700000000004,3365.75,6656.0799999999999,-2894.02,2781.5999999999999,-2015.52
167674.0,8790.75,8179.4499999999998,3434.4899999999998,6329.6899999999996,-3011.0900000000001,2722.3400000000001,-1887.22
167675.0,8825.1700000000001,8545.8700000000008,3512.6199999999999,6018.9399999999996,-3117.1900000000001,2619.3600000000001,-1746.3699999999999
167676.0,8850.75,8878.2399999999998,3565.8000000000002,5700.9799999999996,-3213.6999999999998,2469.7800000000002,-1593.1800000000001
167677.0,8873.0300000000007,9206.0799999999999,3620.23,5427.3000000000002,-3303.8099999999999,2267.8800000000001,-1435.52
167678.0,8301.9200000000001,4986.4399999999996,2777.4499999999998,8859.2999999999993,-1642.52,2110.6999999999998,-2518.5599999999999
167679.0,8358.3099999999995,5285.2399999999998,2853.3699999999999,8625.3999999999996,-1806.23,2313.3600000000001,-2505.0300000000002
167680.0,8419.9099999999999,5599.9099999999999,2934.96,8378.0799999999999,-1966.1199999999999,2494.4699999999998,-2477.0300000000002
167681.0,8483.3899999999994,5936.3199999999997,3024.0799999999999,8117.1199999999999,-2121.8800000000001,2651.8200000000002,-2434.2199999999998
167682.0,8546.3199999999997,6285.4700000000003,3110.2800000000002,7832.5699999999997,-2273.5500000000002,2780.77,-2376.75
167683.0,8606.5400000000009,6654.75,3202.9099999999999,7535.5799999999999,-2420.1300000000001,2877.3200000000002,-2304.5599999999999
167684.0,8662.6900000000005,7027.9700000000003,3287.04,7215.6800000000003,-2560.27,2937.5700000000002,-2217.9099999999999
167685.0,8713.2600000000002,7414.2600000000002,3377.1999999999998,6890.2799999999997,-2692.9899999999998,2959.0700000000002,-2116.52
167686.0,8757.0699999999997,7791.29,3453.9499999999998,6544.96,-2816.1599999999999,2939.3699999999999,-2001.1900000000001
167687.0,8792.8400000000001,8174.3999999999996,3538.8699999999999,6205.3800000000001,-2928.9299999999998,2877.2600000000002,-1871.23
167688.0,8820.0599999999995,8532.5300000000007,3603.0,5851.3000000000002,-3030.52,2769.0900000000001,-1728.76
167689.0,8839.4300000000003,8890.8199999999997,3675.6300000000001,5525.1199999999999,-3122.9099999999999,2612.2800000000002,-1573.98
167690.0,8856.6299999999992,9206.8799999999992,3710.0599999999999,5206.4700000000003,-3209.6500000000001,2401.0700000000002,-1415.4300000000001
167691.0,8337.7099999999991,4882.6300000000001,2866.3699999999999,8908.0699999999997,-1575.24,2231.9699999999998,-2499.4899999999998
167692.0,8392.0200000000004,5180.46,2932.0300000000002,8649.6800000000003,-1738.28,2443.0700000000002,-2487.5799999999999
167693.0,8450.2000000000007,5516.1300000000001,3027.6300000000001,8398.4200000000001,-1896.3299999999999,2632.2800000000002,-2460.2199999999998
167694.0,8509.2299999999996,5846.8800000000001,3105.3000000000002,8104.9300000000003,-2049.48,2796.8200000000002,-2417.54
167695.0,8566.9899999999998,6217.8699999999999,3207.9400000000001,7813.1599999999999,-2197.9200000000001,2932.02,-2359.6799999999998
167696.0,8621.3500000000004,6579.0799999999999,3287.4899999999998,7477.1599999999999,-2340.8400000000001,3033.3400000000001,-2286.8099999999999
167697.0,8671.0900000000001,6974.0799999999999,3388.4899999999998,7146.2399999999998,-2476.9000000000001,3096.75,-2199.21
167698.0,8714.7099999999991,7352.9899999999998,3466.1100000000001,6779.3199999999997,-2604.9699999999998,3119.5799999999999,-2096.52
167699.0,8751.2800000000007,7753.9799999999996,3561.8699999999999,6422.8199999999997,-2723.0999999999999,3099.21,-1979.77
167700.0,8779.4799999999996,8127.3400000000001,3632.6100000000001,6038.2200000000003,-2830.6300000000001,3034.0900000000001,-1848.22
167701.0,8799.2000000000007,8509.6900000000005,3716.75,5673.1999999999998,-2926.6900000000001,2920.8099999999999,-1704.24
167702.0,8811.6700000000001,8854.5,3771.1399999999999,5299.3999999999996,-3014.1199999999999,2756.46,-1548.04
167703.0,8823.2999999999993,9204.3400000000001,3832.96,4981.0,-3096.9000000000001,2535.6900000000001,-1388.77
167704.0,8362.6900000000005,4746.0200000000004,2946.6599999999999,8923.7000000000007,-1498.6099999999999,2354.9400000000001,-2473.3299999999999
167705.0,8414.5699999999997,5061.8100000000004,3021.5100000000002,8659.8700000000008,-1660.51,2574.4000000000001,-2463.1100000000001
167706.0,8468.8099999999995,5394.8500000000004,3108.5500000000002,8381.1200000000008,-1816.1600000000001,2771.5300000000002,-2436.46
167707.0,8523.0400000000009,5743.0100000000002,3198.8099999999999,8078.1999999999998,-1965.97,2943.3099999999999,-2393.79
167708.0,8575.0599999999995,6107.7299999999996,3291.1799999999998,7751.2700000000004,-2110.3600000000001,3084.6300000000001,-2335.4400000000001
167709.0,8623.1399999999994,6487.8699999999999,3385.8400000000001,7403.1300000000001,-2248.6599999999999,3190.7800000000002,-2261.7399999999998
167710.0,8665.9899999999998,6876.1899999999996,3476.4699999999998,7032.79,-2379.54,3257.3699999999999,-2173.04
167711.0,8702.2399999999998,7272.6499999999996,3568.6199999999999,6649.3100000000004,-2502.21,3281.3800000000001,-2069.1399999999999
167712.0,8731.0,7663.3999999999996,3651.4299999999998,6247.8199999999997,-2614.4299999999998,3260.1100000000001,-1951.01
167713.0,8751.4200000000001,8055.7200000000003,3738.5700000000002,5846.9099999999999,-2715.71,3191.9899999999998,-1817.96
167714.0,8763.4400000000005,8426.0200000000004,3808.23,5434.8999999999996,-2805.3200000000002,3073.4200000000001,-1672.55
167715.0,8769.1299999999992,8794.0100000000002,3882.5100000000002,5050.04,-2886.7600000000002,2901.6599999999999,-1515.1400000000001
167716.0,8774.9400000000005,9127.8999999999996,3923.2199999999998,4682.5200000000004,-2964.4499999999998,2671.54,-1355.3599999999999
167717.0,8377.7299999999996,4594.0,3037.0599999999999,8923.3700000000008,-1411.97,2479.4699999999998,-2439.5300000000002
167718.0,8426.7399999999998,4909.6499999999996,3103.4000000000001,8636.0100000000002,-1572.2,2707.21,-2430.9499999999998
167719.0,8476.7199999999993,5259.6499999999996,3202.1900000000001,8349.4500000000007,-1724.6800000000001,2912.2600000000002,-2404.8800000000001
167720.0,8525.6399999999994,5601.7299999999996,3282.9099999999999,8013.7399999999998,-1870.3299999999999,3091.1100000000001,-2362.1700000000001
167721.0,8571.6000000000004,5983.3900000000003,3389.5700000000002,7674.8199999999997,-2009.77,3238.52,-2303.23
167722.0,8612.9500000000007,6354.25,3473.0599999999999,7286.6300000000001,-2142.5300000000002,3349.3099999999999,-2228.6799999999998
167723.0,8648.5699999999997,6758.4200000000001,3578.0100000000002,6899.4899999999998,-2267.3800000000001,3418.8899999999999,-2138.8899999999999
167724.0,8677.4200000000001,7146.3800000000001,3659.8699999999999,6473.6000000000004,-2383.3400000000001,3444.1599999999999,-2033.6500000000001
167725.0,8698.5400000000009,7555.2399999999998,3759.4699999999998,6055.2799999999997,-2488.5100000000002,3422.0300000000002,-1914.1099999999999
167726.0,8711.2099999999991,7935.46,3833.9299999999998,5607.3900000000003,-2582.4499999999998,3350.77,-1779.6400000000001
167727.0,8715.8799999999992,8324.4099999999999,3921.79,5179.1499999999996,-2664.5700000000002,3226.8899999999999,-1632.98
167728.0,8714.7299999999996,8677.0799999999999,3979.6900000000001,4745.1700000000001,-2738.98,3047.52,-1474.53
167729.0,8714.6900000000005,9039.3700000000008,4045.8400000000001,4372.8000000000002,-2810.7800000000002,2807.8200000000002,-1314.4400000000001
167730.0,8383.3799999999992,4406.1400000000003,3119.46,8885.9099999999999,-1314.8,2605.0799999999999,-2397.75
167731.0,8429.2800000000007,4739.3599999999997,3195.5,8593.0200000000004,-1472.77,2840.98,-2390.8299999999999
167732.0,8474.7000000000007,5083.8500000000004,3284.9200000000001,8276.5200000000004,-1621.46,3053.73,-2365.3600000000001
167733.0,8518.0900000000001,5440.8999999999996,3378.4099999999999,7929.1599999999999,-1762.0899999999999,3239.5700000000002,-2322.4499999999998
167734.0,8557.8099999999995,5812.6999999999998,3474.4299999999998,7551.9200000000001,-1895.6500000000001,3392.8800000000001,-2262.8600000000001
167735.0,8592.4300000000003,6198.7799999999997,3572.75,7148.2200000000003,-2021.77,3508.3099999999999,-2187.21
167736.0,8621.0,6592.8500000000004,3667.6199999999999,6718.7399999999998,-2139.3400000000001,3580.8800000000001,-2096.1999999999998
167737.0,8642.4899999999998,6993.5500000000002,3763.1900000000001,6271.9399999999996,-2247.7800000000002,3607.1100000000001,-1989.6800000000001
167738.0,8656.25,7388.6599999999999,3850.3499999999999,5805.6800000000003,-2344.8400000000001,3583.9299999999998,-1868.8499999999999
167739.0,8661.7600000000002,7783.0600000000004,3940.6300000000001,5337.2700000000004,-2430.3000000000002,3509.48,-1732.95
167740.0,8659.6800000000003,8156.1300000000001,4014.5100000000002,4858.9700000000003,-2503.77,3380.1599999999999,-1585.1700000000001
167741.0,8652.6800000000003,8526.7900000000009,4091.3400000000001,4409.3000000000002,-2570.0100000000002,3193.27,-1425.8499999999999
167742.0,8647.3299999999999,8869.7399999999998,4136.9499999999998,3985.1100000000001,-2634.6799999999998,2944.21,-1265.6700000000001
167743.0,8381.3700000000008,4199.4300000000003,3212.3400000000001,8827.9300000000003,-1206.3699999999999,2731.5700000000002,-2347.4000000000001
167744.0,8423.9599999999991,4531.0500000000002,3279.54,8510.7299999999996,-1361.53,2975.4400000000001,-2342.1900000000001
167745.0,8464.7700000000004,4889.9799999999996,3380.3899999999999,8184.3599999999997,-1505.5799999999999,3195.8499999999999,-2317.0900000000001
167746.0,8502.5400000000009,5238.0500000000002,3464.46,7801.8900000000003,-1640.23,3388.4200000000001,-2273.9000000000001
167747.0,8536.1100000000006,5622.4499999999998,3573.96,7408.8900000000003,-1766.8599999999999,3547.5100000000002,-2213.46
167748.0,8564.2999999999993,5996.1300000000001,3661.9499999999998,6962.7200000000003,-1885.3499999999999,3667.3000000000002,-2136.7800000000002
167749.0,8586.1800000000003,6400.1899999999996,3769.4299999999998,6511.3000000000002,-1994.6600000000001,3742.5900000000001,-2044.51
167750.0,8601.2099999999991,6789.6099999999997,3856.4299999999998,6020.1400000000003,-2094.1100000000001,3769.8400000000001,-1936.5999999999999
167751.0,8608.5699999999997,7195.8400000000001,3958.1100000000001,5530.9799999999996,-2181.8099999999999,3745.5100000000002,-1814.3699999999999
167752.0,8608.1800000000003,7575.3299999999999,4037.7399999999998,5013.7700000000004,-2257.5700000000002,3667.7600000000002,-1677.2
167753.0,8600.8099999999995,7959.2200000000003,4126.75,4512.5,-2321.1700000000001,3532.9099999999999,-1528.3699999999999
167754.0,8589.2900000000009,8313.0200000000004,4190.4099999999999,4013.1799999999998,-2378.0300000000002,3338.4099999999999,-1368.4300000000001
167755.0,8579.7199999999993,8676.1399999999994,4257.6099999999997,3576.9400000000001,-2434.5799999999999,3079.8200000000002,-1208.3099999999999
167756.0,8373.6100000000006,3954.25,3298.4200000000001,8729.0699999999997,-1086.0599999999999,2858.4200000000001,-2288.1199999999999
167757.0,8412.6700000000001,4299.0299999999997,3372.4000000000001,8402.7700000000004,-1237.8399999999999,3109.9899999999998,-2284.5999999999999
167758.0,8448.9400000000005,4652.7200000000003,3466.6999999999998,8047.4300000000003,-1376.49,3337.73,-2259.96
167759.0,8481.4500000000007,5008.8999999999996,3560.04,7647.3000000000002,-1504.25,3536.8499999999999,-2216.29
167760.0,8509.3999999999996,5382.6499999999996,3662.0999999999999,7216.0500000000002,-1622.8599999999999,3701.4699999999998,-2154.8600000000001
167761.0,8531.9099999999999,5763.1899999999996,3760.8699999999999,6746.9200000000001,-1732.4400000000001,3825.46,-2076.8699999999999
167762.0,8548.3799999999992,6156.5600000000004,3862.54,6253.6800000000003,-1832.1600000000001,3903.4400000000001,-1983.1900000000001
167763.0,8558.0400000000009,6548.6800000000003,3958.1799999999998,5732.7600000000002,-1921.5999999999999,3931.2800000000002,-1873.9200000000001
167764.0,8560.7099999999991,6940.8500000000004,4052.3299999999999,5196.6499999999996,-1998.6700000000001,3905.6799999999998,-1750.3499999999999
167765.0,8556.4400000000005,7323.6700000000001,4142.1700000000001,4649.4300000000003,-2063.4099999999999,3824.4699999999998,-1611.9000000000001
167766.0,8546.3099999999995,7692.3900000000003,4223.21,4100.3000000000002,-2115.8800000000001,3684.1100000000001,-1462.1700000000001
167767.0,8532.8199999999997,8051.8400000000001,4298.8500000000004,3574.4200000000001,-2162.1100000000001,3481.9499999999998,-1301.8299999999999
167768.0,8521.2099999999991,8397.6000000000004,4352.6800000000003,3089.7600000000002,-2209.23,3214.1399999999999,-1141.96
167769.0,8363.1000000000004,3682.02,3391.0100000000002,8600.25,-953.16200000000003,2985.2199999999998,-2219.3299999999999
167770.0,8398.6599999999999,4028.4699999999998,3461.1500000000001,8253.9799999999996,-1100.9100000000001,3244.3000000000002,-2217.4400000000001
167771.0,8430.7099999999991,4387.8999999999996,3561.0599999999999,7880.96,-1233.21,3479.1199999999999,-2193.0500000000002
167772.0,8458.7600000000002,4737.0299999999997,3650.6399999999999,7448.7799999999997,-1352.99,3684.54,-2148.77
167773.0,8482.1499999999996,5112.6499999999996,3759.8299999999999,6992.1800000000003,-1462.45,3854.3800000000001,-2086.1700000000001
167774.0,8500.4500000000007,5481.96,3854.4000000000001,6483.0699999999997,-1561.99,3982.2600000000002,-2006.8499999999999
167775.0,8513.0499999999993,5872.8900000000003,3961.5700000000002,5956.8800000000001,-1650.9200000000001,4062.4699999999998,-1911.6900000000001
167776.0,8519.9099999999999,6255.1999999999998,4055.75,5394.6599999999999,-1728.77,4090.9499999999998,-1800.9200000000001
167777.0,8520.5799999999999,6644.6800000000003,4156.4200000000001,4823.5900000000001,-1793.8199999999999,4063.8400000000001,-1675.9200000000001
167778.0,8515.8099999999995,7014.46,4243.3699999999999,4231.2600000000002,-1846.1800000000001,3979.1100000000001,-1536.3699999999999
167779.0,8506.3199999999997,7378.9499999999998,4330.6499999999996,3646.1599999999999,-1886.2,3833.0100000000002,-1385.79
167780.0,8494.6100000000006,7724.9799999999996,4402.4399999999996,3075.96,-1920.3699999999999,3623.27,-1225.3599999999999
167781.0,8484.0499999999993,8074.79,4467.46,2565.0799999999999,-1956.8199999999999,3346.1100000000001,-1065.8099999999999
167782.0,8353.6599999999999,3369.9400000000001,3479.8699999999999,8427.9599999999991,-807.00599999999997,3111.4299999999998,-2140.6500000000001
167783.0,8385.7199999999993,3726.5100000000002,3555.5900000000001,8070.7799999999997,-950.08100000000002,3377.6199999999999,-2140.3299999999999
167784.0,8414.3799999999992,4078.3099999999999,3649.8000000000002,7667.5900000000001,-1075.1300000000001,3619.1399999999999,-2116.1999999999998
167785.0,8439.1800000000003,4429.4499999999998,3746.7800000000002,7213.04,-1185.9400000000001,3830.48,-2071.0700000000002
167786.0,8459.8799999999992,4791.3500000000004,3850.3400000000001,6716.5200000000004,-1285.03,4005.23,-2007.22
167787.0,8476.2199999999993,5159.4700000000003,3953.0700000000002,6178.1599999999999,-1373.0799999999999,4136.7399999999998,-1926.1700000000001
167788.0,8488.0499999999993,5536.3400000000001,4056.9899999999998,5608.4899999999998,-1449.73,4219.0600000000004,-1829.3800000000001
167789.0,8495.1299999999992,5911.3900000000003,4155.9300000000003,5008.6199999999999,-1514.72,4247.6599999999999,-1717.02
167790.0,8498.0,6284.4499999999998,4253.1499999999996,4390.3299999999999,-1566.4000000000001,4218.9200000000001,-1590.71
167791.0,8497.1200000000008,6646.1099999999997,4345.4200000000001,3758.98,-1604.8900000000001,4130.3900000000003,-1449.99
167792.0,8493.7099999999991,6994.0900000000001,4430.1599999999999,3127.0999999999999,-1631.0,3978.6700000000001,-1298.79
167793.0,8488.7800000000007,7332.1999999999998,4507.0,2519.3499999999999,-1651.73,3761.1500000000001,-1138.4100000000001
167794.0,8484.3400000000001,7665.54,4566.1800000000003,1963.25,-1676.1700000000001,3475.0700000000002,-979.51400000000001
167795.0,8350.2700000000004,3023.8600000000001,3573.0100000000002,8217.3299999999999,-646.85699999999997,3236.4899999999998,-2051.46
167796.0,8379.25,3383.3400000000001,3648.1300000000001,7842.8500000000004,-784.48400000000004,3509.4499999999998,-2052.6599999999999
167797.0,8405.8600000000006,3732.98,3743.7199999999998,7415.7399999999998,-901.27599999999995,3757.3499999999999,-2028.5699999999999
167798.0,8429.4300000000003,4076.7800000000002,3841.23,6930.4200000000001,-1001.89,3974.25,-1982.3399999999999
167799.0,8449.9599999999991,4429.7200000000003,3946.5599999999999,6399.5100000000002,-1089.26,4153.3900000000003,-1917.04
167800.0,8467.8400000000001,4785.6000000000004,4050.1799999999998,5822.2200000000003,-1164.6500000000001,4288.1400000000003,-1834.21
167801.0,8482.7099999999991,5147.4700000000003,4153.4099999999999,5209.3699999999999,-1227.6099999999999,4372.0100000000002,-1735.74
167802.0,8495.2999999999993,5512.1400000000003,4257.21,4570.0299999999997,-1278.1600000000001,4400.75,-1621.6199999999999
167803.0,8505.5699999999997,5867.7799999999997,4353.4200000000001,3904.9000000000001,-1314.8499999999999,4369.9300000000003,-1493.95
167804.0,8515.1700000000001,6216.4200000000001,4450.1999999999998,3231.1799999999998,-1337.96,4277.6300000000001,-1352.1199999999999
167805.0,8524.2199999999993,6543.8400000000001,4532.2299999999996,2550.2800000000002,-1348.71,4119.8900000000003,-1200.47
167806.0,8533.4300000000003,6870.8599999999997,4614.8900000000003,1903.28,-1354.3299999999999,3894.9099999999999,-1040.27
167807.0,8540.9400000000005,7189.7399999999998,4673.96,1305.8599999999999,-1365.3,3599.6999999999998,-882.28999999999996
167808.0,8359.3099999999995,2637.5599999999999,3666.8200000000002,7961.3800000000001,-471.98599999999999,3359.8000000000002,-1951.25
167809.0,8385.7299999999996,2998.9400000000001,3741.6199999999999,7569.5,-603.41700000000003,3638.98,-1954.02
167810.0,8412.25,3342.4400000000001,3836.98,7115.5900000000001,-711.00999999999999,3892.79,-1929.8299999999999
167811.0,8437.3600000000006,3676.6300000000001,3935.52,6598.2399999999998,-800.30600000000004,4114.6300000000001,-1882.4200000000001
167812.0,8461.6700000000001,4015.8600000000001,4041.1300000000001,6029.6400000000003,-874.60199999999998,4297.8100000000004,-1815.3399999999999
167813.0,8485.5799999999999,4357.3500000000004,4146.4300000000003,5412.3299999999999,-935.66300000000001,4435.3100000000004,-1730.3900000000001
167814.0,8509.2600000000002,4704.2299999999996,4252.54,4757.7799999999997,-983.34000000000003,4520.5,-1630.02
167815.0,8533.3999999999996,5047.1300000000001,4354.3000000000002,4069.3299999999999,-1017.98,4548.7700000000004,-1514.0999999999999
167816.0,8558.5699999999997,5385.0799999999999,4453.4099999999999,3358.9400000000001,-1038.0999999999999,4515.7200000000003,-1385.0699999999999
167817.0,8586.5499999999993,5710.5100000000002,4548.7600000000002,2634.6199999999999,-1044.25,4419.3299999999999,-1242.1400000000001
167818.0,8616.9699999999993,6019.9899999999998,4634.6199999999999,1909.1600000000001,-1037.9300000000001,4255.6400000000003,-1090.21
167819.0,8649.0400000000009,6323.5699999999997,4715.46,1212.6700000000001,-1027.04,4023.1100000000001,-930.38699999999994
167820.0,8676.5900000000001,6624.2200000000003,4774.5699999999997,572.18799999999999,-1023.03,3719.0500000000002,-773.58699999999999
167821.0,8388.5499999999993,2210.9299999999998,3763.5500000000002,7659.1099999999997,-281.62299999999999,3480.5999999999999,-1839.53
167822.0,8413.6200000000008,2569.5,3834.7199999999998,7246.3400000000001,-406.012,3765.5900000000001,-1843.8299999999999
167823.0,8442.5900000000001,2908.4899999999998,3933.5700000000002,6768.3800000000001,-503.28699999999998,4024.79,-1819.1400000000001
167824.0,8473.2399999999998,3227.3600000000001,4030.1999999999998,6214.4799999999996,-579.84199999999998,4251.0900000000001,-1770.3599999999999
167825.0,8506.2700000000004,3552.6900000000001,4139.3599999999997,5609.3299999999999,-639.68799999999999,4437.6899999999996,-1701.2
167826.0,8542.4099999999999,3872.1300000000001,4242.9899999999998,4946.0699999999997,-685.05100000000004,4577.3199999999997,-1614.1600000000001
167827.0,8581.8299999999999,4197.71,4350.0600000000004,4245.3100000000004,-715.91899999999998,4663.2299999999996,-1511.5999999999999
167828.0,8625.9099999999999,4519.7200000000003,4454.54,3510.4499999999998,-732.90099999999995,4690.7399999999998,-1393.8699999999999
167829.0,8674.8999999999996,4832.8100000000004,4553.8400000000001,2749.6399999999999,-734.76199999999994,4655.1099999999997,-1263.3099999999999
167830.0,8731.2999999999993,5134.6599999999999,4652.04,1976.6700000000001,-722.27499999999998,4554.4499999999998,-1119.48
167831.0,8793.2000000000007,5415.3199999999997,4735.8299999999999,1198.0799999999999,-697.28999999999996,4384.5799999999999,-967.25099999999998
167832.0,8858.7199999999993,5698.1700000000001,4821.9399999999996,457.24299999999999,-668.125,4144.6800000000003,-808.26099999999997
167833.0,8915.8099999999995,5975.4799999999996,4880.6300000000001,-229.53299999999999,-647.36900000000003,3831.8800000000001,-652.48900000000003
167834.0,8447.4300000000003,1737.3,3859.3699999999999,7303.0100000000002,-75.021699999999996,3598.1599999999999,-1715.8499999999999
167835.0,8472.5499999999993,2094.6100000000001,3930.0700000000002,6872.21,-191.535,3888.3200000000002,-1721.5899999999999
167836.0,8507.5499999999993,2422.4400000000001,4028.6300000000001,6364.9700000000003,-277.517,4152.2399999999998,-1696.3800000000001
167837.0,8548.6599999999999,2724.4200000000001,4125.1999999999998,5774.4499999999998,-340.07400000000001,4382.2600000000002,-1645.97
167838.0,8596.9599999999991,3029.4400000000001,4235.25,5128.0299999999997,-383.97399999999999,4571.6999999999998,-1574.4400000000001
167839.0,8652.9599999999991,3325.1199999999999,4339.1499999999996,4418.8000000000002,-411.80500000000001,4712.9300000000003,-1484.8699999999999
167840.0,8717.1499999999996,3628.3099999999999,4450.3500000000004,3672.7600000000002,-424.149,4799.1400000000003,-1379.9400000000001
167841.0,8790.6399999999994,3917.1599999999999,4550.3400000000001,2881.5599999999999,-421.74700000000001,4825.2200000000003,-1260.2
167842.0,8874.3500000000004,4205.6700000000001,4655.1599999999999,2073.0900000000001,-403.67000000000002,4786.7399999999998,-1128.1700000000001
167843.0,8970.2900000000009,4470.8599999999997,4748.0500000000002,1240.8399999999999,-370.75599999999997,4681.4300000000003,-983.38099999999997
167844.0,9075.6800000000003,4727.96,4840.0299999999997,417.17500000000001,-325.41300000000001,4505.5299999999997,-831.11000000000001
167845.0,9185.6499999999996,4971.6499999999996,4918.3000000000002,-383.83300000000003,-276.25,4257.9399999999996,-673.00199999999995
167846.0,9283.3500000000004,5227.2799999999997,4983.54,-1112.0999999999999,-237.40899999999999,3937.0799999999999,-518.92200000000003
167847.0,8546.8400000000001,1217.0599999999999,3957.3099999999999,6892.5900000000001,148.643,3711.5999999999999,-1579.6600000000001
167848.0,8574.0599999999995,1569.96,4026.1399999999999,6442.1099999999997,40.8628,4006.3499999999999,-1586.73
167849.0,8619.5100000000002,1885.0699999999999,4125.3100000000004,5905.5100000000002,-32.552199999999999,4274.3299999999999,-1560.6700000000001
167850.0,8677.5,2167.7199999999998,4222.6899999999996,5277.5600000000004,-79.581500000000005,4507.4899999999998,-1508.24
167851.0,8748.6700000000001,2447.27,4332.5200000000004,4586.5100000000002,-105.998,4698.8599999999997,-1434.1199999999999
167852.0,8833.8099999999995,2715.3499999999999,4438.0699999999997,3829.6900000000001,-114.883,4840.96,-1341.9000000000001
167853.0,8932.6800000000003,2983.4899999999998,4545.7399999999998,3028.1999999999998,-106.98999999999999,4926.5900000000001,-1234.47
167854.0,9047.3099999999995,3245.6399999999999,4652.79,2189.5100000000002,-83.433499999999995,4951.0200000000004,-1112.5599999999999
167855.0,9177.0300000000007,3493.1599999999999,4751.8199999999997,1319.97,-43.528700000000001,4908.9899999999998,-978.99599999999998
167856.0,9325.4300000000003,3730.3000000000002,4853.7799999999997,439.733,11.572900000000001,4799.0699999999997,-833.31299999999999
167857.0,9485.5599999999995,3940.0,4935.5,-449.29199999999997,79.020700000000005,4616.5900000000001,-681.12599999999998
167858.0,9653.1399999999994,4161.4399999999996,5028.4399999999996,-1291.21,150.036,4361.9899999999998,-524.20000000000005
167859.0,9800.5599999999995,4371.4399999999996,5081.1800000000003,-2081.1500000000001,209.01300000000001,4032.6300000000001,-371.61099999999999
167860.0,8699.0599999999995,646.67499999999995,4056.7199999999998,6423.2700000000004,390.09500000000003,3820.0799999999999,-1430.5
167861.0,8730.7700000000004,991.49300000000005,4122.0100000000002,5951.2600000000002,291.916,4118.5299999999997,-1438.8800000000001
167862.0,8792.0900000000001,1292.03,4223.3199999999997,5385.1400000000003,232.20599999999999,4389.8500000000004,-1411.71
167863.0,8874.1200000000008,1547.01,4317.1899999999996,4713.46,201.96799999999999,4625.04,-1357.2
167864.0,8977.5200000000004,1800.5,4430.7799999999997,3979.3400000000001,194.66999999999999,4817.75,-1280.02
167865.0,9101.9500000000007,2031.9300000000001,4533.1300000000001,3168.2800000000002,206.72,4959.8699999999999,-1184.8
167866.0,9247.1599999999999,2270.29,4647.7700000000004,2318.9099999999999,236.715,5044.4499999999998,-1074.4300000000001
167867.0,9414.4500000000007,2485.1199999999999,4746.8299999999999,1415.47,283.25599999999997,5066.3199999999997,-950.41999999999996
167868.0,9603.1000000000004,2700.2199999999998,4854.5900000000001,496.05099999999999,346.78399999999999,5020.5500000000002,-815.03300000000002
167869.0,9815.6599999999999,2885.3200000000002,4947.3500000000004,-451.98399999999998,425.91500000000002,4905.4300000000003,-668.80899999999997
167870.0,10043.4,3063.6300000000001,5040.79,-1388.01,517.36800000000005,4716.5900000000001,-516.45500000000004
167871.0,10278.6,3229.8800000000001,5121.6499999999996,-2298.6900000000001,611.84900000000005,4454.6899999999996,-361.50299999999999
167872.0,10488.0,3410.3800000000001,5184.5799999999999,-3132.3800000000001,692.45000000000005,4117.6199999999999,-210.042
167873.0,8917.1499999999996,23.314,4157.6400000000003,5891.3900000000003,650.16700000000003,3922.48,-1268.0
167874.0,8956.4200000000001,357.803,4219.1700000000001,5397.3599999999997,562.48800000000006,4223.9499999999998,-1277.4000000000001
167875.0,9039.8199999999997,640.40200000000004,4322.3699999999999,4800.4799999999996,517.83199999999999,4497.7399999999998,-1248.8499999999999
167876.0,9154.2099999999991,866.35900000000004,4415.0900000000001,4085.52,506.036,4734.1999999999998,-1191.73
167877.0,9299.7399999999998,1086.55,4530.1899999999996,3303.6999999999998,519.46600000000001,4927.1800000000003,-1111.3099999999999
167878.0,9474.4300000000003,1277.1400000000001,4630.8400000000001,2436.6900000000001,553.96500000000003,5068.3100000000004,-1012.91
167879.0,9677.9099999999999,1472.5799999999999,4745.46,1529.9200000000001,607.80700000000002,5151.0200000000004,-899.49699999999996
167880.0,9909.8400000000001,1644.2,4846.1800000000003,568.55600000000004,679.27099999999996,5169.5799999999999,-773.10299999999995
167881.0,10169.700000000001,1811.6500000000001,4953.9899999999998,-411.73899999999998,768.30600000000004,5119.71,-636.00599999999997
167882.0,10457.799999999999,1948.6700000000001,5047.46,-1420.6199999999999,873.38599999999997,4998.8199999999997,-489.07400000000001
167883.0,10764.4,2076.7600000000002,5140.8400000000001,-2417.5300000000002,990.50099999999998,4803.8500000000004,-337.04000000000002
167884.0,11077.299999999999,2195.3800000000001,5222.7399999999998,-3386.73,1110.52,4534.3400000000001,-183.874
167885.0,11358.299999999999,2334.2800000000002,5290.54,-4271.2299999999996,1214.6500000000001,4190.5200000000004,-34.381399999999999
167886.0,9214.3400000000001,-659.46199999999999,4256.5500000000002,5289.21,929.47799999999995,4017.7399999999998,-1091.7
167887.0,9264.8500000000004,-332.041,4320.1899999999996,4778.8900000000003,853.28200000000004,4321.3699999999999,-1101.96
167888.0,9376.7999999999993,-77.389799999999994,4418.8500000000004,4143.1999999999998,824.827,4596.5,-1071.95
167889.0,9532.7000000000007,118.191,4514.2399999999998,3386.4699999999998,832.779,4833.2299999999996,-1011.96
167890.0,9730.3999999999996,295.06200000000001,4625.46,2549.3299999999999,868.68700000000001,5025.3299999999999,-927.89599999999996
167891.0,9967.0799999999999,446.03500000000003,4731.1099999999997,1630.77,927.73800000000006,5164.8199999999997,-825.76300000000003
167892.0,10239.9,590.04300000000001,4842.5900000000001,661.02700000000004,1007.34,5244.5200000000004,-709.11599999999999
167893.0,10548.700000000001,712.81600000000003,4946.3599999999997,-359.92899999999997,1105.6400000000001,5259.3699999999999,-580.08699999999999
167894.0,10890.0,822.05799999999999,5049.8299999999999,-1407.75,1222.05,5204.3100000000004,-441.36200000000002
167895.0,11265.299999999999,908.71100000000001,5149.0,-2475.6300000000001,1354.95,5077.9499999999998,-293.66300000000001
167896.0,11658.700000000001,974.12099999999998,5235.8900000000003,-3541.2600000000002,1499.54,4875.9499999999998,-142.28299999999999
167897.0,12060.0,1045.6500000000001,5327.3100000000004,-4564.6199999999999,1646.8699999999999,4599.9399999999996,8.9953599999999998
167898.0,12418.200000000001,1114.7,5377.75,-5522.7200000000003,1775.95,4248.6499999999996,156.154
167899.0,9603.8199999999997,-1397.8900000000001,4360.2600000000002,4619.9200000000001,1228.8399999999999,4104.7700000000004,-901.26800000000003
167900.0,9669.1399999999994,-1086.51,4419.3900000000003,4086.4099999999999,1165.02,4409.5500000000002,-912.09100000000001
167901.0,9816.8500000000004,-857.17499999999995,4519.8000000000002,3417.02,1154.24,4685.1099999999997,-880.226
167902.0,10023.1,-700.20100000000002,4613.7399999999998,2612.6999999999998,1183.7,4920.9899999999998,-816.85000000000002
167903.0,10283.4,-567.24300000000005,4726.29,1722.6099999999999,1243.6900000000001,5111.1000000000004,-728.98900000000003
167904.0,10592.5,-470.10300000000001,4829.3000000000002,741.89300000000003,1328.8,5247.5500000000002,-622.96000000000004
167905.0,10945.799999999999,-380.654,4941.4300000000003,-290.20299999999997,1436.03,5323.3400000000001,-502.89600000000002
167906.0,11341.6,-316.25900000000001,5045.3999999999996,-1375.9400000000001,1563.01,5333.5,-371.10199999999998
167907.0,11774.5,-267.03300000000002,5149.5699999999997,-2489.0999999999999,1708.6400000000001,5272.8400000000001,-230.70500000000001
167908.0,12245.5,-244.18799999999999,5248.3599999999997,-3624.1199999999999,1871.2,5140.4399999999996,-82.368600000000001
167909.0,12734.299999999999,-241.483,5335.6499999999996,-4754.5200000000004,2044.98,4931.5299999999997,68.253299999999996
167910.0,13230.700000000001,-232.97499999999999,5427.96,-5842.3000000000002,2221.4200000000001,4649.0500000000002,217.24299999999999
167911.0,13674.0,-219.08600000000001,5482.4499999999998,-6855.7399999999998,2377.3299999999999,4290.9799999999996,362.142
167912.0,10096.9,-2202.0599999999999,4461.6099999999997,3871.9699999999998,1548.8499999999999,4182.1999999999998,-696.30100000000004
167913.0,10181.299999999999,-1902.73,4523.1199999999999,3322.2199999999998,1498.4300000000001,4487.1199999999999,-707.65300000000002
167914.0,10371.6,-1710.22,4618.1599999999999,2610.3099999999999,1506.4300000000001,4761.8900000000003,-673.68899999999996
167915.0,10636.799999999999,-1593.48,4714.5900000000001,1759.78,1558.6099999999999,4995.5299999999997,-606.72299999999996
167916.0,10969.4,-1515.4200000000001,4823.0799999999999,809.04899999999998,1644.6099999999999,5182.4499999999998,-514.56399999999996
167917.0,11360.9,-1470.3699999999999,4930.8299999999999,-228.69,1757.78,5314.8100000000004,-404.18700000000001
167918.0,11804.299999999999,-1445.9200000000001,5039.7299999999996,-1329.46,1894.54,5385.6499999999996,-280.46300000000002
167919.0,12296.299999999999,-1444.99,5145.8999999999996,-2480.6900000000001,2052.0599999999999,5390.1899999999996,-145.767
167920.0,12829.299999999999,-1466.97,5247.3800000000001,-3665.1599999999999,2228.8600000000001,5323.3299999999999,-3.6110699999999998
167921.0,13403.200000000001,-1511.51,5349.1199999999999,-4866.2399999999998,2422.75,5184.4200000000001,145.12799999999999
167922.0,13994.200000000001,-1582.95,5433.3999999999996,-6067.2799999999997,2627.5300000000002,4968.6800000000003,294.90499999999997
167923.0,14591.5,-1640.8299999999999,5530.3800000000001,-7217.7600000000002,2834.54,4679.8400000000001,441.09500000000003
167924.0,15126.5,-1705.9200000000001,5573.4099999999999,-8305.0499999999993,3018.8000000000002,4315.71,583.74000000000001
167925.0,10703.6,-3066.0999999999999,4569.3800000000001,3050.6300000000001,1890.1700000000001,4248.75,-476.68200000000002
167926.0,10810.799999999999,-2790.5799999999999,4624.3500000000004,2475.3699999999999,1854.0899999999999,4552.6800000000003,-488.19799999999998
167927.0,11050.6,-2630.98,4722.0900000000001,1727.9000000000001,1882.3699999999999,4825.54,-451.762
167928.0,11383.0,-2564.02,4816.1800000000003,824.65599999999995,1959.0899999999999,5055.7299999999996,-380.71199999999999
167929.0,11796.6,-2541.8200000000002,4926.0600000000004,-184.06200000000001,2072.5100000000002,5238.04,-284.07400000000001
167930.0,12279.1,-2564.29,5030.4799999999996,-1290.0599999999999,2215.2600000000002,5364.7700000000004,-169.166
167931.0,12821.200000000001,-2608.0500000000002,5140.5100000000002,-2458.02,2383.4499999999998,5429.4099999999999,-41.5047
167932.0,13417.0,-2680.52,5246.3000000000002,-3679.6500000000001,2573.25,5427.3999999999996,96.058999999999997
167933.0,14057.200000000001,-2778.5,5347.7700000000004,-4935.1700000000001,2782.73,5353.7399999999998,239.922
167934.0,14740.1,-2900.9200000000001,5449.9799999999996,-6207.04,3009.71,5207.8699999999999,388.96199999999999
167935.0,15439.0,-3051.21,5534.0299999999997,-7477.9300000000003,3246.8200000000002,4985.3800000000001,537.62699999999995
167936.0,16142.200000000001,-3186.3499999999999,5632.3400000000001,-8696.5499999999993,3486.1300000000001,4690.3400000000001,680.654
167937.0,16774.599999999999,-3322.1999999999998,5679.75,-9843.9699999999993,3700.29,4321.04,820.80799999999999
167938.0,11431.4,-4001.9200000000001,4674.5,2142.54,2253.3000000000002,4302.9399999999996,-242.03999999999999
167939.0,11565.6,-3745.8000000000002,4730.7799999999997,1549.74,2232.5300000000002,4604.7399999999998,-253.72200000000001
167940.0,11860.700000000001,-3631.2199999999998,4823.7799999999997,757.60199999999998,2282.0900000000001,4874.1999999999998,-214.547
167941.0,12267.6,-3617.0100000000002,4918.79,-197.72900000000001,2384.5500000000002,5099.4200000000001,-139.30000000000001
167942.0,12770.0,-3660.7399999999998,5026.0699999999997,-1270.6199999999999,2527.3200000000002,5275.6300000000001,-37.6173
167943.0,13351.4,-3750.46,5133.7399999999998,-2440.3499999999999,2701.5999999999999,5395.5600000000004,82.161500000000004
167944.0,13999.0,-3872.8899999999999,5241.3400000000001,-3681.1799999999998,2902.6300000000001,5452.8299999999999,213.797
167945.0,14705.4,-4025.4200000000001,5348.0699999999997,-4974.6199999999999,3126.5500000000002,5443.1700000000001,354.51400000000001
167946.0,15458.799999999999,-4207.2399999999998,5449.8500000000004,-6302.8599999999997,3370.6599999999999,5361.9499999999998,499.98500000000001
167947.0,16256.1,-4415.9499999999998,5551.5699999999997,-7648.5299999999997,3631.9299999999998,5209.0299999999997,649.10000000000002
167948.0,17067.099999999999,-4652.2700000000004,5636.1800000000003,-8990.0400000000009,3902.8899999999999,4979.5900000000001,796.38599999999997
167949.0,17881.299999999999,-4871.7299999999996,5736.79,-10278.200000000001,4175.6300000000001,4678.9799999999996,935.90999999999997
167950.0,18615.0,-5100.4700000000003,5774.0699999999997,-11501.700000000001,4420.5900000000001,4304.9499999999998,1073.0999999999999
167951.0,12286.200000000001,-5003.4300000000003,4786.1400000000003,1153.5,2638.6700000000001,4343.29,7.3838600000000003
167952.0,12450.799999999999,-4777.5200000000004,4835.9099999999999,535.19100000000003,2634.25,4641.6899999999996,-3.9271199999999999
167953.0,12807.1,-4706.0799999999999,4930.7799999999997,-296.10599999999999,2706.5700000000002,4906.5200000000004,38.385399999999997
167954.0,13294.799999999999,-4751.6800000000003,5024.7600000000002,-1307.0899999999999,2836.48,5125.2700000000004,118.342
167955.0,13892.6,-4866.0,5131.3999999999996,-2444.7600000000002,3009.73,5293.79,225.072
167956.0,14579.299999999999,-5035.96,5237.3299999999999,-3686.21,3216.9299999999998,5405.1300000000001,349.95699999999999
167957.0,15339.299999999999,-5242.6999999999998,5345.3400000000001,-4999.8699999999999,3452.9099999999999,5453.5100000000002,485.87200000000001
167958.0,16161.799999999999,-5482.3299999999999,5453.5699999999997,-6366.0799999999999,3712.1300000000001,5435.5299999999997,629.34199999999998
167959.0,17032.700000000001,-5760.0699999999997,5550.6700000000001,-7773.9099999999999,3991.5799999999999,5346.04,776.28599999999994
167960.0,17949.299999999999,-6056.6099999999997,5659.2299999999996,-9187.8500000000004,4288.9099999999999,5185.6099999999997,925.39599999999996
167961.0,18876.200000000001,-6393.0900000000001,5737.4899999999998,-10608.299999999999,4594.46,4949.54,1070.7
167962.0,19805.200000000001,-6698.8400000000001,5846.3100000000004,-11961.799999999999,4901.75,4643.79,1206.49
167963.0,20644.5,-7019.46,5882.0,-13254.0,5178.7700000000004,4265.9200000000001,1340.3800000000001
167964.0,13271.4,-6080.8199999999997,4896.5900000000001,71.834699999999998,3046.77,4368.1400000000003,272.09899999999999
167965.0,13470.1,-5882.9099999999999,4945.9700000000003,-565.61400000000003,3059.5300000000002,4661.8699999999999,260.85700000000003
167966.0,13892.0,-5865.0200000000004,5037.2200000000003,-1442.98,3155.3600000000001,4920.5299999999997,306.53100000000001
167967.0,14466.200000000001,-5977.3400000000001,5129.6199999999999,-2512.54,3313.6799999999998,5131.1199999999999,391.31599999999997
167968.0,15165.5,-6167.6400000000003,5237.0600000000004,-3715.7199999999998,3519.4099999999999,5290.0900000000001,503.80799999999999
167969.0,15963.200000000001,-6422.1800000000003,5343.5600000000004,-5028.0799999999999,3761.1700000000001,5391.5200000000004,633.77700000000004
167970.0,16839.599999999999,-6721.1300000000001,5450.3599999999997,-6417.2299999999996,4032.4400000000001,5430.0299999999997,773.64999999999998
167971.0,17783.599999999999,-7059.1999999999998,5557.4099999999999,-7861.6700000000001,4328.8199999999997,5402.1999999999998,920.45699999999999
167972.0,18777.900000000001,-7429.9499999999998,5662.2200000000003,-9338.3600000000006,4645.9399999999996,5303.9499999999998,1068.6800000000001
167973.0,19816.200000000001,-7835.5699999999997,5762.6599999999999,-10836.4,4979.1800000000003,5136.1400000000003,1217.1400000000001
167974.0,20862.799999999999,-8265.3799999999992,5849.5699999999997,-12322.0,5320.6400000000003,4893.1499999999996,1360.3900000000001
167975.0,21910.0,-8676.3999999999996,5955.3199999999997,-13753.1,5663.0200000000004,4583.3999999999996,1491.5999999999999
167976.0,22858.0,-9100.5599999999995,5984.79,-15120.4,5972.1199999999999,4202.2799999999997,1621.98
167977.0,14389.200000000001,-7229.1599999999999,5013.3999999999996,-1097.3,3477.6100000000001,4375.9799999999996,551.12300000000005
167978.0,14624.799999999999,-7069.04,5055.7700000000004,-1760.79,3508.6199999999999,4663.6999999999998,540.85900000000004
167979.0,15117.4,-7103.9099999999999,5149.4499999999998,-2679.48,3629.54,4914.6700000000001,590.49599999999998
167980.0,15783.0,-7286.9899999999998,5241.8599999999997,-3807.52,3818.0300000000002,5115.2200000000003,680.50300000000004
167981.0,16588.0,-7563.2299999999996,5346.5900000000001,-5081.3100000000004,4056.5500000000002,5263.1199999999999,798.322
167982.0,17501.599999999999,-7911.4200000000001,5452.5799999999999,-6468.2200000000003,4333.9799999999996,5352.5100000000002,933.72400000000005
167983.0,18501.700000000001,-8308.6599999999999,5562.6800000000003,-7931.3800000000001,4643.6400000000003,5379.3299999999999,1078.24
167984.0,19570.200000000001,-8748.5799999999999,5671.79,-9450.6000000000004,4977.0799999999999,5341.6800000000003,1226.97
167985.0,20688.700000000001,-9236.7199999999993,5764.8999999999996,-11016.299999999999,5330.4700000000003,5234.1000000000004,1376.1300000000001
167986.0,21853.700000000001,-9736.8600000000006,5881.6999999999998,-12575.200000000001,5701.9399999999996,5058.1400000000003,1524.01
167987.0,23022.200000000001,-10287.299999999999,5956.4799999999996,-14147.299999999999,6078.9300000000003,4809.5100000000002,1664.1600000000001
167988.0,24189.5,-10795.1,6074.4200000000001,-15641.200000000001,6456.6000000000004,4495.5100000000002,1790.76
167989.0,25250.5,-11324.299999999999,6104.2299999999996,-17077.700000000001,6799.0200000000004,4113.3100000000004,1916.8499999999999
167990.0,15640.9,-8456.1399999999994,5131.2700000000004,-2363.6399999999999,3932.1100000000001,4364.7299999999996,845.78099999999995
167991.0,15916.6,-8333.9400000000005,5171.0200000000004,-3048.0300000000002,3981.8800000000001,4645.3500000000004,835.69100000000003
167992.0,16481.900000000001,-8431.0400000000009,5261.71,-4013.8899999999999,4127.79,4886.8999999999996,889.04499999999996
167993.0,17242.900000000001,-8695.5900000000001,5349.6199999999999,-5206.8299999999999,4346.8400000000001,5075.6499999999996,984.27999999999997
167994.0,18159.5,-9057.0300000000007,5460.5299999999997,-6544.79,4620.7399999999998,5209.8000000000002,1108.5999999999999
167995.0,19193.599999999999,-9506.7800000000007,5565.4899999999998,-8006.9899999999998,4935.1099999999997,5286.21,1248.76
167996.0,20316.400000000001,-10013.1,5670.9300000000003,-9550.7900000000009,5280.3599999999997,5301.1700000000001,1396.4300000000001
167997.0,21515.0,-10567.700000000001,5778.8299999999999,-11151.4,5653.25,5251.2600000000002,1548.76
167998.0,22765.799999999999,-11151.200000000001,5894.8999999999996,-12772.799999999999,6047.1899999999996,5134.1199999999999,1698.5799999999999
167999.0,24056.400000000001,-11788.6,5988.4399999999996,-14431.799999999999,6454.1899999999996,4951.1099999999997,1844.3800000000001
168000.0,25348.900000000001,-12433.700000000001,6084.8000000000002,-16056.200000000001,6867.5799999999999,4695.8599999999997,1981.79
168001.0,26639.099999999999,-13065.5,6194.5,-17633.599999999999,7280.5299999999997,4380.4200000000001,2102.3499999999999
168002.0,27812.099999999999,-13709.4,6218.8400000000001,-19144.5,7654.1599999999999,3996.96,2223.9099999999999
168003.0,17025.400000000001,-9762.8400000000001,5251.1899999999996,-3726.0300000000002,4408.8599999999997,4333.3400000000001,1153.1400000000001
168004.0,17343.599999999999,-9681.25,5288.4200000000001,-4432.3999999999996,4478.7200000000003,4605.1000000000004,1145.27
168005.0,17987.599999999999,-9843.3999999999996,5380.3800000000001,-5443.54,4652.4399999999996,4835.0,1203.6800000000001
168006.0,18848.299999999999,-10185.299999999999,5474.3999999999996,-6691.5200000000004,4904.0600000000004,5009.4099999999999,1304.52
168007.0,19877.200000000001,-10653.5,5574.4300000000003,-8109.3800000000001,5211.6599999999999,5129.1400000000003,1433.45
168008.0,21035.099999999999,-11208.299999999999,5682.1300000000001,-9645.3799999999992,5563.1800000000003,5190.1700000000001,1579.1900000000001
168009.0,22293.599999999999,-11822.299999999999,5800.8599999999997,-11256.799999999999,5951.1400000000003,5190.6400000000003,1732.0
168010.0,23621.099999999999,-12490.9,5911.8400000000001,-12930.799999999999,6360.7700000000004,5130.9700000000003,1884.05
168011.0,24995.5,-13223.1,5993.9399999999996,-14662.700000000001,6787.9899999999998,5003.5200000000004,2033.6800000000001
168012.0,26418.900000000001,-13944.700000000001,6130.4300000000003,-16355.9,7234.8699999999999,4811.8500000000004,2178.3600000000001
168013.0,27836.400000000001,-14739.200000000001,6198.4099999999999,-18082.700000000001,7682.9499999999998,4553.1800000000003,2310.8000000000002
168014.0,29247.599999999999,-15469.299999999999,6330.1899999999996,-19711.200000000001,8129.7399999999998,4234.9799999999996,2425.79
168015.0,30539.099999999999,-16229.0,6357.5799999999999,-21289.700000000001,8536.6800000000003,3854.3400000000001,2541.5900000000001
168016.0,18544.900000000001,-11141.4,5382.5299999999997,-5180.4799999999996,4911.1499999999996,4278.8699999999999,1478.0799999999999
168017.0,18907.599999999999,-11114.5,5408.6899999999996,-5914.8999999999996,5001.0200000000004,4540.5600000000004,1469.6900000000001
168018.0,19627.900000000001,-11346.6,5499.0100000000002,-6972.3699999999999,5199.5299999999997,4757.1499999999996,1531.1900000000001
168019.0,20590.0,-11789.1,5582.1999999999998,-8293.7000000000007,5482.4399999999996,4914.8999999999996,1637.9000000000001
168020.0,21742.099999999999,-12347.0,5701.9200000000001,-9765.7700000000004,5829.6300000000001,5016.0299999999997,1774.47
168021.0,23028.799999999999,-13018.5,5809.6700000000001,-11376.0,6219.9200000000001,5062.6300000000001,1923.53
168022.0,24407.400000000001,-13767.200000000001,5904.5299999999997,-13085.1,6638.5799999999999,5051.3100000000004,2076.75
168023.0,25872.0,-14562.0,6018.5100000000002,-14839.1,7089.4099999999999,4975.6700000000001,2233.8600000000001
168024.0,27391.700000000001,-15371.4,6163.7399999999998,-16588.0,7562.5900000000001,4838.9300000000003,2383.1500000000001
168025.0,28937.700000000001,-16275.5,6238.2799999999997,-18417.099999999999,8040.9700000000003,4642.1000000000004,2522.9699999999998
168026.0,30478.900000000001,-17148.200000000001,6355.0699999999997,-20165.599999999999,8523.5599999999995,4377.2600000000002,2652.0500000000002
168027.0,32014.200000000001,-18023.299999999999,6468.6599999999999,-21885.5,9004.2199999999993,4061.7600000000002,2758.4499999999998
168028.0,33414.099999999999,-18905.700000000001,6488.4200000000001,-23536.5,9437.7299999999996,3683.8400000000001,2867.9000000000001
168029.0,20184.900000000001,-12615.9,5492.8100000000004,-6741.4300000000003,5431.6499999999996,4203.96,1811.5699999999999
168030.0,20593.5,-12624.6,5529.8900000000003,-7487.1300000000001,5543.3199999999997,4449.3999999999996,1807.6400000000001
168031.0,21409.700000000001,-12939.4,5628.8900000000003,-8592.1100000000006,5775.4200000000001,4646.5900000000001,1877.8199999999999
168032.0,22482.900000000001,-13464.5,5733.1199999999999,-9955.9200000000001,6094.5799999999999,4784.0600000000004,1990.46
168033.0,23751.900000000001,-14163.0,5822.6000000000004,-11525.799999999999,6473.6599999999999,4870.5900000000001,2128.3800000000001
168034.0,25168.400000000001,-14953.5,5932.3500000000004,-13214.4,6900.5299999999997,4899.8100000000004,2283.98
168035.0,26704.299999999999,-15797.799999999999,6079.8500000000004,-14959.200000000001,7372.1599999999999,4870.3500000000004,2444.29
168036.0,28296.799999999999,-16718.099999999999,6194.6899999999996,-16784.299999999999,7856.5100000000002,4789.3500000000004,2595.1900000000001
168037.0,29923.200000000001,-17738.900000000001,6238.0200000000004,-18705.799999999999,8350.6100000000006,4641.6499999999996,2741.9699999999998
168038.0,31607.599999999999,-18675.299999999999,6424.0699999999997,-20497.299999999999,8871.0799999999999,4435.5200000000004,2881.1100000000001
168039.0,33274.0,-19744.5,6473.71,-22384.400000000001,9386.5699999999997,4172.8400000000001,3001.0799999999999
168040.0,34922.199999999997,-20702.099999999999,6627.2200000000003,-24130.599999999999,9895.1499999999996,3856.9699999999998,3100.6500000000001
168041.0,36443.300000000003,-21701.700000000001,6658.6199999999999,-25839.900000000001,10361.700000000001,3486.2199999999998,3202.5799999999999
168042.0,21928.5,-14093.0,5649.5500000000002,-8329.2099999999991,5976.2399999999998,4100.79,2165.4000000000001
168043.0,22403.200000000001,-14222.700000000001,5655.0,-9133.7900000000009,6110.3400000000001,4322.0100000000002,2159.5300000000002
168044.0,23301.0,-14628.6,5756.2799999999997,-10288.4,6360.7299999999996,4498.1700000000001,2232.5
168045.0,24496.200000000001,-15306.299999999999,5828.8199999999997,-11755.1,6715.8400000000001,4614.7200000000003,2353.6500000000001
168046.0,25918.400000000001,-16089.799999999999,5974.75,-13358.4,7145.7600000000002,4680.29,2504.8200000000002
168047.0,27478.700000000001,-17007.299999999999,6095.3100000000004,-15114.799999999999,7617.3000000000002,4697.0600000000004,2660.25
168048.0,29113.200000000001,-18046.599999999999,6149.25,-17021.299999999999,8102.8699999999999,4660.79,2814.04
168049.0,30851.200000000001,-19099.200000000001,6275.2399999999998,-18923.900000000001,8631.2600000000002,4556.3500000000004,2976.1700000000001
168050.0,32655.299999999999,-20114.599999999999,6500.5100000000002,-20748.200000000001,9189.3099999999995,4403.9700000000003,3121.02
168051.0,34446.699999999997,-21330.099999999999,6520.1300000000001,-22773.900000000001,9731.2299999999996,4199.7700000000004,3247.77
168052.0,36224.599999999999,-22417.400000000001,6677.4499999999998,-24614.299999999999,10273.9,3931.1199999999999,3363.7600000000002
168053.0,37990.699999999997,-23542.799999999999,6791.9899999999998,-26463.5,10813.700000000001,3626.4400000000001,3449.75
168054.0,39599.0,-24656.900000000001,6807.3699999999999,-28247.0,11293.799999999999,3265.6999999999998,3539.71
168055.0,23658.200000000001,-15700.0,5651.6099999999997,-10027.4,6495.9399999999996,3978.6399999999999,2495.1799999999998
168056.0,24243.099999999999,-15840.299999999999,5790.0,-10781.299999999999,6655.1099999999997,4157.6700000000001,2514.0100000000002
168057.0,25320.599999999999,-16414.099999999999,5900.4300000000003,-12025.700000000001,6976.3199999999997,4292.71,2618.6500000000001
168058.0,26688.0,-17197.0,6035.3199999999997,-13529.9,7387.5600000000004,4391.4399999999996,2749.1500000000001
168059.0,28235.200000000001,-18192.200000000001,6099.2600000000002,-15297.5,7844.0200000000004,4446.7200000000003,2897.1700000000001
168060.0,29942.0,-19274.599999999999,6196.4700000000003,-17180.5,8353.0599999999995,4442.5600000000004,3064.5300000000002
168061.0,31793.5,-20332.799999999999,6437.1599999999999,-19009.299999999999,8923.4500000000007,4382.8299999999999,3233.29
168062.0,33657.199999999997,-21532.700000000001,6549.6499999999996,-20994.700000000001,9480.6200000000008,4291.4799999999996,3371.9299999999998
168063.0,35508.599999999999,-22900.5,6489.8699999999999,-23159.599999999999,10022.1,4128.4899999999998,3508.3499999999999
168064.0,37446.800000000003,-24009.599999999999,6776.4799999999996,-24986.700000000001,10611.1,3914.4099999999999,3637.29
168065.0,39343.900000000001,-25354.700000000001,6801.0799999999999,-27023.5,11186.700000000001,3663.5999999999999,3733.02
168066.0,41194.599999999999,-26529.0,6966.1099999999997,-28876.799999999999,11740.6,3360.6399999999999,3808.73
168067.0,42913.099999999999,-27711.400000000001,7036.7799999999997,-30653.900000000001,12255.200000000001,3018.8400000000001,3884.9400000000001
168068.0,25392.799999999999,-16932.200000000001,6011.3900000000003,-11291.4,7026.6499999999996,3812.5599999999999,2843.7600000000002
168069.0,26163.5,-17516.900000000001,5942.6499999999996,-12395.5,7226.8100000000004,3929.1700000000001,2892.52
168070.0,27410.5,-18330.599999999999,6000.8699999999999,-13813.9,7586.4899999999998,4039.4499999999998,3010.8299999999999
168071.0,28956.700000000001,-19358.900000000001,6065.6400000000003,-15527.1,8043.6599999999999,4110.5100000000002,3163.8400000000001
168072.0,30741.299999999999,-20438.900000000001,6261.4099999999999,-17309.900000000001,8587.25,4131.1800000000003,3339.3499999999999
168073.0,32628.700000000001,-21631.700000000001,6434.9700000000003,-19209.5,9152.8999999999996,4124.1099999999997,3495.79
168074.0,34515.5,-23065.400000000001,6360.1499999999996,-21413.900000000001,9691.2900000000009,4074.3499999999999,3640.4099999999999
168075.0,36539.199999999997,-24380.200000000001,6516.3500000000004,-23454.200000000001,10298.0,3943.7800000000002,3806.4200000000001
168076.0,38654.199999999997,-25518.099999999999,6936.0699999999997,-25239.799999999999,10956.700000000001,3792.96,3937.8699999999999
168077.0,40659.699999999997,-27092.299999999999,6833.4899999999998,-27512.099999999999,11548.4,3602.9299999999998,4033.1500000000001
168078.0,42630.800000000003,-28351.099999999999,7046.3199999999997,-29402.5,12131.799999999999,3343.25,4123.5299999999997
168079.0,44578.199999999997,-29657.700000000001,7192.5,-31313.799999999999,12713.5,3077.1199999999999,4171.3500000000004
168080.0,46333.400000000001,-30997.5,7149.8299999999999,-33257.400000000001,13215.5,2748.29,4228.3500000000004
168081.0,5102.0500000000002,4755.3599999999997,1016.46,5655.3400000000001,-543.84699999999998,-665.05200000000002,-1373.8599999999999
168082.0,5114.8100000000004,4606.1300000000001,983.51499999999999,5617.9099999999999,-590.63199999999995,-612.72199999999998,-1434.8199999999999
168083.0,5124.8299999999999,4550.3500000000004,1037.9000000000001,5668.4399999999996,-649.327,-549.45299999999997,-1480.8399999999999
168084.0,5134.5100000000002,4461.9300000000003,1043.4300000000001,5661.7799999999997,-714.31799999999998,-479.08699999999999,-1518.3800000000001
168085.0,5144.2299999999996,4432.9200000000001,1098.9100000000001,5695.4099999999999,-783.98400000000004,-404.709,-1550.1800000000001
168086.0,5155.75,4377.2700000000004,1113.0999999999999,5678.3100000000004,-858.36699999999996,-327.755,-1576.3599999999999
168087.0,5168.5299999999997,4372.9499999999998,1166.77,5691.9499999999998,-936.26499999999999,-250.197,-1596.6500000000001
168088.0,5183.6899999999996,4349.1400000000003,1186.76,5663.9899999999998,-1017.74,-173.886,-1610.9000000000001
168089.0,5200.7600000000002,4368.9200000000001,1238.04,5660.1700000000001,-1101.6700000000001,-100.19,-1619.0799999999999
168090.0,5220.2399999999998,4372.7799999999997,1260.53,5621.4499999999998,-1187.9100000000001,-30.759799999999998,-1621.03
168091.0,5241.5699999999997,4414.1899999999996,1309.5599999999999,5603.9799999999996,-1275.4200000000001,33.270200000000003,-1616.8299999999999
168092.0,5263.4499999999998,4440.71,1334.49,5555.8400000000001,-1363.97,90.741799999999998,-1606.45
168093.0,5286.5500000000002,4498.1099999999997,1379.03,5527.3100000000004,-1452.05,140.791,-1587.9400000000001
168094.0,5502.46,4280.2200000000003,497.22500000000002,5171.54,-420.89400000000001,-782.70600000000002,-1772.98
168095.0,5510.1700000000001,4222.6400000000003,585.05799999999999,5253.2799999999997,-492.29399999999998,-725.81200000000001,-1826.77
168096.0,5515.1599999999999,4124.0100000000002,621.12,5277.8999999999996,-571.90700000000004,-657.71500000000003,-1870.3299999999999
168097.0,5519.5299999999997,4077.6900000000001,694.41899999999998,5329.4200000000001,-658.20399999999995,-582.58399999999995,-1906.04
168098.0,5525.7799999999997,4005.5100000000002,729.16300000000001,5333.2600000000002,-749.95500000000004,-500.59800000000001,-1936.28
168099.0,5534.0699999999997,3984.9099999999999,799.84199999999998,5363.3900000000003,-846.09900000000005,-416.84100000000001,-1959.73
168100.0,5544.7600000000002,3941.5599999999999,833.40300000000002,5346.5699999999997,-946.06399999999996,-331.52199999999999,-1977.1900000000001
168101.0,5557.7200000000003,3945.6799999999998,899.73599999999999,5353.7200000000003,-1049.1600000000001,-248.07400000000001,-1987.6600000000001
168102.0,5573.3400000000001,3930.52,932.55600000000004,5319.0299999999997,-1154.8699999999999,-167.274,-1991.53
168103.0,5591.46,3959.0599999999999,995.76400000000001,5308.2600000000002,-1262.53,-91.188500000000005,-1988.1300000000001
168104.0,5613.5699999999997,3969.1599999999999,1027.03,5261.3500000000004,-1371.8599999999999,-20.7606,-1977.97
168105.0,5639.46,4019.1199999999999,1085.74,5240.9700000000003,-1481.97,43.767200000000003,-1960.21
168106.0,5666.21,4052.9499999999998,1116.28,5188.5200000000004,-1590.98,98.8249,-1935.1700000000001
168107.0,5450.1800000000003,4516.8999999999996,781.024,5492.8699999999999,-421.37599999999998,-798.03200000000004,-1703.51
168108.0,5475.5799999999999,4447.5900000000001,846.22500000000002,5593.2200000000003,-497.62700000000001,-739.96900000000005,-1750.0699999999999
168109.0,5493.3699999999999,4356.3800000000001,879.93100000000004,5642.1700000000001,-576.42700000000002,-663.63,-1793.52
168110.0,5505.1599999999999,4298.6999999999998,939.15499999999997,5695.2399999999998,-660.10900000000004,-580.78099999999995,-1831.1199999999999
168111.0,5516.8299999999999,4233.79,974.404,5708.4899999999998,-748.82799999999997,-490.42599999999999,-1864.29
168112.0,5527.75,4200.8400000000001,1029.1800000000001,5726.6000000000004,-841.65899999999999,-397.80399999999997,-1891.1700000000001
168113.0,5540.6599999999999,4166.75,1065.72,5714.0699999999997,-938.58699999999999,-304.52199999999999,-1912.1600000000001
168114.0,5554.6899999999996,4164.5500000000002,1120.2,5708.6599999999999,-1038.77,-212.93600000000001,-1925.99
168115.0,5571.5500000000002,4159.71,1155.9100000000001,5675.2700000000004,-1141.8900000000001,-125.17400000000001,-1933.1500000000001
168116.0,5590.4099999999999,4186.0,1209.46,5652.4399999999996,-1246.99,-42.197299999999998,-1932.8099999999999
168117.0,5613.0299999999997,4207.0799999999999,1243.6199999999999,5604.75,-1353.8900000000001,33.703099999999999,-1925.8099999999999
168118.0,5636.46,4258.1300000000001,1298.3599999999999,5571.1300000000001,-1461.3699999999999,102.992,-1911.4300000000001
168119.0,5661.5500000000002,4296.0500000000002,1326.95,5506.9200000000001,-1568.9300000000001,161.37,-1889.74
168120.0,5673.5900000000001,4505.3800000000001,703.654,5641.1300000000001,-414.15199999999999,-870.00800000000004,-1764.79
168121.0,5702.7799999999997,4436.29,783.78800000000001,5754.96,-490.13099999999997,-803.30499999999995,-1822.9100000000001
168122.0,5721.2399999999998,4343.6400000000003,825.92499999999995,5809.9499999999998,-570.452,-717.48400000000004,-1873.46
168123.0,5730.96,4277.1099999999997,887.36800000000005,5861.1999999999998,-657.32600000000002,-622.71000000000004,-1916.1600000000001
168124.0,5740.1800000000003,4212.7600000000002,931.202,5878.5600000000004,-750.00300000000004,-520.83299999999997,-1952.6400000000001
168125.0,5748.3100000000004,4176.9799999999996,988.96100000000001,5894.1700000000001,-847.529,-415.94600000000003,-1981.79
168126.0,5758.3900000000003,4145.3999999999996,1032.1900000000001,5881.9399999999996,-949.51900000000001,-310.97699999999998,-2004.1900000000001
168127.0,5769.5699999999997,4140.3599999999997,1085.96,5867.8599999999997,-1054.9400000000001,-208.07300000000001,-2019.01
168128.0,5783.6899999999996,4141.1499999999996,1128.26,5832.1999999999998,-1163.54,-109.795,-2026.5999999999999
168129.0,5800.1800000000003,4166.3299999999999,1180.21,5797.7399999999998,-1274.1400000000001,-17.206900000000001,-2026.5599999999999
168130.0,5821.6400000000003,4196.1899999999996,1221.0999999999999,5747.4399999999996,-1386.96,67.646299999999997,-2019.4100000000001
168131.0,5846.2299999999996,4248.8400000000001,1272.6800000000001,5704.3199999999997,-1500.3399999999999,145.631,-2004.5
168132.0,5870.3500000000004,4302.8599999999997,1311.5699999999999,5642.5299999999997,-1613.03,211.17400000000001,-1980.8900000000001
168133.0,5805.1199999999999,4643.2200000000003,824.65499999999997,5915.5600000000004,-405.42599999999999,-926.70699999999999,-1786.1600000000001
168134.0,5837.5900000000001,4556.6499999999996,892.79200000000003,6030.6800000000003,-483.86200000000002,-850.91499999999996,-1844.4200000000001
168135.0,5857.9899999999998,4461.1199999999999,936.43899999999996,6096.0900000000001,-565.93100000000004,-755.072,-1896.0999999999999
168136.0,5868.5100000000002,4386.6400000000003,993.40300000000002,6148.0299999999997,-654.43799999999999,-648.89999999999998,-1940.6199999999999
168137.0,5877.8100000000004,4321.1000000000004,1038.72,6168.6300000000001,-748.91600000000005,-535.75099999999998,-1979.3299999999999
168138.0,5885.4300000000003,4277.1899999999996,1089.4400000000001,6175.8400000000001,-848.16600000000005,-419.51400000000001,-2011.0599999999999
168139.0,5894.7399999999998,4249.2700000000004,1136.3499999999999,6164.0200000000004,-952.35299999999995,-303.71600000000001,-2035.79
168140.0,5905.0500000000002,4241.3299999999999,1185.6300000000001,6140.5699999999997,-1059.99,-190.47800000000001,-2052.8099999999999
168141.0,5918.2399999999998,4248.71,1231.8499999999999,6102.8699999999999,-1171.2,-82.678399999999996,-2062.1100000000001
168142.0,5934.0699999999997,4273.7600000000002,1279.6300000000001,6057.6400000000003,-1284.3399999999999,18.700199999999999,-2063.5999999999999
168143.0,5955.1499999999996,4312.3000000000002,1324.3299999999999,6004.1400000000003,-1400.03,111.42700000000001,-2057.5799999999999
168144.0,5979.1800000000003,4366.7799999999997,1373.1199999999999,5949.2700000000004,-1516.0799999999999,196.37200000000001,-2044.1600000000001
168145.0,6004.0,4428.0900000000001,1413.6099999999999,5880.0799999999999,-1632.47,267.923,-2022.0
168146.0,5995.1899999999996,4692.4799999999996,830.90800000000002,6137.9099999999999,-400.91000000000003,-996.28899999999999,-1816.5599999999999
168147.0,6024.4200000000001,4599.6000000000004,904.97699999999998,6259.8900000000003,-479.346,-908.49699999999996,-1878.5899999999999
168148.0,6042.7299999999996,4500.1099999999997,954.19200000000001,6330.9399999999996,-562.31600000000003,-800.87,-1934.29
168149.0,6051.1199999999999,4417.71,1010.41,6380.6199999999999,-652.22000000000003,-682.02800000000002,-1982.71
168150.0,6058.3699999999999,4352.46,1061.22,6404.2600000000002,-748.83799999999997,-556.14800000000002,-2024.72
168151.0,6064.1400000000003,4307.2200000000003,1113.3299999999999,6409.3199999999997,-850.66099999999994,-427.33999999999997,-2059.2399999999998
168152.0,6071.5500000000002,4281.2200000000003,1163.28,6395.46,-957.904,-299.31400000000002,-2086.3499999999999
168153.0,6080.04,4273.0299999999997,1211.6099999999999,6364.6000000000004,-1068.76,-174.59399999999999,-2105.4400000000001
168154.0,6091.4300000000003,4284.9399999999996,1260.3900000000001,6321.71,-1183.54,-56.067999999999998,-2116.3699999999999
168155.0,6105.5799999999999,4312.1400000000003,1307.0999999999999,6266.6599999999999,-1300.25,54.979999999999997,-2119.2199999999998
168156.0,6125.6199999999999,4357.9499999999998,1354.78,6207.0299999999997,-1419.8900000000001,156.55699999999999,-2114.2600000000002
168157.0,6149.8000000000002,4417.4200000000001,1402.77,6143.4300000000003,-1539.79,249.65100000000001,-2101.5599999999999
168158.0,6174.5500000000002,4490.4899999999998,1448.0699999999999,6070.5600000000004,-1660.0999999999999,328.28899999999999,-2079.5599999999999
168159.0,6154.5699999999997,4790.6099999999997,911.89400000000001,6401.25,-391.834,-1062.3,-1839.0899999999999
168160.0,6183.21,4685.1499999999996,982.59400000000005,6525.71,-471.0,-963.20500000000004,-1903.6700000000001
168161.0,6200.79,4576.3299999999999,1029.8,6598.8999999999996,-555.11699999999996,-843.60199999999998,-1962.02
168162.0,6208.46,4490.0900000000001,1087.1199999999999,6651.9899999999998,-646.60299999999995,-712.125,-2013.1600000000001
168163.0,6214.7299999999996,4419.0900000000001,1135.48,6673.1099999999997,-745.15200000000004,-573.47799999999995,-2058.0300000000002
168164.0,6219.3599999999997,4370.8299999999999,1186.0899999999999,6674.4099999999999,-849.21600000000001,-432.15100000000001,-2095.3400000000001
168165.0,6225.5,4344.8699999999999,1235.8800000000001,6656.3699999999999,-959.04200000000003,-292.04300000000001,-2124.96
168166.0,6232.71,4338.6099999999997,1284.3900000000001,6620.2399999999998,-1072.74,-155.941,-2146.2199999999998
168167.0,6242.8800000000001,4354.2299999999996,1333.6300000000001,6571.2200000000003,-1190.5899999999999,-26.854900000000001,-2158.9499999999998
168168.0,6255.9700000000003,4385.8699999999999,1380.3499999999999,6508.7700000000004,-1310.48,93.783900000000003,-2163.21
168169.0,6275.3199999999997,4437.5200000000004,1428.3399999999999,6441.6000000000004,-1433.4100000000001,204.047,-2159.3600000000001
168170.0,6298.8900000000003,4502.8199999999997,1476.4400000000001,6369.3500000000004,-1556.55,304.84800000000001,-2147.6199999999999
168171.0,6324.1199999999999,4582.2799999999997,1521.0699999999999,6287.0900000000001,-1680.5999999999999,390.37,-2126.6399999999999
168172.0,6332.3800000000001,4845.6899999999996,947.19399999999996,6639.9399999999996,-383.32299999999998,-1133.9100000000001,-1860.8699999999999
168173.0,6358.0299999999997,4734.1199999999999,1022.98,6772.54,-462.565,-1022.03,-1928.4100000000001
168174.0,6373.3999999999996,4617.6099999999997,1071.4000000000001,6848.5200000000004,-547.42600000000004,-889.35000000000002,-1990.3499999999999
168175.0,6379.0299999999997,4526.3800000000001,1129.96,6902.6899999999996,-640.16999999999996,-744.29700000000003,-2045.0899999999999
168176.0,6383.4799999999996,4452.46,1179.3499999999999,6923.3000000000002,-740.55100000000004,-591.99300000000005,-2093.3699999999999
168177.0,6386.4899999999998,4406.4300000000003,1233.9100000000001,6925.5799999999999,-846.99599999999998,-437.30700000000002,-2133.7199999999998
168178.0,6391.04,4379.1899999999996,1282.22,6901.3999999999996,-959.52800000000002,-284.32100000000003,-2166.1700000000001
168179.0,6396.6999999999998,4377.2799999999997,1333.27,6861.6400000000003,-1076.3,-136.17400000000001,-2189.8600000000001
168180.0,6405.3999999999996,4394.0200000000004,1380.3,6802.8999999999996,-1197.4300000000001,4.0639000000000003,-2204.75
168181.0,6417.0600000000004,4432.9499999999998,1429.9100000000001,6734.8100000000004,-1320.79,134.75299999999999,-2210.6900000000001
168182.0,6435.3699999999999,4488.0299999999997,1475.8800000000001,6656.4799999999996,-1447.3,254.07599999999999,-2208.27
168183.0,6458.6700000000001,4563.5900000000001,1527.9200000000001,6579.4099999999999,-1574.1099999999999,363.10700000000003,-2197.52
168184.0,6484.2600000000002,4650.1800000000003,1572.0,6487.7799999999997,-1701.9300000000001,455.89699999999999,-2177.46
168185.0,6496.1300000000001,4917.7399999999998,1016.75,6897.4300000000003,-371.82900000000001,-1205.1500000000001,-1876.8900000000001
168186.0,6519.6899999999996,4796.5,1093.21,7035.3500000000004,-451.12200000000001,-1080.46,-1947.28
168187.0,6533.4700000000003,4667.6700000000001,1137.1900000000001,7110.2200000000003,-536.74800000000005,-934.31299999999999,-2012.4100000000001
168188.0,6538.0299999999997,4575.5,1199.8900000000001,7170.4700000000003,-630.77999999999997,-775.34500000000003,-2070.46
168189.0,6541.3800000000001,4493.8999999999996,1244.48,7186.0299999999997,-732.92999999999995,-609.09900000000005,-2122.1799999999998
168190.0,6543.3100000000004,4448.4399999999996,1300.48,7187.54,-841.59500000000003,-440.74400000000003,-2165.8200000000002
168191.0,6546.7700000000004,4419.71,1346.1800000000001,7156.8100000000004,-956.71500000000003,-274.673,-2201.3000000000002
168192.0,6551.3000000000002,4423.21,1399.9100000000001,7114.2299999999996,-1076.45,-114.202,-2227.5900000000001
168193.0,6558.9499999999998,4442.25,1444.9300000000001,7046.6899999999996,-1200.73,37.362200000000001,-2244.77
168194.0,6569.71,4489.1099999999997,1497.01,6973.3699999999999,-1327.47,178.345,-2252.54
168195.0,6587.4499999999998,4548.75,1541.01,6884.8199999999997,-1457.4000000000001,306.89299999999997,-2251.6700000000001
168196.0,6610.3699999999999,4633.4300000000003,1595.4000000000001,6801.0900000000001,-1587.6500000000001,424.209,-2242.1300000000001
168197.0,6636.5200000000004,4725.3000000000002,1636.71,6697.7799999999997,-1719.1500000000001,524.33799999999997,-2223.3499999999999
168198.0,6662.6499999999996,4963.1599999999999,1067.6700000000001,7139.25,-359.00099999999998,-1279.29,-1889.22
168199.0,6683.4300000000003,4832.2600000000002,1145.3900000000001,7282.6099999999997,-437.97800000000001,-1140.8900000000001,-1962.7
168200.0,6695.0500000000002,4697.8999999999996,1192.26,7362.8599999999997,-524.08500000000004,-980.55999999999995,-2031.54
168201.0,6698.0200000000004,4598.5,1253.1099999999999,7422.25,-619.11400000000003,-806.99699999999996,-2093.4899999999998
168202.0,6699.9700000000003,4516.6599999999999,1300.3499999999999,7439.8400000000001,-722.95299999999997,-626.18499999999995,-2148.9299999999998
168203.0,6700.7200000000003,4471.5900000000001,1357.23,7439.9899999999998,-833.81500000000005,-443.57100000000003,-2196.0799999999999
168204.0,6703.0299999999997,4444.6999999999998,1403.3399999999999,7405.6099999999997,-951.57600000000002,-263.87099999999998,-2234.8099999999999
168205.0,6706.4700000000003,4451.2200000000003,1456.8399999999999,7357.1499999999996,-1074.29,-90.648200000000003,-2264.0300000000002
168206.0,6713.0500000000002,4474.7799999999997,1501.6600000000001,7282.3599999999997,-1201.8399999999999,72.621700000000004,-2283.7600000000002
168207.0,6722.8299999999999,4527.6700000000001,1553.9100000000001,7201.0500000000002,-1332.0,224.16999999999999,-2293.6700000000001
168208.0,6739.79,4594.0100000000002,1597.9400000000001,7103.5900000000001,-1465.47,362.14299999999997,-2294.5700000000002
168209.0,6762.5100000000002,4687.2799999999997,1653.51,7012.0699999999997,-1599.28,488.017,-2286.3899999999999
168210.0,6789.2799999999997,4789.4700000000003,1696.55,6901.7399999999998,-1734.48,595.77599999999995,-2268.8600000000001
168211.0,6820.0600000000004,5013.2299999999996,1139.2,7390.8599999999997,-343.375,-1354.1099999999999,-1896.1800000000001
168212.0,6838.3400000000001,4868.8599999999997,1214.0,7536.1700000000001,-421.86700000000002,-1201.6600000000001,-1972.8
168213.0,6848.1599999999999,4725.8299999999999,1260.03,7619.21,-508.37599999999998,-1026.6800000000001,-2045.2
168214.0,6850.1099999999997,4622.4200000000001,1321.3699999999999,7681.4200000000001,-604.38400000000001,-838.06700000000001,-2110.9899999999998
168215.0,6851.1099999999997,4537.2200000000003,1367.4100000000001,7698.0299999999997,-709.81899999999996,-642.23800000000006,-2170.3400000000001
168216.0,6851.0500000000002,4490.3299999999999,1422.24,7694.3400000000001,-822.77599999999995,-445.00200000000001,-2221.3200000000002
168217.0,6852.6099999999997,4466.5799999999999,1469.2,7657.3299999999999,-943.11099999999999,-251.316,-2263.5799999999999
168218.0,6855.3500000000004,4476.1999999999998,1521.6900000000001,7602.75,-1068.78,-65.025300000000001,-2295.9699999999998
168219.0,6861.21,4506.8000000000002,1567.9200000000001,7522.8599999999997,-1199.5699999999999,110.255,-2318.4299999999998
168220.0,6870.4700000000003,4565.3199999999997,1618.96,7432.7600000000002,-1333.1600000000001,272.61799999999999,-2330.71
168221.0,6887.04,4640.9799999999996,1664.6199999999999,7328.6599999999999,-1470.1300000000001,420.29500000000002,-2333.5100000000002
168222.0,6909.6300000000001,4740.8400000000001,1718.8399999999999,7226.7200000000003,-1607.3900000000001,554.85900000000004,-2326.9299999999998
168223.0,6937.0299999999997,4852.9399999999996,1762.8299999999999,7108.3699999999999,-1746.24,670.36300000000006,-2310.9099999999999
168224.0,6973.6400000000003,5038.6400000000003,1199.53,7626.0100000000002,-325.387,-1430.72,-1897.95
168225.0,6989.2299999999996,4883.5600000000004,1274.28,7776.3599999999997,-403.161,-1263.54,-1977.8699999999999
168226.0,6997.1400000000003,4735.7299999999996,1323.3699999999999,7865.9700000000003,-489.762,-1073.3,-2054.29
168227.0,6997.8599999999997,4624.6800000000003,1381.53,7927.0200000000004,-586.55600000000004,-869.09699999999998,-2124.3499999999999
168228.0,6997.9300000000003,4540.71,1430.49,7946.9499999999998,-693.43600000000004,-657.72400000000005,-2187.8800000000001
168229.0,6997.1800000000003,4493.9799999999996,1484.6700000000001,7941.21,-808.49900000000002,-445.37799999999999,-2242.8600000000001
168230.0,6998.0900000000001,4474.0900000000001,1532.55,7901.8199999999997,-931.35699999999997,-237.26300000000001,-2288.9000000000001
168231.0,7000.2700000000004,4487.0500000000002,1583.6199999999999,7840.8299999999999,-1060.03,-37.561700000000002,-2324.75
168232.0,7005.6000000000004,4524.4300000000003,1630.29,7754.9399999999996,-1194.05,150.01300000000001,-2350.3099999999999
168233.0,7014.3100000000004,4589.2700000000004,1680.29,7656.0900000000001,-1331.1199999999999,323.39600000000002,-2365.1900000000001
168234.0,7030.5100000000002,4673.6899999999996,1726.54,7544.0,-1471.5999999999999,480.91000000000003,-2370.2199999999998
168235.0,7053.1400000000003,4782.1099999999997,1780.8299999999999,7433.2399999999998,-1612.4000000000001,624.36099999999999,-2365.3699999999999
168236.0,7081.3000000000002,4906.2299999999996,1827.1900000000001,7308.4899999999998,-1754.8399999999999,747.82399999999996,-2350.9400000000001
168237.0,7118.6099999999997,5058.7399999999998,1271.98,7861.8500000000004,-304.31999999999999,-1508.1900000000001,-1893.95
168238.0,7131.5699999999997,4895.9200000000001,1349.4400000000001,8020.4399999999996,-381.12799999999999,-1325.8499999999999,-1977.27
168239.0,7137.8900000000003,4733.75,1391.4100000000001,8107.4300000000003,-467.70499999999998,-1119.8699999999999,-2057.6700000000001
168240.0,7137.79,4625.4499999999998,1456.0699999999999,8178.0900000000001,-565.22900000000004,-899.56299999999999,-2131.9899999999998
168241.0,7137.3100000000004,4532.9099999999999,1497.3399999999999,8191.3999999999996,-673.42999999999995,-672.21100000000001,-2200.02
168242.0,7136.25,4492.1899999999996,1555.99,8189.3000000000002,-790.53599999999994,-444.33800000000002,-2259.3200000000002
168243.0,7136.8800000000001,4470.1000000000004,1597.79,8141.0699999999997,-915.85199999999998,-221.45400000000001,-2309.4899999999998
168244.0,7138.8299999999999,4494.0699999999997,1654.25,8081.04,-1047.53,-7.98719,-2349.0
168245.0,7143.9899999999998,4533.2399999999998,1695.3499999999999,7983.6700000000001,-1184.78,192.15199999999999,-2377.9400000000001
168246.0,7152.5600000000004,4611.8100000000004,1750.79,7883.1099999999997,-1325.3699999999999,376.834,-2395.6300000000001
168247.0,7168.75,4699.96,1791.5799999999999,7757.5699999999997,-1469.3399999999999,544.42499999999995,-2403.0900000000001
168248.0,7191.5200000000004,4823.1199999999999,1851.52,7643.6300000000001,-1613.6199999999999,696.93299999999999,-2400.1599999999999
168249.0,7220.4499999999998,4951.0900000000001,1891.7,7503.6700000000001,-1759.5899999999999,828.41399999999999,-2387.6599999999999
168250.0,7256.4399999999996,5056.1999999999998,1339.0999999999999,8082.1099999999997,-280.25799999999998,-1586.9000000000001,-1883.7
168251.0,7266.8699999999999,4883.9799999999996,1417.45,8247.7099999999991,-355.791,-1388.79,-1970.5699999999999
168252.0,7271.5799999999999,4715.9899999999998,1460.6600000000001,8340.5200000000004,-442.09500000000003,-1166.53,-2055.3800000000001
168253.0,7270.6700000000001,4601.9799999999996,1522.9300000000001,8412.0400000000009,-540.08199999999999,-929.60299999999995,-2134.3800000000001
168254.0,7269.7700000000004,4510.2200000000003,1565.3199999999999,8427.9300000000003,-649.529,-685.82399999999996,-2207.1500000000001
168255.0,7268.54,4471.9300000000003,1624.05,8425.5200000000004,-768.59299999999996,-441.97300000000001,-2271.04
168256.0,7269.1499999999996,4453.9099999999999,1665.24,8374.4200000000001,-896.36800000000005,-203.95699999999999,-2325.5900000000001
168257.0,7271.1400000000003,4483.9799999999996,1721.26,8309.9200000000001,-1031.04,23.595600000000001,-2369.1199999999999
168258.0,7276.3400000000001,4530.1099999999997,1761.2,8205.7099999999991,-1171.55,236.52699999999999,-2401.7600000000002
168259.0,7284.96,4617.8500000000004,1816.6700000000001,8098.25,-1315.6800000000001,432.69900000000001,-2422.5900000000001
168260.0,7301.1899999999996,4714.8100000000004,1856.5699999999999,7963.7399999999998,-1463.1700000000001,610.45399999999995,-2432.8000000000002
168261.0,7324.21,4848.6899999999996,1917.47,7842.0500000000002,-1610.9300000000001,772.16999999999996,-2431.98
168262.0,7354.0299999999997,4988.1899999999996,1958.5599999999999,7694.2799999999997,-1760.3699999999999,911.86500000000001,-2421.4699999999998
168263.0,7384.75,5046.4499999999998,1419.0899999999999,8301.0799999999999,-252.60400000000001,-1666.3199999999999,-1867.0
168264.0,7392.7700000000004,4862.6800000000003,1495.8800000000001,8471.7399999999998,-326.56700000000001,-1452.0,-1957.5899999999999
168265.0,7396.0900000000001,4684.6099999999997,1535.45,8566.4200000000001,-412.483,-1212.97,-2046.76
168266.0,7394.8400000000001,4570.46,1600.02,8644.6100000000006,-510.82999999999998,-958.94899999999996,-2130.5599999999999
168267.0,7393.8199999999997,4475.0900000000001,1638.3099999999999,8658.6399999999994,-621.43899999999996,-698.29200000000003,-2208.3099999999999
168268.0,7392.7700000000004,4440.3599999999997,1697.3199999999999,8656.75,-742.34500000000003,-438.07100000000003,-2277.1500000000001
168269.0,7393.6800000000003,4425.4700000000003,1736.03,8601.5300000000007,-872.57299999999998,-184.59100000000001,-2336.4000000000001
168270.0,7396.0799999999999,4464.2700000000004,1793.1800000000001,8534.7099999999991,-1010.2,57.3476,-2384.3099999999999
168271.0,7401.6999999999998,4517.8100000000004,1831.3399999999999,8423.7700000000004,-1154.03,283.33100000000002,-2420.8899999999999
168272.0,7410.7700000000004,4616.7799999999997,1887.8599999999999,8310.9799999999996,-1301.71,491.22500000000002,-2445.1999999999998
168273.0,7427.4200000000001,4722.9300000000003,1926.23,8167.5799999999999,-1452.76,679.37900000000002,-2458.29
168274.0,7450.8699999999999,4868.7299999999996,1988.53,8038.7799999999997,-1603.9200000000001,850.45000000000005,-2459.8699999999999
168275.0,7481.6099999999997,5017.1999999999998,2027.5,7880.1800000000003,-1756.79,998.46100000000001,-2451.5599999999999
168276.0,7503.6199999999999,5012.29,1495.6900000000001,8501.8799999999992,-221.22499999999999,-1746.53,-1843.1099999999999
168277.0,7509.29,4814.8599999999997,1568.47,8675.7600000000002,-293.358,-1515.4100000000001,-1937.55
168278.0,7511.4099999999999,4635.7299999999996,1613.05,8781.3799999999992,-378.59399999999999,-1259.1300000000001,-2031.5
168279.0,7509.9499999999998,4512.8000000000002,1670.6700000000001,8857.3199999999997,-477.06799999999998,-987.58000000000004,-2120.5700000000002
168280.0,7509.0600000000004,4423.5799999999999,1713.79,8879.1200000000008,-588.73699999999997,-709.60799999999995,-2203.5799999999999
168281.0,7508.5100000000002,4388.4300000000003,1768.0799999999999,8873.5400000000009,-711.43499999999995,-432.64800000000002,-2277.6199999999999
168282.0,7510.0299999999997,4383.5799999999999,1810.22,8820.7999999999993,-844.10699999999997,-163.34999999999999,-2341.8800000000001
168283.0,7513.1499999999996,4425.8999999999996,1862.24,8746.0100000000002,-984.67499999999995,93.222499999999997,-2394.5500000000002
168284.0,7519.4300000000003,4492.4200000000001,1903.27,8633.3899999999994,-1131.8599999999999,332.48099999999999,-2435.4400000000001
168285.0,7529.1700000000001,4598.0299999999997,1955.3,8510.1299999999992,-1283.0899999999999,552.21799999999996,-2463.5500000000002
168286.0,7546.3699999999999,4718.7600000000002,1996.8399999999999,8362.6599999999999,-1437.76,750.86900000000003,-2479.8899999999999
168287.0,7570.4499999999998,4872.1700000000001,2055.54,8222.0599999999995,-1592.3199999999999,931.39400000000001,-2484.0999999999999
168288.0,7602.21,5037.3699999999999,2099.5100000000002,8060.0200000000004,-1748.5799999999999,1087.8900000000001,-2478.0999999999999
168289.0,7611.6700000000001,4963.9300000000003,1581.55,8693.9200000000001,-185.62200000000001,-1827.1300000000001,-1811.9300000000001
168290.0,7615.1700000000001,4756.4899999999998,1653.48,8874.7999999999993,-255.62299999999999,-1578.79,-1910.3900000000001
168291.0,7616.3800000000001,4566.7799999999997,1692.8,8982.1599999999999,-340.01499999999999,-1304.8,-2009.1300000000001
168292.0,7615.0299999999997,4446.0500000000002,1753.48,9066.9599999999991,-438.52300000000002,-1015.26,-2103.5500000000002
168293.0,7614.5900000000001,4353.25,1790.73,9086.6700000000001,-551.12300000000005,-719.56799999999998,-2192.1199999999999
168294.0,7614.9200000000001,4325.0900000000001,1846.6400000000001,9084.5900000000001,-675.53200000000004,-425.53800000000001,-2271.7800000000002
168295.0,7617.3800000000001,4323.3699999999999,1884.1800000000001,9027.0300000000007,-810.61199999999997,-140.12,-2341.4499999999998
168296.0,7621.5699999999997,4378.0100000000002,1938.71,8952.7299999999996,-954.12599999999998,131.345,-2399.1799999999998
168297.0,7628.9200000000001,4452.0,1975.8699999999999,8832.5599999999995,-1104.7,384.11900000000003,-2444.6700000000001
168298.0,7639.7200000000003,4572.3199999999997,2030.3399999999999,8706.5300000000007,-1259.54,615.87900000000002,-2476.9299999999998
168299.0,7657.8400000000001,4702.1099999999997,2068.4000000000001,8549.1000000000004,-1417.8299999999999,825.21900000000005,-2496.75
168300.0,7682.6999999999998,4870.4899999999998,2130.0900000000001,8403.6200000000008,-1575.73,1015.3099999999999,-2503.8299999999999
168301.0,7715.5299999999997,5043.9200000000001,2170.0300000000002,8229.2099999999991,-1735.3099999999999,1180.3599999999999,-2500.4299999999998
168302.0,7708.5200000000004,4888.9499999999998,1665.74,8864.6100000000006,-145.55600000000001,-1908.01,-1772.6500000000001
168303.0,7710.0799999999999,4668.3199999999997,1733.1500000000001,9049.6299999999992,-213.13,-1641.96,-1875.26
168304.0,7710.5799999999999,4478.3699999999999,1776.9300000000001,9169.0,-296.38200000000001,-1349.8099999999999,-1979.25
168305.0,7709.54,4350.0699999999997,1830.0599999999999,9252.7199999999993,-394.70800000000003,-1041.9000000000001,-2079.4000000000001
168306.0,7709.9099999999999,4265.0900000000001,1871.78,9281.6900000000005,-508.13400000000001,-728.12400000000002,-2173.8800000000001
168307.0,7711.3999999999996,4237.9399999999996,1922.1500000000001,9276.8799999999992,-634.21400000000006,-416.697,-2259.4299999999998
168308.0,7715.1199999999999,4248.6000000000004,1963.1199999999999,9223.5200000000004,-771.67200000000003,-114.849,-2334.79
168309.0,7720.7200000000003,4308.2399999999998,2011.5999999999999,9142.0,-918.16099999999994,171.72,-2397.9699999999998
168310.0,7729.4799999999996,4397.96,2051.98,9022.1100000000006,-1072.1500000000001,438.17599999999999,-2448.5300000000002
168311.0,7741.6099999999997,4526.2600000000002,2101.0599999999999,8886.1399999999994,-1230.6500000000001,682.072,-2485.27
168312.0,7760.8400000000001,4673.0500000000002,2142.75,8726.2099999999991,-1392.5799999999999,902.15599999999995,-2508.9699999999998
168313.0,7786.6999999999998,4849.54,2199.77,8568.6299999999992,-1553.8499999999999,1101.9100000000001,-2519.1900000000001
168314.0,7820.6899999999996,5041.5100000000002,2245.3499999999999,8391.8299999999999,-1716.6700000000001,1275.6400000000001,-2518.5500000000002
168315.0,7793.2799999999997,4794.9300000000003,1758.26,9020.7700000000004,-100.51000000000001,-1988.76,-1725.0899999999999
168316.0,7793.0799999999999,4565.3900000000003,1824.9200000000001,9214.3500000000004,-165.32599999999999,-1704.6600000000001,-1832.04
168317.0,7793.1999999999998,4365.46,1862.3900000000001,9336.1499999999996,-247.25999999999999,-1393.9300000000001,-1941.3299999999999
168318.0,7792.8900000000003,4241.4099999999999,1918.7,9430.8500000000004,-345.30500000000001,-1067.29,-2047.3900000000001
168319.0,7794.3800000000001,4154.25,1953.6300000000001,9458.8799999999992,-459.42000000000002,-735.08900000000006,-2148.0799999999999
168320.0,7797.3400000000001,4136.6700000000001,2005.8299999999999,9459.7299999999996,-587.11000000000001,-405.96800000000002,-2239.9400000000001
168321.0,7802.7399999999998,4151.96,2041.0699999999999,9402.4899999999998,-726.91300000000001,-87.480599999999995,-2321.4499999999998
168322.0,7810.1599999999999,4226.8900000000003,2092.46,9323.8199999999997,-876.41800000000001,214.429,-2390.4400000000001
168323.0,7820.6800000000003,4325.3699999999999,2127.7199999999998,9196.9099999999999,-1033.8599999999999,494.726,-2446.4000000000001
168324.0,7834.5200000000004,4471.3000000000002,2179.8299999999999,9060.3199999999997,-1196.0799999999999,750.90800000000002,-2488.0300000000002
168325.0,7855.1800000000003,4627.8699999999999,2216.6799999999998,8890.3899999999994,-1361.6700000000001,981.86500000000001,-2515.8600000000001
168326.0,7882.2700000000004,4822.0699999999997,2277.8299999999999,8730.0,-1526.27,1191.3800000000001,-2529.5300000000002
168327.0,7917.3900000000003,5022.1199999999999,2317.9899999999998,8539.9899999999998,-1692.22,1373.8099999999999,-2531.9000000000001
168328.0,7865.8599999999997,4670.7200000000003,1849.78,9150.8199999999997,-50.1693,-2069.27,-1668.49
168329.0,7864.1099999999997,4429.8900000000003,1912.7,9350.8899999999994,-111.926,-1766.6199999999999,-1779.9100000000001
168330.0,7864.0200000000004,4229.5799999999999,1952.5899999999999,9484.6399999999994,-192.24299999999999,-1436.96,-1894.8499999999999
168331.0,7864.6199999999999,4100.8199999999997,2002.0999999999999,9581.2000000000007,-289.78300000000002,-1091.26,-2007.22
168332.0,7867.54,4022.2199999999998,2039.6800000000001,9618.9099999999999,-404.47000000000003,-740.375,-2114.5500000000002
168333.0,7872.3100000000004,4008.8299999999999,2086.9000000000001,9619.9300000000003,-533.74099999999999,-393.29500000000002,-2213.0100000000002
168334.0,7879.6899999999996,4037.9099999999999,2124.1599999999999,9567.7800000000007,-675.88099999999997,-57.949100000000001,-2301.0300000000002
168335.0,7889.25,4121.3199999999997,2170.2399999999998,9484.8400000000001,-828.43100000000004,259.44299999999998,-2376.3200000000002
168336.0,7901.8400000000001,4236.8999999999996,2207.3400000000001,9358.8899999999994,-989.36500000000001,553.702,-2438.1300000000001
168337.0,7917.6499999999996,4393.8500000000004,2254.5799999999999,9214.7900000000009,-1155.3699999999999,822.26400000000001,-2484.9499999999998
168338.0,7939.9700000000003,4568.7299999999996,2294.1700000000001,9043.0200000000004,-1324.6700000000001,1064.1199999999999,-2517.4000000000001
168339.0,7968.3599999999997,4772.8500000000004,2350.8400000000001,8871.7000000000007,-1492.5999999999999,1283.4200000000001,-2534.79
168340.0,8004.7399999999998,4992.04,2395.9499999999998,8679.2999999999993,-1661.6199999999999,1474.6800000000001,-2540.3899999999999
168341.0,7925.7299999999996,4522.4499999999998,1949.27,9260.0300000000007,6.0511799999999996,-2149.0500000000002,-1602.6400000000001
168342.0,7922.6800000000003,4274.9200000000001,2012.1300000000001,9471.1800000000003,-52.310400000000001,-1827.52,-1718.6900000000001
168343.0,7922.8100000000004,4064.6999999999998,2043.72,9607.6000000000004,-130.84,-1478.6700000000001,-1839.3800000000001
168344.0,7924.6700000000001,3943.6799999999998,2097.46,9718.6000000000004,-227.745,-1113.5999999999999,-1958.26
168345.0,7929.1800000000003,3863.4499999999998,2126.1199999999999,9755.7099999999991,-342.91199999999998,-743.77999999999997,-2072.4899999999998
168346.0,7936.0100000000002,3863.9099999999999,2176.5300000000002,9766.3799999999992,-473.67200000000003,-378.53100000000001,-2178.0100000000002
168347.0,7945.6599999999999,3898.1599999999999,2205.6900000000001,9710.5,-618.13599999999997,-26.196400000000001,-2273.0500000000002
168348.0,7957.6000000000004,4001.2199999999998,2256.0799999999999,9634.2399999999998,-773.76599999999996,306.84399999999999,-2354.98
168349.0,7972.6199999999999,4126.2200000000003,2285.7600000000002,9501.4099999999999,-938.26199999999994,615.15200000000004,-2423.0599999999999
168350.0,7990.8000000000002,4305.2799999999997,2337.8200000000002,9360.6700000000001,-1108.1400000000001,896.18600000000004,-2475.5700000000002
168351.0,8015.0299999999997,4489.6700000000001,2370.02,9178.0799999999999,-1281.1700000000001,1149.01,-2512.8899999999999
168352.0,8044.8699999999999,4715.3699999999999,2432.9099999999999,9007.2800000000007,-1452.3699999999999,1378.1800000000001,-2534.27
168353.0,8082.4899999999998,4941.3100000000004,2469.9299999999998,8799.8999999999996,-1624.3399999999999,1578.24,-2543.3699999999999
168354.0,7973.3000000000002,4341.4200000000001,2050.1700000000001,9339.0900000000001,68.519999999999996,-2227.8099999999999,-1526.72
168355.0,7969.25,4081.9400000000001,2106.71,9556.2199999999993,13.863099999999999,-1887.0899999999999,-1647.49
168356.0,7969.8199999999997,3874.8299999999999,2142.0,9708.3600000000006,-62.5822,-1518.78,-1774.3499999999999
168357.0,7973.0200000000004,3749.5,2186.5,9821.5,-158.62200000000001,-1134.1400000000001,-1900.1700000000001
168358.0,7979.3599999999997,3681.7600000000002,2218.8600000000001,9872.1399999999994,-274.16899999999998,-745.19200000000001,-2021.7
168359.0,7988.4200000000001,3687.2199999999998,2261.9499999999998,9883.5,-406.37200000000001,-361.637,-2134.6599999999999
168360.0,8000.4700000000003,3739.9299999999998,2294.6300000000001,9837.0900000000001,-553.20500000000004,7.8482000000000003,-2237.02
168361.0,8015.0100000000002,3852.27,2337.25,9756.9500000000007,-711.91700000000003,356.60300000000001,-2326.0999999999999
168362.0,8032.6999999999998,3998.96,2370.3299999999999,9629.3700000000008,-880.08500000000004,679.02999999999997,-2400.9400000000001
168363.0,8053.4200000000001,4189.8100000000004,2415.3400000000001,9481.4300000000003,-1053.8699999999999,972.53099999999995,-2459.5700000000002
168364.0,8079.71,4396.5600000000004,2451.9400000000001,9300.6700000000001,-1230.73,1236.3399999999999,-2502.2399999999998
168365.0,8111.1199999999999,4631.7600000000002,2507.9499999999998,9118.0699999999997,-1405.1700000000001,1475.3499999999999,-2527.9200000000001
168366.0,8150.0299999999997,4880.04,2551.8299999999999,8911.2000000000007,-1580.05,1684.3599999999999,-2540.73
168367.0,8008.9899999999998,4131.0699999999997,2158.7800000000002,9390.3299999999999,137.86600000000001,-2305.0300000000002,-1440.48
168368.0,8004.3299999999999,3864.3499999999999,2212.6599999999999,9618.1900000000005,87.266000000000005,-1944.98,-1566.23
168369.0,8005.4700000000003,3651.1500000000001,2240.9699999999998,9776.8500000000004,13.1036,-1556.98,-1699.3299999999999
168370.0,8010.1499999999996,3533.8699999999999,2287.04,9904.6599999999999,-81.930499999999995,-1152.6300000000001,-1832.29
168371.0,8018.3599999999997,3469.3699999999999,2312.1199999999999,9959.5900000000001,-197.791,-744.40200000000004,-1961.4100000000001
168372.0,8029.7399999999998,3489.6399999999999,2355.9200000000001,9981.3700000000008,-331.36799999999999,-342.47199999999998,-2082.29
168373.0,8044.2799999999997,3552.1300000000001,2381.6799999999998,9935.6299999999992,-480.57999999999998,44.228099999999998,-2192.4899999999998
168374.0,8061.6000000000004,3685.4200000000001,2426.3800000000001,9863.2600000000002,-642.42499999999995,408.738,-2289.1700000000001
168375.0,8082.04,3846.3200000000002,2453.6100000000001,9733.3799999999992,-814.35699999999997,745.32299999999998,-2371.1599999999999
168376.0,8105.4899999999998,4059.7399999999998,2500.8400000000001,9588.9200000000001,-992.13400000000001,1051.3099999999999,-2436.4499999999998
168377.0,8134.0100000000002,4280.46,2531.9699999999998,9401.6000000000004,-1172.8800000000001,1326.1300000000001,-2484.73
168378.0,8167.1499999999996,4536.9300000000003,2591.8600000000001,9218.9300000000003,-1350.53,1575.0,-2515.1199999999999
168379.0,8207.2999999999993,4795.25,2629.5999999999999,9000.2700000000004,-1528.1800000000001,1792.8900000000001,-2531.9000000000001
168380.0,8034.2700000000004,3882.6100000000001,2268.8400000000001,9404.0200000000004,214.56899999999999,-2380.3699999999999,-1343.1800000000001
168381.0,8029.1899999999996,3604.96,2315.23,9639.0200000000004,168.33099999999999,-2000.78,-1473.98
168382.0,8030.9200000000001,3397.5900000000001,2347.02,9816.0599999999995,96.746700000000004,-1592.95,-1613.6500000000001
168383.0,8037.0100000000002,3277.8200000000002,2382.46,9947.9099999999999,2.89994,-1168.8199999999999,-1754.1600000000001
168384.0,8047.0200000000004,3229.5100000000002,2411.3800000000001,10020.0,-113.128,-741.29399999999998,-1891.3499999999999
168385.0,8060.5100000000002,3256.73,2446.1300000000001,10044.4,-248.09399999999999,-320.959,-2020.48
168386.0,8077.5100000000002,3342.3400000000001,2476.3200000000002,10012.799999999999,-399.68900000000002,82.995099999999994,-2138.9099999999999
168387.0,8097.5299999999997,3486.71,2511.3899999999999,9938.2800000000007,-564.76900000000001,463.22000000000003,-2243.73
168388.0,8120.75,3673.7600000000002,2542.9099999999999,9818.0,-740.52599999999995,813.952,-2333.46
168389.0,8146.9300000000003,3900.5900000000001,2581.5100000000002,9667.9400000000005,-922.42200000000003,1132.3699999999999,-2405.77
168390.0,8177.6700000000001,4147.3599999999997,2617.96,9486.0,-1107.0999999999999,1418.1800000000001,-2460.2399999999998
168391.0,8212.5100000000002,4413.6199999999999,2669.27,9291.7999999999993,-1287.98,1676.8299999999999,-2495.6500000000001
168392.0,8253.8099999999995,4697.0299999999997,2715.23,9076.2700000000004,-1468.3399999999999,1903.6600000000001,-2516.71
168393.0,8051.0100000000002,3596.9699999999998,2384.4899999999998,9379.7900000000009,299.31299999999999,-2453.2600000000002,-1234.49
168394.0,8045.71,3316.9899999999998,2430.6300000000001,9630.4599999999991,257.76400000000001,-2054.0300000000002,-1370.5599999999999
168395.0,8048.0699999999997,3102.9400000000001,2451.5500000000002,9813.3999999999996,188.97800000000001,-1626.4000000000001,-1516.9200000000001
168396.0,8055.3000000000002,2997.3200000000002,2491.1500000000001,9966.0900000000001,96.4101,-1182.46,-1665.1300000000001
168397.0,8066.7299999999996,2952.27,2508.9099999999999,10042.5,-19.680700000000002,-735.65499999999997,-1810.7
168398.0,8082.0200000000004,3001.0799999999999,2547.25,10084.200000000001,-156.02099999999999,-296.94299999999998,-1948.5599999999999
168399.0,8101.1000000000004,3096.3000000000002,2566.3099999999999,10053.1,-309.98399999999998,124.131,-2075.8800000000001
168400.0,8123.5500000000002,3268.75,2606.7399999999998,9993.7199999999993,-478.39999999999998,520.04999999999995,-2189.27
168401.0,8149.3400000000001,3469.6300000000001,2628.21,9870.8500000000004,-658.07600000000002,884.83900000000006,-2287.1999999999998
168402.0,8178.1300000000001,3725.7399999999998,2672.3800000000001,9731.1499999999996,-844.23699999999997,1215.6700000000001,-2367.0999999999999
168403.0,8211.0799999999999,3985.27,2699.1700000000001,9541.5499999999993,-1032.8800000000001,1512.4000000000001,-2428.0999999999999
168404.0,8247.5699999999997,4278.4899999999998,2758.02,9353.1000000000004,-1216.98,1780.8299999999999,-2468.8699999999999
168405.0,8289.7199999999993,4569.0500000000002,2793.5300000000002,9122.8600000000006,-1399.8399999999999,2016.4300000000001,-2494.52
168406.0,8062.5600000000004,3268.98,2503.5100000000002,9311.3600000000006,392.64499999999998,-2523.1999999999998,-1113.75
168407.0,8057.0699999999997,2981.4000000000001,2542.3899999999999,9572.2999999999993,356.07499999999999,-2104.2800000000002,-1255.1099999999999
168408.0,8059.7799999999997,2774.7600000000002,2564.8600000000001,9775.2099999999991,290.36000000000001,-1656.9100000000001,-1408.48
168409.0,8067.5500000000002,2671.0700000000002,2594.3000000000002,9936.4099999999999,199.27000000000001,-1193.28,-1564.8
168410.0,8079.7399999999998,2644.21,2613.7600000000002,10032.1,83.208299999999994,-727.35599999999999,-1719.2
168411.0,8096.1099999999997,2704.9499999999998,2643.7800000000002,10081.6,-54.497300000000003,-270.392,-1866.2
168412.0,8116.5500000000002,2825.6999999999998,2665.4200000000001,10067.4,-210.90299999999999,167.702,-2002.71
168413.0,8140.8100000000004,3014.0999999999999,2696.9400000000001,10011.0,-382.71899999999999,579.16700000000003,-2125.2800000000002
168414.0,8168.6800000000003,3243.4200000000001,2721.0100000000002,9900.4099999999999,-566.44799999999998,957.89099999999996,-2232.0500000000002
168415.0,8199.6900000000005,3517.4699999999998,2757.4099999999999,9759.9899999999998,-756.97900000000004,1301.03,-2319.9400000000001
168416.0,8234.5100000000002,3804.52,2787.96,9577.5900000000001,-949.71299999999997,1608.5599999999999,-2388.0599999999999
168417.0,8272.4599999999991,4110.7600000000002,2839.2199999999998,9381.1299999999992,-1137.0,1886.6700000000001,-2434.5799999999999
168418.0,8315.2099999999991,4426.1499999999996,2881.2199999999998,9153.9799999999996,-1322.3299999999999,2131.0900000000001,-2465.0300000000002
168419.0,8073.1400000000003,2898.8600000000001,2629.52,9197.2900000000009,495.322,-2589.4299999999998,-980.64700000000005
168420.0,8067.3800000000001,2609.4499999999998,2665.1500000000001,9473.9400000000005,464.08100000000002,-2151.0500000000002,-1127.46
168421.0,8069.9499999999998,2401.2199999999998,2678.04,9687.8899999999994,401.61000000000001,-1684.1099999999999,-1287.95
168422.0,8077.3699999999999,2313.3299999999999,2708.9000000000001,9871.6100000000006,312.11599999999999,-1201.02,-1452.5999999999999
168423.0,8089.1700000000001,2295.5799999999999,2718.6300000000001,9977.7900000000009,196.09999999999999,-716.17499999999995,-1616.0999999999999
168424.0,8105.3699999999999,2379.9099999999999,2749.6700000000001,10047.0,57.085299999999997,-241.191,-1772.7
168425.0,8126.0799999999999,2515.8800000000001,2761.27,10039.4,-101.80800000000001,213.667,-1919.04
168426.0,8151.1300000000001,2734.5300000000002,2795.8600000000001,10000.799999999999,-277.13600000000002,640.51099999999997,-2051.2600000000002
168427.0,8180.1899999999996,2983.1900000000001,2811.21,9893.75,-465.05700000000002,1032.99,-2167.3099999999999
168428.0,8212.7700000000004,3288.0799999999999,2850.8499999999999,9765.8400000000001,-660.10699999999997,1388.3,-2263.8800000000001
168429.0,8249.0200000000004,3592.5799999999999,2873.3200000000002,9581.1100000000006,-857.00199999999995,1706.51,-2339.4699999999998
168430.0,8288.0400000000009,3925.9299999999998,2929.8699999999999,9390.9400000000005,-1047.49,1994.2,-2392.1700000000001
168431.0,8331.0799999999999,4251.8299999999999,2963.2800000000002,9153.0400000000009,-1235.0799999999999,2247.3000000000002,-2427.75
168432.0,8088.8900000000003,2479.9000000000001,2758.8400000000001,9029.2399999999998,607.952,-2651.27,-834.44100000000003
168433.0,8082.7299999999996,2184.5100000000002,2785.3000000000002,9317.4200000000001,582.32299999999998,-2193.8000000000002,-986.73000000000002
168434.0,8084.0600000000004,1988.5899999999999,2800.1799999999998,9556.0900000000001,523.36099999999999,-1707.51,-1154.6500000000001
168435.0,8089.5900000000001,1905.04,2818.75,9750.8400000000001,435.64299999999997,-1205.3599999999999,-1327.99
168436.0,8099.2299999999996,1910.9300000000001,2830.7600000000002,9882.0799999999999,319.76499999999999,-701.93700000000001,-1501.05
168437.0,8113.5699999999997,2009.71,2851.1199999999999,9962.1900000000005,179.41300000000001,-209.32400000000001,-1667.6700000000001
168438.0,8132.8699999999999,2177.3400000000001,2866.5700000000002,9978.3099999999995,17.919,262.06700000000001,-1824.1900000000001
168439.0,8157.0900000000001,2414.25,2889.8499999999999,9945.9400000000005,-161.00399999999999,703.96199999999999,-1966.6500000000001
168440.0,8186.0100000000002,2696.8800000000001,2908.8299999999999,9857.5900000000001,-353.26799999999997,1110.01,-2092.6100000000001
168441.0,8219.0900000000001,3021.9099999999999,2938.8800000000001,9732.1399999999994,-552.99000000000001,1477.25,-2198.3299999999999
168442.0,8255.8500000000004,3358.3600000000001,2966.21,9559.8999999999996,-754.17399999999998,1806.01,-2282.0300000000002
168443.0,8295.2600000000002,3705.3499999999999,3013.3800000000001,9362.9899999999998,-947.851,2103.0799999999999,-2341.27
168444.0,8338.0300000000007,4058.6199999999999,3054.3000000000002,9131.4300000000003,-1137.6400000000001,2364.8299999999999,-2382.29
168445.0,8117.8999999999996,2010.3499999999999,2893.2399999999998,8803.3999999999996,731.404,-2708.0999999999999,-674.89400000000001
168446.0,8110.8000000000002,1718.2,2917.9899999999998,9112.3199999999997,711.64300000000003,-2231.8800000000001,-832.83799999999997
168447.0,8109.25,1523.01,2920.5300000000002,9363.7600000000002,656.39599999999996,-1726.73,-1008.25
168448.0,8110.8000000000002,1460.75,2941.2399999999998,9586.7999999999993,570.51499999999999,-1205.98,-1190.4400000000001
168449.0,8115.8800000000001,1479.0,2941.4099999999999,9732.1399999999994,454.81900000000002,-684.46699999999998,-1373.3
168450.0,8125.7799999999997,1607.25,2963.5300000000002,9838.6700000000001,313.10399999999998,-174.643,-1550.3800000000001
168451.0,8141.1199999999999,1793.1500000000001,2966.8099999999999,9865.4799999999996,149.0,312.78800000000001,-1717.75
168452.0,8162.3800000000001,2065.9899999999998,2993.8400000000001,9857.7999999999993,-33.6905,769.44899999999996,-1870.9400000000001
168453.0,8189.21,2371.1999999999998,3002.6199999999999,9777.5599999999995,-230.46899999999999,1188.73,-2007.3399999999999
168454.0,8221.1100000000006,2731.6599999999999,3036.3000000000002,9670.4400000000005,-435.048,1567.73,-2122.8699999999999
168455.0,8257.1499999999996,3087.9099999999999,3054.4099999999999,9499.3099999999995,-640.61199999999997,1906.77,-2215.1100000000001
168456.0,8296.1100000000006,3464.8099999999999,3107.21,9312.5100000000002,-837.47900000000004,2213.0999999999999,-2281.3200000000002
168457.0,8337.7999999999993,3829.1999999999998,3138.71,9071.75,-1029.25,2483.2399999999998,-2328.1199999999999
168458.0,8170.6499999999996,1485.8800000000001,3032.3299999999999,8513.7600000000002,866.35299999999995,-2759.1900000000001,-501.42899999999997
168459.0,8161.4499999999998,1192.8,3048.52,8838.7999999999993,852.71400000000006,-2264.5900000000001,-665.00199999999995
168460.0,8154.79,1012.64,3050.48,9117.1599999999999,801.37599999999998,-1741.27,-848.06399999999996
168461.0,8149.3699999999999,960.77099999999996,3059.5700000000002,9357.6299999999992,717.50800000000004,-1202.5,-1039.3800000000001
168462.0,8146.4700000000003,1005.74,3059.5300000000002,9531.7099999999991,602.03099999999995,-663.58900000000006,-1232.46
168463.0,8148.5299999999997,1154.75,3071.73,9656.5100000000002,458.947,-137.143,-1420.47
168464.0,8156.6700000000001,1375.5999999999999,3076.6900000000001,9711.6499999999996,292.05000000000001,365.83699999999999,-1599.05
168465.0,8171.7799999999997,1673.03,3093.4899999999998,9718.0799999999999,105.498,836.78899999999999,-1763.6099999999999
168466.0,8193.7299999999996,2014.78,3103.5599999999999,9660.75,-96.0047,1268.9400000000001,-1911.1400000000001
168467.0,8222.1700000000001,2401.3099999999999,3129.1399999999999,9563.6000000000004,-305.58999999999997,1659.3699999999999,-2037.01
168468.0,8255.5799999999999,2790.5999999999999,3149.5799999999999,9407.5200000000004,-515.71100000000001,2008.49,-2138.3400000000001
168469.0,8292.8600000000006,3185.6199999999999,3194.8299999999999,9219.7800000000007,-715.71500000000003,2323.8499999999999,-2211.96
168470.0,8332.4400000000005,3576.1999999999998,3231.2199999999998,8985.4200000000001,-909.423,2602.29,-2264.8000000000002
168471.0,8260.0499999999993,905.83299999999997,3179.4400000000001,8157.6000000000004,1013.67,-2803.5999999999999,-313.88999999999999
168472.0,8246.6900000000005,616.18799999999999,3188.2800000000002,8502.0699999999997,1006.46,-2291.2199999999998,-483.166
168473.0,8232.1599999999999,445.52800000000002,3181.4499999999998,8801.9200000000001,959.16200000000003,-1750.6300000000001,-673.87900000000002
168474.0,8215.7999999999993,415.94299999999998,3187.5300000000002,9071.7399999999998,877.37800000000004,-1194.6400000000001,-874.51700000000005
168475.0,8200.7199999999993,482.39699999999999,3179.0799999999999,9270.0699999999997,762.07500000000005,-639.13900000000001,-1078.01
168476.0,8190.2799999999997,662.02499999999998,3188.1799999999998,9423.5900000000001,617.59900000000005,-96.774500000000003,-1277.3499999999999
168477.0,8186.6599999999999,910.077,3184.3299999999999,9500.1399999999994,447.83800000000002,421.065,-1467.71
168478.0,8191.4700000000003,1244.1700000000001,3200.0300000000002,9533.8099999999995,257.27600000000001,905.779,-1644.1900000000001
168479.0,8204.7800000000007,1617.3299999999999,3203.6599999999999,9495.4899999999998,50.811999999999998,1350.3599999999999,-1803.3
168480.0,8226.5400000000009,2039.1099999999999,3227.9299999999998,9418.4200000000001,-163.94399999999999,1751.8900000000001,-1940.1900000000001
168481.0,8255.0100000000002,2456.0900000000001,3243.3099999999999,9273.2999999999993,-378.76299999999998,2110.8299999999999,-2051.0599999999999
168482.0,8288.8799999999992,2878.6100000000001,3289.0300000000002,9094.8199999999997,-581.91899999999998,2434.9699999999998,-2132.5900000000001
168483.0,8325.1000000000004,3286.4899999999998,3320.7199999999998,8858.9899999999998,-777.38999999999999,2721.48,-2191.79
168484.0,8400.8999999999996,262.46300000000002,3330.3000000000002,7724.6700000000001,1174.1600000000001,-2840.0900000000001,-111.82899999999999
168485.0,8381.2299999999996,-23.9437,3328.48,8087.5200000000004,1173.5799999999999,-2311.23,-286.58499999999998
168486.0,8355.0,-174.05199999999999,3320.8200000000002,8419.8999999999996,1130.45,-1754.1199999999999,-485.13400000000001
168487.0,8322.6299999999992,-188.245,3313.79,8712.1100000000006,1050.8699999999999,-1182.0599999999999,-695.25699999999995
168488.0,8289.7999999999993,-89.461100000000002,3304.6500000000001,8946.0200000000004,935.79200000000003,-610.88199999999995,-909.51499999999999
168489.0,8261.1000000000004,115.83799999999999,3302.4899999999998,9124.1900000000005,789.86000000000001,-53.586599999999997,-1120.53
168490.0,8240.1399999999994,404.28500000000003,3299.8600000000001,9236.6200000000008,617.08399999999995,478.411,-1323.03
168491.0,8229.2600000000002,767.904,3304.4200000000001,9291.6800000000003,422.358,976.17899999999997,-1512.04
168492.0,8229.0699999999997,1182.4000000000001,3308.8200000000002,9283.6100000000006,210.72,1432.73,-1683.4100000000001
168493.0,8240.0400000000009,1634.6199999999999,3324.4200000000001,9223.2600000000002,-9.4182600000000001,1844.8900000000001,-1831.9000000000001
168494.0,8260.2600000000002,2088.1999999999998,3341.7399999999998,9099.1100000000006,-229.12,2213.3899999999999,-1952.9100000000001
168495.0,8288.4599999999991,2531.4499999999998,3379.8099999999999,8924.2800000000007,-435.416,2545.98,-2042.8099999999999
168496.0,8319.5300000000007,2966.1700000000001,3415.54,8697.2800000000007,-632.53099999999995,2840.3600000000001,-2108.6399999999999
168497.0,8610.0699999999997,-444.173,3487.9000000000001,7211.7299999999996,1348.9000000000001,-2867.6999999999998,104.95399999999999
168498.0,8581.7700000000004,-723.00900000000001,3477.9499999999998,7597.21,1354.98,-2323.8299999999999,-75.452799999999996
168499.0,8538.5300000000007,-856.33900000000006,3461.48,7957.5299999999997,1316.21,-1751.1900000000001,-281.702
168500.0,8484.4699999999993,-844.57299999999998,3448.8899999999999,8283.2199999999993,1238.78,-1164.45,-501.34399999999999
168501.0,8427.1700000000001,-716.47299999999996,3432.2800000000002,8550.2700000000004,1123.9300000000001,-578.71299999999997,-726.54499999999996
168502.0,8373.3199999999997,-476.95100000000002,3424.2399999999998,8762.8500000000004,976.44399999999996,-7.5856000000000003,-949.55600000000004
168503.0,8328.0499999999993,-153.613,3414.1100000000001,8906.9400000000005,800.57899999999995,537.65700000000004,-1164.71
168504.0,8294.7299999999996,249.58500000000001,3414.5799999999999,8995.0100000000002,601.43299999999999,1047.74,-1366.73
168505.0,8275.0,702.98699999999997,3414.3899999999999,9016.4799999999996,384.45400000000001,1515.6700000000001,-1550.9000000000001
168506.0,8269.8199999999997,1192.3599999999999,3425.5599999999999,8981.0900000000001,158.63,1938.04,-1711.5999999999999
168507.0,8277.7000000000007,1679.96,3440.1300000000001,8876.8899999999994,-66.040300000000002,2315.6900000000001,-1843.3399999999999
168508.0,8297.1900000000005,2150.0900000000001,3475.3000000000002,8713.0799999999999,-275.56700000000001,2656.4099999999999,-1942.03
168509.0,8321.0599999999995,2606.4899999999998,3509.1500000000001,8491.0300000000007,-474.07600000000002,2958.3899999999999,-2014.8499999999999
168510.0,8905.9599999999991,-1224.0799999999999,3646.3699999999999,6605.6700000000001,1538.8499999999999,-2885.5799999999999,336.78800000000001
168511.0,8866.0499999999993,-1488.8699999999999,3632.2600000000002,7020.6800000000003,1551.4100000000001,-2327.96,150.83600000000001
168512.0,8799.6499999999996,-1600.23,3607.6300000000001,7412.96,1517.1300000000001,-1741.3499999999999,-63.183599999999998
168513.0,8717.4200000000001,-1562.5599999999999,3586.3400000000001,7772.6999999999998,1441.8900000000001,-1141.3299999999999,-292.33800000000002
168514.0,8627.6800000000003,-1400.51,3563.0700000000002,8077.8900000000003,1327.3,-542.49300000000005,-528.649
168515.0,8540.8199999999997,-1125.3199999999999,3547.3899999999999,8327.9200000000001,1178.1600000000001,41.228999999999999,-763.923
168516.0,8462.9200000000001,-760.14599999999996,3533.1999999999998,8512.1100000000006,999.04399999999998,598.601,-992.19500000000005
168517.0,8399.2600000000002,-317.666,3526.25,8634.8600000000006,795.274,1120.1199999999999,-1207.7
168518.0,8352.4200000000001,177.76499999999999,3521.5999999999999,8690.7099999999991,572.74199999999996,1598.72,-1405.4000000000001
168519.0,8324.6599999999999,706.69299999999998,3528.2399999999998,8684.7900000000009,340.959,2030.79,-1578.8599999999999
168520.0,8314.8199999999997,1229.95,3539.52,8603.6800000000003,111.18000000000001,2417.1799999999998,-1721.9100000000001
168521.0,8321.9699999999993,1728.03,3571.4899999999998,8453.5699999999997,-101.601,2765.6999999999998,-1829.74
168522.0,8336.0,2207.3400000000001,3603.9200000000001,8238.9300000000003,-301.315,3074.9499999999998,-1909.95
168523.0,9308.4400000000005,-2075.04,3813.27,5906.7600000000002,1744.6700000000001,-2893.2199999999998,583.43299999999999
168524.0,9251.1800000000003,-2321.3499999999999,3794.1300000000001,6354.2299999999996,1763.8699999999999,-2322.3800000000001,391.97699999999998
168525.0,9155.7800000000007,-2412.6799999999998,3756.3499999999999,6775.9499999999998,1734.0899999999999,-1724.02,170.523
168526.0,9037.7299999999996,-2339.0999999999999,3731.8499999999999,7179.8500000000004,1661.0599999999999,-1112.29,-68.123599999999996
168527.0,8907.6499999999996,-2145.21,3696.4400000000001,7522.5,1546.6500000000001,-502.21300000000002,-315.66199999999998
168528.0,8778.5599999999995,-1826.0999999999999,3677.6799999999998,7819.4200000000001,1395.74,92.761200000000002,-563.41999999999996
168529.0,8658.8400000000001,-1423.75,3651.52,8041.0299999999997,1213.29,660.91200000000003,-805.149
168530.0,8555.6299999999992,-932.66300000000001,3643.1799999999998,8209.9500000000007,1004.65,1192.9400000000001,-1034.5799999999999
168531.0,8473.0,-396.49700000000001,3629.79,8301.2800000000007,776.31200000000001,1681.4200000000001,-1246.3
168532.0,8414.7900000000009,177.666,3634.8699999999999,8332.5300000000007,538.30499999999995,2122.6500000000001,-1433.0899999999999
168533.0,8381.0100000000002,735.35299999999995,3639.4699999999998,8275.4200000000001,303.26999999999998,2517.3000000000002,-1588.05
168534.0,8371.2999999999993,1265.9200000000001,3671.29,8145.1999999999998,87.191400000000002,2873.2600000000002,-1705.47
168535.0,8372.4799999999996,1764.9400000000001,3698.5500000000002,7936.4499999999998,-113.51900000000001,3189.4299999999998,-1793.45
168536.0,9835.1900000000005,-3000.6900000000001,3988.9400000000001,5109.3500000000004,1967.52,-2888.5799999999999,845.45000000000005
168537.0,9753.6599999999999,-3230.5599999999999,3957.0799999999999,5583.3199999999997,1993.1500000000001,-2306.54,648.02700000000004
168538.0,9623.6200000000008,-3288.8400000000001,3915.0599999999999,6048.3599999999997,1967.8399999999999,-1698.4000000000001,419.49200000000002
168539.0,9461.7999999999993,-3186.1900000000001,3876.5300000000002,6489.2399999999998,1897.0,-1077.1199999999999,171.553
168540.0,9282.7800000000007,-2948.46,3837.3899999999999,6882.5299999999997,1782.75,-457.55599999999998,-87.123000000000005
168541.0,9102.0200000000004,-2590.6500000000001,3806.4400000000001,7222.8299999999999,1629.97,146.73400000000001,-347.57299999999998
168542.0,8930.7299999999996,-2138.0500000000002,3778.0300000000002,7497.3599999999997,1444.01,724.36699999999996,-603.08000000000004
168543.0,8777.8700000000008,-1604.4300000000001,3759.0100000000002,7708.8299999999999,1230.3299999999999,1265.6700000000001,-846.92399999999998
168544.0,8649.6299999999992,-1018.8099999999999,3742.5700000000002,7846.8500000000004,995.923,1763.23,-1073.24
168545.0,8552.0400000000009,-402.31799999999998,3740.4699999999998,7914.9799999999996,751.44200000000001,2212.9299999999998,-1273.97
168546.0,8486.9699999999993,196.697,3743.0599999999999,7890.96,510.94799999999998,2615.4400000000001,-1441.3199999999999
168547.0,8455.1900000000005,756.33299999999997,3769.9299999999998,7779.3199999999997,291.52999999999997,2978.3800000000001,-1568.8
168548.0,8439.8099999999995,1280.0799999999999,3796.3200000000002,7583.1000000000004,90.024299999999997,3301.0999999999999,-1664.79
168549.0,10499.799999999999,-4012.1700000000001,4162.21,4199.7200000000003,2208.7600000000002,-2869.9200000000001,1121.3900000000001
168550.0,10389.200000000001,-4209.7399999999998,4131.9799999999996,4712.3800000000001,2239.75,-2279.4899999999998,919.19299999999998
168551.0,10217.0,-4241.2299999999996,4074.3000000000002,5212.3100000000004,2219.4299999999998,-1663.48,683.70000000000005
168552.0,10004.799999999999,-4095.5500000000002,4031.9000000000001,5705.3999999999996,2150.5500000000002,-1035.5599999999999,426.666
168553.0,9767.9200000000001,-3819.8000000000002,3978.5700000000002,6144.54,2036.3900000000001,-408.654,156.79499999999999
168554.0,9526.3799999999992,-3411.4699999999998,3944.0300000000002,6542.3100000000004,1881.6300000000001,203.00800000000001,-116.261
168555.0,9293.3600000000006,-2915.5700000000002,3902.77,6865.3199999999997,1692.03,788.47799999999995,-385.779
168556.0,9080.4599999999991,-2328.25,3881.0799999999999,7133.5600000000004,1473.02,1337.8099999999999,-644.44100000000003
168557.0,8896.1499999999996,-1695.8800000000001,3855.7600000000002,7318.6099999999997,1232.3199999999999,1843.49,-885.78399999999999
168558.0,8749.3999999999996,-1030.0999999999999,3850.73,7433.3900000000003,981.05899999999997,2301.0100000000002,-1100.95
168559.0,8644.8199999999997,-391.90800000000002,3846.98,7442.9200000000001,734.94799999999998,2710.8099999999999,-1281.3099999999999
168560.0,8584.8899999999994,201.22499999999999,3871.96,7356.4899999999998,512.16200000000003,3080.25,-1419.23
168561.0,8548.9500000000007,747.05999999999995,3894.23,7172.21,310.09699999999998,3409.1199999999999,-1523.53
168562.0,11311.0,-5101.0799999999999,4349.1800000000003,3175.3600000000001,2469.9099999999999,-2833.5100000000002,1409.3900000000001
168563.0,11169.700000000001,-5270.2600000000002,4310.6800000000003,3724.4099999999999,2505.3299999999999,-2240.1700000000001,1204.9100000000001
168564.0,10948.5,-5264.3900000000003,4241.1499999999996,4270.1099999999997,2489.3299999999999,-1619.3800000000001,962.83299999999997
168565.0,10679.1,-5079.2299999999996,4188.3000000000002,4812.3800000000001,2422.3299999999999,-986.87900000000002,697.16700000000003
168566.0,10376.1,-4754.1400000000003,4127.8500000000004,5309.2799999999997,2308.27,-355.452,416.69099999999997
168567.0,10065.299999999999,-4300.0100000000002,4081.4299999999998,5762.8800000000001,2151.46,261.327,130.80500000000001
168568.0,9760.7000000000007,-3749.5300000000002,4035.04,6148.4799999999996,1957.99,852.71600000000001,-152.94
168569.0,9477.5300000000007,-3112.5100000000002,4003.5599999999999,6472.9499999999998,1733.52,1408.71,-426.70699999999999
168570.0,9226.4599999999991,-2427.1799999999998,3972.46,6714.54,1486.24,1921.4400000000001,-683.64499999999998
168571.0,9020.4099999999999,-1712.74,3961.29,6878.71,1227.9400000000001,2386.0799999999999,-913.75199999999995
168572.0,8867.4200000000001,-1031.0999999999999,3953.1700000000001,6928.9099999999999,975.99300000000005,2802.5999999999999,-1107.54
168573.0,8772.9400000000005,-404.65699999999998,3974.7399999999998,6870.0600000000004,749.84100000000001,3178.1100000000001,-1256.29
168574.0,8712.0300000000007,164.423,3993.4699999999998,6701.1099999999997,547.43399999999997,3512.6300000000001,-1369.21
168575.0,12276.6,-6287.4799999999996,4524.1899999999996,2018.8800000000001,2746.3200000000002,-2779.5900000000001,1715.49
168576.0,12104.200000000001,-6409.21,4496.6199999999999,2619.9899999999998,2790.7399999999998,-2186.6599999999999,1506.55
168577.0,11828.4,-6365.7399999999998,4414.6999999999998,3208.9499999999998,2778.25,-1564.5,1256.96
168578.0,11493.700000000001,-6129.6899999999996,4354.5799999999999,3811.3899999999999,2713.3400000000001,-930.65700000000004,983.11199999999997
168579.0,11118.5,-5762.54,4276.6800000000003,4362.1899999999996,2599.1199999999999,-298.38200000000001,691.90200000000004
168580.0,10730.0,-5248.7200000000003,4228.1999999999998,4887.5600000000004,2440.1500000000001,321.363,393.57900000000001
168581.0,10345.200000000001,-4651.6899999999996,4165.7600000000002,5331.7399999999998,2242.6999999999998,916.404,95.625799999999998
168582.0,9981.9500000000007,-3953.46,4132.4799999999996,5727.6700000000001,2012.55,1477.6199999999999,-193.602
168583.0,9654.0100000000002,-3218.3400000000001,4089.75,6026.7600000000002,1758.4000000000001,1996.28,-466.38999999999999
168584.0,9378.4400000000005,-2447.9499999999998,4076.8299999999999,6251.0699999999997,1492.79,2467.3000000000002,-711.96400000000006
168585.0,9168.1299999999992,-1725.3800000000001,4059.96,6342.7799999999997,1234.8099999999999,2889.9200000000001,-919.64400000000001
168586.0,9032.2800000000007,-1061.6099999999999,4080.5599999999999,6318.2299999999996,1005.33,3270.96,-1079.6700000000001
168587.0,8942.0900000000001,-471.41500000000002,4093.3800000000001,6165.0500000000002,802.74300000000005,3610.71,-1201.4100000000001
168588.0,13398.799999999999,-7571.1499999999996,4688.29,725.35699999999997,3041.5300000000002,-2707.9000000000001,2030.02
168589.0,13196.700000000001,-7642.4399999999996,4672.9700000000003,1378.77,3098.2199999999998,-2117.8499999999999,1821.0599999999999
168590.0,12862.5,-7540.1599999999999,4599.3500000000004,2030.96,3086.1799999999998,-1499.0,1564.74
168591.0,12455.6,-7263.1099999999997,4516.1199999999999,2681.7399999999998,3024.0100000000002,-866.78700000000003,1284.0
168592.0,12003.4,-6830.7399999999998,4442.2299999999996,3311.9299999999998,2909.54,-236.90100000000001,983.37900000000002
168593.0,11529.299999999999,-6274.1899999999996,4369.6199999999999,3895.4200000000001,2748.4499999999998,382.32900000000001,672.29600000000005
168594.0,11057.1,-5609.8400000000001,4309.2299999999996,4423.71,2546.7800000000002,978.96000000000004,360.03500000000003
168595.0,10604.799999999999,-4863.6400000000003,4257.75,4882.0900000000001,2310.8000000000002,1543.5899999999999,55.156999999999996
168596.0,10190.700000000001,-4064.3000000000002,4215.1700000000001,5257.6199999999999,2049.4899999999998,2067.0999999999999,-233.934
168597.0,9835.9200000000001,-3247.0799999999999,4188.6400000000003,5536.9300000000003,1776.3499999999999,2543.5900000000001,-495.43200000000002
168598.0,9559.8700000000008,-2471.3400000000001,4173.21,5686.1999999999998,1512.0699999999999,2971.8600000000001,-717.34299999999996
168599.0,9375.8799999999992,-1778.0799999999999,4183.6899999999996,5691.0799999999999,1279.22,3357.8499999999999,-888.96699999999998
168600.0,9252.25,-1158.6500000000001,4198.4899999999998,5564.6700000000001,1076.76,3702.3699999999999,-1019.67
168601.0,14687.9,-8949.0,4859.79,-714.21299999999997,3361.6500000000001,-2615.8099999999999,2346.8600000000001
168602.0,14450.799999999999,-8951.6700000000001,4868.5799999999999,10.5801,3426.3800000000001,-2028.9300000000001,2144.3400000000001
168603.0,14057.0,-8794.4200000000001,4793.2399999999998,718.25099999999998,3415.0799999999999,-1418.75,1889.53
168604.0,13571.0,-8460.9400000000005,4695.1199999999999,1434.48,3355.2600000000002,-795.45799999999997,1600.47
168605.0,13035.200000000001,-7984.3400000000001,4598.3000000000002,2128.0999999999999,3240.2199999999998,-171.70400000000001,1289.51
168606.0,12470.200000000001,-7357.5500000000002,4527.2200000000003,2800.6399999999999,3076.9099999999999,443.714,966.87800000000004
168607.0,11903.6,-6644.4899999999998,4446.8800000000001,3399.3099999999999,2871.02,1039.3599999999999,640.43499999999995
168608.0,11354.9,-5830.4700000000003,4394.2600000000002,3945.6300000000001,2628.9400000000001,1605.53,319.58300000000003
168609.0,10846.5,-4978.5,4337.4300000000003,4390.9799999999996,2360.1900000000001,2132.75,14.013299999999999
168610.0,10404.0,-4099.6999999999998,4309.7299999999996,4744.6999999999998,2079.1999999999998,2614.0100000000002,-263.78699999999998
168611.0,10054.0,-3280.8899999999999,4283.6099999999997,4945.2299999999996,1808.5,3047.23,-500.334
168612.0,9815.8799999999992,-2547.71,4293.3500000000004,4993.5799999999999,1572.3,3437.5900000000001,-683.90700000000004
168613.0,9654.8199999999997,-1907.78,4301.0600000000004,4888.1099999999997,1370.2,3786.29,-823.79899999999998
168614.0,16160.9,-10369.299999999999,5108.9399999999996,-2248.6799999999998,3699.4899999999998,-2492.1399999999999,2686.7800000000002
168615.0,15868.700000000001,-10355.9,5061.8900000000003,-1514.8399999999999,3771.8400000000001,-1919.8900000000001,2484.1799999999998
168616.0,15407.299999999999,-10140.299999999999,4973.6099999999997,-741.47699999999998,3765.77,-1326.76,2224.5100000000002
168617.0,14843.799999999999,-9746.0200000000004,4870.8299999999999,44.1676,3706.3899999999999,-715.56200000000001,1931.4200000000001
168618.0,14218.700000000001,-9192.5799999999999,4778.75,831.32100000000003,3591.8499999999999,-102.18000000000001,1613.1400000000001
168619.0,13557.4,-8524.7900000000009,4676.1700000000001,1572.4400000000001,3426.2600000000002,504.26900000000001,1277.6800000000001
168620.0,12890.0,-7735.6099999999997,4599.8699999999999,2274.6199999999999,3215.9099999999999,1096.3599999999999,936.60799999999995
168621.0,12239.0,-6872.8400000000001,4525.3699999999999,2896.1199999999999,2967.6599999999999,1662.21,599.88199999999995
168622.0,11629.0,-5949.6099999999997,4470.1700000000001,3435.3899999999999,2691.1599999999999,2192.02,277.375
168623.0,11091.4,-5022.8800000000001,4425.5,3855.02,2402.0599999999999,2677.1500000000001,-17.005400000000002
168624.0,10660.700000000001,-4145.3000000000002,4402.3699999999999,4126.8800000000001,2124.6799999999998,3114.8899999999999,-268.488
168625.0,10362.9,-3383.0700000000002,4399.4799999999996,4211.5299999999997,1885.1300000000001,3509.1100000000001,-464.17500000000001
168626.0,10161.200000000001,-2712.4099999999999,4410.1700000000001,4140.4899999999998,1683.6800000000001,3861.5300000000002,-613.32299999999998
168627.0,17796.599999999999,-11947.799999999999,5288.0,-3990.4499999999998,4057.5900000000001,-2348.5900000000001,3029.73
168628.0,17452.700000000001,-11841.1,5270.1000000000004,-3183.7399999999998,4136.4799999999996,-1786.1700000000001,2833.8099999999999
168629.0,16931.700000000001,-11545.1,5196.4700000000003,-2340.8299999999999,4139.3800000000001,-1211.79,2579.8600000000001
168630.0,16278.799999999999,-11093.700000000001,5070.2399999999998,-1481.6300000000001,4079.8299999999999,-626.38599999999997,2279.7199999999998
168631.0,15554.299999999999,-10500.200000000001,4936.0,-627.16300000000001,3965.21,-30.9526,1950.3900000000001
168632.0,14794.299999999999,-9743.7399999999998,4850.6999999999998,234.59399999999999,3797.2199999999998,563.59299999999996,1604.6800000000001
168633.0,14020.799999999999,-8910.9400000000005,4743.21,1016.4,3582.5999999999999,1148.23,1249.4300000000001
168634.0,13261.5,-7970.8400000000001,4672.6099999999997,1749.8,3327.5599999999999,1712.26,895.90999999999997
168635.0,12543.799999999999,-6996.6899999999996,4596.5100000000002,2369.1199999999999,3043.0300000000002,2243.29,556.41499999999996
168636.0,11905.1,-6000.3299999999999,4554.4700000000003,2881.98,2745.46,2731.8800000000001,245.06299999999999
168637.0,11387.6,-5080.9200000000001,4515.7299999999996,3212.96,2461.25,3173.4099999999999,-21.651800000000001
168638.0,11025.700000000001,-4274.3000000000002,4514.71,3353.3099999999999,2218.3800000000001,3571.0300000000002,-229.708
168639.0,10780.6,-3586.4899999999998,4514.96,3306.6999999999998,2017.8099999999999,3926.4299999999998,-388.32499999999999
168640.0,19632.700000000001,-13531.0,5599.6700000000001,-5817.0900000000001,4437.5100000000002,-2155.6399999999999,3391.8499999999999
168641.0,19208.200000000001,-13434.1,5463.5,-5046.6999999999998,4521.9200000000001,-1627.55,3198.8499999999999
168642.0,18603.400000000001,-13088.0,5346.8299999999999,-4145.04,4532.1000000000004,-1086.79,2942.04
168643.0,17876.299999999999,-12540.0,5256.0200000000004,-3179.0799999999999,4473.2600000000002,-525.31200000000001,2643.5799999999999
168644.0,17051.599999999999,-11846.299999999999,5139.3900000000003,-2204.1700000000001,4359.6199999999999,45.171999999999997,2311.3099999999999
168645.0,16182.200000000001,-11061.299999999999,5000.6400000000003,-1266.0899999999999,4191.3500000000004,618.39999999999998,1950.3800000000001
168646.0,15298.0,-10139.9,4908.0799999999999,-347.75700000000001,3971.3200000000002,1192.9400000000001,1577.9400000000001
168647.0,14425.299999999999,-9152.4400000000005,4809.6899999999996,474.798,3709.3800000000001,1753.5999999999999,1207.98
168648.0,13594.799999999999,-8100.1800000000003,4738.1099999999997,1208.98,3416.3699999999999,2285.0999999999999,850.78999999999996
168649.0,12849.5,-7055.7299999999996,4675.0799999999999,1799.5799999999999,3110.0999999999999,2776.3299999999999,522.39200000000005
168650.0,12240.700000000001,-6073.21,4640.6099999999997,2216.29,2818.7600000000002,3221.54,240.178
168651.0,11810.9,-5237.8100000000004,4625.0500000000002,2401.0100000000002,2572.46,3621.98,19.715299999999999
168652.0,11520.700000000001,-4519.4300000000003,4628.3299999999999,2396.0100000000002,2373.1599999999999,3980.0100000000002,-148.28
168653.0,21616.599999999999,-15367.200000000001,5728.4700000000003,-7962.6400000000003,4838.3000000000002,-1937.6900000000001,3747.77
168654.0,21147.900000000001,-15113.1,5687.5900000000001,-7073.8400000000001,4924.2600000000002,-1428.8900000000001,3572.54
168655.0,20479.299999999999,-14640.299999999999,5611.8900000000003,-6080.5699999999997,4943.8100000000004,-923.12900000000002,3339.5
168656.0,19636.099999999999,-14066.700000000001,5433.8500000000004,-5057.0799999999999,4887.5200000000004,-418.25099999999998,3035.1300000000001
168657.0,18691.299999999999,-13350.4,5244.8500000000004,-4005.9400000000001,4773.1300000000001,115.104,2685.6900000000001
168658.0,17721.099999999999,-12428.6,5173.5,-2885.73,4608.1400000000003,668.66200000000003,2314.0900000000001
168659.0,16726.799999999999,-11461.1,5059.0500000000002,-1864.26,4384.1599999999999,1228.51,1925.4200000000001
168660.0,15732.299999999999,-10387.6,4968.2200000000003,-902.77099999999996,4113.6199999999999,1783.95,1535.8599999999999
168661.0,14784.4,-9286.3899999999994,4870.3199999999997,-74.125100000000003,3811.98,2315.1500000000001,1160.95
168662.0,13928.0,-8166.5799999999999,4812.1300000000001,628.56200000000001,3496.3499999999999,2809.0999999999999,814.86300000000006
168663.0,13223.700000000001,-7142.7700000000004,4758.71,1114.55,3197.7600000000002,3257.46,517.01300000000003
168664.0,12723.1,-6260.6700000000001,4745.9300000000003,1366.21,2947.9400000000001,3660.3699999999999,283.92500000000001
168665.0,12386.5,-5527.4700000000003,4737.1199999999999,1391.1600000000001,2750.25,4020.23,106.361
168666.0,23880.400000000001,-17066.400000000001,6203.0900000000001,-10103.299999999999,5257.5799999999999,-1611.24,4148.6099999999997
168667.0,23280.5,-16891.099999999999,5896.3299999999999,-9364.1100000000006,5355.96,-1193.8499999999999,3968.3200000000002
168668.0,22467.900000000001,-16459.5,5633.6499999999996,-8377.9400000000005,5377.5500000000002,-767.11500000000001,3715.4200000000001
168669.0,21554.900000000001,-15712.0,5569.4099999999999,-7163.04,5325.8500000000004,-299.834,3425.4499999999998
168670.0,20514.599999999999,-14839.1,5460.2299999999996,-5919.2600000000002,5217.9899999999998,187.98400000000001,3082.1399999999999
168671.0,19414.700000000001,-13925.299999999999,5291.96,-4717.9499999999998,5051.96,706.06299999999999,2691.3299999999999
168672.0,18302.099999999999,-12832.0,5233.3199999999997,-3493.0900000000001,4820.7700000000004,1251.75,2286.5700000000002
168673.0,17185.599999999999,-11715.6,5111.5900000000001,-2426.3200000000002,4541.5900000000001,1799.95,1881.02
168674.0,16114.0,-10527.1,5022.96,-1454.98,4230.5,2331.27,1486.4300000000001
168675.0,15142.700000000001,-9362.8700000000008,4937.9499999999998,-662.93299999999999,3904.9699999999998,2827.71,1122.52
168676.0,14339.1,-8270.1499999999996,4891.46,-74.424700000000001,3598.6399999999999,3279.6999999999998,808.67700000000002
168677.0,13765.4,-7361.2600000000002,4861.3699999999999,229.20500000000001,3345.27,3684.6500000000001,563.09100000000001
168678.0,13381.700000000001,-6598.1499999999996,4855.6800000000003,303.31700000000001,3149.4299999999998,4046.2199999999998,376.113
168679.0,26257.299999999999,-19325.299999999999,6145.96,-12903.9,5694.25,-1252.3699999999999,4509.5100000000002
168680.0,25677.900000000001,-18758.400000000001,6201.1499999999996,-11862.9,5796.1300000000001,-860.58100000000002,4394.3500000000004
168681.0,24826.700000000001,-18003.599999999999,6164.4799999999996,-10667.0,5840.3900000000003,-507.01799999999997,4189.3900000000003
168682.0,23701.0,-17371.799999999999,5784.54,-9499.3400000000001,5801.04,-171.54900000000001,3864.25
168683.0,22496.400000000001,-16525.0,5541.1800000000003,-8140.7799999999997,5694.1800000000003,246.87100000000001,3484.6500000000001
168684.0,21289.799999999999,-15397.700000000001,5533.5699999999997,-6635.8500000000004,5522.8699999999999,735.69100000000003,3089.3600000000001
168685.0,20041.599999999999,-14307.0,5390.8000000000002,-5311.0600000000004,5284.6300000000001,1258.3900000000001,2671.0500000000002
168686.0,18785.0,-13089.0,5285.5699999999997,-4052.5799999999999,4994.6400000000003,1798.55,2242.7800000000002
168687.0,17585.599999999999,-11862.700000000001,5158.8699999999999,-2975.4899999999998,4672.8199999999997,2329.4400000000001,1828.22
168688.0,16494.200000000001,-10611.6,5086.7299999999996,-2043.72,4336.4200000000001,2830.5500000000002,1445.05
168689.0,15588.299999999999,-9482.7299999999996,5014.0500000000002,-1378.8699999999999,4021.9499999999998,3285.7600000000002,1114.9400000000001
168690.0,14939.5,-8522.8999999999996,4990.1800000000003,-994.29399999999998,3764.7399999999998,3693.1999999999998,856.61599999999999
168691.0,14508.0,-7749.6499999999996,4969.0200000000004,-886.29700000000003,3571.1100000000001,4055.3699999999999,660.18200000000002
168692.0,29195.700000000001,-21077.0,7030.6300000000001,-15410.299999999999,6153.1599999999999,-574.89300000000003,4998.1099999999997
168693.0,28333.299999999999,-20730.700000000001,6433.5699999999997,-14894.4,6296.1700000000001,-447.81599999999997,4824.5699999999997
168694.0,27220.700000000001,-20251.400000000001,5896.4399999999996,-13814.6,6329.1599999999999,-304.92200000000003,4607.2399999999998
168695.0,26074.799999999999,-19142.299999999999,5998.4399999999996,-12104.9,6291.8999999999996,-7.7895099999999999,4338.71
168696.0,24769.200000000001,-18019.5,5957.7799999999997,-10411.299999999999,6203.1599999999999,321.334,3974.71
168697.0,23350.700000000001,-17059.599999999999,5664.8400000000001,-8863.5,6026.5799999999999,733.91800000000001,3528.71
168698.0,21933.0,-15812.0,5592.3599999999997,-7237.6499999999996,5772.5699999999997,1238.77,3073.7800000000002
168699.0,20538.0,-14578.9,5425.5200000000004,-5860.0100000000002,5475.25,1773.3199999999999,2624.3800000000001
168700.0,19201.0,-13242.6,5330.0500000000002,-4587.2299999999996,5140.0500000000002,2307.73,2186.1799999999998
168701.0,17983.5,-11958.700000000001,5215.1300000000001,-3561.25,4791.7799999999997,2813.4099999999999,1782.8800000000001
168702.0,16972.5,-10750.6,5158.3000000000002,-2769.77,4468.1199999999999,3274.6500000000001,1435.77
168703.0,16246.0,-9768.8199999999997,5111.1899999999996,-2328.8099999999999,4206.7600000000002,3683.77,1164.73
168704.0,15767.0,-8965.6800000000003,5094.8999999999996,-2162.1900000000001,4015.5100000000002,4047.1300000000001,959.14499999999998
168705.0,32362.700000000001,-24679.200000000001,6090.3000000000002,-19961.400000000001,6408.3800000000001,110.17100000000001,5780.6999999999998
168706.0,31510.299999999999,-23271.099999999999,6466.5799999999999,-18387.0,6639.6199999999999,256.98700000000002,5701.0200000000004
168707.0,30434.700000000001,-21508.5,7059.4700000000003,-16587.400000000001,6875.1800000000003,240.364,5308.3400000000001
168708.0,28819.0,-20943.299999999999,6248.0699999999997,-15280.299999999999,6863.3100000000004,113.322,4889.75
168709.0,27170.200000000001,-20059.099999999999,5833.2299999999996,-13336.4,6745.7399999999998,318.49099999999999,4466.8400000000001
168710.0,25625.0,-18607.200000000001,6001.79,-11144.5,6561.7200000000003,712.495,4012.5
168711.0,24033.700000000001,-17460.5,5760.0500000000002,-9422.3899999999994,6299.9700000000003,1179.6500000000001,3522.1999999999998
168712.0,22445.700000000001,-16094.200000000001,5620.2700000000004,-7759.04,5984.9399999999996,1719.51,3026.6300000000001
168713.0,20964.200000000001,-14741.200000000001,5466.5,-6368.2600000000002,5634.1700000000001,2259.0599999999999,2562.3200000000002
168714.0,19612.200000000001,-13350.700000000001,5378.4200000000001,-5161.5600000000004,5271.8699999999999,2775.2600000000002,2135.96
168715.0,18490.900000000001,-12113.9,5285.6000000000004,-4288.3400000000001,4937.8999999999996,3242.4299999999998,1770.6199999999999
168716.0,17685.200000000001,-11076.700000000001,5248.4499999999998,-3751.4200000000001,4671.5600000000004,3655.4200000000001,1486.24
168717.0,17157.599999999999,-10266.700000000001,5215.25,-3545.77,4482.71,4018.3499999999999,1271.53
168718.0,38776.300000000003,-26359.599999999999,9188.6399999999994,-24286.099999999999,7445.3299999999999,2760.4400000000001,6329.2600000000002
168719.0,36780.5,-25335.700000000001,7700.6199999999999,-24368.099999999999,7417.3199999999997,1281.5699999999999,6388.9399999999996
168720.0,33780.199999999997,-25512.099999999999,5118.79,-22480.099999999999,7269.7200000000003,473.69999999999999,6514.3599999999997
168721.0,31919.900000000001,-23168.900000000001,6151.8800000000001,-18858.900000000001,7394.1199999999999,388.30700000000002,5845.0600000000004
168722.0,30161.900000000001,-21392.599999999999,6646.6199999999999,-16186.700000000001,7375.2799999999997,363.06099999999998,5126.0299999999997
168723.0,28156.099999999999,-20647.700000000001,5941.1499999999996,-14102.4,7154.8100000000004,559.048,4563.5699999999997
168724.0,26283.599999999999,-19124.900000000001,5962.9200000000001,-11690.299999999999,6867.6000000000004,1077.02,3987.4200000000001
168725.0,24537.0,-17776.700000000001,5755.9899999999998,-9902.1200000000008,6527.6000000000004,1618.71,3458.75
168726.0,22879.200000000001,-16267.799999999999,5658.1199999999999,-8226.5900000000001,6159.1700000000001,2184.1999999999998,2957.4899999999998
168727.0,21382.200000000001,-14858.6,5509.71,-6920.2799999999997,5777.9399999999996,2709.0300000000002,2505.4699999999998
168728.0,20145.5,-13527.200000000001,5442.8800000000001,-5888.3000000000002,5432.54,3189.5100000000002,2119.6500000000001
168729.0,19256.200000000001,-12471.4,5377.54,-5289.5799999999999,5159.6700000000001,3605.8099999999999,1821.76
168730.0,18679.400000000001,-11635.9,5345.3500000000004,-5019.9899999999998,4972.8299999999999,3969.7399999999998,1598.78
168731.0,41822.199999999997,-47956.099999999999,-8729.8400000000001,-38556.0,3396.75,5805.1000000000004,10878.9
168732.0,43769.900000000001,-32672.599999999999,3085.6999999999998,-34163.400000000001,7242.1000000000004,5498.1300000000001,10544.9
168733.0,43005.5,-24651.200000000001,10455.4,-28623.5,9439.0,2003.1600000000001,7798.4799999999996
168734.0,37346.199999999997,-25260.900000000001,7176.2799999999997,-25042.700000000001,8349.6000000000004,346.334,6833.4300000000003
168735.0,33274.900000000001,-24525.5,5265.3400000000001,-20945.400000000001,8110.4399999999996,102.80200000000001,6223.46
168736.0,31109.700000000001,-22219.099999999999,6615.7600000000002,-16740.400000000001,7803.6499999999996,406.61099999999999,5200.6499999999996
168737.0,28873.200000000001,-21040.900000000001,6076.9700000000003,-14458.200000000001,7502.3400000000001,872.13999999999999,4557.79
168738.0,26824.099999999999,-19470.099999999999,5996.0500000000002,-12071.700000000001,7118.6000000000004,1480.9400000000001,3919.1199999999999
168739.0,24947.0,-17951.5,5774.9200000000001,-10317.799999999999,6714.2200000000003,2067.5,3376.0100000000002
168740.0,23304.299999999999,-16402.5,5697.5500000000002,-8744.2000000000007,6314.79,2618.8400000000001,2891.0500000000002
168741.0,21925.0,-15043.9,5566.1099999999997,-7632.0200000000004,5951.4899999999998,3111.1199999999999,2480.4499999999998
168742.0,20956.299999999999,-13926.0,5522.6300000000001,-6909.7200000000003,5670.9200000000001,3538.52,2168.1900000000001
168743.0,20316.200000000001,-13081.1,5464.3400000000001,-6594.6800000000003,5482.1000000000004,3899.3600000000001,1937.1800000000001
168744.0,35849.5,-82040.699999999997,-43676.199999999997,-62540.400000000001,340.29000000000002,2212.1500000000001,7442.7200000000003
168745.0,40111.5,-76128.699999999997,-45214.099999999999,-65738.5,-187.62100000000001,7859.46,15067.1
168746.0,46431.800000000003,-44329.099999999999,-14185.799999999999,-48093.099999999999,6112.4700000000003,5533.9899999999998,17471.0
168747.0,46207.400000000001,-29499.400000000001,5433.3500000000004,-34489.900000000001,10286.9,732.06200000000001,11496.799999999999
168748.0,39623.099999999999,-25623.400000000001,8213.5599999999995,-25696.700000000001,9311.3799999999992,-322.04700000000003,7351.8299999999999
168749.0,34423.0,-24934.200000000001,5669.5699999999997,-21303.900000000001,8788.5200000000004,-71.763999999999996,6179.1599999999999
168750.0,31753.799999999999,-23159.799999999999,6362.6000000000004,-17097.5,8173.7700000000004,487.07100000000003,5092.8699999999999
168751.0,29292.400000000001,-21338.400000000001,6077.8100000000004,-14629.5,7770.3999999999996,1325.1400000000001,4431.5500000000002
168752.0,27240.200000000001,-19709.900000000001,5993.3699999999999,-12466.299999999999,7314.4300000000003,1893.01,3822.3400000000001
168753.0,25351.799999999999,-18050.099999999999,5829.1199999999999,-10750.5,6881.5200000000004,2516.0799999999999,3289.6500000000001
168754.0,23853.799999999999,-16612.900000000001,5730.8400000000001,-9451.9200000000001,6500.6400000000003,3011.5900000000001,2857.6199999999999
168755.0,22748.700000000001,-15420.0,5662.1800000000003,-8614.5499999999993,6198.6400000000003,3457.4099999999999,2521.5300000000002
168756.0,22058.799999999999,-14587.9,5576.3900000000003,-8245.75,6009.0200000000004,3812.1700000000001,2289.8000000000002
168757.0,39800.300000000003,-84232.899999999994,-39845.699999999997,-68434.800000000003,4001.3600000000001,-1951.74,1418.23
168758.0,29646.700000000001,-120777.0,-89815.399999999994,-100486.0,-3252.4499999999998,4007.1300000000001,4355.6300000000001
168759.0,32634.599999999999,-104124.0,-89776.600000000006,-99903.899999999994,978.99900000000002,7996.2399999999998,15353.799999999999
168760.0,47985.900000000001,-49867.0,-25647.700000000001,-57227.0,11426.9,2682.1700000000001,18888.700000000001
168761.0,48350.0,-32826.300000000003,3994.79,-36124.300000000003,10958.0,-2086.96,12600.5
168762.0,39334.400000000001,-28015.400000000001,5921.6400000000003,-25547.700000000001,9803.3500000000004,-1214.51,7754.2200000000003
168763.0,35041.599999999999,-25041.599999999999,6866.3299999999999,-19741.200000000001,9096.4500000000007,424.15600000000001,5832.3699999999999
168764.0,32086.400000000001,-23657.200000000001,5988.6199999999999,-17696.799999999999,8455.6900000000005,894.74300000000005,4997.9799999999996
168765.0,29728.799999999999,-21437.400000000001,6338.8299999999999,-14583.1,7987.29,1762.4400000000001,4280.8999999999996
168766.0,27558.0,-19900.200000000001,5858.1899999999996,-13011.6,7487.04,2357.3800000000001,3701.27
168767.0,25891.200000000001,-18156.299999999999,5965.8800000000001,-11288.9,7073.2799999999997,2925.8099999999999,3224.8600000000001
168768.0,24597.5,-17004.900000000001,5718.5600000000004,-10452.799999999999,6737.7299999999996,3352.0999999999999,2871.48
168769.0,23821.0,-16018.9,5754.0600000000004,-9823.2099999999991,6524.0500000000002,3720.2800000000002,2625.5300000000002
168770.0,47411.099999999999,-78428.399999999994,-29696.5,-71287.0,4469.4700000000003,-2609.3699999999999,5467.4200000000001
168771.0,38672.400000000001,-119350.0,-75088.600000000006,-101160.0,1850.6600000000001,-383.29399999999998,-42.462299999999999
168772.0,29090.400000000001,-156635.0,-136559.0,-140123.0,-9196.6000000000004,8014.9499999999998,4304.7399999999998
168773.0,40221.800000000003,-112859.0,-115873.0,-118793.0,6609.2799999999997,8395.0300000000007,20403.400000000001
168774.0,58432.599999999999,-44765.199999999997,-14830.0,-51278.300000000003,20328.299999999999,-2802.9299999999998,18417.099999999999
168775.0,49840.199999999997,-31628.0,12734.200000000001,-29353.700000000001,10515.700000000001,-4193.8299999999999,8703.5699999999997
168776.0,37428.400000000001,-28809.400000000001,3043.6999999999998,-25419.400000000001,10544.0,556.71799999999996,7030.8100000000004
168777.0,35865.800000000003,-25427.299999999999,7671.3599999999997,-19583.400000000001,9224.3500000000004,217.012,5618.54
168778.0,32156.5,-23846.200000000001,5773.9499999999998,-17628.0,8706.9099999999999,1619.8199999999999,4722.3299999999999
168779.0,30104.299999999999,-21505.900000000001,6437.4700000000003,-14884.299999999999,8183.3500000000004,2192.1500000000001,4135.3000000000002
168780.0,27923.200000000001,-19946.599999999999,5877.6899999999996,-13523.0,7634.3000000000002,2851.9000000000001,3567.75
168781.0,26528.900000000001,-18336.5,6065.1000000000004,-12022.299999999999,7301.6599999999999,3255.8299999999999,3204.7399999999998
168782.0,25378.0,-17443.299999999999,5706.0900000000001,-11478.700000000001,6978.71,3615.8600000000001,2905.1199999999999
168783.0,49974.800000000003,-34237.0,7568.75,-35637.199999999997,14238.9,2467.1700000000001,4573.7600000000002
168784.0,53676.5,-38092.0,7447.6899999999996,-38605.900000000001,15246.799999999999,2175.8600000000001,4900.6099999999997
168785.0,57860.699999999997,-41570.199999999997,8219.1800000000003,-40860.099999999999,16429.700000000001,1868.23,5274.0100000000002
168786.0,62102.699999999997,-46486.0,7577.8800000000001,-44668.400000000001,17584.200000000001,1666.3099999999999,5563.5500000000002
168787.0,67496.0,-50343.599999999999,9081.5799999999999,-46702.400000000001,19267.200000000001,1399.0599999999999,5998.0799999999999
168788.0,73235.199999999997,-58044.300000000003,7303.5200000000004,-53051.699999999997,20571.599999999999,1814.0799999999999,6189.7600000000002
168789.0,81001.100000000006,-60864.400000000001,9271.9200000000001,-57126.099999999999,24005.799999999999,2030.46,7049.4200000000001
168790.0,94095.899999999994,-77523.800000000003,5512.1700000000001,-69799.100000000006,27630.700000000001,1303.52,9043.5100000000002
168791.0,123049.0,-100076.0,-3606.77,-91096.100000000006,45355.599999999999,-6688.8599999999997,10241.799999999999
168792.0,126422.0,-203135.0,-237064.0,-257560.0,67065.800000000003,-979.76199999999994,8555.3400000000001
168793.0,86323.800000000003,-363389.0,-454029.0,-439091.0,-5901.6599999999999,7480.6000000000004,-5614.6700000000001
168794.0,79595.600000000006,-338322.0,-301079.0,-352949.0,-36750.599999999999,6090.4700000000003,-2978.0599999999999
168795.0,84921.100000000006,-251612.0,-167143.0,-241412.0,3494.04,9423.5400000000009,13305.299999999999
168796.0,48108.699999999997,-33080.099999999999,7301.2299999999996,-33961.800000000003,13697.9,2745.0900000000001,4542.6300000000001
168797.0,51918.599999999999,-36503.300000000003,7729.9799999999996,-36392.199999999997,14761.799999999999,2426.71,4914.5699999999997
168798.0,55925.5,-40675.0,7584.1899999999996,-39513.900000000001,15881.6,2046.9200000000001,5296.0500000000002
168799.0,60572.400000000001,-44674.599999999999,8386.0200000000004,-41841.699999999997,17226.799999999999,1726.96,5675.7600000000002
168800.0,65619.199999999997,-50562.5,7447.1499999999996,-46272.400000000001,18747.5,1473.1500000000001,6064.0500000000002
168801.0,72419.199999999997,-55831.300000000003,9560.5499999999993,-47933.699999999997,20809.099999999999,1245.03,6293.1599999999999
168802.0,80815.800000000003,-67872.199999999997,4040.3400000000001,-57796.599999999999,24626.0,3669.3299999999999,6406.1400000000003
168803.0,99501.5,-74328.199999999997,15627.4,-62987.400000000001,28692.799999999999,5806.8100000000004,6560.0299999999997
168804.0,114954.0,-101615.0,-22461.700000000001,-106543.0,44201.599999999999,2107.25,14835.799999999999
168805.0,103635.0,-201825.0,-208522.0,-249667.0,37541.900000000001,12061.1,36797.800000000003
168806.0,101652.0,-288176.0,-308675.0,-343666.0,-16149.9,27397.299999999999,40567.0
168807.0,101103.0,-264136.0,-206848.0,-295222.0,-24755.0,19423.5,20186.400000000001
168808.0,99979.300000000003,-202668.0,-115923.0,-221020.0,4895.9399999999996,3483.4499999999998,12030.700000000001
168809.0,46148.599999999999,-31697.799999999999,7201.5299999999997,-31981.900000000001,13127.9,3012.5300000000002,4514.8500000000004
168810.0,49857.800000000003,-35174.099999999999,7457.1300000000001,-34550.400000000001,14158.799999999999,2595.2199999999998,4931.5100000000002
168811.0,53982.800000000003,-39146.900000000001,7653.9700000000003,-37337.900000000001,15323.299999999999,2231.5999999999999,5349.8599999999997
168812.0,58470.400000000001,-43494.599999999999,7767.8100000000004,-40368.0,16653.400000000001,1664.47,5806.21
168813.0,64033.599999999999,-48930.5,8188.0900000000001,-43300.400000000001,18311.799999999999,1369.8399999999999,6220.0
168814.0,70472.199999999997,-55784.099999999999,7602.3800000000001,-48102.400000000001,20306.700000000001,764.19600000000003,6771.3100000000004
168815.0,80020.600000000006,-65380.900000000001,6738.3800000000001,-50394.599999999999,25267.900000000001,110.82899999999999,6901.2799999999997
168816.0,106906.0,-94601.5,2991.73,-64466.099999999999,35409.699999999997,6387.4200000000001,4216.4300000000003
168817.0,149525.0,-119408.0,-4029.5,-110046.0,50223.599999999999,27717.700000000001,7441.0900000000001
168818.0,178286.0,-125877.0,-68053.100000000006,-208119.0,54773.099999999999,51005.699999999997,6275.9700000000003
168819.0,173869.0,-177281.0,-164140.0,-322761.0,19964.0,41800.699999999997,-13465.6
168820.0,144126.0,-224427.0,-167014.0,-328017.0,-5269.9200000000001,6101.0600000000004,-14176.9
168821.0,117036.0,-194420.0,-103540.0,-232040.0,6214.0600000000004,-12215.299999999999,3681.73
168822.0,44063.800000000003,-30128.099999999999,7193.71,-29832.799999999999,12502.5,3205.77,4467.3299999999999
168823.0,47777.300000000003,-33811.099999999999,7182.9700000000003,-32673.5,13562.4,2812.9200000000001,4897.0799999999999
168824.0,51766.699999999997,-37364.699999999997,7704.2299999999996,-35065.0,14659.1,2248.5799999999999,5388.4300000000003
168825.0,56470.800000000003,-42271.300000000003,7405.29,-38601.0,16087.0,1875.25,5862.9700000000003
168826.0,61684.0,-46761.099999999999,8044.1099999999997,-41260.699999999997,17754.900000000001,851.41899999999998,6445.0699999999997
168827.0,69688.800000000003,-55595.400000000001,8318.7099999999991,-45717.5,19673.700000000001,960.029,6864.1800000000003
168828.0,76414.300000000003,-62080.300000000003,2862.3600000000001,-53169.0,25146.0,-1244.55,8550.0499999999993
168829.0,115426.0,-91937.100000000006,20297.799999999999,-48924.199999999997,33077.300000000003,-3300.1799999999998,11386.5
168830.0,187980.0,-174580.0,-59779.0,-109940.0,88943.399999999994,17671.900000000001,-15599.700000000001
168831.0,277519.0,-358399.0,-470966.0,-421079.0,115833.0,36062.300000000003,-88164.699999999997
168832.0,270096.0,-522337.0,-693154.0,-664086.0,-3537.1700000000001,-602.90800000000002,-126300.0
168833.0,178908.0,-401311.0,-374445.0,-474789.0,-43376.300000000003,-42684.599999999999,-65326.800000000003
168834.0,126072.0,-223001.0,-125528.0,-247346.0,8671.9899999999998,-32374.0,-4381.3199999999997
168835.0,41903.400000000001,-28960.599999999999,6702.9799999999996,-28109.099999999999,11854.6,3410.3499999999999,4364.9099999999999
168836.0,45614.699999999997,-31777.5,7577.9300000000003,-30022.099999999999,12921.9,2929.9899999999998,4870.8199999999997
168837.0,49369.099999999999,-36355.5,6691.1899999999996,-33794.400000000001,13964.6,2389.2199999999998,5348.6499999999996
168838.0,54330.599999999999,-39512.099999999999,8647.3899999999994,-35031.599999999999,15418.4,1676.3599999999999,5960.2299999999996
168839.0,59270.0,-46924.300000000003,5289.96,-41696.800000000003,17335.900000000001,1292.26,6470.8599999999997
168840.0,68833.899999999994,-51239.800000000003,12729.799999999999,-40204.300000000003,18905.900000000001,-453.75099999999998,7239.6099999999997
168841.0,73315.100000000006,-66400.5,-8346.3400000000001,-60147.900000000001,26889.099999999999,1125.5899999999999,7207.6300000000001
168842.0,111787.0,-81453.800000000003,27235.200000000001,-49778.400000000001,28750.5,-11628.5,8889.7900000000009
168843.0,192325.0,-194637.0,-95782.5,-104803.0,89670.100000000006,-20857.0,29438.900000000001
168844.0,334151.0,-622028.0,-903317.0,-622949.0,103084.0,10122.1,14206.6
168845.0,381568.0,-926192.0,-1266390.0,-966503.0,-96110.199999999997,-4714.6899999999996,-68724.699999999997
168846.0,242626.0,-639405.0,-623814.0,-598544.0,-109916.0,-54129.199999999997,-64697.900000000001
168847.0,120760.0,-300887.0,-196362.0,-271460.0,7553.8500000000004,-42418.599999999999,-9970.6599999999999
168848.0,39886.800000000003,-27123.700000000001,7030.6800000000003,-25550.900000000001,11299.5,3568.8600000000001,4259.7700000000004
168849.0,43131.900000000001,-30721.299999999999,6696.2299999999996,-28562.5,12119.200000000001,3032.1799999999998,4767.8800000000001
168850.0,47313.300000000003,-33691.400000000001,7732.0600000000004,-30455.599999999999,13443.9,2518.4400000000001,5322.1400000000003
168851.0,51260.0,-38912.0,6580.0,-34717.5,14337.9,1533.0599999999999,5986.3999999999996
168852.0,57713.300000000003,-42986.599999999999,8199.8500000000004,-36096.400000000001,17140.400000000001,1028.95,6618.9300000000003
168853.0,62380.300000000003,-55000.900000000001,417.79700000000003,-47506.599999999999,18770.599999999999,-1445.53,6217.1999999999998
168854.0,67994.5,-66546.699999999997,-11143.1,-54711.400000000001,25067.900000000001,-2612.96,7385.9499999999998
168855.0,85889.5,-106918.0,-36539.800000000003,-90622.5,28937.900000000001,-13663.4,8812.2299999999996
168856.0,174197.0,-144270.0,-25008.400000000001,-110875.0,55447.5,-36320.599999999999,44000.5
168857.0,276668.0,-408990.0,-591029.0,-463618.0,87235.800000000003,8686.2800000000007,95412.800000000003
168858.0,340883.0,-847125.0,-1152320.0,-890168.0,-95547.100000000006,35889.599999999999,32082.599999999999
168859.0,255882.0,-715078.0,-687110.0,-610090.0,-134653.0,-13668.9,-23471.5
168860.0,116961.0,-357259.0,-239038.0,-267307.0,-4870.1700000000001,-26900.299999999999,1208.53
168861.0,37752.400000000001,-25616.099999999999,6933.0,-23398.599999999999,10671.299999999999,3634.5999999999999,4155.3999999999996
168862.0,40798.400000000001,-29145.700000000001,6476.04,-26413.5,11423.799999999999,3183.04,4602.9399999999996
168863.0,44904.199999999997,-31795.0,7697.46,-28125.5,12725.700000000001,2461.9099999999999,5296.8699999999999
168864.0,48542.0,-37010.400000000001,6201.46,-32604.299999999999,13519.9,1803.6900000000001,5828.54
168865.0,54977.699999999997,-40142.099999999999,8700.2099999999991,-33457.800000000003,15961.4,144.80699999999999,7174.4099999999999
168866.0,56662.5,-54592.300000000003,-6284.29,-47847.599999999999,17744.200000000001,-1066.1700000000001,8353.1499999999996
168867.0,64615.099999999999,-67033.100000000006,-11736.6,-57370.300000000003,19017.799999999999,-4617.9499999999998,11681.0
168868.0,74162.699999999997,-90790.0,-39247.5,-86318.699999999997,25119.900000000001,-8723.3700000000008,17631.599999999999
168869.0,124298.0,-127513.0,-47876.5,-134512.0,38386.800000000003,-30225.299999999999,21137.400000000001
168870.0,165799.0,-247033.0,-311080.0,-327191.0,66887.199999999997,-7742.3299999999999,53212.0
168871.0,198463.0,-503839.0,-660287.0,-582583.0,-42009.300000000003,43419.800000000003,57966.5
168872.0,193347.0,-529235.0,-480859.0,-470704.0,-99048.600000000006,34756.800000000003,21543.900000000001
168873.0,126925.0,-323153.0,-187337.0,-229878.0,-16872.400000000001,4446.6300000000001,15477.799999999999
168874.0,35503.5,-24408.099999999999,6449.8299999999999,-21604.099999999999,9966.9899999999998,3713.0599999999999,3981.73
168875.0,38683.800000000003,-27095.0,6905.6099999999997,-23689.599999999999,10851.6,3205.4299999999998,4490.25
168876.0,42101.699999999997,-30625.599999999999,6600.3500000000004,-26735.0,11808.5,2539.8899999999999,5124.9300000000003
168877.0,46282.699999999997,-33807.800000000003,7561.8800000000001,-28787.5,12963.4,1677.54,5788.8299999999999
168878.0,51152.0,-39188.400000000001,6064.0900000000001,-34009.699999999997,14449.4,407.29300000000001,7057.2799999999997
168879.0,57255.699999999997,-44113.5,5749.4499999999998,-38529.199999999997,15969.9,-478.69099999999997,9545.8400000000001
168880.0,64431.099999999999,-55928.800000000003,-2068.23,-52845.800000000003,18659.700000000001,-1577.4300000000001,10877.200000000001
168881.0,71498.899999999994,-70898.800000000003,-18530.599999999999,-74361.0,22819.400000000001,-3973.27,13745.9
168882.0,88214.0,-108016.0,-64982.800000000003,-127333.0,22892.900000000001,-12591.200000000001,29875.200000000001
168883.0,106833.0,-181804.0,-174484.0,-227258.0,20049.0,-4583.1499999999996,50636.0
168884.0,104466.0,-265777.0,-300223.0,-326847.0,-3641.7199999999998,27453.900000000001,43969.099999999999
168885.0,107205.0,-314910.0,-278759.0,-324034.0,-38202.199999999997,40293.099999999999,13217.799999999999
168886.0,120257.0,-238301.0,-111828.0,-186939.0,-16908.900000000001,20445.799999999999,8410.6900000000005
168887.0,33446.599999999999,-22929.900000000001,6408.0100000000002,-19439.900000000001,9357.6299999999992,3748.8600000000001,3799.6999999999998
168888.0,36386.300000000003,-25587.299999999999,6607.1000000000004,-21698.599999999999,10164.9,3207.3499999999999,4348.2299999999996
168889.0,39625.800000000003,-28577.799999999999,6714.6400000000003,-24177.599999999999,11069.200000000001,2598.3099999999999,4924.3400000000001
168890.0,43433.300000000003,-31861.200000000001,6985.1300000000001,-26993.900000000001,12071.4,1605.74,5712.79
168891.0,47814.599999999999,-35774.900000000001,6841.1599999999999,-30556.799999999999,13354.1,717.63699999999994,6550.1700000000001
168892.0,54549.5,-40490.5,7776.54,-34999.599999999999,15592.200000000001,-306.553,7099.0699999999997
168893.0,65111.5,-49419.099999999999,7777.4300000000003,-42423.300000000003,18650.5,858.50699999999995,9548.5900000000001
168894.0,69105.0,-65186.5,-17816.799999999999,-72993.800000000003,23446.200000000001,2332.54,12046.4
168895.0,73213.300000000003,-82006.5,-47537.599999999999,-119988.0,17890.299999999999,454.75999999999999,12376.5
168896.0,93498.5,-93757.699999999997,-40873.099999999999,-134770.0,13398.5,661.423,22762.799999999999
168897.0,87090.699999999997,-151589.0,-130680.0,-188047.0,17525.5,16477.700000000001,33267.099999999999
168898.0,66935.800000000003,-220360.0,-200534.0,-237495.0,-13630.1,26774.099999999999,15770.700000000001
168899.0,90334.399999999994,-180285.0,-89369.300000000003,-157890.0,-13482.299999999999,17004.099999999999,2341.1999999999998
168900.0,31533.400000000001,-21511.900000000001,6398.3800000000001,-17370.400000000001,8803.7399999999998,3720.5900000000001,3640.8899999999999
168901.0,34092.199999999997,-24140.099999999999,6286.3400000000001,-19730.900000000001,9456.3299999999999,3243.5500000000002,4139.3000000000002
168902.0,37287.300000000003,-26518.299999999999,6886.0299999999997,-21693.5,10397.5,2573.48,4767.7600000000002
168903.0,40396.300000000003,-30007.5,6335.8299999999999,-25029.099999999999,11097.6,1809.78,5412.0600000000004
168904.0,44833.599999999999,-32591.599999999999,7724.1700000000001,-26947.5,12387.4,738.39499999999998,6282.4700000000003
168905.0,49396.800000000003,-39174.900000000001,4360.7399999999998,-32780.800000000003,14245.5,-551.66700000000003,7582.1000000000004
168906.0,64382.699999999997,-49851.199999999997,9292.1900000000005,-36446.5,19166.900000000001,-1003.7,7192.1599999999999
168907.0,65075.0,-74031.399999999994,-42038.300000000003,-78860.300000000003,31084.700000000001,5544.5,3759.3299999999999
168908.0,44108.599999999999,-115156.0,-102151.0,-143806.0,12407.1,5947.0699999999997,-2246.2199999999998
168909.0,74014.399999999994,-99571.899999999994,-43990.599999999999,-126250.0,4564.7200000000003,-2744.4299999999998,6034.5200000000004
168910.0,85789.399999999994,-87392.300000000003,-42765.300000000003,-120539.0,20494.0,5900.1300000000001,21801.400000000001
168911.0,62241.199999999997,-139950.0,-109377.0,-159771.0,289.82400000000001,17310.099999999999,18629.900000000001
168912.0,64873.5,-146851.0,-83922.899999999994,-134992.0,-5988.21,13956.4,7356.1099999999997
168913.0,29704.799999999999,-20320.799999999999,6220.7399999999998,-15590.299999999999,8251.3700000000008,3680.71,3473.73
168914.0,32027.5,-22585.099999999999,6248.1000000000004,-17612.700000000001,8856.4799999999996,3232.5300000000002,3932.3600000000001
168915.0,34829.800000000003,-24854.299999999999,6572.1000000000004,-19649.799999999999,9649.4599999999991,2620.5599999999999,4547.1099999999997
168916.0,37728.599999999999,-27729.400000000001,6500.9200000000001,-22277.700000000001,10308.700000000001,1901.4000000000001,5130.6400000000003
168917.0,41511.800000000003,-30449.700000000001,6918.7600000000002,-24907.299999999999,11437.6,851.66399999999999,6016.3999999999996
168918.0,46336.800000000003,-34819.300000000003,6696.46,-28989.799999999999,12583.9,-272.27100000000002,7217.79
168919.0,57944.0,-45052.0,4677.9499999999998,-32046.700000000001,18555.799999999999,-5170.6400000000003,9108.5599999999995
168920.0,54105.199999999997,-100254.0,-81740.0,-91011.5,28511.599999999999,-473.51100000000002,8772.8700000000008
168921.0,25015.299999999999,-156732.0,-163499.0,-165199.0,11258.1,6946.9200000000001,-3677.29
168922.0,45768.800000000003,-132534.0,-99627.199999999997,-148050.0,-6.4658199999999999,919.72199999999998,-9275.0100000000002
168923.0,71285.699999999997,-93952.100000000006,-40856.400000000001,-116025.0,12915.0,-1974.3900000000001,5515.1400000000003
168924.0,65302.599999999999,-90622.5,-45946.599999999999,-110920.0,9837.4200000000001,5552.5200000000004,13745.799999999999
168925.0,58798.0,-105710.0,-53575.800000000003,-106339.0,2251.2199999999998,10911.1,10546.0
168926.0,28039.200000000001,-19286.0,6006.8100000000004,-14030.5,7744.5299999999997,3616.2800000000002,3296.8400000000001
168927.0,30200.299999999999,-21122.0,6267.75,-15626.9,8355.6900000000005,3216.4499999999998,3727.7199999999998
168928.0,32368.099999999999,-23295.900000000001,6185.2200000000003,-17675.700000000001,8890.4699999999993,2659.21,4255.3299999999999
168929.0,35315.5,-25504.799999999999,6731.5100000000002,-19634.0,9661.1399999999994,2001.3800000000001,4856.6800000000003
168930.0,37981.699999999997,-28346.5,6046.1199999999999,-22809.200000000001,10335.799999999999,1053.1600000000001,5648.7799999999997
168931.0,43237.400000000001,-31661.099999999999,7823.2399999999998,-24844.799999999999,11609.4,-126.15600000000001,6551.21
168932.0,50734.099999999999,-38753.599999999999,1302.4100000000001,-35018.900000000001,14444.5,-4615.1499999999996,11765.4
168933.0,58765.900000000001,-69821.5,-30790.200000000001,-57016.099999999999,16861.099999999999,-3725.9099999999999,21379.799999999999
168934.0,46065.199999999997,-147097.0,-155640.0,-139630.0,20034.099999999999,7413.1999999999998,13668.6
168935.0,25985.599999999999,-198095.0,-212114.0,-202491.0,-3959.9200000000001,3886.8499999999999,-11953.5
168936.0,49662.900000000001,-137177.0,-92373.800000000003,-137787.0,-3136.25,-7971.5500000000002,-8390.9099999999999
168937.0,60741.900000000001,-86296.800000000003,-37480.5,-95205.399999999994,14388.799999999999,-2880.6900000000001,6982.8800000000001
168938.0,54228.599999999999,-83775.399999999994,-35288.699999999997,-89577.699999999997,5490.4399999999996,4111.1599999999999,6674.5600000000004
168939.0,26687.099999999999,-18493.299999999999,5741.4099999999999,-12852.5,7343.2700000000004,3588.3000000000002,3128.5300000000002
168940.0,28438.400000000001,-19638.099999999999,6344.8400000000001,-13657.6,7863.2200000000003,3214.8400000000001,3500.21
168941.0,30033.099999999999,-21856.099999999999,5719.0100000000002,-15872.9,8211.25,2740.1500000000001,3915.48
168942.0,32809.699999999997,-23131.799999999999,7063.3199999999997,-16799.5,8960.0799999999999,2102.04,4536.21
168943.0,34778.699999999997,-26599.599999999999,5122.4700000000003,-20913.599999999999,9422.4400000000005,1341.6900000000001,5149.8699999999999
168944.0,39925.199999999997,-27578.299999999999,9076.4500000000007,-20972.299999999999,10389.200000000001,-256.72399999999999,6453.8100000000004
168945.0,43016.400000000001,-33046.300000000003,735.44399999999996,-33966.400000000001,12553.700000000001,-1057.1400000000001,8188.0
168946.0,63170.900000000001,-34266.599999999999,20961.299999999999,-30270.900000000001,12820.700000000001,-5262.04,13771.6
168947.0,64320.5,-83920.199999999997,-72340.199999999997,-83686.300000000003,27530.700000000001,3378.6199999999999,23788.099999999999
168948.0,37651.599999999999,-192820.0,-220083.0,-192135.0,-4252.6099999999997,10168.4,9845.2399999999998
168949.0,42942.800000000003,-174149.0,-139345.0,-153554.0,-17123.5,-1726.6099999999999,-3503.71
168950.0,49717.099999999999,-100227.0,-51487.0,-92853.600000000006,9598.3099999999995,-4495.0600000000004,4626.1999999999998
168951.0,48425.599999999999,-82366.300000000003,-36231.699999999997,-83371.0,4555.46,-1377.29,5811.7799999999997
168952.0,44741.800000000003,-351873.0,-359301.0,-379096.0,-16897.599999999999,-6793.71,-11729.0
168953.0,26383.799999999999,-317706.0,-325540.0,-334900.0,-2794.5500000000002,-2371.1900000000001,-12020.700000000001
168954.0,33868.400000000001,-270090.0,-268251.0,-286288.0,5471.0,-523.79100000000005,-15926.0
168955.0,33690.0,-221162.0,-212765.0,-238409.0,9017.9099999999999,1747.6099999999999,-11091.799999999999
168956.0,37144.400000000001,-178953.0,-166813.0,-193038.0,11602.6,270.72300000000001,-12367.200000000001
168957.0,47547.599999999999,-127408.0,-103767.0,-142128.0,14656.200000000001,71.903499999999994,-12816.4
168958.0,48328.699999999997,-91293.800000000003,-60231.0,-103744.0,15197.0,1171.4200000000001,-6635.0799999999999
168959.0,43962.0,-72839.899999999994,-41266.199999999997,-79910.399999999994,13885.700000000001,702.596,-5247.25
168960.0,41608.400000000001,-57286.199999999997,-24614.5,-61252.900000000001,12035.9,487.81900000000002,-5265.8900000000003
168961.0,40339.900000000001,-43293.800000000003,-9583.3299999999999,-45775.300000000003,10562.700000000001,89.947699999999998,-4703.5500000000002
168962.0,39655.800000000003,-30877.799999999999,3102.2600000000002,-33092.099999999999,9870.4300000000003,-321.61200000000002,-3881.75
168963.0,38453.300000000003,-24980.599999999999,9147.7900000000009,-27383.5,8298.7800000000007,522.54300000000001,-2496.73
168964.0,35957.300000000003,-31660.099999999999,2671.8600000000001,-31854.299999999999,4963.7399999999998,3230.8099999999999,-877.14599999999996
168965.0,33799.300000000003,-53629.5,-18072.299999999999,-44519.900000000001,1442.95,6057.5100000000002,945.23199999999997
168966.0,33519.800000000003,-79682.199999999997,-42942.599999999999,-54450.300000000003,-1744.25,3401.21,2601.8299999999999
168967.0,38424.300000000003,-90063.399999999994,-53239.900000000001,-54643.5,-4080.2199999999998,-6155.9899999999998,-1476.3199999999999
168968.0,45694.599999999999,-76084.899999999994,-38869.800000000003,-48439.199999999997,-5224.8400000000001,-15094.0,-8209.8299999999999
168969.0,46246.400000000001,-43155.199999999997,-8743.2099999999991,-34809.900000000001,-2730.48,-16263.799999999999,-10896.200000000001
168970.0,38924.099999999999,-12151.5,17245.200000000001,-16842.5,2317.5300000000002,-10195.200000000001,-7372.8500000000004
168971.0,32443.0,2969.96,28667.5,-4219.6099999999997,5126.5100000000002,-3909.27,-3217.4299999999998
168972.0,23498.299999999999,-9281.7299999999996,10120.6,-13455.1,2492.23,732.20899999999995,4362.1499999999996
168973.0,20704.799999999999,-55838.199999999997,-54567.099999999999,-47912.599999999999,-4822.0100000000002,370.53800000000001,10069.200000000001
168974.0,22562.200000000001,-64399.0,-75574.600000000006,-54415.900000000001,-3332.96,-5274.3999999999996,-4326.1000000000004
168975.0,15836.1,-22781.299999999999,-20980.700000000001,-24461.099999999999,3240.5700000000002,-4285.1700000000001,-7190.3199999999997
168976.0,13474.299999999999,-9917.7700000000004,-1091.03,-10199.299999999999,4709.9899999999998,-2598.6700000000001,2181.04
168977.0,13617.5,-12572.5,-7957.54,-6447.7799999999997,5697.4399999999996,-4198.25,1242.9000000000001
168978.0,13097.299999999999,-9114.0499999999993,-3271.8899999999999,-1521.6800000000001,5607.2399999999998,-3091.6799999999998,611.46400000000006
168979.0,11105.4,-7034.4499999999998,-651.55799999999999,854.23299999999995,4257.4499999999998,-2333.25,2.1304699999999999
168980.0,9211.4699999999993,-3833.04,2501.5700000000002,3205.4699999999998,2951.4400000000001,-2120.21,-224.09899999999999
168981.0,8089.8400000000001,-2225.71,3420.02,4582.6800000000003,1887.01,-2200.0,388.52699999999999
168982.0,7820.9799999999996,-1216.5699999999999,3331.3699999999999,5685.7799999999997,1402.79,-2412.5700000000002,537.94000000000005
168983.0,7647.6599999999999,-585.14099999999996,3242.9099999999999,6388.7399999999998,1076.05,-2371.9899999999998,716.78599999999994
168984.0,7522.3599999999997,-19.088899999999999,3069.4099999999999,6932.5299999999997,803.09299999999996,-2324.2600000000002,826.74599999999998
168985.0,7434.3199999999997,493.95699999999999,2906.8800000000001,7379.5299999999997,566.49599999999998,-2249.96,912.95500000000004
168986.0,7370.0500000000002,965.68700000000001,2763.4699999999998,7738.9499999999998,351.51799999999997,-2165.4699999999998,991.12300000000005
168987.0,7330.4399999999996,1418.1199999999999,2653.8800000000001,8055.3400000000001,157.13,-2073.2399999999998,1062.79
168988.0,7310.8500000000004,1802.4100000000001,2521.75,8284.8700000000008,-22.211600000000001,-1979.3699999999999,1127.9200000000001
168989.0,7301.7600000000002,2169.9099999999999,2418.6900000000001,8483.0900000000001,-186.24299999999999,-1883.3499999999999,1186.47
168990.0,7297.6400000000003,2475.7600000000002,2295.79,8607.0599999999995,-336.34199999999998,-1787.29,1238.8499999999999
168991.0,7293.0699999999997,2768.6700000000001,2200.5500000000002,8708.6200000000008,-472.85599999999999,-1691.0599999999999,1285.6700000000001
168992.0,7284.8599999999997,3007.1700000000001,2088.48,8748.5,-596.92100000000005,-1595.78,1326.5799999999999
168993.0,7269.8699999999999,3232.5599999999999,1998.8199999999999,8769.25,-709.49800000000005,-1501.3,1362.75
168994.0,7243.7399999999998,3411.8099999999999,1893.97,8737.8299999999999,-809.06299999999999,-1408.04,1391.1500000000001
168995.0,7204.0799999999999,3580.1700000000001,1814.8399999999999,8692.8099999999995,-898.00999999999999,-1313.26,1417.0999999999999
168996.0,7164.0699999999997,3699.6300000000001,1712.5,8603.9799999999996,-979.93700000000001,-1222.9400000000001,1438.6800000000001
168997.0,7105.4700000000003,3820.5599999999999,1639.8699999999999,8511.2299999999996,-1049.8699999999999,-1135.74,1451.97
168998.0,7042.6000000000004,3896.6399999999999,1543.47,8376.6399999999994,-1112.05,-1051.45,1463.0699999999999
168999.0,6955.9300000000003,3988.6900000000001,1493.01,8252.8500000000004,-1163.4000000000001,-966.71400000000006,1468.26
169000.0,6890.3299999999999,4014.0999999999999,1377.9300000000001,8079.1300000000001,-1212.3,-890.31899999999996,1471.9200000000001
169001.0,6777.79,4104.3500000000004,1369.4000000000001,7954.3299999999999,-1247.22,-808.29700000000003,1469.6800000000001
169002.0,6743.0299999999997,4067.04,1200.3900000000001,7747.3599999999997,-1292.1099999999999,-745.64200000000005,1469.6199999999999
169003.0,6574.0799999999999,4245.2700000000004,1318.3800000000001,7702.3599999999997,-1302.9400000000001,-670.721,1430.54
169004.0,6795.8500000000004,4043.8699999999999,930.505,7458.9099999999999,-1409.8399999999999,-630.67700000000002,1531.8299999999999
169005.0,6373.1199999999999,4983.2799999999997,1661.28,8113.1000000000004,-1267.6199999999999,-679.68700000000001,1029.79
169006.0,53531.199999999997,-322726.0,-366171.0,-361011.0,11265.700000000001,12934.1,-9883.1499999999996
169007.0,35316.599999999999,-287442.0,-301560.0,-302231.0,12813.4,9100.7399999999998,-9949.8099999999995
169008.0,37343.400000000001,-239724.0,-233764.0,-247056.0,15463.200000000001,4154.1999999999998,-12811.9
169009.0,44522.400000000001,-189152.0,-169302.0,-196989.0,18407.099999999999,2041.45,-10681.299999999999
169010.0,48146.599999999999,-146784.0,-118928.0,-152911.0,18510.0,2232.8699999999999,-9850.2299999999996
169011.0,51309.199999999997,-110400.0,-74585.5,-115515.0,16634.099999999999,2280.5799999999999,-9915.1900000000005
169012.0,51017.800000000003,-81593.100000000006,-41460.900000000001,-85682.800000000003,14709.5,1713.9000000000001,-7151.8999999999996
169013.0,48323.599999999999,-62966.300000000003,-23397.299999999999,-65533.800000000003,13959.0,838.90700000000004,-4986.9899999999998
169014.0,45508.599999999999,-50445.699999999997,-12630.6,-51445.800000000003,13661.1,751.32100000000003,-3681.48
169015.0,42951.400000000001,-41582.0,-4843.3599999999997,-40839.5,12889.6,565.47199999999998,-2735.1399999999999
169016.0,41454.900000000001,-34097.5,2149.9200000000001,-32608.900000000001,12061.700000000001,-353.06200000000001,-2552.3600000000001
169017.0,42789.599999999999,-25117.599999999999,10603.9,-26528.200000000001,12872.6,-792.02099999999996,-1087.8099999999999
169018.0,46059.599999999999,-22798.599999999999,11554.799999999999,-29336.099999999999,14759.200000000001,925.34000000000003,2445.3899999999999
169019.0,46490.199999999997,-45057.5,-11007.0,-51203.599999999999,11517.799999999999,6616.4200000000001,8670.6000000000004
169020.0,45747.599999999999,-129123.0,-106704.0,-111226.0,-8757.3099999999995,8690.6700000000001,20120.599999999999
169021.0,63807.0,-208182.0,-218055.0,-171723.0,-26827.299999999999,-4982.3900000000003,4124.0299999999997
169022.0,63541.699999999997,-181505.0,-207522.0,-169474.0,-19380.5,-13761.4,-20066.5
169023.0,42147.400000000001,-93096.899999999994,-104047.0,-108312.0,-2578.6100000000001,-7253.0699999999997,-21708.900000000001
169024.0,32883.199999999997,-26324.900000000001,-15946.700000000001,-42555.5,5136.3400000000001,-1019.62,-12375.4
169025.0,28386.299999999999,-5730.2700000000004,13270.799999999999,-15382.5,5972.1800000000003,-1346.1400000000001,-4310.4399999999996
169026.0,24936.900000000001,-6517.46,10193.5,-13514.5,6419.46,-3354.4899999999998,2537.8699999999999
169027.0,22681.5,-25414.099999999999,-19802.799999999999,-23348.0,6533.0699999999997,-4438.5699999999997,10052.200000000001
169028.0,21507.900000000001,-32707.900000000001,-35520.699999999997,-23851.900000000001,8953.4799999999996,-5979.4799999999996,1092.9100000000001
169029.0,17853.599999999999,-15432.799999999999,-7942.4300000000003,-9914.9300000000003,8404.0300000000007,-3173.2199999999998,-3237.3000000000002
169030.0,14891.0,-6782.4200000000001,6636.9799999999996,-1405.52,4668.4899999999998,-2481.77,-589.41099999999994
169031.0,13424.4,-4233.5600000000004,7858.2399999999998,2784.9200000000001,2898.3099999999999,-3758.5700000000002,-822.51599999999996
169032.0,12184.1,-3343.1900000000001,7834.6599999999999,4115.1700000000001,2214.0100000000002,-3490.1300000000001,20.3093
169033.0,10686.4,-3209.77,5560.5500000000002,4166.3199999999997,2077.9200000000001,-3378.5300000000002,350.20299999999997
169034.0,9514.75,-2617.8600000000001,4245.3999999999996,4388.8699999999999,1976.76,-3144.77,585.78599999999994
169035.0,8671.4099999999999,-1978.8499999999999,3408.4200000000001,4697.6599999999999,1717.54,-3023.4899999999998,655.41300000000001
169036.0,8081.5600000000004,-990.83299999999997,3434.75,5388.4799999999996,1371.71,-2935.96,765.51199999999994
169037.0,7769.1599999999999,-362.83300000000003,3186.6700000000001,5891.1199999999999,1042.6099999999999,-2903.8600000000001,873.53300000000002
169038.0,7560.6199999999999,270.01799999999997,3084.8499999999999,6427.5600000000004,767.23500000000001,-2835.2199999999998,961.87300000000005
169039.0,7440.5699999999997,756.52499999999998,2897.6999999999998,6832.54,515.077,-2757.1900000000001,1043.5799999999999
169040.0,7353.7799999999997,1249.8,2792.9699999999998,7225.3100000000004,292.976,-2662.5700000000002,1108.4300000000001
169041.0,7305.8199999999997,1664.8699999999999,2664.1599999999999,7530.7399999999998,85.931799999999996,-2561.0300000000002,1173.4400000000001
169042.0,7279.79,2054.7600000000002,2557.3600000000001,7797.1899999999996,-102.005,-2455.6399999999999,1229.04
169043.0,7268.0799999999999,2393.1700000000001,2443.0900000000001,7999.7700000000004,-273.54300000000001,-2347.3699999999999,1279.78
169044.0,7261.9799999999996,2701.8200000000002,2342.4099999999999,8162.1899999999996,-429.488,-2236.6799999999998,1325.0799999999999
169045.0,7259.1099999999997,2969.73,2239.2399999999998,8276.0100000000002,-571.73900000000003,-2125.8400000000001,1365.03
169046.0,7251.6999999999998,3208.1700000000001,2143.04,8351.6399999999994,-699.60699999999997,-2014.8499999999999,1399.02
169047.0,7241.0,3414.54,2049.5300000000002,8390.8700000000008,-815.59500000000003,-1904.3299999999999,1430.3
169048.0,7218.2299999999996,3602.1799999999998,1967.9200000000001,8404.4400000000005,-917.03300000000002,-1797.01,1450.45
169049.0,7175.2399999999998,3776.7399999999998,1911.8,8395.1000000000004,-1006.74,-1686.53,1470.8399999999999
169050.0,7139.3699999999999,3882.29,1806.26,8323.2299999999996,-1090.76,-1578.24,1491.9200000000001
169051.0,7088.9499999999998,3981.9400000000001,1718.2,8243.7299999999996,-1162.7,-1474.1600000000001,1499.25
169052.0,7029.29,4053.79,1629.0599999999999,8136.46,-1226.6300000000001,-1372.0999999999999,1505.78
169053.0,6947.6199999999999,4131.8699999999999,1574.0,8030.4799999999996,-1278.72,-1271.3699999999999,1505.6500000000001
169054.0,6882.6400000000003,4158.0900000000001,1473.5599999999999,7886.3699999999999,-1327.9100000000001,-1178.4100000000001,1505.46
169055.0,6773.46,4226.1800000000003,1454.5699999999999,7770.6999999999998,-1363.1900000000001,-1081.24,1497.5799999999999
169056.0,6734.79,4186.4899999999998,1300.9000000000001,7584.0299999999997,-1407.4300000000001,-1001.4400000000001,1498.04
169057.0,6560.6199999999999,4324.6400000000003,1384.45,7523.0900000000001,-1411.3499999999999,-909.62099999999998,1449.72
169058.0,6771.8500000000004,4103.6800000000003,998.58699999999999,7265.3100000000004,-1522.55,-847.07100000000003,1559.5
169059.0,6366.1800000000003,4919.7700000000004,1588.01,7803.5100000000002,-1371.4300000000001,-865.37,1097.6700000000001
169060.0,83775.399999999994,-211556.0,-201984.0,-221538.0,44769.599999999999,13103.700000000001,8234.6100000000006
169061.0,58465.199999999997,-208228.0,-197047.0,-206929.0,31082.799999999999,10863.200000000001,4224.8299999999999
169062.0,43799.800000000003,-195201.0,-178371.0,-188593.0,22359.400000000001,5680.1999999999998,-5946.8800000000001
169063.0,48315.599999999999,-150125.0,-121795.0,-149457.0,20229.700000000001,3104.3699999999999,-9893.5100000000002
169064.0,50568.5,-113284.0,-79275.399999999994,-116215.0,19172.099999999999,3296.8099999999999,-7234.6300000000001
169065.0,47266.099999999999,-89309.899999999994,-55629.900000000001,-92947.800000000003,16806.700000000001,3485.9000000000001,-5168.2399999999998
169066.0,43678.099999999999,-72459.899999999994,-40357.300000000003,-76407.5,14406.0,2914.5500000000002,-5379.3400000000001
169067.0,42896.300000000003,-56370.699999999997,-23197.0,-60463.900000000001,12918.200000000001,2831.3499999999999,-4559.6599999999999
169068.0,42500.099999999999,-46958.400000000001,-11129.200000000001,-48117.400000000001,11764.0,3062.7800000000002,-3480.27
169069.0,41197.300000000003,-45190.5,-6616.3999999999996,-41272.300000000003,10220.299999999999,2782.46,-1679.26
169070.0,39088.300000000003,-48430.400000000001,-8720.3799999999992,-39655.0,8506.3400000000001,444.99900000000002,-1266.0
169071.0,41243.900000000001,-46961.5,-4255.04,-37944.699999999997,6714.4399999999996,-3325.6999999999998,-2046.1700000000001
169072.0,48773.900000000001,-40928.199999999997,5955.9700000000003,-39958.300000000003,5411.6599999999999,-6147.3199999999997,-2832.96
169073.0,51921.699999999997,-46818.0,-5604.5,-61566.099999999999,3244.79,-4078.3499999999999,5492.3599999999997
169074.0,52255.800000000003,-126014.0,-126465.0,-135746.0,-5295.4399999999996,-94.200900000000004,29189.0
169075.0,69751.0,-207814.0,-266250.0,-199622.0,-2642.5999999999999,-6623.1899999999996,15833.1
169076.0,65569.699999999997,-145990.0,-197511.0,-144869.0,15525.299999999999,-7159.9399999999996,-15373.299999999999
169077.0,44282.699999999997,-48396.800000000003,-50700.5,-56923.099999999999,21671.099999999999,2105.1700000000001,-12654.200000000001
169078.0,32916.300000000003,-20918.700000000001,-3810.2399999999998,-25413.099999999999,14369.5,2765.1300000000001,-4135.6300000000001
169079.0,22952.5,-14047.4,2381.6700000000001,-15745.5,8241.0599999999995,-1390.9100000000001,-2350.29
169080.0,20681.299999999999,-9745.9500000000007,7127.1999999999998,-9407.8500000000004,5591.0299999999997,-4203.5699999999997,-777.43299999999999
169081.0,20216.400000000001,-7623.3699999999999,10398.799999999999,-2727.5700000000002,4341.8000000000002,-5519.6199999999999,268.39600000000002
169082.0,18988.200000000001,-6260.04,10624.1,1747.54,4252.6000000000004,-5542.6300000000001,-216.96600000000001
169083.0,15985.200000000001,-7401.3900000000003,6813.3699999999999,647.82000000000005,4294.5600000000004,-3990.04,40.587000000000003
169084.0,12381.299999999999,-7054.71,2999.8000000000002,-759.83900000000006,3929.8800000000001,-3125.2800000000002,280.71699999999998
169085.0,10154.299999999999,-5392.3500000000004,1795.78,-678.32100000000003,3302.48,-3125.0,601.87599999999998
169086.0,9344.4599999999991,-3975.7399999999998,1874.53,373.03199999999998,2710.0300000000002,-3466.4000000000001,717.01599999999996
169087.0,9101.0,-2476.5700000000002,2996.1799999999998,2113.1999999999998,2177.8899999999999,-3688.8899999999999,790.90599999999995
169088.0,8897.4699999999993,-1663.4200000000001,3427.5799999999999,3343.3600000000001,1755.4300000000001,-3755.5900000000001,838.72699999999998
169089.0,8562.6000000000004,-832.38599999999997,3688.1100000000001,4409.7700000000004,1429.9100000000001,-3673.3400000000001,910.32100000000003
169090.0,8181.04,-370.334,3391.27,4936.8199999999997,1150.46,-3547.3000000000002,975.82899999999995
169091.0,7849.21,302.33199999999999,3321.8000000000002,5559.6300000000001,877.053,-3422.8000000000002,1044.6099999999999
169092.0,7625.7200000000003,786.14499999999998,3109.71,5983.0900000000001,612.59299999999996,-3315.29,1113.6300000000001
169093.0,7470.6999999999998,1316.72,3009.6100000000001,6439.4300000000003,370.548,-3206.1900000000001,1172.55
169094.0,7370.96,1733.52,2855.3400000000001,6776.3999999999996,146.708,-3092.6799999999998,1230.25
169095.0,7310.5200000000004,2148.71,2751.4099999999999,7104.9399999999996,-59.5518,-2975.1599999999999,1282.97
169096.0,7281.0,2479.2399999999998,2608.3099999999999,7342.4899999999998,-249.53399999999999,-2856.0799999999999,1330.95
169097.0,7266.8900000000003,2808.9200000000001,2509.3800000000001,7569.6400000000003,-422.54599999999999,-2735.5100000000002,1371.46
169098.0,7257.7600000000002,3079.9699999999998,2394.5500000000002,7727.3800000000001,-578.88599999999997,-2612.5999999999999,1406.99
169099.0,7249.3599999999997,3340.1599999999999,2309.5599999999999,7867.8100000000004,-719.95100000000002,-2487.2800000000002,1438.8099999999999
169100.0,7244.0200000000004,3544.0799999999999,2205.04,7950.0600000000004,-849.27499999999998,-2362.4699999999998,1467.73
169101.0,7233.6899999999996,3737.3400000000001,2121.21,8016.2200000000003,-964.63199999999995,-2239.6999999999998,1488.8699999999999
169102.0,7211.29,3886.1300000000001,2027.5,8031.8400000000001,-1067.0999999999999,-2116.7600000000002,1505.3099999999999
169103.0,7180.25,4031.4699999999998,1960.8599999999999,8038.8199999999997,-1159.3900000000001,-1996.6199999999999,1518.77
169104.0,7139.4399999999996,4150.8100000000004,1888.3399999999999,8012.96,-1237.9100000000001,-1880.3599999999999,1526.8900000000001
169105.0,7077.25,4259.4399999999996,1835.27,7970.7799999999997,-1302.99,-1761.0,1532.23
169106.0,7020.0699999999997,4312.4399999999996,1745.7,7882.1499999999996,-1364.0,-1644.55,1537.6099999999999
169107.0,6942.04,4378.0699999999997,1693.0999999999999,7801.1800000000003,-1413.48,-1530.96,1532.8399999999999
169108.0,6876.7700000000004,4384.1899999999996,1589.4100000000001,7669.21,-1460.72,-1424.4000000000001,1529.5999999999999
169109.0,6770.4700000000003,4441.7200000000003,1571.5,7575.21,-1493.6400000000001,-1314.5799999999999,1517.8099999999999
169110.0,6725.3599999999997,4383.2600000000002,1415.3199999999999,7395.0699999999997,-1534.9300000000001,-1221.29,1513.1900000000001
169111.0,6546.7299999999996,4515.8800000000001,1510.0,7355.3900000000003,-1536.3900000000001,-1115.0699999999999,1462.27
169112.0,6757.2700000000004,4244.1999999999998,1093.3800000000001,7068.0699999999997,-1654.9200000000001,-1041.73,1569.4200000000001
169113.0,6361.9300000000003,5031.6999999999998,1635.3399999999999,7586.5900000000001,-1488.1700000000001,-1040.6600000000001,1131.5599999999999
169114.0,82808.800000000003,-120461.0,-56125.400000000001,-110798.0,31611.400000000001,769.55399999999997,9072.0900000000001
169115.0,61747.300000000003,-135771.0,-93432.800000000003,-124215.0,26867.400000000001,2014.5699999999999,8127.9399999999996
169116.0,47627.0,-135007.0,-106899.0,-125657.0,23317.099999999999,2655.1700000000001,689.84500000000003
169117.0,46463.400000000001,-111523.0,-83263.600000000006,-108458.0,20951.700000000001,3733.25,-5122.8299999999999
169118.0,47879.099999999999,-82984.0,-50669.900000000001,-84178.699999999997,19157.900000000001,3739.2199999999998,-4660.0699999999997
169119.0,47389.400000000001,-62862.900000000001,-29666.599999999999,-64379.199999999997,18668.700000000001,3023.5599999999999,-2458.27
169120.0,47927.599999999999,-46042.099999999999,-12804.6,-47714.400000000001,19231.900000000001,2246.6799999999998,-1751.1300000000001
169121.0,48482.400000000001,-33462.0,1111.25,-35810.199999999997,18700.700000000001,2533.9499999999998,199.01900000000001
169122.0,47203.199999999997,-30117.5,5179.2799999999997,-33170.300000000003,16615.0,3286.4699999999998,1242.72
169123.0,42164.599999999999,-43106.900000000001,-7480.04,-42613.900000000001,11555.799999999999,4980.2799999999997,4118.2799999999997
169124.0,29192.799999999999,-73264.5,-42779.599999999999,-62815.099999999999,2163.9699999999998,2963.75,5533.0900000000001
169125.0,18382.099999999999,-95715.899999999994,-77609.399999999994,-85421.199999999997,-4412.8500000000004,-3250.1700000000001,-349.62400000000002
169126.0,21243.5,-89141.399999999994,-80413.600000000006,-97605.199999999997,-2426.8899999999999,-6124.5200000000004,-5756.3100000000004
169127.0,30394.0,-76064.0,-69972.800000000003,-99755.600000000006,2938.4699999999998,-7035.2600000000002,1494.4200000000001
169128.0,38526.699999999997,-73862.300000000003,-73593.899999999994,-88695.300000000003,11736.6,-11774.6,11987.1
169129.0,48193.400000000001,-60082.5,-59231.5,-54022.5,22688.0,-13516.799999999999,8123.1599999999999
169130.0,46166.099999999999,-38813.599999999999,-19885.400000000001,-23039.200000000001,23444.900000000001,-6944.8900000000003,-3114.3600000000001
169131.0,38302.900000000001,-23338.599999999999,7904.4399999999996,-11811.299999999999,14738.700000000001,-1112.04,-4577.4099999999999
169132.0,27213.799999999999,-15818.299999999999,9062.6700000000001,-9314.7900000000009,8723.2299999999996,-1569.8399999999999,-1337.8099999999999
169133.0,20243.299999999999,-12849.9,4347.3599999999997,-7859.21,7029.5,-2900.4200000000001,-703.48000000000002
169134.0,16677.599999999999,-10123.700000000001,3709.04,-5925.0900000000001,5873.3199999999997,-2813.3299999999999,74.626999999999995
169135.0,13771.0,-8773.2199999999993,1808.0799999999999,-5834.2600000000002,4959.2399999999998,-2961.9699999999998,108.235
169136.0,12311.9,-7053.2700000000004,1834.5,-5247.04,4017.1500000000001,-3475.4299999999998,494.12200000000001
169137.0,12154.9,-5003.29,3333.96,-2686.3400000000001,3321.1100000000001,-4374.5200000000004,748.97699999999998
169138.0,12253.799999999999,-3596.8200000000002,4914.5699999999997,-54.109299999999998,2934.3400000000001,-4759.21,715.18899999999996
169139.0,11675.9,-2880.8499999999999,5323.8900000000003,1503.4400000000001,2597.3800000000001,-4618.7399999999998,712.351
169140.0,10637.5,-2112.8299999999999,5033.96,2439.8200000000002,2258.9899999999998,-4352.5,763.14200000000005
169141.0,9586.6200000000008,-1629.3599999999999,4164.8999999999996,2753.7800000000002,1917.9300000000001,-4133.8699999999999,858.82799999999997
169142.0,8808.2600000000002,-811.80899999999997,3767.9200000000001,3339.71,1568.9200000000001,-4009.3899999999999,962.50800000000004
169143.0,8323.7099999999991,-214.57499999999999,3409.29,3822.23,1230.6400000000001,-3942.75,1049.7
169144.0,8013.25,553.53599999999994,3430.0700000000002,4571.6999999999998,919.62,-3874.48,1122.27
169145.0,7777.8500000000004,1035.0699999999999,3251.6599999999999,5066.9300000000003,639.64700000000005,-3777.3299999999999,1187.53
169146.0,7595.4200000000001,1564.8,3161.4400000000001,5589.9200000000001,383.21699999999998,-3664.4099999999999,1243.9000000000001
169147.0,7465.0799999999999,1985.79,3010.9200000000001,5986.0200000000004,149.04400000000001,-3545.1100000000001,1291.6700000000001
169148.0,7375.5100000000002,2413.3299999999999,2921.1300000000001,6374.1000000000004,-68.0244,-3419.1799999999998,1338.8499999999999
169149.0,7322.6300000000001,2762.27,2795.9499999999998,6675.4799999999996,-267.322,-3291.7800000000002,1380.4100000000001
169150.0,7296.6899999999996,3083.8499999999999,2688.5,6943.4499999999998,-453.30200000000002,-3161.2600000000002,1421.9400000000001
169151.0,7289.3299999999999,3352.04,2560.48,7149.6599999999999,-621.76300000000003,-3032.5999999999999,1452.5999999999999
169152.0,7275.5299999999997,3616.5,2476.1900000000001,7338.1999999999998,-770.19299999999998,-2899.4499999999998,1476.26
169153.0,7261.8599999999997,3846.7199999999998,2402.0100000000002,7488.3500000000004,-906.30799999999999,-2762.7199999999998,1501.4200000000001
169154.0,7257.8500000000004,4023.3499999999999,2302.52,7584.96,-1033.2,-2627.8600000000001,1525.53
169155.0,7246.8000000000002,4177.0600000000004,2205.9899999999998,7651.2799999999997,-1144.25,-2496.1700000000001,1537.5599999999999
169156.0,7219.5900000000001,4310.29,2127.9400000000001,7690.0100000000002,-1242.8199999999999,-2361.54,1548.8800000000001
169157.0,7200.0900000000001,4396.3199999999997,2025.4300000000001,7685.8900000000003,-1336.0999999999999,-2230.5599999999999,1561.8399999999999
169158.0,7164.3100000000004,4475.7600000000002,1931.5699999999999,7666.6899999999996,-1411.4400000000001,-2108.3499999999999,1553.72
169159.0,7085.4799999999996,4592.0200000000004,1924.8900000000001,7668.7200000000003,-1470.98,-1978.55,1547.3599999999999
169160.0,7023.6800000000003,4637.5,1861.3299999999999,7610.4700000000003,-1529.73,-1852.51,1551.0599999999999
169161.0,6948.7600000000002,4680.1899999999996,1806.3800000000001,7545.7799999999997,-1576.03,-1731.6800000000001,1541.8499999999999
169162.0,6883.3400000000001,4669.1300000000001,1707.3399999999999,7432.6599999999999,-1620.1700000000001,-1616.3,1535.5699999999999
169163.0,6776.3999999999996,4702.5500000000002,1683.4400000000001,7350.8400000000001,-1647.96,-1498.1099999999999,1518.27
169164.0,6726.6899999999996,4631.6999999999998,1535.25,7187.9099999999999,-1685.5599999999999,-1394.8399999999999,1511.1600000000001
169165.0,6550.4099999999999,4724.0500000000002,1600.6300000000001,7140.1000000000004,-1681.1700000000001,-1277.48,1459.8599999999999
169166.0,6761.21,4428.9499999999998,1171.1500000000001,6849.6499999999996,-1801.48,-1197.02,1562.0799999999999
169167.0,6366.6300000000001,5204.1400000000003,1686.4000000000001,7367.46,-1610.5699999999999,-1182.6800000000001,1138.9200000000001
169168.0,67104.300000000003,-79804.100000000006,-28760.0,-78245.5,24396.599999999999,-2106.8099999999999,7653.3900000000003
169169.0,59157.599999999999,-82366.699999999997,-40958.199999999997,-78272.300000000003,24570.799999999999,-3073.2800000000002,5722.1400000000003
169170.0,58183.800000000003,-70836.5,-33775.800000000003,-67159.699999999997,26389.400000000001,-1560.95,3562.8600000000001
169171.0,57996.300000000003,-55953.0,-19778.5,-53694.400000000001,26556.299999999999,595.34500000000003,2221.1799999999998
169172.0,56536.800000000003,-41709.0,-4022.5100000000002,-40262.599999999999,24567.599999999999,1637.1400000000001,1808.26
169173.0,54635.699999999997,-30530.799999999999,9928.2099999999991,-28162.200000000001,21845.299999999999,1141.78,964.28200000000004
169174.0,52832.800000000003,-23172.700000000001,20881.400000000001,-19195.200000000001,18325.700000000001,40.801400000000001,902.03300000000002
169175.0,50262.5,-20514.200000000001,24132.200000000001,-17057.200000000001,14875.6,-1778.96,829.26300000000003
169176.0,51125.599999999999,-17085.299999999999,25987.299999999999,-20428.799999999999,14047.200000000001,-1894.54,463.31900000000002
169177.0,47201.099999999999,-29508.5,7834.1899999999996,-36585.400000000001,10380.6,1554.74,7928.6700000000001
169178.0,30457.200000000001,-79723.0,-64276.5,-78750.399999999994,1849.01,1042.73,15161.4
169179.0,18168.599999999999,-110975.0,-120224.0,-107848.0,1774.54,-6076.9499999999998,5342.7600000000002
169180.0,27533.5,-78276.899999999994,-85221.699999999997,-86577.199999999997,11740.200000000001,-9036.9599999999991,-3656.71
169181.0,35732.199999999997,-43596.099999999999,-32481.200000000001,-51461.0,16687.700000000001,-7360.6099999999997,1414.5799999999999
169182.0,36301.800000000003,-28628.599999999999,-4581.3000000000002,-23798.200000000001,14612.1,-7893.1899999999996,-1281.04
169183.0,37218.800000000003,-14842.700000000001,18549.099999999999,-5625.1999999999998,9937.4500000000007,-6451.8800000000001,-4896.1400000000003
169184.0,29951.299999999999,-13855.299999999999,15487.6,-6663.0500000000002,6736.46,-4402.0100000000002,-609.02800000000002
169185.0,21722.0,-16215.299999999999,1958.95,-11198.799999999999,7088.9700000000003,-4319.6700000000001,519.97900000000004
169186.0,19219.400000000001,-12238.9,2670.77,-8761.2399999999998,6754.8900000000003,-4066.8800000000001,336.09300000000002
169187.0,17700.0,-9396.3600000000006,4679.0,-6473.0200000000004,5571.1000000000004,-4240.6199999999999,487.86500000000001
169188.0,16374.799999999999,-7761.1300000000001,5018.6700000000001,-5103.1199999999999,4807.3699999999999,-4540.6099999999997,420.85899999999998
169189.0,15294.1,-5729.4300000000003,5958.9300000000003,-2952.0100000000002,4171.8100000000004,-4791.7799999999997,561.55899999999997
169190.0,13995.0,-4370.71,6035.5,-1216.5899999999999,3709.5700000000002,-4761.0500000000002,621.60400000000004
169191.0,12302.200000000001,-3814.5500000000002,4870.8599999999997,-782.69100000000003,3228.1399999999999,-4481.1000000000004,717.76999999999998
169192.0,10813.4,-3137.0900000000001,3716.9200000000001,-541.28499999999997,2734.8699999999999,-4333.0600000000004,864.10500000000002
169193.0,9890.2700000000004,-2133.6599999999999,3338.5,195.90100000000001,2280.48,-4345.7799999999997,989.04100000000005
169194.0,9358.7900000000009,-1294.8599999999999,3281.9200000000001,1038.6700000000001,1872.7,-4393.8199999999997,1070.3299999999999
169195.0,8978.7099999999991,-304.38999999999999,3621.8099999999999,2185.6900000000001,1510.21,-4403.1700000000001,1121.3399999999999
169196.0,8606.8299999999999,289.65300000000002,3595.1700000000001,2950.75,1188.3,-4342.4700000000003,1163.1300000000001
169197.0,8238.3299999999999,993.41800000000001,3633.6700000000001,3752.6300000000001,892.23400000000004,-4235.1400000000003,1207.3900000000001
169198.0,7923.9399999999996,1421.96,3384.2399999999998,4212.3299999999999,612.577,-4114.2299999999996,1254.49
169199.0,7700.0200000000004,1998.0899999999999,3328.29,4795.1199999999999,347.38600000000002,-3998.5700000000002,1302.5999999999999
169200.0,7549.6400000000003,2404.23,3165.77,5212.5600000000004,101.291,-3881.1599999999999,1347.6099999999999
169201.0,7446.8999999999996,2844.8000000000002,3092.1500000000001,5659.2700000000004,-125.861,-3757.3000000000002,1386.9300000000001
169202.0,7380.9399999999996,3179.1900000000001,2961.5599999999999,5993.2700000000004,-335.20100000000002,-3628.1500000000001,1422.6700000000001
169203.0,7340.6899999999996,3518.9000000000001,2880.5999999999999,6323.75,-527.47699999999998,-3494.9499999999998,1453.97
169204.0,7325.4300000000003,3771.2199999999998,2752.02,6563.3699999999999,-706.43600000000004,-3359.4000000000001,1486.3199999999999
169205.0,7322.2799999999997,4023.6399999999999,2655.21,6795.8299999999999,-865.40300000000002,-3225.3200000000002,1506.6300000000001
169206.0,7308.7200000000003,4241.6800000000003,2573.8099999999999,6982.7399999999998,-1006.6900000000001,-3085.4200000000001,1522.1500000000001
169207.0,7298.0799999999999,4436.21,2505.7600000000002,7140.8800000000001,-1138.0,-2943.8899999999999,1539.9400000000001
169208.0,7292.4099999999999,4577.4300000000003,2407.6999999999998,7241.9799999999996,-1256.5699999999999,-2805.1599999999999,1554.21
169209.0,7277.1199999999999,4705.4099999999999,2325.5,7323.8999999999996,-1360.1900000000001,-2666.7600000000002,1561.95
169210.0,7249.71,4793.6999999999998,2234.77,7360.1000000000004,-1451.9000000000001,-2527.8099999999999,1566.6400000000001
169211.0,7223.0799999999999,4860.1899999999996,2144.6199999999999,7374.6599999999999,-1535.6199999999999,-2390.3899999999999,1573.8900000000001
169212.0,7187.6400000000003,4899.3900000000003,2039.5899999999999,7359.1599999999999,-1604.71,-2258.9200000000001,1566.8900000000001
169213.0,7115.0299999999997,4957.7399999999998,1994.77,7349.9300000000003,-1660.4100000000001,-2123.3099999999999,1553.23
169214.0,7049.3800000000001,4972.0900000000001,1925.0699999999999,7297.79,-1714.98,-1991.48,1548.3900000000001
169215.0,6972.2299999999996,4988.5799999999999,1868.4300000000001,7243.54,-1756.3299999999999,-1865.1300000000001,1534.6900000000001
169216.0,6905.29,4953.0699999999997,1767.6400000000001,7142.7399999999998,-1794.99,-1744.73,1524.04
169217.0,6795.7799999999997,4972.3900000000003,1750.8599999999999,7083.0699999999997,-1816.1900000000001,-1621.1900000000001,1502.1500000000001
169218.0,6747.1400000000003,4876.8999999999996,1599.1900000000001,6928.7700000000004,-1850.47,-1513.6199999999999,1494.3299999999999
169219.0,6568.4799999999996,4976.1099999999997,1685.4100000000001,6922.3100000000004,-1835.45,-1393.3800000000001,1436.78
169220.0,6763.46,4677.3999999999996,1284.8599999999999,6653.4899999999998,-1952.71,-1309.47,1532.2
169221.0,6370.2700000000004,5443.8299999999999,1794.5999999999999,7192.04,-1738.72,-1283.8199999999999,1127.46
169222.0,64532.800000000003,-48423.199999999997,743.01499999999999,-46605.0,23729.099999999999,-3966.8699999999999,5681.3599999999997
169223.0,63149.400000000001,-41412.800000000003,6305.6099999999997,-37236.300000000003,24524.799999999999,-4386.6199999999999,3189.3099999999999
169224.0,64863.400000000001,-29667.799999999999,21644.299999999999,-24263.599999999999,24170.200000000001,-4342.8199999999997,2101.1700000000001
169225.0,65260.5,-16692.900000000001,36877.300000000003,-11256.299999999999,22980.700000000001,-4453.4099999999999,1529.1199999999999
169226.0,63351.900000000001,-8902.9500000000007,44104.0,-4849.9399999999996,21220.200000000001,-3585.25,2055.9699999999998
169227.0,57410.699999999997,-8584.3500000000004,41144.900000000001,-5417.9899999999998,17675.900000000001,-2029.4100000000001,2630.5500000000002
169228.0,46888.699999999997,-18331.099999999999,24519.200000000001,-14860.6,12309.0,-1445.3599999999999,3571.52
169229.0,37228.0,-28237.0,5810.7700000000004,-26927.599999999999,8976.1100000000006,-2788.48,1225.6500000000001
169230.0,39887.400000000001,-22795.5,8836.1299999999992,-30235.400000000001,9381.6900000000005,-3257.3499999999999,-1136.3199999999999
169231.0,41712.5,-27449.200000000001,1462.8,-40072.199999999997,8333.7999999999993,-3068.0799999999999,6907.3900000000003
169232.0,34223.599999999999,-52374.699999999997,-38778.400000000001,-58553.099999999999,8045.7200000000003,-6592.1400000000003,13412.0
169233.0,29479.299999999999,-62345.900000000001,-58371.300000000003,-59655.400000000001,11855.4,-10078.0,6591.29
169234.0,32305.700000000001,-43896.5,-28571.599999999999,-37785.599999999999,14225.5,-8769.8199999999997,-3015.9000000000001
169235.0,34313.5,-21337.799999999999,6527.1000000000004,-14980.1,12043.6,-4822.04,-3306.4899999999998
169236.0,27372.599999999999,-16383.9,7297.3199999999997,-12075.0,9150.0100000000002,-2628.9400000000001,102.78400000000001
169237.0,20608.900000000001,-17738.099999999999,-3381.23,-17562.200000000001,8029.6999999999998,-2821.2399999999998,1124.4000000000001
169238.0,19617.099999999999,-12293.1,399.35199999999998,-13572.799999999999,7031.3999999999996,-4266.1599999999999,987.85000000000002
169239.0,19901.200000000001,-7656.9399999999996,6920.1700000000001,-7193.9200000000001,5818.71,-5379.4799999999996,755.25099999999998
169240.0,18446.799999999999,-7917.04,6097.8199999999997,-6200.4200000000001,5177.6700000000001,-5255.0200000000004,754.37800000000004
169241.0,16294.200000000001,-7077.1599999999999,4795.1999999999998,-5462.8299999999999,4721.7299999999996,-4911.8100000000004,784.16200000000003
169242.0,14541.9,-5512.1300000000001,4536.75,-4145.2200000000003,4167.9399999999996,-4757.6099999999997,882.37
169243.0,12985.200000000001,-4709.6800000000003,3721.9000000000001,-3566.8400000000001,3610.1199999999999,-4621.9899999999998,942.89200000000005
169244.0,11853.200000000001,-3684.0599999999999,3403.1900000000001,-2859.0300000000002,3066.7600000000002,-4625.8599999999997,1004.33
169245.0,11207.0,-2294.1700000000001,3898.9899999999998,-1478.8900000000001,2599.27,-4761.3900000000003,1055.9100000000001
169246.0,10658.4,-1140.76,4388.1800000000003,-91.487099999999998,2200.4699999999998,-4819.6899999999996,1082.96
169247.0,10012.9,-404.971,4366.0900000000001,856.40999999999997,1833.4000000000001,-4764.7399999999998,1115.1300000000001
169248.0,9338.9699999999993,331.13999999999999,4223.6000000000004,1697.26,1485.78,-4649.3100000000004,1161.23
169249.0,8747.2900000000009,800.56299999999999,3796.8200000000002,2186.7800000000002,1149.3499999999999,-4522.9899999999998,1215.73
169250.0,8308.6299999999992,1480.76,3666.1999999999998,2868.3600000000001,827.73699999999997,-4415.1000000000004,1268.8199999999999
169251.0,8006.1000000000004,1944.3900000000001,3437.73,3360.9899999999998,527.38,-4318.6700000000001,1315.1800000000001
169252.0,7793.0500000000002,2545.4400000000001,3441.5500000000002,4019.1799999999998,251.96700000000001,-4218.0500000000002,1355.3599999999999
169253.0,7631.2799999999997,2924.6999999999998,3280.3899999999999,4460.0100000000002,-0.224575,-4102.8800000000001,1390.21
169254.0,7516.0600000000004,3363.4699999999998,3220.8800000000001,4947.3500000000004,-233.506,-3979.46,1421.77
169255.0,7442.6599999999999,3684.7800000000002,3089.1900000000001,5310.6800000000003,-448.666,-3851.6399999999999,1451.1300000000001
169256.0,7399.0900000000001,4017.6500000000001,3012.3400000000001,5678.5699999999997,-646.18899999999996,-3719.8800000000001,1476.74
169257.0,7376.54,4272.6599999999999,2899.75,5962.3299999999999,-826.89999999999998,-3584.9499999999998,1499.6500000000001
169258.0,7369.2799999999997,4515.6899999999996,2813.25,6230.25,-992.19000000000005,-3447.75,1520.4300000000001
169259.0,7367.2700000000004,4706.8299999999999,2710.27,6440.8400000000001,-1141.02,-3309.2800000000002,1534.24
169260.0,7361.6300000000001,4883.1599999999999,2631.1700000000001,6628.6499999999996,-1275.4100000000001,-3167.9200000000001,1544.6099999999999
169261.0,7355.9899999999998,5018.6599999999999,2542.3299999999999,6769.9499999999998,-1397.1199999999999,-3026.3099999999999,1553.8199999999999
169262.0,7346.3299999999999,5132.46,2459.1700000000001,6884.4700000000003,-1505.2,-2885.7399999999998,1558.78
169263.0,7327.2799999999997,5218.2700000000004,2377.02,6965.3900000000003,-1600.49,-2745.1900000000001,1560.6700000000001
169264.0,7300.1400000000003,5281.9799999999996,2297.2199999999998,7019.46,-1683.9300000000001,-2605.8899999999999,1559.8599999999999
169265.0,7262.8400000000001,5322.0600000000004,2217.6599999999999,7046.1300000000001,-1756.0799999999999,-2467.8600000000001,1556.1199999999999
169266.0,7217.7700000000004,5339.0299999999997,2133.9400000000001,7046.3999999999996,-1818.0799999999999,-2332.3299999999999,1549.27
169267.0,7154.8699999999999,5347.6499999999996,2063.48,7031.8400000000001,-1867.75,-2197.3699999999999,1537.0899999999999
169268.0,7089.1099999999997,5328.9799999999996,1981.9100000000001,6987.96,-1911.9400000000001,-2065.3200000000002,1525.8299999999999
169269.0,7005.5600000000004,5316.8699999999999,1924.8599999999999,6943.3900000000003,-1944.53,-1935.5899999999999,1508.45
169270.0,6935.3900000000003,5261.5,1828.8499999999999,6859.7799999999997,-1975.99,-1813.5899999999999,1493.8499999999999
169271.0,6823.3999999999996,5249.6599999999999,1804.8699999999999,6806.9799999999996,-1989.96,-1688.3199999999999,1468.7
169272.0,6774.8100000000004,5136.5799999999999,1658.5,6671.8500000000004,-2019.4300000000001,-1579.3599999999999,1459.0799999999999
169273.0,6593.7399999999998,5205.8299999999999,1732.48,6674.3800000000001,-1994.47,-1457.6300000000001,1396.1800000000001
169274.0,6768.1800000000003,4919.3999999999996,1376.5699999999999,6440.8599999999997,-2108.5900000000001,-1370.8900000000001,1480.4300000000001
169275.0,6377.8999999999996,5656.0600000000004,1863.8599999999999,6975.9700000000003,-1878.0599999999999,-1333.8099999999999,1100.1199999999999
169276.0,65096.300000000003,-25210.599999999999,28726.599999999999,-20115.0,22054.299999999999,-5012.5699999999997,3769.3200000000002
169277.0,64082.300000000003,-18953.900000000001,34962.300000000003,-13932.299999999999,21194.200000000001,-5505.2600000000002,1483.98
169278.0,59902.599999999999,-15150.9,37795.599999999999,-10143.4,17912.700000000001,-3982.9000000000001,2225.4400000000001
169279.0,54235.300000000003,-15364.299999999999,34298.900000000001,-10533.1,14520.5,-4383.3599999999997,-696.86099999999999
169280.0,52742.599999999999,-8973.2099999999991,38559.5,-8392.0599999999995,12866.799999999999,-3975.3600000000001,-1370.6800000000001
169281.0,48091.599999999999,-10270.700000000001,32258.200000000001,-12621.4,10919.299999999999,-3211.9400000000001,1821.8399999999999
169282.0,39655.900000000001,-19050.0,13915.4,-22336.900000000001,9676.8899999999994,-3580.9200000000001,3971.3699999999999
169283.0,33950.699999999997,-23753.0,1285.5999999999999,-28229.200000000001,10103.1,-4183.8000000000002,3409.48
169284.0,35308.900000000001,-21378.400000000001,1961.3800000000001,-29544.700000000001,10954.200000000001,-4753.9200000000001,2373.6700000000001
169285.0,36303.199999999997,-22789.200000000001,606.82500000000005,-30855.599999999999,10247.1,-6118.4700000000003,5460.3800000000001
169286.0,33699.0,-25404.299999999999,-4208.8900000000003,-27807.5,10486.700000000001,-8778.9500000000007,4779.8699999999999
169287.0,31960.900000000001,-21810.700000000001,-381.75299999999999,-19296.900000000001,11416.1,-8158.1000000000004,2529.98
169288.0,28175.799999999999,-19948.599999999999,249.679,-16459.799999999999,10854.200000000001,-5212.4099999999999,1756.05
169289.0,24477.599999999999,-17569.700000000001,-268.52499999999998,-17361.200000000001,9228.0400000000009,-3922.3499999999999,766.06700000000001
169290.0,23447.799999999999,-12175.299999999999,4669.5500000000002,-13869.5,7268.5799999999999,-4957.75,895.87300000000005
169291.0,22866.099999999999,-7695.1800000000003,9482.6299999999992,-7625.46,6226.3500000000004,-6094.54,643.23500000000001
169292.0,20285.200000000001,-7972.9700000000003,7684.8999999999996,-6835.5500000000002,5639.3500000000004,-5347.6199999999999,739.38800000000003
169293.0,17101.700000000001,-8629.3899999999994,3510.6799999999998,-8619.1800000000003,5071.79,-4672.96,918.52599999999995
169294.0,15570.700000000001,-5836.3000000000002,4191.3400000000001,-6707.3599999999997,4455.1599999999999,-4821.5900000000001,1018.34
169295.0,14598.200000000001,-4375.5799999999999,4662.2600000000002,-5110.6000000000004,3875.79,-5023.8500000000004,1074.02
169296.0,13550.200000000001,-3461.9099999999999,4569.9700000000003,-4057.46,3388.3400000000001,-5034.2399999999998,1077.76
169297.0,12622.0,-2163.6700000000001,4861.8999999999996,-2647.6100000000001,2941.25,-5056.25,1106.3499999999999
169298.0,11680.9,-1142.25,4911.5299999999997,-1412.7,2533.23,-4998.4099999999999,1137.4200000000001
169299.0,10662.6,-562.18600000000004,4400.6099999999997,-738.08799999999997,2123.2399999999998,-4847.3800000000001,1175.1400000000001
169300.0,9795.3999999999996,34.015500000000003,3905.2399999999998,-174.28800000000001,1719.0899999999999,-4717.4899999999998,1222.53
169301.0,9171.2099999999991,812.51800000000003,3758.29,588.85000000000002,1339.1600000000001,-4637.4899999999998,1268.29
169302.0,8730.5799999999999,1444.0699999999999,3635.9899999999998,1266.79,990.34900000000005,-4580.7600000000002,1304.6199999999999
169303.0,8394.6299999999992,2192.02,3742.02,2118.7600000000002,673.63900000000001,-4518.1899999999996,1334.78
169304.0,8109.7200000000003,2650.6900000000001,3607.8299999999999,2697.5900000000001,383.08699999999999,-4430.4499999999998,1362.23
169305.0,7873.8299999999999,3208.8099999999999,3597.3000000000002,3362.02,112.57899999999999,-4322.3900000000003,1389.8499999999999
169306.0,7695.6099999999997,3543.2800000000002,3395.1900000000001,3783.0300000000002,-141.196,-4204.2799999999997,1416.53
169307.0,7578.7700000000004,3985.3499999999999,3349.0100000000002,4303.1199999999999,-377.94900000000001,-4085.1399999999999,1441.75
169308.0,7505.4399999999996,4280.4799999999996,3208.21,4677.5900000000001,-596.07399999999996,-3962.3099999999999,1464.3299999999999
169309.0,7462.3000000000002,4606.1899999999996,3142.54,5078.6800000000003,-796.53899999999999,-3834.98,1483.71
169310.0,7441.0600000000004,4837.6599999999999,3024.5300000000002,5381.6700000000001,-979.96600000000001,-3704.23,1500.52
169311.0,7433.4099999999999,5073.8199999999997,2949.7600000000002,5684.6999999999998,-1147.03,-3570.6799999999998,1514.03
169312.0,7432.4799999999996,5245.4200000000001,2847.1599999999999,5918.1700000000001,-1298.5899999999999,-3434.6599999999999,1524.71
169313.0,7434.04,5408.1999999999998,2768.4200000000001,6137.0600000000004,-1435.3900000000001,-3297.02,1532.8699999999999
169314.0,7433.7799999999997,5522.25,2671.7199999999998,6301.9799999999996,-1557.75,-3158.48,1538.0899999999999
169315.0,7427.7600000000002,5625.1099999999997,2593.48,6450.3800000000001,-1666.5899999999999,-3019.3800000000001,1540.05
169316.0,7414.5699999999997,5689.5900000000001,2504.0500000000002,6555.0200000000004,-1763.0,-2880.2399999999998,1539.54
169317.0,7392.5,5740.5699999999997,2425.6799999999998,6640.8699999999999,-1847.1400000000001,-2741.8200000000002,1535.9100000000001
169318.0,7360.6999999999998,5760.0799999999999,2339.2800000000002,6690.5100000000002,-1920.1700000000001,-2604.3499999999999,1529.76
169319.0,7317.5299999999997,5771.29,2265.8099999999999,6726.5100000000002,-1982.1199999999999,-2468.0599999999999,1520.5899999999999
169320.0,7265.8599999999997,5755.3699999999999,2183.5900000000001,6731.0200000000004,-2034.79,-2333.9200000000001,1509.49
169321.0,7200.6800000000003,5735.4499999999998,2116.4000000000001,6726.1800000000003,-2076.8600000000001,-2201.6300000000001,1494.8399999999999
169322.0,7132.46,5686.1599999999999,2032.98,6690.1899999999996,-2112.4699999999998,-2073.0599999999999,1479.8699999999999
169323.0,7044.3400000000001,5646.1400000000003,1977.0,6656.6499999999996,-2136.21,-1945.05,1459.6199999999999
169324.0,6970.1499999999996,5562.8100000000004,1879.1500000000001,6581.5,-2159.77,-1824.49,1442.5899999999999
169325.0,6855.3400000000001,5531.3100000000004,1858.95,6546.2700000000004,-2165.6300000000001,-1700.28,1415.3
169326.0,6802.6199999999999,5396.1999999999998,1713.0599999999999,6421.7200000000003,-2188.4000000000001,-1592.3,1403.3
169327.0,6620.4700000000003,5452.54,1793.22,6448.5,-2154.6199999999999,-1470.48,1340.3199999999999
169328.0,6782.1499999999996,5149.1999999999998,1445.46,6219.5699999999997,-2265.4299999999998,-1386.22,1415.22
169329.0,6391.5200000000004,5852.0100000000002,1903.71,6745.3000000000002,-2014.6099999999999,-1341.6800000000001,1058.48
169330.0,56003.300000000003,-27180.799999999999,25077.099999999999,-20830.5,14307.799999999999,-5248.04,289.79300000000001
169331.0,54515.199999999997,-19323.900000000001,29946.200000000001,-17562.5,13513.799999999999,-4976.6499999999996,-1398.6300000000001
169332.0,49451.300000000003,-17745.599999999999,26623.599999999999,-17626.799999999999,12184.0,-3348.3499999999999,1012.63
169333.0,42687.5,-19603.0,17332.299999999999,-20824.599999999999,11320.1,-2920.1999999999998,677.35299999999995
169334.0,39915.300000000003,-18412.200000000001,14806.0,-22483.200000000001,10278.0,-2638.77,245.00299999999999
169335.0,37572.099999999999,-18904.799999999999,11146.700000000001,-24852.5,9176.8700000000008,-3388.4499999999998,1567.6500000000001
169336.0,35414.599999999999,-18863.099999999999,7922.0799999999999,-25025.799999999999,9213.5799999999999,-4790.9899999999998,1841.3900000000001
169337.0,34550.5,-17803.0,7680.6599999999999,-23453.700000000001,9366.1100000000006,-5630.54,1835.9200000000001
169338.0,33705.199999999997,-17095.799999999999,7577.4300000000003,-21837.099999999999,9279.5300000000007,-6311.8500000000004,1822.1500000000001
169339.0,31584.5,-16133.4,7247.8400000000001,-18897.0,8979.7199999999993,-6401.46,2145.21
169340.0,28558.700000000001,-15428.5,5640.8199999999997,-16930.0,8599.6599999999999,-6021.04,1545.96
169341.0,26723.099999999999,-13510.5,6139.1499999999996,-15634.700000000001,7878.0,-5593.4300000000003,756.25
169342.0,25492.099999999999,-10686.700000000001,8061.8500000000004,-13105.0,6881.5600000000004,-5833.8999999999996,997.02999999999997
169343.0,23493.900000000001,-8962.3299999999999,8117.5200000000004,-10226.1,6431.1199999999999,-6033.0699999999997,1123.8599999999999
169344.0,20397.299999999999,-8773.6299999999992,5868.4300000000003,-9413.4099999999999,6051.6199999999999,-5102.6599999999999,1141.26
169345.0,17569.799999999999,-9010.2299999999996,2560.79,-10955.6,5359.6899999999996,-4388.8000000000002,1231.53
169346.0,16547.700000000001,-6332.04,3526.4499999999998,-9292.9799999999996,4690.0200000000004,-4763.9399999999996,1238.8699999999999
169347.0,15993.1,-3534.04,5916.4399999999996,-5996.9300000000003,4154.8299999999999,-5195.54,1205.1600000000001
169348.0,14690.299999999999,-3421.1599999999999,5115.9300000000003,-5370.1099999999997,3681.6500000000001,-5089.0200000000004,1173.0599999999999
169349.0,13323.5,-2507.6399999999999,4637.54,-4494.6499999999996,3202.9200000000001,-4943.46,1186.95
169350.0,12241.799999999999,-1390.6400000000001,4555.0,-3353.9499999999998,2742.9200000000001,-4896.2200000000003,1223.99
169351.0,11246.1,-712.673,4160.8599999999997,-2602.3200000000002,2299.73,-4809.4499999999998,1249.6400000000001
169352.0,10439.9,26.767299999999999,3909.9200000000001,-1860.6099999999999,1877.3099999999999,-4746.3400000000001,1273.51
169353.0,9862.8600000000006,969.62900000000002,4041.8899999999999,-851.93600000000004,1495.8499999999999,-4731.4200000000001,1297.5599999999999
169354.0,9365.4899999999998,1798.8900000000001,4173.7200000000003,131.655,1149.78,-4696.4099999999999,1316.3800000000001
169355.0,8894.8400000000001,2370.5900000000001,4060.6599999999999,863.73199999999997,823.61900000000003,-4621.0600000000004,1335.01
169356.0,8476.9400000000005,2968.0999999999999,3979.9200000000001,1599.0899999999999,512.97900000000004,-4518.7799999999997,1357.4200000000001
169357.0,8142.9200000000001,3351.4099999999999,3715.8600000000001,2090.9699999999998,216.70699999999999,-4406.9799999999996,1380.9400000000001
169358.0,7906.0500000000002,3879.0300000000002,3657.3800000000001,2718.3699999999999,-61.648899999999998,-4298.9399999999996,1403.8599999999999
169359.0,7746.7299999999996,4214.6400000000003,3476.3000000000002,3160.3299999999999,-319.56799999999998,-4193.0799999999999,1423.79
169360.0,7641.9899999999998,4656.7799999999997,3462.5599999999999,3718.2800000000002,-556.49099999999999,-4084.5100000000002,1441.6500000000001
169361.0,7571.9099999999999,4918.5600000000004,3314.5900000000001,4098.1199999999999,-773.78599999999994,-3968.25,1456.8
169362.0,7531.6700000000001,5231.3400000000001,3257.4699999999998,4523.0600000000004,-973.88499999999999,-3846.9699999999998,1470.0899999999999
169363.0,7513.5100000000002,5439.5699999999997,3136.1300000000001,4840.4899999999998,-1156.9300000000001,-3722.4899999999998,1481.2
169364.0,7508.96,5661.29,3066.25,5167.2200000000003,-1323.9400000000001,-3594.8600000000001,1490.04
169365.0,7511.9399999999996,5812.3199999999997,2960.96,5419.0799999999999,-1475.28,-3464.98,1496.45
169366.0,7517.21,5958.0,2883.5300000000002,5660.7799999999997,-1611.8699999999999,-3333.2600000000002,1500.5799999999999
169367.0,7520.8400000000001,6055.4700000000003,2788.8400000000001,5849.6999999999998,-1734.1700000000001,-3200.6199999999999,1502.02
169368.0,7519.3900000000003,6140.6400000000003,2710.9899999999998,6021.5500000000002,-1843.0999999999999,-3067.0999999999999,1501.1700000000001
169369.0,7510.75,6189.3000000000002,2622.6799999999998,6151.79,-1939.03,-2933.3499999999999,1497.76
169370.0,7493.29,6222.79,2543.98,6261.8599999999997,-2022.9400000000001,-2799.6399999999999,1492.1500000000001
169371.0,7465.8100000000004,6231.8699999999999,2463.1599999999999,6342.2799999999997,-2095.1999999999998,-2666.5100000000002,1483.96
169372.0,7428.3299999999999,6224.8800000000001,2386.8400000000001,6401.5200000000004,-2156.9200000000001,-2534.2199999999998,1473.8299999999999
169373.0,7379.5100000000002,6198.29,2309.79,6435.7200000000003,-2208.02,-2403.2800000000002,1461.03
169374.0,7321.9700000000003,6153.8800000000001,2231.7399999999998,6447.8100000000004,-2250.3600000000001,-2274.1999999999998,1446.8800000000001
169375.0,7251.3400000000001,6100.7399999999998,2161.0,6445.4200000000001,-2282.54,-2146.48,1429.6199999999999
169376.0,7177.79,6026.8500000000004,2080.4000000000001,6418.79,-2309.0,-2022.23,1412.24
169377.0,7085.4200000000001,5960.6499999999996,2023.79,6392.8199999999997,-2324.0,-1898.8,1390.0799999999999
169378.0,7006.5799999999999,5856.7399999999998,1930.1400000000001,6329.4700000000003,-2339.46,-1782.6700000000001,1371.3
169379.0,6888.2799999999997,5795.5100000000002,1903.4000000000001,6298.0200000000004,-2337.1500000000001,-1662.7,1343.0
169380.0,6830.4200000000001,5642.0299999999997,1761.04,6184.3599999999997,-2352.5999999999999,-1558.8199999999999,1329.1199999999999
169381.0,6646.6499999999996,5663.1800000000003,1825.9200000000001,6209.8599999999997,-2310.1199999999999,-1440.1300000000001,1268.1900000000001
169382.0,6799.1599999999999,5346.9399999999996,1487.9100000000001,5989.54,-2417.46,-1361.03,1335.9400000000001
169383.0,6406.3599999999997,6034.8100000000004,1935.1900000000001,6524.46,-2145.8800000000001,-1313.8499999999999,999.08900000000006
169384.0,40673.5,-33905.0,1522.0799999999999,-34937.300000000003,10532.9,-2942.02,-970.79600000000005
169385.0,40515.699999999997,-28678.5,5622.0100000000002,-31855.400000000001,10562.299999999999,-1918.8800000000001,-259.05000000000001
169386.0,39302.0,-24687.200000000001,7679.0600000000004,-28943.5,10355.299999999999,-2524.7600000000002,-354.65800000000002
169387.0,38231.800000000003,-20646.799999999999,9844.2299999999996,-26038.599999999999,10207.200000000001,-2819.7800000000002,833.38800000000003
169388.0,35826.699999999997,-20396.400000000001,7143.2200000000003,-26050.299999999999,9934.6900000000005,-3344.7600000000002,1611.8900000000001
169389.0,33864.699999999997,-18992.099999999999,6043.4399999999996,-24771.900000000001,9775.4899999999998,-3869.9899999999998,1854.76
169390.0,32142.299999999999,-17481.900000000001,5823.25,-23014.0,9397.5100000000002,-4339.8699999999999,1734.3900000000001
169391.0,30456.299999999999,-16075.4,5762.1800000000003,-21260.5,8882.7999999999993,-4645.9499999999998,1743.77
169392.0,28389.299999999999,-14696.799999999999,5405.7399999999998,-19293.700000000001,8360.3400000000001,-4812.1099999999997,1745.8699999999999
169393.0,26449.799999999999,-13312.9,5171.1499999999996,-17613.5,7812.4200000000001,-4835.3500000000004,1494.79
169394.0,24793.400000000001,-11295.6,5787.96,-15536.299999999999,7173.5200000000004,-4903.1099999999997,1406.49
169395.0,22873.700000000001,-9807.1000000000004,5605.6199999999999,-13697.0,6612.1899999999996,-4918.9700000000003,1507.4000000000001
169396.0,20685.200000000001,-9121.8500000000004,4345.2399999999998,-12794.299999999999,6100.7299999999996,-4678.8000000000002,1442.1199999999999
169397.0,18983.200000000001,-7948.8599999999997,3814.7399999999998,-12091.200000000001,5451.6700000000001,-4521.9799999999996,1364.6500000000001
169398.0,18169.5,-5973.6700000000001,4703.7399999999998,-10497.700000000001,4849.6700000000001,-4887.6199999999999,1307.3699999999999
169399.0,17385.599999999999,-3466.6999999999998,6643.0299999999997,-7388.6099999999997,4394.7700000000004,-5239.2299999999996,1255.5899999999999
169400.0,15714.1,-3118.5900000000001,5859.3299999999999,-6383.46,3932.4400000000001,-5013.4300000000003,1233.23
169401.0,13988.1,-3183.8200000000002,4076.2399999999998,-6630.1499999999996,3407.2800000000002,-4710.7299999999996,1246.3499999999999
169402.0,12958.4,-1429.3099999999999,4514.3000000000002,-5092.8900000000003,2912.2800000000002,-4726.7399999999998,1281.3199999999999
169403.0,12107.799999999999,-418.24000000000001,4609.4899999999998,-3934.1799999999998,2474.8400000000001,-4756.9799999999996,1293.6800000000001
169404.0,11254.700000000001,327.161,4434.8500000000004,-3065.1199999999999,2057.8800000000001,-4711.79,1296.99
169405.0,10546.9,1273.24,4509.6000000000004,-2012.6199999999999,1669.3599999999999,-4684.1300000000001,1309.97
169406.0,9899.5400000000009,2060.0999999999999,4502.6199999999999,-1048.1199999999999,1305.24,-4633.5299999999997,1324.4000000000001
169407.0,9280.5699999999997,2584.8899999999999,4238.2200000000003,-360.94999999999999,950.66999999999996,-4537.6599999999999,1337.26
169408.0,8778.9899999999998,3068.8000000000002,3966.4099999999999,238.29400000000001,608.92399999999998,-4438.6800000000003,1353.3299999999999
169409.0,8411.2900000000009,3656.79,3885.5900000000001,940.31899999999996,290.47899999999998,-4351.8400000000001,1369.6800000000001
169410.0,8146.8900000000003,4101.9700000000003,3746.8200000000002,1513.26,-3.49261,-4270.8999999999996,1383.45
169411.0,7953.0,4642.7399999999998,3772.0500000000002,2201.8600000000001,-273.565,-4186.96,1395.5999999999999
169412.0,7806.2299999999996,4959.6400000000003,3620.3499999999999,2674.4699999999998,-523.32100000000003,-4091.73,1406.3900000000001
169413.0,7702.4799999999996,5367.0200000000004,3596.9699999999998,3234.6399999999999,-755.25,-3987.0500000000002,1416.75
169414.0,7636.5500000000002,5587.9099999999999,3425.8499999999999,3602.0100000000002,-970.47900000000004,-3875.9000000000001,1425.8099999999999
169415.0,7604.3100000000004,5895.1999999999998,3383.27,4051.0500000000002,-1169.0599999999999,-3763.0700000000002,1433.54
169416.0,7592.2600000000002,6073.1300000000001,3253.9499999999998,4371.1999999999998,-1350.46,-3647.2600000000002,1439.6099999999999
169417.0,7593.1899999999996,6282.75,3193.0,4719.6599999999999,-1515.74,-3528.54,1443.6199999999999
169418.0,7600.8000000000002,6405.7299999999996,3080.7399999999998,4978.6899999999996,-1665.46,-3407.3899999999999,1446.02
169419.0,7610.3900000000003,6539.1300000000001,3010.8299999999999,5243.9899999999998,-1800.3099999999999,-3284.4899999999998,1446.21
169420.0,7617.6999999999998,6612.0500000000002,2911.1999999999998,5445.1400000000003,-1921.0999999999999,-3159.9899999999998,1444.7
169421.0,7620.0299999999997,6683.8800000000001,2837.6399999999999,5640.4200000000001,-2028.3299999999999,-3034.4899999999998,1440.96
169422.0,7615.0799999999999,6709.9099999999999,2744.4400000000001,5785.1499999999996,-2122.9200000000001,-2908.2600000000002,1435.52
169423.0,7601.5200000000004,6732.0,2670.6399999999999,5920.7700000000004,-2205.2199999999998,-2782.0999999999999,1427.8
169424.0,7578.0200000000004,6717.8299999999999,2583.1599999999999,6015.2799999999997,-2276.2600000000002,-2655.9200000000001,1418.49
169425.0,7544.21,6697.25,2508.6900000000001,6097.8199999999997,-2336.23,-2530.5100000000002,1406.9000000000001
169426.0,7500.0200000000004,6646.4799999999996,2423.02,6145.2700000000004,-2386.3699999999999,-2405.9000000000001,1393.9300000000001
169427.0,7444.5699999999997,6594.25,2352.23,6185.6700000000001,-2426.4000000000001,-2282.5100000000002,1378.5699999999999
169428.0,7380.46,6516.6599999999999,2270.9899999999998,6195.8199999999997,-2458.3899999999999,-2160.77,1362.22
169429.0,7303.96,6440.54,2205.25,6201.4200000000001,-2480.6900000000001,-2040.6600000000001,1343.0599999999999
169430.0,7224.4700000000003,6336.6499999999996,2121.6999999999998,6175.6000000000004,-2497.8000000000002,-1923.73,1324.23
169431.0,7127.0,6246.6899999999996,2065.9499999999998,6156.75,-2503.73,-1807.3499999999999,1301.02
169432.0,7042.9399999999996,6116.7799999999997,1969.5,6096.3400000000001,-2510.9499999999998,-1697.79,1281.3399999999999
169433.0,6920.6899999999996,6039.4200000000001,1947.9300000000001,6078.8100000000004,-2500.3299999999999,-1584.29,1252.73
169434.0,6857.54,5865.9399999999996,1805.8699999999999,5970.9499999999998,-2508.5100000000002,-1486.6600000000001,1237.74
169435.0,6671.8900000000003,5875.71,1877.8900000000001,6016.3299999999999,-2457.3699999999999,-1373.75,1179.28
169436.0,6814.3299999999999,5545.1899999999996,1547.1900000000001,5799.4200000000001,-2560.7800000000002,-1301.77,1240.0899999999999
169437.0,6419.2299999999996,6196.6999999999998,1961.9300000000001,6320.96,-2269.3499999999999,-1253.26,925.50599999999997
169438.0,39287.400000000001,-28552.700000000001,160.24100000000001,-33920.599999999999,13158.299999999999,-1974.6500000000001,1292.48
169439.0,38640.5,-25498.700000000001,3524.7800000000002,-30600.700000000001,12246.6,-1674.28,2467.9099999999999
169440.0,36574.099999999999,-23074.400000000001,4091.9299999999998,-28569.799999999999,11486.6,-2387.2399999999998,1553.1199999999999
169441.0,35361.199999999997,-20366.0,5876.3800000000001,-26518.900000000001,10490.200000000001,-2785.2399999999998,1734.0899999999999
169442.0,33511.699999999997,-18290.799999999999,6199.1099999999997,-24494.299999999999,9771.9099999999999,-3555.73,1679.8599999999999
169443.0,31811.5,-16268.299999999999,6727.6700000000001,-22304.799999999999,9197.1000000000004,-3939.4200000000001,1589.96
169444.0,29840.099999999999,-14816.299999999999,6385.5299999999997,-20704.200000000001,8589.0599999999995,-4177.1599999999999,1607.0899999999999
169445.0,27910.799999999999,-13097.299999999999,6310.1599999999999,-18861.099999999999,8033.6999999999998,-4332.71,1564.6199999999999
169446.0,26047.599999999999,-11583.0,6147.8199999999997,-17223.0,7444.6499999999996,-4448.8199999999997,1487.95
169447.0,24215.900000000001,-9918.7999999999993,6173.3000000000002,-15437.4,6854.6400000000003,-4506.1700000000001,1451.04
169448.0,22343.400000000001,-8789.8400000000001,5595.7600000000002,-14227.299999999999,6269.1199999999999,-4492.4799999999996,1419.29
169449.0,20730.599999999999,-7436.1000000000004,5385.3100000000004,-12970.0,5686.3199999999997,-4518.8800000000001,1357.53
169450.0,19441.400000000001,-5623.2700000000004,5900.46,-11198.5,5134.2700000000004,-4670.0,1333.3199999999999
169451.0,18074.099999999999,-4181.3999999999996,6124.3100000000004,-9440.1900000000005,4643.71,-4783.7799999999997,1325.46
169452.0,16313.299999999999,-3367.6700000000001,5511.6499999999996,-8225.2700000000004,4137.0600000000004,-4616.4499999999998,1325.72
169453.0,14648.6,-3223.0,4025.7199999999998,-8198.2999999999993,3586.23,-4372.2600000000002,1327.29
169454.0,13715.799999999999,-1693.6099999999999,4297.6700000000001,-6954.8500000000004,3081.2199999999998,-4441.8599999999997,1335.8499999999999
169455.0,12973.299999999999,139.63,5330.5200000000004,-4912.4799999999996,2660.23,-4584.3699999999999,1333.3399999999999
169456.0,11966.5,479.93799999999999,4773.79,-4273.3500000000004,2243.8499999999999,-4526.1499999999996,1315.9200000000001
169457.0,11056.4,1258.05,4539.8199999999997,-3403.3000000000002,1821.5699999999999,-4446.2200000000003,1315.0
169458.0,10329.1,2094.4200000000001,4490.8100000000004,-2439.23,1427.3399999999999,-4403.2600000000002,1323.1700000000001
169459.0,9673.2000000000007,2671.3200000000002,4259.8900000000003,-1703.1800000000001,1051.4300000000001,-4334.5699999999997,1326.6300000000001
169460.0,9145.9500000000007,3242.0100000000002,4074.25,-1011.22,695.01300000000003,-4264.4200000000001,1331.79
169461.0,8760.2600000000002,3907.0300000000002,4077.4000000000001,-213.42599999999999,368.34199999999998,-4212.6899999999996,1339.8699999999999
169462.0,8446.5100000000002,4506.96,4092.3200000000002,558.04600000000005,67.789500000000004,-4153.8199999999997,1346.4200000000001
169463.0,8186.5299999999997,4926.7299999999996,3966.3899999999999,1158.8900000000001,-215.041,-4078.3400000000001,1351.72
169464.0,7983.6199999999999,5375.1400000000003,3906.8400000000001,1787.6800000000001,-481.44499999999999,-3989.6999999999998,1357.8499999999999
169465.0,7840.0200000000004,5649.2299999999996,3713.5700000000002,2233.54,-731.30499999999995,-3893.7199999999998,1363.3499999999999
169466.0,7751.6300000000001,6024.54,3670.8299999999999,2776.6799999999998,-963.38900000000001,-3796.5,1368.5899999999999
169467.0,7702.9799999999996,6238.1499999999996,3515.54,3159.5,-1176.73,-3697.96,1372.1600000000001
169468.0,7681.9899999999998,6533.7299999999996,3487.6500000000001,3626.5100000000002,-1372.0699999999999,-3597.1599999999999,1374.96
169469.0,7676.6300000000001,6683.9700000000003,3353.0599999999999,3949.4099999999999,-1550.05,-3491.77,1376.1099999999999
169470.0,7683.4499999999998,6876.0100000000002,3295.3000000000002,4310.0799999999999,-1712.6199999999999,-3383.1300000000001,1376.22
169471.0,7696.2200000000003,6979.54,3182.8299999999999,4580.0799999999999,-1859.5699999999999,-3272.4000000000001,1374.74
169472.0,7710.0600000000004,7095.6199999999999,3114.9000000000001,4859.1199999999999,-1992.1199999999999,-3159.52,1371.9400000000001
169473.0,7721.4300000000003,7151.6000000000004,3015.8699999999999,5074.6400000000003,-2110.4499999999998,-3045.25,1367.4100000000001
169474.0,7727.3299999999999,7204.1300000000001,2941.0500000000002,5282.4700000000003,-2215.6599999999999,-2929.6399999999999,1361.54
169475.0,7726.04,7216.1899999999996,2850.5300000000002,5445.4099999999999,-2307.98,-2813.5500000000002,1353.8699999999999
169476.0,7715.6199999999999,7218.3500000000004,2774.0,5593.9399999999996,-2388.4400000000001,-2696.8699999999999,1344.8800000000001
169477.0,7695.5,7191.5500000000002,2689.1599999999999,5708.4799999999996,-2457.2800000000002,-2580.2800000000002,1334.01
169478.0,7664.7799999999997,7151.79,2611.6900000000001,5805.0799999999999,-2515.5900000000001,-2463.7399999999998,1321.9200000000001
169479.0,7623.5600000000004,7094.04,2533.3600000000001,5878.25,-2563.48,-2348.0,1307.9300000000001
169480.0,7571.7700000000004,7022.6099999999997,2458.29,5932.6599999999999,-2602.1799999999998,-2232.8600000000001,1292.8800000000001
169481.0,7509.2200000000003,6937.1800000000003,2383.2800000000002,5967.1899999999996,-2631.3899999999999,-2119.02,1275.8599999999999
169482.0,7438.1000000000004,6835.7299999999996,2305.75,5980.8199999999997,-2653.1199999999999,-2006.6199999999999,1258.26
169483.0,7355.1700000000001,6730.79,2236.4400000000001,5984.7700000000004,-2665.6199999999999,-1895.5799999999999,1238.21
169484.0,7269.46,6607.3699999999999,2157.1700000000001,5965.75,-2673.6500000000001,-1787.3299999999999,1218.7
169485.0,7166.8999999999996,6495.0900000000001,2100.8899999999999,5950.8100000000004,-2670.8699999999999,-1679.75,1195.22
169486.0,7077.4799999999996,6348.3999999999996,2008.8,5898.6300000000001,-2670.0900000000001,-1578.55,1175.3699999999999
169487.0,6951.0299999999997,6244.6400000000003,1980.2,5880.8500000000004,-2651.3800000000001,-1473.3599999999999,1147.25
169488.0,6882.4300000000003,6055.6899999999996,1841.1800000000001,5779.9700000000003,-2652.4299999999998,-1383.4200000000001,1131.95
169489.0,6694.4200000000001,6034.3000000000002,1898.75,5821.5200000000004,-2592.9200000000001,-1277.9000000000001,1076.77
169490.0,6827.5699999999997,5692.3299999999999,1576.02,5608.1599999999999,-2692.6300000000001,-1213.8399999999999,1131.3900000000001
169491.0,6428.46,6338.4899999999998,1988.03,6143.3900000000003,-2381.8200000000002,-1166.26,838.58199999999999
169492.0,39986.400000000001,-23888.400000000001,7207.8100000000004,-28543.200000000001,12014.1,-2854.6900000000001,1639.1500000000001
169493.0,38114.300000000003,-21574.0,7911.9300000000003,-26819.400000000001,11077.5,-2884.75,1632.71
169494.0,35713.0,-19469.900000000001,7375.7700000000004,-25355.400000000001,10395.5,-3162.1799999999998,1621.53
169495.0,33417.5,-17607.5,6894.1599999999999,-23782.299999999999,9760.3700000000008,-3305.6500000000001,1673.74
169496.0,31187.900000000001,-15795.700000000001,6490.6099999999997,-22216.799999999999,9092.9599999999991,-3430.4499999999998,1665.3699999999999
169497.0,29098.0,-14192.9,6035.2799999999997,-20792.599999999999,8439.9699999999993,-3587.1999999999998,1648.8599999999999
169498.0,27162.400000000001,-12385.6,5995.21,-19045.0,7814.0500000000002,-3754.9200000000001,1603.3900000000001
169499.0,25297.400000000001,-10867.5,5791.54,-17502.700000000001,7200.8999999999996,-3877.6300000000001,1549.7
169500.0,23479.799999999999,-9284.1399999999994,5688.79,-15901.200000000001,6599.9499999999998,-3947.4499999999998,1508.03
169501.0,21780.099999999999,-7921.1899999999996,5430.9499999999998,-14569.299999999999,6013.9799999999996,-4005.77,1470.46
169502.0,20247.0,-6296.4399999999996,5571.2299999999996,-12950.5,5452.9300000000003,-4100.4399999999996,1438.98
169503.0,18718.299999999999,-4906.7700000000004,5556.3599999999997,-11425.4,4911.5699999999997,-4157.3500000000004,1411.4100000000001
169504.0,17133.0,-3996.2199999999998,5039.9899999999998,-10361.799999999999,4365.04,-4120.6599999999999,1383.8499999999999
169505.0,15718.0,-2976.6300000000001,4673.9799999999996,-9365.1599999999999,3823.8899999999999,-4058.0,1362.25
169506.0,14715.6,-1689.47,4784.04,-8217.1200000000008,3328.6399999999999,-4127.1599999999999,1346.0799999999999
169507.0,13858.0,48.540799999999997,5598.0799999999999,-6325.2799999999997,2893.4899999999998,-4273.7399999999998,1333.8699999999999
169508.0,12707.700000000001,683.154,5260.1700000000001,-5323.6899999999996,2458.6399999999999,-4229.2399999999998,1312.4100000000001
169509.0,11606.200000000001,894.41200000000003,4343.3400000000001,-5014.9099999999999,1997.4200000000001,-4101.8400000000001,1299.1300000000001
169510.0,10861.700000000001,2104.5599999999999,4582.5100000000002,-3782.4499999999998,1575.3299999999999,-4084.3600000000001,1303.8900000000001
169511.0,10213.4,2867.4400000000001,4555.3299999999999,-2850.0900000000001,1196.25,-4071.8099999999999,1302.8499999999999
169512.0,9618.25,3476.7399999999998,4399.96,-2078.1700000000001,831.23800000000006,-4022.5599999999999,1298.3699999999999
169513.0,9148.9200000000001,4172.3500000000004,4387.5,-1231.3800000000001,489.55099999999999,-3979.6700000000001,1298.8599999999999
169514.0,8754.8899999999994,4770.1400000000003,4349.3299999999999,-443.29899999999998,170.09800000000001,-3930.0100000000002,1299.1099999999999
169515.0,8415.8500000000004,5200.8199999999997,4182.8100000000004,186.65199999999999,-135.209,-3857.9400000000001,1297.03
169516.0,8164.25,5572.1400000000003,3999.4200000000001,740.56299999999999,-424.69099999999997,-3779.4299999999998,1296.51
169517.0,7992.5100000000002,6002.0600000000004,3935.0999999999999,1352.21,-692.37900000000002,-3702.0100000000002,1296.79
169518.0,7881.8299999999999,6304.6099999999997,3800.52,1839.8699999999999,-939.15700000000004,-3624.3899999999999,1296.6900000000001
169519.0,7814.1300000000001,6679.1700000000001,3788.9499999999998,2407.6599999999999,-1165.6600000000001,-3544.54,1296.1099999999999
169520.0,7775.3500000000004,6878.1599999999999,3644.75,2804.7800000000002,-1374.27,-3458.4899999999998,1294.8900000000001
169521.0,7760.5900000000001,7150.6999999999998,3611.46,3275.1199999999999,-1566.1800000000001,-3367.5799999999999,1293.1199999999999
169522.0,7762.1099999999997,7271.0600000000004,3462.9099999999999,3591.5700000000002,-1742.1600000000001,-3272.1300000000001,1290.47
169523.0,7776.4399999999996,7458.7600000000002,3416.9099999999999,3971.8299999999999,-1902.53,-3175.1300000000001,1286.8900000000001
169524.0,7794.4799999999996,7537.3900000000003,3297.1999999999998,4242.8999999999996,-2047.3499999999999,-3075.8000000000002,1282.4300000000001
169525.0,7813.3500000000004,7644.6499999999996,3236.29,4539.2799999999997,-2177.6500000000001,-2974.6100000000001,1276.6700000000001
169526.0,7828.5100000000002,7676.0900000000001,3129.3000000000002,4757.4200000000001,-2293.9499999999998,-2871.6300000000001,1270.03
169527.0,7838.3500000000004,7720.0500000000002,3060.77,4983.9700000000003,-2396.96,-2767.5900000000001,1262.0
169528.0,7840.04,7710.4300000000003,2964.23,5153.4399999999996,-2487.4000000000001,-2662.46,1253.01
169529.0,7832.96,7703.9200000000001,2892.7399999999998,5321.3800000000001,-2565.77,-2556.8699999999999,1242.5599999999999
169530.0,7815.5699999999997,7656.5,2802.0599999999999,5443.9899999999998,-2632.9299999999998,-2450.75,1231.1500000000001
169531.0,7788.04,7609.6099999999997,2730.1700000000001,5561.8199999999997,-2689.1799999999998,-2344.9200000000001,1218.24
169532.0,7749.4200000000001,7530.0799999999999,2644.1799999999998,5642.2799999999997,-2735.5,-2239.0700000000002,1204.45
169533.0,7700.3699999999999,7449.04,2571.5799999999999,5715.4499999999998,-2772.02,-2133.9899999999998,1189.1400000000001
169534.0,7640.8199999999997,7340.1400000000003,2486.5500000000002,5755.7299999999996,-2799.9699999999998,-2029.47,1173.1300000000001
169535.0,7570.8699999999999,7234.9700000000003,2417.2800000000002,5793.7299999999996,-2818.9299999999998,-1926.1500000000001,1155.4200000000001
169536.0,7492.5100000000002,7106.3299999999999,2336.6500000000001,5803.1000000000004,-2831.0,-1824.02,1137.3399999999999
169537.0,7403.1800000000003,6983.6199999999999,2271.8499999999999,5811.9499999999998,-2834.3400000000001,-1723.3199999999999,1117.1600000000001
169538.0,7311.04,6834.3800000000001,2188.27,5789.5600000000004,-2833.71,-1625.0899999999999,1097.76
169539.0,7203.0600000000004,6703.4899999999998,2132.7800000000002,5778.54,-2822.5599999999999,-1527.3900000000001,1074.79
169540.0,7107.9099999999999,6534.5200000000004,2037.26,5725.3000000000002,-2814.1399999999999,-1435.45,1055.4100000000001
169541.0,6977.0699999999997,6419.6899999999996,2014.53,5718.8199999999997,-2787.6700000000001,-1339.7,1028.3800000000001
169542.0,6902.7700000000004,6213.9799999999996,1875.23,5619.8100000000004,-2781.96,-1258.3900000000001,1013.22
169543.0,6711.9200000000001,6185.8400000000001,1940.8099999999999,5678.2399999999998,-2714.3400000000001,-1161.73,961.75300000000004
169544.0,6835.8999999999996,5832.2600000000002,1623.5899999999999,5464.2399999999998,-2810.3000000000002,-1106.3099999999999,1010.76
169545.0,6433.1899999999996,6445.3599999999997,2003.9000000000001,5982.9200000000001,-2481.9000000000001,-1060.1800000000001,741.202
169546.0,36774.800000000003,-21332.799999999999,6260.1300000000001,-27287.700000000001,10939.1,-2565.1900000000001,2042.1400000000001
169547.0,34811.599999999999,-19429.799999999999,6071.3699999999999,-25903.400000000001,10384.6,-2579.7600000000002,1920.02
169548.0,32841.199999999997,-17557.799999999999,6023.1899999999996,-24406.400000000001,9677.1900000000005,-2771.0,1834.8099999999999
169549.0,30920.5,-15570.0,6146.8999999999996,-22677.200000000001,9019.7099999999991,-2969.4400000000001,1738.98
169550.0,29014.200000000001,-13738.700000000001,6136.9399999999996,-21030.099999999999,8372.0499999999993,-3154.0100000000002,1691.1600000000001
169551.0,27121.599999999999,-11860.6,6205.5100000000002,-19252.400000000001,7747.1999999999998,-3312.0999999999999,1638.03
169552.0,25243.799999999999,-10298.799999999999,5989.1700000000001,-17752.299999999999,7125.3999999999996,-3420.77,1589.0699999999999
169553.0,23444.900000000001,-8639.1700000000001,5928.4399999999996,-16159.0,6516.3699999999999,-3503.6700000000001,1542.54
169554.0,21753.799999999999,-7176.5799999999999,5767.29,-14745.0,5920.7200000000003,-3584.2199999999998,1498.1400000000001
169555.0,20137.799999999999,-5663.1599999999999,5750.9200000000001,-13211.9,5343.04,-3656.1999999999998,1455.4400000000001
169556.0,18560.400000000001,-4479.3400000000001,5464.9200000000001,-11971.200000000001,4774.6000000000004,-3677.9499999999998,1414.1800000000001
169557.0,17131.0,-3284.4699999999998,5259.1599999999999,-10785.700000000001,4223.2600000000002,-3690.52,1384.5999999999999
169558.0,15906.799999999999,-1874.0699999999999,5401.7399999999998,-9391.9599999999991,3712.4000000000001,-3739.6900000000001,1362.4100000000001
169559.0,14768.0,-662.28800000000001,5459.8900000000003,-8082.6300000000001,3228.2600000000002,-3807.1199999999999,1338.6600000000001
169560.0,13541.4,255.22499999999999,5253.1999999999998,-6917.5,2748.1900000000001,-3797.0599999999999,1314.1800000000001
169561.0,12365.0,666.80100000000004,4515.8299999999999,-6376.6199999999999,2263.5,-3696.3600000000001,1290.75
169562.0,11559.200000000001,1732.0699999999999,4547.9099999999999,-5349.25,1816.55,-3685.9200000000001,1283.5699999999999
169563.0,10901.6,3034.3400000000001,5026.0100000000002,-3909.25,1428.6800000000001,-3733.0300000000002,1278.8099999999999
169564.0,10181.299999999999,3458.0,4655.9300000000003,-3254.4499999999998,1046.78,-3699.5,1262.1600000000001
169565.0,9577.7399999999998,4113.1400000000003,4513.0799999999999,-2444.48,670.67200000000003,-3647.4400000000001,1249.9400000000001
169566.0,9107.1399999999994,4761.7299999999996,4455.1499999999996,-1623.3900000000001,322.51499999999999,-3609.6799999999998,1242.6400000000001
169567.0,8708.4599999999991,5245.1099999999997,4297.4200000000001,-941.50999999999999,-5.9557599999999997,-3557.27,1233.6099999999999
169568.0,8405.1100000000006,5692.5100000000002,4152.5799999999999,-309.33100000000002,-315.01799999999997,-3496.9299999999998,1226.3199999999999
169569.0,8197.2299999999996,6172.5200000000004,4105.1999999999998,355.17500000000001,-599.31100000000004,-3442.2600000000002,1222.0999999999999
169570.0,8045.6700000000001,6608.3100000000004,4074.1599999999999,995.351,-860.78599999999994,-3384.27,1217.5
169571.0,7940.1099999999997,6909.1300000000001,3952.4899999999998,1508.3199999999999,-1105.21,-3318.1399999999999,1212.21
169572.0,7873.96,7232.96,3896.1999999999998,2048.9400000000001,-1332.1700000000001,-3245.3000000000002,1206.8199999999999
169573.0,7841.7700000000004,7414.9300000000003,3739.1599999999999,2445.9400000000001,-1542.6700000000001,-3166.9299999999998,1201.1300000000001
169574.0,7836.4899999999998,7668.1400000000003,3694.7600000000002,2913.1900000000001,-1735.6400000000001,-3086.6799999999998,1195.3099999999999
169575.0,7847.5799999999999,7786.8100000000004,3556.29,3246.0,-1911.75,-3004.0599999999999,1188.9300000000001
169576.0,7868.6199999999999,7967.8900000000003,3516.8800000000001,3641.4699999999998,-2071.3099999999999,-2919.9499999999998,1182.26
169577.0,7891.9099999999999,8030.3900000000003,3392.73,3918.6999999999998,-2215.3400000000001,-2832.7199999999998,1174.8599999999999
169578.0,7915.6199999999999,8126.8199999999997,3332.6599999999999,4226.9300000000003,-2344.98,-2743.4299999999998,1166.8399999999999
169579.0,7935.4099999999999,8147.1999999999998,3225.6599999999999,4456.9799999999996,-2460.4899999999998,-2652.54,1158.02
169580.0,7949.1999999999998,8180.29,3158.0500000000002,4696.4899999999998,-2562.8200000000002,-2560.3099999999999,1148.45
169581.0,7954.8500000000004,8160.6899999999996,3062.23,4879.8999999999996,-2652.3099999999999,-2467.0999999999999,1137.9300000000001
169582.0,7951.0500000000002,8140.2299999999996,2988.5599999999999,5058.46,-2729.8800000000001,-2373.02,1126.6600000000001
169583.0,7937.25,8084.1999999999998,2899.7600000000002,5196.9499999999998,-2795.96,-2278.6199999999999,1114.4000000000001
169584.0,7912.5600000000004,8021.9399999999996,2824.3099999999999,5324.7299999999996,-2851.3200000000002,-2183.8899999999999,1101.3800000000001
169585.0,7877.1199999999999,7934.46,2740.48,5422.1499999999996,-2896.3600000000001,-2089.3000000000002,1087.28
169586.0,7830.6999999999998,7838.1199999999999,2664.2399999999998,5505.6899999999996,-2931.98,-1994.8299999999999,1072.48
169587.0,7773.6700000000001,7726.3199999999997,2586.25,5568.1199999999999,-2958.3000000000002,-1901.02,1056.54
169588.0,7706.3800000000001,7605.1300000000001,2512.4400000000001,5615.9300000000003,-2976.4400000000001,-1807.74,1040.0
169589.0,7628.9499999999998,7471.8100000000004,2437.46,5645.5100000000002,-2986.1700000000001,-1715.46,1022.25
169590.0,7543.5299999999997,7326.1499999999996,2360.6900000000001,5657.3900000000003,-2989.3699999999999,-1624.3399999999999,1004.3
169591.0,7447.5699999999997,7178.9899999999998,2291.1199999999999,5661.3400000000001,-2984.3200000000002,-1534.3099999999999,984.70399999999995
169592.0,7349.0600000000004,7017.1499999999996,2213.1799999999998,5645.2200000000003,-2975.6599999999999,-1446.53,965.78200000000004
169593.0,7235.4399999999996,6867.1000000000004,2155.6999999999998,5634.04,-2956.8400000000001,-1359.1500000000001,943.86199999999997
169594.0,7134.4300000000003,6686.7700000000004,2065.21,5587.2799999999997,-2941.23,-1277.0899999999999,925.28499999999997
169595.0,6998.8199999999997,6548.1499999999996,2033.9100000000001,5576.04,-2907.5599999999999,-1191.21,899.96799999999996
169596.0,6918.6199999999999,6331.3800000000001,1898.01,5481.7399999999998,-2895.4000000000001,-1118.9000000000001,885.35000000000002
169597.0,6724.8699999999999,6274.6400000000003,1948.1400000000001,5531.9200000000001,-2820.5599999999999,-1031.48,838.36000000000001
169598.0,6839.1599999999999,5913.3800000000001,1638.53,5319.21,-2912.3899999999999,-984.76400000000001,881.56100000000004
169599.0,6433.2700000000004,6525.7600000000002,2019.6600000000001,5850.8599999999997,-2568.6300000000001,-941.55499999999995,636.30899999999997
169600.0,35163.800000000003,-18729.099999999999,6737.1400000000003,-26059.700000000001,10300.9,-2400.5599999999999,1994.3399999999999
169601.0,33490.800000000003,-17391.299999999999,6589.8400000000001,-24689.5,9799.1800000000003,-2533.0300000000002,1908.9000000000001
169602.0,31541.0,-15650.5,6468.9300000000003,-23152.200000000001,9175.4300000000003,-2621.23,1842.1700000000001
169603.0,29548.400000000001,-13866.9,6301.4899999999998,-21600.0,8541.3199999999997,-2727.9400000000001,1769.55
169604.0,27554.5,-12055.9,6200.9899999999998,-19956.5,7883.4700000000003,-2833.1599999999999,1707.51
169605.0,25618.700000000001,-10427.5,5973.3000000000002,-18476.099999999999,7229.1199999999999,-2922.5599999999999,1647.3900000000001
169606.0,23775.5,-8709.3999999999996,5912.3199999999997,-16881.200000000001,6593.1499999999996,-3013.0100000000002,1588.8599999999999
169607.0,22027.700000000001,-7206.0699999999997,5738.4899999999998,-15454.6,5976.3999999999996,-3089.98,1533.1400000000001
169608.0,20360.200000000001,-5692.3599999999997,5658.2200000000003,-13973.4,5377.8299999999999,-3149.6500000000001,1483.8199999999999
169609.0,18798.700000000001,-4375.1499999999996,5467.0900000000001,-12682.299999999999,4798.4300000000003,-3186.7600000000002,1438.72
169610.0,17381.299999999999,-2961.5599999999999,5469.2399999999998,-11294.4,4244.96,-3234.7800000000002,1401.6800000000001
169611.0,16045.0,-1689.25,5429.2700000000004,-9969.3099999999995,3715.5799999999999,-3279.75,1364.04
169612.0,14749.9,-714.36900000000003,5153.6599999999999,-8887.9500000000007,3193.3699999999999,-3290.9299999999998,1325.45
169613.0,13563.700000000001,257.75599999999997,4943.5299999999997,-7824.4300000000003,2690.9200000000001,-3269.3600000000001,1295.5999999999999
169614.0,12607.0,1283.8399999999999,4885.1199999999999,-6790.8199999999997,2224.3600000000001,-3265.5100000000002,1272.01
169615.0,11815.5,2571.5500000000002,5219.7299999999996,-5426.1300000000001,1798.1900000000001,-3317.48,1256.26
169616.0,10962.5,3265.6799999999998,5027.6099999999997,-4489.4200000000001,1384.4300000000001,-3314.8200000000002,1231.8299999999999
169617.0,10184.700000000001,3640.6799999999998,4511.8699999999999,-3942.2800000000002,966.25800000000004,-3251.5300000000002,1203.1400000000001
169618.0,9630.6800000000003,4558.2399999999998,4626.6499999999996,-2908.4200000000001,582.60699999999997,-3226.27,1188.6700000000001
169619.0,9165.9099999999999,5175.3299999999999,4549.1300000000001,-2107.0900000000001,233.44499999999999,-3206.1599999999999,1175.6500000000001
169620.0,8772.6200000000008,5697.7799999999997,4423.2299999999996,-1390.1400000000001,-99.1083,-3165.1900000000001,1161.1500000000001
169621.0,8482.0900000000001,6236.7299999999996,4370.7799999999997,-661.71600000000001,-409.45600000000002,-3124.0999999999999,1149.5999999999999
169622.0,8262.7999999999993,6707.0799999999999,4313.0200000000004,19.884399999999999,-697.83399999999995,-3081.3400000000001,1138.47
169623.0,8096.1099999999997,7059.6999999999998,4186.46,598.69200000000001,-969.096,-3027.1199999999999,1125.9100000000001
169624.0,7990.2600000000002,7352.1999999999998,4045.6199999999999,1113.4000000000001,-1223.02,-2966.8400000000001,1114.0899999999999
169625.0,7932.8500000000004,7670.1899999999996,3980.8800000000001,1655.54,-1456.1199999999999,-2905.0700000000002,1103.6300000000001
169626.0,7910.9499999999998,7880.7399999999998,3855.8000000000002,2091.5100000000002,-1670.1199999999999,-2841.0,1093.53
169627.0,7912.6400000000003,8138.3900000000003,3821.21,2579.48,-1865.1800000000001,-2775.3400000000001,1083.97
169628.0,7928.4300000000003,8258.3400000000001,3688.4899999999998,2932.52,-2043.51,-2705.6199999999999,1074.1300000000001
169629.0,7953.8100000000004,8431.5100000000002,3644.1700000000001,3339.6599999999999,-2205.5,-2633.3000000000002,1064.3599999999999
169630.0,7982.4700000000003,8482.2099999999991,3511.5999999999999,3623.7199999999998,-2352.2600000000002,-2557.6599999999999,1054.0999999999999
169631.0,8011.9700000000003,8581.2900000000009,3458.52,3953.8000000000002,-2484.0,-2480.77,1043.6199999999999
169632.0,8036.79,8590.7000000000007,3346.4200000000001,4193.25,-2601.3499999999999,-2402.0999999999999,1032.8099999999999
169633.0,8055.6800000000003,8621.1599999999999,3281.75,4450.8599999999997,-2705.0700000000002,-2322.1799999999998,1021.52
169634.0,8065.8599999999997,8588.3799999999992,3179.5700000000002,4642.5500000000002,-2795.8600000000001,-2240.96,1009.85
169635.0,8066.7299999999996,8564.1599999999999,3108.4000000000001,4838.8900000000003,-2874.2600000000002,-2159.0,997.55600000000004
169636.0,8056.79,8495.9699999999993,3015.1100000000001,4987.5900000000001,-2941.0700000000002,-2076.29,984.80600000000004
169637.0,8036.1199999999999,8428.7600000000002,2941.5700000000002,5132.6499999999996,-2996.7600000000002,-1993.28,971.35500000000002
169638.0,8004.0200000000004,8328.8899999999994,2853.6700000000001,5240.5200000000004,-3042.1500000000001,-1909.96,957.41999999999996
169639.0,7961.0600000000004,8227.3700000000008,2779.5599999999999,5341.4200000000001,-3077.5999999999999,-1826.8299999999999,942.75900000000001
169640.0,7906.8999999999996,8101.1999999999998,2696.02,5412.6800000000003,-3103.9299999999998,-1743.77,927.63800000000003
169641.0,7842.2200000000003,7971.0,2620.96,5474.1099999999997,-3121.3600000000001,-1661.23,911.74599999999998
169642.0,7767.5500000000002,7820.6999999999998,2538.1199999999999,5510.0,-3130.9699999999998,-1579.2,895.49699999999996
169643.0,7682.8400000000001,7671.0900000000001,2465.9099999999999,5540.4300000000003,-3132.4400000000001,-1497.99,878.32299999999998
169644.0,7590.4499999999998,7506.2700000000004,2387.8099999999999,5549.9499999999998,-3127.7199999999998,-1417.8099999999999,860.99099999999999
169645.0,7487.8199999999997,7343.29,2319.48,5554.8000000000002,-3115.0599999999999,-1338.5699999999999,842.41099999999994
169646.0,7382.9099999999999,7162.4099999999999,2238.4299999999998,5535.8400000000001,-3099.0500000000002,-1261.4100000000001,824.53599999999994
169647.0,7263.2299999999996,6994.4799999999996,2178.4099999999999,5523.3500000000004,-3073.1199999999999,-1184.3800000000001,804.21699999999998
169648.0,7156.4200000000001,6799.0600000000004,2086.5999999999999,5476.5100000000002,-3050.77,-1112.29,786.79100000000005
169649.0,7015.5799999999999,6648.8299999999999,2057.5100000000002,5470.21,-3010.46,-1036.3599999999999,763.67100000000005
169650.0,6929.6099999999997,6423.0299999999997,1924.25,5379.5900000000001,-2992.1199999999999,-973.18700000000001,749.74300000000005
169651.0,6732.1700000000001,6357.0,1977.26,5438.0600000000004,-2910.52,-895.298,707.65300000000002
169652.0,6838.5900000000001,5993.9700000000003,1678.5599999999999,5229.3299999999999,-2999.2199999999998,-857.01199999999994,745.91600000000005
169653.0,6426.75,6567.7700000000004,2021.96,5734.5500000000002,-2639.9000000000001,-816.16200000000003,524.904
169654.0,6416.29,6600.75,2033.8699999999999,5657.7299999999996,-2695.6199999999999,-690.49599999999998,408.38200000000001
169655.0,6399.6999999999998,6588.0200000000004,2021.3399999999999,5577.6499999999996,-2736.9899999999998,-568.24000000000001,290.30099999999999
169656.0,6375.8599999999997,6571.1400000000003,2027.6700000000001,5533.9099999999999,-2765.48,-451.53100000000001,173.05699999999999
169657.0,6346.0699999999997,6506.5100000000002,2003.9200000000001,5475.0200000000004,-2781.8800000000001,-343.20800000000003,57.155000000000001
169658.0,6311.6700000000001,6456.9700000000003,2007.22,5456.3699999999999,-2786.8200000000002,-244.61000000000001,-56.776699999999998
169659.0,6272.8100000000004,6364.6700000000001,1976.28,5414.7600000000002,-2780.79,-156.31800000000001,-168.096
169660.0,6229.9099999999999,6300.0299999999997,1978.78,5414.25,-2764.9499999999998,-78.305800000000005,-275.90899999999999
169661.0,6184.0900000000001,6191.9300000000003,1940.7,5381.2799999999997,-2740.1599999999999,-10.0596,-380.09399999999999
169662.0,6135.3100000000004,6125.9200000000001,1945.9400000000001,5395.1300000000001,-2707.5500000000002,49.402900000000002,-479.78800000000001
169663.0,6084.9499999999998,6011.0,1901.55,5366.6000000000004,-2667.54,100.634,-575.678
169664.0,6031.7399999999998,5955.8000000000002,1914.45,5396.9099999999999,-2620.4299999999998,145.73699999999999,-666.327
169665.0,5975.1400000000003,5844.3599999999997,1863.79,5377.1499999999996,-2562.1199999999999,185.035,-753.38699999999994
169666.0,5914.5299999999997,5853.71,1902.0899999999999,5463.5600000000004,-2486.75,220.87899999999999,-828.20600000000002
169667.0,6833.5600000000004,6008.75,1681.2,5130.4499999999998,-3071.9000000000001,-726.63400000000001,607.09199999999998
169668.0,6817.4300000000003,6030.1800000000003,1717.0699999999999,5082.1899999999996,-3127.4099999999999,-599.16899999999998,463.846
169669.0,6796.3000000000002,5986.5699999999997,1703.73,5008.1199999999999,-3166.75,-478.726,320.23899999999998
169670.0,6770.3599999999997,5965.21,1726.3299999999999,4987.4899999999998,-3191.5799999999999,-367.65699999999998,177.03800000000001
169671.0,6740.7299999999996,5887.5299999999997,1704.1600000000001,4937.8100000000004,-3203.6900000000001,-266.69600000000003,35.644300000000001
169672.0,6706.4799999999996,5836.4799999999996,1717.5699999999999,4934.8199999999997,-3203.5100000000002,-175.876,-103.465
169673.0,6668.3999999999996,5735.2299999999996,1687.3399999999999,4897.8699999999999,-3192.25,-96.063400000000001,-239.15100000000001
169674.0,6626.9200000000001,5667.4700000000003,1694.4200000000001,4905.4499999999998,-3170.7800000000002,-25.4559,-371.61099999999999
169675.0,6582.8900000000003,5553.1300000000001,1656.24,4873.8100000000004,-3140.1900000000001,34.5854,-499.49299999999999
169676.0,6537.2799999999997,5478.3500000000004,1657.0,4887.4799999999996,-3101.1500000000001,87.723500000000001,-623.85900000000004
169677.0,6490.1300000000001,5359.8400000000001,1609.75,4858.1899999999996,-3054.23,130.50200000000001,-742.11699999999996
169678.0,6437.1400000000003,5282.4799999999996,1601.54,4877.29,-2996.6599999999999,167.642,-854.50400000000002
169679.0,6375.5500000000002,5152.9200000000001,1530.26,4842.6999999999998,-2925.7399999999998,195.167,-958.71900000000005
169680.0,6737.6700000000001,6383.29,1972.01,5342.3800000000001,-2985.5100000000002,-757.65700000000004,572.44500000000005
169681.0,6735.2399999999998,6407.3800000000001,1987.9300000000001,5288.1999999999998,-3043.8099999999999,-624.11199999999997,433.00400000000002
169682.0,6724.8299999999999,6385.8500000000004,1982.1600000000001,5231.8800000000001,-3086.73,-495.988,293.88499999999999
169683.0,6707.4700000000003,6359.9300000000003,1989.3099999999999,5204.2200000000003,-3114.7399999999998,-377.00599999999997,155.09899999999999
169684.0,6685.3299999999999,6302.0299999999997,1978.0599999999999,5173.6499999999996,-3129.8099999999999,-267.60899999999998,17.624300000000002
169685.0,6657.4200000000001,6245.1599999999999,1977.97,5164.9899999999998,-3131.9899999999998,-168.73500000000001,-117.477
169686.0,6625.1300000000001,6163.71,1961.47,5150.4300000000003,-3122.9400000000001,-80.412199999999999,-249.78
169687.0,6588.0100000000002,6087.6400000000003,1955.3900000000001,5152.3299999999999,-3103.0799999999999,-1.9466399999999999,-378.17399999999998
169688.0,6547.8000000000002,5993.2700000000004,1934.73,5147.5799999999999,-3073.9000000000001,66.231999999999999,-503.07999999999998
169689.0,6502.4399999999996,5907.2700000000004,1925.8699999999999,5156.4700000000003,-3035.5100000000002,126.98,-622.96000000000004
169690.0,6452.6400000000003,5798.2799999999997,1898.26,5153.96,-2988.4099999999999,175.982,-739.23400000000004
169691.0,6389.5200000000004,5691.2299999999996,1885.48,5163.7799999999997,-2930.6799999999998,220.672,-848.25699999999995
169692.0,6313.8999999999996,5539.7700000000004,1838.1500000000001,5140.7299999999996,-2862.04,243.649,-953.83000000000004
169693.0,6937.9099999999999,6472.3500000000004,1934.2,5292.4799999999996,-3073.6700000000001,-825.36099999999999,609.93499999999995
169694.0,6939.6000000000004,6505.2700000000004,1953.26,5234.9399999999996,-3139.3299999999999,-680.38900000000001,465.90199999999999
169695.0,6935.6099999999997,6496.8299999999999,1952.76,5181.1700000000001,-3189.0999999999999,-541.92100000000005,321.16899999999998
169696.0,6925.8000000000002,6481.5200000000004,1962.5999999999999,5155.8500000000004,-3223.6799999999998,-412.20499999999998,176.321
169697.0,6911.1300000000001,6435.0699999999997,1955.97,5130.29,-3244.6900000000001,-292.12099999999998,32.293300000000002
169698.0,6890.6199999999999,6384.1999999999998,1956.9400000000001,5124.4399999999996,-3252.4299999999998,-182.09800000000001,-109.682
169699.0,6865.3000000000002,6309.1599999999999,1943.29,5114.96,-3248.1900000000001,-82.668899999999994,-249.35599999999999
169700.0,6834.6700000000001,6234.8199999999997,1937.45,5120.8000000000002,-3232.4499999999998,6.8689799999999996,-385.28699999999998
169701.0,6800.6800000000003,6140.5299999999997,1916.46,5120.0699999999997,-3206.6300000000001,86.125500000000002,-518.34900000000005
169702.0,6760.5799999999999,6051.5500000000002,1904.9300000000001,5132.54,-3170.27,157.11600000000001,-645.84500000000003
169703.0,6715.3599999999997,5939.1000000000004,1873.27,5135.1800000000003,-3123.3200000000002,216.63499999999999,-770.55600000000004
169704.0,6651.1700000000001,5827.7200000000003,1854.1400000000001,5148.0100000000002,-3061.7800000000002,269.60000000000002,-884.29100000000005
169705.0,6568.3699999999999,5660.6300000000001,1787.3599999999999,5122.9799999999996,-2982.98,300.38099999999997,-994.90599999999995
169706.0,7030.3699999999999,6711.0200000000004,2067.7800000000002,5383.5200000000004,-3097.46,-879.88,622.572
169707.0,7040.1599999999999,6752.1300000000001,2081.2600000000002,5322.1899999999996,-3168.4699999999998,-726.06899999999996,476.77699999999999
169708.0,7043.9300000000003,6763.6400000000003,2089.21,5278.8400000000001,-3223.4899999999998,-578.33699999999999,329.89400000000001
169709.0,7041.5100000000002,6750.9399999999996,2092.5700000000002,5249.3500000000004,-3263.1599999999999,-438.82299999999998,182.839
169710.0,7033.5200000000004,6719.6400000000003,2093.6399999999999,5234.1099999999997,-3288.6700000000001,-308.68799999999999,36.029000000000003
169711.0,7019.3999999999996,6669.1300000000001,2088.8600000000001,5226.1000000000004,-3300.4200000000001,-188.381,-108.866
169712.0,6999.9099999999999,6607.6000000000004,2083.8800000000001,5229.5299999999997,-3299.5300000000002,-78.575000000000003,-251.91999999999999
169713.0,6974.5900000000001,6530.5100000000002,2072.1100000000001,5234.6599999999999,-3286.5900000000001,21.291599999999999,-391.27499999999998
169714.0,6945.1000000000004,6448.4099999999999,2061.52,5250.0900000000001,-3262.7800000000002,110.85299999999999,-528.04700000000003
169715.0,6908.3000000000002,6353.4200000000001,2045.22,5264.0299999999997,-3227.8299999999999,191.643,-659.18399999999997
169716.0,6864.8800000000001,6246.5500000000002,2024.46,5283.1899999999996,-3181.8699999999999,260.71699999999998,-788.04600000000005
169717.0,6800.0799999999999,6119.5299999999997,2001.5999999999999,5296.3000000000002,-3121.2199999999998,321.55799999999999,-905.49599999999998
169718.0,6715.1700000000001,5951.7799999999997,1953.3499999999999,5292.7200000000003,-3043.7600000000002,357.80900000000003,-1021.3200000000001
169719.0,7176.1300000000001,6879.7299999999996,2103.54,5393.79,-3143.75,-945.74900000000002,643.20600000000002
169720.0,7191.5900000000001,6932.5799999999999,2118.4200000000001,5331.3999999999996,-3220.8699999999999,-781.18200000000002,494.84300000000002
169721.0,7202.0699999999997,6955.0299999999997,2127.3600000000001,5288.29,-3281.8400000000001,-622.80499999999995,344.80099999999999
169722.0,7206.6899999999996,6954.6199999999999,2133.6300000000001,5262.4200000000001,-3327.0,-472.25700000000001,194.16999999999999
169723.0,7205.5100000000002,6933.2200000000003,2136.6300000000001,5250.6000000000004,-3357.46,-330.84899999999999,43.290399999999998
169724.0,7197.9200000000001,6890.8000000000002,2133.9099999999999,5247.04,-3373.77,-198.85400000000001,-105.90300000000001
169725.0,7184.4899999999998,6834.6800000000003,2130.0599999999999,5254.7200000000003,-3376.8499999999999,-77.317899999999995,-253.65600000000001
169726.0,7164.8000000000002,6761.3800000000001,2119.6900000000001,5265.5200000000004,-3367.3099999999999,34.3917,-397.91399999999999
169727.0,7140.3800000000001,6679.4200000000001,2108.6700000000001,5285.46,-3346.25,135.55000000000001,-539.88099999999997
169728.0,7108.3299999999999,6583.1800000000003,2091.9299999999998,5305.46,-3313.3800000000001,227.64500000000001,-676.31600000000003
169729.0,7069.2700000000004,6474.3400000000001,2070.1599999999999,5331.5600000000004,-3268.5100000000002,307.72500000000002,-810.61099999999999
169730.0,7008.0699999999997,6343.6400000000003,2044.6199999999999,5352.1499999999996,-3207.8499999999999,378.25999999999999,-932.86599999999999
169731.0,6927.2700000000004,6165.4700000000003,1985.98,5352.3100000000004,-3129.6900000000001,424.17700000000002,-1053.8199999999999
169732.0,7289.1899999999996,7086.6800000000003,2194.3299999999999,5438.8400000000001,-3172.4099999999999,-1007.87,659.23099999999999
169733.0,7311.6499999999996,7151.8500000000004,2209.52,5376.6700000000001,-3255.5500000000002,-833.22400000000005,509.01100000000002
169734.0,7329.21,7190.1000000000004,2223.3499999999999,5339.04,-3322.1599999999999,-664.40599999999995,356.60599999999999
169735.0,7340.7200000000003,7197.4200000000001,2228.4499999999998,5313.0299999999997,-3372.6799999999998,-503.06700000000001,203.327
169736.0,7346.21,7187.2299999999996,2235.2800000000002,5306.6800000000003,-3408.0900000000001,-350.483,49.308399999999999
169737.0,7345.0100000000002,7150.1400000000003,2231.9000000000001,5305.0799999999999,-3428.7800000000002,-207.12799999999999,-103.31699999999999
169738.0,7337.6099999999997,7102.54,2232.0700000000002,5320.3400000000001,-3435.6700000000001,-74.0107,-254.93100000000001
169739.0,7323.5799999999999,7031.7200000000003,2221.1199999999999,5335.1800000000003,-3429.3299999999999,49.247399999999999,-403.23700000000002
169740.0,7304.1499999999996,6955.7200000000003,2214.5599999999999,5365.21,-3410.6999999999998,161.91200000000001,-549.52599999999995
169741.0,7276.4700000000003,6859.0200000000004,2197.8800000000001,5391.7700000000004,-3379.6500000000001,265.22300000000001,-690.37
169742.0,7240.6999999999998,6750.6599999999999,2179.8699999999999,5428.5200000000004,-3336.0300000000002,356.05900000000003,-829.27300000000002
169743.0,7181.9399999999996,6613.7299999999996,2154.29,5456.8800000000001,-3276.21,436.37599999999998,-956.07899999999995
169744.0,7103.1400000000003,6436.8800000000001,2106.0100000000002,5476.1300000000001,-3198.98,490.82499999999999,-1082.1199999999999
169745.0,7415.0,7268.0100000000002,2254.2199999999998,5450.2799999999997,-3204.8099999999999,-1074.4400000000001,677.73900000000003
169746.0,7443.79,7349.8999999999996,2274.1799999999998,5391.9399999999996,-3294.0799999999999,-888.97000000000003,525.26700000000005
169747.0,7468.1300000000001,7395.21,2284.3800000000001,5350.5699999999997,-3366.5900000000001,-709.07299999999998,370.33499999999998
169748.0,7486.6700000000001,7419.1400000000003,2296.0500000000002,5332.0799999999999,-3422.48,-536.39200000000005,213.935
169749.0,7499.04,7415.1400000000003,2300.6300000000001,5325.1499999999996,-3462.8400000000001,-372.02499999999998,56.4803
169750.0,7504.3299999999999,7390.5100000000002,2303.0100000000002,5331.8100000000004,-3487.9299999999998,-216.56399999999999,-99.994
169751.0,7503.0500000000002,7345.1400000000003,2300.6500000000001,5347.9300000000003,-3498.7399999999998,-71.1113,-255.71100000000001
169752.0,7494.71,7282.2399999999998,2294.6700000000001,5372.1499999999996,-3495.71,64.540599999999998,-408.46100000000001
169753.0,7480.3999999999996,7204.0,2284.9099999999999,5404.3100000000004,-3479.77,189.50700000000001,-559.36099999999999
169754.0,7457.4200000000001,7109.8599999999997,2271.5,5440.6800000000003,-3450.7600000000002,304.83499999999998,-705.03800000000001
169755.0,7426.0900000000001,6997.1899999999996,2250.8299999999999,5482.79,-3408.52,407.32400000000001,-848.83299999999997
169756.0,7371.9300000000003,6859.8299999999999,2227.29,5523.2799999999997,-3349.6500000000001,498.38400000000001,-980.55799999999999
169757.0,7298.3999999999996,6670.96,2169.6399999999999,5545.96,-3273.3499999999999,563.07299999999998,-1111.6700000000001
169758.0,7526.4200000000001,7460.6599999999999,2332.9699999999998,5466.6800000000003,-3227.5100000000002,-1140.99,694.33100000000002
169759.0,7562.04,7558.25,2355.6999999999998,5411.1400000000003,-3322.9699999999998,-944.64700000000005,540.01800000000003
169760.0,7593.29,7617.21,2367.9499999999998,5372.3100000000004,-3401.1999999999998,-753.56700000000001,382.88200000000001
169761.0,7618.5600000000004,7652.5699999999997,2381.3699999999999,5356.3900000000003,-3462.4400000000001,-569.28200000000004,223.83500000000001
169762.0,7637.4799999999996,7657.6800000000003,2387.0599999999999,5352.0500000000002,-3507.7399999999998,-392.88299999999998,63.401600000000002
169763.0,7649.1599999999999,7641.9200000000001,2391.7399999999998,5363.4499999999998,-3537.2399999999998,-225.11000000000001,-96.495500000000007
169764.0,7653.8599999999997,7602.4899999999998,2390.5,5384.1099999999997,-3551.8899999999999,-67.086500000000001,-255.923
169765.0,7651.1499999999996,7545.1800000000003,2386.9099999999999,5415.2600000000002,-3552.0799999999999,81.185000000000002,-412.71499999999997
169766.0,7641.9899999999998,7469.6999999999998,2378.4299999999998,5454.3599999999997,-3538.6999999999998,218.74799999999999,-567.82799999999997
169767.0,7623.6199999999999,7378.0200000000004,2367.79,5500.3199999999997,-3511.5500000000002,346.42000000000002,-717.92700000000002
169768.0,7596.21,7262.5799999999999,2347.1399999999999,5550.0900000000001,-3470.73,460.79000000000002,-866.22500000000002
169769.0,7545.9899999999998,7123.2299999999996,2326.0300000000002,5602.4099999999999,-3412.9499999999998,562.95899999999995,-1002.6900000000001
169770.0,7476.5900000000001,6933.9399999999996,2274.2199999999998,5641.96,-3338.0500000000002,637.71299999999997,-1138.6800000000001
169771.0,7635.79,7641.54,2404.1199999999999,5464.7799999999997,-3247.0700000000002,-1209.3699999999999,711.53200000000004
169772.0,7678.1400000000003,7753.3299999999999,2427.7800000000002,5410.1400000000003,-3348.8400000000001,-1001.8,555.42600000000004
169773.0,7716.2700000000004,7824.1400000000003,2440.25,5371.8000000000002,-3433.0100000000002,-799.20000000000005,396.13200000000001
169774.0,7748.4799999999996,7872.8500000000004,2456.52,5359.7399999999998,-3499.6500000000001,-602.99199999999996,234.43199999999999
169775.0,7774.1499999999996,7888.1099999999997,2463.5100000000002,5358.3299999999999,-3549.8600000000001,-414.23500000000001,70.968000000000004
169776.0,7792.29,7881.7200000000003,2470.5599999999999,5374.54,-3583.7800000000002,-233.67699999999999,-92.341899999999995
169777.0,7803.0299999999997,7848.46,2470.4000000000001,5399.6499999999996,-3602.29,-62.636000000000003,-255.49000000000001
169778.0,7805.96,7795.7700000000004,2468.3099999999999,5436.7600000000002,-3605.7600000000002,98.805800000000005,-416.30700000000002
169779.0,7801.9099999999999,7722.0299999999997,2460.48,5481.9200000000001,-3595.0599999999999,249.45500000000001,-575.66700000000003
169780.0,7788.3500000000004,7629.7799999999997,2449.96,5534.8100000000004,-3570.0,390.0,-730.21299999999997
169781.0,7765.4099999999999,7513.7399999999998,2430.6700000000001,5594.1700000000001,-3530.6199999999999,516.851,-883.04899999999998
169782.0,7720.1099999999997,7370.5100000000002,2408.8699999999999,5656.1800000000003,-3474.1100000000001,630.72799999999995,-1024.27
169783.0,7656.3800000000001,7173.2700000000004,2352.6599999999999,5704.3000000000002,-3400.6399999999999,716.49599999999998,-1165.0799999999999
169784.0,7735.1000000000004,7822.0699999999997,2482.1199999999999,5455.9499999999998,-3258.8800000000001,-1278.4300000000001,727.79700000000003
169785.0,7784.4700000000003,7948.6700000000001,2506.5799999999999,5402.5200000000004,-3367.0999999999999,-1059.52,570.22199999999998
169786.0,7829.5299999999997,8035.9300000000003,2522.9899999999998,5368.8599999999997,-3457.0900000000001,-845.18200000000002,408.93200000000002
169787.0,7868.4200000000001,8094.6400000000003,2538.9200000000001,5357.2600000000002,-3529.1399999999999,-636.74900000000002,244.93799999999999
169788.0,7900.5600000000004,8122.0299999999997,2549.3299999999999,5360.7299999999996,-3584.2199999999998,-435.30399999999997,78.688800000000001
169789.0,7924.9700000000003,8122.4499999999998,2556.2399999999998,5379.1199999999999,-3622.54,-241.66300000000001,-87.709500000000006
169790.0,7941.6899999999996,8097.9300000000003,2559.5500000000002,5411.0900000000001,-3644.8400000000001,-57.249899999999997,-254.36199999999999
169791.0,7950.2299999999996,8048.79,2557.5999999999999,5452.8900000000003,-3651.5300000000002,117.703,-418.899
169792.0,7951.3000000000002,7979.9200000000001,2553.1199999999999,5507.0600000000004,-3643.3600000000001,281.85300000000001,-582.26599999999996
169793.0,7942.5,7887.7799999999997,2543.1100000000001,5567.4899999999998,-3620.25,435.70400000000001,-740.95500000000004
169794.0,7923.79,7771.3800000000001,2525.9899999999998,5637.1599999999999,-3582.3299999999999,575.42899999999997,-898.10599999999999
169795.0,7883.1700000000001,7623.7700000000004,2503.75,5709.0699999999997,-3527.1199999999999,701.46699999999998,-1043.8699999999999
169796.0,7824.6499999999996,7429.3699999999999,2455.5799999999999,5777.5699999999997,-3455.3299999999999,798.40999999999997,-1189.3499999999999
169797.0,7826.9099999999999,7992.3800000000001,2558.3400000000001,5430.9300000000003,-3264.6799999999998,-1348.3800000000001,744.10699999999997
169798.0,7883.3000000000002,8132.8900000000003,2582.21,5377.5100000000002,-3379.46,-1117.9100000000001,585.12900000000002
169799.0,7935.1199999999999,8234.5799999999999,2600.5999999999999,5346.4499999999998,-3475.4200000000001,-891.56200000000001,422.10399999999998
169800.0,7980.79,8305.4699999999993,2617.6100000000001,5336.9700000000003,-3552.8299999999999,-670.72000000000003,255.86099999999999
169801.0,8019.5299999999997,8345.1700000000001,2630.9899999999998,5345.0100000000002,-3612.77,-456.31400000000002,86.987099999999998
169802.0,8050.2399999999998,8353.8799999999992,2638.77,5366.6499999999996,-3655.4000000000001,-249.274,-82.415300000000002
169803.0,8072.8999999999996,8337.4899999999998,2644.8400000000001,5404.6700000000001,-3681.52,-51.098300000000002,-252.38900000000001
169804.0,8087.04,8291.7299999999996,2642.9299999999998,5450.9499999999998,-3691.4699999999998,137.756,-420.54899999999998
169805.0,8093.1700000000001,8226.5400000000009,2640.9400000000001,5513.1099999999997,-3685.9299999999998,315.85199999999998,-587.77200000000005
169806.0,8089.0900000000001,8132.1800000000003,2629.5100000000002,5579.0,-3664.8699999999999,483.39400000000001,-750.51099999999997
169807.0,8074.8800000000001,8016.6800000000003,2615.5,5660.2700000000004,-3628.4000000000001,636.495,-911.85199999999998
169808.0,8039.4899999999998,7864.1199999999999,2591.75,5741.5,-3574.6700000000001,775.15099999999995,-1062.05
169809.0,7986.96,7663.1400000000003,2541.0700000000002,5820.8900000000003,-3504.5599999999999,883.97400000000005,-1212.1600000000001
169810.0,7908.79,8152.0500000000002,2633.1799999999998,5388.9399999999996,-3262.5700000000002,-1418.95,759.83100000000002
169811.0,7972.1999999999998,8316.6100000000006,2665.9200000000001,5345.4700000000003,-3383.9699999999998,-1176.78,599.66399999999999
169812.0,8030.8999999999996,8427.1700000000001,2679.8499999999999,5310.9200000000001,-3485.8699999999999,-938.22799999999995,435.14100000000002
169813.0,8083.1199999999999,8517.2900000000009,2704.9000000000001,5310.4499999999998,-3568.6100000000001,-704.73400000000004,266.88099999999997
169814.0,8128.25,8561.4699999999993,2713.4899999999998,5315.1000000000004,-3633.4200000000001,-477.029,95.694000000000003
169815.0,8165.0500000000002,8585.75,2729.4299999999998,5347.1400000000003,-3680.3299999999999,-256.31400000000002,-76.497399999999999
169816.0,8193.5799999999999,8570.1399999999994,2730.7800000000002,5383.6999999999998,-3710.23,-44.005899999999997,-249.501
169817.0,8213.1700000000001,8536.3600000000006,2737.25,5442.8199999999997,-3723.2800000000002,159.09800000000001,-421.077
169818.0,8224.3299999999999,8467.6900000000005,2730.3299999999999,5505.6800000000003,-3720.27,351.56799999999998,-591.86400000000003
169819.0,8225.0400000000009,8381.8199999999997,2727.6300000000001,5587.5,-3701.0799999999999,533.26499999999999,-758.42899999999997
169820.0,8215.1599999999999,8257.6000000000004,2707.73,5671.25,-3666.1599999999999,700.16899999999998,-923.69600000000003
169821.0,8184.75,8108.4399999999996,2691.21,5770.5900000000001,-3613.8000000000002,851.88699999999994,-1078.1300000000001
169822.0,8138.0,7902.7200000000003,2640.6999999999998,5863.4200000000001,-3545.5700000000002,972.86000000000001,-1232.5799999999999
169823.0,7980.7700000000004,8304.5799999999999,2712.1900000000001,5334.1700000000001,-3252.8299999999999,-1489.96,775.346
169824.0,8051.1199999999999,8484.0,2744.0300000000002,5291.1899999999996,-3380.9200000000001,-1235.9100000000001,614.19299999999998
169825.0,8116.5,8610.4200000000001,2760.46,5260.1099999999997,-3488.8499999999999,-984.99000000000001,448.41500000000002
169826.0,8175.25,8712.9500000000007,2786.21,5261.4099999999999,-3576.8899999999999,-738.65800000000002,278.30500000000001
169827.0,8226.7099999999991,8770.2999999999993,2798.2600000000002,5271.0100000000002,-3646.5,-497.45600000000002,105.015
169828.0,8269.5300000000007,8802.7299999999996,2814.5300000000002,5305.6199999999999,-3697.5900000000001,-262.75700000000001,-69.787800000000004
169829.0,8303.7399999999998,8796.0499999999993,2819.29,5348.71,-3731.1900000000001,-36.031999999999996,-245.60400000000001
169830.0,8328.7199999999993,8765.3500000000004,2825.3600000000001,5411.7200000000003,-3747.3800000000001,181.72300000000001,-420.39100000000002
169831.0,8344.7700000000004,8700.9599999999991,2821.54,5483.1499999999996,-3746.9099999999999,388.90199999999999,-594.54300000000001
169832.0,8350.1299999999992,8612.4500000000007,2817.0799999999999,5570.1199999999999,-3729.71,585.13300000000004,-764.75
169833.0,8344.7199999999993,8489.5,2800.9099999999999,5666.25,-3696.25,766.27099999999996,-933.73099999999999
169834.0,8319.5499999999993,8334.8999999999996,2782.6599999999999,5775.0200000000004,-3645.3400000000001,931.48099999999999,-1092.25
169835.0,8279.0799999999999,8122.9700000000003,2730.29,5880.0200000000004,-3579.0599999999999,1065.23,-1250.8399999999999
169836.0,8042.1400000000003,8443.8299999999999,2789.6500000000001,5260.21,-3234.3899999999999,-1561.3900000000001,790.33299999999997
169837.0,8119.4099999999999,8646.5400000000009,2828.3699999999999,5225.9099999999999,-3369.2800000000002,-1295.3,628.52300000000002
169838.0,8191.3800000000001,8784.4599999999991,2842.0900000000001,5193.4499999999998,-3483.1500000000001,-1031.8900000000001,461.64699999999999
169839.0,8256.3299999999999,8904.8400000000001,2873.9899999999998,5201.8299999999999,-3576.4699999999998,-772.43899999999996,290.02600000000001
169840.0,8313.7800000000007,8969.1100000000006,2883.23,5209.9399999999996,-3650.77,-517.51999999999998,114.852
169841.0,8362.4300000000003,9015.6599999999999,2905.8800000000001,5252.96,-3706.04,-268.517,-62.233899999999998
169842.0,8402.0900000000001,9011.7800000000007,2907.79,5296.2200000000003,-3743.21,-27.0852,-240.643
169843.0,8432.2600000000002,8991.1100000000006,2920.3200000000002,5369.9300000000003,-3762.4099999999999,205.68899999999999,-418.32600000000002
169844.0,8453.1100000000006,8925.4200000000001,2913.7600000000002,5444.1199999999999,-3764.3200000000002,427.95800000000003,-595.60400000000004
169845.0,8463.0799999999999,8842.9200000000001,2915.8800000000001,5544.8000000000002,-3748.96,639.17399999999998,-769.12800000000004
169846.0,8461.9699999999993,8713.3700000000008,2896.04,5645.7399999999998,-3716.96,834.96900000000005,-941.59299999999996
169847.0,8441.9699999999993,8559.6399999999994,2882.6100000000001,5770.6300000000001,-3667.5100000000002,1014.1,-1103.9200000000001
169848.0,8407.6399999999994,8345.7000000000007,2833.0999999999999,5892.4499999999998,-3603.27,1160.9100000000001,-1266.3900000000001
169849.0,8092.2799999999997,8575.7099999999991,2873.9499999999998,5173.6599999999999,-3207.0300000000002,-1632.8900000000001,805.08100000000002
169850.0,8176.3199999999997,8788.4200000000001,2905.6100000000001,5134.5600000000004,-3348.8400000000001,-1354.6500000000001,642.84400000000005
169851.0,8254.5499999999993,8949.3799999999992,2928.1700000000001,5112.2200000000003,-3468.6999999999998,-1078.6400000000001,475.13299999999998
169852.0,8325.5599999999995,9076.6399999999994,2954.6500000000001,5116.3199999999997,-3567.1900000000001,-805.928,302.23099999999999
169853.0,8388.7800000000007,9160.1900000000005,2973.1900000000001,5134.9899999999998,-3646.0700000000002,-537.12199999999996,125.379
169854.0,8443.0100000000002,9209.3500000000004,2990.5100000000002,5174.6199999999999,-3705.3800000000001,-273.56599999999997,-53.714399999999998
169855.0,8487.9200000000001,9220.3700000000008,3001.6100000000001,5229.9200000000001,-3746.0100000000002,-17.1465,-234.48400000000001
169856.0,8522.9799999999996,9196.9799999999996,3008.0599999999999,5301.5699999999997,-3768.1399999999999,230.971,-414.77999999999997
169857.0,8548.3600000000006,9140.9799999999996,3010.1399999999999,5389.5699999999997,-3772.3899999999999,468.64999999999998,-594.92999999999995
169858.0,8562.7000000000007,9050.2600000000002,3005.25,5490.04,-3758.9200000000001,695.16999999999996,-771.524
169859.0,8565.9400000000005,8927.1900000000005,2994.5500000000002,5608.7799999999997,-3728.27,906.02800000000002,-947.202
169860.0,8551.25,8762.8199999999997,2974.5,5738.4700000000003,-3680.3499999999999,1099.47,-1113.0999999999999
169861.0,8523.3099999999995,8547.5,2928.23,5878.0100000000002,-3618.1599999999999,1259.9300000000001,-1279.27
169862.0,8131.2299999999996,8685.5499999999993,2950.7600000000002,5059.6400000000003,-3169.96,-1704.46,819.37
169863.0,8221.6800000000003,8927.4799999999996,2994.0799999999999,5034.8199999999997,-3318.6999999999998,-1414.01,657.03599999999994
169864.0,8305.8899999999994,9095.5699999999997,3008.8600000000001,5006.2799999999997,-3444.4499999999998,-1125.24,488.69299999999998
169865.0,8382.5200000000004,9246.0799999999999,3046.3699999999999,5022.3599999999997,-3548.0700000000002,-839.11099999999999,314.84899999999999
169866.0,8451.0699999999997,9332.3500000000004,3057.5900000000001,5034.8100000000004,-3631.4000000000001,-556.17999999999995,136.601
169867.0,8510.4599999999991,9400.0400000000009,3085.6599999999999,5086.8599999999997,-3694.6100000000001,-277.84800000000001,-44.182899999999997
169868.0,8560.2999999999993,9409.6499999999996,3089.6999999999998,5137.6999999999998,-3738.5900000000001,-6.15306,-227.01599999999999
169869.0,8600.0499999999993,9400.5,3106.8800000000001,5224.0299999999997,-3763.4699999999998,257.60300000000001,-409.61200000000002
169870.0,8629.7900000000009,9338.9899999999998,3102.21,5310.4300000000003,-3769.8699999999999,511.06400000000002,-592.31299999999999
169871.0,8648.3799999999992,9257.7700000000004,3107.7199999999998,5428.2399999999998,-3758.0700000000002,753.29899999999998,-771.63400000000001
169872.0,8655.6900000000005,9124.0400000000009,3089.7399999999998,5548.0100000000002,-3728.79,979.57500000000005,-950.22500000000002
169873.0,8646.0799999999999,8963.7000000000007,3078.0100000000002,5697.5100000000002,-3682.3000000000002,1187.74,-1119.3800000000001
169874.0,8624.4400000000005,8743.0599999999995,3031.3000000000002,5851.0600000000004,-3622.25,1362.0999999999999,-1288.8599999999999
169875.0,8158.3599999999997,8790.2800000000007,3039.79,4935.96,-3122.77,-1775.77,833.45600000000002
169876.0,8254.8899999999994,9038.0699999999997,3070.6700000000001,4901.7799999999997,-3278.52,-1473.04,671.23800000000006
169877.0,8344.5900000000001,9235.5,3099.75,4889.2200000000003,-3410.1599999999999,-1171.47,502.58100000000002
169878.0,8426.4200000000001,9387.8600000000006,3126.52,4895.54,-3518.73,-871.79499999999996,328.01900000000001
169879.0,8499.9300000000003,9498.6000000000004,3152.0700000000002,4923.2799999999997,-3606.3499999999999,-574.62099999999998,148.678
169880.0,8564.1000000000004,9564.0,3169.9200000000001,4966.6199999999999,-3673.27,-281.303,-33.522399999999998
169881.0,8618.4699999999993,9593.1800000000003,3187.9699999999998,5033.8400000000001,-3720.4099999999999,5.9039099999999998,-218.102
169882.0,8662.5599999999995,9576.5499999999993,3194.46,5113.0500000000002,-3747.9499999999998,285.565,-402.68900000000002
169883.0,8696.3400000000001,9528.9400000000005,3202.9499999999998,5217.3800000000001,-3756.4699999999998,555.08399999999995,-587.62900000000002
169884.0,8718.7999999999993,9435.1100000000006,3197.4400000000001,5330.6499999999996,-3746.3000000000002,813.33100000000002,-769.38300000000004
169885.0,8730.0599999999995,9311.1800000000003,3192.4200000000001,5471.8199999999997,-3718.1700000000001,1055.3599999999999,-950.529
169886.0,8725.6100000000006,9136.3400000000001,3170.6300000000001,5622.7299999999996,-3673.1799999999998,1278.6199999999999,-1122.6400000000001
169887.0,8710.3400000000001,8917.6200000000008,3130.8600000000001,5797.96,-3615.27,1467.4400000000001,-1295.26
169888.0,8174.0500000000002,8862.9899999999998,3114.7199999999998,4775.4799999999996,-3064.6399999999999,-1846.76,847.15800000000002
169889.0,8276.0400000000009,9148.2299999999996,3164.2399999999998,4763.5500000000002,-3227.4400000000001,-1531.75,685.38199999999995
169890.0,8370.7099999999991,9346.4799999999996,3178.6900000000001,4738.1199999999999,-3364.8899999999999,-1217.28,516.68600000000004
169891.0,8457.1399999999994,9529.0,3223.0500000000002,4762.9300000000003,-3478.29,-903.96400000000006,341.75200000000001
169892.0,8535.0499999999993,9636.2700000000004,3234.9499999999998,4777.7200000000003,-3570.0,-592.35699999999997,161.62700000000001
169893.0,8603.4099999999999,9726.3400000000001,3269.7800000000002,4839.2299999999996,-3640.4400000000001,-283.89100000000002,-21.642099999999999
169894.0,8661.8500000000004,9747.7399999999998,3274.6500000000001,4895.3000000000002,-3690.5500000000002,19.059699999999999,-207.619
169895.0,8709.8899999999994,9751.0699999999997,3297.8899999999999,4994.6099999999997,-3720.5,314.88299999999998,-393.84500000000003
169896.0,8747.3299999999999,9691.8400000000001,3294.0599999999999,5091.2200000000003,-3730.8600000000001,600.77800000000002,-580.64400000000001
169897.0,8773.4899999999998,9612.1599999999999,3304.1500000000001,5226.5500000000002,-3722.0999999999999,875.36000000000001,-764.42600000000004
169898.0,8788.3999999999996,9472.2399999999998,3287.1199999999999,5363.6899999999996,-3695.1599999999999,1133.49,-947.80200000000002
169899.0,8788.7600000000002,9305.5799999999999,3278.27,5538.9399999999996,-3651.5100000000002,1372.1700000000001,-1122.49
169900.0,8779.5699999999997,9076.9200000000001,3233.6700000000001,5724.04,-3595.6900000000001,1575.6500000000001,-1297.72
169901.0,8178.25,8935.2399999999998,3209.7800000000002,4610.6700000000001,-2995.1500000000001,-1917.1099999999999,860.71900000000005
169902.0,8284.8899999999994,9219.3600000000006,3238.8699999999999,4582.29,-3165.0,-1589.8199999999999,699.58399999999995
169903.0,8383.7199999999993,9454.8199999999997,3274.9499999999998,4580.3800000000001,-3308.1399999999999,-1262.4200000000001,531.21699999999998
169904.0,8474.1499999999996,9632.6000000000004,3301.7199999999998,4588.4300000000003,-3426.1700000000001,-935.44399999999996,356.154
169905.0,8555.8899999999994,9770.7800000000007,3334.4200000000001,4624.5299999999997,-3521.8200000000002,-609.29899999999998,175.61099999999999
169906.0,8627.9200000000001,9852.1499999999996,3352.8099999999999,4670.5299999999997,-3595.4899999999998,-285.55599999999998,-8.4210700000000003
169907.0,8689.8799999999992,9898.6100000000006,3377.5300000000002,4748.1300000000001,-3648.3299999999999,33.341700000000003,-195.42599999999999
169908.0,8741.3199999999997,9888.5799999999999,3384.7800000000002,4834.2700000000004,-3680.5500000000002,345.50299999999999,-382.923
169909.0,8781.9599999999991,9847.5200000000004,3398.98,4953.0200000000004,-3692.6399999999999,648.00999999999999,-571.20500000000004
169910.0,8811.2800000000007,9750.3299999999999,3393.73,5078.9300000000003,-3685.1399999999999,939.15800000000002,-756.66499999999996
169911.0,8829.6100000000006,9623.5799999999999,3393.7800000000002,5241.0799999999999,-3659.1100000000001,1213.6700000000001,-941.82100000000003
169912.0,8834.6100000000006,9438.0400000000009,3371.1300000000001,5413.7700000000004,-3616.7600000000002,1468.0699999999999,-1118.72
169913.0,8831.6499999999996,9214.5900000000001,3337.1399999999999,5624.3100000000004,-3563.1300000000001,1686.79,-1296.3599999999999
169914.0,8171.6700000000001,8960.4300000000003,3279.5700000000002,4395.1000000000004,-2913.4400000000001,-1986.71,873.95600000000002
169915.0,8282.0699999999997,9296.2099999999991,3340.2800000000002,4402.8299999999999,-3090.3200000000002,-1647.24,713.84500000000003
169916.0,8384.1599999999999,9520.4799999999996,3349.27,4375.8699999999999,-3239.0100000000002,-1306.8599999999999,546.077
169917.0,8477.7399999999998,9740.0400000000009,3405.25,4413.6300000000001,-3361.5300000000002,-966.16600000000005,371.279
169918.0,8562.4699999999993,9863.7000000000007,3413.5,4425.5200000000004,-3460.8299999999999,-625.38199999999995,190.67400000000001
169919.0,8637.4799999999996,9979.7999999999993,3459.25,4499.3100000000004,-3537.5500000000002,-286.23700000000002,6.26105
169920.0,8702.2900000000009,10008.299999999999,3461.1599999999999,4555.3500000000004,-3592.8600000000001,48.737000000000002,-181.364
169921.0,8756.5300000000007,10026.5,3494.1300000000001,4669.6899999999996,-3626.96,377.45800000000003,-369.738
169922.0,8799.8899999999994,9964.7600000000002,3487.6700000000001,4771.5900000000001,-3640.4499999999998,696.80100000000004,-559.05700000000002
169923.0,8832.1399999999994,9888.6800000000003,3505.7399999999998,4926.5100000000002,-3633.9899999999998,1004.78,-745.74400000000003
169924.0,8853.4200000000001,9737.7999999999993,3486.5100000000002,5076.7399999999998,-3608.8200000000002,1295.9400000000001,-932.28300000000002
169925.0,8862.7099999999991,9566.6000000000004,3483.54,5280.1999999999998,-3567.5500000000002,1566.3499999999999,-1110.95
169926.0,8865.5400000000009,9326.7700000000004,3438.6399999999999,5494.5100000000002,-3516.0100000000002,1800.3900000000001,-1290.3699999999999
169927.0,8155.1300000000001,8995.9500000000007,3384.0700000000002,4186.9200000000001,-2818.98,-2055.3200000000002,887.11400000000003
169928.0,8267.9200000000001,9316.8099999999995,3409.4299999999998,4164.2200000000003,-3002.9200000000001,-1703.5899999999999,728.279
169929.0,8372.3400000000001,9592.6900000000005,3453.9299999999998,4174.8599999999997,-3157.04,-1350.4200000000001,561.495
169930.0,8467.9799999999996,9794.3899999999994,3479.3699999999999,4182.5600000000004,-3283.6900000000001,-995.94399999999996,387.23599999999999
169931.0,8554.8299999999999,9960.2800000000007,3520.27,4226.8500000000004,-3386.4000000000001,-640.52599999999995,206.96899999999999
169932.0,8631.9200000000001,10055.9,3538.4299999999998,4273.1099999999997,-3465.7600000000002,-285.89100000000002,22.551300000000001
169933.0,8698.8999999999996,10119.1,3570.5700000000002,4360.0900000000001,-3523.23,65.278899999999993,-165.28399999999999
169934.0,8755.2299999999996,10113.5,3577.8200000000002,4450.6199999999999,-3559.02,410.67000000000002,-354.10000000000002
169935.0,8800.7999999999993,10078.0,3598.3800000000001,4582.6400000000003,-3573.7600000000002,747.00599999999997,-544.02999999999997
169936.0,8835.2700000000004,9975.5400000000009,3593.1500000000001,4719.3500000000004,-3568.0999999999999,1071.98,-731.51900000000001
169937.0,8859.2900000000009,9844.4699999999993,3598.4699999999998,4901.2799999999997,-3543.46,1380.0,-918.91899999999998
169938.0,8872.6100000000006,9646.9200000000001,3575.0700000000002,5095.04,-3503.2600000000002,1666.6500000000001,-1098.9300000000001
169939.0,8881.0699999999997,9417.8199999999997,3547.0799999999999,5340.75,-3453.8699999999999,1916.49,-1279.8900000000001
169940.0,8130.1400000000003,8965.0,3448.0500000000002,3909.6500000000001,-2710.98,-2122.71,900.00300000000004
169941.0,8243.9400000000005,9352.3799999999992,3518.8099999999999,3937.9099999999999,-2901.9400000000001,-1758.9200000000001,742.97699999999998
169942.0,8349.1000000000004,9604.7999999999993,3523.8600000000001,3911.0900000000001,-3061.2399999999998,-1392.9400000000001,577.36199999999997
169943.0,8445.7900000000009,9858.9300000000003,3589.3400000000001,3958.98,-3191.8899999999999,-1024.7,404.17500000000001
169944.0,8533.5699999999997,9999.9599999999991,3595.9499999999998,3968.4299999999998,-3297.48,-654.66499999999996,224.541
169945.0,8611.9500000000007,10138.200000000001,3650.23,4050.23,-3379.3099999999999,-284.44299999999998,40.602200000000003
169946.0,8680.1200000000008,10174.700000000001,3651.6799999999998,4106.7200000000003,-3438.5,82.9251,-147.018
169947.0,8737.9899999999998,10203.4,3691.6999999999998,4231.3299999999999,-3475.6199999999999,445.18299999999999,-335.80099999999999
169948.0,8784.9500000000007,10140.200000000001,3685.6399999999999,4339.4200000000001,-3491.0999999999999,798.58500000000004,-525.84199999999998
169949.0,8821.3700000000008,10062.5,3708.6100000000001,4508.8599999999997,-3486.04,1140.76,-713.596
169950.0,8847.4799999999996,9902.0699999999997,3690.5,4673.8299999999999,-3461.8000000000002,1465.78,-901.42700000000002
169951.0,8864.3999999999996,9721.4500000000007,3690.3699999999999,4901.1199999999999,-3422.4499999999998,1768.8699999999999,-1082.23
169952.0,8877.7800000000007,9472.5100000000002,3648.6300000000001,5147.3900000000003,-3374.8499999999999,2034.52,-1264.0
169953.0,8098.9499999999998,8959.7299999999996,3566.0500000000002,3656.0599999999999,-2588.9299999999998,-2188.6199999999999,913.02599999999995
169954.0,8211.0699999999997,9309.9899999999998,3578.8800000000001,3632.29,-2786.6900000000001,-1812.8399999999999,757.91800000000001
169955.0,8315.9599999999991,9634.1700000000001,3639.2800000000002,3662.73,-2951.1100000000001,-1434.23,593.98199999999997
169956.0,8411.9500000000007,9852.2600000000002,3656.52,3662.5999999999999,-3085.1599999999999,-1052.3099999999999,422.13600000000002
169957.0,8499.8500000000004,10050.6,3711.6199999999999,3719.1300000000001,-3193.5700000000002,-667.67499999999995,243.58500000000001
169958.0,8578.1000000000004,10153.1,3723.9699999999998,3758.1999999999998,-3277.1500000000001,-281.91800000000001,60.574399999999997
169959.0,8646.8799999999992,10236.200000000001,3768.52,3857.0300000000002,-3337.8600000000001,101.73999999999999,-126.402
169960.0,8705.1399999999994,10228.1,3771.3000000000002,3945.1199999999999,-3375.9099999999999,480.82100000000003,-314.62099999999998
169961.0,8753.1000000000004,10200.0,3802.1799999999998,4091.8699999999999,-3391.9699999999998,851.404,-504.315
169962.0,8790.5100000000002,10085.9,3793.27,4233.3199999999997,-3387.0799999999999,1210.8199999999999,-691.81200000000001
169963.0,8818.5200000000004,9951.9799999999996,3807.6500000000001,4436.6800000000003,-3362.9000000000001,1552.96,-879.47299999999996
169964.0,8838.4099999999999,9736.6800000000003,3780.0,4646.2600000000002,-3324.1999999999998,1872.5999999999999,-1060.55
169965.0,8856.5900000000001,9504.0699999999997,3761.5500000000002,4929.6400000000003,-3278.54,2154.4899999999998,-1242.8299999999999
169966.0,8063.4099999999999,8855.3199999999997,3615.5500000000002,3302.8299999999999,-2451.98,-2252.3200000000002,925.84799999999996
169967.0,8172.8299999999999,9301.8700000000008,3703.1300000000001,3359.1300000000001,-2656.3200000000002,-1865.7,773.35000000000002
169968.0,8274.5,9577.3999999999996,3698.73,3327.6100000000001,-2825.5599999999999,-1473.8900000000001,611.20600000000002
169969.0,8368.8799999999992,9868.7399999999998,3777.75,3387.9400000000001,-2962.8699999999999,-1078.8299999999999,441.32499999999999
169970.0,8454.9500000000007,10022.200000000001,3779.3000000000002,3390.02,-3073.3499999999999,-679.37900000000002,264.18200000000002
169971.0,8532.4500000000007,10182.9,3844.6599999999999,3479.71,-3158.5700000000002,-278.31799999999998,82.630700000000004
169972.0,8600.2900000000009,10222.700000000001,3843.4000000000001,3531.8499999999999,-3220.1500000000001,121.699,-103.221
169973.0,8658.5300000000007,10261.200000000001,3892.3800000000001,3665.71,-3258.6999999999998,517.57799999999997,-290.32799999999997
169974.0,8706.4500000000007,10192.1,3885.04,3775.6300000000001,-3274.8200000000002,905.40099999999995,-479.12400000000002
169975.0,8744.5699999999997,10111.4,3914.5599999999999,3958.3000000000002,-3269.8099999999999,1282.0599999999999,-665.75
169976.0,8773.5900000000001,9937.0,3895.98,4133.9399999999996,-3245.4499999999998,1641.3900000000001,-852.73099999999999
169977.0,8796.1900000000005,9746.1800000000003,3900.2800000000002,4384.4899999999998,-3207.1300000000001,1977.6700000000001,-1033.4400000000001
169978.0,8818.2399999999998,9485.0799999999999,3860.3099999999999,4659.9700000000003,-3162.96,2275.73,-1215.45
169979.0,8028.0299999999997,8795.6499999999996,3743.5799999999999,2994.4699999999998,-2299.0799999999999,-2314.8800000000001,939.28099999999995
169980.0,8131.25,9190.6700000000001,3757.5599999999999,2982.9200000000001,-2510.5300000000002,-1916.0999999999999,788.92600000000004
169981.0,8228.0499999999993,9550.0799999999999,3821.21,3021.8600000000001,-2683.9499999999998,-1512.45,629.64800000000002
169982.0,8318.5799999999999,9793.8899999999994,3841.1599999999999,3022.1999999999998,-2824.0,-1103.6400000000001,461.56700000000001
169983.0,8401.8400000000001,10012.4,3900.25,3079.4099999999999,-2936.3600000000001,-690.03099999999995,286.72199999999998
169984.0,8476.8299999999999,10128.299999999999,3916.02,3117.1399999999999,-3022.4200000000001,-273.41800000000001,106.807
169985.0,8543.1200000000008,10219.4,3964.29,3216.4899999999998,-3084.5500000000002,142.655,-77.173000000000002
169986.0,8599.8999999999996,10213.799999999999,3970.5100000000002,3306.5599999999999,-3123.1100000000001,555.37699999999995,-262.78800000000001
169987.0,8647.2999999999993,10182.1,4004.3099999999999,3457.5100000000002,-3138.9699999999998,960.27300000000002,-449.97000000000003
169988.0,8685.1700000000001,10060.200000000001,3998.6700000000001,3607.3699999999999,-3133.27,1354.24,-635.25400000000002
169989.0,8715.1399999999994,9913.2399999999998,4015.1999999999998,3822.3400000000001,-3108.3400000000001,1730.6800000000001,-820.75999999999999
169990.0,8739.6299999999992,9684.3600000000006,3990.1500000000001,4051.9899999999998,-3070.1300000000001,2083.6399999999999,-1000.61
169991.0,8765.1800000000003,9439.7800000000007,3974.9200000000001,4364.7200000000003,-3027.6300000000001,2398.0500000000002,-1181.8599999999999
169992.0,7997.2799999999997,8623.0499999999993,3794.75,2572.96,-2129.8000000000002,-2375.0,952.56700000000001
169993.0,8091.2399999999998,9115.5,3882.98,2643.77,-2348.1100000000001,-1964.9100000000001,805.32299999999998
169994.0,8180.0900000000001,9424.7999999999993,3881.3400000000001,2618.71,-2525.1500000000001,-1549.01,648.82000000000005
169995.0,8265.25,9741.3299999999999,3963.4699999999998,2679.8200000000002,-2667.9400000000001,-1127.1600000000001,483.37799999999999
169996.0,8343.4400000000005,9912.7999999999993,3968.5799999999999,2680.1900000000001,-2781.1300000000001,-699.15099999999995,311.06999999999999
169997.0,8415.0699999999997,10085.200000000001,4037.5100000000002,2767.3099999999999,-2867.96,-267.48700000000002,133.48400000000001
169998.0,8478.1499999999996,10131.0,4039.77,2817.7600000000002,-2929.7600000000002,164.755,-48.154899999999998
169999.0,8533.1000000000004,10169.700000000001,4092.0100000000002,2951.6199999999999,-2967.8800000000001,594.01700000000005,-231.60300000000001
170000.0,8578.9200000000001,10095.700000000001,4088.1300000000001,3064.29,-2982.75,1016.0599999999999,-416.60199999999998
170001.0,8616.4200000000001,10004.0,4119.8100000000004,3252.3499999999999,-2976.1700000000001,1427.0899999999999,-599.81299999999999
170002.0,8646.4099999999999,9815.9799999999996,4104.7700000000004,3439.0599999999999,-2950.2800000000002,1820.6400000000001,-783.33399999999995
170003.0,8672.4899999999998,9608.1299999999992,4110.0100000000002,3706.27,-2911.8499999999999,2190.1399999999999,-961.48800000000006
170004.0,8700.4500000000007,9335.5499999999993,4075.0900000000001,4011.5599999999999,-2870.3299999999999,2520.8200000000002,-1141.2
170005.0,7978.2399999999998,8497.4300000000003,3931.8600000000001,2199.48,-1943.1199999999999,-2433.5799999999999,966.66300000000001
170006.0,8056.8800000000001,8926.6900000000005,3933.3400000000001,2193.4699999999998,-2168.6500000000001,-2010.6800000000001,822.05799999999999
170007.0,8136.4700000000003,9326.9699999999993,4008.2800000000002,2244.6399999999999,-2348.6599999999999,-1584.27,669.49199999999996
170008.0,8212.9400000000005,9589.2900000000009,4025.6300000000001,2240.5700000000002,-2493.52,-1148.5899999999999,506.5
170009.0,8285.1399999999994,9826.6100000000006,4091.4099999999999,2296.4400000000001,-2607.1799999999998,-707.19299999999998,337.71600000000001
170010.0,8351.3099999999995,9950.3799999999992,4108.7799999999997,2328.6100000000001,-2693.8000000000002,-260.11399999999998,162.64500000000001
170011.0,8410.6800000000003,10045.9,4161.4499999999998,2424.5100000000002,-2754.8699999999999,187.661,-15.7835
170012.0,8462.3299999999999,10038.200000000001,4170.7200000000003,2512.5700000000002,-2791.98,633.55999999999995,-196.684
170013.0,8506.3099999999995,9998.7000000000007,4207.4700000000003,2663.29,-2805.48,1072.29,-378.649
170014.0,8542.5499999999993,9864.6900000000005,4205.1700000000001,2817.6799999999998,-2797.3400000000001,1500.3800000000001,-559.28800000000001
170015.0,8572.6599999999999,9700.3600000000006,4223.7399999999998,3039.9400000000001,-2769.9299999999998,1910.74,-739.86199999999997
170016.0,8599.5599999999995,9454.0599999999995,4201.1800000000003,3285.9499999999998,-2730.9000000000001,2296.7399999999998,-915.78300000000002
170017.0,8629.3600000000006,9194.8099999999995,4189.3500000000004,3624.98,-2690.5100000000002,2643.5799999999999,-1093.27
170018.0,7977.5,8255.0400000000009,3992.4299999999998,1709.8900000000001,-1739.3900000000001,-2487.96,980.60299999999995
170019.0,8035.8800000000001,8764.9599999999991,4052.27,1773.9100000000001,-1970.46,-2055.2399999999998,840.18299999999999
170020.0,8103.1199999999999,9128.6100000000006,4076.0599999999999,1772.6300000000001,-2153.7600000000002,-1616.5999999999999,690.87099999999998
170021.0,8168.5100000000002,9448.7900000000009,4142.5299999999997,1816.5,-2299.8499999999999,-1168.8800000000001,531.81700000000001
170022.0,8232.8400000000001,9648.3400000000001,4165.7700000000004,1824.2,-2413.2600000000002,-713.29899999999998,366.28100000000001
170023.0,8292.3199999999997,9815.7399999999998,4225.8299999999999,1893.9300000000001,-2499.2199999999998,-251.90100000000001,194.923
170024.0,8346.7099999999991,9872.3899999999994,4241.5699999999997,1947.1700000000001,-2558.7800000000002,211.738,19.858899999999998
170025.0,8394.5799999999999,9897.9899999999998,4288.6300000000001,2068.71,-2594.1199999999999,673.53300000000002,-157.43799999999999
170026.0,8436.0300000000007,9820.6499999999996,4295.0100000000002,2185.6700000000001,-2605.5100000000002,1129.0799999999999,-335.96199999999999
170027.0,8470.8899999999994,9707.1499999999996,4322.9499999999998,2368.79,-2595.3499999999999,1573.6400000000001,-513.01199999999994
170028.0,8500.7800000000007,9505.5900000000001,4316.1899999999996,2566.5500000000002,-2566.0700000000002,2000.78,-690.18399999999997
170029.0,8528.3600000000006,9272.6100000000006,4318.3500000000004,2842.3099999999999,-2526.0100000000002,2402.8499999999999,-862.84799999999996
170030.0,8558.9400000000005,8988.4400000000005,4291.8199999999997,3176.8000000000002,-2485.96,2765.79,-1037.3800000000001
170031.0,8002.1599999999999,8024.3800000000001,4108.3000000000002,1237.9400000000001,-1517.6400000000001,-2538.9299999999998,995.18600000000004
170032.0,8036.9200000000001,8509.0499999999993,4121.8699999999999,1262.78,-1753.02,-2097.02,859.31500000000005
170033.0,8087.7299999999996,8929.4500000000007,4188.5299999999997,1305.4200000000001,-1939.8599999999999,-1646.9200000000001,713.64599999999996
170034.0,8139.8100000000004,9221.1000000000004,4218.3400000000001,1309.4100000000001,-2085.6700000000001,-1186.96,559.10400000000004
170035.0,8194.6200000000008,9459.5,4277.7700000000004,1347.04,-2198.8800000000001,-718.18299999999999,397.26900000000001
170036.0,8245.9699999999993,9596.5699999999997,4307.3900000000003,1380.0,-2282.71,-242.21899999999999,230.33600000000001
170037.0,8294.75,9680.9799999999996,4354.7700000000004,1457.71,-2340.4299999999998,236.37299999999999,59.2072
170038.0,8338.0300000000007,9673.5499999999993,4375.2200000000003,1546.8199999999999,-2373.1700000000001,714.173,-113.756
170039.0,8376.8999999999996,9612.7199999999993,4407.3299999999999,1684.3800000000001,-2381.9699999999998,1185.6800000000001,-288.11099999999999
170040.0,8410.2999999999993,9467.5799999999999,4414.8100000000004,1844.4200000000001,-2368.9400000000001,1646.76,-460.82799999999997
170041.0,8440.3199999999997,9274.5900000000001,4429.4799999999996,2062.8899999999999,-2337.2199999999998,2089.9899999999998,-633.66800000000001
170042.0,8468.2800000000007,9011.7999999999993,4414.9899999999998,2325.7399999999998,-2295.6399999999999,2508.0599999999999,-802.36699999999996
170043.0,8498.9799999999996,8728.6800000000003,4401.21,2681.3699999999999,-2255.9200000000001,2886.5500000000002,-973.15899999999999
170044.0,8060.6599999999999,7688.46,4164.1400000000003,667.15999999999997,-1277.9400000000001,-2584.77,1009.5599999999999
170045.0,8071.1800000000003,8255.1700000000001,4242.1800000000003,757.63699999999994,-1514.9200000000001,-2137.29,880.42200000000003
170046.0,8099.1499999999996,8642.0699999999997,4259.9499999999998,756.67399999999998,-1706.21,-1673.79,737.22199999999998
170047.0,8137.4099999999999,8978.7999999999993,4330.3400000000001,793.25800000000004,-1850.02,-1203.79,589.13599999999997
170048.0,8180.0,9189.2099999999991,4358.96,795.68100000000004,-1962.8,-720.88699999999994,430.404
170049.0,8222.9899999999998,9351.7299999999996,4417.2600000000002,847.10900000000004,-2043.4100000000001,-231.851,269.50999999999999
170050.0,8265.1100000000006,9408.8199999999997,4442.21,895.51999999999998,-2098.6799999999998,262.04399999999998,102.203
170051.0,8304.1200000000008,9415.9699999999993,4485.6000000000004,999.0,-2127.71,754.79399999999998,-64.993700000000004
170052.0,8340.5,9328.5599999999995,4501.7700000000004,1115.0,-2133.29,1242.3399999999999,-234.94999999999999
170053.0,8373.0,9186.0100000000002,4525.2600000000002,1285.74,-2116.7199999999998,1719.0,-402.04599999999999
170054.0,8403.5499999999993,8965.9799999999996,4527.71,1490.1700000000001,-2082.0799999999999,2178.1399999999999,-570.13800000000003
170055.0,8432.1900000000005,8700.8899999999994,4525.4300000000003,1766.8499999999999,-2038.3499999999999,2611.52,-733.59900000000005
170056.0,8462.3700000000008,8402.4699999999993,4508.79,2127.21,-1998.22,3005.4000000000001,-899.976
170057.0,8162.8299999999999,7312.1800000000003,4232.9099999999999,68.568899999999999,-1016.64,-2628.8099999999999,1025.1099999999999
170058.0,8150.5500000000002,7940.9399999999996,4351.8599999999997,194.96100000000001,-1257.6300000000001,-2172.8400000000001,902.25
170059.0,8147.7600000000002,8311.3099999999995,4340.9300000000003,174.578,-1450.4400000000001,-1699.24,763.33900000000006
170060.0,8173.8500000000004,8673.9799999999996,4433.0699999999997,220.648,-1593.1500000000001,-1217.55,620.72900000000004
170061.0,8200.2199999999993,8871.9500000000007,4449.1300000000001,207.119,-1703.3800000000001,-722.72699999999998,467.08300000000003
170062.0,8236.6399999999994,9039.5200000000004,4517.1300000000001,254.88999999999999,-1780.6099999999999,-219.75200000000001,311.74599999999998
170063.0,8270.4699999999993,9087.5200000000004,4540.0200000000004,294.048,-1831.95,287.77300000000002,149.90000000000001
170064.0,8306.8600000000006,9084.75,4584.5299999999997,387.13,-1856.8900000000001,795.84000000000003,-11.4864
170065.0,8340.5400000000009,8986.9300000000003,4602.8999999999996,498.54500000000002,-1858.1700000000001,1298.02,-175.643
170066.0,8374.1700000000001,8828.2800000000007,4625.6499999999996,661.05600000000004,-1837.4200000000001,1790.3900000000001,-336.70400000000001
170067.0,8405.8600000000006,8597.0100000000002,4632.96,867.18799999999999,-1798.96,2264.3000000000002,-498.72699999999998
170068.0,8436.3999999999996,8312.5799999999999,4628.0299999999997,1140.6800000000001,-1752.6600000000001,2712.8299999999999,-656.34299999999996
170069.0,8465.2900000000009,8000.5600000000004,4611.8699999999999,1507.24,-1711.79,3121.1300000000001,-817.22799999999995
170070.0,8333.6700000000001,6932.0299999999997,4353.8800000000001,-533.85400000000004,-732.30899999999997,-2673.0999999999999,1043.52
170071.0,8278.4799999999996,7536.4200000000001,4423.9099999999999,-443.69999999999999,-980.76900000000001,-2202.54,924.15599999999995
170072.0,8252.75,7953.1400000000003,4451.0200000000004,-430.99000000000001,-1171.5799999999999,-1723.3399999999999,792.50099999999998
170073.0,8257.8600000000006,8291.5400000000009,4514.9899999999998,-416.30000000000001,-1314.05,-1228.27,653.952
170074.0,8272.7800000000007,8510.1299999999992,4554.8400000000001,-418.61900000000003,-1419.5599999999999,-723.29499999999996,507.601
170075.0,8299.1399999999994,8655.1100000000006,4606.6099999999997,-396.40199999999999,-1493.29,-206.48400000000001,357.26799999999997
170076.0,8328.1800000000003,8707.1800000000003,4643.6400000000003,-356.56200000000001,-1539.1500000000001,313.95699999999999,202.614
170077.0,8361.3600000000006,8684.1499999999996,4680.4300000000003,-281.11399999999998,-1559.3800000000001,836.50900000000001,47.135599999999997
170078.0,8395.6000000000004,8580.7199999999993,4708.3699999999999,-171.334,-1555.1900000000001,1352.95,-109.794
170079.0,8431.0,8398.3799999999992,4725.1099999999997,-22.7182,-1529.6900000000001,1859.8900000000001,-264.33199999999999
170080.0,8466.6399999999994,8154.6599999999999,4738.6700000000001,183.011,-1486.6300000000001,2348.1799999999998,-419.07999999999998
170081.0,8499.7900000000009,7848.1700000000001,4729.9200000000001,451.101,-1437.0699999999999,2810.8200000000002,-570.0
170082.0,8528.1499999999996,7531.7200000000003,4724.8699999999999,832.04200000000003,-1394.6300000000001,3233.25,-724.22900000000004
170083.0,8579.1399999999994,6501.3000000000002,4477.5100000000002,-1185.9200000000001,-427.57900000000001,-2709.7600000000002,1063.49
170084.0,8472.0200000000004,7072.6199999999999,4496.46,-1127.3599999999999,-681.12,-2231.3200000000002,947.84100000000001
170085.0,8424.7700000000004,7534.3199999999997,4559.0,-1089.22,-870.71199999999999,-1742.4100000000001,823.46500000000003
170086.0,8405.9099999999999,7849.9799999999996,4599.9700000000003,-1099.3499999999999,-1010.53,-1238.0899999999999,690.33299999999997
170087.0,8411.9300000000003,8080.2399999999998,4656.5100000000002,-1101.03,-1111.4200000000001,-721.14700000000005,551.12199999999996
170088.0,8427.8999999999996,8207.3999999999996,4699.3800000000001,-1097.5,-1179.6400000000001,-192.965,407.197
170089.0,8455.2999999999993,8254.6499999999996,4744.5100000000002,-1066.01,-1219.53,340.86200000000002,260.02800000000002
170090.0,8486.4699999999993,8212.6399999999994,4777.4899999999998,-1005.83,-1233.6400000000001,876.27200000000005,111.64100000000001
170091.0,8524.5699999999997,8093.5500000000002,4808.1700000000001,-907.33199999999999,-1223.3199999999999,1406.6900000000001,-37.386000000000003
170092.0,8564.3299999999999,7893.3599999999997,4826.3900000000003,-766.77300000000002,-1191.9200000000001,1927.01,-184.24799999999999
170093.0,8607.0799999999999,7628.8599999999997,4840.4399999999996,-569.67999999999995,-1143.51,2429.02,-330.791
170094.0,8644.9200000000001,7305.1499999999996,4834.5600000000004,-302.42500000000001,-1089.96,2904.7600000000002,-473.93299999999999
170095.0,8673.7099999999991,6964.2700000000004,4823.1000000000004,72.724500000000006,-1045.53,3340.48,-620.59299999999996
170096.0,8895.9400000000005,5959.2399999999998,4551.7799999999997,-1927.22,-101.43300000000001,-2738.9099999999999,1083.9300000000001
170097.0,8754.1700000000001,6582.1800000000003,4603.0799999999999,-1835.21,-358.75999999999999,-2257.8600000000001,973.82399999999996
170098.0,8670.0699999999997,7031.5100000000002,4646.1599999999999,-1812.48,-545.95899999999995,-1757.3099999999999,856.63699999999994
170099.0,8638.9500000000007,7354.9799999999996,4697.7600000000002,-1827.4300000000001,-682.58199999999999,-1246.1099999999999,729.75099999999998
170100.0,8629.5300000000007,7576.1099999999997,4751.75,-1839.76,-777.19500000000005,-716.81500000000005,598.16399999999999
170101.0,8643.6700000000001,7689.9899999999998,4794.75,-1855.7,-839.04100000000005,-178.904,461.66399999999999
170102.0,8668.0499999999993,7726.1999999999998,4843.5799999999999,-1833.26,-871.83199999999999,368.04500000000002,322.49900000000002
170103.0,8703.8999999999996,7663.25,4874.5699999999997,-1793.25,-878.54100000000005,914.97799999999995,182.447
170104.0,8747.4599999999991,7529.8900000000003,4911.3199999999997,-1701.6199999999999,-861.197,1458.7,41.923200000000001
170105.0,8796.8799999999992,7301.8900000000003,4924.8900000000003,-1580.4100000000001,-822.78599999999994,1991.1800000000001,-95.941999999999993
170106.0,8849.5699999999997,7019.46,4944.4399999999996,-1387.6500000000001,-768.428,2505.96,-233.559
170107.0,8895.9200000000001,6669.4099999999999,4935.0200000000004,-1131.55,-709.86500000000001,2993.7399999999998,-367.49000000000001
170108.0,8926.5100000000002,6320.0,4934.3500000000004,-746.226,-662.66700000000003,3441.79,-505.68299999999999
170109.0,9323.1000000000004,5366.46,4649.1400000000003,-2710.3000000000002,251.071,-2774.4000000000001,1108.2
170110.0,9115.6200000000008,6028.8800000000001,4705.3800000000001,-2588.4899999999998,-16.069299999999998,-2272.1700000000001,999.97699999999998
170111.0,9016.8999999999996,6449.6700000000001,4726.4499999999998,-2604.3699999999999,-194.72999999999999,-1774.6700000000001,894.27999999999997
170112.0,8960.9200000000001,6806.6800000000003,4808.9300000000003,-2590.2399999999998,-330.86200000000002,-1247.3599999999999,770.59400000000005
170113.0,8948.8400000000001,6978.8299999999999,4829.7799999999997,-2657.3899999999999,-414.83600000000001,-713.86500000000001,650.72000000000003
170114.0,8958.8999999999996,7115.1300000000001,4907.4399999999996,-2651.9499999999998,-471.50900000000001,-161.816,519.41899999999998
170115.0,8988.1100000000006,7100.4700000000003,4926.29,-2680.5500000000002,-493.90300000000002,393.41899999999998,391.66000000000003
170116.0,9031.3799999999992,7044.9300000000003,4985.29,-2629.21,-493.60300000000001,953.59900000000005,258.79000000000002
170117.0,9086.0799999999999,6862.7200000000003,4998.0200000000004,-2580.04,-466.97300000000001,1507.47,129.40299999999999
170118.0,9149.9200000000001,6632.79,5034.8400000000001,-2450.8899999999999,-421.30900000000003,2052.4099999999999,0.35247000000000001
170119.0,9217.0599999999995,6306.1599999999999,5036.7600000000002,-2289.46,-359.43000000000001,2577.73,-126.255
170120.0,9276.3199999999997,5948.3100000000004,5044.9399999999996,-2025.52,-295.53500000000003,3077.0599999999999,-250.607
170121.0,9311.0799999999999,5558.0,5025.3199999999997,-1663.2,-244.59,3535.6999999999998,-378.75700000000001
170122.0,9861.5100000000002,4897.6899999999996,4915.2299999999996,-3389.5500000000002,617.62699999999995,-2794.6199999999999,1133.03
170123.0,9570.8400000000001,5251.4399999999996,4663.8500000000004,-3529.77,357.61599999999999,-2289.8499999999999,1031.47
170124.0,9475.2399999999998,5925.9499999999998,4930.1400000000003,-3336.0300000000002,175.62299999999999,-1782.79,930.91700000000003
170125.0,9384.3700000000008,6077.8299999999999,4817.0600000000004,-3506.21,51.966500000000003,-1250.05,818.60699999999997
170126.0,9386.2900000000009,6391.1499999999996,4993.8500000000004,-3453.5999999999999,-28.4376,-706.23800000000006,704.31100000000004
170127.0,9386.7399999999998,6387.2700000000004,4949.5200000000004,-3575.8099999999999,-72.533799999999999,-146.316,584.57600000000002
170128.0,9435.2299999999996,6444.96,5064.6199999999999,-3540.0500000000002,-87.427599999999998,420.01299999999998,464.87099999999998
170129.0,9484.2000000000007,6292.1700000000001,5050.7299999999996,-3574.5,-76.005600000000001,989.22500000000002,343.27100000000002
170130.0,9561.9200000000001,6140.9499999999998,5122.8500000000004,-3492.2399999999998,-40.717100000000002,1554.3199999999999,223.84999999999999
170131.0,9641.0100000000002,5836.9700000000003,5114.1099999999997,-3423.02,14.4329,2108.5700000000002,106.205
170132.0,9731.7399999999998,5516.5900000000001,5152.3999999999996,-3245.0100000000002,84.027199999999993,2644.3699999999999,-9.3801699999999997
170133.0,9805.7099999999991,5103.8500000000004,5133.3800000000001,-3018.5799999999999,154.79300000000001,3152.8200000000002,-122.09999999999999
170134.0,9850.8299999999999,4717.6199999999999,5142.54,-2636.5100000000002,209.999,3621.4899999999998,-239.51900000000001
170135.0,10425.9,3900.2800000000002,4712.8400000000001,-4526.4899999999998,998.99000000000001,-2782.0100000000002,1150.1199999999999
170136.0,10193.299999999999,4746.3800000000001,4974.3199999999997,-4224.6099999999997,761.06899999999996,-2319.3499999999999,1072.6400000000001
170137.0,10007.0,5067.5,4868.6099999999997,-4352.2799999999997,569.26099999999997,-1776.99,965.48500000000001
170138.0,9955.2000000000007,5465.8299999999999,5026.2799999999997,-4308.6400000000003,462.46600000000001,-1256.27,874.18499999999995
170139.0,9927.6399999999994,5571.0500000000002,5004.5699999999997,-4443.5500000000002,386.04599999999999,-693.16099999999994,759.27999999999997
170140.0,9959.9899999999998,5685.8800000000001,5107.6999999999998,-4463.21,356.62799999999999,-132.47499999999999,657.49199999999996
170141.0,10008.799999999999,5612.5600000000004,5115.1899999999996,-4542.7799999999997,350.137,447.02100000000002,542.27800000000002
170142.0,10088.299999999999,5509.0,5181.96,-4532.1199999999999,374.48000000000002,1022.25,436.51999999999998
170143.0,10182.200000000001,5267.0799999999999,5193.75,-4525.0699999999997,419.27100000000002,1597.79,325.274
170144.0,10292.5,4977.6800000000003,5232.9499999999998,-4436.1400000000003,485.40699999999998,2159.6599999999999,222.453
170145.0,10405.5,4589.8299999999999,5236.2399999999998,-4308.0100000000002,563.58799999999997,2704.23,117.324
170146.0,10504.799999999999,4175.04,5246.8599999999997,-4071.77,642.14599999999996,3220.48,18.773499999999999
170147.0,10560.9,3733.5700000000002,5227.8599999999997,-3725.73,702.47799999999995,3697.23,-87.809600000000003
170148.0,11128.700000000001,3018.3800000000001,4739.9399999999996,-5489.6899999999996,1422.6500000000001,-2805.3699999999999,1178.76
170149.0,10911.1,4026.0700000000002,5126.4099999999999,-5132.0299999999997,1176.25,-2314.5799999999999,1106.21
170150.0,10673.4,4231.3000000000002,4919.1899999999996,-5320.04,997.87099999999998,-1787.02,1013.6
170151.0,10643.9,4697.3100000000004,5156.4200000000001,-5246.8500000000004,894.83600000000001,-1246.55,924.86400000000003
170152.0,10608.0,4717.9399999999996,5073.0900000000001,-5443.04,833.66800000000001,-687.25599999999997,825.95100000000002
170153.0,10670.299999999999,4851.3599999999997,5223.7700000000004,-5456.5500000000002,813.63499999999999,-112.157,730.697
170154.0,10732.0,4711.9300000000003,5194.7399999999998,-5588.3500000000004,821.49000000000001,468.70400000000001,630.03999999999996
170155.0,10846.0,4602.5699999999997,5291.46,-5582.6800000000003,857.346,1055.6900000000001,534.46600000000001
170156.0,10964.6,4305.5500000000002,5281.96,-5617.96,914.77099999999996,1634.9100000000001,437.334
170157.0,11111.5,3994.6700000000001,5338.2200000000003,-5541.21,991.91800000000001,2206.3200000000002,346.911
170158.0,11253.200000000001,3559.0599999999999,5328.75,-5446.1199999999999,1080.3499999999999,2755.25,256.07600000000002
170159.0,11383.4,3119.4400000000001,5350.6300000000001,-5220.5100000000002,1167.47,3279.3800000000001,171.08099999999999
170160.0,11455.700000000001,2647.5999999999999,5329.9300000000003,-4888.79,1234.23,3761.0599999999999,77.866299999999995
170161.0,12058.200000000001,2433.04,5142.1499999999996,-6244.3900000000003,1878.8199999999999,-2841.0900000000001,1217.8800000000001
170162.0,11675.299999999999,2958.1700000000001,5009.0600000000004,-6294.2299999999996,1610.9100000000001,-2298.8099999999999,1138.1700000000001
170163.0,11513.5,3506.4400000000001,5167.54,-6201.25,1456.0899999999999,-1793.9300000000001,1068.04
170164.0,11431.799999999999,3698.48,5141.75,-6358.6199999999999,1353.6800000000001,-1234.96,977.91800000000001
170165.0,11450.799999999999,3875.8499999999999,5248.0200000000004,-6426.4099999999999,1311.6300000000001,-677.88900000000001,899.11099999999999
170166.0,11511.299999999999,3842.8099999999999,5261.1000000000004,-6580.5200000000004,1301.49,-93.874300000000005,808.44500000000005
170167.0,11621.5,3767.3899999999999,5334.4700000000003,-6657.8400000000001,1326.1600000000001,491.28800000000001,725.74800000000005
170168.0,11756.9,3544.4400000000001,5354.8199999999997,-6746.3400000000001,1374.1300000000001,1083.98,639.36099999999999
170169.0,11921.9,3263.6500000000001,5402.8199999999997,-6763.2299999999996,1446.1900000000001,1668.9300000000001,559.02999999999997
170170.0,12101.1,2871.0,5417.5100000000002,-6750.4399999999996,1535.1600000000001,2244.6500000000001,481.00599999999997
170171.0,12285.299999999999,2427.4699999999998,5441.0900000000001,-6653.46,1635.3399999999999,2798.7600000000002,406.54399999999998
170172.0,12446.299999999999,1927.0599999999999,5440.2600000000002,-6471.3299999999999,1731.6600000000001,3326.4499999999998,335.72500000000002
170173.0,12544.5,1433.4300000000001,5431.6700000000001,-6147.9200000000001,1805.71,3812.6999999999998,257.51100000000002
170174.0,13058.5,1508.8699999999999,5263.5299999999997,-7325.0200000000004,2347.3600000000001,-2826.9499999999998,1253.96
170175.0,12592.5,2001.79,5094.8900000000003,-7329.4200000000001,2079.1100000000001,-2303.8699999999999,1180.04
170176.0,12460.1,2550.6900000000001,5269.8699999999999,-7278.2700000000004,1936.02,-1781.28,1119.8199999999999
170177.0,12368.799999999999,2715.5300000000002,5235.96,-7436.25,1844.23,-1229.29,1041.02
170178.0,12426.9,2856.8600000000001,5343.1899999999996,-7550.0200000000004,1817.73,-661.70399999999995,973.20899999999995
170179.0,12509.200000000001,2791.98,5358.5799999999999,-7721.0699999999997,1822.1900000000001,-78.699600000000004,895.41200000000003
170180.0,12664.4,2666.3400000000001,5426.6300000000001,-7845.4399999999996,1863.1700000000001,513.95600000000002,826.25
170181.0,12836.5,2410.6100000000001,5455.1999999999998,-7954.2799999999997,1926.3199999999999,1107.5999999999999,753.995
170182.0,13049.1,2075.3200000000002,5496.0799999999999,-8015.6099999999997,2013.4000000000001,1697.8499999999999,688.90899999999999
170183.0,13271.200000000001,1646.1800000000001,5518.0699999999997,-8025.9700000000003,2115.9400000000001,2274.9200000000001,626.26800000000003
170184.0,13500.799999999999,1150.28,5535.3500000000004,-7967.21,2228.5500000000002,2832.23,568.00900000000001
170185.0,13700.5,616.226,5541.9399999999996,-7804.8100000000004,2335.3400000000001,3361.27,513.65899999999999
170186.0,13828.799999999999,85.670100000000005,5533.5799999999999,-7503.5799999999999,2417.8499999999999,3849.8699999999999,451.10500000000002
170187.0,14103.200000000001,424.09300000000002,5300.6199999999999,-8474.5499999999993,2829.3800000000001,-2800.4200000000001,1290.5599999999999
170188.0,13674.200000000001,1003.03,5231.3199999999997,-8422.5900000000001,2580.79,-2302.4200000000001,1228.03
170189.0,13508.200000000001,1481.8699999999999,5345.4300000000003,-8417.0900000000001,2437.3099999999999,-1766.04,1173.3800000000001
170190.0,13459.5,1645.1500000000001,5343.8000000000002,-8585.7299999999996,2367.0599999999999,-1218.8099999999999,1110.9300000000001
170191.0,13535.200000000001,1734.0599999999999,5433.9399999999996,-8735.9099999999999,2351.6399999999999,-645.66300000000001,1050.95
170192.0,13666.9,1631.6099999999999,5456.8500000000004,-8942.1399999999994,2376.6999999999998,-62.2742,990.35299999999995
170193.0,13861.299999999999,1459.28,5524.1599999999999,-9098.9400000000005,2432.73,533.21500000000003,932.90499999999997
170194.0,14086.299999999999,1149.8399999999999,5548.9099999999999,-9252.8999999999996,2514.1599999999999,1128.1900000000001,877.89099999999996
170195.0,14347.0,770.41800000000001,5595.4700000000003,-9343.5,2616.5799999999999,1719.5899999999999,827.56600000000003
170196.0,14622.700000000001,286.02600000000001,5612.96,-9396.9699999999993,2734.73,2297.1500000000001,782.75800000000004
170197.0,14900.0,-251.989,5636.4099999999999,-9364.9500000000007,2860.3499999999999,2854.1399999999999,741.03200000000004
170198.0,15146.4,-835.86099999999999,5639.9499999999998,-9239.1399999999994,2978.8699999999999,3382.8600000000001,704.99400000000003
170199.0,15308.9,-1408.98,5629.2200000000003,-8966.2600000000002,3070.3200000000002,3870.5300000000002,658.68200000000002
170200.0,15265.5,-802.94500000000005,5285.8999999999996,-9730.25,3337.71,-2781.1599999999999,1327.0
170201.0,14875.299999999999,-41.112900000000003,5413.3100000000004,-9537.7000000000007,3104.75,-2287.5700000000002,1281.2
170202.0,14684.700000000001,283.5,5385.9099999999999,-9652.8899999999994,2968.6300000000001,-1749.9100000000001,1231.6800000000001
170203.0,14686.700000000001,505.36700000000002,5483.4899999999998,-9774.4500000000007,2916.27,-1203.3199999999999,1184.8699999999999
170204.0,14786.0,481.69400000000002,5500.3500000000004,-10014.799999999999,2917.27,-629.25800000000004,1135.3199999999999
170205.0,14976.5,378.46199999999999,5575.4200000000001,-10219.5,2961.73,-45.555300000000003,1091.1300000000001
170206.0,15216.1,115.422,5603.0600000000004,-10448.200000000001,3036.3600000000001,549.62900000000002,1047.46
170207.0,15502.9,-218.637,5660.1999999999998,-10617.6,3136.8400000000001,1144.2,1010.16
170208.0,15817.1,-676.36300000000006,5682.6199999999999,-10769.5,3256.3499999999999,1733.8900000000001,976.05999999999995
170209.0,16152.9,-1198.0799999999999,5719.0799999999999,-10847.700000000001,3390.8400000000001,2309.79,949.87900000000002
170210.0,16483.200000000001,-1802.8,5728.4399999999996,-10866.299999999999,3530.73,2863.4899999999998,926.07600000000002
170211.0,16782.099999999999,-2424.3699999999999,5745.2700000000004,-10765.700000000001,3661.75,3389.4400000000001,909.53099999999995
170212.0,16984.299999999999,-3044.4400000000001,5730.6599999999999,-10526.5,3763.3899999999999,3873.46,880.74199999999996
170213.0,16583.700000000001,-1966.6300000000001,5436.8299999999999,-10918.1,3880.5300000000002,-2767.5700000000002,1372.5899999999999
170214.0,16168.6,-1280.6099999999999,5485.1000000000004,-10803.200000000001,3647.1999999999998,-2258.5900000000001,1333.3800000000001
170215.0,16006.4,-940.86400000000003,5503.9099999999999,-10893.700000000001,3529.9699999999998,-1734.2,1298.95
170216.0,16036.200000000001,-789.23400000000004,5569.9099999999999,-11074.5,3491.6700000000001,-1181.3199999999999,1260.46
170217.0,16188.200000000001,-843.553,5607.8800000000001,-11333.799999999999,3514.71,-613.649,1228.4200000000001
170218.0,16430.799999999999,-1016.88,5668.0100000000002,-11593.6,3578.1999999999998,-28.2181,1196.78
170219.0,16732.400000000001,-1326.8900000000001,5707.8900000000003,-11855.700000000001,3674.0900000000001,562.17200000000003,1171.4200000000001
170220.0,17080.299999999999,-1734.76,5751.6700000000001,-12082.700000000001,3793.2600000000002,1155.47,1149.96
170221.0,17459.099999999999,-2242.1900000000001,5785.7700000000004,-12269.299999999999,3932.1799999999998,1739.98,1135.02
170222.0,17858.0,-2831.4099999999999,5815.25,-12399.200000000001,4083.5999999999999,2311.8499999999999,1127.3599999999999
170223.0,18248.299999999999,-3486.3499999999999,5831.7399999999998,-12453.200000000001,4238.7799999999997,2859.3800000000001,1123.3499999999999
170224.0,18604.0,-4165.1899999999996,5846.2299999999996,-12396.700000000001,4383.0900000000001,3379.8000000000002,1126.78
170225.0,18852.400000000001,-4836.6199999999999,5827.8800000000001,-12197.1,4495.7299999999996,3857.02,1116.8699999999999
170226.0,18026.0,-3183.4299999999998,5621.21,-12159.299999999999,4443.8999999999996,-2737.8200000000002,1424.5
170227.0,17572.599999999999,-2643.5799999999999,5531.25,-12144.700000000001,4215.8299999999999,-2229.4099999999999,1390.0799999999999
170228.0,17458.700000000001,-2240.2800000000002,5649.29,-12183.5,4117.3100000000004,-1708.8900000000001,1369.73
170229.0,17515.200000000001,-2207.1399999999999,5639.9300000000003,-12455.0,4095.7399999999998,-1159.6800000000001,1343.1500000000001
170230.0,17731.200000000001,-2269.73,5727.4499999999998,-12716.9,4139.9200000000001,-594.00999999999999,1326.25
170231.0,18029.900000000001,-2540.5700000000002,5751.5100000000002,-13050.700000000001,4225.1199999999999,-13.7767,1310.0999999999999
170232.0,18403.700000000001,-2895.1500000000001,5814.1000000000004,-13343.9,4343.3999999999996,573.255,1302.28
170233.0,18819.099999999999,-3378.5500000000002,5850.0,-13625.4,4484.6700000000001,1159.27,1299.21
170234.0,19269.799999999999,-3948.1500000000001,5888.4700000000003,-13859.700000000001,4642.8800000000001,1738.0699999999999,1303.76
170235.0,19735.700000000001,-4604.5200000000004,5915.9399999999996,-14038.700000000001,4812.3699999999999,2301.5900000000001,1315.75
170236.0,20192.900000000001,-5319.9099999999999,5934.79,-14139.0,4983.7700000000004,2840.9099999999999,1332.4100000000001
170237.0,20609.200000000001,-6054.6999999999998,5951.75,-14125.299999999999,5141.9499999999998,3351.9299999999998,1356.99
170238.0,20909.5,-6772.46,5937.9499999999998,-13962.1,5266.1499999999996,3819.9099999999999,1366.9200000000001
170239.0,19550.099999999999,-4623.3299999999999,5672.29,-13570.4,5026.5100000000002,-2689.1300000000001,1477.3299999999999
170240.0,19110.200000000001,-4001.8699999999999,5682.3299999999999,-13463.299999999999,4810.9300000000003,-2198.1199999999999,1453.74
170241.0,19021.0,-3719.9899999999998,5715.3100000000004,-13607.1,4727.1199999999999,-1676.8699999999999,1444.1400000000001
170242.0,19132.099999999999,-3678.9200000000001,5768.9700000000003,-13855.299999999999,4727.7299999999996,-1134.9200000000001,1432.0599999999999
170243.0,19409.700000000001,-3846.9299999999998,5815.7799999999997,-14200.799999999999,4795.75,-573.66399999999999,1430.1600000000001
170244.0,19779.599999999999,-4158.7299999999996,5867.8599999999997,-14557.6,4904.2200000000003,-0.109833,1431.28
170245.0,20225.599999999999,-4600.8500000000004,5914.71,-14916.799999999999,5045.1800000000003,579.255,1441.4400000000001
170246.0,20715.700000000001,-5156.4300000000003,5948.9200000000001,-15253.799999999999,5206.75,1157.45,1457.0999999999999
170247.0,21241.799999999999,-5794.4399999999996,5992.9099999999999,-15535.299999999999,5386.5699999999997,1726.3599999999999,1481.5999999999999
170248.0,21783.400000000001,-6521.5100000000002,6019.75,-15769.9,5575.0600000000004,2279.1300000000001,1514.9000000000001
170249.0,22309.0,-7300.96,6040.79,-15917.4,5762.6000000000004,2806.71,1552.49
170250.0,22792.5,-8095.8100000000004,6060.2700000000004,-15953.0,5935.3699999999999,3305.6300000000001,1599.3099999999999
170251.0,23149.299999999999,-8875.7199999999993,6039.8900000000003,-15841.200000000001,6072.0799999999999,3760.6100000000001,1629.75
170252.0,21178.299999999999,-6066.7399999999998,5815.1899999999996,-14944.1,5629.2399999999998,-2640.0100000000002,1536.0899999999999
170253.0,20760.599999999999,-5534.25,5759.8199999999997,-14922.1,5428.9799999999996,-2154.46,1520.97
170254.0,20707.400000000001,-5236.6499999999996,5854.3299999999999,-15025.6,5364.6499999999996,-1641.8299999999999,1524.4300000000001
170255.0,20875.900000000001,-5306.4099999999999,5853.8699999999999,-15369.1,5385.7799999999997,-1106.6300000000001,1527.1900000000001
170256.0,21217.099999999999,-5517.1999999999998,5925.1300000000001,-15734.5,5474.3900000000003,-552.02200000000005,1539.8199999999999
170257.0,21665.299999999999,-5921.9899999999998,5961.1700000000001,-16161.1,5608.6199999999999,12.2334,1558.9400000000001
170258.0,22192.5,-6439.6400000000003,6012.29,-16572.5,5774.4399999999996,582.28999999999996,1587.3299999999999
170259.0,22769.200000000001,-7056.4300000000003,6069.2299999999996,-16946.299999999999,5962.8400000000001,1147.46,1624.49
170260.0,23375.5,-7789.1899999999996,6093.5500000000002,-17305.799999999999,6162.3900000000003,1703.96,1669.8699999999999
170261.0,23994.700000000001,-8576.8199999999997,6135.3999999999996,-17581.099999999999,6369.96,2243.3600000000001,1724.03
170262.0,24596.200000000001,-9434.4599999999991,6149.25,-17792.200000000001,6575.1400000000003,2755.4000000000001,1784.1199999999999
170263.0,25150.200000000001,-10284.1,6180.6599999999999,-17870.5,6762.5299999999997,3239.1500000000001,1853.8099999999999
170264.0,25567.599999999999,-11123.6,6157.7200000000003,-17811.0,6911.4300000000003,3677.7800000000002,1905.1700000000001
170265.0,22917.700000000001,-7681.3699999999999,5883.9899999999998,-16462.599999999999,6254.5799999999999,-2579.75,1596.22
170266.0,22517.799999999999,-7089.3000000000002,5915.2799999999997,-16359.700000000001,6069.1800000000003,-2105.3200000000002,1595.1700000000001
170267.0,22505.5,-6931.6899999999996,5914.9700000000003,-16587.099999999999,6020.1199999999999,-1601.6600000000001,1609.77
170268.0,22743.299999999999,-6999.6700000000001,5990.0500000000002,-16900.400000000001,6069.0100000000002,-1073.3399999999999,1626.73
170269.0,23167.599999999999,-7319.6199999999999,6034.8199999999997,-17345.5,6188.5100000000002,-531.48699999999997,1658.1400000000001
170270.0,23699.099999999999,-7791.9300000000003,6085.8400000000001,-17815.200000000001,6347.2399999999998,22.3125,1695.4200000000001
170271.0,24309.299999999999,-8389.7000000000007,6139.2399999999998,-18281.299999999999,6536.2700000000004,577.39999999999998,1743.9200000000001
170272.0,24966.099999999999,-9124.9899999999998,6154.2600000000002,-18756.700000000001,6742.0100000000002,1130.8699999999999,1799.4400000000001
170273.0,25658.700000000001,-9905.9799999999996,6216.7700000000004,-19137.400000000001,6965.3599999999997,1671.4300000000001,1865.6099999999999
170274.0,26364.599999999999,-10790.700000000001,6240.7399999999998,-19495.400000000001,7193.5299999999997,2193.0300000000002,1943.3199999999999
170275.0,27040.5,-11708.799999999999,6267.2299999999996,-19748.900000000001,7414.0500000000002,2687.8600000000001,2024.8599999999999
170276.0,27670.5,-12632.1,6294.8299999999999,-19892.0,7616.75,3152.3400000000001,2117.8800000000001
170277.0,28154.200000000001,-13532.9,6273.1899999999996,-19885.099999999999,7779.1899999999996,3571.5900000000001,2190.9099999999999
170278.0,24748.799999999999,-9287.4699999999993,6051.9799999999996,-17934.299999999999,6894.25,-2510.04,1663.6700000000001
170279.0,24381.5,-8840.8700000000008,5977.0299999999997,-17953.099999999999,6729.9700000000003,-2046.49,1672.5
170280.0,24433.099999999999,-8632.9200000000001,6095.8199999999997,-18099.400000000001,6709.7600000000002,-1555.5799999999999,1700.5899999999999
170281.0,24732.0,-8859.2399999999998,6072.8299999999999,-18551.099999999999,6776.4700000000003,-1041.29,1736.04
170282.0,25223.900000000001,-9243.6800000000003,6126.75,-19037.200000000001,6910.8199999999997,-507.78300000000002,1779.8099999999999
170283.0,25844.400000000001,-9803.4099999999999,6180.8999999999996,-19561.400000000001,7097.6400000000003,30.161799999999999,1836.0
170284.0,26553.5,-10516.4,6214.3800000000001,-20115.799999999999,7315.6800000000003,571.29600000000005,1904.1800000000001
170285.0,27316.700000000001,-11264.6,6319.8400000000001,-20570.700000000001,7556.0600000000004,1102.99,1984.6199999999999
170286.0,28098.200000000001,-12192.4,6316.1599999999999,-21085.5,7798.0799999999999,1625.5899999999999,2073.7199999999998
170287.0,28884.5,-13121.5,6379.6800000000003,-21461.400000000001,8043.4200000000001,2128.9099999999999,2171.0999999999999
170288.0,29648.0,-14134.299999999999,6391.6700000000001,-21797.5,8283.2600000000002,2599.5700000000002,2277.1999999999998
170289.0,30354.400000000001,-15108.200000000001,6440.1099999999997,-21981.099999999999,8499.8199999999997,3043.8899999999999,2393.5799999999999
170290.0,30905.200000000001,-16082.1,6407.9200000000001,-22042.0,8673.9599999999991,3439.7600000000002,2487.3200000000002
170291.0,26660.099999999999,-11108.299999999999,6084.0100000000002,-19577.599999999999,7556.71,-2419.3699999999999,1729.8199999999999
170292.0,26354.5,-10558.799999999999,6171.1099999999997,-19472.5,7415.0500000000002,-1987.96,1759.1300000000001
170293.0,26429.200000000001,-10580.1,6100.29,-19826.599999999999,7395.8699999999999,-1503.1900000000001,1794.3
170294.0,26840.700000000001,-10775.5,6226.3299999999999,-20200.599999999999,7506.4300000000003,-1001.58,1847.1500000000001
170295.0,27449.599999999999,-11251.200000000001,6302.5,-20733.599999999999,7687.1599999999999,-492.69099999999997,1912.5799999999999
170296.0,28166.599999999999,-11930.6,6325.2700000000004,-21354.900000000001,7901.2799999999997,29.308299999999999,1993.28
170297.0,28958.5,-12677.0,6409.8999999999996,-21919.0,8135.4799999999996,548.46600000000001,2082.3800000000001
170298.0,29791.5,-13651.799999999999,6360.2399999999998,-22590.5,8379.3500000000004,1069.52,2175.5300000000002
170299.0,30664.599999999999,-14565.1,6474.4700000000003,-23046.099999999999,8646.0300000000007,1569.9100000000001,2282.9299999999998
170300.0,31552.799999999999,-15628.4,6489.25,-23551.099999999999,8915.1700000000001,2044.8099999999999,2408.52
170301.0,32388.200000000001,-16694.299999999999,6519.5299999999997,-23922.900000000001,9166.3199999999997,2497.54,2534.8200000000002
170302.0,33176.800000000003,-17753.599999999999,6560.1099999999997,-24182.799999999999,9397.8099999999995,2914.54,2673.9499999999998
170303.0,33803.099999999999,-18782.5,6541.5900000000001,-24292.700000000001,9586.4599999999991,3286.0500000000002,2789.4299999999998
170304.0,28610.799999999999,-12935.0,6155.1599999999999,-21185.099999999999,8214.5300000000007,-2335.0599999999999,1806.73
170305.0,28405.5,-12501.9,6212.5600000000004,-21193.200000000001,8108.96,-1914.02,1843.4200000000001
170306.0,28583.0,-12470.9,6316.9200000000001,-21408.099999999999,8147.7600000000002,-1449.0599999999999,1894.3399999999999
170307.0,29067.799999999999,-12857.700000000001,6308.6899999999996,-21980.099999999999,8265.5100000000002,-974.38699999999994,1976.6500000000001
170308.0,29709.5,-13504.6,6274.0799999999999,-22659.900000000001,8433.8099999999995,-470.947,2041.8399999999999
170309.0,30529.5,-14207.299999999999,6385.1599999999999,-23265.799999999999,8672.6299999999992,28.566600000000001,2142.1100000000001
170310.0,31455.099999999999,-15160.5,6399.1400000000003,-23994.099999999999,8945.7900000000009,534.14800000000002,2249.8000000000002
170311.0,32440.400000000001,-15984.4,6649.8999999999996,-24455.700000000001,9247.7999999999993,1012.04,2374.98
170312.0,33406.300000000003,-17151.900000000001,6570.9200000000001,-25183.599999999999,9531.8199999999997,1489.0,2512.8699999999999
170313.0,34361.800000000003,-18228.700000000001,6655.4300000000003,-25660.299999999999,9811.8500000000004,1951.27,2653.0900000000001
170314.0,35301.300000000003,-19387.900000000001,6688.8299999999999,-26116.400000000001,10083.9,2361.9299999999998,2808.3099999999999
170315.0,36167.900000000001,-20494.0,6748.75,-26427.700000000001,10324.6,2761.7600000000002,2967.4499999999998
170316.0,36854.300000000003,-21608.900000000001,6707.8000000000002,-26605.099999999999,10522.6,3106.3000000000002,3100.7600000000002
170317.0,30640.900000000001,-14871.200000000001,6193.1300000000001,-22871.599999999999,8889.6299999999992,-2236.4400000000001,1875.0899999999999
170318.0,30522.900000000001,-14385.5,6402.6199999999999,-22774.599999999999,8813.4400000000005,-1856.48,1946.1099999999999
170319.0,30723.700000000001,-14757.4,6158.1300000000001,-23397.299999999999,8817.8700000000008,-1406.8699999999999,1993.9300000000001
170320.0,31382.700000000001,-15090.200000000001,6394.25,-23812.900000000001,9022.3899999999994,-940.64800000000002,2076.54
170321.0,32262.900000000001,-15698.9,6585.5100000000002,-24402.799999999999,9297.7700000000004,-486.536,2200.3099999999999
170322.0,33214.900000000001,-16634.299999999999,6602.5600000000004,-25203.700000000001,9564.9899999999998,-0.28298000000000001,2327.1700000000001
170323.0,34199.099999999999,-17477.200000000001,6775.9499999999998,-25815.400000000001,9846.6900000000005,460.95299999999997,2456.2800000000002
170324.0,35195.199999999997,-18791.400000000001,6515.0900000000001,-26825.400000000001,10125.799999999999,959.197,2586.4699999999998
170325.0,36251.099999999999,-19817.599999999999,6742.0600000000004,-27276.0,10433.6,1416.02,2733.25
170326.0,37343.300000000003,-21037.900000000001,6796.9499999999998,-27918.799999999999,10733.0,1801.0599999999999,2918.02
170327.0,38330.699999999997,-22260.599999999999,6791.8900000000003,-28479.299999999999,10994.4,2221.3099999999999,3077.9200000000001
170328.0,39257.599999999999,-23436.799999999999,6867.9099999999999,-28795.200000000001,11249.799999999999,2600.5300000000002,3251.5999999999999
170329.0,40026.800000000003,-24596.700000000001,6851.9099999999999,-29020.700000000001,11463.5,2901.8499999999999,3411.9000000000001
170330.0,32578.200000000001,-16729.200000000001,6265.6199999999999,-24433.5,9495.1299999999992,-2166.21,1958.73
170331.0,32722.0,-16635.5,6355.4700000000003,-24660.700000000001,9512.6700000000001,-1789.96,2012.6300000000001
170332.0,33257.199999999997,-16711.0,6728.3900000000003,-24804.299999999999,9697.9699999999993,-1405.0,2110.4200000000001
170333.0,33964.800000000003,-17474.700000000001,6559.5900000000001,-25732.599999999999,9853.6599999999999,-992.11300000000006,2240.1999999999998
170334.0,34750.599999999999,-18481.900000000001,6305.0,-26767.400000000001,10035.299999999999,-510.29000000000002,2329.9000000000001
170335.0,35768.800000000003,-19280.5,6448.2600000000002,-27444.0,10370.700000000001,-7.8070199999999996,2456.54
170336.0,36982.5,-20596.900000000001,6421.0500000000002,-28382.5,10727.5,473.18400000000003,2637.1100000000001
170337.0,38315.900000000001,-21343.400000000001,7249.5600000000004,-28550.900000000001,11066.0,821.67700000000002,2776.3400000000001
170338.0,39457.099999999999,-22778.700000000001,6994.6700000000001,-29606.900000000001,11396.1,1169.22,2986.9400000000001
170339.0,40528.300000000003,-23979.900000000001,6931.2200000000003,-30372.799999999999,11683.700000000001,1649.0899999999999,3208.02
170340.0,41583.199999999997,-25180.299999999999,7098.7299999999996,-30748.599999999999,11970.5,2064.0300000000002,3357.4400000000001
170341.0,42570.900000000001,-26447.700000000001,7130.7299999999996,-31168.799999999999,12229.9,2379.3499999999999,3571.1100000000001
170342.0,43377.099999999999,-27674.0,7078.6800000000003,-31472.200000000001,12438.1,2677.8899999999999,3731.3699999999999
170343.0,34521.699999999997,-18580.5,6438.0299999999997,-25765.0,10161.4,-2059.0999999999999,1998.45
170344.0,34978.900000000001,-18466.299999999999,6825.54,-25985.099999999999,10216.6,-1872.74,2120.6900000000001
170345.0,35488.5,-19630.299999999999,6003.7700000000004,-27457.599999999999,10322.700000000001,-1443.0699999999999,2198.2199999999998
170346.0,36636.5,-20152.200000000001,6627.5500000000002,-27811.5,10685.4,-929.20299999999997,2322.3099999999999
170347.0,37948.599999999999,-20820.900000000001,7285.9499999999998,-28174.0,11102.5,-672.18600000000004,2463.6199999999999
170348.0,39369.699999999997,-22025.799999999999,7638.1999999999998,-29239.599999999999,11265.1,-227.29499999999999,2776.7600000000002
170349.0,40584.099999999999,-22989.299999999999,7853.1499999999996,-30001.900000000001,11686.299999999999,217.035,2614.0500000000002
170350.0,41161.800000000003,-25004.200000000001,6080.9300000000003,-31676.299999999999,12214.9,636.58900000000006,3014.54
170351.0,42524.400000000001,-25954.700000000001,6545.3999999999996,-32371.200000000001,12395.0,1151.0599999999999,3534.3600000000001
170352.0,43903.699999999997,-27012.099999999999,7299.9099999999999,-32763.299999999999,12633.299999999999,1508.4300000000001,3375.75
170353.0,44846.300000000003,-28523.5,7054.9399999999996,-33367.199999999997,12901.9,1858.8800000000001,3643.8499999999999
170354.0,45932.300000000003,-29747.299999999999,7182.4899999999998,-33826.199999999997,13165.5,2184.1700000000001,3846.9400000000001
170355.0,46774.800000000003,-30946.099999999999,7221.5799999999999,-34008.400000000001,13392.6,2440.2800000000002,4037.25
170356.0,50460.699999999997,-34363.900000000001,7462.9300000000003,-36637.099999999999,14433.4,2167.4299999999998,4377.6099999999997
170357.0,54091.5,-37898.900000000001,7635.3999999999996,-39299.099999999999,15391.9,1927.23,4652.25
170358.0,58379.800000000003,-41704.900000000001,8066.0299999999997,-42057.5,16625.900000000001,1646.25,5033.0900000000001
170359.0,62268.699999999997,-46033.199999999997,7800.1000000000004,-45315.199999999997,17595.599999999999,1432.25,5245.2399999999998
170360.0,67988.0,-50266.800000000003,8919.1000000000004,-48277.900000000001,19383.400000000001,1171.51,5827.8000000000002
170361.0,72387.0,-56210.900000000001,7496.2200000000003,-53509.099999999999,20283.200000000001,948.65099999999995,6032.6400000000003
170362.0,81864.800000000003,-60977.099999999999,10212.0,-58159.5,23587.0,-555.37900000000002,7225.8999999999996
170363.0,89810.899999999994,-75647.199999999997,-1140.76,-71038.0,29315.700000000001,1432.4100000000001,9175.5900000000001
170364.0,135694.0,-97311.100000000006,25757.400000000001,-80410.399999999994,38617.199999999997,-9370.5100000000002,10391.9
170365.0,154090.0,-173044.0,-163765.0,-218027.0,77014.199999999997,5088.8800000000001,33395.0
170366.0,122991.0,-355492.0,-467698.0,-451042.0,5670.0100000000002,26932.599999999999,24870.799999999999
170367.0,101314.0,-412103.0,-405336.0,-432997.0,-54261.900000000001,14101.1,8388.7299999999996
170368.0,77119.699999999997,-321928.0,-237182.0,-289269.0,-7309.1599999999999,4423.8199999999997,9084.6800000000003
170369.0,49656.199999999997,-32798.0,7809.6099999999997,-36108.900000000001,14230.5,1929.9400000000001,4189.2399999999998
170370.0,53145.900000000001,-36870.5,7341.5,-39335.400000000001,15131.200000000001,1742.5,4425.6400000000003
170371.0,57560.5,-39828.599999999999,8655.25,-41383.099999999999,16412.799999999999,1386.78,4859.04
170372.0,61157.199999999997,-45095.099999999999,7275.0100000000002,-45609.900000000001,17231.099999999999,1316.3800000000001,4980.4200000000001
170373.0,67066.0,-47674.800000000003,10117.0,-47000.199999999997,19135.599999999999,675.95000000000005,5674.6499999999996
170374.0,70661.5,-56201.199999999997,5602.9300000000003,-54291.400000000001,19896.099999999999,677.88900000000001,5737.25
170375.0,81770.0,-57676.699999999997,14679.5,-53200.699999999997,23043.700000000001,-1875.3599999999999,7098.1599999999999
170376.0,85446.899999999994,-76117.600000000006,-10349.799999999999,-76818.899999999994,29393.200000000001,615.54200000000003,10585.0
170377.0,144471.0,-85341.300000000003,51735.699999999997,-68194.899999999994,33159.400000000001,-13918.4,9278.8400000000001
170378.0,174716.0,-163299.0,-143484.0,-189425.0,89618.399999999994,3041.71,40043.800000000003
170379.0,162623.0,-443018.0,-607158.0,-513245.0,15315.6,35547.0,23131.299999999999
170380.0,134936.0,-523206.0,-552497.0,-517107.0,-73128.899999999994,12130.299999999999,-14709.5
170381.0,79880.5,-349975.0,-264181.0,-305442.0,-13706.6,-9147.1299999999992,-3794.3499999999999
170382.0,48548.599999999999,-31775.599999999999,7435.0900000000001,-35919.599999999999,13960.4,1578.8199999999999,3986.3099999999999
170383.0,52080.699999999997,-35323.5,7457.8199999999997,-38797.800000000003,14862.1,1415.8199999999999,4195.1000000000004
170384.0,56447.800000000003,-38765.599999999999,8305.6299999999992,-41225.5,16152.299999999999,1095.3199999999999,4564.9799999999996
170385.0,60043.900000000001,-43539.599999999999,7284.75,-45227.800000000003,16962.400000000001,945.37199999999996,4749.1199999999999
170386.0,65865.300000000003,-46557.199999999997,9874.5,-46684.699999999997,18819.599999999999,429.55900000000003,5272.6000000000004
170387.0,69454.899999999994,-54126.400000000001,6111.3400000000001,-53469.900000000001,19558.200000000001,303.77199999999999,5374.6599999999999
170388.0,79705.800000000003,-57720.300000000003,13199.9,-51843.099999999999,22908.299999999999,-1168.6500000000001,6509.9300000000003
170389.0,85689.899999999994,-74037.800000000003,-6168.0,-73123.100000000006,28930.700000000001,-2846.3899999999999,9352.7700000000004
170390.0,140605.0,-93495.399999999994,35732.199999999997,-70806.600000000006,35391.099999999999,-15365.799999999999,18451.599999999999
170391.0,169588.0,-203582.0,-202994.0,-211766.0,85830.699999999997,14817.299999999999,44453.900000000001
170392.0,159242.0,-472596.0,-630600.0,-522817.0,8721.4500000000007,42614.300000000003,-6571.1199999999999
170393.0,140020.0,-495042.0,-504952.0,-491732.0,-63828.300000000003,1577.47,-49105.300000000003
170394.0,89651.100000000006,-312484.0,-226655.0,-288291.0,-1786.25,-21662.700000000001,-15753.299999999999
170395.0,47523.800000000003,-30150.700000000001,7752.0200000000004,-35099.300000000003,13727.6,1256.8599999999999,3640.4400000000001
170396.0,51101.099999999999,-34066.900000000001,7390.7600000000002,-38339.0,14673.4,1003.89,4011.6100000000001
170397.0,55203.099999999999,-37372.099999999999,8184.5900000000001,-40780.599999999999,15794.4,764.471,4279.0699999999997
170398.0,59269.900000000001,-41645.699999999997,7975.3299999999999,-44249.800000000003,16846.0,516.97400000000005,4565.0
170399.0,64095.900000000001,-45865.900000000001,8578.6800000000003,-47050.199999999997,18304.799999999999,288.28199999999998,4924.29
170400.0,69140.0,-51440.800000000003,8427.1599999999999,-51349.800000000003,19351.900000000001,-336.13999999999999,5091.7299999999996
170401.0,75754.5,-57595.599999999999,7973.3400000000001,-54403.199999999997,22612.200000000001,263.28199999999998,5900.71
170402.0,89619.100000000006,-69650.600000000006,9650.2399999999998,-61120.699999999997,26817.5,-4612.0799999999999,6462.1499999999996
170403.0,123816.0,-110073.0,-9885.4599999999991,-77680.5,45654.0,-8976.1700000000001,18205.0
170404.0,134670.0,-269086.0,-303262.0,-265283.0,67264.5,21333.799999999999,25064.5
170405.0,117235.0,-438626.0,-543986.0,-473206.0,-8591.5,32133.5,-24302.299999999999
170406.0,108548.0,-371414.0,-338474.0,-386148.0,-40279.5,-3156.5799999999999,-41223.400000000001
170407.0,101195.0,-239274.0,-149849.0,-244479.0,10373.9,-18293.900000000001,-11891.9
170408.0,45757.099999999999,-29650.599999999999,6646.0600000000004,-34965.099999999999,13069.9,1069.4000000000001,3615.9099999999999
170409.0,49949.699999999997,-32631.0,7855.3400000000001,-36963.900000000001,14372.4,504.25299999999999,3704.6900000000001
170410.0,53820.800000000003,-36575.599999999999,7245.6800000000003,-40618.599999999999,15593.700000000001,194.34999999999999,4213.1899999999996
170411.0,58119.400000000001,-40093.099999999999,8139.25,-43455.900000000001,16533.799999999999,-70.576999999999998,4392.7700000000004
170412.0,62842.900000000001,-44493.400000000001,8080.2600000000002,-47276.0,17960.400000000001,-136.471,4597.8199999999997
170413.0,68295.300000000003,-49156.900000000001,9746.7000000000007,-49644.800000000003,19116.700000000001,-401.72899999999998,4788.8999999999996
170414.0,73109.0,-56716.800000000003,5174.3900000000003,-56637.300000000003,21851.700000000001,83.226699999999994,5379.1700000000001
170415.0,88632.399999999994,-66702.300000000003,15096.0,-54577.900000000001,25242.400000000001,-1995.8800000000001,5354.3400000000001
170416.0,113062.0,-107635.0,-19763.299999999999,-81761.199999999997,46939.599999999999,-7.1387,4308.54
170417.0,106350.0,-218675.0,-233999.0,-237068.0,56942.199999999997,17859.799999999999,-10564.5
170418.0,85955.399999999994,-317137.0,-364856.0,-367928.0,-155.38399999999999,17655.900000000001,-36605.5
170419.0,87627.100000000006,-279918.0,-230507.0,-306254.0,-18537.799999999999,-4170.5,-26826.799999999999
170420.0,97667.699999999997,-193788.0,-107434.0,-206065.0,12015.299999999999,-11153.799999999999,-4646.7799999999997
170421.0,43788.599999999999,-29102.400000000001,4944.6099999999997,-35095.300000000003,12751.1,587.40200000000004,3134.48
170422.0,48415.099999999999,-31392.799999999999,8126.6199999999999,-35809.900000000001,13653.4,117.833,3102.77
170423.0,53794.5,-33759.800000000003,9832.5499999999993,-37979.0,15827.6,-718.99000000000001,3593.3099999999999
170424.0,57022.5,-38570.099999999999,7312.4799999999996,-43225.099999999999,16828.0,-666.76499999999999,4480.4399999999996
170425.0,61149.5,-43464.699999999997,7213.4200000000001,-47241.099999999999,17229.400000000001,-606.45799999999997,4956.1199999999999
170426.0,66840.0,-49384.900000000001,7620.2700000000004,-51382.400000000001,18557.900000000001,-518.47900000000004,4695.5799999999999
170427.0,73270.5,-52397.599999999999,9847.8299999999999,-53653.599999999999,21128.0,-878.35299999999995,4926.9499999999998
170428.0,82295.399999999994,-65874.0,6519.8100000000004,-60650.099999999999,24588.299999999999,1669.21,4488.9099999999999
170429.0,106457.0,-83370.399999999994,8632.7399999999998,-70952.600000000006,35481.900000000001,4885.3100000000004,1660.98
170430.0,102962.0,-132512.0,-101410.0,-162564.0,48819.0,14495.700000000001,2295.3600000000001
170431.0,73775.800000000003,-211888.0,-221056.0,-277968.0,11703.799999999999,16361.700000000001,-11315.1
170432.0,94373.399999999994,-202701.0,-145197.0,-245594.0,-7157.71,791.76800000000003,-19473.5
170433.0,103161.0,-153026.0,-66720.199999999997,-173359.0,15844.200000000001,-4262.2299999999996,-8517.4599999999991
170434.0,43056.599999999999,-26321.400000000001,6087.4399999999996,-33237.300000000003,12971.0,306.55700000000002,2974.9400000000001
170435.0,46597.099999999999,-30633.900000000001,7228.5,-35783.300000000003,12829.0,-127.244,2735.27
170436.0,54172.599999999999,-30220.700000000001,14568.799999999999,-33643.400000000001,15526.5,-1377.6099999999999,3398.29
170437.0,55949.300000000003,-36933.300000000003,6098.3599999999997,-41955.599999999999,17856.700000000001,-1059.9100000000001,5076.3599999999997
170438.0,56656.699999999997,-47072.5,-174.91999999999999,-50248.300000000003,16091.4,-950.14300000000003,4901.3500000000004
170439.0,64583.400000000001,-50853.400000000001,4440.1099999999997,-52469.5,17571.200000000001,-1988.05,5278.0900000000001
170440.0,73080.0,-52671.800000000003,8847.7900000000009,-55075.900000000001,20656.0,-2025.4300000000001,6056.1899999999996
170441.0,78835.600000000006,-59561.599999999999,4645.5299999999997,-65826.699999999997,22743.700000000001,935.33900000000006,5672.75
170442.0,96371.699999999997,-69609.300000000003,14853.4,-68585.399999999994,26731.700000000001,4024.6599999999999,3942.54
170443.0,99970.399999999994,-104191.0,-47557.099999999999,-120508.0,42472.199999999997,5725.4300000000003,5365.5600000000004
170444.0,70207.100000000006,-180287.0,-184904.0,-235470.0,23423.200000000001,11182.0,5664.21
170445.0,75386.399999999994,-193678.0,-157325.0,-237932.0,-11320.5,9894.9400000000005,6223.29
170446.0,101840.0,-144384.0,-52223.599999999999,-159653.0,5620.8500000000004,5289.1400000000003,4423.9499999999998
170447.0,41619.599999999999,-25016.700000000001,6066.1099999999997,-32104.700000000001,12490.799999999999,122.988,3021.52
170448.0,45602.5,-28417.700000000001,8415.0100000000002,-34006.300000000003,12485.1,-695.96000000000004,2364.73
170449.0,53394.099999999999,-28194.799999999999,15860.200000000001,-31794.700000000001,15259.0,-1808.6800000000001,3173.1199999999999
170450.0,56104.599999999999,-33633.199999999997,9244.0799999999999,-38632.0,18361.599999999999,-1515.3199999999999,4147.6000000000004
170451.0,53874.800000000003,-47105.0,-4120.9300000000003,-51385.800000000003,16521.299999999999,-814.91300000000001,3249.8600000000001
170452.0,63381.300000000003,-51364.800000000003,4280.5,-51033.800000000003,16960.0,-3573.9200000000001,3551.8899999999999
170453.0,72058.800000000003,-56009.5,2176.0500000000002,-58008.900000000001,22140.0,-4348.6499999999996,7287.0200000000004
170454.0,77894.300000000003,-63173.300000000003,-2806.4499999999998,-73097.0,21558.799999999999,-4348.75,9569.7099999999991
170455.0,92123.199999999997,-69395.699999999997,1837.97,-85849.600000000006,24129.299999999999,517.32299999999998,8605.7099999999991
170456.0,118586.0,-74504.100000000006,15468.1,-97107.800000000003,33687.599999999999,727.91399999999999,2363.1900000000001
170457.0,105624.0,-130888.0,-114606.0,-191907.0,44737.800000000003,6529.7299999999996,3745.3400000000001
170458.0,64467.199999999997,-222277.0,-227383.0,-284458.0,-4772.4700000000003,13020.299999999999,-1156.5999999999999
170459.0,103329.0,-174604.0,-78711.0,-182415.0,-12605.799999999999,7389.6199999999999,-3207.4499999999998
170460.0,40226.0,-24642.0,5274.6300000000001,-32188.799999999999,11829.200000000001,-590.52700000000004,2553.9200000000001
170461.0,44767.099999999999,-25596.200000000001,10355.799999999999,-31231.299999999999,12317.1,-928.05200000000002,2548.1799999999998
170462.0,50447.400000000001,-28466.0,12923.299999999999,-31538.200000000001,14721.799999999999,-1388.0999999999999,3619.1700000000001
170463.0,54879.900000000001,-33863.699999999997,10053.299999999999,-36351.599999999999,17230.700000000001,-2052.6199999999999,4630.3999999999996
170464.0,53102.0,-44422.300000000003,-4217.2700000000004,-50243.0,17055.400000000001,-980.34900000000005,4469.7399999999998
170465.0,61840.300000000003,-49590.099999999999,5932.4300000000003,-48851.099999999999,15626.1,-2741.4499999999998,2993.7199999999998
170466.0,72765.0,-56738.900000000001,2872.3699999999999,-53877.900000000001,23787.299999999999,-5574.3900000000003,6133.9700000000003
170467.0,72448.800000000003,-80185.899999999994,-27856.700000000001,-80282.600000000006,24850.299999999999,-7047.8599999999997,12958.6
170468.0,80721.100000000006,-106775.0,-55655.699999999997,-118739.0,21671.5,-7299.2799999999997,22943.299999999999
170469.0,129458.0,-106226.0,-9183.2999999999993,-128926.0,24671.200000000001,-10029.700000000001,28844.599999999999
170470.0,146499.0,-123477.0,-94484.600000000006,-200356.0,50836.900000000001,11123.200000000001,38113.0
170471.0,103012.0,-238172.0,-258433.0,-327822.0,-3484.5999999999999,31783.299999999999,17448.200000000001
170472.0,118098.0,-220146.0,-118855.0,-227844.0,-25455.200000000001,17097.799999999999,3018.5
170473.0,39792.5,-22514.299999999999,7341.8800000000001,-29754.099999999999,11529.299999999999,-1377.8599999999999,2517.48
170474.0,42164.400000000001,-26075.0,6234.3299999999999,-32465.700000000001,12322.1,-1029.7,3051.75
170475.0,46708.699999999997,-28879.900000000001,10436.5,-31474.400000000001,13036.700000000001,-1263.1099999999999,2044.1099999999999
170476.0,53469.599999999999,-31998.700000000001,12341.299999999999,-31481.799999999999,17129.099999999999,-2770.6500000000001,2030.1900000000001
170477.0,50511.900000000001,-44613.300000000003,-7958.9799999999996,-48050.099999999999,18143.099999999999,-2522.5300000000002,4601.71
170478.0,52628.199999999997,-56195.699999999997,-8892.0499999999993,-54694.0,13422.9,-2176.0599999999999,3922.0700000000002
170479.0,73181.600000000006,-54878.900000000001,11314.4,-45750.0,21198.099999999999,-6124.2299999999996,3382.7600000000002
170480.0,70597.399999999994,-81689.399999999994,-37387.699999999997,-75185.399999999994,31922.799999999999,-4999.4300000000003,6708.6899999999996
170481.0,62907.400000000001,-145979.0,-102076.0,-132578.0,22793.400000000001,-14639.1,8889.8899999999994
170482.0,114313.0,-194730.0,-139081.0,-178602.0,35932.099999999999,-24757.200000000001,40397.800000000003
170483.0,172135.0,-318172.0,-390252.0,-352767.0,38548.699999999997,12662.9,83252.100000000006
170484.0,153496.0,-447348.0,-527288.0,-473726.0,-42541.0,39440.199999999997,53190.099999999999
170485.0,112187.0,-342460.0,-263943.0,-306009.0,-44158.599999999999,18206.200000000001,19236.599999999999
170486.0,38863.900000000001,-21514.900000000001,7988.6899999999996,-27908.900000000001,11331.1,-1701.77,2348.48
170487.0,40268.199999999997,-25766.099999999999,3908.4000000000001,-32752.299999999999,12378.5,-1587.1500000000001,2421.5100000000002
170488.0,45920.099999999999,-26761.5,11295.700000000001,-31994.299999999999,11802.9,-1772.3900000000001,1463.2
170489.0,55551.699999999997,-22496.900000000001,24010.099999999999,-24696.0,16380.6,-1685.1400000000001,911.98199999999997
170490.0,54574.900000000001,-33011.900000000001,7579.9200000000001,-35345.5,20141.200000000001,-2124.9000000000001,25.211500000000001
170491.0,50282.5,-52741.300000000003,-11242.200000000001,-53460.599999999999,15621.0,-3717.0300000000002,-873.15200000000004
170492.0,70895.300000000003,-49283.699999999997,16886.900000000001,-39883.599999999999,18726.799999999999,-6417.8699999999999,1366.02
170493.0,74386.5,-66660.199999999997,-17397.700000000001,-65085.699999999997,32447.5,-2086.8499999999999,1831.3499999999999
170494.0,81417.199999999997,-110670.0,-41171.699999999997,-94088.100000000006,26763.5,-10479.799999999999,-8121.6000000000004
170495.0,117361.0,-203147.0,-162082.0,-166755.0,59961.599999999999,-21208.799999999999,6368.3500000000004
170496.0,168379.0,-464957.0,-616179.0,-471093.0,44121.300000000003,-1193.5699999999999,13280.9
170497.0,175580.0,-599091.0,-734078.0,-594805.0,-60964.199999999997,6461.8599999999997,-15648.5
170498.0,109645.0,-425654.0,-371304.0,-374163.0,-53479.800000000003,-5442.6400000000003,-13492.5
170499.0,37372.0,-21439.799999999999,6424.4499999999998,-28127.599999999999,11050.799999999999,-1715.8,2158.8499999999999
170500.0,40120.099999999999,-23197.900000000001,7249.1700000000001,-29721.400000000001,11764.700000000001,-2119.8299999999999,2058.9400000000001
170501.0,43898.300000000003,-25619.700000000001,8713.0100000000002,-31687.5,12218.799999999999,-2389.0799999999999,3566.4200000000001
170502.0,48916.400000000001,-28752.5,12076.6,-31891.099999999999,12936.0,-557.98000000000002,5317.9200000000001
170503.0,55469.900000000001,-26739.299999999999,21203.5,-27183.400000000001,15747.799999999999,205.10900000000001,2066.1799999999998
170504.0,61273.5,-28822.200000000001,21339.799999999999,-30841.099999999999,19124.400000000001,-3285.8499999999999,-1040.45
170505.0,68407.899999999994,-40357.599999999999,17907.0,-38473.699999999997,20881.400000000001,-5162.1199999999999,1009.42
170506.0,73627.399999999994,-52052.699999999997,4632.1700000000001,-53431.0,26233.700000000001,-2933.8099999999999,3528.9699999999998
170507.0,90422.199999999997,-77861.699999999997,1299.25,-68270.100000000006,29231.900000000001,-1272.4300000000001,1695.96
170508.0,123476.0,-142012.0,-62729.800000000003,-125217.0,57103.099999999999,-1464.73,-8589.0799999999999
170509.0,132920.0,-306171.0,-374893.0,-352144.0,61843.800000000003,2983.54,-28810.700000000001
170510.0,127011.0,-478334.0,-590758.0,-542633.0,-24679.299999999999,-4410.2399999999998,-39587.300000000003
170511.0,103237.0,-410992.0,-369381.0,-405800.0,-48323.400000000001,-18449.700000000001,-19050.900000000001
170512.0,36200.699999999997,-20233.900000000001,6232.4300000000003,-27417.799999999999,10692.0,-2046.1700000000001,2063.1700000000001
170513.0,38981.699999999997,-22067.700000000001,7913.3299999999999,-27988.5,11176.200000000001,-2496.9000000000001,2214.4200000000001
170514.0,40988.0,-25775.200000000001,5408.25,-30600.700000000001,12706.0,-3131.7199999999998,2588.5300000000002
170515.0,38919.699999999997,-34913.099999999999,-4892.2200000000003,-38259.199999999997,12469.0,-2125.5900000000001,2699.4000000000001
170516.0,45589.300000000003,-36225.599999999999,6264.8699999999999,-34337.400000000001,10454.6,-1645.46,2128.2800000000002
170517.0,62303.5,-22612.700000000001,33790.5,-18256.400000000001,17045.400000000001,-3065.1900000000001,3016.96
170518.0,67617.0,-29655.099999999999,24553.599999999999,-29733.299999999999,22702.900000000001,-3877.21,3552.9499999999998
170519.0,69312.5,-47951.599999999999,6995.4899999999998,-48546.300000000003,23220.799999999999,-4561.4300000000003,4898.29
170520.0,78908.800000000003,-76562.800000000003,-12853.6,-72490.600000000006,27849.599999999999,-136.64500000000001,5283.3599999999997
170521.0,110021.0,-111506.0,-22947.400000000001,-104592.0,39308.800000000003,5345.7299999999996,5925.0900000000001
170522.0,116270.0,-196984.0,-192371.0,-237346.0,59321.5,16177.9,10644.0
170523.0,80595.600000000006,-364007.0,-440688.0,-440637.0,5557.6800000000003,9923.5300000000007,-8786.0599999999995
170524.0,76707.399999999994,-383407.0,-370860.0,-409280.0,-35142.900000000001,-14691.200000000001,-11254.200000000001
170525.0,5450.0699999999997,4254.1599999999999,1376.53,6763.2799999999997,-1176.72,-448.66199999999998,1024.46
170526.0,5482.5299999999997,4268.9300000000003,1377.47,6609.2799999999997,-1277.23,-603.74599999999998,1074.8499999999999
170527.0,5501.8100000000004,4356.8299999999999,1411.0699999999999,6445.5600000000004,-1382.3299999999999,-746.80899999999997,1106.21
170528.0,5514.2399999999998,4487.2799999999997,1450.6600000000001,6266.5299999999997,-1490.73,-864.82600000000002,1111.53
170529.0,5522.1499999999996,4684.6499999999996,1554.29,6138.9499999999998,-1605.6700000000001,-948.25699999999995,1094.74
170530.0,5538.29,4842.0900000000001,1614.03,5967.79,-1735.0,-988.19600000000003,1063.1700000000001
170531.0,5563.46,5013.7200000000003,1672.71,5810.3599999999997,-1862.9200000000001,-991.61800000000005,1021.79
170532.0,5588.2399999999998,5136.5,1688.4400000000001,5623.9700000000003,-1985.04,-966.37699999999995,965.74900000000002
170533.0,5611.6800000000003,5280.5900000000001,1740.5899999999999,5493.2799999999997,-2100.77,-914.95799999999997,896.28999999999996
170534.0,5631.1700000000001,5362.1199999999999,1748.8599999999999,5340.3599999999997,-2206.73,-843.03499999999997,814.75999999999999
170535.0,5646.8199999999997,5457.7600000000002,1792.3099999999999,5246.7200000000003,-2301.5900000000001,-757.01800000000003,723.17399999999998
170536.0,5657.75,5487.1599999999999,1790.3900000000001,5132.3299999999999,-2383.4699999999998,-663.28099999999995,623.76599999999996
170537.0,5662.6400000000003,5544.79,1836.5899999999999,5090.6499999999996,-2451.1999999999998,-565.89700000000005,518.572
170538.0,5980.6899999999996,4188.8500000000004,1190.28,7066.75,-1255.45,-540.053,1191.9100000000001
170539.0,5982.3000000000002,4220.3400000000001,1232.73,6895.79,-1358.72,-716.65099999999995,1242.54
170540.0,5974.8699999999999,4306.2799999999997,1280.46,6689.9499999999998,-1471.5,-877.25599999999997,1270.74
170541.0,5979.1000000000004,4516.5,1398.47,6551.7299999999996,-1594.5799999999999,-1008.9400000000001,1272.47
170542.0,5982.8199999999997,4688.7200000000003,1452.8199999999999,6344.7700000000004,-1721.1099999999999,-1103.5,1249.27
170543.0,5990.4700000000003,4926.0600000000004,1566.5,6200.6700000000001,-1856.03,-1152.3199999999999,1207.53
170544.0,6010.6300000000001,5069.54,1577.8,5967.5500000000002,-1994.8800000000001,-1159.5599999999999,1157.71
170545.0,6034.7799999999997,5281.9799999999996,1662.6600000000001,5823.9099999999999,-2129.73,-1133.26,1096.03
170546.0,6058.0299999999997,5392.3400000000001,1661.54,5614.75,-2258.1399999999999,-1077.96,1019.49
170547.0,6079.2600000000002,5562.9499999999998,1739.9400000000001,5510.1000000000004,-2376.7600000000002,-999.57500000000005,930.38400000000001
170548.0,6096.8900000000003,5619.3199999999997,1727.6700000000001,5340.6700000000001,-2483.9000000000001,-904.86599999999999,830.29499999999996
170549.0,6109.2799999999997,5731.7299999999996,1795.55,5277.1899999999996,-2577.3800000000001,-800.09500000000003,721.86300000000006
170550.0,6120.0100000000002,5718.1300000000001,1757.02,5135.8100000000004,-2657.6999999999998,-691.17399999999998,607.84900000000005
170551.0,6025.7299999999996,3819.27,1028.5999999999999,6824.4799999999996,-1258.72,-529.89099999999996,1355.02
170552.0,6005.3000000000002,3937.8000000000002,1162.03,6724.7799999999997,-1358.46,-727.16899999999998,1382.3800000000001
170553.0,5990.1199999999999,4045.5300000000002,1228.01,6527.71,-1471.29,-900.00800000000004,1398.0999999999999
170554.0,5995.6800000000003,4256.4499999999998,1348.79,6379.1999999999998,-1604.5999999999999,-1040.1199999999999,1395.9000000000001
170555.0,6015.8500000000004,4430.4200000000001,1386.73,6157.7399999999998,-1745.8299999999999,-1141.25,1370.4200000000001
170556.0,6041.8299999999999,4675.4899999999998,1483.45,6002.9799999999996,-1891.21,-1196.9000000000001,1327.5599999999999
170557.0,6071.9499999999998,4841.1199999999999,1501.8800000000001,5774.6800000000003,-2040.3499999999999,-1206.5699999999999,1274.4400000000001
170558.0,6103.0799999999999,5059.6099999999997,1581.03,5619.5900000000001,-2185.9899999999998,-1179.25,1208.03
170559.0,6134.0799999999999,5189.2399999999998,1588.1500000000001,5414.6700000000001,-2325.21,-1121.3099999999999,1126.1600000000001
170560.0,6162.7200000000003,5363.8999999999996,1661.3299999999999,5301.5,-2454.0700000000002,-1039.3099999999999,1031.0699999999999
170561.0,6187.96,5432.3800000000001,1653.29,5134.3999999999996,-2571.1300000000001,-940.22900000000004,924.17899999999997
170562.0,6207.5200000000004,5552.5699999999997,1722.1600000000001,5070.7200000000003,-2673.5100000000002,-830.99800000000005,808.31799999999998
170563.0,6222.1400000000003,5566.9499999999998,1709.98,4953.1300000000001,-2761.3699999999999,-716.721,686.28099999999995
170564.0,6062.4499999999998,4006.1900000000001,1297.1700000000001,7164.1400000000003,-1216.3299999999999,-593.67399999999998,1340.55
170565.0,6050.8100000000004,4093.9200000000001,1379.49,7018.9899999999998,-1316.76,-812.82500000000005,1361.9300000000001
170566.0,6034.9899999999998,4260.3900000000003,1485.02,6855.3000000000002,-1426.4100000000001,-999.74199999999996,1376.0699999999999
170567.0,6033.2600000000002,4473.9399999999996,1600.3499999999999,6681.1099999999997,-1560.99,-1146.8099999999999,1375.1400000000001
170568.0,6057.25,4679.2700000000004,1656.76,6461.7700000000004,-1710.26,-1248.4200000000001,1358.8199999999999
170569.0,6090.7600000000002,4900.6499999999996,1710.97,6250.3699999999999,-1863.0899999999999,-1303.47,1327.4100000000001
170570.0,6125.1899999999996,5107.7700000000004,1751.9000000000001,6032.5500000000002,-2018.3399999999999,-1311.79,1279.8499999999999
170571.0,6160.1800000000003,5319.1400000000003,1805.72,5842.8900000000003,-2170.6199999999999,-1280.26,1216.1800000000001
170572.0,6195.6099999999997,5492.5799999999999,1839.3900000000001,5656.8500000000004,-2316.6399999999999,-1216.1600000000001,1136.52
170573.0,6228.8900000000003,5654.5,1884.79,5509.79,-2452.4000000000001,-1126.5599999999999,1042.8800000000001
170574.0,6258.9399999999996,5768.8199999999997,1909.3900000000001,5370.6700000000001,-2576.1599999999999,-1018.95,936.78300000000002
170575.0,6283.9300000000003,5866.0500000000002,1943.7,5269.3299999999999,-2685.1500000000001,-900.89599999999996,821.06799999999998
170576.0,6304.9499999999998,5909.5900000000001,1948.28,5167.8800000000001,-2779.0300000000002,-778.14300000000003,698.31100000000004
170577.0,6152.6899999999996,3839.8299999999999,1223.1400000000001,7180.75,-1190.97,-658.45000000000005,1359.98
170578.0,6136.3199999999997,3943.5300000000002,1311.8699999999999,7026.7700000000004,-1291.1199999999999,-893.17100000000005,1380.0999999999999
170579.0,6125.0900000000001,4127.2700000000004,1416.6199999999999,6855.8400000000001,-1401.6800000000001,-1094.28,1395.4100000000001
170580.0,6128.1499999999996,4347.8100000000004,1518.5,6661.75,-1539.8299999999999,-1252.0699999999999,1394.25
170581.0,6152.0699999999997,4580.5200000000004,1583.8800000000001,6438.1199999999999,-1693.97,-1357.5899999999999,1380.0
170582.0,6186.2399999999998,4822.4399999999996,1638.9400000000001,6211.3100000000004,-1853.01,-1413.6400000000001,1352.5799999999999
170583.0,6224.1800000000003,5060.75,1690.01,5991.4700000000003,-2015.25,-1421.6700000000001,1307.4100000000001
170584.0,6263.96,5287.6099999999997,1738.6600000000001,5787.7200000000003,-2175.3499999999999,-1387.0,1244.9100000000001
170585.0,6304.1300000000001,5485.0699999999997,1777.3299999999999,5598.9200000000001,-2329.1599999999999,-1317.48,1165.8199999999999
170586.0,6342.5900000000001,5661.9899999999998,1820.48,5443.25,-2472.8400000000001,-1220.9300000000001,1071.8900000000001
170587.0,6377.79,5792.1000000000004,1845.1400000000001,5299.5100000000002,-2603.9400000000001,-1105.3699999999999,964.75099999999998
170588.0,6408.0299999999997,5907.4399999999996,1884.25,5198.9899999999998,-2720.1500000000001,-978.63,847.42899999999997
170589.0,6433.8900000000003,5974.7799999999997,1902.3499999999999,5107.3400000000001,-2820.8800000000001,-846.66099999999994,722.89800000000002
170590.0,6191.6800000000003,3892.0,1388.4000000000001,7401.6499999999996,-1146.27,-727.83100000000002,1345.8
170591.0,6176.6899999999996,3986.9400000000001,1453.8399999999999,7215.04,-1245.5599999999999,-977.59799999999996,1368.1900000000001
170592.0,6164.1300000000001,4200.2799999999997,1575.73,7045.6800000000003,-1356.3,-1189.7,1387.95
170593.0,6168.2600000000002,4426.3100000000004,1667.3,6827.21,-1497.8199999999999,-1353.8199999999999,1392.6099999999999
170594.0,6194.8800000000001,4683.1400000000003,1737.6800000000001,6596.9399999999996,-1656.7,-1462.8499999999999,1384.1099999999999
170595.0,6232.5200000000004,4928.8800000000001,1775.1199999999999,6341.1400000000003,-1821.95,-1519.8399999999999,1361.55
170596.0,6274.79,5196.8800000000001,1834.3199999999999,6119.3599999999997,-1991.1500000000001,-1526.5999999999999,1320.0699999999999
170597.0,6319.5299999999997,5431.4899999999998,1870.0999999999999,5895.4200000000001,-2158.6999999999998,-1487.8900000000001,1260.1600000000001
170598.0,6364.9799999999996,5661.5200000000004,1922.1300000000001,5714.2399999999998,-2320.02,-1412.48,1182.8199999999999
170599.0,6408.9899999999998,5840.5200000000004,1950.27,5539.3100000000004,-2471.3400000000001,-1308.5,1089.8099999999999
170600.0,6449.8699999999999,6003.2600000000002,1992.6500000000001,5410.1700000000001,-2609.8200000000002,-1184.6199999999999,983.077
170601.0,6485.96,6111.0699999999997,2011.0999999999999,5287.1599999999999,-2733.02,-1049.1900000000001,865.36099999999999
170602.0,6517.6099999999997,6197.9899999999998,2036.9200000000001,5202.1899999999996,-2840.1199999999999,-908.43899999999996,739.83299999999997
170603.0,6256.8699999999999,3785.21,1397.3099999999999,7482.6199999999999,-1103.4200000000001,-803.64400000000001,1336.21
170604.0,6239.2200000000003,3895.3000000000002,1465.8499999999999,7283.1800000000003,-1201.22,-1068.29,1361.95
170605.0,6226.5799999999999,4120.0900000000001,1581.9400000000001,7094.96,-1312.1400000000001,-1292.96,1384.1199999999999
170606.0,6231.0,4365.8000000000002,1672.6300000000001,6863.5299999999997,-1455.6700000000001,-1464.6600000000001,1392.1400000000001
170607.0,6259.3100000000004,4648.0900000000001,1747.3199999999999,6625.4499999999998,-1618.8,-1578.0599999999999,1388.8
170608.0,6300.46,4923.4300000000003,1791.1800000000001,6364.1999999999998,-1790.71,-1636.75,1371.0599999999999
170609.0,6346.6599999999999,5215.3100000000004,1850.2,6131.8100000000004,-1967.3099999999999,-1642.0999999999999,1333.1199999999999
170610.0,6396.0100000000002,5475.8800000000001,1889.3199999999999,5903.2799999999997,-2142.6500000000001,-1599.29,1275.9200000000001
170611.0,6446.5799999999999,5721.1000000000004,1935.6500000000001,5709.9700000000003,-2312.0700000000002,-1517.71,1200.47
170612.0,6495.9099999999999,5925.1700000000001,1969.9300000000001,5536.3299999999999,-2471.4099999999999,-1405.9300000000001,1108.48
170613.0,6542.1700000000001,6095.7299999999996,2003.3099999999999,5394.6599999999999,-2617.5300000000002,-1273.29,1001.91
170614.0,6583.8199999999997,6230.6400000000003,2034.4400000000001,5281.6800000000003,-2748.0999999999999,-1128.47,883.83399999999995
170615.0,6621.29,6330.9899999999998,2061.29,5195.8000000000002,-2862.2600000000002,-978.17100000000005,757.495
170616.0,6298.1099999999997,3757.73,1506.6700000000001,7637.8999999999996,-1048.75,-881.89300000000003,1313.51
170617.0,6277.6199999999999,3878.3800000000001,1574.77,7421.1899999999996,-1144.45,-1161.22,1343.4400000000001
170618.0,6262.8400000000001,4112.4700000000003,1683.29,7208.9099999999999,-1255.8499999999999,-1397.8,1368.6400000000001
170619.0,6266.1499999999996,4387.0600000000004,1779.3499999999999,6971.9700000000003,-1399.6199999999999,-1576.3,1379.74
170620.0,6297.8599999999997,4675.2399999999998,1837.8499999999999,6707.7200000000003,-1566.29,-1693.6800000000001,1384.29
170621.0,6345.0699999999997,4979.2200000000003,1887.6700000000001,6440.96,-1746.8399999999999,-1753.8900000000001,1374.02
170622.0,6396.5600000000004,5286.5600000000004,1936.52,6189.9700000000003,-1931.76,-1757.1700000000001,1340.72
170623.0,6451.2700000000004,5577.2799999999997,1981.95,5961.5200000000004,-2115.0799999999999,-1710.1300000000001,1287.0
170624.0,6508.0200000000004,5840.79,2024.23,5759.5200000000004,-2293.1500000000001,-1622.1400000000001,1214.0999999999999
170625.0,6563.5500000000002,6069.2600000000002,2062.9200000000001,5587.0699999999997,-2460.9000000000001,-1502.45,1123.78
170626.0,6616.29,6256.1899999999996,2095.1700000000001,5442.1099999999997,-2615.3699999999999,-1360.8599999999999,1018.1
170627.0,6664.3100000000004,6405.9200000000001,2125.5100000000002,5327.2700000000004,-2753.5300000000002,-1206.6900000000001,900.10699999999997
170628.0,6708.1199999999999,6510.3299999999999,2142.9699999999998,5231.3100000000004,-2874.8299999999999,-1046.8399999999999,773.20899999999995
170629.0,6339.3000000000002,3643.27,1545.45,7711.4300000000003,-988.64999999999998,-963.10199999999998,1289.26
170630.0,6314.3199999999997,3783.3800000000001,1623.8099999999999,7484.79,-1081.6800000000001,-1257.6900000000001,1323.8399999999999
170631.0,6300.5,4020.9499999999998,1714.0,7243.7299999999996,-1194.6400000000001,-1508.29,1347.47
170632.0,6311.9899999999998,4307.3999999999996,1786.05,6984.9899999999998,-1338.0999999999999,-1696.0,1361.6900000000001
170633.0,6345.4700000000003,4632.0799999999999,1858.8,6721.4700000000003,-1506.9300000000001,-1817.3399999999999,1377.5899999999999
170634.0,6390.71,4978.96,1934.3399999999999,6460.0500000000002,-1696.3,-1876.96,1374.4300000000001
170635.0,6445.2200000000003,5308.4300000000003,1979.1600000000001,6196.1800000000003,-1889.4200000000001,-1877.1700000000001,1345.6199999999999
170636.0,6505.3999999999996,5631.3800000000001,2031.24,5968.5900000000001,-2081.04,-1825.8900000000001,1295.8399999999999
170637.0,6568.3500000000004,5908.1099999999997,2062.6700000000001,5751.8599999999997,-2268.1799999999998,-1731.1600000000001,1225.78
170638.0,6630.25,6166.9799999999996,2110.1999999999998,5585.5299999999997,-2444.71,-1603.3399999999999,1137.48
170639.0,6689.5,6360.5299999999997,2129.96,5426.6300000000001,-2607.7600000000002,-1452.48,1032.8099999999999
170640.0,6744.0100000000002,6541.6800000000003,2175.29,5325.8199999999997,-2753.96,-1288.54,915.24400000000003
170641.0,6794.3800000000001,6656.4099999999999,2188.8499999999999,5225.5299999999997,-2882.8000000000002,-1118.72,788.125
170642.0,6360.5500000000002,3571.5599999999999,1651.3900000000001,7822.3699999999999,-916.846,-1046.23,1255.95
170643.0,6328.6999999999998,3723.8800000000001,1735.05,7578.1800000000003,-1006.95,-1356.1500000000001,1293.1300000000001
170644.0,6328.4899999999998,3956.0300000000002,1794.8399999999999,7307.4700000000003,-1125.47,-1619.05,1321.5899999999999
170645.0,6356.2799999999997,4262.3900000000003,1851.6400000000001,7035.3500000000004,-1272.1800000000001,-1814.3800000000001,1352.1800000000001
170646.0,6384.4300000000003,4615.1300000000001,1931.24,6756.75,-1442.2,-1940.8299999999999,1376.3299999999999
170647.0,6422.1999999999998,4993.5299999999997,2015.1800000000001,6487.9799999999996,-1636.3699999999999,-2000.8699999999999,1371.8699999999999
170648.0,6479.9700000000003,5347.8900000000003,2055.3699999999999,6214.8699999999999,-1836.6500000000001,-1998.52,1346.73
170649.0,6546.3599999999997,5697.7299999999996,2106.9000000000001,5982.4099999999999,-2037.26,-1942.8599999999999,1301.55
170650.0,6616.1700000000001,6004.0,2142.1999999999998,5767.3599999999997,-2233.9499999999998,-1841.28,1234.97
170651.0,6685.1999999999998,6282.8699999999999,2186.7399999999998,5596.6999999999998,-2419.9699999999998,-1705.1400000000001,1149.22
170652.0,6751.6599999999999,6502.9799999999996,2212.8600000000001,5443.9499999999998,-2592.2199999999998,-1544.8499999999999,1046.1199999999999
170653.0,6813.2600000000002,6693.6800000000003,2250.0100000000002,5335.2200000000003,-2746.8499999999999,-1371.0699999999999,929.221
170654.0,6870.6000000000004,6823.3900000000003,2263.1100000000001,5235.04,-2883.4299999999998,-1191.1900000000001,802.12
170655.0,6372.3500000000004,3437.8000000000002,1716.98,7869.8100000000004,-835.779,-1133.95,1214.24
170656.0,6337.5699999999997,3586.2800000000002,1785.8099999999999,7594.8800000000001,-922.79700000000003,-1459.0,1251.1600000000001
170657.0,6343.5100000000002,3834.6999999999998,1842.5899999999999,7312.0500000000002,-1044.0699999999999,-1728.0599999999999,1294.02
170658.0,6368.4200000000001,4154.3699999999999,1893.0,7010.5900000000001,-1192.02,-1928.1099999999999,1342.9300000000001
170659.0,6396.1000000000004,4561.54,1999.6300000000001,6745.5799999999999,-1365.9400000000001,-2062.8299999999999,1368.48
170660.0,6442.0799999999999,4965.21,2070.0100000000002,6468.2200000000003,-1566.1300000000001,-2126.6799999999998,1363.9300000000001
170661.0,6506.54,5357.96,2115.4299999999998,6199.8599999999997,-1774.0699999999999,-2122.7800000000002,1344.3499999999999
170662.0,6579.3299999999999,5730.2600000000002,2159.8000000000002,5957.5200000000004,-1984.28,-2062.4699999999998,1304.21
170663.0,6656.0600000000004,6065.1899999999996,2196.2199999999998,5742.6400000000003,-2190.8200000000002,-1954.02,1241.5599999999999
170664.0,6732.4700000000003,6364.5900000000001,2236.5,5567.7299999999996,-2386.8299999999999,-1809.3299999999999,1158.6900000000001
170665.0,6806.3699999999999,6606.9899999999998,2263.02,5416.2799999999997,-2568.5700000000002,-1639.5,1057.46
170666.0,6875.3999999999996,6818.0500000000002,2301.8499999999999,5310.2600000000002,-2732.2199999999998,-1455.53,941.68499999999995
170667.0,6939.8999999999996,6972.0,2322.9899999999998,5219.1899999999996,-2876.8800000000001,-1265.3499999999999,815.005
170668.0,6377.0200000000004,3315.1300000000001,1820.04,7929.0299999999997,-746.81899999999996,-1224.8599999999999,1164.8699999999999
170669.0,6345.9700000000003,3465.0700000000002,1873.4000000000001,7629.3699999999999,-830.995,-1563.1600000000001,1206.4100000000001
170670.0,6343.2200000000003,3729.0999999999999,1926.95,7322.0600000000004,-947.5,-1839.0899999999999,1260.2
170671.0,6357.2700000000004,4089.2399999999998,1997.3900000000001,7016.9099999999999,-1093.22,-2047.04,1314.9100000000001
170672.0,6391.6400000000003,4518.1400000000003,2095.6599999999999,6739.71,-1274.3,-2188.4099999999999,1345.2
170673.0,6449.9300000000003,4942.2700000000004,2148.9699999999998,6449.5500000000002,-1483.9300000000001,-2253.9200000000001,1350.3399999999999
170674.0,6521.6599999999999,5364.2299999999996,2189.54,6175.8900000000003,-1700.6700000000001,-2248.3499999999999,1338.6099999999999
170675.0,6600.8699999999999,5765.7600000000002,2231.6599999999999,5930.5200000000004,-1921.0,-2183.23,1304.0999999999999
170676.0,6684.8999999999996,6134.8199999999997,2272.9099999999999,5721.1000000000004,-2138.1300000000001,-2067.8200000000002,1246.01
170677.0,6769.0600000000004,6457.1499999999996,2309.77,5544.4099999999999,-2344.75,-1914.46,1166.5799999999999
170678.0,6850.8800000000001,6728.3500000000004,2341.9400000000001,5400.75,-2536.7199999999998,-1734.9400000000001,1067.7
170679.0,6927.6700000000001,6952.2700000000004,2373.4000000000001,5289.75,-2709.6799999999998,-1540.75,953.28800000000001
170680.0,6999.6700000000001,7122.9799999999996,2393.9899999999998,5200.1199999999999,-2862.79,-1340.2,827.18600000000004
170681.0,6371.54,3117.1500000000001,1879.71,7910.5799999999999,-648.67600000000004,-1315.0599999999999,1111.49
170682.0,6339.3500000000004,3287.3000000000002,1937.6500000000001,7599.2299999999996,-728.45899999999995,-1664.9100000000001,1161.28
170683.0,6334.7799999999997,3562.9699999999998,1976.5799999999999,7265.0900000000001,-840.00699999999995,-1952.8199999999999,1221.5699999999999
170684.0,6351.7700000000004,3972.7800000000002,2066.4400000000001,6973.6599999999999,-985.96600000000001,-2171.7399999999998,1280.51
170685.0,6389.3299999999999,4419.1599999999999,2150.5599999999999,6678.0900000000001,-1172.6099999999999,-2317.75,1317.6600000000001
170686.0,6450.0,4892.2399999999998,2219.4200000000001,6399.79,-1389.7,-2383.0900000000001,1332.3299999999999
170687.0,6527.0699999999997,5331.5,2242.6100000000001,6107.9099999999999,-1615.9200000000001,-2375.4200000000001,1329.02
170688.0,6612.5,5783.8599999999997,2301.6500000000001,5880.7399999999998,-1846.6500000000001,-2305.5999999999999,1300.6500000000001
170689.0,6703.6800000000003,6160.5500000000002,2319.1599999999999,5650.0900000000001,-2074.9400000000001,-2183.1100000000001,1247.5799999999999
170690.0,6795.6899999999996,6530.9899999999998,2375.6799999999998,5496.3800000000001,-2292.6199999999999,-2021.0799999999999,1172.04
170691.0,6885.6099999999997,6803.7600000000002,2384.5700000000002,5333.1199999999999,-2495.3600000000001,-1831.74,1075.8599999999999
170692.0,6970.4499999999998,7074.2200000000003,2441.1100000000001,5250.5900000000001,-2678.1799999999998,-1627.1800000000001,963.32100000000003
170693.0,7050.1199999999999,7246.7200000000003,2445.3600000000001,5147.4499999999998,-2840.21,-1416.04,838.20399999999995
170694.0,6352.6800000000003,2938.1700000000001,1989.21,7902.6400000000003,-537.80999999999995,-1405.6600000000001,1049.3800000000001
170695.0,6317.5299999999997,3117.9899999999998,2041.3900000000001,7567.6700000000001,-611.35900000000004,-1767.5799999999999,1105.6900000000001
170696.0,6313.7600000000002,3412.5300000000002,2074.0999999999999,7216.7399999999998,-719.32500000000005,-2066.6799999999998,1175.1199999999999
170697.0,6333.6999999999998,3853.7199999999998,2166.75,6921.8400000000001,-866.67700000000002,-2294.52,1242.71
170698.0,6376.3400000000001,4320.1199999999999,2234.4200000000001,6610.6400000000003,-1059.01,-2445.8000000000002,1287.55
170699.0,6441.4300000000003,4827.1499999999996,2297.9899999999998,6329.9399999999996,-1283.0899999999999,-2512.6900000000001,1311.02
170700.0,6522.54,5297.8699999999999,2316.0100000000002,6033.9799999999996,-1519.1300000000001,-2503.1199999999999,1315.9300000000001
170701.0,6613.8999999999996,5785.9099999999999,2374.4299999999998,5809.7799999999997,-1760.97,-2428.5500000000002,1294.4400000000001
170702.0,6711.9499999999998,6198.4099999999999,2394.48,5586.1599999999999,-2001.05,-2299.02,1247.05
170703.0,6811.8199999999997,6597.5799999999999,2449.48,5436.04,-2230.5900000000001,-2128.25,1175.9100000000001
170704.0,6909.9099999999999,6899.5600000000004,2461.1900000000001,5280.8100000000004,-2444.7199999999998,-1929.0599999999999,1082.9200000000001
170705.0,7002.9099999999999,7188.25,2512.9699999999998,5198.3400000000001,-2637.8499999999999,-1714.0999999999999,972.452
170706.0,7090.46,7377.5500000000002,2514.5300000000002,5096.4099999999999,-2809.1300000000001,-1492.3399999999999,848.61599999999999
170707.0,6327.1000000000004,2696.0100000000002,2066.5799999999999,7823.2299999999996,-415.08600000000001,-1497.3699999999999,979.30499999999995
170708.0,6291.5299999999997,2890.1500000000001,2116.7399999999998,7470.9499999999998,-481.28899999999999,-1871.1700000000001,1042.4200000000001
170709.0,6288.8199999999997,3203.9200000000001,2142.6599999999999,7104.3599999999997,-584.93299999999999,-2182.23,1119.1300000000001
170710.0,6309.8900000000003,3674.29,2231.7199999999998,6802.4499999999998,-731.95799999999997,-2419.3499999999999,1192.8399999999999
170711.0,6355.8599999999997,4179.3599999999997,2300.8400000000001,6495.1700000000001,-929.57000000000005,-2574.6100000000001,1248.5599999999999
170712.0,6425.1300000000001,4725.4700000000003,2364.3099999999999,6217.75,-1162.54,-2642.6500000000001,1284.73
170713.0,6509.8800000000001,5233.5799999999999,2380.52,5923.9799999999996,-1409.3099999999999,-2631.4699999999998,1298.7
170714.0,6606.0200000000004,5761.6599999999999,2440.4000000000001,5707.21,-1662.8699999999999,-2552.0999999999999,1284.73
170715.0,6710.3400000000001,6200.1700000000001,2450.6999999999998,5480.5799999999999,-1915.25,-2415.6900000000001,1243.55
170716.0,6817.6199999999999,6636.9700000000003,2510.9299999999998,5342.8800000000001,-2157.25,-2236.1700000000001,1177.28
170717.0,6923.7200000000003,6958.6800000000003,2513.9699999999998,5185.9099999999999,-2383.3200000000002,-2027.1400000000001,1087.9000000000001
170718.0,7024.8999999999996,7281.7200000000003,2575.8400000000001,5119.6599999999999,-2587.4299999999998,-1801.6700000000001,980.024
170719.0,7120.2399999999998,7489.4300000000003,2575.23,5020.4399999999996,-2768.3200000000002,-1569.1800000000001,857.86900000000003
170720.0,6296.79,2460.54,2185.3299999999999,7740.0500000000002,-279.85399999999998,-1589.3699999999999,900.80700000000002
170721.0,6262.5299999999997,2659.02,2222.5300000000002,7361.4499999999998,-337.09899999999999,-1974.2,971.25900000000001
170722.0,6266.6199999999999,2997.0599999999999,2246.9400000000001,6990.3199999999997,-438.02800000000002,-2297.5500000000002,1057.4200000000001
170723.0,6296.3400000000001,3488.77,2317.2800000000002,6676.8299999999999,-587.55799999999999,-2545.4699999999998,1140.04
170724.0,6341.5600000000004,4024.1700000000001,2375.1199999999999,6361.5799999999999,-787.71500000000003,-2704.9699999999998,1206.3599999999999
170725.0,6406.0500000000002,4606.1899999999996,2438.2399999999998,6082.6400000000003,-1027.9000000000001,-2772.9099999999999,1254.3199999999999
170726.0,6490.7600000000002,5159.0,2459.5799999999999,5798.4300000000003,-1286.23,-2759.5599999999999,1277.9400000000001
170727.0,6590.0,5718.4099999999999,2509.6300000000001,5580.6300000000001,-1551.9200000000001,-2675.5300000000002,1272.04
170728.0,6699.5600000000004,6206.1000000000004,2531.1399999999999,5374.2700000000004,-1817.4200000000001,-2532.3400000000001,1237.79
170729.0,6813.5799999999999,6666.3199999999997,2580.3200000000002,5234.8299999999999,-2072.6999999999998,-2344.1700000000001,1176.97
170730.0,6927.25,7029.6199999999999,2594.75,5098.0200000000004,-2311.4099999999999,-2125.3200000000002,1091.6700000000001
170731.0,7036.3599999999997,7365.0500000000002,2643.0599999999999,5025.8800000000001,-2526.9899999999998,-1889.3900000000001,986.66700000000003
170732.0,7139.4399999999996,7601.3599999999997,2649.1300000000001,4939.4200000000001,-2717.9400000000001,-1646.1800000000001,866.48299999999995
170733.0,6265.8500000000004,2155.3600000000001,2271.1799999999998,7573.9499999999998,-131.267,-1680.8900000000001,813.64300000000003
170734.0,6235.5299999999997,2370.77,2307.5799999999999,7184.0699999999997,-178.119,-2075.52,892.05700000000002
170735.0,6246.71,2722.25,2322.3000000000002,6801.3199999999997,-275.83800000000002,-2409.3600000000001,991.27300000000002
170736.0,6282.1999999999998,3244.4499999999998,2387.6900000000001,6487.25,-430.57100000000003,-2666.3299999999999,1088.4000000000001
170737.0,6328.9300000000003,3819.3099999999999,2436.4899999999998,6172.6199999999999,-635.01599999999996,-2832.1900000000001,1165.8
170738.0,6387.2600000000002,4455.1000000000004,2509.4400000000001,5909.4899999999998,-879.83900000000006,-2902.2600000000002,1221.3199999999999
170739.0,6467.4899999999998,5044.9399999999996,2525.46,5627.9499999999998,-1148.6300000000001,-2887.0700000000002,1252.78
170740.0,6567.9899999999998,5653.6700000000001,2580.6599999999999,5427.4799999999996,-1427.1099999999999,-2798.6799999999998,1255.8199999999999
170741.0,6680.9200000000001,6166.8400000000001,2587.0900000000001,5217.5799999999999,-1706.3099999999999,-2648.9699999999998,1229.02
170742.0,6800.3800000000001,6674.1400000000003,2646.4200000000001,5100.0,-1975.5599999999999,-2452.2600000000002,1174.1300000000001
170743.0,6920.8000000000002,7056.29,2647.3800000000001,4960.4399999999996,-2227.54,-2223.6900000000001,1093.4100000000001
170744.0,7037.29,7433.5299999999997,2710.02,4911.8299999999999,-2455.2399999999998,-1977.28,991.75800000000004
170745.0,7147.6999999999998,7685.9399999999996,2709.0500000000002,4825.5699999999997,-2656.6399999999999,-1723.3199999999999,873.97299999999996
170746.0,6239.3699999999999,1851.21,2397.1100000000001,7392.4899999999998,31.7363,-1770.9100000000001,716.39300000000003
170747.0,6217.54,2069.1399999999999,2417.73,6981.1899999999996,-3.2031900000000002,-2173.8499999999999,804.86599999999999
170748.0,6233.0100000000002,2455.8699999999999,2446.5999999999999,6608.5100000000002,-95.476200000000006,-2517.5599999999999,917.58000000000004
170749.0,6265.6999999999998,2997.9000000000001,2499.6599999999999,6282.2399999999998,-253.30500000000001,-2782.3400000000001,1028.0699999999999
170750.0,6309.96,3611.1599999999999,2539.9400000000001,5970.0200000000004,-464.505,-2953.8899999999999,1118.53
170751.0,6367.4499999999998,4275.3800000000001,2587.8699999999999,5700.5500000000002,-716.851,-3028.5999999999999,1183.46
170752.0,6444.1300000000001,4920.7299999999996,2609.48,5442.1700000000001,-995.97000000000003,-3013.29,1223.6700000000001
170753.0,6542.4499999999998,5558.7700000000004,2647.9000000000001,5239.5799999999999,-1287.98,-2920.8400000000001,1236.55
170754.0,6656.3500000000004,6132.5600000000004,2671.6199999999999,5061.3100000000004,-1581.77,-2764.8400000000001,1217.9100000000001
170755.0,6779.2700000000004,6661.21,2713.1199999999999,4940.0299999999997,-1865.74,-2559.8000000000002,1169.52
170756.0,6905.1899999999996,7094.7299999999996,2731.0,4830.2200000000003,-2131.8099999999999,-2321.6300000000001,1093.8499999999999
170757.0,7028.25,7482.3100000000004,2774.5999999999999,4773.5900000000001,-2372.1799999999998,-2064.9000000000001,995.875
170758.0,7145.4700000000003,7771.4300000000003,2785.75,4707.9700000000003,-2584.5100000000002,-1800.27,880.80200000000002
170759.0,6224.2200000000003,1474.1300000000001,2490.8499999999999,7117.3400000000001,210.339,-1858.03,608.11099999999999
170760.0,6213.3000000000002,1714.99,2518.6100000000001,6709.3900000000003,190.63999999999999,-2267.0100000000002,707.56100000000004
170761.0,6239.7399999999998,2110.9400000000001,2532.6500000000001,6326.1599999999999,103.438,-2623.6799999999998,833.25199999999995
170762.0,6269.46,2707.4200000000001,2600.0799999999999,6022.9899999999998,-56.499099999999999,-2898.5500000000002,954.178
170763.0,6304.9499999999998,3346.7199999999998,2618.6999999999998,5703.4200000000001,-273.14699999999999,-3075.2800000000002,1057.79
170764.0,6355.3299999999999,4071.7800000000002,2675.9899999999998,5462.5,-536.31799999999998,-3152.98,1137.26
170765.0,6425.3999999999996,4744.29,2671.4299999999998,5199.0,-827.42100000000005,-3137.6399999999999,1190.45
170766.0,6517.2299999999996,5448.4099999999999,2727.4499999999998,5031.4899999999998,-1133.3800000000001,-3041.8400000000001,1213.72
170767.0,6628.4099999999999,6041.7799999999997,2724.2800000000002,4843.9499999999998,-1442.5899999999999,-2879.75,1203.73
170768.0,6752.1199999999999,6632.6199999999999,2786.0900000000001,4759.6800000000003,-1741.9200000000001,-2666.77,1162.45
170769.0,6881.4799999999996,7079.8900000000003,2780.9899999999998,4642.0,-2022.8299999999999,-2419.1300000000001,1092.26
170770.0,7009.7799999999997,7521.3900000000003,2847.3400000000001,4620.8299999999999,-2276.5100000000002,-2152.1900000000001,998.50599999999997
170771.0,7132.8100000000004,7820.8699999999999,2842.9299999999998,4549.5100000000002,-2500.25,-1876.9100000000001,886.52599999999995
170772.0,6227.9099999999999,1084.6800000000001,2616.9200000000001,6804.5299999999997,406.72899999999998,-1938.8499999999999,487.476
170773.0,6241.2799999999997,1325.8499999999999,2626.6900000000001,6389.5299999999997,403.017,-2355.04,600.43299999999999
170774.0,6281.1599999999999,1773.02,2670.1500000000001,6042.6199999999999,320.45299999999997,-2726.3800000000001,739.71199999999999
170775.0,6307.4200000000001,2381.1599999999999,2702.6999999999998,5722.21,156.27799999999999,-3012.6500000000001,873.75800000000004
170776.0,6329.25,3078.0700000000002,2726.8099999999999,5428.1700000000001,-65.477199999999996,-3194.8699999999999,992.16300000000001
170777.0,6362.2700000000004,3821.3200000000002,2751.7199999999998,5173.8000000000002,-338.62400000000002,-3274.9000000000001,1086.24
170778.0,6416.9099999999999,4561.9399999999996,2761.2600000000002,4945.3800000000001,-642.40499999999997,-3259.21,1153.4400000000001
170779.0,6497.04,5293.3000000000002,2792.71,4774.3999999999996,-962.91099999999994,-3160.8699999999999,1187.71
170780.0,6600.6099999999997,5959.8199999999997,2813.4699999999998,4631.6999999999998,-1288.4300000000001,-2993.0700000000002,1187.1300000000001
170781.0,6721.4300000000003,6569.8699999999999,2849.98,4541.3500000000004,-1604.02,-2772.4899999999998,1153.5899999999999
170782.0,6851.5600000000004,7079.0100000000002,2867.54,4463.9899999999998,-1900.5699999999999,-2515.6700000000001,1089.3099999999999
170783.0,6983.1400000000003,7529.29,2909.4400000000001,4432.9700000000003,-2168.1199999999999,-2238.7199999999998,1000.13
170784.0,7110.6800000000003,7873.1800000000003,2922.0,4389.96,-2403.75,-1952.9400000000001,891.58199999999999
170785.0,6257.2399999999998,631.26800000000003,2727.6300000000001,6391.8199999999997,625.01499999999999,-2008.45,354.55700000000002
170786.0,6304.5200000000004,900.03899999999999,2759.77,6015.5200000000004,638.12900000000002,-2429.6399999999999,483.91300000000001
170787.0,6371.8100000000004,1323.04,2745.29,5640.8400000000001,555.75599999999997,-2823.6799999999998,639.98599999999999
170788.0,6386.5699999999997,2015.95,2811.48,5373.96,386.57400000000001,-3121.7600000000002,788.66800000000001
170789.0,6386.1599999999999,2718.0,2786.1799999999998,5054.46,159.84999999999999,-3309.0700000000002,922.33699999999999
170790.0,6395.2700000000004,3556.9899999999998,2852.3699999999999,4865.5799999999999,-122.77800000000001,-3392.8400000000001,1031.0699999999999
170791.0,6426.3400000000001,4309.21,2816.4899999999998,4617.2600000000002,-439.63200000000001,-3377.6700000000001,1111.9100000000001
170792.0,6487.9899999999998,5132.3800000000001,2884.46,4507.6099999999997,-775.62599999999998,-3277.4699999999998,1158.28
170793.0,6577.6499999999996,5804.8599999999997,2858.77,4342.71,-1118.1099999999999,-3104.5900000000001,1167.5799999999999
170794.0,6690.6800000000003,6500.8699999999999,2933.5500000000002,4312.9700000000003,-1450.75,-2876.8600000000001,1142.3
170795.0,6817.7200000000003,7011.5699999999997,2911.0999999999999,4215.5299999999997,-1763.74,-2611.1300000000001,1084.49
170796.0,6949.9799999999996,7535.25,2991.1199999999999,4239.2600000000002,-2045.8599999999999,-2324.3800000000001,1000.36
170797.0,7080.0299999999997,7877.29,2972.8200000000002,4178.1700000000001,-2293.79,-2028.21,895.64099999999996
170798.0,6316.5600000000004,150.66200000000001,2872.2800000000002,5897.8100000000004,876.755,-2056.3400000000001,193.06100000000001
170799.0,6433.4300000000003,386.73700000000002,2865.1799999999998,5545.3400000000001,903.12,-2490.52,349.08499999999998
170800.0,6522.96,908.66399999999999,2917.7199999999998,5264.1300000000001,813.28200000000004,-2912.9899999999998,532.95100000000002
170801.0,6515.5900000000001,1586.6700000000001,2906.8800000000001,4948.9200000000001,636.60699999999997,-3223.1300000000001,698.21900000000005
170802.0,6486.1400000000003,2379.5900000000001,2914.7800000000002,4695.4200000000001,404.29000000000002,-3416.4699999999998,847.09500000000003
170803.0,6464.4300000000003,3213.77,2915.9099999999999,4473.1800000000003,112.09399999999999,-3505.8200000000002,971.06100000000004
170804.0,6463.1000000000004,4067.9299999999998,2921.9299999999998,4297.1599999999999,-218.55600000000001,-3492.21,1066.6400000000001
170805.0,6497.25,4899.6800000000003,2939.9000000000001,4165.9799999999996,-570.99000000000001,-3390.8499999999999,1125.6700000000001
170806.0,6565.46,5673.8100000000004,2960.02,4074.8200000000002,-931.25,-3213.6799999999998,1145.74
170807.0,6664.1300000000001,6373.4399999999996,2988.0300000000002,4023.3400000000001,-1281.98,-2979.1999999999998,1129.23
170808.0,6783.25,6969.8999999999996,3006.71,3989.9099999999999,-1612.05,-2705.0,1078.3199999999999
170809.0,6912.5799999999999,7489.1700000000001,3045.0700000000002,3990.5,-1909.46,-2408.73,999.572
170810.0,7042.7399999999998,7894.96,3059.75,3976.8400000000001,-2170.1700000000001,-2102.3899999999999,899.10799999999995
170811.0,6445.2600000000002,-387.49299999999999,2997.71,5281.3199999999997,1184.24,-2075.7600000000002,-30.2745
170812.0,6658.4300000000003,-136.64500000000001,3046.4899999999998,5063.75,1213.21,-2529.0,190.39099999999999
170813.0,6763.4799999999996,333.40100000000001,2985.0799999999999,4716.1700000000001,1094.99,-3001.0900000000001,412.21899999999999
170814.0,6707.3199999999997,1156.6500000000001,3049.2399999999998,4505.8800000000001,911.05700000000002,-3315.3400000000001,595.303
170815.0,6644.1199999999999,1914.0699999999999,2967.3200000000002,4205.0699999999997,670.29499999999996,-3516.6599999999999,763.923
170816.0,6582.1400000000003,2880.75,3032.8499999999999,4085.8499999999999,366.68099999999998,-3613.1399999999999,906.41499999999996
170817.0,6537.3199999999997,3727.8499999999999,2970.3400000000001,3875.4200000000001,22.027100000000001,-3602.0599999999999,1017.05
170818.0,6534.0,4677.3999999999996,3043.1599999999999,3832.3000000000002,-347.94200000000001,-3500.6300000000001,1089.79
170819.0,6571.0299999999997,5447.1199999999999,2999.75,3708.79,-726.745,-3319.96,1121.0799999999999
170820.0,6647.6099999999997,6252.8900000000003,3079.77,3737.9299999999998,-1096.4300000000001,-3079.4099999999999,1113.9300000000001
170821.0,6752.3100000000004,6844.7600000000002,3046.7399999999998,3678.04,-1444.49,-2797.0799999999999,1070.4300000000001
170822.0,6874.1400000000003,7450.3999999999996,3131.77,3746.1599999999999,-1757.79,-2491.6199999999999,997.51800000000003
170823.0,7001.0500000000002,7850.4099999999999,3108.23,3710.27,-2031.71,-2175.3499999999999,901.66999999999996
170824.0,6693.8000000000002,-1122.0999999999999,2947.9499999999998,4428.6400000000003,1553.8399999999999,-2040.8199999999999,-307.96199999999999
170825.0,7065.9899999999998,-888.44799999999998,3074.9899999999998,4402.7700000000004,1584.4400000000001,-2560.1100000000001,2.5237799999999999
170826.0,7108.2200000000003,-146.261,3205.8899999999999,4240.6499999999996,1394.6600000000001,-3091.5500000000002,284.10500000000002
170827.0,6973.7399999999998,594.51700000000005,3101.5500000000002,3918.8000000000002,1211.02,-3393.25,479.21600000000001
170828.0,6880.5299999999997,1503.9400000000001,3131.5599999999999,3768.8899999999999,959.75099999999998,-3610.9099999999999,675.70000000000005
170829.0,6757.3500000000004,2425.0100000000002,3072.79,3570.0500000000002,641.24099999999999,-3712.1799999999998,836.31899999999996
170830.0,6661.9700000000003,3424.2600000000002,3101.1700000000001,3489.23,283.38,-3706.8600000000001,964.18299999999999
170831.0,6607.8100000000004,4349.2600000000002,3080.6199999999999,3390.8800000000001,-106.386,-3605.77,1050.76
170832.0,6603.2700000000004,5264.3299999999999,3120.75,3385.5700000000002,-503.86399999999998,-3423.0300000000002,1094.3599999999999
170833.0,6647.6300000000001,6045.4399999999996,3118.3800000000001,3363.8699999999999,-894.04999999999995,-3176.6799999999998,1096.9400000000001
170834.0,6730.1400000000003,6759.7299999999996,3157.6300000000001,3404.6300000000001,-1260.4300000000001,-2886.9699999999998,1061.21
170835.0,6838.6999999999998,7337.0600000000004,3172.1900000000001,3425.3000000000002,-1590.5699999999999,-2572.5799999999999,994.58399999999995
170836.0,6958.0500000000002,7830.1800000000003,3207.6799999999998,3466.1199999999999,-1878.0599999999999,-2246.73,903.71299999999997
170837.0,7370.0799999999999,-1866.73,2905.2199999999998,3469.4699999999998,2267.6100000000001,-1889.78,-893.62199999999996
170838.0,7722.25,-1654.8,3257.1100000000001,3814.8699999999999,2002.3299999999999,-2605.0500000000002,-151.20099999999999
170839.0,7530.8800000000001,-831.899,3243.3699999999999,3491.4699999999998,1703.99,-3176.1300000000001,140.935
170840.0,7336.1899999999996,59.1982,3250.1300000000001,3367.8499999999999,1547.23,-3449.1799999999998,354.041
170841.0,7208.5600000000004,907.08199999999999,3161.9000000000001,3134.8299999999999,1268.8,-3700.7199999999998,584.22000000000003
170842.0,7001.3100000000004,2028.71,3223.48,3113.8899999999999,940.11400000000003,-3800.4099999999999,759.17600000000004
170843.0,6850.6499999999996,2962.9099999999999,3122.25,2942.6700000000001,565.16800000000001,-3806.4899999999998,908.49199999999996
170844.0,6728.6700000000001,4077.6199999999999,3217.6999999999998,3006.8400000000001,155.65799999999999,-3705.3699999999999,1007.92
170845.0,6673.0100000000002,4932.8800000000001,3132.5300000000002,2911.9899999999998,-262.08800000000002,-3522.7199999999998,1065.73
170846.0,6672.0500000000002,5886.0900000000001,3240.2199999999998,3037.3099999999999,-673.36300000000006,-3270.8000000000002,1077.49
170847.0,6723.8999999999996,6546.75,3173.0500000000002,3001.52,-1059.1900000000001,-2974.46,1050.8599999999999
170848.0,6811.2200000000003,7264.6599999999999,3283.5300000000002,3144.0500000000002,-1406.6900000000001,-2651.4099999999999,990.34500000000003
170849.0,6918.0799999999999,7710.1400000000003,3235.27,3120.27,-1708.1300000000001,-2316.3600000000001,905.12599999999998
170850.0,9218.5599999999995,-3686.0700000000002,779.68299999999999,1743.0599999999999,3636.4699999999998,-1908.1900000000001,-1752.4400000000001
170851.0,8677.2199999999993,-2603.4400000000001,3608.1599999999999,3104.1300000000001,2406.5300000000002,-2709.8699999999999,-246.71600000000001
170852.0,7949.8100000000004,-1390.74,3364.6199999999999,2754.1599999999999,2020.4300000000001,-3207.5799999999999,-37.389899999999997
170853.0,7868.6099999999997,-699.26199999999994,3293.4200000000001,2632.9299999999998,1943.6700000000001,-3497.0900000000001,224.98599999999999
170854.0,7611.6800000000003,432.029,3355.1100000000001,2597.98,1585.77,-3776.3499999999999,485.33999999999997
170855.0,7339.1999999999998,1430.72,3234.9299999999998,2463.0300000000002,1272.22,-3880.3600000000001,677.84699999999998
170856.0,7108.9200000000001,2595.25,3285.6700000000001,2487.25,864.04100000000005,-3897.5799999999999,848.649
170857.0,6911.6899999999996,3634.1199999999999,3230.8200000000002,2453.9400000000001,441.12099999999998,-3800.2600000000002,963.02999999999997
170858.0,6789.5299999999997,4693.5900000000001,3278.5,2529.9200000000001,-2.19476,-3617.6799999999998,1034.8399999999999
170859.0,6730.8000000000002,5585.21,3259.6300000000001,2569.8800000000001,-433.52499999999998,-3361.54,1057.02
170860.0,6740.8800000000001,6411.1700000000001,3301.1999999999998,2675.0999999999999,-840.49300000000005,-3058.8400000000001,1039.1600000000001
170861.0,6798.3199999999997,7074.6999999999998,3309.9699999999998,2744.96,-1205.53,-2727.8899999999999,985.49199999999996
170862.0,6886.2200000000003,7642.5299999999997,3346.46,2826.1599999999999,-1521.78,-2383.7800000000002,906.15300000000002
170863.0,11780.700000000001,-5252.4200000000001,-2240.6300000000001,78.507199999999997,5523.1599999999999,-2245.21,-1889.53
170864.0,10017.0,-3005.6900000000001,4990.5799999999999,2808.02,2830.0100000000002,-2855.25,-448.83600000000001
170865.0,8331.8299999999999,-2494.3800000000001,2870.3600000000001,1421.71,2361.4000000000001,-3129.0799999999999,-264.56200000000001
170866.0,8647.7299999999996,-1276.45,3663.3099999999999,2109.0,2410.5100000000002,-3567.4200000000001,104.68000000000001
170867.0,8066.3800000000001,-333.553,3290.1700000000001,1751.8199999999999,1907.74,-3821.9099999999999,366.77800000000002
170868.0,7799.7200000000003,945.33600000000001,3431.1999999999998,1928.5,1643.1400000000001,-3956.4299999999998,598.28200000000004
170869.0,7438.54,2021.9200000000001,3293.7199999999998,1830.1800000000001,1179.3800000000001,-3976.25,780.87800000000004
170870.0,7174.1499999999996,3271.2199999999998,3376.0999999999999,1982.9100000000001,752.36800000000005,-3891.6700000000001,918.149
170871.0,6961.5,4277.75,3292.1599999999999,1973.5699999999999,276.04000000000002,-3706.8000000000002,1000.52
170872.0,6835.9799999999996,5346.9099999999999,3382.2399999999998,2164.8800000000001,-172.91800000000001,-3449.1399999999999,1035.6199999999999
170873.0,6789.6800000000003,6128.4399999999996,3319.9000000000001,2202.4099999999999,-603.82399999999996,-3139.6999999999998,1025.9100000000001
170874.0,6807.9200000000001,6934.0200000000004,3420.4200000000001,2394.8400000000001,-986.04499999999996,-2801.71,980.05200000000002
170875.0,6868.8299999999999,7460.7399999999998,3376.3000000000002,2417.9000000000001,-1317.71,-2448.8800000000001,906.46100000000001
170876.0,13804.6,-8759.5499999999993,-7946.4300000000003,-4498.1899999999996,6934.71,-3067.4499999999998,-951.06100000000004
170877.0,11729.0,-3520.4099999999999,6151.71,2060.0799999999999,3471.0599999999999,-3021.9000000000001,-1050.6199999999999
170878.0,8852.9200000000001,-3665.5100000000002,2459.6100000000001,169.46199999999999,2788.9200000000001,-2914.9099999999999,-521.36400000000003
170879.0,9643.8400000000001,-2051.3299999999999,3922.6900000000001,1343.54,2916.46,-3676.6599999999999,0.016548199999999999
170880.0,8591.2299999999996,-989.22900000000004,3392.6900000000001,1025.8099999999999,2256.3600000000001,-3827.77,222.46199999999999
170881.0,8388.0400000000009,233.02000000000001,3470.3099999999999,1160.5699999999999,2044.96,-4027.1900000000001,523.21500000000003
170882.0,7851.1499999999996,1550.6600000000001,3462.4899999999998,1290.51,1518.4000000000001,-4042.1500000000001,704.01300000000003
170883.0,7527.25,2708.4400000000001,3374.8699999999999,1310.4300000000001,1086.8099999999999,-3978.6500000000001,874.97400000000005
170884.0,7199.3000000000002,3968.9099999999999,3461.3699999999999,1530.3299999999999,575.13900000000001,-3789.98,962.48699999999997
170885.0,6998.9399999999996,4940.9700000000003,3381.04,1592.1700000000001,107.512,-3532.6100000000001,1014.65
170886.0,6879.9700000000003,5935.25,3468.79,1821.77,-347.84899999999999,-3216.9699999999998,1010.9299999999999
170887.0,6849.29,6654.8000000000002,3429.5799999999999,1906.71,-748.14599999999996,-2872.3699999999999,974.54999999999995
170888.0,6873.5600000000004,7338.8100000000004,3502.21,2070.9200000000001,-1095.51,-2511.3899999999999,906.43600000000004
170889.0,12937.700000000001,-9216.2199999999993,-8933.7399999999998,-7615.7600000000002,6399.0900000000001,-3624.3000000000002,990.46100000000001
170890.0,13233.799999999999,-4178.5,6002.6800000000003,662.78899999999999,4442.8599999999997,-3039.27,-1862.0799999999999
170891.0,10046.9,-5339.5500000000002,2077.1300000000001,-1153.26,3458.48,-2681.6900000000001,-816.15999999999997
170892.0,10661.200000000001,-2715.0999999999999,4245.1599999999999,519.91200000000003,3376.25,-3787.6700000000001,-101.59
170893.0,9281.1299999999992,-1910.3599999999999,3343.3299999999999,78.749099999999999,2685.1500000000001,-3803.1199999999999,58.627000000000002
170894.0,9070.2399999999998,-394.94600000000003,3654.9099999999999,468.75900000000001,2455.96,-4079.6599999999999,444.863
170895.0,8378.6200000000008,864.76999999999998,3485.6100000000001,556.79999999999995,1896.8,-4101.6599999999999,623.45100000000002
170896.0,7969.46,2228.8000000000002,3511.4899999999998,720.96299999999997,1438.1500000000001,-4057.3699999999999,830.20899999999995
170897.0,7518.9200000000001,3466.0300000000002,3487.9200000000001,899.93799999999999,899.74599999999998,-3868.98,923.20699999999999
170898.0,7228.2600000000002,4605.5900000000001,3496.5599999999999,1091.22,406.964,-3610.8099999999999,992.255
170899.0,7023.8599999999997,5578.4899999999998,3496.98,1280.6500000000001,-70.973699999999994,-3290.8499999999999,995.38599999999997
170900.0,6931.7299999999996,6430.6099999999997,3533.96,1475.0799999999999,-491.40300000000002,-2939.25,968.41499999999996
170901.0,6909.96,7089.8500000000004,3538.6999999999998,1598.78,-853.77300000000002,-2571.2600000000002,906.21699999999998
170902.0,13544.700000000001,-9401.4200000000001,-6962.2200000000003,-13709.799999999999,5427.79,-3745.9699999999998,-2446.6100000000001
170903.0,16958.700000000001,-5807.3100000000004,2894.8499999999999,-3063.5599999999999,7089.9200000000001,-2645.6999999999998,-4336.5500000000002
170904.0,12500.5,-6690.4700000000003,2721.8299999999999,-1652.1199999999999,4604.2299999999996,-2729.9699999999998,-1118.6099999999999
170905.0,11391.6,-3708.5,4073.1100000000001,-863.86199999999997,3647.3299999999999,-3795.3600000000001,-213.23099999999999
170906.0,10277.299999999999,-2736.3899999999999,3566.3499999999999,-714.98199999999997,3261.7600000000002,-3768.3299999999999,-106.95399999999999
170907.0,9801.2800000000007,-1238.25,3676.0700000000002,-424.47699999999998,2855.4099999999999,-4100.0500000000002,346.44799999999998
170908.0,9057.0300000000007,212.708,3620.9899999999998,-129.79400000000001,2328.2399999999998,-4161.6599999999999,550.33299999999997
170909.0,8494.5900000000001,1604.1300000000001,3560.9000000000001,-3.90089,1801.8,-4124.6999999999998,778.46000000000004
170910.0,7935.75,3003.9000000000001,3609.29,313.47300000000001,1252.9200000000001,-3944.4299999999998,886.47799999999995
170911.0,7530.9499999999998,4150.1899999999996,3542.9299999999998,476.20400000000001,724.78300000000002,-3683.0599999999999,967.56899999999996
170912.0,7233.4200000000001,5258.3800000000001,3606.48,778.37,227.5,-3360.79,980.41300000000001
170913.0,7065.5600000000004,6102.2299999999996,3577.9499999999998,943.07299999999998,-215.12899999999999,-3002.4400000000001,961.54200000000003
170914.0,6988.3299999999999,6860.5299999999997,3635.2399999999998,1148.9200000000001,-592.62599999999998,-2627.6999999999998,906.50300000000004
170915.0,23545.700000000001,-23026.0,-27773.299999999999,-26170.799999999999,2584.6599999999999,-6195.3800000000001,-11571.700000000001
170916.0,23300.099999999999,-14722.200000000001,-15202.799999999999,-11949.700000000001,10815.299999999999,-3729.7800000000002,-6855.6300000000001
170917.0,15867.299999999999,-7212.1000000000004,4263.1800000000003,-1521.3499999999999,6155.6599999999999,-3430.0999999999999,-1159.48
170918.0,11896.0,-4826.9399999999996,3898.1799999999998,-2540.8899999999999,3784.0,-3482.71,-504.61500000000001
170919.0,11639.200000000001,-3820.54,3682.2600000000002,-1724.1900000000001,4000.6100000000001,-3756.4099999999999,-235.78399999999999
170920.0,10581.700000000001,-2009.52,3850.3699999999999,-1193.45,3253.4200000000001,-4076.9099999999999,209.56299999999999
170921.0,9901.0300000000007,-692.84000000000003,3579.6999999999998,-1070.22,2811.8899999999999,-4225.4899999999998,495.47399999999999
170922.0,9104.9699999999993,1090.0899999999999,3786.71,-597.46699999999998,2181.4699999999998,-4180.2200000000003,714.36699999999996
170923.0,8458.4500000000007,2310.5,3553.5900000000001,-504.28500000000003,1634.0,-4015.4400000000001,855.74099999999999
170924.0,7916.0600000000004,3784.0100000000002,3733.8000000000002,-40.468200000000003,1063.03,-3750.2600000000002,938.69899999999996
170925.0,7518.2399999999998,4753.9399999999996,3577.4699999999998,94.204999999999998,547.57100000000003,-3425.5500000000002,967.14300000000003
170926.0,7262.5200000000004,5832.7799999999997,3728.5900000000001,474.822,81.849800000000002,-3062.3800000000001,953.66600000000005
170927.0,7118.8400000000001,6497.5500000000002,3639.77,568.98500000000001,-311.13299999999998,-2679.9400000000001,907.20000000000005
170928.0,23874.0,-37048.900000000001,-50007.199999999997,-29388.799999999999,-4959.9300000000003,-5824.8199999999997,-4779.1000000000004
170929.0,23447.700000000001,-21180.599999999999,-30628.299999999999,-17516.299999999999,10547.299999999999,-5036.3699999999999,940.46299999999997
170930.0,18454.200000000001,-7228.4099999999999,5640.1000000000004,-2638.4099999999999,7140.7700000000004,-4437.8400000000001,-548.69799999999998
170931.0,12900.0,-6510.0200000000004,3396.7399999999998,-4420.25,4270.7600000000002,-2899.77,-1245.9000000000001
170932.0,13171.1,-4939.7399999999998,3858.8600000000001,-2809.2600000000002,4764.1300000000001,-3737.71,-297.63499999999999
170933.0,11532.9,-2974.3899999999999,3960.0300000000002,-2043.6800000000001,3730.4899999999998,-4031.4200000000001,34.302900000000001
170934.0,10867.4,-1633.48,3567.5599999999999,-2061.8699999999999,3312.7800000000002,-4285.3699999999999,455.23899999999998
170935.0,9827.1700000000001,473.36500000000001,3983.9899999999998,-1263.25,2597.71,-4229.0299999999997,642.35699999999997
170936.0,9082.5699999999997,1603.98,3542.4899999999998,-1336.1500000000001,2033.72,-4079.23,829.274
170937.0,8394.5100000000002,3335.5700000000002,3899.6799999999998,-627.84400000000005,1426.8199999999999,-3813.3699999999999,907.78999999999996
170938.0,7885.8400000000001,4238.8800000000001,3588.3000000000002,-597.08699999999999,887.48599999999999,-3484.3400000000001,955.34100000000001
170939.0,7533.5,5491.5299999999997,3856.75,-59.341099999999997,400.95800000000003,-3118.8000000000002,945.24900000000002
170940.0,7312.29,6112.0900000000001,3668.3099999999999,-28.094000000000001,-9.3541600000000003,-2727.8400000000001,908.73000000000002
170941.0,24710.599999999999,-35467.0,-34402.099999999999,-29900.599999999999,-7480.7200000000003,512.24400000000003,11772.200000000001
170942.0,23385.200000000001,-19853.299999999999,-20466.700000000001,-23970.700000000001,7209.2299999999996,-3304.5799999999999,10698.700000000001
170943.0,19932.099999999999,-7388.2799999999997,6732.7299999999996,-6567.3800000000001,7143.5299999999997,-4281.3699999999999,-490.74400000000003
170944.0,14934.5,-8391.7299999999996,2914.46,-5896.5200000000004,5450.6999999999998,-2337.6399999999999,-1972.24
170945.0,14716.1,-6186.6400000000003,4076.2800000000002,-3990.29,5466.9700000000003,-3592.46,-436.79899999999998
170946.0,12798.799999999999,-4252.4300000000003,3894.3099999999999,-3123.0900000000001,4354.5500000000002,-4018.3699999999999,-111.568
170947.0,11898.9,-2426.52,3788.2800000000002,-2890.9200000000001,3805.5999999999999,-4318.2299999999996,395.92700000000002
170948.0,10695.200000000001,-434.99000000000001,3954.29,-2208.8800000000001,3065.7800000000002,-4280.6400000000003,583.05899999999997
170949.0,9798.1399999999994,1014.4400000000001,3720.8899999999999,-2036.6900000000001,2447.79,-4132.75,795.39400000000001
170950.0,8976.8400000000001,2662.8000000000002,3891.9000000000001,-1434.6700000000001,1818.5799999999999,-3872.5700000000002,882.31100000000004
170951.0,8342.9400000000005,3794.9000000000001,3730.5799999999999,-1208.99,1247.8099999999999,-3538.1799999999998,940.97799999999995
170952.0,7886.8699999999999,4989.2799999999997,3869.6700000000001,-749.37,742.16800000000001,-3169.96,938.76700000000005
170953.0,7580.8900000000003,5762.6099999999997,3786.46,-582.48599999999999,314.517,-2772.6100000000001,910.03300000000002
170954.0,30454.299999999999,-15540.5,5189.3500000000004,-23469.5,-1304.5599999999999,1913.6099999999999,9208.8099999999995
170955.0,27036.400000000001,-10102.0,3336.2399999999998,-24204.0,5609.1400000000003,-1577.4200000000001,4477.9700000000003
170956.0,22072.099999999999,-9557.5499999999993,4837.4200000000001,-12985.700000000001,7607.21,-2444.6900000000001,-3017.96
170957.0,18116.400000000001,-11037.200000000001,2176.0,-8079.5699999999997,7230.75,-1795.05,-2410.4699999999998
170958.0,16420.400000000001,-7710.1000000000004,4211.3999999999996,-5103.6099999999997,6232.25,-3349.8200000000002,-729.98299999999995
170959.0,14357.1,-5792.1300000000001,3698.7800000000002,-4466.4399999999996,5089.2799999999997,-4043.52,-200.84399999999999
170960.0,13025.799999999999,-3233.8400000000001,4083.8899999999999,-3671.77,4321.79,-4336.2799999999997,306.26799999999997
170961.0,11693.799999999999,-1497.6500000000001,3838.1199999999999,-3316.9699999999998,3569.8099999999999,-4326.2399999999998,541.09199999999998
170962.0,10619.0,435.20999999999998,3985.8099999999999,-2698.2199999999998,2888.4400000000001,-4182.3299999999999,754.56100000000004
170963.0,9660.0799999999999,1881.1700000000001,3830.96,-2349.2800000000002,2232.0,-3923.9899999999998,862.495
170964.0,8898.9899999999998,3346.73,3929.9699999999998,-1813.97,1632.76,-3589.0599999999999,925.11300000000006
170965.0,8327.0499999999993,4401.4200000000001,3848.6399999999999,-1517.8599999999999,1103.74,-3214.3099999999999,934.22199999999998
170966.0,7936.29,5387.6899999999996,3933.04,-1155.98,661.86099999999999,-2814.1900000000001,911.92899999999997
170967.0,37816.599999999999,-3159.7600000000002,23377.099999999999,-16568.599999999999,2469.1300000000001,-4799.1400000000003,-5855.9799999999996
170968.0,36283.099999999999,-6987.0699999999997,7294.0900000000001,-25997.5,5854.1400000000003,-1875.7,-11049.200000000001
170969.0,27985.400000000001,-13190.1,-905.07799999999997,-19396.599999999999,10738.700000000001,487.61000000000001,-7545.9200000000001
170970.0,22441.900000000001,-13778.299999999999,2144.77,-10146.1,9422.8600000000006,-1052.02,-2889.4899999999998
170971.0,18642.799999999999,-9905.5699999999997,3926.0500000000002,-6551.7799999999997,7284.4399999999996,-3080.1100000000001,-1115.05
170972.0,16203.200000000001,-7175.1999999999998,3870.79,-5610.8900000000003,5907.3599999999997,-4101.75,-257.22699999999998
170973.0,14252.4,-4350.2399999999998,4122.0200000000004,-4757.1199999999999,4871.7299999999996,-4336.0900000000001,210.221
170974.0,12833.9,-2431.5999999999999,3967.3400000000001,-4256.3199999999997,4118.2700000000004,-4363.5299999999997,501.36599999999999
170975.0,11543.799999999999,-432.673,4012.9299999999998,-3643.77,3351.27,-4229.5600000000004,718.62400000000002
170976.0,10449.9,1220.6700000000001,3968.1599999999999,-3126.1500000000001,2672.2600000000002,-3969.3400000000001,841.63300000000004
170977.0,9554.1599999999999,2663.54,3945.1999999999998,-2649.3400000000001,2039.01,-3634.5799999999999,912.88300000000004
170978.0,8863.3400000000001,3898.9299999999998,3976.9299999999998,-2189.8499999999999,1488.97,-3253.9000000000001,929.10599999999999
170979.0,8382.9099999999999,4839.3500000000004,3956.7800000000002,-1895.6900000000001,1031.4100000000001,-2850.1900000000001,915.69200000000001
170980.0,52629.400000000001,-17168.5,10898.9,-25641.299999999999,-1559.7,-14042.1,-18917.700000000001
170981.0,58430.599999999999,-25824.799999999999,-26292.799999999999,-49399.400000000001,5379.0,-5845.6899999999996,-29888.0
170982.0,47908.5,-17463.900000000001,-14675.4,-28988.5,19928.400000000001,2553.3200000000002,-17431.0
170983.0,31526.700000000001,-17498.5,2096.6900000000001,-12621.4,14139.0,104.36199999999999,-5227.46
170984.0,21027.400000000001,-13529.200000000001,2268.3600000000001,-8837.5300000000007,8399.1700000000001,-3040.1999999999998,-1332.8399999999999
170985.0,18364.799999999999,-8395.5499999999993,4323.4200000000001,-6708.7399999999998,6837.7600000000002,-4226.5500000000002,-287.065
170986.0,15556.299999999999,-5751.4099999999999,3984.3499999999999,-6034.96,5463.1999999999998,-4274.6999999999998,70.852500000000006
170987.0,14151.700000000001,-3491.1199999999999,4052.52,-5308.0299999999997,4720.1999999999998,-4426.7299999999996,492.23000000000002
170988.0,12552.299999999999,-1256.47,4168.1400000000003,-4518.4300000000003,3832.3400000000001,-4257.96,670.27599999999995
170989.0,11361.5,367.06799999999998,3970.5799999999999,-4091.6399999999999,3143.25,-4017.6799999999998,833.68600000000004
170990.0,10303.299999999999,2060.0999999999999,4110.8800000000001,-3390.5500000000002,2464.52,-3671.1500000000001,896.39599999999996
170991.0,9502.9599999999991,3222.2399999999998,3983.6599999999999,-3030.9299999999998,1899.3800000000001,-3289.0300000000002,928.60799999999995
170992.0,8925.0699999999997,4327.1300000000001,4082.2199999999998,-2584.6900000000001,1423.0999999999999,-2881.3899999999999,918.97400000000005
170993.0,67973.0,-47587.400000000001,-14095.200000000001,-38426.300000000003,-11444.700000000001,-20813.599999999999,-26006.0
170994.0,86304.5,-70024.399999999994,-95979.100000000006,-86103.699999999997,-4676.6199999999999,-15057.799999999999,-45415.800000000003
170995.0,81688.100000000006,-49631.800000000003,-81375.100000000006,-65076.5,29795.900000000001,-2065.0,-32867.699999999997
170996.0,48754.800000000003,-22853.799999999999,-8216.1499999999996,-15599.799999999999,25189.099999999999,-667.70100000000002,-10190.1
170997.0,24902.799999999999,-16031.4,4106.8500000000004,-9393.7299999999996,9465.4300000000003,-3297.0100000000002,-969.40599999999995
170998.0,20067.099999999999,-10388.0,3434.6399999999999,-9115.6000000000004,7629.71,-4178.0699999999997,-441.904
170999.0,17460.5,-6697.2799999999997,4767.3699999999999,-6513.2299999999996,6360.9399999999996,-4247.1700000000001,-45.009700000000002
171000.0,15421.299999999999,-5086.8800000000001,3571.9200000000001,-6993.3100000000004,5239.1000000000004,-4459.21,483.78899999999999
171001.0,13760.5,-1833.26,4703.8699999999999,-5058.75,4411.5699999999997,-4303.1300000000001,630.02999999999997
171002.0,12341.700000000001,-832.62,3672.0500000000002,-5425.9300000000003,3602.3200000000002,-4051.4000000000001,829.67200000000003
171003.0,11173.299999999999,1610.4400000000001,4506.3599999999997,-3953.0500000000002,2932.3499999999999,-3708.98,880.70500000000004
171004.0,10234.4,2291.9099999999999,3793.5700000000002,-4120.6300000000001,2323.25,-3313.9299999999998,930.89200000000005
171005.0,9573.6900000000005,3915.4299999999998,4371.2200000000003,-3160.77,1842.9400000000001,-2909.7399999999998,923.91600000000005
171006.0,71732.699999999997,-78981.300000000003,-37821.099999999999,-44712.699999999997,-20915.0,-18611.400000000001,-21103.900000000001
171007.0,95528.399999999994,-133082.0,-172212.0,-116729.0,-27113.0,-18251.099999999999,-34071.099999999999
171008.0,99259.899999999994,-99577.199999999997,-181121.0,-103989.0,22052.599999999999,-10195.5,-24308.5
171009.0,66636.600000000006,-35999.900000000001,-44273.099999999999,-29093.599999999999,36509.599999999999,-6298.0299999999997,-7054.6999999999998
171010.0,33423.099999999999,-16391.900000000001,10073.299999999999,-8874.2399999999998,12735.0,-4258.4799999999996,-2462.3800000000001
171011.0,20735.900000000001,-13452.299999999999,1110.05,-12213.5,8035.0500000000002,-3577.3800000000001,-883.13400000000001
171012.0,20205.099999999999,-8672.5100000000002,4671.5,-8118.5,7663.2399999999998,-4512.3400000000001,59.7729
171013.0,16542.200000000001,-5697.75,4227.9200000000001,-7494.5500000000002,5675.8100000000004,-4362.25,332.01100000000002
171014.0,15229.4,-3641.25,4038.54,-6903.8599999999997,5080.4499999999998,-4411.3800000000001,692.74400000000003
171015.0,13369.700000000001,-1012.45,4510.8299999999999,-5675.0900000000001,4061.5100000000002,-4060.27,775.57000000000005
171016.0,12163.1,156.887,3924.5599999999999,-5542.1300000000001,3430.0900000000001,-3744.9899999999998,899.02599999999995
171017.0,11068.9,2091.6500000000001,4435.2799999999997,-4448.4300000000003,2770.4200000000001,-3334.9899999999998,919.35000000000002
171018.0,10318.1,2796.4699999999998,3990.5799999999999,-4442.1099999999997,2284.1799999999998,-2927.04,938.38099999999997
171019.0,62581.300000000003,-91691.0,-45240.300000000003,-45686.300000000003,-22599.0,-6541.4300000000003,-6291.6000000000004
171020.0,86858.300000000003,-155038.0,-171375.0,-113593.0,-39616.5,-2915.6399999999999,7041.4099999999999
171021.0,90053.300000000003,-123094.0,-203133.0,-119806.0,-163.27099999999999,-6676.5699999999997,20780.900000000001
171022.0,69180.300000000003,-51477.0,-79505.300000000003,-56355.900000000001,33818.900000000001,-12127.700000000001,8960.6299999999992
171023.0,41285.699999999997,-18010.200000000001,5536.7399999999998,-11985.0,18588.900000000001,-6733.7299999999996,-5258.4499999999998
171024.0,23171.299999999999,-16312.200000000001,899.02599999999995,-13381.799999999999,9155.8999999999996,-2893.8600000000001,-1404.4000000000001
171025.0,22529.799999999999,-10535.700000000001,4255.4499999999998,-10312.9,8689.2000000000007,-4665.46,290.464
171026.0,18206.900000000001,-6751.2299999999996,4826.8400000000001,-7956.1099999999997,6451.6899999999996,-4362.3999999999996,157.16499999999999
171027.0,16649.5,-5195.6400000000003,3605.3800000000001,-8669.4200000000001,5629.0,-4480.4799999999996,780.02800000000002
171028.0,14588.0,-1627.8099999999999,5019.8199999999997,-6277.1599999999999,4621.8100000000004,-4099.75,727.43700000000001
171029.0,13205.700000000001,-1024.0599999999999,3675.7399999999998,-6874.1099999999997,3909.46,-3750.7600000000002,917.89200000000005
171030.0,12036.799999999999,1512.6900000000001,4764.2200000000003,-5140.04,3263.6599999999999,-3364.8200000000002,913.07799999999997
171031.0,11147.4,1872.1099999999999,3882.71,-5505.5900000000001,2737.6900000000001,-2930.1399999999999,951.36400000000003
171032.0,50947.199999999997,-77616.800000000003,-31716.700000000001,-43556.099999999999,-15245.9,6003.46,5373.1800000000003
171033.0,78973.899999999994,-113802.0,-91535.0,-88936.899999999994,-23819.5,14454.5,33404.300000000003
171034.0,80167.600000000006,-104813.0,-120844.0,-116061.0,-9825.0100000000002,2725.3400000000001,44391.300000000003
171035.0,52144.099999999999,-55470.599999999999,-77333.899999999994,-78287.300000000003,18107.299999999999,-11496.4,16724.5
171036.0,44430.699999999997,-23942.299999999999,-14442.299999999999,-25483.099999999999,22997.099999999999,-8545.3299999999999,-4515.3199999999997
171037.0,30716.200000000001,-18116.200000000001,2683.4699999999998,-14090.0,13125.6,-3358.1900000000001,-3039.8000000000002
171038.0,24071.200000000001,-12860.799999999999,3160.4699999999998,-12485.700000000001,9573.8299999999999,-4224.5,-178.12200000000001
171039.0,20717.0,-9025.7999999999993,4290.8400000000001,-9795.2399999999998,7595.7600000000002,-4744.6599999999999,366.08699999999999
171040.0,17883.599999999999,-5529.1800000000003,4535.0500000000002,-9059.5799999999999,6050.4200000000001,-4443.3699999999999,704.34799999999996
171041.0,16025.299999999999,-3490.6500000000001,4280.0900000000001,-8230.6599999999999,5263.2600000000002,-4170.4200000000001,783.31200000000001
171042.0,14319.1,-1259.05,4509.7700000000004,-7184.8500000000004,4395.6499999999996,-3747.29,888.14999999999998
171043.0,13096.799999999999,46.845999999999997,4224.04,-6739.4300000000003,3777.9000000000001,-3377.6599999999999,936.67700000000002
171044.0,12102.700000000001,1519.98,4456.0,-5966.5600000000004,3222.96,-2939.73,955.34699999999998
171045.0,42508.099999999999,-51359.699999999997,-10113.4,-38538.0,-4700.4899999999998,9958.1599999999999,5954.2200000000003
171046.0,61463.199999999997,-56000.0,-16736.900000000001,-58360.099999999999,-53.5642,13701.5,22910.700000000001
171047.0,60649.599999999999,-63319.300000000003,-28292.799999999999,-80823.300000000003,-5459.9200000000001,1647.53,21866.700000000001
171048.0,30167.400000000001,-58552.0,-64269.0,-85372.699999999997,3073.8600000000001,-8559.2199999999993,4591.4300000000003
171049.0,45239.099999999999,-40377.400000000001,-47568.099999999999,-53154.5,22832.099999999999,-9317.5499999999993,-5748.04
171050.0,39578.099999999999,-22833.599999999999,-6901.1999999999998,-20040.0,19368.900000000001,-5801.71,-6399.1300000000001
171051.0,26587.299999999999,-15855.9,695.28899999999999,-13627.6,11669.0,-4251.4099999999999,-843.55899999999997
171052.0,23361.099999999999,-10702.9,4430.54,-11704.9,8519.4599999999991,-5182.3199999999997,863.88800000000003
171053.0,19272.200000000001,-6471.2799999999997,4973.5200000000004,-9821.1900000000005,6591.0699999999997,-4457.29,560.71500000000003
171054.0,17510.700000000001,-4965.9799999999996,3970.3800000000001,-9892.4599999999991,5869.5100000000002,-4196.0,875.51099999999997
171055.0,15580.200000000001,-1992.77,4928.4399999999996,-7959.46,4937.3400000000001,-3768.4899999999998,857.44399999999996
171056.0,14216.9,-1119.02,4060.5100000000002,-8016.3400000000001,4294.5900000000001,-3361.02,961.61000000000001
171057.0,13189.200000000001,780.36800000000005,4705.0900000000001,-6817.7200000000003,3743.4899999999998,-2952.4400000000001,967.58399999999995
171058.0,40175.0,-32275.200000000001,5212.6300000000001,-32953.699999999997,3149.6300000000001,7135.3500000000004,314.363
171059.0,48392.599999999999,-29636.099999999999,9003.3299999999999,-37982.800000000003,9806.4300000000003,5473.0799999999999,5108.7600000000002
171060.0,48420.400000000001,-47949.800000000003,-1560.6099999999999,-51119.199999999997,-2130.21,-2625.46,-636.04899999999998
171061.0,23822.599999999999,-69996.0,-65495.099999999999,-79684.899999999994,-7106.0100000000002,-7113.8100000000004,-5957.3500000000004
171062.0,37427.300000000003,-62196.0,-84470.0,-73389.300000000003,14476.1,-10008.299999999999,-5759.9499999999998
171063.0,42078.400000000001,-33944.199999999997,-34629.599999999999,-32273.599999999999,22217.0,-8915.8299999999999,-3954.6799999999998
171064.0,31065.700000000001,-18980.900000000001,-3424.1599999999999,-15859.4,14825.299999999999,-5830.6199999999999,418.23099999999999
171065.0,25742.0,-11787.0,5263.0699999999997,-13129.299999999999,9258.2199999999993,-5407.2700000000004,893.95799999999997
171066.0,20988.599999999999,-8169.9499999999998,4665.5900000000001,-11453.799999999999,7275.8400000000001,-4580.1400000000003,603.42100000000005
171067.0,18996.700000000001,-5843.54,4384.79,-10889.9,6432.3299999999999,-4187.1800000000003,904.19299999999998
171068.0,16959.700000000001,-3324.1100000000001,4773.1000000000004,-9371.3600000000006,5519.6800000000003,-3779.8899999999999,869.79200000000003
171069.0,15446.9,-1949.22,4349.04,-8916.6299999999992,4832.6000000000004,-3347.4699999999998,971.57299999999998
171070.0,14353.9,-334.62099999999998,4628.75,-8031.9499999999998,4282.1499999999996,-2943.4899999999998,990.69500000000005
171071.0,42288.0,-26523.900000000001,9087.1000000000004,-31930.799999999999,7408.54,3564.3499999999999,-5644.3800000000001
171072.0,44917.099999999999,-30511.099999999999,6995.2700000000004,-35091.900000000001,10888.299999999999,2230.0500000000002,-3976.5700000000002
171073.0,42382.5,-51295.0,-6303.71,-43164.599999999999,296.71199999999999,-493.03399999999999,-4856.4700000000003
171074.0,23927.700000000001,-78483.399999999994,-61483.400000000001,-68567.800000000003,-10775.299999999999,-1287.74,402.024
171075.0,26466.599999999999,-73287.800000000003,-91826.800000000003,-72769.5,1957.5699999999999,-5043.8599999999997,9293.1599999999999
171076.0,38973.300000000003,-44742.900000000001,-54541.400000000001,-45881.599999999999,17432.0,-8851.1100000000006,9765.8299999999999
171077.0,34728.800000000003,-21645.400000000001,-8196.9599999999991,-21353.700000000001,16210.700000000001,-7980.4700000000003,4067.73
171078.0,27724.0,-12734.700000000001,5366.6899999999996,-14101.4,10179.4,-5823.9899999999998,760.15099999999995
171079.0,22945.599999999999,-10090.4,4272.5100000000002,-13563.1,7966.8100000000004,-4692.9099999999999,772.11400000000003
171080.0,20547.299999999999,-6630.7200000000003,4970.0699999999997,-11738.5,7006.0,-4188.0200000000004,894.09199999999998
171081.0,18411.700000000001,-4864.2799999999997,4465.0600000000004,-11001.700000000001,6113.5699999999997,-3760.6300000000001,908.24400000000003
171082.0,16802.700000000001,-2758.6799999999998,4747.29,-9787.7900000000009,5400.79,-3338.5100000000002,979.70000000000005
171083.0,15595.200000000001,-1593.8800000000001,4485.6999999999998,-9352.8899999999994,4837.7700000000004,-2918.9499999999998,1016.73
171084.0,44327.199999999997,-30416.700000000001,3015.96,-37247.400000000001,9335.7399999999998,1774.25,-10020.4
171085.0,44472.900000000001,-34535.5,1560.1800000000001,-36926.199999999997,11386.299999999999,2579.73,-7616.21
171086.0,40209.400000000001,-48532.900000000001,-7031.7600000000002,-40508.300000000003,4930.0500000000002,4327.6000000000004,-3366.0900000000001
171087.0,35011.199999999997,-65857.100000000006,-34890.800000000003,-54394.699999999997,-3421.25,7486.1899999999996,9784.1299999999992
171088.0,42574.099999999999,-63967.5,-53847.0,-63522.5,-378.43799999999999,4094.27,23549.299999999999
171089.0,42292.400000000001,-41639.5,-37147.5,-50215.699999999997,10506.799999999999,-4382.3900000000003,20555.599999999999
171090.0,35968.0,-21520.400000000001,-7301.04,-26590.0,14269.799999999999,-7912.4700000000003,8062.5699999999997
171091.0,29643.900000000001,-14372.299999999999,4279.4099999999999,-16531.799999999999,10917.799999999999,-6336.7700000000004,1620.5
171092.0,24936.5,-11195.700000000001,4731.6899999999996,-14959.9,8623.0900000000001,-4788.7200000000003,848.14599999999996
171093.0,22201.599999999999,-8096.8000000000002,4924.3699999999999,-13282.200000000001,7616.96,-4178.8900000000003,914.26300000000003
171094.0,19949.599999999999,-5968.5900000000001,4693.7200000000003,-12183.5,6709.5699999999997,-3727.8800000000001,942.49599999999998
171095.0,18244.299999999999,-4030.25,4740.8699999999999,-11109.9,5993.8199999999997,-3313.3600000000001,998.14400000000001
171096.0,16948.400000000001,-2645.8899999999999,4650.2299999999996,-10441.9,5416.4099999999999,-2891.0799999999999,1043.9000000000001
171097.0,45813.199999999997,-38654.400000000001,-8405.6499999999996,-47135.699999999997,10736.1,1546.3,-12941.1
171098.0,45579.099999999999,-40794.0,-7100.8699999999999,-44516.900000000001,12997.200000000001,3546.2800000000002,-9281.2000000000007
171099.0,42410.0,-44809.099999999999,-8462.1499999999996,-43272.199999999997,10538.4,7153.8400000000001,-3842.6999999999998
171100.0,45490.900000000001,-43322.900000000001,-7391.1000000000004,-42307.5,9426.2900000000009,10467.4,8534.6800000000003
171101.0,52554.400000000001,-39633.099999999999,-4457.4499999999998,-46677.400000000001,7860.4499999999998,6540.8599999999997,17450.099999999999
171102.0,44596.5,-30061.099999999999,-5239.1300000000001,-43551.400000000001,8587.4200000000001,-810.93799999999999,14522.0
171103.0,36536.099999999999,-21485.200000000001,-2682.6300000000001,-30973.5,12108.799999999999,-5575.9200000000001,7741.0900000000001
171104.0,31922.299999999999,-15767.9,4150.5200000000004,-20061.799999999999,11235.299999999999,-6309.25,2595.5100000000002
171105.0,26771.900000000001,-12136.9,5183.9799999999996,-16290.700000000001,9193.0300000000007,-4875.25,945.755
171106.0,23955.099999999999,-9791.6000000000004,4695.0,-15109.0,8251.1399999999994,-4148.21,968.55100000000004
171107.0,21580.5,-7028.04,5066.5799999999999,-13302.9,7318.5299999999997,-3683.48,963.375
171108.0,19757.5,-5465.9499999999998,4636.9200000000001,-12576.299999999999,6600.6099999999997,-3266.9299999999998,1029.0999999999999
171109.0,18416.200000000001,-3718.6300000000001,4886.7399999999998,-11534.200000000001,6022.5,-2857.6599999999999,1073.29
171110.0,47559.599999999999,-49883.800000000003,-23958.900000000001,-61274.5,12650.799999999999,1692.27,-15011.700000000001
171111.0,48617.099999999999,-48117.300000000003,-16770.599999999999,-55200.900000000001,14959.799999999999,3831.54,-11450.6
171112.0,46190.400000000001,-42860.599999999999,-12314.799999999999,-48154.0,15210.200000000001,7416.2799999999997,-7111.8999999999996
171113.0,50891.400000000001,-31720.400000000001,1584.04,-36896.800000000003,18788.5,8422.3500000000004,1800.3399999999999
171114.0,52467.099999999999,-25113.200000000001,16772.700000000001,-30377.900000000001,14688.200000000001,3167.2600000000002,4926.1099999999997
171115.0,41033.0,-23597.900000000001,8802.2399999999998,-31803.400000000001,9286.5200000000004,-1036.55,3596.6700000000001
171116.0,35291.099999999999,-21303.299999999999,638.79899999999998,-30285.700000000001,11295.9,-3980.04,4317.1000000000004
171117.0,33618.300000000003,-16207.299999999999,5234.3900000000003,-22322.5,11300.799999999999,-5726.3900000000003,2609.4299999999998
171118.0,28605.900000000001,-13479.5,5256.9499999999998,-18318.0,9668.8700000000008,-4795.6499999999996,1113.0899999999999
171119.0,25756.299999999999,-11071.700000000001,4928.7799999999997,-16577.299999999999,8865.1700000000001,-4082.8600000000001,1030.1500000000001
171120.0,23291.700000000001,-8484.1000000000004,5109.8699999999999,-14806.1,7949.3599999999997,-3618.6199999999999,989.31399999999996
171121.0,21361.0,-6724.3299999999999,4807.6599999999999,-13840.799999999999,7221.54,-3202.71,1059.96
171122.0,19974.200000000001,-5072.0900000000001,4921.2200000000003,-12882.200000000001,6650.0600000000004,-2810.29,1109.28
171123.0,51112.5,-62647.599999999999,-41302.699999999997,-79023.5,14665.799999999999,1615.74,-17186.099999999999
171124.0,52700.599999999999,-58682.900000000001,-29682.900000000001,-69047.800000000003,16703.5,3772.6100000000001,-14704.0
171125.0,49173.900000000001,-49227.300000000003,-24200.700000000001,-58148.199999999997,18190.799999999999,6804.4399999999996,-10912.9
171126.0,54257.0,-33503.599999999999,-4530.8000000000002,-39593.099999999999,23938.900000000001,6848.1899999999996,-3213.9000000000001
171127.0,53023.300000000003,-25626.599999999999,16406.299999999999,-24683.599999999999,18844.700000000001,2400.9099999999999,516.78999999999996
171128.0,40488.5,-23673.200000000001,12820.200000000001,-22998.900000000001,10244.299999999999,-710.19799999999998,2262.4400000000001
171129.0,35005.199999999997,-21886.299999999999,3954.1500000000001,-27142.299999999999,10192.799999999999,-3243.96,4120.5500000000002
171130.0,34384.5,-17291.200000000001,5833.7700000000004,-23982.400000000001,10904.200000000001,-4956.5200000000004,2423.0799999999999
171131.0,30403.0,-14725.700000000001,5484.1800000000003,-20313.200000000001,10133.0,-4469.9300000000003,1123.48
171132.0,27574.900000000001,-12545.5,5030.3900000000003,-18277.5,9443.1800000000003,-3952.0,1078.29
171133.0,25063.0,-9911.9899999999998,5239.8900000000003,-16281.0,8586.6700000000001,-3519.7199999999998,1024.5
171134.0,23060.700000000001,-8153.6700000000001,4903.04,-15246.799999999999,7864.6700000000001,-3123.7399999999998,1089.72
171135.0,21613.900000000001,-6438.5500000000002,5030.5299999999997,-14207.200000000001,7293.8299999999999,-2745.3400000000001,1149.1800000000001
171136.0,59507.900000000001,-81457.399999999994,-65881.699999999997,-104649.0,16215.6,909.56200000000001,-23152.900000000001
171137.0,58522.699999999997,-73899.600000000006,-49417.199999999997,-87330.399999999994,19175.599999999999,4092.3800000000001,-19688.900000000001
171138.0,52197.5,-60962.199999999997,-40123.400000000001,-70768.600000000006,20684.900000000001,6702.9099999999999,-13801.299999999999
171139.0,56547.099999999999,-42156.699999999997,-18083.299999999999,-48460.699999999997,26975.599999999999,6577.1599999999999,-6156.9700000000003
171140.0,58056.199999999997,-27472.599999999999,12284.299999999999,-25284.0,24646.299999999999,4074.6399999999999,9.9473500000000001
171141.0,50565.099999999999,-22862.799999999999,21857.200000000001,-18839.400000000001,14789.1,1045.95,4518.79
171142.0,41802.300000000003,-20753.0,14885.799999999999,-23454.0,9756.7999999999993,-2199.4699999999998,4954.7700000000004
171143.0,35599.0,-18206.099999999999,8305.2600000000002,-24579.799999999999,9889.1100000000006,-3958.3699999999999,2194.46
171144.0,31929.200000000001,-16104.200000000001,5618.96,-22126.900000000001,10492.799999999999,-3943.9000000000001,1082.74
171145.0,29474.099999999999,-13835.799999999999,5438.2200000000003,-19784.700000000001,10039.6,-3711.3200000000002,1078.03
171146.0,26878.0,-11525.0,5263.8500000000004,-17917.799999999999,9219.6499999999996,-3369.2600000000002,1049.1900000000001
171147.0,24849.299999999999,-9581.1599999999999,5089.2600000000002,-16621.5,8528.2800000000007,-3023.0900000000001,1125.6700000000001
171148.0,23342.599999999999,-7958.1300000000001,5084.54,-15642.299999999999,7957.1999999999998,-2664.48,1189.6199999999999
171149.0,66796.699999999997,-111226.0,-108594.0,-137546.0,15367.9,-793.25300000000004,-31530.099999999999
171150.0,64519.5,-94697.800000000003,-80873.800000000003,-110360.0,22831.799999999999,4296.9700000000003,-25103.700000000001
171151.0,57404.300000000003,-78272.800000000003,-61062.300000000003,-88337.600000000006,24273.599999999999,6919.6000000000004,-16464.700000000001
171152.0,58806.599999999999,-54299.300000000003,-34851.199999999997,-60969.599999999999,29170.599999999999,6959.9700000000003,-8319.9599999999991
171153.0,63889.699999999997,-30499.099999999999,3216.0700000000002,-30190.799999999999,30991.799999999999,4936.6599999999999,-546.46400000000006
171154.0,62094.599999999999,-18713.0,31347.900000000001,-14984.0,22239.900000000001,954.17999999999995,3456.7199999999998
171155.0,51264.0,-17650.099999999999,28805.299999999999,-18338.0,11737.9,-1836.05,2161.3099999999999
171156.0,38569.699999999997,-18804.099999999999,13161.0,-23735.200000000001,9289.6200000000008,-2768.3600000000001,822.92999999999995
171157.0,33435.099999999999,-18019.099999999999,5823.0200000000004,-23981.799999999999,10594.6,-3264.9099999999999,1005.08
171158.0,31294.5,-15450.200000000001,5505.0799999999999,-21520.299999999999,10625.299999999999,-3381.8299999999999,1029.26
171159.0,28766.799999999999,-13099.700000000001,5436.5900000000001,-19439.200000000001,9881.5900000000001,-3161.6199999999999,1050.6900000000001
171160.0,26708.599999999999,-11214.5,5158.4200000000001,-18162.5,9203.2299999999996,-2893.23,1159.21
171161.0,25161.299999999999,-9486.4200000000001,5223.3599999999997,-17040.0,8645.1100000000006,-2567.8000000000002,1231.4200000000001
171162.0,66322.399999999994,-145319.0,-158320.0,-171850.0,11269.5,-1485.0899999999999,-34073.699999999997
171163.0,68839.600000000006,-122988.0,-124126.0,-141091.0,25903.099999999999,3709.71,-28144.200000000001
171164.0,64772.300000000003,-99179.100000000006,-88422.399999999994,-109498.0,28683.200000000001,6499.1999999999998,-20553.799999999999
171165.0,62780.0,-70825.899999999994,-57119.099999999999,-76844.399999999994,32167.900000000001,7425.4200000000001,-11030.200000000001
171166.0,69334.300000000003,-38743.199999999997,-11645.700000000001,-39671.599999999999,36404.199999999997,4802.3699999999999,-809.601
171167.0,69345.899999999994,-20259.599999999999,29900.599999999999,-16207.4,28704.900000000001,-783.89700000000005,1401.1199999999999
171168.0,56909.199999999997,-17494.900000000001,34216.599999999999,-14417.5,15060.4,-2826.3699999999999,-1810.3399999999999
171169.0,42007.099999999999,-20243.299999999999,16769.799999999999,-22133.599999999999,10017.700000000001,-2257.7199999999998,-1255.4200000000001
171170.0,35686.400000000001,-19302.900000000001,7838.1800000000003,-24616.299999999999,10713.700000000001,-2537.77,506.17399999999998
171171.0,33062.599999999999,-16931.900000000001,5887.4799999999996,-22939.400000000001,11138.700000000001,-2861.3600000000001,906.096
171172.0,30763.5,-14960.700000000001,5420.2399999999998,-21138.5,10616.799999999999,-2912.2399999999998,1055.4400000000001
171173.0,28636.400000000001,-12778.1,5409.6000000000004,-19557.299999999999,9890.25,-2733.8699999999999,1172.23
171174.0,27055.299999999999,-11242.799999999999,5210.7700000000004,-18615.799999999999,9356.7900000000009,-2453.7399999999998,1276.23
171175.0,67625.699999999997,-183792.0,-207328.0,-212345.0,6638.3100000000004,-1476.79,-35295.5
171176.0,71776.899999999994,-158380.0,-176018.0,-178566.0,25999.200000000001,3571.2800000000002,-30128.900000000001
171177.0,69344.899999999994,-129921.0,-133180.0,-136786.0,32278.799999999999,6712.8400000000001,-22452.799999999999
171178.0,66581.199999999997,-90707.100000000006,-85960.0,-92491.600000000006,36143.800000000003,7349.1800000000003,-10291.1
171179.0,73888.100000000006,-50858.800000000003,-28975.0,-51345.800000000003,40538.0,3634.02,140.61199999999999
171180.0,73355.699999999997,-26814.599999999999,20753.099999999999,-21789.0,33259.699999999997,-1983.03,765.72900000000004
171181.0,60172.199999999997,-18827.900000000001,34514.199999999997,-11681.6,18754.599999999999,-3497.0999999999999,-2125.0999999999999
171182.0,46023.800000000003,-21498.700000000001,20381.099999999999,-20003.799999999999,11473.9,-2613.0100000000002,-1752.1700000000001
171183.0,38316.400000000001,-21796.799999999999,8994.8199999999997,-25870.599999999999,10983.799999999999,-2205.3499999999999,-700.19500000000005
171184.0,34765.099999999999,-19118.700000000001,5572.04,-24640.599999999999,11783.1,-2238.8000000000002,441.24599999999998
171185.0,32879.699999999997,-16928.700000000001,5403.6599999999999,-22799.599999999999,11436.799999999999,-2633.7800000000002,1088.1300000000001
171186.0,30599.400000000001,-14502.9,5578.4899999999998,-21005.5,10588.1,-2565.71,1173.02
171187.0,29001.5,-13073.0,5195.5,-20198.799999999999,10080.0,-2329.5700000000002,1328.5799999999999
171188.0,72889.300000000003,-222374.0,-258673.0,-250637.0,312.22699999999998,-3294.9899999999998,-37369.800000000003
171189.0,75377.600000000006,-193290.0,-232632.0,-215680.0,24279.599999999999,6452.0200000000004,-29553.299999999999
171190.0,74822.399999999994,-152390.0,-173594.0,-156462.0,37637.300000000003,10912.299999999999,-14278.200000000001
171191.0,72116.100000000006,-109369.0,-108941.0,-106034.0,40892.699999999997,7596.5699999999997,-603.84900000000005
171192.0,75525.699999999997,-65361.099999999999,-45271.599999999999,-64123.800000000003,41914.900000000001,1666.1500000000001,3871.1700000000001
171193.0,75170.199999999997,-34448.699999999997,8602.0900000000001,-29438.799999999999,36325.300000000003,-2535.9299999999998,1816.3599999999999
171194.0,65746.300000000003,-23653.400000000001,30866.299999999999,-15683.5,23647.299999999999,-3782.77,-472.91500000000002
171195.0,52724.400000000001,-23999.400000000001,24257.299999999999,-20647.599999999999,13591.200000000001,-3410.4699999999998,-2051.3099999999999
171196.0,40633.900000000001,-23093.700000000001,11097.0,-25300.299999999999,11167.9,-2150.52,-2140.73
171197.0,36072.699999999997,-21824.700000000001,4291.8699999999999,-26272.099999999999,12573.200000000001,-1726.99,97.672399999999996
171198.0,35120.900000000001,-18786.400000000001,5600.3199999999997,-24147.700000000001,12359.0,-2372.3299999999999,1177.54
171199.0,32583.0,-16321.799999999999,5730.6400000000003,-22423.700000000001,11290.299999999999,-2374.6999999999998,1185.1900000000001
171200.0,31004.0,-14939.299999999999,5229.7299999999996,-21733.700000000001,10812.799999999999,-2208.6599999999999,1399.0899999999999
171201.0,74339.100000000006,-261412.0,-310628.0,-291603.0,-12415.9,-6023.8800000000001,-32182.400000000001
171202.0,86165.399999999994,-220648.0,-289735.0,-253785.0,23739.799999999999,11649.6,-24116.900000000001
171203.0,96590.0,-172372.0,-209340.0,-183385.0,49491.400000000001,17326.5,24.306799999999999
171204.0,86657.899999999994,-118952.0,-109913.0,-115150.0,47462.199999999997,8388.5499999999993,12632.200000000001
171205.0,76275.300000000003,-73464.0,-47384.300000000003,-71157.699999999997,40437.800000000003,616.38699999999994,9760.6700000000001
171206.0,75183.5,-43287.900000000001,-3760.9899999999998,-39362.800000000003,37149.0,-2911.2399999999998,4631.9700000000003
171207.0,70406.300000000003,-28005.400000000001,25953.599999999999,-20252.599999999999,27877.700000000001,-4861.9200000000001,656.69399999999996
171208.0,57689.400000000001,-27764.5,24736.0,-21861.5,15774.5,-4783.5200000000004,-3249.1399999999999
171209.0,42488.0,-26849.900000000001,9942.2199999999993,-26900.700000000001,11557.299999999999,-2353.5799999999999,-3284.7600000000002
171210.0,37932.0,-24768.599999999999,2763.79,-28586.599999999999,13611.1,-1331.22,-60.795499999999997
171211.0,37570.199999999997,-20685.900000000001,5729.04,-25444.5,13510.299999999999,-2120.7199999999998,1204.3699999999999
171212.0,34520.699999999997,-18278.799999999999,5690.6599999999999,-23811.200000000001,12031.299999999999,-2237.4299999999998,1245.1900000000001
171213.0,32925.5,-16823.599999999999,5171.8599999999997,-23278.099999999999,11495.5,-2117.1199999999999,1502.45
171214.0,88614.600000000006,-293024.0,-341190.0,-329380.0,-33848.800000000003,-10723.9,-26955.0
171215.0,108754.0,-235641.0,-340511.0,-296019.0,23138.0,14073.799999999999,-20941.099999999999
171216.0,132621.0,-163654.0,-214184.0,-195806.0,68334.5,21536.400000000001,8675.2800000000007
171217.0,108349.0,-114635.0,-88279.5,-115949.0,56968.300000000003,9279.2399999999998,18384.700000000001
171218.0,81338.800000000003,-76896.5,-37212.099999999999,-74719.699999999997,39330.099999999999,1200.23,12621.5
171219.0,76148.600000000006,-49692.099999999999,-7644.04,-47678.0,36136.0,-2754.1100000000001,7550.2399999999998
171220.0,72631.0,-32142.200000000001,21093.400000000001,-25254.0,29805.5,-4839.46,2893.6399999999999
171221.0,59893.400000000001,-30769.200000000001,24231.299999999999,-21431.5,17421.299999999999,-4917.25,-1354.1099999999999
171222.0,43142.400000000001,-31639.900000000001,7644.6000000000004,-28481.799999999999,11418.700000000001,-2873.4000000000001,-2320.6500000000001
171223.0,38238.300000000003,-29095.099999999999,-1312.8,-31955.200000000001,14084.1,-1589.6400000000001,-17.3903
171224.0,39327.300000000003,-23077.900000000001,4344.5900000000001,-27086.5,14713.799999999999,-2101.7199999999998,1403.5899999999999
171225.0,36514.699999999997,-19727.799999999999,6169.7299999999996,-24677.099999999999,12765.1,-2187.2399999999998,1502.54
171226.0,34609.900000000001,-18275.599999999999,5424.2700000000004,-24390.099999999999,12031.4,-2029.3800000000001,1553.49
171227.0,5664.8100000000004,5535.8199999999997,1832.8599999999999,5023.0500000000002,-2506.4200000000001,-471.13200000000001,408.94499999999999
171228.0,5660.5200000000004,5550.9099999999999,1870.8399999999999,5013.7700000000004,-2548.54,-381.63799999999998,297.04500000000002
171229.0,5646.6300000000001,5474.5200000000004,1834.23,4943.25,-2576.4200000000001,-298.834,185.084
171230.0,5627.4099999999999,5460.6599999999999,1869.1500000000001,4957.2600000000002,-2591.96,-225.22300000000001,74.032399999999996
171231.0,5603.2799999999997,5362.3599999999997,1826.99,4903.6000000000004,-2596.6199999999999,-161.60300000000001,-35.215699999999998
171232.0,5574.1199999999999,5329.8000000000002,1855.1500000000001,4927.3000000000002,-2590.9400000000001,-107.876,-141.75700000000001
171233.0,5540.3299999999999,5217.25,1805.3599999999999,4877.4399999999996,-2575.9099999999999,-63.784399999999998,-245.036
171234.0,5502.4899999999998,5178.1999999999998,1829.1099999999999,4904.6000000000004,-2552.3800000000001,-28.359000000000002,-344.48000000000002
171235.0,5461.1800000000003,5058.5600000000004,1770.8199999999999,4850.6000000000004,-2521.5900000000001,-0.693299,-439.87599999999998
171236.0,5416.4499999999998,5018.6099999999997,1789.47,4875.7700000000004,-2483.5999999999999,20.4284,-530.86000000000001
171237.0,5366.79,4904.3800000000001,1729.3699999999999,4821.8500000000004,-2437.9499999999998,36.548699999999997,-617.029
171238.0,5306.3599999999997,4870.2799999999997,1748.5699999999999,4850.1000000000004,-2381.0100000000002,47.455500000000001,-697.77499999999998
171239.0,5224.6999999999998,4746.75,1669.9200000000001,4781.4799999999996,-2305.4699999999998,55.6997,-767.62300000000005
171240.0,6130.25,5777.7200000000003,1811.3099999999999,5113.3199999999997,-2726.4099999999999,-584.15300000000002,489.16399999999999
171241.0,6132.4700000000003,5710.8500000000004,1762.1199999999999,5001.2799999999997,-2782.0,-479.88900000000001,366.851
171242.0,6124.5699999999997,5738.1099999999997,1826.01,5018.0500000000002,-2821.8200000000002,-382.22800000000001,243.53200000000001
171243.0,6111.5299999999997,5629.4499999999998,1765.53,4925.2399999999998,-2848.6599999999999,-293.26999999999998,120.276
171244.0,6093.4200000000001,5623.2799999999997,1816.22,4955.3800000000001,-2863.2800000000002,-214.19499999999999,-2.1896
171245.0,6070.5,5496.6800000000003,1752.6199999999999,4880.2399999999998,-2866.6199999999999,-144.839,-123.123
171246.0,6042.6599999999999,5474.1199999999999,1796.5799999999999,4919.6300000000001,-2859.1599999999999,-85.401700000000005,-241.43899999999999
171247.0,6010.7299999999996,5339.4399999999996,1729.8599999999999,4853.5299999999997,-2842.0500000000002,-34.595300000000002,-356.97399999999999
171248.0,5974.8100000000004,5313.8400000000001,1771.3900000000001,4899.8599999999997,-2815.75,7.4211400000000003,-468.68400000000003
171249.0,5934.9099999999999,5181.8999999999996,1704.4000000000001,4841.6599999999999,-2780.4899999999998,43.1389,-576.94500000000005
171250.0,5889.8199999999997,5157.6000000000004,1740.1300000000001,4890.0600000000004,-2735.6999999999998,70.908000000000001,-679.803
171251.0,5833.54,5030.0100000000002,1667.8900000000001,4837.1899999999996,-2676.8099999999999,94.499600000000001,-777.78499999999997
171252.0,5757.9899999999998,5034.1000000000004,1712.97,4909.2299999999996,-2597.3499999999999,110.446,-865.697
171253.0,6231.9899999999998,5634.1400000000003,1770.8099999999999,4934.3400000000001,-2834.0700000000002,-604.22199999999998,558.30499999999995
171254.0,6236.0799999999999,5606.6599999999999,1756.52,4857.1599999999999,-2893.04,-495.22399999999999,425.94600000000003
171255.0,6233.2399999999998,5610.5200000000004,1792.8599999999999,4847.7799999999997,-2937.4400000000001,-393.60500000000002,293.44400000000002
171256.0,6225.1199999999999,5548.1899999999996,1776.1500000000001,4800.0500000000002,-2968.54,-300.911,160.947
171257.0,6211.4499999999998,5523.25,1805.8699999999999,4810.8999999999996,-2986.5700000000002,-217.93700000000001,29.199999999999999
171258.0,6192.5299999999997,5436.1000000000004,1780.49,4775.8299999999999,-2992.6500000000001,-145.114,-101.193
171259.0,6168.5,5389.1499999999996,1799.21,4792.54,-2987.2600000000002,-81.991399999999999,-228.94399999999999
171260.0,6139.8199999999997,5289.4200000000001,1767.4300000000001,4763.5600000000004,-2971.54,-28.258600000000001,-353.99700000000001
171261.0,6107.3400000000001,5227.4399999999996,1773.2,4777.7299999999996,-2946.2199999999998,16.957000000000001,-475.20100000000002
171262.0,6070.0,5120.96,1734.1300000000001,4748.8199999999997,-2911.6300000000001,54.887900000000002,-592.86199999999997
171263.0,6028.0,5047.9099999999999,1727.6600000000001,4758.75,-2867.9499999999998,84.484200000000001,-705.31200000000001
171264.0,5973.9200000000001,4934.1499999999996,1683.1700000000001,4729.6300000000001,-2812.21,109.52500000000001,-812.5
171265.0,5909.0100000000002,4821.4099999999999,1634.0899999999999,4704.25,-2742.5999999999999,121.322,-914.21500000000003
171266.0,6323.21,5954.3999999999996,1974.25,5115.3800000000001,-2858.1100000000001,-657.678,569.43700000000001
171267.0,6336.8500000000004,5947.7200000000003,1968.8499999999999,5048.4399999999996,-2923.9099999999999,-539.98000000000002,436.30200000000002
171268.0,6342.6400000000003,5955.2200000000003,1998.23,5034.0,-2974.3600000000001,-429.54700000000003,302.14999999999998
171269.0,6342.3800000000001,5906.7700000000004,1984.73,4992.3599999999997,-3010.4000000000001,-327.75900000000001,167.15199999999999
171270.0,6336.1199999999999,5875.8800000000001,1999.5599999999999,4991.71,-3032.9699999999998,-235.37,32.5901
171271.0,6323.8800000000001,5805.5,1983.71,4970.0299999999997,-3043.02,-152.727,-100.871
171272.0,6306.1300000000001,5750.6099999999997,1989.26,4977.9499999999998,-3041.29,-79.6892,-231.96199999999999
171273.0,6282.6400000000003,5667.4300000000003,1971.0,4967.2799999999997,-3028.4899999999998,-16.0108,-360.49000000000001
171274.0,6254.6800000000003,5598.79,1969.6600000000001,4979.4799999999996,-3005.7199999999998,39.0398,-485.41000000000003
171275.0,6219.5,5511.0500000000002,1951.8900000000001,4976.8100000000004,-2972.3200000000002,86.092399999999998,-606.73000000000002
171276.0,6178.1300000000001,5423.1300000000001,1936.0,4983.4799999999996,-2928.79,124.542,-723.23500000000001
171277.0,6118.8599999999997,5321.2600000000002,1914.02,4979.1999999999998,-2870.5999999999999,156.393,-833.73800000000006
171278.0,6045.4499999999998,5196.6199999999999,1872.6300000000001,4964.0200000000004,-2797.77,171.65899999999999,-939.27099999999996
171279.0,6455.1400000000003,6027.6700000000001,1929.1600000000001,5051.2700000000004,-2905.6999999999998,-716.495,591.64099999999996
171280.0,6472.2299999999996,6048.4200000000001,1943.24,5000.8999999999996,-2976.4299999999998,-588.76599999999996,455.65199999999999
171281.0,6483.3199999999997,6042.7299999999996,1951.53,4964.29,-3032.1500000000001,-468.67500000000001,318.18599999999998
171282.0,6488.7799999999997,6026.96,1964.45,4948.6999999999998,-3073.4699999999998,-357.10199999999998,179.71899999999999
171283.0,6488.1300000000001,5987.6499999999996,1966.04,4935.1700000000001,-3100.9499999999998,-254.738,41.147399999999998
171284.0,6481.1999999999998,5942.2600000000002,1971.1500000000001,4935.9899999999998,-3115.1700000000001,-162.017,-96.5702
171285.0,6468.3699999999999,5875.1899999999996,1961.8399999999999,4931.5299999999997,-3117.0100000000002,-78.871499999999997,-232.41800000000001
171286.0,6449.4099999999999,5810.8800000000001,1960.5699999999999,4941.5699999999997,-3106.98,-5.1675500000000003,-365.791
171287.0,6425.4499999999998,5723.2700000000004,1939.3199999999999,4938.7200000000003,-3086.1399999999999,59.762700000000002,-495.88600000000002
171288.0,6393.9399999999996,5645.5200000000004,1931.5699999999999,4952.1499999999996,-3054.02,116.294,-622.30100000000004
171289.0,6356.3199999999997,5538.8999999999996,1899.0899999999999,4949.1000000000004,-3011.7199999999998,163.90299999999999,-744.18100000000004
171290.0,6300.6499999999996,5443.0600000000004,1888.25,4962.0100000000002,-2955.1599999999999,203.25800000000001,-859.70500000000004
171291.0,6232.0699999999997,5277.5600000000004,1816.6099999999999,4923.6999999999998,-2885.5599999999999,224.946,-971.06299999999999
171292.0,6545.0799999999999,6249.3199999999997,2051.4899999999998,5133.5200000000004,-2930.96,-769.72500000000002,607.221
171293.0,6569.25,6285.1999999999998,2070.6799999999998,5088.3900000000003,-3007.7600000000002,-633.10000000000002,469.80599999999998
171294.0,6587.3400000000001,6294.8299999999999,2085.3099999999999,5058.8100000000004,-3069.1399999999999,-504.04700000000003,330.286
171295.0,6599.4499999999998,6286.1599999999999,2096.5100000000002,5043.1300000000001,-3115.25,-383.25099999999998,189.13
171296.0,6605.2399999999998,6252.9499999999998,2096.8800000000001,5030.5200000000004,-3147.1999999999998,-271.44400000000002,47.485900000000001
171297.0,6604.4399999999996,6216.0299999999997,2104.71,5036.8400000000001,-3165.5100000000002,-168.929,-93.513599999999997
171298.0,6597.4499999999998,6152.3599999999997,2094.75,5035.1400000000003,-3171.0700000000002,-75.958600000000004,-232.98599999999999
171299.0,6583.79,6095.8699999999999,2099.0700000000002,5054.8599999999997,-3164.2600000000002,7.65266,-370.17500000000001
171300.0,6564.6800000000003,6010.3800000000001,2079.75,5058.4700000000003,-3146.2800000000002,82.251900000000006,-504.35199999999998
171301.0,6537.1499999999996,5941.6400000000003,2082.79,5087.9700000000003,-3116.2800000000002,148.17599999999999,-634.99599999999998
171302.0,6502.3800000000001,5827.6000000000004,2045.9200000000001,5086.6899999999996,-3075.0900000000001,204.828,-761.24599999999998
171303.0,6447.6899999999996,5735.9799999999996,2043.5999999999999,5115.3800000000001,-3018.0999999999999,252.31100000000001,-880.82600000000002
171304.0,6380.0,5573.1300000000001,1977.76,5093.4099999999999,-2947.1199999999999,281.75400000000002,-996.27599999999995
171305.0,6654.4300000000003,6398.2600000000002,2080.9299999999998,5130.5600000000004,-2959.4699999999998,-829.86500000000001,623.59199999999998
171306.0,6684.4300000000003,6448.9499999999998,2104.3899999999999,5088.8199999999997,-3041.9699999999998,-683.36699999999996,484.36799999999999
171307.0,6708.8100000000004,6458.2200000000003,2108.7800000000002,5049.04,-3108.75,-544.35199999999998,342.54599999999999
171308.0,6727.5799999999999,6469.3000000000002,2131.5700000000002,5045.3900000000003,-3160.29,-413.35399999999998,198.81200000000001
171309.0,6739.8500000000004,6439.8100000000004,2128.8400000000001,5030.8299999999999,-3197.25,-291.00099999999998,54.117400000000004
171310.0,6745.1899999999996,6416.25,2144.4499999999998,5047.0600000000004,-3219.9499999999998,-177.72,-90.313400000000001
171311.0,6743.8699999999999,6352.5900000000001,2130.4000000000001,5044.3500000000004,-3229.3000000000002,-73.786600000000007,-233.59200000000001
171312.0,6735.4099999999999,6303.6899999999996,2139.5500000000002,5073.0,-3225.5799999999999,20.7849,-374.83699999999999
171313.0,6720.8599999999997,6212.8500000000004,2113.3800000000001,5075.0799999999999,-3209.8600000000001,106.279,-513.29999999999995
171314.0,6697.3900000000003,6143.79,2116.1700000000001,5110.5600000000004,-3181.5,182.82499999999999,-648.34000000000003
171315.0,6666.5799999999999,6026.2399999999998,2077.73,5114.8400000000001,-3141.79,249.62100000000001,-779.13199999999995
171316.0,6615.9899999999998,5931.6800000000003,2076.6500000000001,5152.5699999999997,-3086.3699999999999,306.15899999999999,-903.36800000000005
171317.0,6552.75,5745.6499999999996,1995.47,5123.7299999999996,-3017.8000000000002,343.82100000000003,-1023.73
171318.0,6747.5500000000002,6597.6599999999999,2170.73,5173.7600000000002,-2978.48,-889.03300000000002,638.36599999999999
171319.0,6784.25,6647.79,2183.04,5120.5600000000004,-3067.2600000000002,-732.71699999999998,497.851
171320.0,6815.2799999999997,6688.8699999999999,2209.7600000000002,5103.2600000000002,-3139.7800000000002,-583.73599999999999,354.30500000000001
171321.0,6840.3599999999997,6691.8699999999999,2215.6500000000001,5083.6000000000004,-3196.3000000000002,-442.50400000000002,208.119
171322.0,6858.75,6685.6499999999996,2228.6399999999999,5086.3299999999999,-3237.7600000000002,-309.57999999999998,60.663600000000002
171323.0,6870.0200000000004,6654.5799999999999,2230.98,5091.5500000000002,-3264.6799999999998,-185.44200000000001,-86.892399999999995
171324.0,6874.3199999999997,6610.8699999999999,2232.6300000000001,5107.71,-3277.7199999999998,-70.462599999999995,-233.55500000000001
171325.0,6871.1000000000004,6553.8400000000001,2231.27,5129.8100000000004,-3277.27,35.1691,-378.50599999999997
171326.0,6861.4399999999996,6480.2700000000004,2221.7199999999998,5153.3599999999997,-3264.3699999999999,131.62299999999999,-520.86300000000006
171327.0,6842.4300000000003,6404.1000000000004,2218.5100000000002,5188.6199999999999,-3238.27,218.851,-660.06200000000001
171328.0,6815.3500000000004,6294.25,2190.02,5209.8900000000003,-3199.9899999999998,295.94600000000003,-795.053
171329.0,6767.9799999999996,6188.4899999999998,2181.4299999999998,5248.5699999999997,-3145.3400000000001,362.07299999999998,-923.60400000000004
171330.0,6708.0600000000004,6022.5900000000001,2123.7800000000002,5254.1899999999996,-3077.0799999999999,408.84500000000003,-1048.1800000000001
171331.0,6840.2200000000003,6764.0299999999997,2224.3200000000002,5175.29,-2993.1700000000001,-950.96600000000001,652.59400000000005
171332.0,6883.3699999999999,6825.0100000000002,2235.8499999999999,5121.1999999999998,-3088.0300000000002,-784.40999999999997,510.786
171333.0,6920.79,6872.6199999999999,2258.4200000000001,5100.0900000000001,-3166.0,-625.01400000000001,365.51499999999999
171334.0,6952.54,6890.1300000000001,2269.9699999999998,5086.6899999999996,-3227.9400000000001,-473.05200000000002,217.203
171335.0,6977.3500000000004,6893.3000000000002,2284.8699999999999,5092.5799999999999,-3274.3200000000002,-328.99299999999999,67.256100000000004
171336.0,6994.7200000000003,6871.0299999999997,2290.0300000000002,5102.7299999999996,-3305.6100000000001,-193.44200000000001,-83.270200000000003
171337.0,7004.7200000000003,6833.0799999999999,2292.9200000000001,5123.2799999999997,-3322.4499999999998,-66.795599999999993,-233.202
171338.0,7006.79,6778.8000000000002,2291.4200000000001,5149.3800000000001,-3325.1799999999998,50.546999999999997,-381.745
171339.0,7001.8299999999999,6706.5100000000002,2281.6500000000001,5178.0699999999997,-3314.6999999999998,158.68700000000001,-527.88499999999999
171340.0,6987.1499999999996,6625.2799999999997,2273.6100000000001,5214.8699999999999,-3290.4899999999998,257.33999999999997,-671.07799999999997
171341.0,6964.2399999999998,6518.3699999999999,2250.0900000000001,5248.5799999999999,-3253.8699999999999,345.43799999999999,-810.149
171342.0,6921.4099999999999,6405.5100000000002,2237.9299999999998,5292.5699999999997,-3200.7800000000002,421.74900000000002,-943.09299999999996
171343.0,6866.6000000000004,6223.1999999999998,2169.5,5297.5799999999999,-3134.7199999999998,477.92399999999998,-1072.1300000000001
171344.0,6923.1700000000001,6944.7600000000002,2298.8600000000001,5185.3800000000001,-3000.6900000000001,-1013.4,666.08600000000001
171345.0,6973.1300000000001,7015.3900000000003,2308.1199999999999,5129.1899999999996,-3101.98,-836.42700000000002,523.35900000000004
171346.0,7017.21,7085.2799999999997,2342.71,5120.2600000000002,-3185.8600000000001,-666.41700000000003,376.73899999999998
171347.0,7055.2200000000003,7105.1899999999996,2347.23,5100.6300000000001,-3252.8400000000001,-503.50599999999997,226.41800000000001
171348.0,7086.1400000000003,7123.1099999999997,2368.8800000000001,5114.6599999999999,-3303.8099999999999,-348.10300000000001,74.090299999999999
171349.0,7109.4399999999996,7102.7299999999996,2369.6100000000001,5122.5600000000004,-3339.3200000000002,-200.85499999999999,-79.1631
171350.0,7125.0799999999999,7076.2399999999998,2379.3800000000001,5153.1099999999997,-3359.9200000000001,-62.282600000000002,-232.14400000000001
171351.0,7132.4300000000003,7022.75,2375.8800000000001,5181.2799999999997,-3365.9200000000001,67.096100000000007,-384.01999999999998
171352.0,7132.4200000000001,6958.5900000000001,2373.3600000000001,5222.25,-3358.27,187.185,-533.74699999999996
171353.0,7122.3199999999997,6878.4399999999996,2367.27,5267.1400000000003,-3336.3400000000001,297.56599999999997,-680.73400000000004
171354.0,7103.4799999999996,6770.7700000000004,2345.1199999999999,5309.7799999999997,-3301.3099999999999,397.0,-823.73400000000004
171355.0,7064.8500000000004,6654.3299999999999,2332.9299999999998,5362.9799999999996,-3249.52,483.99200000000002,-960.82299999999998
171356.0,7014.3699999999999,6484.7799999999997,2281.3899999999999,5396.1599999999999,-3184.6199999999999,550.19000000000005,-1093.9400000000001
171357.0,6999.4099999999999,7102.1000000000004,2353.3899999999999,5164.8999999999996,-3001.3699999999999,-1077.21,678.78499999999997
171358.0,7056.0600000000004,7196.9399999999996,2374.0700000000002,5120.5799999999999,-3108.96,-889.57100000000003,535.32600000000002
171359.0,7106.6000000000004,7263.3900000000003,2393.8600000000001,5097.46,-3198.46,-708.65899999999999,387.40699999999998
171360.0,7151.1099999999997,7309.4700000000003,2414.9899999999998,5095.0900000000001,-3270.77,-534.47199999999998,235.477
171361.0,7188.3800000000001,7325.6400000000003,2426.9499999999998,5100.6300000000001,-3326.6599999999999,-367.34699999999998,81.068399999999997
171362.0,7217.6599999999999,7326.1599999999999,2442.1100000000001,5125.0500000000002,-3366.48,-207.995,-74.642899999999997
171363.0,7238.9200000000001,7294.2600000000002,2441.7600000000002,5148.5500000000002,-3390.8699999999999,-57.050800000000002,-230.471
171364.0,7251.46,7255.29,2449.7199999999998,5192.3199999999997,-3400.04,84.8429,-385.45299999999997
171365.0,7256.21,7181.6999999999998,2436.3499999999999,5227.8000000000002,-3394.9200000000001,217.40700000000001,-538.56200000000001
171366.0,7250.5,7108.2700000000004,2437.23,5286.2299999999996,-3374.9400000000001,340.096,-689.072
171367.0,7235.96,6992.3800000000001,2409.0599999999999,5330.6199999999999,-3341.6700000000001,451.37599999999998,-835.80899999999997
171368.0,7202.0799999999999,6880.8500000000004,2405.21,5401.7200000000003,-3291.5100000000002,549.53700000000003,-976.87099999999998
171369.0,7156.9899999999998,6683.96,2331.3800000000001,5423.79,-3228.77,626.11099999999999,-1114.0799999999999
171370.0,7066.3000000000002,7269.3000000000002,2425.5,5148.3999999999996,-2994.5999999999999,-1141.5799999999999,691.01900000000001
171371.0,7129.9300000000003,7374.6199999999999,2443.52,5102.1400000000003,-3108.8800000000001,-943.12199999999996,547.10000000000002
171372.0,7187.1499999999996,7463.3100000000004,2474.3200000000002,5090.54,-3204.3899999999999,-751.11000000000001,398.27100000000002
171373.0,7237.8699999999999,7512.9799999999996,2489.0,5082.4700000000003,-3281.8099999999999,-565.42700000000002,244.833
171374.0,7281.1000000000004,7544.6499999999996,2507.98,5096.3400000000001,-3342.2600000000002,-386.33100000000002,88.498900000000006
171375.0,7316.1599999999999,7547.2700000000004,2518.5700000000002,5118.25,-3386.27,-214.59200000000001,-69.487700000000004
171376.0,7342.9499999999998,7527.2700000000004,2525.1999999999998,5151.7799999999997,-3414.3800000000001,-50.947299999999998,-227.91200000000001
171377.0,7360.71,7489.3400000000001,2531.21,5197.6599999999999,-3426.8000000000002,103.779,-385.80399999999997
171378.0,7370.3199999999997,7423.4799999999996,2524.5300000000002,5244.9700000000003,-3424.46,249.166,-542.06100000000004
171379.0,7369.2399999999998,7351.0299999999997,2527.1799999999998,5311.5200000000004,-3406.77,384.47899999999998,-695.94500000000005
171380.0,7358.9399999999996,7234.3800000000001,2500.3099999999999,5365.21,-3375.1599999999999,508.02499999999998,-846.21600000000001
171381.0,7329.6499999999996,7118.7299999999996,2496.04,5445.6199999999999,-3326.5599999999999,617.80999999999995,-991.04300000000001
171382.0,7289.4399999999996,6935.2299999999996,2440.02,5497.3699999999999,-3265.3899999999999,705.32100000000003,-1132.01
171383.0,7123.9899999999998,7427.0900000000001,2495.0500000000002,5115.8699999999999,-2979.6100000000001,-1206.77,702.47699999999998
171384.0,7194.4899999999998,7533.8199999999997,2500.5999999999999,5058.3100000000004,-3100.5500000000002,-997.28200000000004,558.27300000000002
171385.0,7258.0600000000004,7644.8199999999997,2541.5100000000002,5057.6700000000001,-3201.7199999999998,-793.95000000000005,408.74000000000001
171386.0,7315.0799999999999,7696.8299999999999,2548.4699999999998,5042.5500000000002,-3284.4899999999998,-596.51199999999994,254.11199999999999
171387.0,7364.3599999999997,7750.8199999999997,2581.1999999999998,5071.3299999999999,-3349.6700000000001,-405.13,96.249899999999997
171388.0,7405.1700000000001,7751.1700000000001,2582.8299999999999,5086.21,-3397.9299999999998,-220.69300000000001,-63.774000000000001
171389.0,7437.3500000000004,7749.6199999999999,2602.79,5136.0799999999999,-3429.6900000000001,-43.955500000000001,-224.47999999999999
171390.0,7460.2200000000003,7703.0,2596.9699999999998,5174.1800000000003,-3445.2800000000002,123.992,-385.05399999999997
171391.0,7474.4799999999996,7651.5,2603.1100000000001,5239.71,-3445.4099999999999,282.68799999999999,-544.14300000000003
171392.0,7477.7299999999996,7562.8800000000001,2590.0700000000002,5297.1599999999999,-3429.7199999999998,431.09300000000002,-701.12
171393.0,7471.71,7460.5699999999997,2579.8699999999999,5375.5699999999997,-3399.8699999999999,567.375,-854.62599999999998
171394.0,7447.2799999999997,7328.0100000000002,2562.1900000000001,5452.6300000000001,-3352.9299999999998,689.21900000000005,-1003.01
171395.0,7412.6999999999998,7138.9300000000003,2505.3699999999999,5515.5900000000001,-3293.9899999999998,788.03200000000004,-1147.5699999999999
171396.0,7171.6599999999999,7578.4899999999998,2568.0,5071.3199999999997,-2956.3499999999999,-1272.3499999999999,713.51700000000005
171397.0,7249.1599999999999,7694.3500000000004,2568.3099999999999,5010.04,-3084.25,-1051.6900000000001,569.35199999999998
171398.0,7319.1999999999998,7829.8299999999999,2621.5100000000002,5022.4799999999996,-3191.4299999999998,-836.86000000000001,419.452
171399.0,7382.1599999999999,7884.4499999999998,2620.5100000000002,5000.1700000000001,-3279.27,-627.48500000000001,263.77100000000002
171400.0,7437.1099999999997,7956.6300000000001,2662.46,5039.3599999999997,-3348.9000000000001,-423.57999999999998,104.568
171401.0,7483.4399999999996,7957.5500000000002,2657.6999999999998,5049.7299999999996,-3401.2600000000002,-226.16999999999999,-57.266199999999998
171402.0,7520.8699999999999,7969.8900000000003,2686.3600000000001,5111.21,-3436.5999999999999,-36.044600000000003,-220.00399999999999
171403.0,7548.6700000000001,7922.8299999999999,2677.0599999999999,5149.75,-3455.3299999999999,145.46000000000001,-382.99099999999999
171404.0,7567.6000000000004,7880.4799999999996,2691.2199999999998,5228.4499999999998,-3458.1300000000001,317.78399999999999,-544.68100000000004
171405.0,7575.3599999999997,7791.0,2678.1300000000001,5292.3000000000002,-3444.6799999999998,479.63499999999999,-704.53899999999999
171406.0,7573.5200000000004,7689.7600000000002,2671.21,5382.1999999999998,-3416.4699999999998,629.06399999999996,-861.04100000000005
171407.0,7553.9099999999999,7550.4799999999996,2650.6399999999999,5466.5100000000002,-3371.25,763.38499999999999,-1012.76
171408.0,7524.6000000000004,7377.2299999999996,2614.2600000000002,5562.3800000000001,-3314.1799999999998,873.995,-1160.6099999999999
171409.0,7208.7299999999996,7711.2399999999998,2632.0700000000002,5002.0799999999999,-2923.6700000000001,-1338.3399999999999,723.75800000000004
171410.0,7292.9700000000003,7844.2799999999997,2634.4299999999998,4944.79,-3058.4699999999998,-1106.3399999999999,579.92700000000002
171411.0,7369.1099999999997,7989.5,2684.4499999999998,4955.1700000000001,-3171.4099999999999,-879.86900000000003,429.83300000000003
171412.0,7437.9799999999996,8060.5699999999997,2689.1199999999999,4939.25,-3264.4499999999998,-658.33100000000002,273.51400000000001
171413.0,7498.5299999999997,8141.4099999999999,2730.8499999999999,4979.2200000000003,-3338.6599999999999,-441.66800000000001,113.31399999999999
171414.0,7550.1899999999996,8154.04,2730.71,4995.9499999999998,-3395.0500000000002,-230.983,-49.972700000000003
171415.0,7592.6800000000003,8171.6499999999996,2759.4299999999998,5060.29,-3433.9099999999999,-27.160699999999999,-214.477
171416.0,7625.1999999999998,8129.1400000000003,2751.3899999999999,5104.0,-3455.5999999999999,168.28999999999999,-379.52600000000001
171417.0,7648.4799999999996,8088.1800000000003,2765.5500000000002,5187.9499999999998,-3460.77,354.63600000000002,-543.51099999999997
171418.0,7660.3900000000003,7995.75,2750.0900000000001,5256.04,-3449.2199999999998,530.38900000000001,-705.85900000000004
171419.0,7662.7600000000002,7895.5,2746.6700000000001,5357.6199999999999,-3422.79,693.37,-865.05999999999995
171420.0,7648.0200000000004,7752.8800000000001,2726.4299999999998,5452.6700000000001,-3379.2600000000002,840.596,-1019.76
171421.0,7624.4300000000003,7560.4099999999999,2675.75,5546.8299999999999,-3324.5300000000002,963.35000000000002,-1170.7
171422.0,7235.1700000000001,7836.2399999999998,2700.4899999999998,4919.7700000000004,-2881.6700000000001,-1404.46,733.62800000000004
171423.0,7326.0799999999999,7989.2200000000003,2707.0500000000002,4869.0299999999997,-3023.5799999999999,-1161.03,590.40899999999999
171424.0,7408.2200000000003,8149.0900000000001,2758.7600000000002,4882.21,-3142.5300000000002,-922.78300000000002,440.459
171425.0,7482.5200000000004,8233.6599999999999,2765.79,4869.4099999999999,-3240.4899999999998,-688.90599999999995,283.72699999999998
171426.0,7548.21,8323.0900000000001,2806.9099999999999,4909.7200000000003,-3318.98,-459.27999999999997,122.717
171427.0,7604.8000000000002,8346.8400000000001,2810.6500000000001,4931.9700000000003,-3379.1799999999998,-235.066,-41.7224
171428.0,7652.0299999999997,8367.9500000000007,2837.6599999999999,4997.21,-3421.4200000000001,-17.2867,-207.70599999999999
171429.0,7689.0900000000001,8335.6499999999996,2836.6799999999998,5051.7200000000003,-3446.04,192.429,-374.50400000000002
171430.0,7716.6499999999996,8293.1399999999994,2848.2399999999998,5138.0200000000004,-3453.71,393.09199999999998,-540.505
171431.0,7732.7700000000004,8209.9200000000001,2842.9099999999999,5222.6999999999998,-3444.2600000000002,583.08799999999997,-705.05799999999999
171432.0,7739.1400000000003,8100.4300000000003,2832.7399999999998,5325.7299999999996,-3419.4000000000001,760.0,-866.67200000000003
171433.0,7729.1899999999996,7960.54,2819.25,5437.9899999999998,-3377.6300000000001,920.54499999999996,-1024.0599999999999
171434.0,7711.0299999999997,7774.4099999999999,2779.8400000000001,5556.3100000000004,-3324.9899999999998,1055.9100000000001,-1177.74
171435.0,7250.3299999999999,7947.9499999999998,2768.1900000000001,4818.6099999999997,-2829.04,-1470.6400000000001,742.73500000000001
171436.0,7347.5200000000004,8114.8100000000004,2772.1700000000001,4768.1400000000003,-2978.0700000000002,-1215.6900000000001,600.46000000000004
171437.0,7435.21,8290.5100000000002,2826.0599999999999,4784.9200000000001,-3102.8099999999999,-965.53800000000001,450.904
171438.0,7514.6499999999996,8386.8199999999997,2833.5700000000002,4773.2700000000004,-3205.6999999999998,-719.14599999999996,294.15300000000002
171439.0,7585.21,8489.8600000000006,2879.1599999999999,4818.8000000000002,-3288.48,-476.36399999999998,132.70500000000001
171440.0,7646.4700000000003,8520.2600000000002,2882.3200000000002,4841.8999999999996,-3352.4400000000001,-238.36600000000001,-32.502699999999997
171441.0,7698.0799999999999,8552.0300000000007,2914.77,4915.0,-3397.8899999999999,-6.3479599999999996,-199.62899999999999
171442.0,7739.3299999999999,8518.8199999999997,2909.6300000000001,4968.9899999999998,-3425.2199999999998,217.946,-367.80200000000002
171443.0,7770.8000000000002,8482.9599999999991,2926.6799999999998,5065.71,-3435.0799999999999,433.30700000000002,-535.44000000000005
171444.0,7790.6700000000001,8391.5300000000007,2913.9699999999998,5149.4799999999996,-3427.3499999999999,637.93899999999996,-701.78499999999997
171445.0,7800.96,8287.7700000000004,2912.3600000000001,5269.1800000000003,-3404.1599999999999,829.15200000000004,-865.42399999999998
171446.0,7795.75,8139.7399999999998,2894.6399999999999,5387.8599999999997,-3364.0599999999999,1003.41,-1025.1099999999999
171447.0,7783.29,7938.9300000000003,2845.6100000000001,5509.5799999999999,-3313.8200000000002,1151.74,-1181.2
171448.0,7254.5299999999997,8043.2700000000004,2834.27,4696.2399999999998,-2765.79,-1536.6400000000001,751.45699999999999
171449.0,7357.6199999999999,8236.2600000000002,2847.4000000000001,4658.1499999999996,-2922.1199999999999,-1270.0899999999999,610.45299999999997
171450.0,7450.4499999999998,8421.7700000000004,2897.3699999999999,4672.4300000000003,-3052.77,-1007.96,461.61799999999999
171451.0,7534.4799999999996,8537.1100000000006,2912.3499999999999,4668.9200000000001,-3160.3499999999999,-748.92200000000003,305.12
171452.0,7609.3199999999997,8644.2399999999998,2952.6900000000001,4709.8400000000001,-3247.0999999999999,-492.82600000000002,143.51499999999999
171453.0,7674.6999999999998,8690.7299999999996,2964.6199999999999,4742.9700000000003,-3314.5,-240.83199999999999,-22.153700000000001
171454.0,7730.3400000000001,8720.9899999999998,2990.3899999999999,4811.5799999999999,-3363.02,5.6658999999999997,-190.07400000000001
171455.0,7775.4099999999999,8702.7199999999993,2997.21,4880.8400000000001,-3392.9400000000001,244.804,-359.24799999999999
171456.0,7810.5500000000002,8660.4699999999993,3007.0500000000002,4974.9899999999998,-3405.0,475.13200000000001,-528.17899999999997
171457.0,7834.1400000000003,8582.0400000000009,3008.6100000000001,5079.1999999999998,-3399.1500000000001,694.69399999999996,-695.97900000000004
171458.0,7848.04,8464.6200000000008,2996.21,5196.21,-3377.3899999999999,900.55499999999995,-861.28099999999995
171459.0,7847.3900000000003,8322.5699999999997,2988.8899999999999,5335.8000000000002,-3339.0100000000002,1088.8900000000001,-1022.9
171460.0,7840.2799999999997,8124.5100000000002,2947.77,5478.6400000000003,-3290.9499999999998,1250.6199999999999,-1181.03
171461.0,7247.6099999999997,8129.54,2906.8899999999999,4559.8800000000001,-2690.6799999999998,-1602.3299999999999,759.53099999999995
171462.0,7355.8900000000003,8329.9699999999993,2909.7600000000002,4515.3199999999997,-2854.3200000000002,-1324.1600000000001,620.06600000000003
171463.0,7453.1499999999996,8539.8700000000008,2969.8499999999999,4541.3800000000001,-2990.6300000000001,-1049.96,472.30200000000002
171464.0,7541.2399999999998,8659.7099999999991,2977.7800000000002,4531.3599999999997,-3102.8299999999999,-778.173,316.43400000000003
171465.0,7619.9099999999999,8787.4500000000007,3029.4099999999999,4583.9499999999998,-3193.4499999999998,-508.58100000000002,155.10499999999999
171466.0,7688.9499999999998,8833.3600000000006,3033.6399999999999,4610.3100000000004,-3264.1900000000001,-242.423,-10.643800000000001
171467.0,7748.0900000000001,8881.1399999999994,3071.8099999999999,4693.2799999999997,-3315.52,18.808199999999999,-178.91499999999999
171468.0,7796.5699999999997,8854.8899999999994,3067.71,4754.71,-3347.8099999999999,273.06099999999998,-348.71499999999997
171469.0,7834.8900000000003,8825.3600000000006,3089.4400000000001,4865.2700000000004,-3361.73,518.67499999999995,-518.47900000000004
171470.0,7861.6099999999997,8732.4599999999991,3077.8099999999999,4962.3699999999999,-3357.3099999999999,753.50900000000001,-687.25300000000004
171471.0,7878.8900000000003,8626.1200000000008,3079.8200000000002,5101.6499999999996,-3336.9899999999998,974.34199999999998,-853.76900000000001
171472.0,7882.6400000000003,8470.2199999999993,3062.96,5242.3299999999999,-3300.1799999999998,1177.0999999999999,-1016.86
171473.0,7881.0200000000004,8262.3899999999994,3017.3699999999999,5393.9700000000003,-3254.54,1352.54,-1176.6099999999999
171474.0,7230.2399999999998,8189.4099999999999,2970.98,4392.9700000000003,-2603.5500000000002,-1667.48,767.24199999999996
171475.0,7343.0,8421.1800000000003,2986.9099999999999,4365.7200000000003,-2774.6799999999998,-1377.7,629.65800000000002
171476.0,7444.0,8637.2800000000007,3038.75,4385.25,-2916.6700000000001,-1091.3800000000001,483.31
171477.0,7535.3500000000004,8779.8600000000006,3057.75,4386.7200000000003,-3033.2199999999998,-806.75300000000004,328.40100000000001
171478.0,7617.0500000000002,8908.6399999999994,3101.1300000000001,4431.21,-3127.3499999999999,-523.54899999999998,167.672
171479.0,7689.0699999999997,8973.5900000000001,3117.2800000000002,4470.1899999999996,-3201.0900000000001,-243.065,2.2227600000000001
171480.0,7751.1199999999999,9016.5300000000007,3145.77,4545.0299999999997,-3254.9899999999998,33.088999999999999,-166.012
171481.0,7802.4499999999998,9007.5200000000004,3156.2800000000002,4623.8100000000004,-3289.4299999999998,302.65100000000001,-336.0
171482.0,7843.6099999999997,8969.0900000000001,3168.71,4729.1499999999996,-3305.1399999999999,563.78200000000004,-506.17899999999997
171483.0,7873.3199999999997,8889.8500000000004,3172.5599999999999,4847.4200000000001,-3302.27,814.12599999999998,-675.53300000000002
171484.0,7893.6000000000004,8768.1100000000006,3162.52,4982.4200000000001,-3283.0799999999999,1050.24,-842.82100000000003
171485.0,7901.4200000000001,8618.3799999999992,3156.8200000000002,5144.6000000000004,-3247.8699999999999,1267.72,-1006.9299999999999
171486.0,7904.8500000000004,8412.6499999999996,3118.9200000000001,5317.1899999999996,-3204.4400000000001,1457.26,-1167.8499999999999
171487.0,7203.0,8246.6399999999994,3051.3800000000001,4219.3199999999997,-2503.23,-1731.9400000000001,774.36500000000001
171488.0,7319.0100000000002,8473.1599999999999,3043.1399999999999,4172.6800000000003,-2681.79,-1430.55,638.99800000000005
171489.0,7422.79,8727.7999999999993,3118.7399999999998,4217.8199999999997,-2829.29,-1132.1099999999999,494.45999999999998
171490.0,7516.6099999999997,8861.9300000000003,3117.5900000000001,4199.4300000000003,-2950.0300000000002,-834.57399999999996,340.88799999999998
171491.0,7600.5799999999999,9023.6000000000004,3184.6999999999998,4267.5299999999997,-3047.4200000000001,-537.64599999999996,181.23099999999999
171492.0,7674.8500000000004,9074.9099999999999,3180.48,4286.3500000000004,-3123.9400000000001,-242.70500000000001,16.512
171493.0,7739.1499999999996,9147.4300000000003,3233.8000000000002,4387.2799999999997,-3180.0599999999999,48.546300000000002,-151.21600000000001
171494.0,7792.7600000000002,9117.6900000000005,3221.2199999999998,4445.3199999999997,-3216.3800000000001,333.62099999999998,-320.93799999999999
171495.0,7836.1000000000004,9102.5900000000001,3256.75,4577.5799999999999,-3233.46,610.52099999999996,-491.0
171496.0,7868.1499999999996,8998.1700000000001,3237.3299999999999,4678.0500000000002,-3231.6500000000001,876.649,-660.40200000000004
171497.0,7891.1300000000001,8896.8400000000001,3251.73,4844.8299999999999,-3213.6300000000001,1128.3,-827.93100000000004
171498.0,7902.75,8723.1900000000005,3227.0900000000001,4998.3900000000003,-3179.8000000000002,1360.79,-992.54200000000003
171499.0,7911.1499999999996,8516.25,3193.5999999999999,5188.6899999999996,-3138.6700000000001,1564.7,-1154.1099999999999
171500.0,7167.3100000000004,8258.6800000000003,3108.0300000000002,3997.27,-2389.4499999999998,-1795.49,781.18100000000004
171501.0,7285.3100000000004,8532.3400000000001,3127.3400000000001,3983.5,-2575.6199999999999,-1482.51,648.44500000000005
171502.0,7390.6400000000003,8779.2399999999998,3180.3400000000001,4007.8699999999999,-2728.4699999999998,-1171.97,506.00700000000001
171503.0,7485.8199999999997,8949.5499999999993,3203.6799999999998,4014.1100000000001,-2853.0300000000002,-861.5,354.173
171504.0,7571.1499999999996,9098.6399999999994,3249.25,4060.1799999999998,-2953.3899999999999,-550.80200000000002,195.959
171505.0,7646.8100000000004,9181.7700000000004,3270.1500000000001,4104.0600000000004,-3032.2199999999998,-241.29499999999999,32.416800000000002
171506.0,7712.6000000000004,9235.7600000000002,3300.6999999999998,4182.9099999999999,-3090.3099999999999,65.1541,-134.36199999999999
171507.0,7767.7799999999997,9235.1299999999992,3315.25,4269.9899999999998,-3128.1599999999999,365.91699999999997,-303.30700000000002
171508.0,7812.7700000000004,9198.8999999999996,3330.0599999999999,4384.7399999999998,-3146.4899999999998,658.73699999999997,-472.79700000000003
171509.0,7846.8199999999997,9117.3799999999992,3336.1500000000001,4515.6599999999999,-3145.73,940.81600000000003,-641.73800000000006
171510.0,7871.9499999999998,8989.9099999999999,3328.5999999999999,4667.5799999999999,-3128.46,1208.23,-808.971
171511.0,7886.9799999999996,8831.1399999999994,3324.4699999999998,4851.6000000000004,-3095.98,1455.99,-973.56299999999999
171512.0,7899.8199999999997,8617.1499999999996,3290.0999999999999,5054.0699999999997,-3057.0100000000002,1674.54,-1135.28
171513.0,7124.8800000000001,8274.8899999999994,3191.5700000000002,3776.3299999999999,-2261.1500000000001,-1857.8900000000001,787.55600000000004
171514.0,7242.8199999999997,8539.7299999999996,3181.8800000000001,3739.3899999999999,-2454.6599999999999,-1533.4400000000001,657.73599999999999
171515.0,7348.3800000000001,8829.3799999999992,3262.5500000000002,3793.4000000000001,-2612.7600000000002,-1210.8399999999999,517.87
171516.0,7443.7399999999998,8987.8500000000004,3262.54,3776.1599999999999,-2740.9000000000001,-887.44299999999998,368.202
171517.0,7529.3500000000004,9171.8299999999999,3334.3000000000002,3847.5599999999999,-2843.8200000000002,-562.92399999999998,211.90700000000001
171518.0,7605.46,9238.0799999999999,3332.21,3867.77,-2924.6900000000001,-238.78299999999999,50.037300000000002
171519.0,7671.8400000000001,9322.9899999999998,3389.7600000000002,3973.8800000000001,-2984.29,82.973299999999995,-115.26900000000001
171520.0,7727.8400000000001,9299.1200000000008,3379.5300000000002,4037.52,-3023.3000000000002,399.54399999999998,-282.92000000000002
171521.0,7773.8100000000004,9285.5,3417.6199999999999,4178.4099999999999,-3042.4200000000001,708.44299999999998,-451.23399999999998
171522.0,7809.1599999999999,9179.1000000000004,3401.6999999999998,4291.8599999999997,-3042.1999999999998,1006.6900000000001,-619.101
171523.0,7836.0299999999997,9069.7199999999993,3417.23,4473.3999999999996,-3025.6599999999999,1290.02,-785.47799999999995
171524.0,7854.04,8888.1599999999999,3396.0799999999999,4650.0900000000001,-2994.21,1553.25,-949.38699999999994
171525.0,7871.0,8669.6700000000001,3363.4899999999998,4867.3000000000002,-2957.3699999999999,1786.6500000000001,-1110.6600000000001
171526.0,7078.1999999999998,8227.3099999999995,3236.6399999999999,3489.4899999999998,-2117.8099999999999,-1918.9200000000001,793.70500000000004
171527.0,7194.1300000000001,8562.1599999999999,3276.2800000000002,3508.23,-2318.9400000000001,-1583.1400000000001,667.28099999999995
171528.0,7298.0699999999997,8823.9200000000001,3313.9099999999999,3521.0999999999999,-2481.9400000000001,-1248.5599999999999,530.25099999999998
171529.0,7392.1300000000001,9036.7399999999998,3356.8099999999999,3546.52,-2613.1999999999998,-912.245,383.238
171530.0,7476.75,9189.8099999999995,3389.5700000000002,3577.4000000000001,-2718.29,-573.94600000000003,229.244
171531.0,7552.1899999999996,9303.6900000000005,3429.1399999999999,3638.3000000000002,-2800.5900000000001,-235.12100000000001,69.588399999999993
171532.0,7618.2299999999996,9352.9300000000003,3447.8600000000001,3705.0300000000002,-2861.3800000000001,101.961,-93.758600000000001
171533.0,7674.2799999999997,9372.2900000000009,3479.8200000000002,3811.6999999999998,-2901.1799999999998,434.42000000000002,-259.51900000000001
171534.0,7720.54,9323.0499999999993,3483.8299999999999,3920.52,-2920.8699999999999,759.452,-426.13400000000001
171535.0,7756.6800000000003,9249.8799999999992,3504.8200000000002,4074.7800000000002,-2921.0300000000002,1073.95,-592.34199999999998
171536.0,7784.6999999999998,9102.1499999999996,3487.25,4229.3299999999999,-2904.7199999999998,1373.3299999999999,-757.23000000000002
171537.0,7805.1800000000003,8944.6299999999992,3496.8099999999999,4445.8500000000004,-2874.2600000000002,1652.1900000000001,-919.822
171538.0,7825.6000000000004,8709.3400000000001,3454.3699999999999,4665.6800000000003,-2839.3899999999999,1900.6300000000001,-1080.0899999999999
171539.0,7030.6000000000004,8210.9099999999999,3340.0100000000002,3232.1999999999998,-1958.52,-1978.3499999999999,799.55600000000004
171540.0,7141.6099999999997,8500.9899999999998,3313.3800000000001,3191.5700000000002,-2166.8499999999999,-1631.4100000000001,676.83900000000006
171541.0,7241.9799999999996,8839.1000000000004,3412.3200000000002,3267.7199999999998,-2334.6799999999998,-1284.97,543.173
171542.0,7333.2200000000003,9008.5100000000002,3400.7600000000002,3237.9699999999998,-2468.7600000000002,-935.82000000000005,399.24200000000002
171543.0,7415.4200000000001,9224.2999999999993,3488.4000000000001,3321.8699999999999,-2575.4000000000001,-583.75599999999997,248.11199999999999
171544.0,7489.0699999999997,9292.7600000000002,3477.6300000000001,3330.5500000000002,-2658.9099999999999,-230.30000000000001,91.172899999999998
171545.0,7553.71,9397.7700000000004,3549.2600000000002,3449.1700000000001,-2720.23,122.15900000000001,-69.611199999999997
171546.0,7608.8699999999999,9367.8400000000001,3531.6700000000001,3506.3699999999999,-2760.3699999999999,470.50200000000001,-232.89500000000001
171547.0,7654.6000000000004,9362.2299999999996,3581.27,3662.25,-2779.98,811.77099999999996,-397.13900000000001
171548.0,7690.8400000000001,9242.7399999999998,3560.1300000000001,3777.6700000000001,-2780.0,1142.5699999999999,-560.99300000000005
171549.0,7719.5200000000004,9131.0900000000001,3584.9099999999999,3979.9000000000001,-2763.8200000000002,1458.0899999999999,-723.72199999999998
171550.0,7741.8999999999996,8931.3500000000004,3559.2399999999998,4169.8699999999999,-2733.9499999999998,1752.6700000000001,-884.26999999999998
171551.0,7765.2299999999996,8707.7900000000009,3535.5500000000002,4420.6800000000003,-2700.8099999999999,2016.28,-1042.78
171552.0,6986.5200000000004,8096.6300000000001,3374.9200000000001,2876.3699999999999,-1782.52,-2036.05,805.35900000000004
171553.0,7089.5299999999997,8475.5599999999995,3415.6900000000001,2910.02,-1998.51,-1678.05,686.81600000000003
171554.0,7183.7299999999996,8770.2900000000009,3455.8699999999999,2929.6500000000001,-2170.4699999999998,-1319.9000000000001,556.82600000000002
171555.0,7270.1300000000001,9006.1499999999996,3500.3099999999999,2954.5999999999999,-2306.8299999999999,-958.029,416.43799999999999
171556.0,7348.5600000000004,9178.2199999999993,3537.1100000000001,2985.23,-2414.71,-592.28300000000002,268.69900000000001
171557.0,7419.0100000000002,9303.2999999999993,3578.4299999999998,3043.5,-2498.5599999999999,-224.262,115.003
171558.0,7481.1899999999996,9361.5200000000004,3601.46,3111.6799999999998,-2560.0500000000002,143.49600000000001,-42.613
171559.0,7534.54,9381.6499999999996,3634.4200000000001,3218.6599999999999,-2599.98,507.70100000000002,-202.78800000000001
171560.0,7579.0799999999999,9332.5300000000007,3643.4699999999998,3334.5999999999999,-2619.2600000000002,865.14499999999998,-364.01799999999997
171561.0,7614.8400000000001,9248.7000000000007,3663.25,3493.2800000000002,-2618.8600000000001,1212.24,-524.87400000000002
171562.0,7643.5299999999997,9093.6100000000006,3651.3299999999999,3663.5599999999999,-2602.1999999999998,1543.9000000000001,-684.67100000000005
171563.0,7667.3100000000004,8919.2800000000007,3659.04,3894.75,-2572.79,1854.24,-842.50699999999995
171564.0,7692.79,8676.1900000000005,3623.7600000000002,4145.5100000000002,-2541.29,2133.0799999999999,-998.57000000000005
171565.0,6951.6099999999997,8017.8199999999997,3477.0799999999999,2555.8499999999999,-1589.1400000000001,-2091.5999999999999,811.24699999999996
171566.0,7042.2399999999998,8354.7000000000007,3453.79,2532.8800000000001,-1812.0699999999999,-1722.8699999999999,696.93499999999995
171567.0,7127.7399999999998,8723.6800000000003,3553.1399999999999,2613.9299999999998,-1988.25,-1353.1700000000001,571.29700000000003
171568.0,7207.3599999999997,8916.2000000000007,3544.3299999999999,2583.6900000000001,-2126.3699999999999,-978.774,434.89999999999998
171569.0,7280.25,9148.8700000000008,3635.04,2665.4899999999998,-2234.6900000000001,-599.45000000000005,291.09500000000003
171570.0,7346.2799999999997,9226.9099999999999,3626.0700000000002,2669.7800000000002,-2318.5300000000002,-217.006,141.28200000000001
171571.0,7404.8699999999999,9339.4200000000001,3702.1300000000001,2788.5999999999999,-2379.4699999999998,165.98500000000001,-12.545999999999999
171572.0,7455.4799999999996,9307.9400000000005,3685.0900000000001,2843.6900000000001,-2418.5999999999999,545.95399999999995,-168.93700000000001
171573.0,7497.9899999999998,9299.8099999999995,3738.8600000000001,3004.2600000000002,-2436.8600000000001,919.51999999999998,-326.404
171574.0,7532.6899999999996,9170.0,3718.6700000000001,3124.4200000000001,-2435.3899999999999,1282.8599999999999,-483.46499999999997
171575.0,7561.0100000000002,9047.2600000000002,3746.98,3338.7399999999998,-2418.0999999999999,1630.5999999999999,-639.61599999999999
171576.0,7585.6099999999997,8831.5499999999993,3721.8200000000002,3544.1799999999998,-2388.6199999999999,1956.6800000000001,-793.84000000000003
171577.0,7612.4799999999996,8595.9099999999999,3702.1900000000001,3821.6599999999999,-2358.4000000000001,2250.7199999999998,-946.65099999999995
171578.0,6932.6899999999996,7824.9499999999998,3499.3400000000001,2122.0999999999999,-1377.51,-2144.8099999999999,817.31799999999998
171579.0,7006.5600000000004,8272.9599999999991,3565.4899999999998,2196.0900000000001,-1607.6900000000001,-1765.74,707.69299999999998
171580.0,7080.1099999999997,8580.2700000000004,3587.8200000000002,2202.5300000000002,-1787.3900000000001,-1384.5899999999999,586.74300000000005
171581.0,7150.5500000000002,8852.3199999999997,3649.5599999999999,2240.1399999999999,-1926.48,-997.94799999999998,454.81400000000002
171582.0,7216.3199999999997,9027.0400000000009,3676.6799999999998,2254.8800000000001,-2034.9300000000001,-605.19799999999998,315.55799999999999
171583.0,7276.4799999999996,9170.2000000000007,3730.3200000000002,2317.23,-2117.6799999999998,-208.494,170.196
171584.0,7330.3800000000001,9224.25,3747.9899999999998,2374.27,-2177.6199999999999,189.536,20.8523
171585.0,7377.4899999999998,9249.2700000000004,3790.0700000000002,2485.5300000000002,-2215.27,585.12,-131.048
171586.0,7417.4200000000001,9188.6100000000006,3796.2600000000002,2597.4000000000001,-2232.1199999999999,974.62099999999998,-284.02800000000002
171587.0,7450.6700000000001,9097.2299999999996,3821.75,2763.5100000000002,-2229.1399999999999,1354.05,-436.54899999999998
171588.0,7478.1599999999999,8924.3600000000006,3808.54,2939.3000000000002,-2210.52,1717.73,-588.178
171589.0,7503.1300000000001,8736.25,3820.77,3188.0999999999999,-2180.7600000000002,2059.4299999999998,-737.99699999999996
171590.0,7530.4799999999996,8476.3500000000004,3786.1700000000001,3460.7199999999998,-2151.6399999999999,2368.5599999999999,-886.76999999999998
171591.0,6938.0100000000002,7669.7700000000004,3596.5799999999999,1727.79,-1147.2,-2195.27,823.59199999999998
171592.0,6989.8400000000001,8085.3900000000003,3607.5900000000001,1755.3099999999999,-1383.52,-1806.3599999999999,718.99400000000003
171593.0,7048.0200000000004,8458.1499999999996,3681.0300000000002,1814.55,-1566.7,-1414.04,603.14300000000003
171594.0,7107.21,8691.6700000000001,3695.6900000000001,1802.23,-1706.25,-1015.37,476.416
171595.0,7163.9300000000003,8919.2299999999996,3771.2199999999998,1860.74,-1813.76,-609.46600000000001,342.14299999999997
171596.0,7217.1300000000001,9017.2900000000009,3778.5999999999999,1871.4000000000001,-1895.04,-198.714,202.01400000000001
171597.0,7265.3500000000004,9120.1000000000004,3846.1900000000001,1973.79,-1953.02,214.11199999999999,57.794899999999998
171598.0,7308.2799999999997,9092.8299999999999,3839.8499999999999,2032.71,-1988.52,625.09000000000003,-88.820899999999995
171599.0,7345.1499999999996,9068.9500000000007,3888.8699999999999,2185.0900000000001,-2003.0899999999999,1030.3099999999999,-236.5
171600.0,7376.7600000000002,8931.3600000000006,3876.52,2312.6199999999999,-1997.96,1425.6099999999999,-383.57999999999998
171601.0,7403.3199999999997,8787.2900000000009,3902.1799999999998,2528.9099999999999,-1977.72,1805.0,-529.86099999999999
171602.0,7428.3599999999997,8556.6599999999999,3882.4099999999999,2750.79,-1947.0699999999999,2162.1500000000001,-674.28800000000001
171603.0,7455.4200000000001,8301.7600000000002,3862.5599999999999,3047.4299999999998,-1918.54,2486.1999999999998,-818.10299999999995
171604.0,6977.0600000000004,7423.7799999999997,3643.3400000000001,1245.6900000000001,-896.84299999999996,-2243.1199999999999,830.08100000000002
171605.0,7001.7299999999996,7906.3599999999997,3697.54,1326.4300000000001,-1139.99,-1844.4000000000001,731.25300000000004
171606.0,7040.7600000000002,8253.9599999999991,3732.6999999999998,1347.77,-1325.3900000000001,-1441.46,620.83000000000004
171607.0,7086.2299999999996,8532.3799999999992,3784.1300000000001,1369.6400000000001,-1464.8099999999999,-1030.8800000000001,499.77100000000002
171608.0,7132.6000000000004,8727.6900000000005,3824.7399999999998,1386.76,-1570.5799999999999,-612.22400000000005,371.22399999999999
171609.0,7177.6499999999996,8863.3700000000008,3869.4299999999998,1428.99,-1649.45,-187.66499999999999,236.86799999999999
171610.0,7219.6099999999997,8925.8799999999992,3899.7199999999998,1487.6600000000001,-1704.6600000000001,239.62799999999999,98.618499999999997
171611.0,7258.04,8934.2299999999996,3934.1300000000001,1582.5699999999999,-1737.3900000000001,665.68799999999999,-42.0062
171612.0,7291.8100000000004,8871.0400000000009,3951.6999999999998,1699.46,-1749.03,1086.3,-183.495
171613.0,7321.8999999999996,8753.8400000000001,3969.46,1855.22,-1741.1600000000001,1497.1199999999999,-324.33300000000003
171614.0,7347.6800000000003,8570.1900000000005,3966.7600000000002,2043.47,-1718.45,1891.9400000000001,-464.21699999999998
171615.0,7372.7799999999997,8353.0300000000007,3972.3899999999999,2294.48,-1686.6199999999999,2264.1799999999998,-602.39200000000005
171616.0,7398.8100000000004,8082.8800000000001,3948.3099999999999,2594.8600000000001,-1658.4000000000001,2602.8899999999999,-740.28700000000003
171617.0,7061.4200000000001,7206.6899999999996,3762.96,796.38800000000003,-625.82000000000005,-2288.4299999999998,837.06500000000005
171618.0,7051.9799999999996,7623.8100000000004,3725.4400000000001,798.56399999999996,-875.47799999999995,-1879.28,744.29999999999995
171619.0,7069.3199999999997,8054.2200000000003,3832.54,889.66200000000003,-1062.2,-1466.8699999999999,639.88499999999999
171620.0,7098.4200000000001,8283.5799999999999,3826.96,852.99800000000005,-1201.3,-1044.23,525.09699999999998
171621.0,7133.6800000000003,8528.2199999999993,3916.3800000000001,909.88900000000001,-1303.8199999999999,-613.48699999999997,402.887
171622.0,7169.6800000000003,8622.0900000000001,3920.1199999999999,905.35199999999998,-1379.8900000000001,-175.32499999999999,275.09100000000001
171623.0,7205.4399999999996,8719.7700000000004,3990.6100000000001,995.52499999999998,-1431.1600000000001,265.952,143.55500000000001
171624.0,7239.2200000000003,8684.8999999999996,3988.1900000000001,1048.24,-1460.25,706.75,9.7998200000000004
171625.0,7270.5600000000004,8640.9400000000005,4034.5300000000002,1187.9000000000001,-1467.9400000000001,1142.3499999999999,-124.59399999999999
171626.0,7299.71,8490.4799999999996,4030.0500000000002,1318.6300000000001,-1456.7,1568.29,-258.197
171627.0,7325.5699999999997,8316.8400000000001,4050.48,1528.3099999999999,-1431.0599999999999,1978.0799999999999,-390.78100000000001
171628.0,7351.0299999999997,8070.3299999999999,4039.6199999999999,1765.6300000000001,-1397.3599999999999,2365.04,-521.56799999999998
171629.0,7375.6000000000004,7787.0600000000004,4014.4899999999998,2071.3800000000001,-1368.8,2718.0100000000002,-652.52800000000002
171630.0,7202.7600000000002,6925.4899999999998,3863.8299999999999,287.78500000000003,-333.29399999999998,-2330.5999999999999,844.76099999999997
171631.0,7152.4200000000001,7313.5,3771.71,249.08099999999999,-589.70600000000002,-1911.28,758.35000000000002
171632.0,7146.0,7793.2200000000003,3917.1900000000001,376.14400000000001,-776.79100000000005,-1489.6500000000001,660.83399999999995
171633.0,7156.2200000000003,8002.9499999999998,3886.4699999999998,311.30900000000003,-914.44299999999998,-1055.6700000000001,552.375
171634.0,7180.5500000000002,8262.2000000000007,3990.7800000000002,373.55799999999999,-1013.05,-612.98099999999999,437.53199999999998
171635.0,7207.0100000000002,8348.2700000000004,3990.04,356.762,-1084.99,-161.89500000000001,316.85899999999998
171636.0,7237.3999999999996,8435.7900000000009,4056.8200000000002,433.50900000000001,-1131.4400000000001,293.07400000000001,192.922
171637.0,7267.2200000000003,8405.3899999999994,4067.54,492.06999999999999,-1156.1300000000001,747.97799999999995,66.897599999999997
171638.0,7297.4799999999996,8340.6700000000001,4104.5200000000004,614.88,-1159.1800000000001,1198.1199999999999,-59.506700000000002
171639.0,7326.9099999999999,8188.3299999999999,4111.0600000000004,752.05999999999995,-1143.6600000000001,1638.5699999999999,-184.87700000000001
171640.0,7354.25,7986.3900000000003,4117.7700000000004,944.89800000000002,-1114.1700000000001,2062.8699999999999,-309.065
171641.0,7380.9300000000003,7738.7600000000002,4120.4799999999996,1196.6700000000001,-1078.1099999999999,2463.9400000000001,-431.42399999999998
171642.0,7404.0500000000002,7447.1199999999999,4100.4099999999999,1512.4400000000001,-1048.8399999999999,2830.6900000000001,-554.41099999999994
171643.0,7411.0299999999997,6527.6599999999999,3893.3099999999999,-330.803,-19.401499999999999,-2368.2199999999998,853.64800000000002
171644.0,7316.7700000000004,7004.75,3870.6199999999999,-292.38799999999998,-280.79500000000002,-1941.0,773.59500000000003
171645.0,7282.4799999999996,7441.6700000000001,3959.6900000000001,-219.53999999999999,-468.59199999999998,-1509.1099999999999,683.471
171646.0,7274.75,7697.5900000000001,3973.5500000000002,-247.91999999999999,-602.84100000000001,-1065.3800000000001,582.08299999999997
171647.0,7286.9799999999996,7921.9200000000001,4043.8800000000001,-227.27699999999999,-697.31100000000004,-610.53399999999999,475.202
171648.0,7306.0900000000001,8027.6700000000001,4069.0599999999999,-230.02699999999999,-763.404,-147.44900000000001,362.52499999999998
171649.0,7331.5699999999997,8092.21,4120.9099999999999,-177.52500000000001,-804.56200000000001,320.85000000000002,246.97399999999999
171650.0,7359.8699999999999,8058.4499999999998,4139.3800000000001,-121.76000000000001,-823.12099999999998,789.17899999999997,129.691
171651.0,7390.6199999999999,7972.3299999999999,4167.8599999999997,-15.318899999999999,-820.77999999999997,1253.28,12.2554
171652.0,7423.0200000000004,7813.9799999999996,4183.6599999999999,123.69499999999999,-799.96900000000005,1707.5999999999999,-103.79600000000001
171653.0,7453.7700000000004,7591.9899999999998,4186.6000000000004,308.57499999999999,-766.23400000000004,2145.6900000000001,-218.559
171654.0,7483.6400000000003,7334.2299999999996,4195.6199999999999,565.18799999999999,-726.87,2560.29,-331.23500000000001
171655.0,7505.6899999999996,7006.4899999999998,4153.9799999999996,863.096,-696.26099999999997,2940.0999999999999,-445.16300000000001
171656.0,7695.3900000000003,6060.0500000000002,3904.75,-1009.3,316.26100000000002,-2401.25,863.42499999999995
171657.0,7558.2200000000003,6657.3699999999999,3982.79,-865.74800000000005,51.666200000000003,-1967.48,790.83699999999999
171658.0,7491.5299999999997,7028.7200000000003,3994.9200000000001,-866.02300000000002,-136.72999999999999,-1525.9100000000001,707.56500000000005
171659.0,7468.4399999999996,7342.6999999999998,4065.9699999999998,-847.58699999999999,-266.072,-1072.52,614.78999999999996
171660.0,7468.4899999999998,7519.5500000000002,4092.9400000000001,-878.86300000000006,-355.29000000000002,-606.64099999999996,515.96900000000005
171661.0,7483.3400000000001,7651.29,4152.1700000000001,-861.42499999999995,-414.30099999999999,-131.715,412.42200000000003
171662.0,7505.79,7676.2200000000003,4174.96,-848.78200000000004,-448.90199999999999,348.88099999999997,306.05900000000003
171663.0,7535.9200000000001,7656.1700000000001,4220.79,-778.38599999999997,-460.62099999999998,830.202,198.44800000000001
171664.0,7569.8400000000001,7537.9300000000003,4232.5500000000002,-698.39200000000005,-451.84100000000001,1307.25,91.041300000000007
171665.0,7608.7600000000002,7373.5500000000002,4259.8599999999997,-557.45399999999995,-424.75799999999998,1774.8299999999999,-14.641500000000001
171666.0,7645.7399999999998,7122.96,4252.3800000000001,-389.02600000000001,-385.70499999999998,2225.7800000000002,-118.712
171667.0,7681.5299999999997,6853.3400000000001,4268.1400000000003,-129.381,-342.44999999999999,2653.1900000000001,-220.58500000000001
171668.0,7703.71,6523.6599999999999,4240.7399999999998,184.53399999999999,-309.86599999999999,3045.1700000000001,-324.24799999999999
171669.0,8068.6099999999997,5630.3599999999997,4012.21,-1639.95,675.42200000000003,-2431.0300000000002,874.21600000000001
171670.0,7885.25,6180.9899999999998,4019.9400000000001,-1557.9100000000001,407.90199999999999,-1989.46,809.85299999999995
171671.0,7787.8599999999997,6613.5200000000004,4085.48,-1504.5899999999999,220.49700000000001,-1540.3299999999999,733.76599999999996
171672.0,7749.4200000000001,6883.6999999999998,4113.6400000000003,-1538.5599999999999,96.385599999999997,-1076.9100000000001,650.35799999999995
171673.0,7741.5600000000004,7087.21,4173.6499999999996,-1548.6199999999999,14.407500000000001,-601.19100000000003,560.21699999999998
171674.0,7754.2299999999996,7181.6700000000001,4206.6999999999998,-1571.6800000000001,-36.859499999999997,-114.93600000000001,466.83499999999998
171675.0,7778.3500000000004,7217.71,4253.9300000000003,-1548.72,-63.328099999999999,377.11799999999999,370.41399999999999
171676.0,7813.4899999999998,7158.54,4276.5500000000002,-1514.97,-66.910799999999995,870.58699999999999,273.69
171677.0,7855.5,7038.1099999999997,4304.1700000000001,-1431.96,-50.417400000000001,1359.8,177.26499999999999
171678.0,7904.4700000000003,6843.1800000000003,4320.8299999999999,-1312.55,-16.2745,1839.6199999999999,83.198800000000006
171679.0,7952.1899999999996,6584.2299999999996,4325.8800000000001,-1140.74,28.9209,2302.5300000000002,-9.0674200000000003
171680.0,7996.9399999999996,6286.1199999999999,4333.5699999999997,-894.46900000000005,76.950100000000006,2741.7199999999998,-98.787099999999995
171681.0,8021.8900000000003,5928.71,4296.3800000000001,-591.17899999999997,112.393,3144.98,-190.904
171682.0,8538.2700000000004,5072.71,4044.3200000000002,-2390.9899999999998,1058.51,-2455.3499999999999,887.98900000000003
171683.0,8308.25,5695.9899999999998,4111.8199999999997,-2244.96,788.65800000000002,-2008.95,829.65800000000002
171684.0,8180.7399999999998,6103.3400000000001,4139.4899999999998,-2225.8899999999999,602.78800000000001,-1550.3299999999999,763.43700000000001
171685.0,8131.8199999999997,6384.04,4185.9700000000003,-2256.5500000000002,486.19499999999999,-1079.8099999999999,688.17700000000002
171686.0,8118.0799999999999,6574.6800000000003,4239.3500000000004,-2282.9699999999998,411.82900000000001,-593.34500000000003,608.85000000000002
171687.0,8135.0900000000001,6650.8599999999997,4270.2600000000002,-2327.8899999999999,370.49700000000001,-97.709299999999999,525.62900000000002
171688.0,8163.9899999999998,6676.1300000000001,4321.4399999999996,-2314.1700000000001,353.06099999999998,405.67899999999997,440.63400000000001
171689.0,8210.5699999999997,6592.8000000000002,4340.3800000000001,-2302.5599999999999,358.91899999999998,909.76599999999996,355.517
171690.0,8264.4799999999996,6461.6700000000001,4377.4700000000003,-2223.21,384.089,1410.45,271.375
171691.0,8329.4599999999991,6231.8599999999997,4382.4200000000001,-2130.3600000000001,426.68299999999999,1901.1900000000001,190.03899999999999
171692.0,8391.9200000000001,5958.79,4396.2299999999996,-1960.0,478.99799999999999,2375.1300000000001,110.943
171693.0,8450.3199999999997,5628.2399999999998,4394.8199999999997,-1731.8699999999999,532.68399999999997,2824.8000000000002,34.606200000000001
171694.0,8480.7999999999993,5277.75,4384.3900000000003,-1404.3199999999999,571.64200000000005,3238.2600000000002,-44.6355
171695.0,9106.5400000000009,4316.8999999999996,3942.3200000000002,-3326.21,1464.3499999999999,-2473.73,902.48400000000004
171696.0,8835.4599999999991,5263.3900000000003,4315.5299999999997,-2867.5799999999999,1194.8399999999999,-2024.4300000000001,853.11800000000005
171697.0,8679.4099999999999,5428.25,4097.4399999999996,-3096.2600000000002,1011.35,-1557.55,794.14599999999996
171698.0,8624.3600000000006,5900.54,4338.5100000000002,-2942.9699999999998,903.80600000000004,-1079.3099999999999,730.404
171699.0,8610.6800000000003,5916.5799999999999,4233.4499999999998,-3145.3499999999999,838.37300000000005,-584.58799999999997,661.01099999999997
171700.0,8636.6299999999992,6105.54,4391.6899999999996,-3079.9899999999998,808.49800000000005,-79.051599999999993,589.61099999999999
171701.0,8676.9500000000007,6009.3199999999997,4342.9300000000003,-3185.3899999999999,801.428,433.41899999999998,516.89599999999996
171702.0,8740.2800000000007,5981.0600000000004,4438.21,-3115.6100000000001,818.298,948.01599999999996,444.37799999999999
171703.0,8812.1599999999999,5761.75,4411.75,-3117.0999999999999,853.44899999999996,1458.26,373.90300000000002
171704.0,8898.5400000000009,5558.2700000000004,4468.6999999999998,-2988.8200000000002,905.49199999999996,1959.21,306.31700000000001
171705.0,8980.7800000000007,5221.0799999999999,4444.6599999999999,-2869.8299999999999,965.88400000000001,2442.4299999999998,241.84299999999999
171706.0,9057.75,4896.3999999999996,4474.7399999999998,-2621.5900000000001,1026.25,2901.5999999999999,180.16900000000001
171707.0,9097.6100000000006,4481.6899999999996,4422.3400000000001,-2341.54,1069.5599999999999,3323.6399999999999,115.215
171708.0,9789.2399999999998,4005.5100000000002,4368.3500000000004,-3799.1300000000001,1897.1600000000001,-2492.52,916.09900000000005
171709.0,9461.5699999999997,4367.9099999999999,4111.3900000000003,-3937.3400000000001,1624.3800000000001,-2030.5999999999999,879.98199999999997
171710.0,9298.5200000000004,4995.9099999999999,4373.04,-3710.1799999999998,1449.6300000000001,-1564.5799999999999,827.29300000000001
171711.0,9227.4099999999999,5100.7700000000004,4244.6400000000003,-3922.8400000000001,1346.74,-1074.24,776.51900000000001
171712.0,9232.6800000000003,5374.96,4421.0100000000002,-3875.6599999999999,1297.1600000000001,-575.072,717.15999999999997
171713.0,9263.75,5330.71,4362.3299999999999,-4036.7600000000002,1276.26,-59.439,659.27599999999995
171714.0,9329.9599999999991,5369.3999999999996,4475.3000000000002,-4010.1999999999998,1283.8800000000001,460.56299999999999,599.13400000000001
171715.0,9409.9599999999991,5196.6400000000003,4449.9099999999999,-4075.4200000000001,1311.1900000000001,984.33399999999995,540.95000000000005
171716.0,9510.8299999999999,5041.8199999999997,4517.5299999999997,-4008.2800000000002,1358.8499999999999,1502.99,484.85399999999998
171717.0,9620.6100000000006,4736.4499999999998,4500.3100000000004,-3969.23,1420.8099999999999,2012.4200000000001,432.67099999999999
171718.0,9731.1100000000006,4423.8299999999999,4531.1700000000001,-3815.0900000000001,1491.0799999999999,2503.7800000000002,383.93599999999998
171719.0,9829.2999999999993,4027.4499999999998,4517.3900000000003,-3622.5900000000001,1558.54,2970.5900000000001,338.488
171720.0,9885.0,3640.9099999999999,4518.5,-3299.52,1607.5699999999999,3399.9499999999998,289.13600000000002
171721.0,10589.5,3414.1199999999999,4570.0799999999999,-4546.6999999999998,2360.6500000000001,-2508.25,936.70799999999997
171722.0,10194.299999999999,3570.0799999999999,4087.1100000000001,-4884.1000000000004,2077.6500000000001,-2033.5799999999999,904.75999999999999
171723.0,10033.4,4356.6599999999999,4505.1400000000003,-4515.5799999999999,1915.0999999999999,-1565.1300000000001,868.02300000000002
171724.0,9955.3500000000004,4329.0799999999999,4262.4099999999999,-4853.3500000000004,1820.04,-1069.1199999999999,823.21199999999999
171725.0,9980.3600000000006,4668.6199999999999,4520.0299999999997,-4747.0699999999997,1784.96,-561.86300000000006,779.76800000000003
171726.0,10029.4,4533.3699999999999,4398.21,-4993.54,1777.3299999999999,-40.7898,733.601
171727.0,10123.299999999999,4598.0299999999997,4563.4399999999996,-4939.3199999999997,1799.3199999999999,487.78699999999998,688.46199999999999
171728.0,10230.299999999999,4347.8699999999999,4491.2299999999996,-5074.29,1839.8900000000001,1017.71,645.12699999999995
171729.0,10363.799999999999,4197.2200000000003,4594.6300000000001,-4995.46,1900.76,1544.3699999999999,604.96799999999996
171730.0,10504.6,3830.8499999999999,4549.2399999999998,-5005.9399999999996,1974.24,2059.8499999999999,569.27999999999997
171731.0,10647.5,3510.71,4605.71,-4846.8500000000004,2055.0999999999999,2558.1700000000001,537.83100000000002
171732.0,10773.200000000001,3063.9000000000001,4572.8999999999996,-4690.3100000000004,2131.0,3030.52,509.85399999999998
171733.0,10848.9,2646.1199999999999,4570.3999999999996,-4383.1000000000004,2186.5100000000002,3465.6399999999999,477.67599999999999
171734.0,11473.299999999999,2260.2199999999998,4258.4700000000003,-5839.1700000000001,2841.77,-2506.5700000000002,963.28499999999997
171735.0,11059.9,3068.71,4446.3999999999996,-5520.9899999999998,2563.3000000000002,-2039.99,932.91499999999996
171736.0,10869.9,3362.75,4354.8400000000001,-5645.3900000000003,2403.1999999999998,-1557.0699999999999,910.51400000000001
171737.0,10820.0,3687.1799999999998,4492.6300000000001,-5639.3100000000004,2326.4699999999998,-1063.3800000000001,875.37900000000002
171738.0,10850.700000000001,3719.7800000000002,4461.8500000000004,-5828.5799999999999,2301.1199999999999,-546.37300000000005,846.52200000000005
171739.0,10940.1,3765.5700000000002,4554.3999999999996,-5898.8999999999996,2312.9699999999998,-21.903600000000001,814.01599999999996
171740.0,11057.299999999999,3633.1500000000001,4552.21,-6029.2600000000002,2348.0,513.48800000000006,784.76400000000001
171741.0,11206.5,3476.4400000000001,4610.2799999999997,-6068.2600000000002,2405.3200000000002,1048.5799999999999,757.31500000000005
171742.0,11372.4,3191.8200000000002,4614.0200000000004,-6110.04,2479.23,1580.74,734.51400000000001
171743.0,11554.9,2862.5300000000002,4643.8100000000004,-6074.6800000000003,2566.71,2101.25,716.49599999999998
171744.0,11732.1,2445.5599999999999,4639.0799999999999,-5997.2799999999997,2658.5100000000002,2603.9099999999999,703.81799999999998
171745.0,11893.1,2010.3299999999999,4653.75,-5816.3800000000001,2744.4200000000001,3080.4299999999998,694.68600000000004
171746.0,11991.9,1543.55,4632.6199999999999,-5542.0,2806.79,3518.75,681.04700000000003
171747.0,12448.1,1293.53,4222.6700000000001,-6905.6499999999996,3342.1799999999998,-2496.77,986.77999999999997
171748.0,12044.9,2278.27,4583.6800000000003,-6437.6899999999996,3077.7600000000002,-2038.25,969.81700000000001
171749.0,11824.799999999999,2461.25,4386.1499999999996,-6653.6300000000001,2919.8400000000001,-1549.03,952.03200000000004
171750.0,11807.299999999999,2816.6700000000001,4576.0100000000002,-6628.2600000000002,2860.96,-1051.4200000000001,934.76199999999994
171751.0,11856.9,2791.9400000000001,4517.75,-6862.1400000000003,2850.4899999999998,-531.65899999999999,916.899
171752.0,11987.6,2813.4299999999998,4621.04,-6956.25,2880.4899999999998,-1.62666,901.32899999999995
171753.0,12139.9,2644.1700000000001,4618.5799999999999,-7112.5699999999997,2932.1399999999999,536.678,887.88400000000001
171754.0,12334.1,2437.8699999999999,4667.0299999999997,-7194.3500000000004,3006.6700000000001,1076.55,878.14300000000003
171755.0,12541.299999999999,2122.4400000000001,4679.9099999999999,-7254.6000000000004,3095.8699999999999,1611.4300000000001,873.60400000000004
171756.0,12769.4,1742.4300000000001,4700.6999999999998,-7258.6800000000003,3197.9899999999998,2135.4499999999998,874.79200000000003
171757.0,12987.6,1296.78,4707.5900000000001,-7195.6599999999999,3302.1700000000001,2640.02,882.07299999999998
171758.0,13188.0,813.06799999999998,4713.04,-7049.46,3398.98,3118.6900000000001,893.35299999999995
171759.0,13316.299999999999,301.84500000000003,4681.1800000000003,-6804.8400000000001,3469.5799999999999,3557.8699999999999,899.69399999999996
171760.0,13553.9,458.11200000000002,4413.1300000000001,-7824.1800000000003,3874.0300000000002,-2491.1100000000001,1012.0599999999999
171761.0,13121.4,1268.3599999999999,4574.5600000000004,-7540.5799999999999,3613.4299999999998,-2024.3399999999999,1009.14
171762.0,12912.5,1561.8299999999999,4509.3800000000001,-7642.5500000000002,3468.21,-1540.0,999.10900000000004
171763.0,12909.200000000001,1808.8499999999999,4610.96,-7717.6499999999996,3422.79,-1035.3399999999999,997.43100000000004
171764.0,13002.200000000001,1796.5999999999999,4603.3900000000003,-7937.3599999999997,3432.6799999999998,-515.73199999999997,993.32799999999997
171765.0,13169.299999999999,1748.27,4674.6000000000004,-8088.9200000000001,3480.4699999999998,18.224799999999998,994.76499999999999
171766.0,13372.200000000001,1545.1400000000001,4682.5600000000004,-8272.8799999999992,3551.9200000000001,558.12,998.57899999999995
171767.0,13611.700000000001,1296.8800000000001,4732.8000000000002,-8383.1200000000008,3643.96,1100.0799999999999,1007.55
171768.0,13870.700000000001,927.79399999999998,4738.3100000000004,-8486.7099999999991,3750.6599999999999,1636.1800000000001,1022.58
171769.0,14146.799999999999,510.59500000000003,4767.1700000000001,-8513.4799999999996,3868.1900000000001,2160.8800000000001,1044.25
171770.0,14413.9,7.3390000000000004,4761.9700000000003,-8494.7700000000004,3986.3899999999999,2665.52,1072.9400000000001
171771.0,14657.200000000001,-506.86099999999999,4779.5600000000004,-8364.3299999999999,4094.6100000000001,3143.4499999999998,1105.9200000000001
171772.0,14821.299999999999,-1048.54,4755.21,-8136.4200000000001,4174.5,3581.3899999999999,1133.6199999999999
171773.0,14780.200000000001,-409.089,4652.7799999999997,-8765.3999999999996,4434.54,-2479.29,1044.0899999999999
171774.0,14301.200000000001,139.33799999999999,4534.3900000000003,-8726.7000000000007,4173.6599999999999,-2006.25,1048.78
171775.0,14120.200000000001,603.10400000000004,4661.1800000000003,-8665.75,4045.1399999999999,-1524.29,1052.98
171776.0,14134.799999999999,677.93899999999996,4619.1800000000003,-8896.75,4014.4499999999998,-1018.1,1063.3499999999999
171777.0,14278.5,725.67200000000003,4714.3299999999999,-9053.1800000000003,4046.3200000000002,-497.44499999999999,1076.1099999999999
171778.0,14489.5,555.101,4707.5500000000002,-9312.3500000000004,4113.5900000000001,36.802199999999999,1094.5799999999999
171779.0,14749.1,363.71800000000002,4776.96,-9475.4799999999996,4206.46,577.29399999999998,1117.04
171780.0,15040.799999999999,12.845800000000001,4773.0799999999999,-9673.9599999999991,4317.6499999999996,1118.6300000000001,1145.8399999999999
171781.0,15357.5,-367.32900000000001,4819.6499999999996,-9776.0100000000002,4443.1700000000001,1654.0,1181.6300000000001
171782.0,15687.299999999999,-865.26499999999999,4818.0500000000002,-9868.3999999999996,4577.1599999999999,2176.6199999999999,1225.02
171783.0,16008.1,-1392.3299999999999,4839.2200000000003,-9859.3099999999995,4710.2299999999996,2678.96,1276.3800000000001
171784.0,16299.799999999999,-1971.53,4838.5100000000002,-9779.3799999999992,4831.0299999999997,3153.4200000000001,1332.3699999999999
171785.0,16505.200000000001,-2560.4000000000001,4808.7299999999996,-9585.3199999999997,4921.2700000000004,3587.3699999999999,1382.8699999999999
171786.0,16097.200000000001,-1572.1800000000001,4670.8100000000004,-9973.5599999999995,5017.7600000000002,-2454.48,1080.8399999999999
171787.0,15601.299999999999,-925.255,4655.2299999999996,-9823.1700000000001,4761.8299999999999,-1985.55,1092.25
171788.0,15435.4,-558.52999999999997,4700.9399999999996,-9854.6700000000001,4647.7600000000002,-1501.8699999999999,1111.4100000000001
171789.0,15489.200000000001,-464.78500000000003,4717.6300000000001,-10056.299999999999,4636.8999999999996,-998.98099999999999,1134.1300000000001
171790.0,15679.9,-511.64999999999998,4762.5500000000002,-10294.5,4689.9099999999999,-477.55900000000003,1164.97
171791.0,15949.4,-700.96299999999997,4790.2600000000002,-10560.0,4780.3699999999999,54.378599999999999,1201.04
171792.0,16267.299999999999,-979.846,4826.3299999999999,-10795.4,4894.96,593.42399999999998,1243.5699999999999
171793.0,16621.299999999999,-1355.8699999999999,4854.7700000000004,-11004.299999999999,5027.3800000000001,1131.52,1293.0
171794.0,16999.0,-1818.3199999999999,4874.8199999999997,-11173.299999999999,5172.4300000000003,1663.5699999999999,1350.8900000000001
171795.0,17389.700000000001,-2353.2399999999998,4892.4700000000003,-11287.4,5324.3500000000004,2181.6599999999999,1417.0699999999999
171796.0,17768.700000000001,-2950.8200000000002,4897.6099999999997,-11333.299999999999,5473.1099999999997,2678.7600000000002,1492.45
171797.0,18114.599999999999,-3568.54,4910.0799999999999,-11277.799999999999,5607.3000000000002,3146.9899999999998,1572.49
171798.0,18365.900000000001,-4193.2200000000003,4890.2600000000002,-11106.0,5708.4300000000003,3573.9099999999999,1647.0899999999999
171799.0,17504.200000000001,-2859.1199999999999,4652.1800000000003,-11267.9,5620.9499999999998,-2419.1500000000001,1120.4200000000001
171800.0,17016.5,-2052.6900000000001,4806.29,-10956.200000000001,5377.6199999999999,-1958.3299999999999,1142.0699999999999
171801.0,16861.799999999999,-1833.74,4725.3699999999999,-11118.5,5276.8699999999999,-1475.51,1172.4400000000001
171802.0,16966.599999999999,-1703.6500000000001,4823.7200000000003,-11274.9,5288.7200000000003,-976.05899999999997,1211.5799999999999
171803.0,17209.400000000001,-1859.0599999999999,4813.6099999999997,-11602.1,5363.8900000000003,-457.57100000000003,1259.25
171804.0,17545.200000000001,-2070.9200000000001,4877.71,-11876.4,5479.1800000000003,70.936599999999999,1314.8499999999999
171805.0,17927.0,-2430.7399999999998,4893.3100000000004,-12174.200000000001,5616.6800000000003,605.24599999999998,1377.97
171806.0,18349.599999999999,-2866.29,4923.2700000000004,-12427.6,5771.8299999999999,1138.3900000000001,1449.3299999999999
171807.0,18793.900000000001,-3389.8899999999999,4945.0100000000002,-12639.6,5937.3100000000004,1664.0,1530.29
171808.0,19251.5,-3985.3600000000001,4963.8100000000004,-12798.299999999999,6108.1899999999996,2174.79,1620.3099999999999
171809.0,19693.200000000001,-4640.2600000000002,4970.8400000000001,-12885.1,6273.1700000000001,2663.7399999999998,1720.75
171810.0,20098.700000000001,-5312.3199999999997,4985.4700000000003,-12869.700000000001,6421.8000000000002,3122.73,1825.9300000000001
171811.0,20401.400000000001,-6007.29,4945.4799999999996,-12755.0,6534.7600000000002,3539.3400000000001,1925.8599999999999
171812.0,19017.400000000001,-4094.3200000000002,4783.8199999999997,-12477.5,6248.3800000000001,-2377.0100000000002,1162.9000000000001
171813.0,18533.599999999999,-3380.8099999999999,4849.3900000000003,-12253.299999999999,6017.6099999999997,-1921.8800000000001,1196.8399999999999
171814.0,18405.5,-3126.6700000000001,4837.7600000000002,-12362.299999999999,5933.1400000000003,-1445.5899999999999,1238.4000000000001
171815.0,18560.299999999999,-3099.0300000000002,4880.7700000000004,-12605.700000000001,5967.54,-949.88400000000001,1294.3699999999999
171816.0,18867.200000000001,-3286.0,4897.7700000000004,-12946.9,6068.4399999999996,-436.976,1359.98
171817.0,19271.900000000001,-3583.6199999999999,4941.79,-13286.6,6208.7600000000002,85.898200000000003,1435.9300000000001
171818.0,19727.299999999999,-4007.4699999999998,4961.8900000000003,-13629.200000000001,6371.1999999999998,612.92899999999997,1520.6700000000001
171819.0,20223.900000000001,-4497.9799999999996,5008.1999999999998,-13916.6,6549.4799999999996,1137.6800000000001,1614.8199999999999
171820.0,20741.599999999999,-5103.1400000000003,5015.6199999999999,-14192.700000000001,6736.6899999999996,1653.96,1719.74
171821.0,21270.0,-5757.3100000000004,5042.4799999999996,-14391.799999999999,6926.8400000000001,2154.8499999999999,1834.6199999999999
171822.0,21780.799999999999,-6479.8000000000002,5047.3800000000001,-14529.4,7109.1499999999996,2632.1999999999998,1960.97
171823.0,22250.200000000001,-7210.3000000000002,5064.3500000000004,-14557.6,7272.46,3078.7800000000002,2092.1999999999998
171824.0,22609.900000000001,-7939.54,5044.8400000000001,-14464.200000000001,7397.9099999999999,3481.9099999999999,2218.3800000000001
171825.0,20636.299999999999,-5474.6400000000003,4866.75,-13800.6,6900.6899999999996,-2326.0799999999999,1210.99
171826.0,20151.799999999999,-4755.5699999999997,4946.5500000000002,-13553.700000000001,6680.4399999999996,-1878.4300000000001,1254.95
171827.0,20062.200000000001,-4567.6099999999997,4904.0500000000002,-13715.1,6616.7700000000004,-1410.4400000000001,1310.3099999999999
171828.0,20272.099999999999,-4578.6599999999999,4966.5,-13973.700000000001,6673.8900000000003,-921.15599999999995,1382.8900000000001
171829.0,20651.299999999999,-4833.1800000000003,4987.1599999999999,-14359.6,6800.8000000000002,-416.39600000000002,1467.3199999999999
171830.0,21132.0,-5210.1199999999999,5023.8900000000003,-14755.6,6967.8000000000002,97.636300000000006,1564.48
171831.0,21666.400000000001,-5689.6899999999996,5061.9899999999998,-15132.6,7155.9899999999998,614.74599999999998,1671.51
171832.0,22240.599999999999,-6295.75,5063.1000000000004,-15516.200000000001,7358.3999999999996,1128.9000000000001,1789.5
171833.0,22837.5,-6938.0200000000004,5109.6300000000001,-15808.200000000001,7567.71,1633.3199999999999,1919.1099999999999
171834.0,23442.900000000001,-7684.79,5117.21,-16080.6,7778.04,2120.2199999999998,2059.4899999999998
171835.0,24026.599999999999,-8461.2800000000007,5136.9799999999996,-16255.0,7977.6499999999996,2583.6799999999998,2212.5700000000002
171836.0,24565.099999999999,-9264.1299999999992,5148.0900000000001,-16339.700000000001,8156.4300000000003,3014.2600000000002,2370.27
171837.0,24987.799999999999,-10064.200000000001,5117.9300000000003,-16304.0,8295.1599999999999,3400.3699999999999,2523.6999999999998
171838.0,22351.099999999999,-6909.6700000000001,4990.04,-15139.0,7575.2799999999997,-2263.8000000000002,1263.9200000000001
171839.0,21874.400000000001,-6271.0900000000001,5005.3199999999997,-14952.0,7367.5900000000001,-1828.1500000000001,1318.1400000000001
171840.0,21828.0,-6067.4499999999998,5026.2799999999997,-15076.4,7322.8500000000004,-1370.1800000000001,1388.25
171841.0,22100.599999999999,-6185.4200000000001,5039.8100000000004,-15420.299999999999,7406.2700000000004,-891.096,1476.8699999999999
171842.0,22555.299999999999,-6514.1899999999996,5054.04,-15858.200000000001,7561.6099999999997,-395.22399999999999,1582.4000000000001
171843.0,23118.0,-6962.1499999999996,5100.6899999999996,-16298.200000000001,7755.2600000000002,107.294,1700.8499999999999
171844.0,23739.0,-7548.1700000000001,5116.96,-16755.700000000001,7969.8800000000001,611.39400000000001,1831.4400000000001
171845.0,24401.200000000001,-8172.3100000000004,5189.6099999999997,-17130.299999999999,8196.6200000000008,1110.29,1973.4400000000001
171846.0,25082.0,-8942.3899999999994,5186.7200000000003,-17530.099999999999,8428.7700000000004,1599.0599999999999,2128.1799999999998
171847.0,25767.200000000001,-9742.3299999999999,5217.6599999999999,-17835.099999999999,8658.8400000000001,2070.5500000000002,2294.7600000000002
171848.0,26430.700000000001,-10598.9,5235.3400000000001,-18070.099999999999,8876.6399999999994,2515.5,2474.8099999999999
171849.0,27043.0,-11467.200000000001,5251.2600000000002,-18205.0,9071.0200000000004,2927.04,2659.54
171850.0,27533.200000000001,-12314.0,5239.1000000000004,-18201.599999999999,9223.4300000000003,3293.1599999999999,2840.4899999999998
171851.0,24161.400000000001,-8495.6000000000004,5066.3999999999996,-16577.900000000001,8272.0799999999999,-2189.8800000000001,1321.4400000000001
171852.0,23699.400000000001,-7828.1499999999996,5128.1199999999999,-16343.1,8078.6199999999999,-1771.51,1386.0799999999999
171853.0,23703.099999999999,-7743.0900000000001,5071.5699999999997,-16569.599999999999,8058.6899999999996,-1326.7,1471.53
171854.0,24044.700000000001,-7886.6499999999996,5137.5600000000004,-16906.799999999999,8164.4799999999996,-858.18100000000004,1579.6600000000001
171855.0,24587.700000000001,-8273.1000000000004,5191.9700000000003,-17366.599999999999,8346.0300000000007,-377.82400000000001,1704.1300000000001
171856.0,25240.900000000001,-8841.2800000000007,5204.6899999999996,-17899.0,8569.1900000000005,109.44499999999999,1845.72
171857.0,25950.700000000001,-9461.9599999999991,5269.1899999999996,-18367.700000000001,8810.1599999999999,597.61900000000003,2000.22
171858.0,26696.799999999999,-10282.799999999999,5219.0799999999999,-18920.299999999999,9061.0799999999999,1081.8900000000001,2166.8099999999999
171859.0,27466.200000000001,-11055.1,5304.2299999999996,-19294.799999999999,9315.1399999999994,1553.55,2346.8200000000002
171860.0,28240.5,-11970.299999999999,5308.04,-19692.0,9566.6299999999992,2003.01,2539.4299999999998
171861.0,28985.099999999999,-12892.200000000001,5335.7799999999997,-19976.0,9801.8899999999994,2428.5599999999999,2747.5799999999999
171862.0,29675.599999999999,-13842.1,5347.5299999999997,-20173.799999999999,10012.0,2818.3600000000001,2958.4400000000001
171863.0,30241.0,-14763.0,5333.7600000000002,-20228.5,10179.5,3160.2399999999998,3167.4099999999999
171864.0,26063.5,-10103.6,5207.1599999999999,-17992.400000000001,8996.2099999999991,-2110.52,1379.53
171865.0,25618.0,-9579.7000000000007,5147.1199999999999,-17881.0,8814.5699999999997,-1707.6400000000001,1460.6199999999999
171866.0,25687.900000000001,-9421.8400000000001,5247.25,-18001.099999999999,8812.7700000000004,-1281.3900000000001,1561.1199999999999
171867.0,26106.299999999999,-9725.8299999999999,5218.7399999999998,-18473.799999999999,8950.3099999999995,-829.03599999999994,1688.52
171868.0,26734.700000000001,-10251.5,5200.1999999999998,-19055.799999999999,9163.7900000000009,-361.81999999999999,1836.22
171869.0,27473.799999999999,-10856.0,5267.3199999999997,-19591.0,9410.25,109.985,2001.3499999999999
171870.0,28285.900000000001,-11648.6,5270.5900000000001,-20198.299999999999,9674.8400000000001,579.09100000000001,2180.5300000000002
171871.0,29138.799999999999,-12379.700000000001,5434.6800000000003,-20619.099999999999,9949.4099999999999,1039.9400000000001,2368.8000000000002
171872.0,30004.200000000001,-13357.5,5403.7799999999997,-21176.599999999999,10229.299999999999,1486.8900000000001,2574.3000000000002
171873.0,30862.299999999999,-14323.299999999999,5434.5299999999997,-21606.5,10499.1,1916.9300000000001,2795.5700000000002
171874.0,31696.599999999999,-15324.1,5476.3699999999999,-21946.200000000001,10751.299999999999,2318.21,3029.3699999999999
171875.0,32470.700000000001,-16347.0,5494.75,-22200.299999999999,10978.200000000001,2683.3699999999999,3266.5999999999999
171876.0,33114.0,-17339.5,5484.4399999999996,-22307.0,11161.299999999999,3001.0100000000002,3502.6100000000001
171877.0,28042.299999999999,-11809.6,5339.1599999999999,-19454.0,9732.6000000000004,-2024.54,1448.75
171878.0,27620.0,-11363.9,5228.9899999999998,-19392.599999999999,9568.7399999999998,-1643.25,1536.0799999999999
171879.0,27765.099999999999,-11365.6,5212.0299999999997,-19669.700000000001,9603.2099999999991,-1236.5,1654.4300000000001
171880.0,28272.400000000001,-11710.700000000001,5261.2399999999998,-20130.200000000001,9760.5200000000004,-797.71000000000004,1806.3199999999999
171881.0,29024.299999999999,-12177.4,5461.5699999999997,-20595.599999999999,9997.6000000000004,-361.08300000000003,1972.8
171882.0,29873.5,-12997.1,5426.3400000000001,-21314.099999999999,10271.700000000001,87.399900000000002,2165.0100000000002
171883.0,30787.900000000001,-13750.799999999999,5559.4200000000001,-21859.799999999999,10567.299999999999,539.79600000000005,2365.7800000000002
171884.0,31721.400000000001,-14872.6,5385.8400000000001,-22657.599999999999,10872.5,982.57600000000002,2581.4299999999998
171885.0,32674.5,-15782.700000000001,5517.1199999999999,-23120.0,11166.799999999999,1409.1800000000001,2814.9299999999998
171886.0,33632.199999999997,-16858.299999999999,5548.2399999999998,-23629.400000000001,11454.700000000001,1808.55,3058.6399999999999
171887.0,34555.5,-17956.900000000001,5567.8400000000001,-24059.099999999999,11724.700000000001,2187.1999999999998,3322.5100000000002
171888.0,35413.400000000001,-19067.099999999999,5587.79,-24373.5,11965.6,2531.98,3582.1500000000001
171889.0,36143.599999999999,-20126.599999999999,5600.8000000000002,-24515.799999999999,12167.200000000001,2817.71,3844.0799999999999
171890.0,30069.5,-13632.0,5407.29,-20984.900000000001,10477.700000000001,-1944.9200000000001,1519.45
171891.0,29703.299999999999,-13360.5,5203.8199999999997,-21051.900000000001,10333.200000000001,-1578.4000000000001,1623.6099999999999
171892.0,29966.599999999999,-13205.4,5528.2700000000004,-21097.0,10382.799999999999,-1201.1199999999999,1750.55
171893.0,30573.799999999999,-13794.6,5390.2200000000003,-21795.700000000001,10587.4,-797.34100000000001,1914.1900000000001
171894.0,31406.400000000001,-14636.5,5219.1300000000001,-22663.400000000001,10869.700000000001,-361.86099999999999,2118.1700000000001
171895.0,32368.400000000001,-15390.5,5360.1800000000003,-23269.900000000001,11182.5,80.406700000000001,2335.7199999999998
171896.0,33406.699999999997,-16421.599999999999,5368.2600000000002,-24039.299999999999,11498.299999999999,497.79599999999999,2569.9499999999998
171897.0,34457.599999999999,-17196.200000000001,5730.0500000000002,-24431.099999999999,11799.299999999999,906.27300000000002,2790.9400000000001
171898.0,35524.599999999999,-18385.799999999999,5687.8000000000002,-25128.099999999999,12136.1,1293.3599999999999,3044.9699999999998
171899.0,36587.599999999999,-19544.700000000001,5689.1400000000003,-25742.599999999999,12452.4,1664.8299999999999,3346.3099999999999
171900.0,37603.400000000001,-20670.200000000001,5793.75,-26180.900000000001,12723.4,2032.5699999999999,3625.1999999999998
171901.0,38540.199999999997,-21871.700000000001,5815.3800000000001,-26537.799999999999,12982.200000000001,2349.8699999999999,3900.0100000000002
171902.0,39355.199999999997,-23041.200000000001,5795.3299999999999,-26763.200000000001,13203.9,2606.0100000000002,4191.5299999999997
171903.0,32118.599999999999,-15419.200000000001,5611.1999999999998,-22380.099999999999,11198.799999999999,-1866.77,1610.9000000000001
171904.0,31913.299999999999,-15242.1,5457.3599999999997,-22493.599999999999,11127.700000000001,-1550.8699999999999,1694.1800000000001
171905.0,32309.0,-15711.0,5171.0100000000002,-23188.200000000001,11273.0,-1189.29,1851.3499999999999
171906.0,33061.300000000003,-16202.200000000001,5374.0699999999997,-23692.299999999999,11478.299999999999,-802.98599999999999,2050.6399999999999
171907.0,34060.099999999999,-16630.400000000001,5932.8699999999999,-24034.5,11738.299999999999,-426.904,2250.8600000000001
171908.0,35096.0,-17779.900000000001,5775.0100000000002,-25055.400000000001,12030.799999999999,-7.47384,2474.1599999999999
171909.0,36254.800000000003,-18713.099999999999,5953.4700000000003,-25670.400000000001,12430.9,436.42200000000003,2696.0100000000002
171910.0,37519.300000000003,-20171.200000000001,5655.1400000000003,-26681.0,12923.4,779.82399999999996,3018.04
171911.0,38678.099999999999,-21200.0,5775.8699999999999,-27340.299999999999,13250.5,1110.3,3392.4099999999999
171912.0,39737.800000000003,-22453.099999999999,5789.6800000000003,-28062.200000000001,13471.5,1515.0699999999999,3661.9000000000001
171913.0,40802.800000000003,-23741.5,5828.4899999999998,-28570.5,13756.299999999999,1873.1900000000001,3921.73
171914.0,41825.400000000001,-25037.5,5835.0299999999997,-28986.799999999999,14037.6,2153.5300000000002,4228.9700000000003
171915.0,42730.400000000001,-26213.900000000001,5905.54,-29182.400000000001,14272.5,2380.1300000000001,4544.5799999999999
171916.0,34075.099999999999,-17325.799999999999,5524.3500000000004,-23889.5,11941.799999999999,-1814.9200000000001,1654.9100000000001
171917.0,34283.900000000001,-17712.5,5353.8900000000003,-24361.0,11955.0,-1566.4400000000001,1792.4300000000001
171918.0,34933.5,-17538.900000000001,6171.0799999999999,-24284.700000000001,12062.9,-1266.23,1948.0799999999999
171919.0,35873.900000000001,-18612.599999999999,5785.4499999999998,-25444.299999999999,12418.0,-879.73299999999995,2111.6999999999998
171920.0,36976.400000000001,-20081.5,5138.3299999999999,-26833.799999999999,12867.1,-488.75200000000001,2444.27
171921.0,38454.699999999997,-20722.400000000001,5917.5699999999997,-27287.900000000001,13263.1,-82.613,2787.5999999999999
171922.0,39715.599999999999,-21890.400000000001,5889.6700000000001,-28170.200000000001,13753.0,277.214,2830.8899999999999
171923.0,40441.300000000003,-23157.799999999999,5228.6199999999999,-29034.599999999999,14085.299999999999,621.06200000000001,3266.3400000000001
171924.0,41739.199999999997,-24503.0,5355.2799999999997,-30009.400000000001,14241.200000000001,1030.6099999999999,3842.52
171925.0,43179.099999999999,-25505.200000000001,6136.3599999999997,-30366.299999999999,14528.799999999999,1360.1099999999999,3958.04
171926.0,44290.099999999999,-26771.599999999999,6243.71,-30773.599999999999,14856.1,1636.9100000000001,4215.2399999999998
171927.0,45394.099999999999,-28143.400000000001,6230.6899999999996,-31275.400000000001,15142.700000000001,1913.24,4571.4700000000003
171928.0,46358.699999999997,-29523.099999999999,6158.4099999999999,-31609.099999999999,15401.799999999999,2124.6900000000001,4898.6300000000001
171929.0,131888.0,-311170.0,-222627.0,-266173.0,-61442.800000000003,4044.6500000000001,6815.0900000000001
171930.0,152052.0,-344804.0,-256208.0,-287915.0,-70972.199999999997,-13215.700000000001,-21903.0
171931.0,159356.0,-313925.0,-222660.0,-280124.0,-55697.400000000001,-28916.700000000001,-48963.5
171932.0,146580.0,-252939.0,-159782.0,-252931.0,-31265.599999999999,-27669.299999999999,-50262.199999999997
171933.0,124991.0,-195038.0,-107371.0,-213503.0,-15046.5,-17963.700000000001,-37991.5
171934.0,114899.0,-162278.0,-74241.399999999994,-190877.0,-7696.0500000000002,-4964.2399999999998,-24926.599999999999
171935.0,111393.0,-157783.0,-66094.800000000003,-182403.0,-15663.799999999999,8478.8400000000001,-7881.6999999999998
171936.0,120718.0,-170908.0,-80019.600000000006,-190153.0,-32858.699999999997,17502.700000000001,3393.5999999999999
171937.0,150383.0,-225956.0,-136399.0,-231926.0,-55974.300000000003,29933.0,25409.400000000001
171938.0,184706.0,-312037.0,-240530.0,-267607.0,-90459.5,28039.0,33160.099999999999
171939.0,196493.0,-378536.0,-332791.0,-316585.0,-108596.0,-994.68700000000001,-6587.46
171940.0,175724.0,-367731.0,-350539.0,-355428.0,-92515.399999999994,-21857.099999999999,-34317.599999999999
171941.0,127279.0,-321100.0,-343360.0,-350841.0,-62262.099999999999,-19110.799999999999,-30312.099999999999
171942.0,147782.0,-344044.0,-382575.0,-368994.0,-78332.699999999997,21838.400000000001,16881.099999999999
171943.0,178688.0,-380085.0,-458741.0,-383700.0,-90203.699999999997,18033.700000000001,-14471.1
171944.0,190229.0,-380682.0,-440312.0,-387295.0,-81820.0,3571.6700000000001,-65473.0
171945.0,174049.0,-324251.0,-331597.0,-351611.0,-59632.699999999997,-6364.7700000000004,-79376.5
171946.0,142768.0,-239799.0,-217408.0,-285995.0,-35773.400000000001,-7411.6899999999996,-65087.099999999999
171947.0,112584.0,-185775.0,-151622.0,-248847.0,-20212.299999999999,3143.1500000000001,-37063.599999999999
171948.0,85578.100000000006,-166916.0,-152655.0,-234866.0,-17453.0,13193.9,-5713.3000000000002
171949.0,90651.800000000003,-144519.0,-163735.0,-228361.0,-12101.4,22682.900000000001,12208.6
171950.0,153267.0,-198978.0,-243680.0,-288319.0,-20040.599999999999,45364.099999999999,58097.400000000001
171951.0,219748.0,-314484.0,-431937.0,-344053.0,-58270.199999999997,48769.300000000003,81181.100000000006
171952.0,220138.0,-390037.0,-576135.0,-397879.0,-70007.5,12810.6,3175.6900000000001
171953.0,186602.0,-348019.0,-523535.0,-419545.0,-27741.200000000001,-7776.1199999999999,-54658.199999999997
171954.0,139704.0,-261015.0,-399724.0,-354748.0,11988.0,4889.9499999999998,-36468.599999999999
171955.0,181770.0,-248937.0,-426261.0,-362704.0,17464.200000000001,33631.5,38811.199999999997
171956.0,228145.0,-261722.0,-488089.0,-350100.0,29267.900000000001,45121.5,37970.0
171957.0,218558.0,-295962.0,-517172.0,-357935.0,23279.700000000001,48441.900000000001,-3474.0700000000002
171958.0,175439.0,-276211.0,-439996.0,-330754.0,9020.75,35595.599999999999,-44220.900000000001
171959.0,139638.0,-222527.0,-318091.0,-295224.0,11529.9,20428.0,-58816.099999999999
171960.0,107389.0,-158606.0,-205797.0,-247977.0,21851.200000000001,18374.799999999999,-32095.5
171961.0,97949.800000000003,-124547.0,-161819.0,-209831.0,33482.400000000001,15364.4,-3602.4899999999998
171962.0,128289.0,-109412.0,-132016.0,-202022.0,50601.199999999997,16164.0,18243.700000000001
171963.0,195438.0,-148275.0,-179397.0,-245166.0,54280.400000000001,25855.5,81670.899999999994
171964.0,251987.0,-244281.0,-386903.0,-297771.0,49408.800000000003,22154.0,114204.0
171965.0,248335.0,-275482.0,-503402.0,-308033.0,67002.899999999994,5310.9300000000003,29036.400000000001
171966.0,222657.0,-238974.0,-401925.0,-307695.0,92299.100000000006,5212.5100000000002,-35869.5
171967.0,175489.0,-178373.0,-256511.0,-246309.0,89633.100000000006,18044.700000000001,-10077.0
171968.0,223797.0,-156399.0,-235957.0,-238751.0,110839.0,15517.799999999999,44523.400000000001
171969.0,254693.0,-166485.0,-243342.0,-225890.0,124841.0,19758.900000000001,63432.699999999997
171970.0,252480.0,-195406.0,-289816.0,-230459.0,120247.0,29743.0,60226.5
171971.0,211222.0,-190854.0,-299086.0,-213373.0,100293.0,31366.200000000001,23824.799999999999
171972.0,167266.0,-160292.0,-232720.0,-198486.0,84354.699999999997,25652.0,-15473.799999999999
171973.0,138650.0,-121678.0,-137184.0,-173021.0,71986.0,19860.599999999999,-11749.700000000001
171974.0,123460.0,-91716.5,-71448.100000000006,-135559.0,62072.699999999997,12368.299999999999,969.78499999999997
171975.0,128647.0,-83784.600000000006,-31109.599999999999,-128873.0,52429.400000000001,7590.9799999999996,17775.799999999999
171976.0,152932.0,-108924.0,-62786.599999999999,-149497.0,47643.699999999997,-1508.98,60345.300000000003
171977.0,172987.0,-166320.0,-184171.0,-176261.0,69323.199999999997,-16610.0,69377.800000000003
171978.0,185976.0,-179981.0,-224034.0,-173915.0,101082.0,-15330.799999999999,18117.599999999999
171979.0,173980.0,-135408.0,-132990.0,-142025.0,99736.800000000003,1333.71,-10890.1
171980.0,137374.0,-109325.0,-74102.5,-119196.0,74797.600000000006,9673.25,6357.6499999999996
171981.0,162893.0,-98849.800000000003,-34428.400000000001,-108896.0,81829.600000000006,-1808.02,22642.200000000001
171982.0,165668.0,-94442.800000000003,-14565.700000000001,-95966.300000000003,77260.899999999994,-5396.2299999999996,31339.799999999999
171983.0,169175.0,-103329.0,-34784.5,-97023.899999999994,79998.800000000003,-4633.5100000000002,41030.599999999999
171984.0,160958.0,-117166.0,-73714.0,-102532.0,84571.600000000006,873.41999999999996,31526.900000000001
171985.0,142170.0,-106514.0,-63396.5,-96360.5,78053.399999999994,7844.5500000000002,8684.1299999999992
171986.0,121822.0,-87954.699999999997,-27417.0,-89798.399999999994,59964.0,9487.3500000000004,1096.54
171987.0,106583.0,-72391.800000000003,-3497.3699999999999,-83470.899999999994,42818.400000000001,6570.1800000000003,5704.6400000000003
171988.0,100508.0,-73852.399999999994,-9177.7099999999991,-94720.699999999997,31485.799999999999,2055.8800000000001,19555.200000000001
171989.0,94780.699999999997,-96526.600000000006,-55988.300000000003,-110762.0,30533.099999999999,-7412.9499999999998,34634.300000000003
171990.0,90447.0,-106871.0,-84739.100000000006,-100012.0,44064.599999999999,-16152.1,19898.5
171991.0,105787.0,-99892.600000000006,-59344.099999999999,-87054.800000000003,56042.800000000003,-12180.299999999999,-3414.0700000000002
171992.0,106588.0,-82692.199999999997,-22647.599999999999,-75358.899999999994,52037.400000000001,-2080.1399999999999,-1365.54
171993.0,92323.699999999997,-76261.399999999994,-21685.0,-72571.800000000003,42784.800000000003,1755.1700000000001,8793.3799999999992
171994.0,104110.0,-77963.0,-1761.1700000000001,-73461.600000000006,40676.099999999999,-397.72800000000001,11412.5
171995.0,98409.899999999994,-74274.899999999994,47.423499999999997,-69763.300000000003,36592.800000000003,-2365.3899999999999,12134.9
171996.0,99292.5,-73119.800000000003,989.49900000000002,-65337.699999999997,37930.900000000001,-4545.8900000000003,12970.799999999999
171997.0,102723.0,-72808.399999999994,4095.0599999999999,-59512.5,41067.900000000001,-3838.8000000000002,11250.0
171998.0,99469.199999999997,-72814.600000000006,3726.21,-59376.300000000003,39611.900000000001,-61.987699999999997,7666.0
171999.0,91111.600000000006,-66933.800000000003,4387.79,-61802.400000000001,33878.199999999997,2634.5,5483.0299999999997
172000.0,85826.699999999997,-63344.5,1493.8399999999999,-69371.199999999997,28889.299999999999,1482.02,8655.6299999999992
172001.0,84733.399999999994,-67732.100000000006,-12740.200000000001,-79044.100000000006,28888.900000000001,-3258.5900000000001,17029.900000000001
172002.0,83540.300000000003,-76860.699999999997,-36594.699999999997,-81136.899999999994,35478.800000000003,-8123.3400000000001,19941.200000000001
172003.0,83188.899999999994,-80537.199999999997,-45428.0,-74650.5,42532.900000000001,-8225.8999999999996,8748.6399999999994
172004.0,84473.899999999994,-70116.199999999997,-24006.0,-63606.400000000001,41588.599999999999,-5037.5799999999999,-911.20399999999995
172005.0,82920.5,-59953.599999999999,-5942.0,-57378.0,36727.599999999999,-3427.7399999999998,1734.21
172006.0,79329.899999999994,-54756.900000000001,-5139.8299999999999,-53841.0,35188.099999999999,-2953.5999999999999,6713.25
172007.0,89493.100000000006,-72066.100000000006,-2865.77,-67782.300000000003,32557.900000000001,100.26000000000001,10301.1
172008.0,88223.699999999997,-72569.100000000006,-4521.4700000000003,-67467.199999999997,32419.5,-1285.6300000000001,10264.1
172009.0,85507.300000000003,-70106.199999999997,-2880.3499999999999,-63396.400000000001,31426.5,-1352.53,8753.7000000000007
172010.0,81675.0,-65695.0,391.57299999999998,-59234.300000000003,29124.799999999999,-539.596,6903.3199999999997
172011.0,78737.0,-60673.599999999999,3414.2399999999998,-56601.300000000003,27230.5,-21.0245,6114.8400000000001
172012.0,77600.699999999997,-59179.699999999997,2901.7399999999998,-58585.699999999997,26323.200000000001,-157.90799999999999,6467.54
172013.0,76745.5,-57023.800000000003,2307.2800000000002,-59495.699999999997,25779.200000000001,-1894.25,8415.1499999999996
172014.0,76269.0,-56031.300000000003,-688.89800000000002,-58100.5,27338.200000000001,-5149.46,10226.0
172015.0,77368.0,-58095.300000000003,-3215.6300000000001,-54382.900000000001,30401.900000000001,-6929.5600000000004,9075.5
172016.0,77128.199999999997,-60408.800000000003,-2013.97,-50017.699999999997,30664.099999999999,-6951.5100000000002,4891.8199999999997
172017.0,75188.300000000003,-57590.699999999997,709.88699999999994,-47967.599999999999,29288.0,-7046.6499999999996,372.19999999999999
172018.0,75283.100000000006,-43868.900000000001,11243.5,-40512.300000000003,29981.900000000001,-5967.1899999999996,-326.43700000000001
172019.0,75077.300000000003,-35476.400000000001,18222.5,-32569.799999999999,30660.599999999999,-4460.0600000000004,2630.1900000000001
172020.0,79608.800000000003,-57923.900000000001,7263.2700000000004,-52564.900000000001,27181.799999999999,411.36700000000002,7995.1300000000001
172021.0,77511.899999999994,-54111.599999999999,9647.25,-49376.800000000003,26140.900000000001,-388.90100000000001,7569.25
172022.0,75501.0,-52675.5,9347.4599999999991,-48649.900000000001,25406.799999999999,-551.59299999999996,7061.6899999999996
172023.0,73464.5,-52693.199999999997,7003.8999999999996,-49913.199999999997,24915.799999999999,-463.17000000000002,6544.4099999999999
172024.0,71521.699999999997,-51728.300000000003,5834.2399999999998,-50711.199999999997,24154.700000000001,-346.87700000000001,6019.8000000000002
172025.0,69455.199999999997,-49308.900000000001,6689.0200000000004,-49831.599999999999,22658.799999999999,-663.24000000000001,6248.4300000000003
172026.0,66313.5,-50680.099999999999,2912.77,-51110.699999999997,21294.5,-2204.21,6508.3599999999997
172027.0,64397.5,-51783.599999999999,97.167900000000003,-51185.199999999997,21302.900000000001,-3804.0799999999999,5204.6300000000001
172028.0,62340.400000000001,-52551.300000000003,-1421.5,-50341.099999999999,20612.299999999999,-3617.1900000000001,4702.4399999999996
172029.0,55390.300000000003,-51129.599999999999,-5347.6000000000004,-46873.599999999999,18945.5,-3932.6399999999999,2923.48
172030.0,55941.900000000001,-42615.599999999999,260.09100000000001,-39663.199999999997,20909.400000000001,-4986.3500000000004,-2758.77
172031.0,64941.599999999999,-36123.199999999997,14881.1,-33981.300000000003,23419.200000000001,-3736.9000000000001,-3334.6199999999999
172032.0,65003.5,-34474.099999999999,22531.599999999999,-27326.799999999999,20812.099999999999,-3300.0,145.51400000000001
172033.0,70391.199999999997,-53391.5,4481.8299999999999,-49289.099999999999,23618.200000000001,1072.77,7053.8299999999999
172034.0,68515.199999999997,-52329.400000000001,3547.4200000000001,-49768.800000000003,22901.099999999999,695.55899999999997,6678.5900000000001
172035.0,66940.199999999997,-50168.400000000001,4077.98,-48752.0,22342.299999999999,386.63200000000001,6195.9300000000003
172036.0,65497.699999999997,-46992.900000000001,5834.6800000000003,-46695.599999999999,21744.900000000001,39.573500000000003,5665.4399999999996
172037.0,64195.0,-44259.800000000003,6956.9799999999996,-45470.5,21156.900000000001,-282.23399999999998,5516.2200000000003
172038.0,61904.0,-44373.099999999999,3939.5799999999999,-46966.0,20411.5,-604.11099999999999,6192.04
172039.0,57855.800000000003,-43991.599999999999,-263.90199999999999,-46803.300000000003,19931.799999999999,-1275.26,5989.3800000000001
172040.0,55766.400000000001,-41557.800000000003,-723.14200000000005,-44720.300000000003,20259.0,-1609.6500000000001,4627.3900000000003
172041.0,54538.599999999999,-41041.599999999999,-2512.6500000000001,-44110.0,20640.299999999999,-1841.9200000000001,4969.96
172042.0,52916.400000000001,-39289.900000000001,-4826.1899999999996,-40746.199999999997,22404.5,-2898.1900000000001,3108.98
172043.0,56669.800000000003,-35247.800000000003,3189.3400000000001,-35644.300000000003,23837.299999999999,-1916.3599999999999,-997.48299999999995
172044.0,56336.900000000001,-33204.900000000001,13838.9,-30679.099999999999,18912.099999999999,14.0663,234.55500000000001
172045.0,48160.699999999997,-32188.200000000001,13004.5,-26899.0,12642.0,-1468.28,856.22500000000002
172046.0,64535.699999999997,-46144.199999999997,6862.7600000000002,-43332.599999999999,21336.400000000001,1081.9000000000001,6506.6999999999998
172047.0,63169.0,-43606.0,7857.79,-42236.099999999999,20793.0,831.14300000000003,6090.9200000000001
172048.0,61676.599999999999,-41860.199999999997,7894.71,-41743.699999999997,20301.400000000001,565.74199999999996,5681.3900000000003
172049.0,60080.0,-41075.099999999999,6795.9399999999996,-42151.699999999997,19837.0,267.81400000000002,5308.3299999999999
172050.0,58645.599999999999,-39624.099999999999,6246.3699999999999,-42034.699999999997,19500.799999999999,-272.91699999999997,5090.8400000000001
172051.0,57661.300000000003,-37359.199999999997,5922.9499999999998,-41130.599999999999,19879.299999999999,-994.18299999999999,5338.3000000000002
172052.0,56900.199999999997,-35039.800000000003,5376.9499999999998,-39201.900000000001,21012.299999999999,-1470.8,5402.1099999999997
172053.0,56678.099999999999,-34427.699999999997,4824.96,-38331.800000000003,21749.200000000001,-1520.45,5070.2799999999997
172054.0,55187.199999999997,-34691.599999999999,4195.0799999999999,-36558.0,21447.099999999999,-1943.6700000000001,4694.8599999999997
172055.0,54607.699999999997,-31846.5,8460.5900000000001,-31189.299999999999,21245.099999999999,-2611.8899999999999,1719.6199999999999
172056.0,55654.0,-29120.599999999999,15122.200000000001,-29179.700000000001,19395.700000000001,-1396.96,981.80200000000002
172057.0,48784.099999999999,-28676.200000000001,11673.9,-29154.200000000001,15021.200000000001,-325.73599999999999,4281.9899999999998
172058.0,39268.0,-30047.799999999999,853.56399999999996,-30878.400000000001,13299.5,-1339.8,2869.7399999999998
172059.0,58914.0,-41724.699999999997,6069.5100000000002,-40410.599999999999,19430.200000000001,1403.79,6031.4899999999998
172060.0,57607.5,-40621.599999999999,5560.1099999999997,-40696.0,18993.700000000001,1239.8299999999999,5643.3400000000001
172061.0,56338.300000000003,-38731.5,5880.3500000000004,-40011.699999999997,18613.0,949.5,5259.7299999999996
172062.0,55105.599999999999,-36980.5,6162.8599999999997,-39230.099999999999,18250.799999999999,525.53599999999994,4935.25
172063.0,53901.099999999999,-34879.699999999997,6743.8000000000002,-37792.300000000003,18090.5,-129.869,4518.5100000000002
172064.0,53623.900000000001,-33480.900000000001,7550.4200000000001,-36646.900000000001,18297.099999999999,-934.64599999999996,3875.4400000000001
172065.0,53900.599999999999,-31998.200000000001,9505.9400000000005,-34862.400000000001,18366.200000000001,-1609.72,3457.6500000000001
172066.0,53448.800000000003,-29630.5,11812.1,-32165.799999999999,18079.900000000001,-1917.53,3469.6700000000001
172067.0,50866.599999999999,-28401.5,11553.6,-29821.299999999999,17217.700000000001,-1685.9300000000001,3385.29
172068.0,47328.900000000001,-27980.900000000001,10501.700000000001,-28663.799999999999,15465.9,-1385.0599999999999,1735.0
172069.0,45611.699999999997,-26732.900000000001,10441.799999999999,-29547.599999999999,13817.299999999999,-1475.03,1485.6800000000001
172070.0,43187.300000000003,-25627.900000000001,7345.5299999999997,-29928.900000000001,13816.299999999999,-1928.5799999999999,3353.9299999999998
172071.0,40486.800000000003,-24882.299999999999,3744.46,-28660.5,14813.700000000001,-2222.7199999999998,2833.7800000000002
172072.0,54429.0,-37097.800000000003,6462.6899999999996,-37032.900000000001,17931.200000000001,1591.4300000000001,5646.2200000000003
172073.0,53352.099999999999,-35237.400000000001,6924.0200000000004,-36405.599999999999,17597.700000000001,1405.22,5268.8900000000003
172074.0,52134.0,-33841.400000000001,6801.5699999999997,-36085.099999999999,17259.400000000001,1130.52,4911.6099999999997
172075.0,50848.900000000001,-32576.599999999999,6532.1000000000004,-35662.5,16943.5,790.16300000000001,4574.9899999999998
172076.0,49490.699999999997,-31742.099999999999,6253.7399999999998,-35044.300000000003,16527.400000000001,329.79300000000001,4061.1999999999998
172077.0,48064.300000000003,-30353.200000000001,6940.71,-33724.800000000003,15822.0,-181.03399999999999,3221.54
172078.0,46576.5,-28152.200000000001,8243.6000000000004,-31896.799999999999,14989.9,-573.10299999999995,2538.5500000000002
172079.0,45452.099999999999,-26793.599999999999,8706.5699999999997,-30837.5,14467.6,-886.178,2267.71
172080.0,44213.800000000003,-26454.599999999999,7706.6700000000001,-30710.0,14161.9,-1006.0599999999999,2561.0500000000002
172081.0,41760.300000000003,-24964.099999999999,6374.0600000000004,-29594.900000000001,13797.5,-1061.9000000000001,2632.0999999999999
172082.0,39910.5,-23438.599999999999,5595.6999999999998,-28619.200000000001,13598.1,-1403.8199999999999,1997.25
172083.0,39576.400000000001,-22560.799999999999,5938.8100000000004,-27895.200000000001,13584.4,-1862.3699999999999,1786.0
172084.0,38540.400000000001,-21187.0,6494.8299999999999,-26138.5,13339.799999999999,-2117.52,1843.1300000000001
172085.0,50167.0,-33198.5,6194.8400000000001,-34297.099999999999,16599.200000000001,1876.3900000000001,5267.8199999999997
172086.0,49125.0,-32077.299999999999,5927.4499999999998,-34302.699999999997,16309.1,1706.6800000000001,4921.8800000000001
172087.0,47970.300000000003,-30471.599999999999,6071.8800000000001,-33678.0,16019.6,1408.4100000000001,4561.96
172088.0,46885.0,-29109.400000000001,6165.7700000000004,-33082.0,15706.4,1118.5,4247.5600000000004
172089.0,45157.400000000001,-27885.700000000001,5872.3400000000001,-32224.5,15107.299999999999,851.86400000000003,3975.6900000000001
172090.0,43270.900000000001,-26654.299999999999,5169.0500000000002,-31585.200000000001,14659.1,430.23200000000003,3326.0500000000002
172091.0,42299.199999999997,-25505.5,4912.4700000000003,-31201.5,14532.6,148.87,2864.0300000000002
172092.0,41080.199999999997,-23774.900000000001,5676.3100000000004,-29647.299999999999,14036.6,-83.284700000000001,2688.2800000000002
172093.0,39795.300000000003,-22048.900000000001,6398.3900000000003,-28113.900000000001,13492.0,-593.75900000000001,2445.3899999999999
172094.0,39027.900000000001,-21692.5,5732.0200000000004,-27878.5,13445.799999999999,-1102.8299999999999,2390.6700000000001
172095.0,37995.900000000001,-21214.799999999999,5212.6999999999998,-27139.799999999999,13343.4,-1382.6500000000001,2138.0999999999999
172096.0,36786.599999999999,-19812.700000000001,5828.1199999999999,-25683.599999999999,12834.4,-1572.04,1753.4400000000001
172097.0,35814.699999999997,-19177.200000000001,5767.6999999999998,-25148.900000000001,12356.6,-1817.99,1617.5599999999999
172098.0,5403.3699999999999,5323.9499999999998,512.69399999999996,5648.3800000000001,-374.76299999999998,900.01300000000003,714.28599999999994
172099.0,5352.7600000000002,5384.0,496.18799999999999,5540.4399999999996,-325.30099999999999,873.92700000000002,674.16999999999996
172100.0,5304.7700000000004,5388.3800000000001,430.23899999999998,5391.1599999999999,-277.92000000000002,838.89400000000001,632.62800000000004
172101.0,5257.25,5435.5200000000004,417.99900000000002,5300.9799999999996,-232.74100000000001,799.798,588.38999999999999
172102.0,5210.3900000000003,5431.6499999999996,364.19299999999998,5174.6899999999996,-189.91,756.60199999999998,541.48599999999999
172103.0,5163.75,5471.1199999999999,363.33100000000002,5105.0799999999999,-149.43899999999999,711.13900000000001,492.04199999999997
172104.0,5117.3500000000004,5454.29,315.50700000000001,4991.7600000000002,-111.004,664.00199999999995,441.00599999999997
172105.0,5071.3599999999997,5474.25,312.98200000000003,4926.4300000000003,-75.003600000000006,616.07799999999997,388.077
172106.0,5026.0500000000002,5450.8000000000002,274.83699999999999,4827.9499999999998,-41.847700000000003,567.79700000000003,333.68099999999998
172107.0,4981.5200000000004,5454.7700000000004,271.20699999999999,4765.75,-11.0968,519.83600000000001,278.04599999999999
172108.0,4937.6899999999996,5424.4899999999998,240.05500000000001,4678.1000000000004,15.839499999999999,471.666,221.17699999999999
172109.0,4892.7399999999998,5427.8599999999997,250.52600000000001,4631.3400000000001,38.887599999999999,423.90499999999997,163.149
172110.0,4841.5500000000002,5379.1400000000003,222.80699999999999,4544.4899999999998,57.843600000000002,373.11399999999998,103.76900000000001
172111.0,4775.6999999999998,5349.6000000000004,237.48099999999999,4490.3100000000004,65.593000000000004,321.28899999999999,42.337000000000003
172112.0,5898.3299999999999,5451.3299999999999,314.45999999999998,5912.9099999999999,-364.40300000000002,1076.9400000000001,804.34900000000005
172113.0,5855.6000000000004,5467.4099999999999,222.90299999999999,5721.4399999999996,-309.77999999999997,1057.8099999999999,761.93299999999999
172114.0,5809.7399999999998,5576.6400000000003,237.279,5640.4200000000001,-258.31799999999998,1026.8900000000001,715.54700000000003
172115.0,5763.4200000000001,5572.5799999999999,149.495,5460.6000000000004,-208.04499999999999,989.21299999999997,667.41300000000001
172116.0,5717.8000000000002,5658.1899999999996,161.422,5385.2799999999997,-159.821,946.25999999999999,616.86000000000001
172117.0,5672.8900000000003,5636.9799999999996,76.1327,5217.1700000000001,-113.247,898.90800000000002,563.99699999999996
172118.0,5628.1400000000003,5708.1700000000001,93.046000000000006,5154.2700000000004,-69.475300000000004,848.36900000000003,508.61399999999998
172119.0,5584.0,5685.3000000000002,25.140499999999999,5010.1800000000003,-27.970300000000002,795.14400000000001,450.94299999999998
172120.0,5540.0,5740.4099999999999,44.158000000000001,4954.9200000000001,10.1839,739.85000000000002,391.27199999999999
172121.0,5496.3299999999999,5716.0799999999999,-7.1353299999999997,4832.2399999999998,45.380600000000001,683.01800000000003,329.62099999999998
172122.0,5451.9200000000001,5759.0699999999997,17.7502,4786.5299999999997,76.1965,624.10699999999997,266.161
172123.0,5405.3199999999997,5718.6099999999997,-28.722300000000001,4671.4300000000003,102.383,564.23500000000001,200.89099999999999
172124.0,5350.3999999999996,5753.6199999999999,16.436499999999999,4644.2799999999997,120.562,499.71699999999998,132.43799999999999
172125.0,5280.1899999999996,5708.71,9.2693700000000003,4560.4899999999998,126.663,433.565,59.199800000000003
172126.0,6016.4399999999996,5414.3400000000001,232.172,5877.3400000000001,-305.78699999999998,1153.9400000000001,904.38099999999997
172127.0,5976.6099999999997,5446.75,141.899,5688.8000000000002,-247.67099999999999,1133.3800000000001,855.98199999999997
172128.0,5934.6099999999997,5549.6199999999999,136.864,5589.54,-192.858,1102.26,805.702
172129.0,5891.8000000000002,5569.0799999999999,59.994399999999999,5421.8000000000002,-139.286,1063.6600000000001,752.91099999999994
172130.0,5848.5799999999999,5660.1800000000003,66.376999999999995,5340.8699999999999,-88.131799999999998,1019.35,697.35799999999995
172131.0,5805.7200000000003,5671.6199999999999,3.2365900000000001,5194.1800000000003,-38.770699999999998,970.096,639.37599999999998
172132.0,5762.5900000000001,5744.8900000000003,12.8026,5122.79,7.8014299999999999,917.29300000000001,578.82299999999998
172133.0,5720.1199999999999,5734.8000000000002,-51.553199999999997,4980.7399999999998,52.111499999999999,861.17899999999997,516.22400000000005
172134.0,5677.4399999999996,5795.6199999999999,-34.926299999999998,4921.3299999999999,93.184299999999993,802.90800000000002,451.40600000000001
172135.0,5635.7200000000003,5766.1700000000001,-99.847099999999998,4783.6800000000003,131.499,742.17399999999998,385.084
172136.0,5592.5699999999997,5813.0799999999999,-77.908699999999996,4732.7200000000003,166.18199999999999,679.745,316.91000000000003
172137.0,5548.25,5772.4300000000003,-132.096,4609.5799999999999,197.631,614.21600000000001,247.97
172138.0,5495.1000000000004,5789.8800000000001,-110.914,4555.0100000000002,224.44300000000001,545.50800000000004,177.726
172139.0,5434.6300000000001,5691.3299999999999,-184.78899999999999,4411.6800000000003,246.989,473.87599999999998,102.67400000000001
172140.0,6141.0,5619.1000000000004,375.30200000000002,6141.0,-319.64499999999998,1232.46,883.54499999999996
172141.0,6103.7700000000004,5695.8999999999996,316.88799999999998,5979.75,-265.036,1213.5,833.94000000000005
172142.0,6065.21,5793.8199999999997,294.923,5858.6000000000004,-212.488,1184.3399999999999,784.23900000000003
172143.0,6027.3500000000004,5850.6499999999996,241.99700000000001,5711.4399999999996,-161.232,1147.3199999999999,731.73699999999997
172144.0,5988.9899999999998,5926.5200000000004,219.79499999999999,5598.2299999999996,-112.31999999999999,1103.9400000000001,676.50099999999998
172145.0,5950.7399999999998,5963.4200000000001,168.786,5459.6000000000004,-65.294399999999996,1054.79,618.75400000000002
172146.0,5911.4300000000003,6024.2399999999998,153.31899999999999,5358.25,-20.662800000000001,1000.98,558.72900000000004
172147.0,5872.2399999999998,6054.1800000000003,116.923,5238.7399999999998,21.705400000000001,942.86900000000003,496.73099999999999
172148.0,5832.0200000000004,6098.1999999999998,105.777,5145.6599999999999,61.4572,881.44500000000005,432.78399999999999
172149.0,5791.8800000000001,6118.7700000000004,80.959100000000007,5041.6400000000003,98.6905,816.36300000000006,367.60700000000003
172150.0,5748.5799999999999,6147.5,77.337999999999994,4957.9700000000003,133.19499999999999,748.45799999999997,300.62799999999999
172151.0,5702.9899999999998,6136.3000000000002,46.544800000000002,4850.9499999999998,165.00299999999999,675.67899999999997,233.15700000000001
172152.0,5643.8500000000004,6145.21,59.9255,4778.3400000000001,193.90799999999999,599.44299999999998,164.37
172153.0,5575.5,6082.8999999999996,26.601900000000001,4667.6300000000001,221.69399999999999,517.50199999999995,91.201700000000002
172154.0,6287.3500000000004,5650.2299999999996,334.86399999999998,6230.2299999999996,-323.18000000000001,1318.1300000000001,881.77999999999997
172155.0,6253.8999999999996,5738.8800000000001,274.298,6062.5100000000002,-270.202,1301.21,832.26800000000003
172156.0,6219.6300000000001,5835.9200000000001,237.797,5922.8599999999997,-218.90799999999999,1274.25,782.23400000000004
172157.0,6185.9899999999998,5912.3100000000004,190.542,5777.1899999999996,-168.76300000000001,1238.5,729.29399999999998
172158.0,6151.1000000000004,5996.6599999999999,163.786,5654.1499999999996,-120.58799999999999,1195.6099999999999,673.80799999999999
172159.0,6115.96,6063.1099999999997,129.56299999999999,5526.5299999999997,-74.272999999999996,1145.9200000000001,615.88
172160.0,6079.6300000000001,6129.4399999999996,107.065,5412.2600000000002,-30.272200000000002,1090.72,555.56700000000001
172161.0,6043.1199999999999,6173.21,72.401799999999994,5288.4399999999996,11.321199999999999,1030.22,493.28500000000003
172162.0,6005.4399999999996,6225.8000000000002,58.144599999999997,5186.2299999999996,50.445399999999999,965.48800000000006,429.00299999999999
172163.0,5967.71,6248.5600000000004,24.190200000000001,5067.2700000000004,86.674800000000005,896.17499999999995,363.39299999999997
172164.0,5926.8199999999997,6285.0600000000004,17.580200000000001,4975.2299999999996,120.56100000000001,823.16700000000003,296.13900000000001
172165.0,5883.9499999999998,6292.9099999999999,-4.9898400000000001,4871.6700000000001,152.012,744.31500000000005,228.67599999999999
172166.0,5827.4899999999998,6294.0,-8.8730499999999992,4778.0600000000004,181.626,661.85799999999995,160.25899999999999
172167.0,5763.25,6232.7799999999997,-51.923900000000003,4656.5100000000002,212.10499999999999,571.81799999999998,88.425399999999996
172168.0,6403.7200000000003,5786.04,423.459,6420.5900000000001,-330.39100000000002,1398.0599999999999,866.721
172169.0,6374.3500000000004,5908.0900000000001,383.5,6269.6099999999997,-279.49900000000002,1383.1800000000001,818.41800000000001
172170.0,6344.5,6009.9300000000003,338.92099999999999,6117.8999999999996,-229.69800000000001,1358.3399999999999,769.17200000000003
172171.0,6315.4499999999998,6115.8999999999996,308.03500000000003,5984.9099999999999,-181.249,1323.99,716.41399999999999
172172.0,6284.79,6196.0200000000004,264.12700000000001,5840.3000000000002,-134.79900000000001,1281.8900000000001,660.94500000000005
172173.0,6253.6400000000003,6281.96,236.64500000000001,5714.7200000000003,-90.289100000000005,1232.1099999999999,603.01900000000001
172174.0,6220.9399999999996,6345.8299999999999,199.26900000000001,5580.2700000000004,-47.6798,1175.8499999999999,543.02099999999996
172175.0,6187.7399999999998,6421.9200000000001,184.88499999999999,5471.1899999999996,-7.3762699999999999,1113.3399999999999,481.19
172176.0,6152.96,6467.6099999999997,152.24000000000001,5344.8100000000004,30.799099999999999,1045.5599999999999,417.48200000000003
172177.0,6117.8199999999997,6529.9899999999998,147.048,5248.7600000000002,66.446799999999996,972.23000000000002,352.71300000000002
172178.0,6078.9200000000001,6557.6499999999996,121.639,5132.0699999999997,99.844899999999996,894.08699999999999,286.15499999999997
172179.0,6037.4099999999999,6583.1400000000003,107.756,5031.4200000000001,130.708,809.14700000000005,219.43199999999999
172180.0,5981.21,6586.1599999999999,98.823099999999997,4927.3100000000004,159.952,719.55899999999997,151.613
172181.0,5917.3900000000003,6552.6599999999999,76.367699999999999,4822.6000000000004,189.221,621.20299999999997,80.0809
172182.0,6537.71,5870.3599999999997,452.83600000000001,6567.3500000000004,-339.63400000000001,1485.0699999999999,850.09500000000003
172183.0,6513.3500000000004,5992.5500000000002,398.64800000000002,6398.5100000000002,-291.101,1473.0699999999999,802.54899999999998
172184.0,6487.8900000000003,6109.1400000000003,354.91500000000002,6243.1300000000001,-243.57599999999999,1450.5899999999999,753.20600000000002
172185.0,6463.21,6219.4700000000003,314.54899999999998,6095.79,-197.108,1417.9000000000001,700.5
172186.0,6436.79,6323.0100000000002,280.32600000000002,5955.2600000000002,-152.33600000000001,1376.72,645.38
172187.0,6409.6300000000001,6422.1599999999999,252.49299999999999,5823.3400000000001,-109.32899999999999,1326.8599999999999,587.94000000000005
172188.0,6380.5100000000002,6507.4499999999998,223.30500000000001,5690.6499999999996,-68.326899999999995,1269.51,528.28599999999994
172189.0,6350.5600000000004,6582.9099999999999,195.459,5561.4799999999996,-29.592400000000001,1204.8,466.81200000000001
172190.0,6318.6700000000001,6652.8599999999997,174.751,5440.21,7.0645800000000003,1133.75,403.54399999999998
172191.0,6285.9499999999998,6705.4099999999999,148.12100000000001,5315.9200000000001,41.0929,1056.03,339.149
172192.0,6249.4700000000003,6757.0299999999997,135.50899999999999,5205.5299999999997,73.378500000000003,972.48199999999997,273.31299999999999
172193.0,6210.3500000000004,6791.04,119.441,5096.8599999999997,103.581,881.18799999999999,207.56299999999999
172194.0,6156.5500000000002,6803.04,109.57899999999999,4987.1099999999997,132.74799999999999,784.35199999999998,140.73500000000001
172195.0,6095.5,6761.8100000000004,69.358699999999999,4861.5299999999997,163.364,677.59699999999998,71.042699999999996
172196.0,6661.0299999999997,5982.5500000000002,523.07100000000003,6741.96,-349.56299999999999,1572.01,828.77099999999996
172197.0,6641.1000000000004,6120.1400000000003,470.30200000000002,6570.1199999999999,-303.12599999999998,1562.77,782.38999999999999
172198.0,6620.1899999999996,6259.1300000000001,435.19,6418.6599999999999,-257.73000000000002,1542.6600000000001,733.81899999999996
172199.0,6599.8900000000003,6382.1999999999998,393.88400000000001,6265.25,-213.268,1511.6800000000001,681.51900000000001
172200.0,6577.4499999999998,6500.04,360.63499999999999,6119.8199999999997,-170.69999999999999,1471.3900000000001,626.61400000000003
172201.0,6553.9700000000003,6603.25,323.68900000000002,5972.4799999999996,-129.81999999999999,1421.46,569.38199999999995
172202.0,6528.3100000000004,6703.6499999999996,296.685,5835.2299999999996,-90.7333,1363.02,510.29700000000003
172203.0,6501.54,6795.1700000000001,272.25700000000001,5702.5200000000004,-53.581099999999999,1296.1600000000001,449.56200000000001
172204.0,6472.5,6875.6800000000003,249.977,5572.5500000000002,-18.4194,1221.8299999999999,387.19299999999998
172205.0,6442.4700000000003,6950.5500000000002,233.93299999999999,5451.8599999999997,14.6152,1139.76,323.92700000000002
172206.0,6408.1300000000001,7010.4499999999998,218.78200000000001,5332.0,45.693100000000001,1050.7,259.125
172207.0,6370.6700000000001,7045.3699999999999,193.70500000000001,5207.7799999999997,74.793000000000006,952.85199999999998,194.404
172208.0,6318.5200000000004,7076.8400000000001,194.029,5102.75,103.31,848.346,128.804
172209.0,6259.2299999999996,7049.8999999999996,158.87100000000001,4978.2399999999998,133.10499999999999,732.97500000000002,60.320799999999998
172210.0,6785.4499999999998,6074.8599999999997,578.56299999999999,6899.8699999999999,-360.40899999999999,1662.1600000000001,804.12900000000002
172211.0,6769.9899999999998,6209.8800000000001,508.70600000000002,6706.6099999999997,-316.64999999999998,1655.78,758.28200000000004
172212.0,6753.4200000000001,6369.7200000000003,480.56900000000002,6556.96,-274.06599999999997,1638.1900000000001,710.02499999999998
172213.0,6737.4300000000003,6492.4399999999996,425.00799999999998,6383.5799999999999,-232.03800000000001,1609.05,658.10500000000002
172214.0,6719.2399999999998,6639.25,406.95999999999998,6247.0,-191.73099999999999,1569.8499999999999,603.86900000000003
172215.0,6699.8000000000002,6749.7700000000004,363.58100000000002,6086.3999999999996,-152.798,1519.98,547.47299999999996
172216.0,6677.71,6877.9200000000001,351.012,5956.2600000000002,-115.86,1460.51,489.13799999999998
172217.0,6654.1000000000004,6963.8900000000003,308.084,5797.4300000000003,-80.702799999999996,1391.4400000000001,429.19999999999999
172218.0,6627.9099999999999,7074.9899999999998,303.93700000000001,5677.8199999999997,-47.5047,1313.74,367.78399999999999
172219.0,6600.2399999999998,7136.1199999999999,262.40600000000001,5523.8500000000004,-16.3994,1227.0999999999999,305.45400000000001
172220.0,6568.3100000000004,7226.2600000000002,266.09800000000001,5415.4799999999996,13.2468,1132.3900000000001,242.01300000000001
172221.0,6533.2200000000003,7265.6499999999996,234.518,5278.1499999999996,41.469299999999997,1027.8199999999999,178.863
172222.0,6483.5799999999999,7312.9399999999996,240.16900000000001,5173.0699999999997,69.283600000000007,915.52300000000002,114.839
172223.0,6427.29,7274.4099999999999,182.67400000000001,5022.6099999999997,99.380300000000005,791.46100000000001,48.439
172224.0,6902.6800000000003,6165.5900000000001,643.80200000000002,7056.7299999999996,-371.17399999999998,1753.3499999999999,775.87699999999995
172225.0,6891.9799999999996,6321.6099999999997,580.30499999999995,6865.54,-330.19200000000001,1750.03,731.03499999999997
172226.0,6880.0600000000004,6497.6300000000001,554.16800000000001,6712.5500000000002,-290.18900000000002,1735.0799999999999,683.78200000000004
172227.0,6868.4799999999996,6639.8100000000004,504.10599999999999,6538.71,-250.69300000000001,1707.8900000000001,632.49199999999996
172228.0,6854.2700000000004,6795.2299999999996,481.09399999999999,6390.3599999999997,-213.04400000000001,1669.76,578.73099999999999
172229.0,6838.4399999999996,6917.5200000000004,436.15300000000002,6220.79,-176.74299999999999,1619.9400000000001,522.846
172230.0,6819.8100000000004,7054.6999999999998,419.358,6078.6400000000003,-142.13800000000001,1559.4400000000001,465.38600000000002
172231.0,6799.3800000000001,7163.4200000000001,386.24099999999999,5921.5799999999999,-109.108,1488.1700000000001,406.54500000000002
172232.0,6776.0699999999997,7279.3699999999999,374.428,5786.1300000000001,-77.857399999999998,1407.0899999999999,346.39800000000002
172233.0,6751.1000000000004,7368.54,348.78800000000001,5640.0500000000002,-48.261000000000003,1315.8900000000001,285.63299999999998
172234.0,6721.4099999999999,7461.6199999999999,344.12299999999999,5515.4700000000003,-20.263500000000001,1215.3900000000001,223.69800000000001
172235.0,6688.1899999999996,7507.9099999999999,308.88400000000001,5367.1899999999996,6.4312399999999998,1103.8399999999999,162.12200000000001
172236.0,6640.8500000000004,7569.8999999999996,318.81200000000001,5260.5,33.384500000000003,983.45899999999995,99.982900000000001
172237.0,6586.9499999999998,7552.3999999999996,272.04300000000001,5116.46,62.729500000000002,850.37900000000002,35.607199999999999
172238.0,7015.5900000000001,6241.6499999999996,704.22500000000002,7200.6300000000001,-382.15800000000002,1846.3599999999999,743.93100000000004
172239.0,7009.6000000000004,6411.8299999999999,640.15899999999999,7004.29,-344.44799999999998,1846.28,699.90700000000004
172240.0,7002.0699999999997,6594.5200000000004,606.54200000000003,6838.1800000000003,-307.63900000000001,1833.99,653.25300000000004
172241.0,6994.79,6751.8000000000002,557.72900000000004,6659.1300000000001,-271.12400000000002,1808.8699999999999,602.61000000000001
172242.0,6984.8299999999999,6921.4099999999999,535.00699999999995,6503.9200000000001,-236.13800000000001,1771.97,549.779
172243.0,6972.8900000000003,7065.4099999999999,498.12799999999999,6334.5799999999999,-202.364,1722.3599999999999,495.00999999999999
172244.0,6957.7399999999998,7216.2799999999997,481.66800000000001,6184.46,-170.285,1660.8499999999999,438.62099999999998
172245.0,6940.3999999999996,7334.4399999999996,444.99900000000002,6015.1999999999998,-139.76900000000001,1587.3699999999999,380.976
172246.0,6919.8599999999997,7466.8000000000002,437.04599999999999,5874.8299999999999,-110.843,1502.8299999999999,322.226
172247.0,6897.1800000000003,7558.1199999999999,401.70100000000002,5710.2200000000003,-83.613,1406.8900000000001,262.90800000000002
172248.0,6869.8599999999997,7667.1800000000003,401.42599999999999,5581.7600000000002,-57.350499999999997,1300.47,202.86099999999999
172249.0,6838.9899999999998,7733.5299999999997,375.03199999999998,5434.8800000000001,-31.953299999999999,1181.8499999999999,143.447
172250.0,6794.21,7797.3900000000003,375.94299999999998,5313.0699999999997,-6.15489,1053.21,83.399100000000004
172251.0,6743.4300000000003,7783.9799999999996,322.024,5157.7799999999997,22.780799999999999,911.00800000000004,21.6675
172252.0,7121.6000000000004,6314.5600000000004,773.798,7342.1099999999997,-392.74900000000002,1940.6199999999999,708.76599999999996
172253.0,7120.54,6506.8100000000004,716.74000000000001,7148.1599999999999,-358.32499999999999,1943.95,665.93899999999996
172254.0,7117.8199999999997,6704.29,683.43700000000001,6976.71,-324.61599999999999,1934.53,620.495
172255.0,7114.8599999999997,6882.7299999999996,641.83399999999995,6798.0600000000004,-291.11799999999999,1911.5699999999999,570.71900000000005
172256.0,7108.75,7059.8900000000003,613.14200000000005,6629.1199999999999,-259.24000000000001,1875.8800000000001,518.60500000000002
172257.0,7100.3699999999999,7218.3800000000001,577.39400000000001,6452.5299999999997,-228.58199999999999,1826.4400000000001,464.608
172258.0,7088.6000000000004,7376.4799999999996,554.92399999999998,6287.5699999999997,-199.339,1763.97,409.41300000000001
172259.0,7074.3199999999997,7519.8299999999999,530.44399999999996,6121.3400000000001,-171.39099999999999,1688.28,353.22500000000002
172260.0,7056.5600000000004,7655.3599999999997,513.06700000000001,5962.29,-144.87899999999999,1600.26,296.16699999999997
172261.0,7036.5100000000002,7776.5100000000002,495.27800000000002,5806.1599999999999,-119.64,1499.5899999999999,238.84399999999999
172262.0,7011.3900000000003,7886.9200000000001,484.87900000000002,5658.7700000000004,-95.481999999999999,1387.0999999999999,180.80000000000001
172263.0,6982.4200000000001,7962.5,456.87099999999998,5502.0900000000001,-72.019400000000005,1261.1600000000001,123.556
172264.0,6940.2299999999996,8039.6499999999996,459.99799999999999,5376.0299999999997,-47.403700000000001,1124.04,65.966999999999999
172265.0,6892.25,8050.0299999999997,418.84100000000001,5228.8800000000001,-19.440300000000001,972.39099999999996,7.0028600000000001
172266.0,7220.7600000000002,6386.7200000000003,855.40499999999997,7483.8100000000004,-403.15300000000002,2036.2,669.85900000000004
172267.0,7224.6700000000001,6571.8000000000002,775.93200000000002,7262.79,-372.435,2043.01,628.14400000000001
172268.0,7226.3699999999999,6799.21,758.42499999999995,7100.9799999999996,-342.44799999999998,2036.49,583.55799999999999
172269.0,7227.6199999999999,6970.79,696.10000000000002,6894.4300000000003,-312.34399999999999,2015.77,534.64499999999998
172270.0,7225.5699999999997,7184.1999999999998,690.05100000000004,6740.0200000000004,-283.72899999999998,1981.49,483.63900000000001
172271.0,7220.9799999999996,7341.9399999999996,639.95299999999997,6540.3100000000004,-255.98599999999999,1932.3499999999999,431.02100000000002
172272.0,7212.4799999999996,7535.9899999999998,640.29399999999998,6388.6800000000003,-229.86199999999999,1868.95,377.226
172273.0,7201.1099999999997,7667.3100000000004,590.928,6187.8100000000004,-204.81800000000001,1791.02,322.589
172274.0,7185.96,7840.8599999999997,599.12400000000002,6044.4099999999999,-181.172,1699.46,267.35599999999999
172275.0,7168.0799999999999,7943.9899999999998,551.47500000000002,5848.5299999999997,-158.64699999999999,1593.9000000000001,211.97499999999999
172276.0,7145.21,8091.3199999999997,566.399,5717.1499999999996,-136.68799999999999,1475.23,156.38499999999999
172277.0,7118.5,8167.0299999999997,527.20399999999995,5540.8900000000003,-114.883,1341.8900000000001,101.87
172278.0,7078.9099999999999,8266.7399999999998,541.76900000000001,5419.4200000000001,-91.877499999999998,1196.1099999999999,47.0015
172279.0,7034.1899999999996,8261.9699999999993,473.76600000000002,5240.8299999999999,-64.726399999999998,1034.8699999999999,-8.7354599999999998
172280.0,7312.1599999999999,6442.6999999999998,934.91600000000005,7609.9399999999996,-412.89299999999997,2132.8699999999999,627.64800000000002
172281.0,7321.2700000000004,6644.71,856.78599999999994,7385.5799999999999,-385.99599999999998,2143.3400000000001,587.43399999999997
172282.0,7327.6700000000001,6892.1300000000001,844.90499999999997,7223.1800000000003,-359.63499999999999,2139.9200000000001,544.23199999999997
172283.0,7333.1800000000003,7079.5100000000002,784.47799999999995,7011.0100000000002,-332.988,2121.54,496.39499999999998
172284.0,7334.8500000000004,7306.3199999999997,778.54499999999996,6848.0,-308.03500000000003,2088.6700000000001,446.35599999999999
172285.0,7333.5900000000001,7473.75,725.05399999999997,6635.3800000000001,-283.81200000000001,2039.8,394.82400000000001
172286.0,7328.2200000000003,7680.5500000000002,725.16499999999996,6473.4899999999998,-261.03500000000003,1975.49,342.54199999999997
172287.0,7319.6999999999998,7831.6099999999997,682.76900000000001,6269.25,-239.03200000000001,1895.3399999999999,289.73200000000003
172288.0,7307.1000000000004,8014.3299999999999,687.755,6112.1599999999999,-218.322,1800.21,236.60499999999999
172289.0,7291.6499999999996,8140.8599999999997,651.37300000000005,5917.3199999999997,-198.22999999999999,1689.75,183.70500000000001
172290.0,7270.8400000000001,8296.0200000000004,662.72199999999998,5772.4399999999996,-178.88200000000001,1564.77,130.67699999999999
172291.0,7245.9799999999996,8374.9500000000007,615.83600000000001,5579.3400000000001,-159.39500000000001,1423.79,78.900400000000005
172292.0,7209.0200000000004,8494.5699999999997,639.04999999999995,5459.29,-137.99799999999999,1269.1600000000001,27.210799999999999
172293.0,7167.2399999999998,8508.1399999999994,577.93899999999996,5282.4099999999999,-112.08499999999999,1098.03,-25.057500000000001
172294.0,7395.2700000000004,6487.5200000000004,1018.36,7725.46,-422.05900000000003,2230.5300000000002,581.70799999999997
172295.0,7409.5,6698.3699999999999,933.41600000000005,7489.5500000000002,-399.46899999999999,2244.6999999999998,542.87699999999995
172296.0,7420.2700000000004,6961.5299999999997,923.21900000000005,7322.1800000000003,-377.27800000000002,2244.4099999999999,500.75799999999998
172297.0,7429.79,7156.9799999999996,857.29399999999998,7096.5,-354.53699999999998,2228.4299999999998,453.99700000000001
172298.0,7435.25,7405.1999999999998,859.52099999999996,6932.4799999999996,-333.279,2197.0999999999999,405.33999999999997
172299.0,7437.4200000000001,7585.7799999999997,806.077,6709.8900000000003,-312.55399999999997,2148.6399999999999,355.40100000000001
172300.0,7435.0600000000004,7814.4700000000003,815.31100000000004,6546.4799999999996,-293.32799999999997,2083.4299999999998,304.83699999999999
172301.0,7429.1599999999999,7967.4200000000001,762.32500000000005,6320.6000000000004,-274.76999999999998,2001.04,253.976
172302.0,7418.9200000000001,8174.1499999999996,779.20799999999997,6164.2299999999996,-257.33600000000001,1902.3,203.12700000000001
172303.0,7405.3699999999999,8297.1399999999994,727.779,5943.1999999999998,-240.44800000000001,1786.77,152.71299999999999
172304.0,7386.5799999999999,8475.5400000000009,751.00800000000004,5799.6999999999998,-223.691,1655.3900000000001,102.70399999999999
172305.0,7363.8100000000004,8568.4400000000005,706.89700000000005,5599.9399999999996,-206.34100000000001,1506.6900000000001,54.255600000000001
172306.0,7329.3800000000001,8697.3700000000008,728.274,5470.3500000000004,-186.97300000000001,1343.02,5.9790299999999998
172307.0,7290.8699999999999,8709.6000000000004,653.92499999999995,5274.96,-162.39400000000001,1161.8800000000001,-42.333599999999997
172308.0,7469.4200000000001,6514.3400000000001,1100.0899999999999,7823.1999999999998,-430.286,2329.0,532.39300000000003
172309.0,7488.9700000000003,6755.2299999999996,1029.25,7596.7799999999997,-412.13400000000001,2347.02,495.26600000000002
172310.0,7504.4099999999999,7024.6000000000004,1010.9,7414.5600000000004,-394.03899999999999,2350.0500000000002,454.74799999999999
172311.0,7517.8500000000004,7249.6700000000001,961.20500000000004,7196.6400000000003,-375.33600000000001,2336.5799999999999,409.26400000000001
172312.0,7526.6999999999998,7497.1000000000004,949.87,7009.1999999999998,-358.14100000000002,2306.7800000000002,361.81999999999999
172313.0,7531.8599999999997,7702.6300000000001,908.85199999999998,6788.2799999999997,-341.51100000000002,2258.6900000000001,313.23599999999999
172314.0,7532.2799999999997,7928.3000000000002,902.62800000000004,6598.0900000000001,-326.072,2192.5999999999999,264.53300000000002
172315.0,7528.8699999999999,8116.7799999999997,872.95500000000004,6383.8000000000002,-311.11099999999999,2107.9899999999998,215.89699999999999
172316.0,7520.8500000000004,8316.7600000000002,871.178,6196.9499999999998,-297.03399999999999,2005.5899999999999,167.62100000000001
172317.0,7509.3599999999997,8478.6299999999992,846.99699999999996,5991.5600000000004,-283.161,1885.0,120.209
172318.0,7492.3500000000004,8648.4799999999996,850.66499999999996,5817.3299999999999,-269.39999999999998,1747.0799999999999,73.337599999999995
172319.0,7471.2200000000003,8761.0100000000002,815.553,5616.3199999999997,-254.84399999999999,1590.4400000000001,28.333400000000001
172320.0,7439.3299999999999,8893.5300000000007,829.298,5470.9700000000003,-237.42099999999999,1417.55,-16.0822
172321.0,7403.8299999999999,8941.2399999999998,778.77300000000002,5293.6400000000003,-214.51400000000001,1226.1600000000001,-60.0852
172322.0,7534.0900000000001,6537.3299999999999,1195.3900000000001,7917.2700000000004,-437.685,2428.0900000000001,479.21499999999997
172323.0,7558.7799999999997,6783.3999999999996,1113.9100000000001,7675.46,-424.37700000000001,2450.0100000000002,443.75400000000002
172324.0,7578.4300000000003,7073.6300000000001,1102.52,7493.0100000000002,-410.89999999999998,2456.3299999999999,404.58800000000002
172325.0,7595.5699999999997,7301.9700000000003,1043.0799999999999,7256.3500000000004,-396.65899999999999,2445.4499999999998,360.38499999999999
172326.0,7607.7799999999997,7575.4300000000003,1045.1900000000001,7072.0200000000004,-383.63400000000001,2417.3000000000002,314.50999999999999
172327.0,7615.9499999999998,7787.8599999999997,998.71100000000001,6834.3100000000004,-371.02100000000002,2369.6999999999998,267.83699999999999
172328.0,7618.9499999999998,8041.1599999999999,1008.04,6647.6099999999997,-359.62,2302.75,221.17500000000001
172329.0,7617.6999999999998,8225.3199999999997,962.34500000000003,6404.7700000000004,-348.64499999999998,2215.8800000000001,174.898
172330.0,7611.6000000000004,8454.5,978.351,6223.0699999999997,-338.31799999999998,2109.7600000000002,129.381
172331.0,7601.6499999999996,8607.6800000000003,934.59799999999996,5985.5500000000002,-328.11599999999999,1983.97,85.022199999999998
172332.0,7586.3299999999999,8806.0400000000009,955.92200000000003,5817.1999999999998,-317.39600000000002,1839.4100000000001,41.781700000000001
172333.0,7566.9799999999996,8927.1200000000008,918.65800000000002,5603.3400000000001,-305.43599999999998,1674.78,0.81862500000000005
172334.0,7537.4499999999998,9074.3199999999997,936.16600000000005,5453.1199999999999,-290.435,1492.49,-39.467300000000002
172335.0,7505.1199999999999,9115.3400000000001,867.08799999999997,5251.21,-269.28100000000001,1290.71,-78.700100000000006
172336.0,7588.79,6537.0799999999999,1286.1600000000001,7988.0600000000004,-443.87200000000001,2527.6100000000001,422.53399999999999
172337.0,7618.75,6813.7799999999997,1219.1900000000001,7756.1300000000001,-435.56700000000001,2553.5999999999999,389.02499999999998
172338.0,7642.7299999999996,7109.5799999999999,1199.4100000000001,7557.96,-426.709,2563.3899999999999,351.65199999999999
172339.0,7663.4200000000001,7367.1999999999998,1156.47,7328.3500000000004,-416.98500000000001,2555.1799999999998,308.96100000000001
172340.0,7678.5699999999997,7639.6800000000003,1145.6400000000001,7119.9399999999996,-408.524,2528.6599999999999,264.56099999999998
172341.0,7689.1599999999999,7877.0,1112.52,6883.3299999999999,-400.48599999999999,2481.4899999999998,219.572
172342.0,7694.4200000000001,8126.8800000000001,1106.9200000000001,6668.8299999999999,-393.37599999999998,2413.6799999999998,175.11099999999999
172343.0,7695.1400000000003,8345.6000000000004,1084.46,6435.9700000000003,-386.47500000000002,2324.5300000000002,131.523
172344.0,7690.75,8568.9200000000001,1083.5899999999999,6224.0200000000004,-380.01100000000002,2214.6700000000001,89.068200000000004
172345.0,7682.3900000000003,8758.4500000000007,1065.3900000000001,5998.9499999999998,-373.298,2083.6599999999999,48.274099999999997
172346.0,7668.4300000000003,8949.5499999999993,1069.2,5800.5,-366.05000000000001,1932.3399999999999,8.8432499999999994
172347.0,7650.3900000000003,9088.1000000000004,1039.3800000000001,5582.54,-357.30200000000002,1759.51,-27.954699999999999
172348.0,7623.1800000000003,9240.7900000000009,1051.5599999999999,5417.8500000000004,-344.685,1567.6900000000001,-63.601700000000001
172349.0,7593.7600000000002,9315.6900000000005,1004.8200000000001,5231.75,-325.60599999999999,1355.3,-97.688000000000002
172350.0,7632.8400000000001,6533.3699999999999,1393.6199999999999,8055.1400000000003,-448.88200000000001,2627.3200000000002,361.94099999999997
172351.0,7667.9099999999999,6812.21,1312.73,7804.6800000000003,-445.94799999999998,2657.4000000000001,330.34699999999998
172352.0,7695.79,7132.6199999999999,1304.1300000000001,7609.8599999999997,-442.24299999999999,2670.6700000000001,294.59500000000003
172353.0,7719.6499999999996,7390.1700000000001,1248.95,7357.8999999999996,-437.40600000000001,2665.1399999999999,253.41800000000001
172354.0,7737.6099999999997,7690.71,1254.5999999999999,7154.25,-433.63999999999999,2640.3600000000001,210.84399999999999
172355.0,7750.5799999999999,7931.3299999999999,1213.5,6896.79,-430.11799999999999,2593.73,168.03100000000001
172356.0,7757.7799999999997,8210.6499999999996,1226.48,6687.1400000000003,-427.553,2525.0599999999999,126.018
172357.0,7760.0699999999997,8422.6599999999999,1186.6900000000001,6422.7799999999997,-425.09699999999998,2433.5900000000001,85.227599999999995
172358.0,7757.0500000000002,8675.3500000000004,1204.8699999999999,6215.6000000000004,-422.87099999999998,2319.9200000000001,46.0717
172359.0,7749.71,8855.7000000000007,1167.6199999999999,5957.3199999999997,-420.27100000000002,2183.5500000000002,8.9377499999999994
172360.0,7736.9700000000003,9075.1399999999994,1189.9100000000001,5764.0600000000004,-416.52499999999998,2025.3900000000001,-26.172499999999999
172361.0,7720.3000000000002,9221.7199999999993,1158.22,5532.21,-410.81,1844.3,-58.205500000000001
172362.0,7695.1300000000001,9388.6499999999996,1174.3499999999999,5361.6800000000003,-401.04599999999999,1642.8,-88.892799999999994
172363.0,7668.6999999999998,9456.8700000000008,1109.3499999999999,5150.5100000000002,-384.137,1419.6900000000001,-117.352
172364.0,7666.0600000000004,6500.9499999999998,1493.76,8093.1000000000004,-452.36000000000001,2727.0100000000002,297.69099999999997
172365.0,7706.2299999999996,6811.75,1428.5799999999999,7853.8000000000002,-454.96899999999999,2761.3499999999999,268.33199999999999
172366.0,7738.0100000000002,7136.3500000000004,1410.8199999999999,7641.8000000000002,-456.41000000000003,2778.2199999999998,234.595
172367.0,7764.79,7422.7700000000004,1372.77,7396.3000000000002,-456.58499999999998,2775.4400000000001,195.16800000000001
172368.0,7784.9700000000003,7721.9099999999999,1366.3199999999999,7167.8800000000001,-457.84100000000001,2752.3400000000001,154.34
172369.0,7799.7399999999998,7986.6800000000003,1339.0799999999999,6910.3999999999996,-459.339,2706.1700000000001,113.578
172370.0,7808.5,8262.2199999999993,1338.1300000000001,6672.1999999999998,-461.55500000000001,2636.6199999999999,74.174700000000001
172371.0,7812.1000000000004,8506.7999999999993,1320.96,6415.4399999999996,-463.66199999999998,2542.8400000000001,36.5137
172372.0,7810.1499999999996,8755.1599999999999,1325.1199999999999,6179.1000000000004,-465.81599999999997,2425.3000000000002,0.965615
172373.0,7803.7600000000002,8967.7000000000007,1310.5899999999999,5928.7200000000003,-467.15899999999999,2283.5599999999999,-31.9651
172374.0,7791.8400000000001,9181.9099999999999,1318.5799999999999,5706.9700000000003,-467.34300000000002,2118.4400000000001,-62.566899999999997
172375.0,7776.0299999999997,9342.1100000000006,1291.55,5466.79,-465.24700000000001,1928.9100000000001,-89.642899999999997
172376.0,7752.8400000000001,9517.4899999999998,1306.0999999999999,5284.3800000000001,-458.30900000000003,1717.5999999999999,-114.831
172377.0,7729.0699999999997,9616.0599999999995,1260.3800000000001,5085.1099999999997,-443.84500000000003,1483.6099999999999,-137.226
172378.0,7688.0299999999997,6470.5900000000001,1618.9400000000001,8132.4200000000001,-454.267,2826.4099999999999,229.511
172379.0,7732.9200000000001,6770.5299999999997,1526.8299999999999,7861.6300000000001,-462.78800000000001,2864.9899999999998,202.346
172380.0,7768.0900000000001,7132.54,1533.79,7665.8000000000002,-469.87299999999999,2885.46,170.48599999999999
172381.0,7797.3699999999999,7406.0900000000001,1471.8399999999999,7385.0299999999997,-475.39100000000002,2885.4400000000001,132.822
172382.0,7819.5500000000002,7744.0900000000001,1494.1900000000001,7172.0299999999997,-481.86099999999999,2864.0999999999999,94.0899
172383.0,7835.8900000000003,7999.1999999999998,1447.5999999999999,6880.4899999999998,-488.27600000000001,2818.4400000000001,55.849299999999999
172384.0,7845.8500000000004,8314.6100000000006,1477.2,6657.3000000000002,-495.54899999999998,2748.0,19.297599999999999
172385.0,7850.29,8540.7099999999991,1432.55,6356.9799999999996,-502.51299999999998,2651.8200000000002,-15.053900000000001
172386.0,7849.0,8826.7999999999993,1465.72,6133.5200000000004,-509.39499999999998,2530.3499999999999,-46.732599999999998
172387.0,7843.0100000000002,9020.7000000000007,1424.21,5840.1999999999998,-515.26400000000001,2383.1100000000001,-75.326800000000006
172388.0,7831.7299999999996,9271.3299999999999,1460.1700000000001,5631.4499999999998,-519.40099999999995,2210.9499999999998,-100.86199999999999
172389.0,7816.75,9430.0799999999999,1423.1099999999999,5367.6700000000001,-520.72000000000003,2012.97,-122.366
172390.0,7795.2299999999996,9627.1299999999992,1450.03,5186.6499999999996,-517.05600000000004,1791.72,-141.67699999999999
172391.0,7774.0900000000001,9710.6000000000004,1378.3499999999999,4953.6000000000004,-505.173,1546.77,-157.52099999999999
172392.0,7698.5799999999999,6394.1899999999996,1722.5899999999999,8124.8299999999999,-454.22000000000003,2925.2199999999998,157.58799999999999
172393.0,7748.1199999999999,6740.3299999999999,1660.49,7879.6400000000003,-468.88099999999997,2968.1900000000001,132.93600000000001
172394.0,7786.5,7092.3500000000004,1644.99,7652.5200000000004,-481.58999999999997,2992.3699999999999,103.31999999999999
172395.0,7817.9300000000003,7406.3100000000004,1613.0599999999999,7389.7399999999998,-492.58100000000002,2995.1199999999999,67.668800000000005
172396.0,7841.5200000000004,7729.8299999999999,1611.9000000000001,7138.8199999999997,-504.51799999999997,2975.48,31.005199999999999
172397.0,7858.79,8019.9799999999996,1591.9000000000001,6858.0799999999999,-516.43100000000004,2930.2399999999998,-4.8476299999999997
172398.0,7869.4899999999998,8318.7700000000004,1596.5899999999999,6593.3500000000004,-528.90300000000002,2858.8499999999999,-38.346699999999998
172399.0,7874.3999999999996,8586.75,1585.76,6309.8000000000002,-540.88800000000003,2760.2399999999998,-69.025199999999998
172400.0,7873.4399999999996,8857.9400000000005,1596.22,6046.4899999999998,-552.54200000000003,2634.79,-96.478499999999997
172401.0,7867.6999999999998,9090.9099999999999,1586.0999999999999,5767.8400000000001,-562.80799999999999,2482.0100000000002,-120.2
172402.0,7856.6400000000003,9326.25,1599.4400000000001,5520.4899999999998,-571.30499999999995,2302.7199999999998,-140.43100000000001
172403.0,7842.0,9505.8199999999997,1575.79,5255.54,-576.62400000000002,2096.0999999999999,-156.12200000000001
172404.0,7821.96,9702.6599999999999,1593.79,5053.9300000000003,-576.17700000000002,1864.8499999999999,-168.98099999999999
172405.0,7803.1099999999997,9823.7999999999993,1549.5999999999999,4839.9899999999998,-567.14800000000002,1608.8299999999999,-177.81399999999999
172406.0,7697.7299999999996,6327.1999999999998,1861.77,8125.4399999999996,-452.16399999999999,3023.1300000000001,81.725099999999998
172407.0,7751.3500000000004,6658.0699999999997,1768.55,7844.6499999999996,-473.31999999999999,3070.48,59.544899999999998
172408.0,7792.3699999999999,7050.9300000000003,1782.1900000000001,7637.3199999999997,-492.08100000000002,3098.3099999999999,32.142899999999997
172409.0,7825.4099999999999,7348.2299999999996,1724.21,7335.5799999999999,-508.87099999999998,3103.8499999999999,-1.4973799999999999
172410.0,7850.1599999999999,7711.5299999999997,1754.5899999999999,7101.0299999999997,-526.41999999999996,3085.9200000000001,-35.746499999999997
172411.0,7868.0600000000004,7988.1599999999999,1713.5,6782.4099999999999,-543.70399999999995,3041.1500000000001,-68.703999999999994
172412.0,7879.0600000000004,8327.0699999999997,1751.1300000000001,6532.9700000000003,-561.61400000000003,2968.73,-98.895700000000005
172413.0,7883.9799999999996,8574.1299999999992,1712.5799999999999,6203.4399999999996,-578.93100000000004,2867.6199999999999,-125.73
172414.0,7882.8999999999996,8880.7999999999993,1751.9300000000001,5950.8100000000004,-595.70600000000002,2738.0700000000002,-148.68000000000001
172415.0,7876.8599999999997,9095.4599999999991,1717.3099999999999,5629.6700000000001,-610.88999999999999,2579.6500000000001,-167.31899999999999
172416.0,7865.8199999999997,9364.4400000000005,1757.8399999999999,5392.6700000000001,-623.67100000000005,2393.1500000000001,-181.66999999999999
172417.0,7851.4399999999996,9543.0,1726.48,5104.7299999999996,-632.84699999999998,2177.9099999999999,-190.90799999999999
172418.0,7832.54,9757.9899999999998,1754.9400000000001,4901.1300000000001,-636.02800000000002,1936.55,-196.92599999999999
172419.0,7815.8599999999997,9865.3600000000006,1687.3199999999999,4654.8900000000003,-630.01800000000003,1669.4400000000001,-198.21100000000001
172420.0,7685.7399999999998,6197.2700000000004,1965.9400000000001,8061.7799999999997,-447.685,3119.8000000000002,2.12887
172421.0,7743.1300000000001,6595.3900000000003,1924.02,7827.9700000000003,-475.55399999999997,3171.6399999999999,-17.2454
172422.0,7786.4200000000001,6957.75,1895.9200000000001,7569.1400000000003,-500.37299999999999,3203.1900000000001,-42.194299999999998
172423.0,7820.6199999999999,7311.9200000000001,1886.3299999999999,7302.1499999999996,-523.12699999999995,3211.48,-73.526300000000006
172424.0,7845.8500000000004,7642.4200000000001,1876.98,7011.4899999999998,-546.43299999999999,3195.1799999999998,-105.348
172425.0,7863.75,7968.6499999999996,1879.4200000000001,6718.3699999999999,-569.678,3150.7199999999998,-135.51300000000001
172426.0,7874.5600000000004,8273.7700000000004,1877.4300000000001,6410.4300000000003,-593.12800000000004,3077.2199999999998,-162.155
172427.0,7879.1000000000004,8574.8299999999999,1887.3199999999999,6109.9899999999998,-615.875,2973.52,-184.745
172428.0,7877.5900000000001,8852.6700000000001,1892.5,5803.8800000000001,-637.76199999999994,2839.8299999999999,-202.786
172429.0,7871.0699999999997,9114.8799999999992,1900.27,5506.1999999999998,-657.774,2675.6900000000001,-215.81399999999999
172430.0,7859.6300000000001,9355.9300000000003,1907.9000000000001,5218.3699999999999,-675.25,2481.8899999999999,-224.03100000000001
172431.0,7845.0799999999999,9563.5200000000004,1900.3299999999999,4937.8199999999997,-688.779,2257.8899999999999,-226.49299999999999
172432.0,7827.2399999999998,9767.6700000000001,1911.05,4703.3999999999996,-695.52300000000002,2006.4300000000001,-225.09
172433.0,7812.3599999999997,9920.8099999999995,1880.45,4484.6499999999996,-692.76099999999997,1728.1800000000001,-218.27600000000001
172434.0,7663.0200000000004,6102.6700000000001,2135.2399999999998,8031.5500000000002,-440.66699999999997,3214.8499999999999,-81.370099999999994
172435.0,7723.5,6451.3900000000003,2028.28,7728.5500000000002,-475.60599999999999,3271.1300000000001,-97.994699999999995
172436.0,7768.4200000000001,6884.9700000000003,2061.1399999999999,7520.3699999999999,-506.86799999999999,3306.3600000000001,-120.425
172437.0,7803.2700000000004,7192.6400000000003,1997.6199999999999,7184.8999999999996,-535.79100000000005,3317.3600000000001,-149.38900000000001
172438.0,7828.5299999999997,7587.5100000000002,2047.03,6935.5500000000002,-565.14300000000003,3302.6399999999999,-178.55099999999999
172439.0,7846.1300000000001,7872.9499999999998,2003.6800000000001,6577.6000000000004,-594.05700000000002,3258.48,-205.322
172440.0,7856.3199999999997,8239.9300000000003,2059.23,6307.0200000000004,-623.36199999999997,3183.7800000000002,-228.19499999999999
172441.0,7860.0500000000002,8495.7399999999998,2019.8900000000001,5936.75,-651.71799999999996,3077.3800000000001,-246.28100000000001
172442.0,7857.6899999999996,8826.5799999999999,2074.3800000000001,5659.3000000000002,-679.10199999999998,2939.4099999999999,-259.16199999999998
172443.0,7850.29,9050.4200000000001,2040.3199999999999,5299.6499999999996,-704.30499999999995,2769.4699999999998,-266.27300000000002
172444.0,7838.3500000000004,9341.0499999999993,2093.7800000000002,5038.7299999999996,-726.40300000000002,2568.3299999999999,-267.73099999999999
172445.0,7823.6000000000004,9528.5499999999993,2061.9499999999998,4716.8000000000002,-744.05200000000002,2335.5999999999999,-262.76799999999997
172446.0,7806.4899999999998,9765.2399999999998,2099.71,4495.3900000000003,-754.76900000000001,2073.9699999999998,-253.47999999999999
172447.0,7793.2399999999998,9887.1399999999994,2029.95,4227.4099999999999,-755.33399999999995,1784.6300000000001,-238.035
172448.0,7630.8500000000004,5913.5500000000002,2241.5799999999999,7905.0299999999997,-430.82999999999998,3307.8600000000001,-168.61000000000001
172449.0,7693.5799999999999,6347.4200000000001,2204.3200000000002,7667.5100000000002,-472.815,3368.6799999999998,-182.09299999999999
172450.0,7739.7299999999996,6734.4200000000001,2180.8899999999999,7392.3100000000004,-510.697,3407.6300000000001,-201.745
172451.0,7774.5299999999997,7108.9300000000003,2178.1300000000001,7102.0,-545.79999999999995,3421.25,-228.15299999999999
172452.0,7799.3900000000003,7459.3500000000004,2178.8099999999999,6785.3599999999997,-581.327,3407.9899999999998,-254.42099999999999
172453.0,7816.0,7800.0,2187.71,6459.0100000000002,-616.42899999999997,3363.9299999999998,-277.98599999999999
172454.0,7825.1899999999996,8124.3500000000004,2197.8899999999999,6121.6599999999999,-651.63900000000001,3287.8899999999999,-296.73099999999999
172455.0,7827.79,8436.0799999999999,2212.1799999999998,5783.0699999999997,-685.69899999999996,3178.6900000000001,-309.96699999999998
172456.0,7824.4099999999999,8733.5300000000007,2231.1100000000001,5448.3299999999999,-718.53300000000002,3036.3600000000001,-317.19200000000001
172457.0,7816.0,9002.3500000000004,2240.1399999999999,5110.4300000000003,-748.81700000000001,2860.5300000000002,-317.89400000000001
172458.0,7803.2700000000004,9262.0599999999995,2260.8400000000001,4796.6300000000001,-775.94100000000003,2651.96,-312.26799999999997
172459.0,7788.0699999999997,9475.7099999999991,2252.8200000000002,4480.1700000000001,-798.13599999999997,2410.4200000000001,-299.53699999999998
172460.0,7771.6700000000001,9700.6700000000001,2274.5,4227.9700000000003,-812.73599999999999,2138.6999999999998,-281.67500000000001
172461.0,7759.7600000000002,9865.8299999999999,2241.2800000000002,3985.71,-816.79100000000005,1838.29,-257.10000000000002
172462.0,7590.3999999999996,5767.8199999999997,2424.4400000000001,7818.9499999999998,-417.637,3398.3200000000002,-259.5
172463.0,7654.3999999999996,6149.8199999999997,2321.2399999999998,7511.1099999999997,-467.37400000000002,3463.7600000000002,-270.02699999999999
172464.0,7700.8900000000003,6608.0799999999999,2360.0700000000002,7286.9899999999998,-511.93400000000003,3506.1900000000001,-286.82600000000002
172465.0,7735.2600000000002,6933.9499999999998,2304.1300000000001,6926.8400000000001,-553.58900000000006,3522.46,-310.50099999999998
172466.0,7759.1499999999996,7345.8500000000004,2363.6199999999999,6649.1499999999996,-595.35199999999998,3510.46,-333.697
172467.0,7774.6499999999996,7643.7700000000004,2328.25,6256.7299999999996,-636.45600000000002,3466.48,-353.39800000000002
172468.0,7782.5699999999997,8026.1599999999999,2395.52,5953.6599999999999,-677.71199999999999,3388.9400000000001,-367.81099999999998
172469.0,7783.7600000000002,8291.4400000000005,2363.0799999999999,5544.9899999999998,-717.678,3276.7600000000002,-375.86599999999999
172470.0,7779.0799999999999,8635.5599999999995,2428.6999999999998,5233.6599999999999,-756.20399999999995,3129.9000000000001,-377.15300000000002
172471.0,7769.5699999999997,8867.4099999999999,2400.8899999999999,4836.3500000000004,-791.88199999999995,2948.0799999999999,-371.03899999999999
172472.0,7756.2299999999996,9170.5499999999993,2464.7600000000002,4544.54,-823.80499999999995,2732.0799999999999,-357.71499999999997
172473.0,7740.75,9364.7999999999993,2436.46,4188.6800000000003,-850.40099999999995,2481.7800000000002,-336.51999999999998
172474.0,7724.9399999999996,9616.3299999999999,2482.2399999999998,3944.7600000000002,-869.19299999999998,2200.0100000000002,-309.637
172475.0,7714.2299999999996,9750.9400000000005,2412.98,3655.0799999999999,-876.91399999999999,1888.6500000000001,-275.35199999999998
172476.0,7543.75,5521.75,2542.8200000000002,7630.4399999999996,-401.173,3485.54,-354.06700000000001
172477.0,7608.1000000000004,5988.54,2510.5999999999999,7388.6599999999999,-458.20299999999997,3556.04,-361.13200000000001
172478.0,7654.4200000000001,6398.9300000000003,2493.1100000000001,7097.1300000000001,-509.97800000000001,3601.7800000000002,-374.83100000000002
172479.0,7687.6099999999997,6788.8599999999997,2498.6700000000001,6780.1000000000004,-557.89700000000005,3620.6700000000001,-395.63900000000001
172480.0,7710.3800000000001,7153.46,2509.46,6433.04,-606.21400000000006,3609.6900000000001,-415.45800000000003
172481.0,7724.21,7504.75,2528.6100000000001,6071.2399999999998,-653.57899999999995,3565.5700000000002,-431.47800000000001
172482.0,7730.6999999999998,7838.8900000000003,2548.5500000000002,5696.8100000000004,-701.02700000000004,3486.25,-441.113
172483.0,7730.4700000000003,8159.96,2573.8200000000002,5320.8199999999997,-746.80499999999995,3370.9899999999998,-443.62599999999998
172484.0,7724.6199999999999,8464.1599999999999,2601.3600000000001,4947.0900000000001,-790.95799999999997,3219.4200000000001,-438.41899999999998
172485.0,7714.1499999999996,8740.7199999999993,2620.6599999999999,4572.8500000000004,-831.92399999999998,3031.5700000000002,-425.01799999999997
172486.0,7700.3000000000002,9004.0900000000001,2646.8400000000001,4220.9399999999996,-869.00800000000004,2808.0100000000002,-403.608
172487.0,7684.7200000000003,9227.4300000000003,2649.0300000000002,3875.1399999999999,-900.30200000000002,2548.98,-373.55099999999999
172488.0,7669.8000000000002,9457.3999999999996,2672.23,3592.1399999999999,-923.12400000000002,2257.2600000000002,-336.94400000000002
172489.0,7660.1499999999996,9641.2399999999998,2648.3299999999999,3335.6399999999999,-934.56899999999996,1935.1400000000001,-292.32900000000001
172490.0,7494.3100000000004,5283.5200000000004,2706.98,7446.5500000000002,-381.05000000000001,3569.5900000000001,-451.94600000000003
172491.0,7557.0900000000001,5755.9499999999998,2667.46,7192.6899999999996,-445.49599999999998,3644.6399999999999,-455.91500000000002
172492.0,7602.4499999999998,6189.5100000000002,2665.75,6905.1000000000004,-504.61599999999999,3693.7199999999998,-466.245
172493.0,7634.1599999999999,6565.4099999999999,2656.5100000000002,6553.79,-559.15099999999995,3715.0799999999999,-484.06299999999999
172494.0,7655.46,6959.0900000000001,2696.9299999999998,6214.1999999999998,-613.92600000000004,3704.8899999999999,-500.262
172495.0,7667.8299999999999,7287.1499999999996,2695.8499999999999,5806.8500000000004,-667.43600000000004,3660.5,-511.99299999999999
172496.0,7672.8800000000001,7658.1800000000003,2755.8499999999999,5446.9099999999999,-721.05200000000002,3579.1399999999999,-516.52700000000004
172497.0,7671.3400000000001,7942.3299999999999,2748.7399999999998,5011.7799999999997,-772.81799999999998,3460.5500000000002,-513.20100000000002
172498.0,7664.5699999999997,8278.4899999999998,2812.6500000000001,4648.6199999999999,-822.78700000000003,3304.04,-501.166
172499.0,7653.6300000000001,8522.6299999999992,2804.4000000000001,4221.3599999999997,-869.16399999999999,3110.04,-479.99900000000002
172500.0,7639.9499999999998,8820.8600000000006,2869.5500000000002,3885.0500000000002,-911.11199999999997,2878.98,-449.82100000000003
172501.0,7624.96,9023.9799999999996,2854.98,3501.02,-946.84100000000001,2611.3400000000001,-410.18700000000001
172502.0,7611.2799999999997,9276.1399999999994,2901.6100000000001,3223.9400000000001,-973.97900000000004,2309.8099999999999,-363.38200000000001
172503.0,7602.8199999999997,9425.3799999999992,2840.9499999999998,2917.71,-989.28200000000004,1977.1400000000001,-307.88499999999999
172504.0,7445.3699999999999,5000.04,2867.0300000000002,7214.0900000000001,-356.24000000000001,3649.6799999999998,-553.13599999999997
172505.0,7505.8199999999997,5505.9799999999996,2846.6799999999998,6976.5600000000004,-428.88,3729.2199999999998,-553.53800000000001
172506.0,7548.8500000000004,5932.2399999999998,2833.0999999999999,6663.1800000000003,-494.87599999999998,3781.71,-560.44899999999996
172507.0,7579.0699999999997,6332.79,2848.1999999999998,6316.5600000000004,-556.28099999999995,3805.1100000000001,-574.86000000000001
172508.0,7598.6700000000001,6707.2799999999997,2873.2600000000002,5936.9300000000003,-617.41200000000003,3795.6799999999998,-587.37199999999996
172509.0,7609.7799999999997,7057.1899999999996,2898.8299999999999,5529.8000000000002,-677.39700000000005,3750.46,-594.63900000000001
172510.0,7613.6499999999996,7400.2700000000004,2937.29,5120.4099999999999,-737.14400000000001,3666.9000000000001,-593.85599999999999
172511.0,7611.54,7714.1099999999997,2966.3400000000001,4693.71,-794.78999999999996,3544.6199999999999,-584.10199999999998
172512.0,7604.5600000000004,8026.1800000000003,3013.4899999999998,4286.1599999999999,-850.32799999999997,3383.1100000000001,-564.71199999999999
172513.0,7594.0299999999997,8291.4599999999991,3033.73,3860.8299999999999,-901.99599999999998,3182.7600000000002,-535.24699999999996
172514.0,7581.3900000000003,8561.6499999999996,3078.1300000000001,3478.6900000000001,-949.08900000000006,2944.1700000000001,-495.916
172515.0,7567.9700000000003,8774.8199999999997,3079.7199999999998,3088.25,-989.51999999999998,2667.9400000000001,-446.26900000000001
172516.0,7556.3699999999999,9015.0499999999993,3117.8800000000001,2784.1999999999998,-1020.71,2356.8800000000001,-388.488
172517.0,7549.4300000000003,9198.6599999999999,3091.3000000000002,2498.4200000000001,-1039.79,2013.95,-321.49000000000001
172518.0,7402.4499999999998,4721.3100000000004,3076.2800000000002,6983.4799999999996,-325.92200000000003,3725.3699999999999,-657.66999999999996
172519.0,7458.4700000000003,5185.54,2997.3899999999999,6686.3699999999999,-408.33100000000002,3808.79,-654.04700000000003
172520.0,7498.46,5661.3999999999996,3033.1100000000001,6405.96,-480.58100000000002,3865.0799999999999,-657.88800000000003
172521.0,7526.9700000000003,6029.79,3015.7199999999998,6007.2700000000004,-549.44299999999998,3889.8299999999999,-668.32899999999995
172522.0,7545.3400000000001,6434.3900000000003,3078.4699999999998,5637.7700000000004,-616.47699999999998,3881.3000000000002,-677.06299999999999
172523.0,7555.8199999999997,6759.9099999999999,3085.71,5185.2600000000002,-682.99599999999998,3834.6500000000001,-679.16800000000001
172524.0,7559.5,7127.0500000000002,3158.0,4779.2600000000002,-748.49300000000005,3748.8000000000002,-672.73000000000002
172525.0,7557.5799999999999,7411.1499999999996,3166.4499999999998,4303.0,-812.28800000000001,3622.1999999999998,-656.17600000000004
172526.0,7551.6999999999998,7735.1000000000004,3236.48,3888.4699999999998,-873.40800000000002,3455.5599999999999,-629.13800000000003
172527.0,7542.9899999999998,7980.1099999999997,3246.5700000000002,3425.4200000000001,-930.48400000000004,3248.6100000000001,-590.81100000000004
172528.0,7533.1499999999996,8262.9599999999991,3313.8400000000001,3039.6700000000001,-982.22199999999998,3002.6700000000001,-541.64200000000005
172529.0,7522.9499999999998,8468.7600000000002,3316.5100000000002,2627.0599999999999,-1027.04,2718.0,-481.18299999999999
172530.0,7514.8299999999999,8709.2099999999991,3361.2399999999998,2309.7199999999998,-1062.4300000000001,2397.73,-411.95600000000002
172531.0,7510.0600000000004,8871.1399999999994,3314.9200000000001,1989.9200000000001,-1085.48,2044.8800000000001,-332.88799999999998
172532.0,7372.79,4413.0100000000002,3301.48,6719.4700000000003,-290.56400000000002,3796.02,-765.16899999999998
172533.0,7420.8699999999999,4822.46,3151.1900000000001,6350.3900000000003,-382.26799999999997,3882.8600000000001,-757.12400000000002
172534.0,7458.5100000000002,5356.8000000000002,3246.1599999999999,6112.3400000000001,-461.47699999999998,3943.3299999999999,-757.35199999999998
172535.0,7484.5900000000001,5692.3500000000004,3198.1799999999998,5661.79,-536.92700000000002,3968.9699999999998,-763.85199999999998
172536.0,7503.1899999999996,6117.0799999999999,3290.5300000000002,5292.8199999999997,-610.50800000000004,3961.0300000000002,-768.42999999999995
172537.0,7513.5500000000002,6423.8699999999999,3288.8400000000001,4801.8599999999997,-683.17200000000003,3912.4499999999998,-765.32399999999996
172538.0,7518.6700000000001,6787.75,3370.3600000000001,4372.8999999999996,-754.76300000000003,3823.75,-752.88999999999999
172539.0,7518.4899999999998,7071.3999999999996,3390.8800000000001,3877.9400000000001,-824.20600000000002,3692.5500000000002,-728.96900000000005
172540.0,7515.75,7386.1000000000004,3465.5999999999999,3436.8299999999999,-890.61800000000005,3520.3899999999999,-693.63900000000001
172541.0,7510.8699999999999,7628.6800000000003,3487.0999999999999,2956.0500000000002,-952.80799999999999,3306.7600000000002,-645.90700000000004
172542.0,7506.1899999999996,7891.4799999999996,3548.0700000000002,2536.0799999999999,-1009.39,3053.3899999999999,-586.46400000000006
172543.0,7501.4899999999998,8090.4499999999998,3555.9200000000001,2104.0300000000002,-1058.75,2760.5,-514.72299999999996
172544.0,7498.9700000000003,8323.6499999999996,3602.27,1767.6099999999999,-1097.95,2431.4099999999999,-433.26400000000001
172545.0,7497.5100000000002,8508.3999999999996,3583.1500000000001,1459.9100000000001,-1124.71,2069.1500000000001,-341.44299999999998
172546.0,7364.0100000000002,3972.04,3438.4400000000001,6317.46,-250.995,3860.3200000000002,-874.86599999999999
172547.0,7401.6800000000003,4487.8599999999997,3384.9200000000001,6040.9300000000003,-349.75099999999998,3951.48,-862.90899999999999
172548.0,7436.0699999999997,4953.4499999999998,3408.5100000000002,5716.6199999999999,-437.44799999999998,4014.9699999999998,-858.83600000000001
172549.0,7460.8299999999999,5343.6199999999999,3423.7600000000002,5303.8000000000002,-518.78800000000001,4042.1500000000001,-861.89599999999996
172550.0,7480.5200000000004,5722.6099999999997,3479.3899999999999,4869.4300000000003,-598.95899999999995,4033.6399999999999,-861.19299999999998
172551.0,7493.1700000000001,6057.9200000000001,3520.8400000000001,4388.3000000000002,-677.32100000000003,3983.3200000000002,-852.92899999999997
172552.0,7501.3900000000003,6392.5500000000002,3587.29,3911.6199999999999,-754.77200000000005,3890.6900000000001,-833.572
172553.0,7505.5600000000004,6679.8199999999997,3629.04,3403.75,-829.77700000000004,3754.6300000000001,-802.25199999999995
172554.0,7508.4300000000003,6966.8199999999997,3693.21,2920.0700000000002,-901.58299999999997,3576.2600000000002,-758.03599999999994
172555.0,7510.75,7210.8599999999997,3734.3899999999999,2427.6100000000001,-968.63499999999999,3356.0,-700.447
172556.0,7514.4300000000003,7456.3199999999997,3794.7600000000002,1978.6400000000001,-1029.55,3095.23,-629.88900000000001
172557.0,7518.6499999999996,7662.29,3825.1900000000001,1543.0599999999999,-1082.8599999999999,2794.5999999999999,-546.13300000000004
172558.0,7524.4099999999999,7872.1700000000001,3860.3600000000001,1173.9000000000001,-1126.04,2457.02,-451.94400000000002
172559.0,7528.1999999999998,8045.6800000000003,3837.4400000000001,846.14700000000005,-1156.6600000000001,2085.9899999999998,-346.85000000000002
172560.0,7384.3999999999996,3515.7600000000002,3607.98,5894.8500000000004,-204.83699999999999,3917.4099999999999,-985.92999999999995
172561.0,7411.9200000000001,4087.2800000000002,3604.5900000000001,5662.1400000000003,-311.60500000000002,4014.3699999999999,-970.63499999999999
172562.0,7440.6400000000003,4527.0100000000002,3599.8099999999999,5295.3100000000004,-406.42700000000002,4079.5999999999999,-961.90599999999995
172563.0,7466.79,4939.4499999999998,3648.3299999999999,4887.7700000000004,-494.315,4108.8400000000001,-960.76400000000001
172564.0,7488.6999999999998,5291.8100000000004,3689.5799999999999,4408.5600000000004,-580.42999999999995,4098.8199999999997,-955.15499999999997
172565.0,7506.6800000000003,5630.8800000000001,3752.4400000000001,3912.8000000000002,-664.702,4046.1799999999998,-941.06899999999996
172566.0,7520.5500000000002,5939.0200000000004,3810.77,3393.2399999999998,-747.71199999999999,3948.7800000000002,-914.76599999999996
172567.0,7532.7600000000002,6227.6800000000003,3874.8299999999999,2871.6799999999998,-827.923,3807.25,-875.23699999999997
172568.0,7544.5900000000001,6494.6199999999999,3940.6100000000001,2355.98,-904.548,3622.1500000000001,-821.59699999999998
172569.0,7558.2399999999998,6727.5100000000002,3993.29,1842.04,-976.19000000000005,3395.0500000000002,-753.51499999999999
172570.0,7574.5600000000004,6948.9899999999998,4051.1199999999999,1360.6700000000001,-1041.47,3127.02,-671.43899999999996
172571.0,7592.1499999999996,7135.6499999999996,4081.8200000000002,897.90800000000002,-1098.8,2818.9899999999998,-575.12099999999998
172572.0,7609.8199999999997,7339.25,4126.1400000000003,515.48699999999997,-1145.3399999999999,2473.5999999999999,-467.44400000000002
172573.0,7621.29,7522.3800000000001,4123.1999999999998,190.65299999999999,-1179.3299999999999,2094.4899999999998,-348.35700000000003
172574.0,7446.6400000000003,3058.3099999999999,3831.7199999999998,5467.8400000000001,-150.66800000000001,3967.4299999999998,-1098.8599999999999
172575.0,7460.9099999999999,3607.6399999999999,3796.71,5199.5699999999997,-267.13799999999998,4069.73,-1079.1900000000001
172576.0,7485.3500000000004,4076.1100000000001,3823.7199999999998,4847.6800000000003,-368.31799999999998,4137.5,-1066.6400000000001
172577.0,7513.6700000000001,4459.0799999999999,3853.4499999999998,4393.0699999999997,-462.97199999999998,4167.6199999999999,-1060.48
172578.0,7541.6400000000003,4825.5699999999997,3925.5500000000002,3910.54,-554.37099999999998,4156.29,-1049.8399999999999
172579.0,7567.7299999999996,5136.75,3979.9400000000001,3369.3099999999999,-644.20699999999999,4100.0200000000004,-1029.1700000000001
172580.0,7591.6599999999999,5447.9200000000001,4064.4099999999999,2837.5799999999999,-732.22900000000004,3997.2800000000002,-995.59000000000003
172581.0,7615.3800000000001,5702.0600000000004,4119.3299999999999,2269.3800000000001,-817.45100000000002,3848.8699999999999,-947.38199999999995
172582.0,7641.4099999999999,5957.5299999999997,4200.7799999999997,1733.25,-898.80899999999997,3656.6500000000001,-884.05399999999997
172583.0,7671.2399999999998,6161.8699999999999,4252.1800000000003,1184.3699999999999,-974.74400000000003,3422.3600000000001,-804.75300000000004
172584.0,7705.8999999999996,6376.1199999999999,4329.0,690.49099999999999,-1043.6099999999999,3147.5700000000002,-710.41800000000001
172585.0,7741.8800000000001,6546.0299999999997,4366.3800000000001,206.26599999999999,-1104.21,2832.6199999999999,-600.74099999999999
172586.0,7776.21,6734.1400000000003,4415.0200000000004,-195.82499999999999,-1154.1600000000001,2480.1399999999999,-479.05000000000001
172587.0,7798.5600000000004,6885.5500000000002,4394.1000000000004,-556.38699999999994,-1191.54,2093.75,-345.55599999999998
172588.0,7563.9399999999996,2538.5599999999999,4047.9400000000001,4973.7799999999997,-90.004000000000005,4010.1900000000001,-1212.5999999999999
172589.0,7561.7299999999996,3090.4200000000001,4007.8699999999999,4697.1999999999998,-214.196,4117.1899999999996,-1188.6800000000001
172590.0,7583.1999999999998,3568.52,4047.27,4339.6000000000004,-322.94400000000002,4188.21,-1171.05
172591.0,7616.1300000000001,3943.5700000000002,4083.3600000000001,3861.04,-422.48899999999998,4218.7299999999996,-1160.3099999999999
172592.0,7654.0200000000004,4295.96,4159.4099999999999,3346.2800000000002,-520.08500000000004,4205.3800000000001,-1143.97
172593.0,7692.6899999999996,4591.7600000000002,4222.6099999999997,2773.3600000000001,-614.41399999999999,4144.5600000000004,-1116.74
172594.0,7731.21,4880.1999999999998,4310.75,2204.8600000000001,-707.44100000000003,4034.96,-1075.3699999999999
172595.0,7771.8299999999999,5116.71,4378.6800000000003,1609.7,-796.99400000000003,3878.5799999999999,-1018.17
172596.0,7816.6999999999998,5348.4200000000001,4469.5299999999997,1045.1400000000001,-882.43399999999997,3677.9099999999999,-944.279
172597.0,7869.0100000000002,5527.3800000000001,4529.6800000000003,469.56999999999999,-962.10199999999998,3436.5300000000002,-853.29700000000003
172598.0,7928.7299999999996,5709.0699999999997,4605.4099999999999,-58.206400000000002,-1034.5699999999999,3155.3600000000001,-746.17499999999995
172599.0,7989.46,5851.7299999999996,4643.9799999999996,-570.84100000000001,-1098.3699999999999,2834.1799999999998,-622.67600000000004
172600.0,8045.5,6023.8800000000001,4700.3100000000004,-989.99599999999998,-1150.98,2475.4699999999998,-486.14600000000002
172601.0,8082.5,6181.9099999999999,4703.6000000000004,-1345.0899999999999,-1191.0799999999999,2082.8800000000001,-337.53899999999999
172602.0,7746.4899999999998,1901.79,4203.1400000000003,4358.5100000000002,-21.455100000000002,4043.8000000000002,-1325.6199999999999
172603.0,7729.6099999999997,2575.0300000000002,4280.1000000000004,4194.3100000000004,-152.572,4157.6499999999996,-1297.48
172604.0,7747.3599999999997,2971.0500000000002,4239.6499999999996,3738.98,-268.52699999999999,4230.9300000000003,-1275.1600000000001
172605.0,7790.1499999999996,3392.8400000000001,4339.2399999999998,3290.4899999999998,-373.52999999999997,4262.4499999999998,-1259.54
172606.0,7840.3900000000003,3698.3899999999999,4388.6000000000004,2710.73,-475.029,4245.6400000000003,-1236.24
172607.0,7897.96,4004.52,4489.4799999999996,2131.4400000000001,-573.70100000000002,4179.3699999999999,-1202.3499999999999
172608.0,7955.54,4252.1400000000003,4568.21,1509.8499999999999,-670.59900000000005,4060.7399999999998,-1152.6700000000001
172609.0,8018.5500000000002,4474.6499999999996,4659.6599999999999,894.702,-763.92999999999995,3894.1199999999999,-1086.49
172610.0,8088.4200000000001,4656.2700000000004,4740.3900000000003,281.94200000000001,-854.01199999999994,3683.8899999999999,-1001.91
172611.0,8171.2600000000002,4811.3299999999999,4817.6099999999997,-313.346,-937.33199999999999,3435.9400000000001,-898.56100000000004
172612.0,8263.2299999999996,4961.96,4899.6300000000001,-869.09100000000001,-1012.23,3149.0999999999999,-777.81500000000005
172613.0,8355.2000000000007,5089.5600000000004,4956.7600000000002,-1394.1800000000001,-1078.28,2822.4299999999998,-639.69100000000003
172614.0,8438.5100000000002,5228.9899999999998,5009.04,-1843.1400000000001,-1133.3900000000001,2458.5,-487.85899999999998
172615.0,8494.8899999999994,5353.7700000000004,5000.6099999999997,-2229.6799999999998,-1176.23,2060.98,-323.762
172616.0,8010.5699999999997,1335.4000000000001,4492.7399999999998,3813.9400000000001,58.242699999999999,4069.21,-1437.28
172617.0,7975.6499999999996,1912.5999999999999,4460.9200000000001,3541.02,-83.481700000000004,4190.3100000000004,-1404.52
172618.0,7994.4799999999996,2390.7800000000002,4511.8500000000004,3153.9699999999998,-202.679,4267.5500000000002,-1377.1700000000001
172619.0,8047.4399999999996,2753.77,4564.8599999999997,2625.8400000000001,-313.04500000000002,4298.4899999999998,-1355.01
172620.0,8117.3800000000001,3073.7199999999998,4655.1999999999998,2043.03,-418.38999999999999,4277.7200000000003,-1326.23
172621.0,8197.1800000000003,3333.4499999999998,4738.7799999999997,1400.54,-519.84799999999996,4203.7700000000004,-1283.28
172622.0,8282.3500000000004,3572.6100000000001,4844.4799999999996,757.27599999999995,-618.32500000000005,4074.8699999999999,-1226.3900000000001
172623.0,8371.2000000000007,3739.9899999999998,4922.5299999999997,84.718000000000004,-716.303,3893.3699999999999,-1151.9300000000001
172624.0,8472.3600000000006,3901.4200000000001,5037.0799999999999,-535.01599999999996,-810.95600000000002,3672.0799999999999,-1056.0
172625.0,8594.9099999999999,4000.0100000000002,5108.0600000000004,-1175.02,-897.54399999999998,3418.8499999999999,-939.34799999999996
172626.0,8728.2600000000002,4119.3900000000003,5202.0699999999997,-1755.49,-975.06799999999998,3127.3099999999999,-804.78499999999997
172627.0,8857.4599999999991,4196.3199999999997,5247.3900000000003,-2323.6300000000001,-1043.3199999999999,2795.75,-651.41200000000003
172628.0,8974.0599999999995,4321.7299999999996,5319.6800000000003,-2779.79,-1099.9000000000001,2428.1999999999998,-483.56299999999999
172629.0,9053.9400000000005,4435.3199999999997,5326.1199999999999,-3172.0999999999999,-1144.3199999999999,2027.03,-303.21699999999998
172630.0,8367.3500000000004,696.38699999999994,4774.3400000000001,3196.6199999999999,147.471,4086.6500000000001,-1544.9000000000001
172631.0,8309.5599999999995,1222.98,4675.6700000000001,2861.7199999999998,-0.73339100000000002,4215.0799999999999,-1505.52
172632.0,8337.9899999999998,1748.0,4780.96,2502.3699999999999,-125.663,4299.96,-1474.8699999999999
172633.0,8401.3600000000006,2055.9000000000001,4790.1800000000003,1895.9100000000001,-238.94800000000001,4328.2600000000002,-1445.75
172634.0,8493.1499999999996,2414.3099999999999,4940.9499999999998,1330.27,-343.70400000000001,4303.2399999999998,-1405.6600000000001
172635.0,8600.7199999999993,2613.8299999999999,4992.3699999999999,608.90099999999995,-441.101,4222.3400000000001,-1348.8499999999999
172636.0,8719.4300000000003,2864.1300000000001,5147.0100000000002,-45.498699999999999,-531.75900000000001,4077.98,-1287.1900000000001
172637.0,8833.7800000000007,2968.4299999999998,5219.2399999999998,-770.28700000000003,-638.41999999999996,3870.3899999999999,-1212.98
172638.0,8979.7800000000007,3056.8499999999999,5337.5200000000004,-1427.25,-750.65099999999995,3639.5799999999999,-1106.1900000000001
172639.0,9157.5599999999995,3095.9400000000001,5407.8599999999997,-2112.04,-841.69399999999996,3385.0,-975.08299999999997
172640.0,9337.0699999999997,3190.2199999999998,5525.0600000000004,-2706.8800000000001,-919.97299999999996,3087.5900000000001,-825.84699999999998
172641.0,9509.8199999999997,3227.8400000000001,5579.04,-3299.1399999999999,-989.28200000000004,2752.73,-656.33299999999997
172642.0,9665.9099999999999,3319.8099999999999,5657.3500000000004,-3777.9299999999998,-1046.96,2383.2600000000002,-472.012
172643.0,9774.0100000000002,3381.1599999999999,5641.4099999999999,-4213.4700000000003,-1093.22,1980.3699999999999,-275.26299999999998
172644.0,8817.1100000000006,-85.677300000000002,4970.0799999999999,2439.3699999999999,245.63,4093.3200000000002,-1645.5999999999999
172645.0,8748.8400000000001,527.86400000000003,4950.1400000000003,2187.4299999999998,92.999099999999999,4237.3500000000004,-1599.9300000000001
172646.0,8785.3799999999992,1010.74,5004.4200000000001,1750.72,-30.233699999999999,4334.1999999999998,-1558.04
172647.0,8857.9500000000007,1395.02,5095.79,1179.8800000000001,-139.035,4355.6999999999998,-1522.1400000000001
172648.0,8958.7000000000007,1669.1300000000001,5198.6099999999997,519.36800000000005,-238.404,4316.6400000000003,-1454.9200000000001
172649.0,9111.5,1945.5999999999999,5380.9200000000001,-152.88200000000001,-302.93700000000001,4229.0500000000002,-1375.4400000000001
172650.0,9268.25,2128.0799999999999,5522.8100000000004,-896.84799999999996,-381.84100000000001,4047.1100000000001,-1339.47
172651.0,9414.6200000000008,2128.2600000000002,5562.9300000000003,-1670.5899999999999,-528.81500000000005,3813.1599999999999,-1277.96
172652.0,9626.3700000000008,2106.6300000000001,5632.6099999999997,-2405.1300000000001,-668.41700000000003,3589.7800000000002,-1150.4000000000001
172653.0,9867.8400000000001,2119.5799999999999,5734.3500000000004,-3109.46,-762.91099999999994,3331.2600000000002,-1004.2
172654.0,10098.299999999999,2132.8299999999999,5833.8500000000004,-3759.0999999999999,-844.85199999999998,3027.4000000000001,-840.82500000000005
172655.0,10323.700000000001,2124.5100000000002,5895.7700000000004,-4377.9700000000003,-916.24400000000003,2692.5900000000001,-654.154
172656.0,10523.4,2171.3499999999999,5973.2799999999997,-4886.3800000000001,-973.59199999999998,2322.6700000000001,-452.72699999999998
172657.0,10664.5,2235.5599999999999,5997.2600000000002,-5305.3199999999997,-1019.72,1920.0799999999999,-238.523
172658.0,9357.7700000000004,-856.85900000000004,5239.1499999999996,1705.5899999999999,356.71899999999999,4088.2800000000002,-1726.0
172659.0,9284.7399999999998,-221.048,5225.4300000000003,1475.55,212.56999999999999,4265.04,-1652.98
172660.0,9346.4799999999996,309.11500000000001,5308.5699999999997,1013.63,111.529,4383.7200000000003,-1602.05
172661.0,9406.4300000000003,687.63300000000004,5383.4700000000003,364.84100000000001,9.9938199999999995,4372.6599999999999,-1575.8
172662.0,9516.4300000000003,986.17200000000003,5615.7299999999996,-253.45500000000001,-100.976,4298.3699999999999,-1460.0899999999999
172663.0,9782.25,1264.51,5958.0200000000004,-936.125,-116.895,4189.3400000000001,-1390.3599999999999
172664.0,9967.75,1359.3599999999999,6032.4200000000001,-1744.3599999999999,-204.54300000000001,3963.5799999999999,-1429.0
172665.0,10135.299999999999,1165.9100000000001,5892.5799999999999,-2645.73,-411.47699999999998,3737.98,-1343.23
172666.0,10429.700000000001,1106.45,5978.5299999999997,-3427.3000000000002,-551.56399999999996,3525.3000000000002,-1183.54
172667.0,10726.700000000001,1036.3499999999999,6061.8500000000004,-4194.5699999999997,-654.09500000000003,3249.9299999999998,-1030.54
172668.0,11019.0,988.57600000000002,6175.3199999999997,-4866.0500000000002,-747.08900000000006,2946.3699999999999,-847.58299999999997
172669.0,11303.6,937.59900000000005,6256.4200000000001,-5504.3500000000004,-816.18700000000001,2612.98,-642.553
172670.0,11551.5,937.505,6339.0799999999999,-6036.7200000000003,-873.41499999999996,2245.1199999999999,-423.96699999999998
172671.0,11730.9,931.07899999999995,6331.8199999999997,-6510.5,-920.83100000000002,1845.97,-192.489
172672.0,9982.3500000000004,-1719.1199999999999,5485.9799999999996,889.33699999999999,472.90699999999998,4063.6100000000001,-1780.8599999999999
172673.0,9926.3400000000001,-971.08500000000004,5632.0200000000004,791.40700000000004,356.82999999999998,4287.8699999999999,-1625.1400000000001
172674.0,10048.1,-302.05399999999997,5795.5699999999997,321.42599999999999,358.19400000000002,4446.46,-1580.8900000000001
172675.0,10037.1,88.589600000000004,5789.1999999999998,-428.38499999999999,245.12200000000001,4365.7600000000002,-1599.1600000000001
172676.0,10210.700000000001,309.089,6150.4499999999998,-1083.4000000000001,51.819699999999997,4229.4300000000003,-1459.5599999999999
172677.0,10654.700000000001,533.79499999999996,6661.3800000000001,-1750.6700000000001,38.148000000000003,4092.8699999999999,-1471.8900000000001
172678.0,10818.799999999999,457.69499999999999,6531.0,-2637.8000000000002,-46.609900000000003,3859.5100000000002,-1536.8599999999999
172679.0,11010.9,192.679,6315.8199999999997,-3611.02,-246.065,3658.4099999999999,-1372.9300000000001
172680.0,11395.5,24.242599999999999,6357.3199999999997,-4527.1300000000001,-378.88799999999998,3434.25,-1210.6800000000001
172681.0,11735.799999999999,-120.83499999999999,6421.8100000000004,-5326.8900000000003,-507.80900000000003,3143.52,-1055.1500000000001
172682.0,12099.4,-298.62799999999999,6489.71,-6086.8599999999997,-619.63599999999997,2841.27,-846.16999999999996
172683.0,12453.700000000001,-408.70600000000002,6592.8199999999997,-6745.8800000000001,-694.13699999999994,2512.1599999999999,-623.36800000000005
172684.0,12754.799999999999,-480.49900000000002,6658.1700000000001,-7325.2200000000003,-749.54399999999998,2151.02,-385.26100000000002
172685.0,12973.5,-470.18599999999998,6711.7700000000004,-7761.8000000000002,-792.01099999999997,1756.6700000000001,-135.30600000000001
172686.0,10691.799999999999,-2536.1900000000001,5856.0299999999997,128.374,569.09199999999998,4016.8600000000001,-1804.5799999999999
172687.0,10732.299999999999,-1678.45,6272.5799999999999,146.82400000000001,492.43599999999998,4302.8100000000004,-1513.6900000000001
172688.0,10970.9,-770.54700000000003,6669.21,-256.32900000000001,714.20799999999997,4482.25,-1502.25
172689.0,10814.299999999999,-298.26299999999998,6520.7200000000003,-1090.8099999999999,620.60199999999998,4303.7299999999996,-1601.74
172690.0,11058.1,-333.79599999999999,6768.7700000000004,-1949.8199999999999,248.673,4108.3900000000003,-1519.1099999999999
172691.0,11631.4,-302.44999999999999,7262.9200000000001,-2639.8000000000002,162.99600000000001,3963.77,-1601.4400000000001
172692.0,11813.6,-550.62900000000002,7049.3000000000002,-3577.2399999999998,98.540899999999993,3742.3099999999999,-1591.3299999999999
172693.0,12114.0,-896.46199999999999,6852.1400000000003,-4651.9499999999998,-39.392099999999999,3547.6399999999999,-1383.52
172694.0,12550.200000000001,-1075.99,6899.8100000000004,-5588.5600000000004,-157.93199999999999,3309.5799999999999,-1238.9100000000001
172695.0,12921.5,-1376.3800000000001,6836.3599999999997,-6515.0799999999999,-305.13900000000001,3009.1700000000001,-1074.1800000000001
172696.0,13338.1,-1651.28,6870.0600000000004,-7325.6499999999996,-446.786,2709.75,-839.32399999999996
172697.0,13759.799999999999,-1839.4100000000001,6953.54,-8036.5500000000002,-527.83399999999995,2398.3000000000002,-585.52300000000002
172698.0,14121.299999999999,-1941.49,7050.1000000000004,-8625.5699999999997,-574.83100000000002,2037.8800000000001,-333.82100000000003
172699.0,14384.1,-2048.1700000000001,7058.7700000000004,-9128.8199999999997,-626.24800000000005,1648.98,-69.177000000000007
172700.0,11481.1,-3505.3299999999999,6067.6000000000004,-778.72000000000003,613.32299999999998,4023.8899999999999,-1745.3
172701.0,11757.700000000001,-2208.1900000000001,7231.8400000000001,-439.66199999999998,618.18799999999999,4320.1499999999996,-1361.3699999999999
172702.0,12175.1,-1087.03,8020.6199999999999,-724.07500000000005,1062.8499999999999,4425.6999999999998,-1450.2
172703.0,11918.700000000001,-662.04999999999995,7670.6800000000003,-1657.6700000000001,1055.3199999999999,4147.21,-1672.8199999999999
172704.0,12070.1,-1002.49,7460.8900000000003,-2797.04,540.09500000000003,3937.8400000000001,-1658.79
172705.0,12651.5,-1328.72,7653.04,-3702.3400000000001,314.536,3801.3299999999999,-1711.54
172706.0,12973.299999999999,-1719.3599999999999,7523.79,-4679.1599999999999,216.595,3597.7199999999998,-1610.5999999999999
172707.0,13433.5,-2054.4499999999998,7492.6300000000001,-5723.5100000000002,133.83799999999999,3408.0900000000001,-1404.97
172708.0,13922.0,-2318.1599999999999,7504.7600000000002,-6720.25,59.952100000000002,3155.6799999999998,-1268.27
172709.0,14317.700000000001,-2781.8200000000002,7300.2700000000004,-7780.6099999999997,-81.231499999999997,2846.6599999999999,-1100.1300000000001
172710.0,14747.4,-3158.6300000000001,7254.2299999999996,-8647.9599999999991,-232.953,2556.79,-814.803
172711.0,15267.1,-3406.3099999999999,7371.3699999999999,-9402.2800000000007,-289.41500000000002,2258.29,-517.07299999999998
172712.0,15689.299999999999,-3564.3499999999999,7488.0,-10006.0,-331.56900000000002,1892.23,-281.20499999999998
172713.0,15959.200000000001,-3751.6999999999998,7446.3100000000004,-10527.200000000001,-415.37299999999999,1528.0799999999999,4.1293600000000001
172714.0,12349.9,-4083.7199999999998,6563.1000000000004,-1538.1800000000001,828.59100000000001,4156.1899999999996,-1403.02
172715.0,12986.6,-2491.3800000000001,8414.8700000000008,-1072.3900000000001,816.91300000000001,4338.3599999999997,-1252.04
172716.0,13537.299999999999,-1404.45,9470.4099999999999,-1260.0899999999999,1259.1600000000001,4257.0200000000004,-1572.95
172717.0,13322.200000000001,-1273.9000000000001,8922.6599999999999,-2263.54,1319.6700000000001,3948.5900000000001,-1865.72
172718.0,13302.6,-1820.5899999999999,8201.25,-3652.3200000000002,877.23000000000002,3756.9899999999998,-1840.03
172719.0,13747.6,-2422.0,7989.0200000000004,-4842.3999999999996,540.27999999999997,3609.4000000000001,-1787.9300000000001
172720.0,14243.5,-2901.48,7995.29,-5838.8999999999996,373.892,3433.3099999999999,-1603.9300000000001
172721.0,14885.700000000001,-3273.4899999999998,8118.0600000000004,-6872.6400000000003,323.649,3243.3299999999999,-1413.02
172722.0,15457.5,-3683.9099999999999,8095.8999999999996,-7943.71,273.12099999999998,2977.29,-1294.6199999999999
172723.0,15876.799999999999,-4253.6700000000001,7822.0100000000002,-9055.9099999999999,164.48599999999999,2675.4000000000001,-1102.45
172724.0,16355.0,-4715.1099999999997,7751.0600000000004,-9982.4599999999991,37.9529,2375.7600000000002,-760.42899999999997
172725.0,17000.0,-5064.1099999999997,7924.5200000000004,-10776.299999999999,-28.130600000000001,2070.3499999999999,-451.65199999999999
172726.0,17459.200000000001,-5344.6700000000001,7985.1199999999999,-11424.5,-76.304299999999998,1727.8399999999999,-231.905
172727.0,17693.799999999999,-5623.8199999999997,7830.1800000000003,-11984.6,-152.40000000000001,1405.27,101.379
172728.0,13772.799999999999,-3936.5700000000002,8224.3700000000008,-1983.1099999999999,1430.6600000000001,4194.5200000000004,-969.37800000000004
172729.0,14356.9,-2542.6599999999999,9751.6299999999992,-1761.8499999999999,1227.54,4256.0100000000002,-1303.8299999999999
172730.0,14787.9,-1844.5899999999999,10509.5,-1946.9300000000001,1366.1500000000001,4049.77,-1824.1500000000001
172731.0,14744.0,-2092.5,9904.9300000000003,-3009.3299999999999,1426.9200000000001,3794.9000000000001,-2024.3800000000001
172732.0,14752.1,-2711.3600000000001,9051.9799999999996,-4506.9700000000003,1237.5599999999999,3589.9899999999998,-1970.0999999999999
172733.0,15023.6,-3495.6100000000001,8495.3600000000006,-5934.6599999999999,895.20399999999995,3383.5700000000002,-1824.01
172734.0,15675.6,-4176.9700000000003,8490.4699999999993,-7096.1700000000001,646.75300000000004,3217.9499999999998,-1574.8399999999999
172735.0,16501.099999999999,-4659.6300000000001,8706.1700000000001,-8163.9799999999996,577.77099999999996,3028.3400000000001,-1415.3900000000001
172736.0,17137.200000000001,-5176.2799999999997,8681.7399999999998,-9238.7900000000009,534.96799999999996,2765.9899999999998,-1294.21
172737.0,17652.400000000001,-5862.1700000000001,8420.3600000000006,-10399.200000000001,468.38999999999999,2469.4699999999998,-1045.4000000000001
172738.0,18253.400000000001,-6398.6899999999996,8399.9599999999991,-11376.5,367.65199999999999,2147.8299999999999,-706.68499999999995
172739.0,18916.599999999999,-6880.71,8508.5300000000007,-12201.200000000001,259.95600000000002,1836.1500000000001,-410.57100000000003
172740.0,19403.5,-7290.5100000000002,8511.1399999999994,-12872.4,218.49199999999999,1553.9000000000001,-139.5
172741.0,19607.0,-7600.4899999999998,8294.3400000000001,-13422.4,219.999,1288.45,276.21300000000002
172742.0,15874.4,-3646.3499999999999,10649.6,-2254.0599999999999,2113.7800000000002,4038.3600000000001,-1042.1900000000001
172743.0,15803.1,-2758.52,10946.700000000001,-2506.3400000000001,1743.22,4020.27,-1601.54
172744.0,15936.200000000001,-2533.9299999999998,11109.700000000001,-2866.5100000000002,1579.24,3822.5999999999999,-1987.1099999999999
172745.0,16185.1,-3042.27,10689.200000000001,-3988.6500000000001,1591.55,3618.9899999999998,-2051.0900000000001
172746.0,16426.200000000001,-3738.6599999999999,10010.299999999999,-5467.8999999999996,1579.51,3366.6599999999999,-2044.01
172747.0,16652.099999999999,-4668.5500000000002,9302.0499999999993,-7000.8100000000004,1285.4400000000001,3098.21,-1856.3900000000001
172748.0,17383.400000000001,-5508.8299999999999,9205.8999999999996,-8323.1000000000004,986.322,2940.0,-1578.73
172749.0,18291.900000000001,-6121.8699999999999,9388.6599999999999,-9450.1599999999999,871.44799999999998,2764.5,-1427.1400000000001
172750.0,19019.400000000001,-6883.6700000000001,9255.7099999999991,-10675.1,820.17399999999998,2508.1199999999999,-1265.2
172751.0,19698.900000000001,-7594.1400000000003,9161.3999999999996,-11799.0,748.40999999999997,2203.3000000000002,-986.53499999999997
172752.0,20420.700000000001,-8318.0,9093.2999999999993,-12892.4,653.66200000000003,1879.7,-682.99599999999998
172753.0,21043.299999999999,-8942.1599999999999,9078.0300000000007,-13738.4,543.68299999999999,1564.25,-379.98700000000002
172754.0,21541.200000000001,-9560.1599999999999,8965.0499999999993,-14454.1,523.00199999999995,1342.3699999999999,27.683299999999999
172755.0,21916.099999999999,-9676.2099999999991,9094.7399999999998,-14766.4,696.89400000000001,1141.99,616.20799999999997
172756.0,18012.099999999999,-3172.8099999999999,13187.200000000001,-2001.8199999999999,2753.3800000000001,3939.96,-1324.0899999999999
172757.0,17212.299999999999,-2910.75,12051.1,-3053.23,2374.5300000000002,3774.0500000000002,-1880.5
172758.0,17206.799999999999,-3457.2600000000002,11602.0,-4024.6799999999998,1900.5599999999999,3517.6199999999999,-2038.6300000000001
172759.0,17814.099999999999,-4037.6500000000001,11561.0,-5062.8999999999996,1844.8399999999999,3361.21,-2071.77
172760.0,18201.0,-4899.1700000000001,10911.0,-6574.6700000000001,1829.46,3071.46,-2135.1500000000001
172761.0,18537.0,-6055.6999999999998,10158.4,-8190.9399999999996,1557.1900000000001,2782.46,-1918.49
172762.0,19345.299999999999,-7024.6300000000001,9996.8600000000006,-9610.3600000000006,1305.5799999999999,2633.3099999999999,-1622.0899999999999
172763.0,20273.900000000001,-7825.0,10020.9,-10882.4,1190.23,2464.3899999999999,-1434.54
172764.0,21107.099999999999,-8670.3400000000001,9917.8500000000004,-12157.6,1118.5999999999999,2213.23,-1232.5699999999999
172765.0,21901.5,-9537.2999999999993,9788.1800000000003,-13395.1,1021.05,1904.4000000000001,-958.21600000000001
172766.0,22692.400000000001,-10397.700000000001,9690.7900000000009,-14527.200000000001,920.072,1584.6400000000001,-662.23000000000002
172767.0,23318.900000000001,-11325.9,9438.3700000000008,-15544.6,838.13900000000001,1265.48,-319.87
172768.0,23875.900000000001,-11932.299999999999,9519.0300000000007,-16016.1,843.19399999999996,1039.9300000000001,283.30000000000001
172769.0,24831.299999999999,-11859.200000000001,10443.6,-16020.0,1077.4100000000001,862.30899999999997,1057.6400000000001
172770.0,20450.5,-3255.9699999999998,15439.4,-2312.6500000000001,3505.02,3777.9400000000001,-1387.8099999999999
172771.0,19014.099999999999,-2961.5700000000002,13571.700000000001,-3513.7800000000002,3242.75,3389.98,-2059.7800000000002
172772.0,18655.099999999999,-4248.5600000000004,12374.6,-5011.75,2335.2600000000002,3131.9499999999998,-2051.3099999999999
172773.0,19586.799999999999,-5118.0200000000004,12374.799999999999,-6245.9899999999998,2216.6399999999999,3082.98,-2112.1500000000001
172774.0,19962.5,-6051.9300000000003,11686.6,-7744.3199999999997,2149.0999999999999,2733.23,-2213.1100000000001
172775.0,20484.0,-7571.5799999999999,10864.799999999999,-9536.8199999999997,1826.5799999999999,2448.6199999999999,-1966.8599999999999
172776.0,21454.400000000001,-8734.2800000000007,10722.4,-11024.9,1600.6800000000001,2305.77,-1660.9200000000001
172777.0,22478.799999999999,-9721.5599999999995,10677.5,-12426.200000000001,1509.47,2140.0599999999999,-1426.9200000000001
172778.0,23421.099999999999,-10690.1,10548.299999999999,-13812.0,1454.53,1889.95,-1205.9100000000001
172779.0,24282.200000000001,-11724.4,10324.700000000001,-15168.5,1364.74,1581.3399999999999,-925.63099999999997
172780.0,25116.5,-12785.9,10094.5,-16425.5,1289.46,1253.5599999999999,-605.87300000000005
172781.0,25829.900000000001,-13849.299999999999,9862.9799999999996,-17430.5,1243.3399999999999,897.67999999999995,-191.768
172782.0,26618.0,-14666.799999999999,10087.4,-17876.0,1174.03,579.63599999999997,537.13400000000001
172783.0,28087.099999999999,-14595.0,11636.299999999999,-17680.900000000001,1188.0,425.69799999999998,1361.45
172784.0,23264.700000000001,-3469.1300000000001,17936.299999999999,-2963.6799999999998,4126.3699999999999,3321.0500000000002,-1774.79
172785.0,21253.200000000001,-3515.75,15344.200000000001,-4049.3200000000002,3890.6399999999999,2781.5,-2382.5999999999999
172786.0,20588.599999999999,-5125.3100000000004,13584.799999999999,-5845.6999999999998,2922.52,2689.8299999999999,-2040.8900000000001
172787.0,21689.0,-6155.6300000000001,13501.700000000001,-7345.4899999999998,2819.21,2692.8800000000001,-2128.9099999999999
172788.0,22049.5,-7377.6400000000003,12620.700000000001,-8941.3500000000004,2664.1599999999999,2283.5100000000002,-2279.9000000000001
172789.0,22671.0,-9389.8899999999994,11503.0,-11065.700000000001,2225.8499999999999,2052.5799999999999,-2011.8399999999999
172790.0,23735.299999999999,-10619.799999999999,11421.1,-12553.299999999999,1945.6900000000001,1949.55,-1678.6199999999999
172791.0,24896.299999999999,-11909.9,11227.5,-14219.9,1837.9300000000001,1785.9100000000001,-1414.3800000000001
172792.0,25961.700000000001,-12961.0,11163.6,-15618.200000000001,1796.45,1531.98,-1173.3
172793.0,26930.0,-14220.700000000001,10828.200000000001,-17144.599999999999,1761.27,1224.5999999999999,-853.48500000000001
172794.0,27892.799999999999,-15374.200000000001,10651.9,-18419.599999999999,1750.4100000000001,845.64499999999998,-509.34199999999998
172795.0,28813.200000000001,-16737.900000000001,10408.700000000001,-19556.5,1666.0999999999999,391.17200000000003,-76.870400000000004
172796.0,29793.799999999999,-17820.5,10668.5,-20069.900000000001,1386.3199999999999,-7.7053900000000004,615.36000000000001
172797.0,31357.900000000001,-18145.099999999999,12083.1,-20005.700000000001,1103.8199999999999,-102.23699999999999,1435.1900000000001
172798.0,25497.900000000001,-3542.96,20066.599999999999,-3212.04,4458.8000000000002,2724.8499999999999,-2484.3499999999999
172799.0,23356.5,-4484.1300000000001,16837.400000000001,-4670.3800000000001,4127.71,2220.8099999999999,-2645.8899999999999
172800.0,23238.799999999999,-6311.5699999999997,15283.1,-6792.8999999999996,3435.6399999999999,2161.98,-2133.1599999999999
172801.0,24374.700000000001,-7469.9899999999998,15129.1,-8356.3999999999996,3338.8400000000001,2070.4400000000001,-2329.9699999999998
172802.0,24672.799999999999,-9382.4400000000005,13642.1,-10359.299999999999,3049.5599999999999,1732.28,-2467.79
172803.0,25259.0,-11482.799999999999,12395.1,-12555.9,2578.6799999999998,1632.1600000000001,-2093.4499999999998
172804.0,26347.900000000001,-12947.4,12028.200000000001,-14393.0,2319.1399999999999,1575.9100000000001,-1698.1800000000001
172805.0,27555.099999999999,-14290.5,11810.1,-16139.1,2197.54,1392.6099999999999,-1422.54
172806.0,28725.0,-15637.4,11599.799999999999,-17750.5,2139.5900000000001,1125.0999999999999,-1112.73
172807.0,29965.400000000001,-16964.799999999999,11486.799999999999,-19270.700000000001,2159.1399999999999,785.02300000000002,-747.42600000000004
172808.0,31197.400000000001,-18412.400000000001,11332.1,-20715.299999999999,2147.0999999999999,301.702,-460.29199999999997
172809.0,32281.200000000001,-20134.5,10992.700000000001,-22016.099999999999,1900.7,-240.345,-127.81999999999999
172810.0,33296.800000000003,-21958.099999999999,10661.200000000001,-23055.5,1381.8499999999999,-651.93399999999997,468.31099999999998
172811.0,34783.900000000001,-22982.200000000001,11486.299999999999,-23370.599999999999,800.71199999999999,-703.24300000000005,1277.49
172812.0,27371.799999999999,-4654.25,21001.099999999999,-4146.0100000000002,4656.6899999999996,2118.04,-2903.0900000000001
172813.0,25789.599999999999,-5740.79,18276.700000000001,-5739.25,4320.0900000000001,1657.26,-2832.6199999999999
172814.0,26160.700000000001,-7778.5100000000002,16998.799999999999,-7930.21,3654.9200000000001,1506.78,-2568.9299999999998
172815.0,27120.5,-9631.5499999999993,16211.0,-9780.1599999999999,3367.48,1407.3800000000001,-2820.1700000000001
172816.0,27384.599999999999,-12054.4,14273.9,-12125.299999999999,3043.1399999999999,1264.8800000000001,-2725.3200000000002
172817.0,28085.5,-14145.1,13032.5,-14469.1,2730.3200000000002,1258.8599999999999,-2171.3600000000001
172818.0,29315.700000000001,-15700.5,12615.1,-16525.200000000001,2600.0799999999999,1184.21,-1743.3199999999999
172819.0,30566.0,-17190.299999999999,12271.1,-18431.400000000001,2525.48,958.87,-1449.8399999999999
172820.0,31884.299999999999,-18719.0,12039.9,-20208.900000000001,2435.2600000000002,634.35799999999995,-1072.3399999999999
172821.0,33474.199999999997,-20375.700000000001,11987.4,-21985.599999999999,2354.6199999999999,193.547,-755.40499999999997
172822.0,34956.800000000003,-22320.299999999999,11700.200000000001,-23706.799999999999,2148.6799999999998,-389.03100000000001,-630.93399999999997
172823.0,36080.5,-24838.200000000001,10730.1,-25535.5,1652.77,-942.66200000000003,-427.70999999999998
172824.0,37007.199999999997,-27483.200000000001,9556.7399999999998,-27217.200000000001,863.55399999999997,-1304.3900000000001,78.327399999999997
172825.0,38118.400000000001,-29679.200000000001,8926.1700000000001,-28490.5,-37.4998,-1277.1900000000001,859.601
172826.0,29508.0,-6611.1999999999998,21434.400000000001,-5939.2600000000002,4604.75,1503.6700000000001,-3274.3099999999999
172827.0,28704.299999999999,-7611.3100000000004,19559.0,-7260.3699999999999,4354.79,1042.0,-3414.3499999999999
172828.0,28797.5,-10063.0,17630.0,-9607.1000000000004,3601.04,876.55700000000002,-3346.75
172829.0,29383.599999999999,-12741.299999999999,15863.200000000001,-12040.799999999999,3145.0900000000001,919.87699999999995,-3292.0599999999999
172830.0,29883.5,-15302.0,14028.4,-14607.0,2926.8200000000002,939.03200000000004,-2846.6300000000001
172831.0,30941.5,-17351.099999999999,13050.9,-17090.700000000001,2792.9899999999998,910.31899999999996,-2240.1599999999999
172832.0,32377.099999999999,-19066.200000000001,12659.0,-19308.0,2715.8299999999999,760.10400000000004,-1844.0599999999999
172833.0,33806.0,-20827.0,12244.200000000001,-21433.799999999999,2650.1599999999999,485.69799999999998,-1519.5
172834.0,35356.0,-22597.700000000001,11954.799999999999,-23526.299999999999,2516.7199999999998,87.857799999999997,-1183.3599999999999
172835.0,37059.5,-24695.799999999999,11556.1,-25774.099999999999,2213.0500000000002,-481.09399999999999,-1090.1199999999999
172836.0,38478.5,-27670.700000000001,10281.6,-28304.400000000001,1607.0799999999999,-1138.1099999999999,-1172.8900000000001
172837.0,39495.900000000001,-31343.900000000001,8164.4399999999996,-30992.799999999999,719.76900000000001,-1637.05,-1028.97
172838.0,40168.800000000003,-35099.199999999997,5638.3699999999999,-33642.400000000001,-296.68700000000001,-1836.8900000000001,-521.26700000000005
172839.0,40691.300000000003,-38016.800000000003,3667.48,-35591.099999999999,-1247.4400000000001,-1670.54,362.34399999999999
172840.0,80728.600000000006,-249473.0,-255975.0,-254566.0,-33465.199999999997,-17443.700000000001,-27137.900000000001
172841.0,81065.0,-216724.0,-221281.0,-231076.0,-19275.200000000001,-12682.0,-40054.5
172842.0,75951.899999999994,-177957.0,-170712.0,-196887.0,-14525.200000000001,-8395.4300000000003,-38194.0
172843.0,69758.0,-138689.0,-129732.0,-159974.0,-9899.3999999999996,-8450.8099999999995,-34804.199999999997
172844.0,65360.099999999999,-107033.0,-93606.600000000006,-131877.0,-2144.0700000000002,-6690.7600000000002,-31584.799999999999
172845.0,56065.800000000003,-79760.199999999997,-59978.400000000001,-102366.0,2235.98,-3783.6799999999998,-24054.799999999999
172846.0,49463.5,-61664.599999999999,-38114.599999999999,-77801.600000000006,4548.1999999999998,-3004.5799999999999,-19684.700000000001
172847.0,49415.800000000003,-46711.400000000001,-17124.700000000001,-58271.800000000003,6460.6700000000001,-2500.27,-17766.0
172848.0,48747.800000000003,-33254.099999999999,2140.7800000000002,-41374.900000000001,7080.3699999999999,-1682.6099999999999,-14274.5
172849.0,46240.900000000001,-24481.799999999999,14146.299999999999,-28674.299999999999,6992.6199999999999,-727.51800000000003,-10300.299999999999
172850.0,44532.599999999999,-21552.900000000001,20309.5,-20316.900000000001,6503.1899999999996,622.23400000000004,-7138.3699999999999
172851.0,44376.5,-24401.5,22327.5,-15316.700000000001,4563.1599999999999,1598.4000000000001,-4379.1800000000003
172852.0,44463.599999999999,-30370.900000000001,19951.0,-12631.1,1194.5999999999999,409.99400000000003,-2445.1799999999998
172853.0,42982.300000000003,-34082.300000000003,14724.4,-10918.0,-1160.0799999999999,-3500.6399999999999,-2488.0
172854.0,40933.300000000003,-30320.799999999999,12854.700000000001,-7512.4200000000001,203.88800000000001,-8364.1200000000008,-4688.8000000000002
172855.0,40881.099999999999,-21420.299999999999,16808.700000000001,-4159.1999999999998,4337.4799999999996,-11263.0,-6701.5200000000004
172856.0,39497.0,-11636.299999999999,22798.900000000001,-1812.1800000000001,7044.8999999999996,-10878.0,-6113.4899999999998
172857.0,34657.099999999999,-4315.6499999999996,25752.900000000001,-635.149,7041.2600000000002,-8038.0100000000002,-4145.4300000000003
172858.0,29855.299999999999,-3807.1399999999999,24958.5,-2056.5599999999999,5136.0,-3173.2199999999998,-780.20000000000005
172859.0,27812.799999999999,-13790.700000000001,16398.599999999999,-5016.0799999999999,-619.447,770.13699999999994,3963.71
172860.0,27597.799999999999,-26478.099999999999,185.58199999999999,-7737.6599999999999,-7579.4399999999996,-1646.5899999999999,2496.0799999999999
172861.0,26881.099999999999,-24809.5,-4838.1400000000003,-9257.2600000000002,-7890.71,-6628.25,-4962.3599999999997
172862.0,20059.200000000001,-16068.200000000001,-400.43900000000002,-11989.9,-3962.8600000000001,-5733.25,-4413.3800000000001
172863.0,10962.4,-15873.1,-7863.9300000000003,-14270.700000000001,-3118.1100000000001,-2509.2199999999998,2465.5
172864.0,9756.8700000000008,-19494.0,-21777.599999999999,-14889.200000000001,-2796.3899999999999,-2659.6399999999999,2127.6999999999998
172865.0,11896.9,-18154.299999999999,-23761.5,-13368.799999999999,-325.37099999999998,-3502.9200000000001,-2782.77
172866.0,12119.4,-10312.9,-12535.9,-6195.6800000000003,1761.9000000000001,-3191.29,-5032.1999999999998
172867.0,9623.1700000000001,-4349.2799999999997,-1940.5699999999999,-385.36700000000002,2286.0599999999999,-2399.2399999999998,-3987.1199999999999
172868.0,6923.0900000000001,-1596.8199999999999,2918.73,3099.3400000000001,1765.0699999999999,-1815.8299999999999,-1576.1500000000001
172869.0,6377.2600000000002,-811.95100000000002,3249.4099999999999,4937.9300000000003,1240.3299999999999,-1759.9000000000001,-431.67000000000002
172870.0,6320.9700000000003,-593.14599999999996,2819.3899999999999,5497.5200000000004,1000.6,-1723.79,-163.01499999999999
172871.0,6256.4099999999999,198.238,2997.9000000000001,6433.3599999999997,760.89300000000003,-1645.3099999999999,93.260499999999993
172872.0,6258.8500000000004,504.80000000000001,2673.29,6791.6400000000003,544.23500000000001,-1579.6800000000001,261.28100000000001
172873.0,6243.0900000000001,1035.4100000000001,2651.1900000000001,7266.8100000000004,355.32900000000001,-1498.5799999999999,403.16300000000001
172874.0,6264.3800000000001,1371.8299999999999,2461.1199999999999,7517.3100000000004,177.89500000000001,-1419.9000000000001,529.13599999999997
172875.0,6284.8400000000001,1768.0,2383.29,7786.3699999999999,17.331499999999998,-1337.8299999999999,641.00400000000002
172876.0,6319.7399999999998,2063.8400000000001,2240.8400000000001,7937.3800000000001,-131.358,-1257.8,741.86199999999997
172877.0,6351.5600000000004,2373.9899999999998,2154.77,8082.4399999999996,-266.81799999999998,-1177.8,832.91499999999996
172878.0,6383.4099999999999,2613.3000000000002,2032.78,8145.2399999999998,-391.029,-1099.3599999999999,915.173
172879.0,6407.1800000000003,2857.25,1951.0599999999999,8201.3099999999995,-503.83800000000002,-1021.95,988.98699999999997
172880.0,6423.4300000000003,3036.98,1837.26,8186.1400000000003,-606.37699999999995,-946.11300000000006,1055.3299999999999
172881.0,6428.9399999999996,3216.8000000000002,1755.0899999999999,8165.71,-698.88099999999997,-871.91300000000001,1114.03
172882.0,6424.9200000000001,3345.8200000000002,1650.1400000000001,8092.0799999999999,-781.87800000000004,-800.25099999999998,1165.3299999999999
172883.0,6405.54,3496.8499999999999,1594.8,8036.0500000000002,-854.63199999999995,-730.60799999999995,1208.6400000000001
172884.0,6378.04,3578.8400000000001,1493.27,7911.2600000000002,-919.71000000000004,-662.56700000000001,1247.6400000000001
172885.0,6336.7399999999998,3689.4699999999998,1442.22,7814.3400000000001,-976.40899999999999,-597.01900000000001,1276.78
172886.0,6292.3000000000002,3719.02,1327.49,7642.3199999999997,-1028.01,-534.50900000000001,1300.1500000000001
172887.0,6221.0799999999999,3830.25,1320.4200000000001,7545.9099999999999,-1070.6300000000001,-474.83300000000003,1310.9400000000001
172888.0,6177.8800000000001,3800.1599999999999,1174.05,7330.5799999999999,-1114.1099999999999,-420.67399999999998,1326.6600000000001
172889.0,6080.3000000000002,3989.6999999999998,1271.49,7318.9700000000003,-1140.55,-374.19999999999999,1307.04
172890.0,6030.1000000000004,3845.6700000000001,1040.3,6997.54,-1172.7,-325.34800000000001,1325.6900000000001
172891.0,5978.6800000000003,4244.1099999999997,1242.1300000000001,7260.8100000000004,-1172.96,-342.05599999999998,1168.72
172892.0,5452.3400000000001,4237.8599999999997,1329.98,6844.5600000000004,-1089.27,-278.02600000000001,1017.5
172893.0,86981.699999999997,-209238.0,-168786.0,-189055.0,-32882.699999999997,-20745.799999999999,-24519.099999999999
172894.0,90146.899999999994,-175641.0,-134231.0,-171070.0,-20367.799999999999,-19487.099999999999,-37399.800000000003
172895.0,86757.5,-139369.0,-87857.600000000006,-141945.0,-14776.5,-14966.700000000001,-33699.800000000003
172896.0,79320.300000000003,-107934.0,-56666.5,-113118.0,-11983.0,-13439.1,-28273.400000000001
172897.0,72069.800000000003,-83559.5,-34440.099999999999,-92428.199999999997,-7729.1899999999996,-11203.700000000001,-23883.5
172898.0,62392.199999999997,-63076.199999999997,-17253.799999999999,-71899.899999999994,-4296.79,-9008.0200000000004,-18367.5
172899.0,55088.300000000003,-47131.5,-5638.5900000000001,-54316.099999999999,-332.25400000000002,-8150.5299999999997,-15955.200000000001
172900.0,52307.800000000003,-32578.099999999999,7970.7799999999997,-39188.800000000003,3928.04,-6692.54,-14136.0
172901.0,49333.699999999997,-21469.900000000001,19592.0,-26158.900000000001,6560.9700000000003,-4737.79,-10594.6
172902.0,45462.0,-15829.5,24920.700000000001,-16882.5,7661.6199999999999,-3292.5500000000002,-7154.6899999999996
172903.0,42221.0,-12754.299999999999,27169.900000000001,-9731.4500000000007,8233.5699999999997,-2635.5300000000002,-5033.4399999999996
172904.0,40267.0,-10671.1,28907.599999999999,-3694.5900000000001,8605.0599999999995,-2534.6100000000001,-3696.4699999999998
172905.0,38976.400000000001,-9775.9699999999993,29782.5,526.83299999999997,8448.2299999999996,-2863.3200000000002,-2379.4200000000001
172906.0,36555.599999999999,-10861.4,27052.200000000001,1393.3499999999999,7492.5600000000004,-3763.79,-894.24300000000005
172907.0,31853.700000000001,-12060.0,20521.700000000001,-99.307299999999998,6426.4899999999998,-5011.1499999999996,-405.23899999999998
172908.0,26826.599999999999,-9710.5900000000001,16038.9,-60.708100000000002,6210.4099999999999,-5428.4300000000003,-1620.4400000000001
172909.0,24590.200000000001,-5842.8900000000003,16358.1,1482.22,6666.1800000000003,-4504.1099999999997,-2977.0999999999999
172910.0,24101.700000000001,-3357.4400000000001,19048.5,3372.3200000000002,6759.9499999999998,-3041.3099999999999,-2550.79
172911.0,23248.599999999999,-2986.02,20253.299999999999,5296.1599999999999,6052.0200000000004,-1942.7,-1017.34
172912.0,22103.099999999999,-4311.7399999999998,18738.700000000001,6588.9399999999996,5098.71,-1966.47,-154.38200000000001
172913.0,21359.799999999999,-3335.1999999999998,18585.0,8616.7099999999991,4790.4499999999998,-2907.5100000000002,-475.50999999999999
172914.0,20423.200000000001,-3072.8499999999999,17933.099999999999,7831.1099999999997,4446.5,-2956.9299999999998,-393.96300000000002
172915.0,18601.599999999999,-6166.1300000000001,14457.299999999999,4751.04,2253.6500000000001,-1700.1199999999999,957.22199999999998
172916.0,17731.900000000001,-11666.1,7724.7600000000002,1538.8499999999999,-1642.8499999999999,-1087.8699999999999,1678.6800000000001
172917.0,17684.0,-15486.200000000001,574.60199999999998,-1222.26,-4650.6499999999996,-2251.8699999999999,319.66899999999998
172918.0,15888.6,-14015.4,-2938.3800000000001,-2012.0999999999999,-4638.8199999999997,-3892.0900000000001,-1695.8599999999999
172919.0,12546.1,-9329.4500000000007,-2527.6100000000001,-788.30399999999997,-2188.5,-4328.0600000000004,-2927.9899999999998
172920.0,9348.6100000000006,-4443.6300000000001,814.01700000000005,1677.0799999999999,231.108,-3314.1900000000001,-2668.29
172921.0,7016.8599999999997,-1738.74,3180.73,4018.4299999999998,1017.5,-2077.7600000000002,-1176.8900000000001
172922.0,6474.2700000000004,-887.64999999999998,3191.6199999999999,5520.1599999999999,911.45699999999999,-1580.28,-351.61599999999999
172923.0,6379.3900000000003,-496.46800000000002,2858.0100000000002,6137.29,780.99000000000001,-1389.54,-150.50399999999999
172924.0,6305.25,191.024,2910.9299999999998,6883.0900000000001,618.86400000000003,-1240.5599999999999,58.880400000000002
172925.0,6307.3199999999997,567.36500000000001,2660.27,7258.3100000000004,446.964,-1140.1700000000001,214.113
172926.0,6299.3500000000004,1055.9400000000001,2597.0500000000002,7655.6999999999998,289.06700000000001,-1049.3800000000001,349.56
172927.0,6326.21,1410.1700000000001,2430.48,7894.4399999999996,136.04499999999999,-970.86900000000003,471.483
172928.0,6351.2799999999997,1785.5899999999999,2336.0100000000002,8117.5500000000002,-4.6976399999999998,-896.71500000000003,581.64400000000001
172929.0,6387.3999999999996,2084.5500000000002,2200.8800000000001,8248.6000000000004,-136.38,-827.64800000000002,682.17700000000002
172930.0,6419.2299999999996,2381.1500000000001,2104.02,8359.3400000000001,-257.18200000000002,-761.35000000000002,773.93499999999995
172931.0,6449.5299999999997,2621.1300000000001,1985.23,8403.7399999999998,-368.44400000000002,-698.226,857.59699999999998
172932.0,6471.3000000000002,2855.1700000000001,1895.6500000000001,8432.8799999999992,-469.72000000000003,-637.38800000000003,933.36800000000005
172933.0,6485.1099999999997,3043.3699999999999,1791.78,8410.7600000000002,-561.94399999999996,-578.726,1001.92
172934.0,6487.25,3234.2399999999998,1720.52,8385.7800000000007,-645.13699999999994,-522.11300000000006,1063.0599999999999
172935.0,6479.5900000000001,3369.1500000000001,1619.6800000000001,8301.9500000000007,-720.36599999999999,-467.47500000000002,1117.99
172936.0,6459.9300000000003,3504.8600000000001,1544.8800000000001,8217.1299999999992,-787.64800000000002,-414.81599999999997,1164.8
172937.0,6431.0600000000004,3592.2600000000002,1445.5599999999999,8086.1999999999998,-848.71900000000005,-364.29000000000002,1203.96
172938.0,6384.5299999999997,3709.4299999999998,1401.98,7983.8500000000004,-902.86099999999999,-316.95100000000002,1232.53
172939.0,6331.6999999999998,3761.8600000000001,1313.79,7821.3800000000001,-951.58500000000004,-273.19900000000001,1256.8800000000001
172940.0,6252.5200000000004,3880.0,1317.02,7718.5200000000004,-990.13,-232.17099999999999,1271.49
172941.0,6196.9799999999996,3863.2399999999998,1188.75,7500.0600000000004,-1027.77,-194.108,1292.8699999999999
172942.0,6098.8299999999999,4027.4000000000001,1257.6199999999999,7449.1800000000003,-1051.04,-162.77099999999999,1283.8
172943.0,6033.2799999999997,3901.71,1047.1500000000001,7120.0799999999999,-1078.1700000000001,-122.116,1313.3800000000001
172944.0,5998.9200000000001,4158.8800000000001,1111.8299999999999,7240.6800000000003,-1091.97,-140.125,1180.1900000000001
172945.0,5497.7299999999996,4321.8800000000001,1351.73,6987.0600000000004,-1029.53,-99.067800000000005,1028.74
172946.0,81277.199999999997,-152417.0,-88117.399999999994,-126583.0,-18206.5,-20390.599999999999,-20194.900000000001
172947.0,83232.899999999994,-122961.0,-61706.5,-112324.0,-7927.7200000000003,-20360.700000000001,-27579.299999999999
172948.0,80431.300000000003,-90519.600000000006,-26476.200000000001,-87688.300000000003,-1938.24,-16184.299999999999,-24110.0
172949.0,74933.399999999994,-66889.5,-3645.3699999999999,-66505.100000000006,755.38099999999997,-13415.700000000001,-19128.599999999999
172950.0,69354.300000000003,-50905.800000000003,10260.9,-51827.800000000003,2496.1599999999999,-10993.700000000001,-14492.9
172951.0,61890.300000000003,-37888.699999999997,18378.099999999999,-38395.400000000001,3261.5300000000002,-9391.0599999999995,-10633.299999999999
172952.0,55338.800000000003,-28216.700000000001,21729.799999999999,-28973.900000000001,4710.3900000000003,-8450.7000000000007,-9102.0
172953.0,50527.099999999999,-19508.700000000001,25542.299999999999,-21057.900000000001,6697.9700000000003,-6955.9300000000003,-7559.79
172954.0,45823.0,-13316.5,27836.799999999999,-14077.0,8137.9700000000003,-5258.2299999999996,-5557.3400000000001
172955.0,41904.5,-9527.5300000000007,28809.5,-8536.0300000000007,8785.2600000000002,-3931.0900000000001,-3889.6100000000001
172956.0,38221.400000000001,-8054.1099999999997,27562.799999999999,-5118.8400000000001,8967.4200000000001,-3322.5500000000002,-2151.0500000000002
172957.0,34553.800000000003,-7939.1800000000003,24123.299999999999,-2898.1999999999998,9421.8899999999994,-3244.1700000000001,-1195.1700000000001
172958.0,32142.400000000001,-7783.1199999999999,21544.0,-1356.3900000000001,9853.2399999999998,-2873.25,-1183.47
172959.0,29635.400000000001,-7121.4700000000003,20344.599999999999,268.142,9252.2999999999993,-2183.7800000000002,-607.17999999999995
172960.0,26230.700000000001,-7099.7200000000003,17998.599999999999,1904.6400000000001,7970.8400000000001,-2013.72,-302.53399999999999
172961.0,23947.400000000001,-8065.1400000000003,14875.299999999999,2050.0599999999999,7112.6700000000001,-2508.48,-1448.3299999999999
172962.0,23202.099999999999,-6685.3500000000004,14941.4,2655.5999999999999,6905.3599999999997,-2764.0500000000002,-2543.5500000000002
172963.0,21761.299999999999,-3879.4299999999998,16425.700000000001,4467.4200000000001,6632.3000000000002,-2286.7199999999998,-2115.2600000000002
172964.0,19462.599999999999,-2537.5999999999999,15933.299999999999,5913.7799999999997,5977.4300000000003,-1783.1900000000001,-1362.45
172965.0,17155.599999999999,-2076.2399999999998,14512.700000000001,6244.75,5108.7399999999998,-1501.9300000000001,-975.50300000000004
172966.0,14709.5,-2488.0599999999999,11997.200000000001,5478.04,4243.2799999999997,-1153.5999999999999,-395.12
172967.0,13103.299999999999,-2700.1900000000001,9932.6299999999992,5866.1400000000003,3866.1799999999998,-828.43299999999999,-117.605
172968.0,13223.4,-2892.0900000000001,9225.0599999999995,7059.25,3968.1199999999999,-808.48299999999995,-358.61599999999999
172969.0,14104.799999999999,-1923.1500000000001,10712.1,9207.5300000000007,4093.3699999999999,-1158.75,-763.51999999999998
172970.0,14423.1,-931.154,12684.5,10294.0,3761.73,-1398.7,-619.79499999999996
172971.0,13182.700000000001,-1880.1099999999999,11210.299999999999,8969.7700000000004,2517.23,-1490.8900000000001,593.97000000000003
172972.0,10914.200000000001,-2555.4899999999998,7184.8999999999996,7820.8000000000002,1262.51,-1861.3800000000001,907.45799999999997
172973.0,8911.75,-2881.9299999999998,3654.04,6141.75,955.16800000000001,-1958.5,-51.5017
172974.0,7529.8999999999996,-1754.8599999999999,3267.9099999999999,6032.0200000000004,942.995,-1521.2,-335.46300000000002
172975.0,6891.4300000000003,-730.68200000000002,3250.1399999999999,6716.2700000000004,784.48400000000004,-1143.53,-145.489
172976.0,6625.8500000000004,-213.18000000000001,2941.3299999999999,7078.9399999999996,636.07399999999996,-923.84000000000003,-40.039000000000001
172977.0,6481.5600000000004,383.887,2862.1500000000001,7530.5299999999997,489.28199999999998,-766.60199999999998,90.158600000000007
172978.0,6438.2600000000002,820.31899999999996,2677.0,7838.2799999999997,340.47199999999998,-657.452,214.298
172979.0,6422.3400000000001,1250.1500000000001,2555.7399999999998,8111.0299999999997,200.66800000000001,-570.14099999999996,332.5
172980.0,6438.4300000000003,1614.3199999999999,2411.7800000000002,8307.9400000000005,67.404899999999998,-499.00400000000002,443.51400000000001
172981.0,6462.0100000000002,1956.54,2293.79,8464.7700000000004,-56.514600000000002,-436.613,547.77099999999996
172982.0,6493.1899999999996,2254.0599999999999,2169.8099999999999,8566.8700000000008,-171.97499999999999,-381.43000000000001,644.41600000000005
172983.0,6521.8000000000002,2529.5,2062.8000000000002,8635.9599999999991,-278.37900000000002,-330.82299999999998,734.05100000000004
172984.0,6546.7200000000003,2766.1900000000001,1951.27,8659.0499999999993,-376.29599999999999,-284.06,816.62099999999998
172985.0,6563.8599999999997,2984.9400000000001,1854.3299999999999,8657.5400000000009,-465.755,-240.214,892.59400000000005
172986.0,6573.5600000000004,3161.8899999999999,1744.8299999999999,8611.1200000000008,-547.56500000000005,-199.24100000000001,960.72699999999998
172987.0,6569.7299999999996,3326.3499999999999,1653.79,8548.3899999999994,-622.13900000000001,-160.51599999999999,1020.05
172988.0,6553.9099999999999,3458.3400000000001,1559.9400000000001,8451.7000000000007,-690.65700000000004,-123.878,1073.8900000000001
172989.0,6528.0900000000001,3596.6799999999998,1497.8699999999999,8362.6900000000005,-752.83000000000004,-90.356999999999999,1120.77
172990.0,6489.71,3689.6700000000001,1414.1199999999999,8229.8600000000006,-807.77200000000005,-60.604300000000002,1158.29
172991.0,6428.6400000000003,3805.1399999999999,1380.4400000000001,8114.2399999999998,-853.43200000000002,-33.002899999999997,1189.3
172992.0,6366.6599999999999,3856.4099999999999,1297.75,7939.8599999999997,-892.94500000000005,-6.7511799999999997,1221.02
172993.0,6284.5200000000004,3971.1999999999998,1297.77,7824.4200000000001,-923.702,18.547899999999998,1243.47
172994.0,6224.7700000000004,3954.4200000000001,1167.5,7595.9300000000003,-954.43399999999997,42.956400000000002,1269.28
172995.0,6128.4099999999999,4121.25,1239.2,7541.8999999999996,-975.82500000000005,63.140000000000001,1267.97
172996.0,6061.4799999999996,3986.8200000000002,1021.2,7200.3800000000001,-1001.9,90.698099999999997,1297.8800000000001
172997.0,6022.7799999999997,4270.5699999999997,1128.6199999999999,7347.5699999999997,-1022.5,64.822500000000005,1171.49
172998.0,5536.5600000000004,4301.5699999999997,1234.76,6964.1000000000004,-972.822,80.504900000000006,1022.26
172999.0,72199.800000000003,-104517.0,-36887.300000000003,-83599.399999999994,-6479.29,-16840.099999999999,-14599.5
173000.0,71098.199999999997,-80905.699999999997,-20048.5,-71459.0,304.76299999999998,-16810.0,-18156.799999999999
173001.0,69247.5,-59161.900000000001,-72.737499999999997,-56781.5,4973.6099999999997,-13793.700000000001,-16265.200000000001
173002.0,64946.199999999997,-40946.099999999999,15869.700000000001,-41304.699999999997,7192.4899999999998,-11010.799999999999,-12255.1
173003.0,59606.800000000003,-29292.799999999999,24058.5,-30068.700000000001,8413.5300000000007,-8722.2399999999998,-8641.1900000000005
173004.0,54185.900000000001,-21536.299999999999,27683.200000000001,-21707.799999999999,8868.6800000000003,-7105.3900000000003,-6262.5900000000001
173005.0,49383.5,-15760.9,29117.5,-15772.0,9130.6299999999992,-5939.8100000000004,-4768.4200000000001
173006.0,44566.5,-11842.0,28619.799999999999,-11555.0,9264.3299999999999,-4808.1800000000003,-3351.8800000000001
173007.0,39955.199999999997,-9042.25,27174.5,-7896.1800000000003,9306.3500000000004,-3874.3499999999999,-2588.1700000000001
173008.0,36812.199999999997,-7680.96,25599.400000000001,-6085.96,9356.5100000000002,-2921.8899999999999,-1811.6600000000001
173009.0,32756.700000000001,-8225.7099999999991,21678.5,-5610.5900000000001,8892.75,-2069.0999999999999,66.653700000000001
173010.0,27204.299999999999,-8643.6700000000001,16019.0,-4168.7799999999997,8389.1100000000006,-1847.3599999999999,515.21199999999999
173011.0,23990.200000000001,-9490.1900000000005,11512.700000000001,-4136.8999999999996,8330.9699999999993,-1603.24,-867.88499999999999
173012.0,22399.799999999999,-9919.4599999999991,9874.4699999999993,-3952.2199999999998,7811.5500000000002,-1083.5999999999999,-1399.4000000000001
173013.0,20224.099999999999,-10060.4,8327.2399999999998,-3038.4000000000001,6850.29,-1064.0999999999999,-1476.6199999999999
173014.0,18514.400000000001,-8064.8699999999999,8440.2999999999993,-775.56500000000005,6334.9099999999999,-1329.22,-1987.1500000000001
173015.0,17638.0,-5565.1499999999996,9701.2800000000007,1399.29,6233.8100000000004,-1222.45,-2220.23
173016.0,16590.099999999999,-4911.9799999999996,9594.2199999999993,2221.0900000000001,5911.29,-901.86400000000003,-1837.0
173017.0,15454.6,-3783.48,9886.0100000000002,3843.3400000000001,5423.9300000000003,-720.61800000000005,-1659.3199999999999
173018.0,14843.6,-3063.9400000000001,10358.6,4858.3400000000001,5042.3999999999996,-449.46300000000002,-1511.99
173019.0,13953.700000000001,-2822.5999999999999,10356.700000000001,5756.2299999999996,4421.1599999999999,-182.881,-761.57399999999996
173020.0,12379.6,-3343.9200000000001,8357.5900000000001,5942.2299999999996,3560.4899999999998,-321.02499999999998,-373.036
173021.0,10659.700000000001,-3506.2600000000002,6017.3400000000001,5523.4399999999996,2900.4299999999998,-596.98299999999995,-600.84199999999998
173022.0,9222.0,-2644.6100000000001,4699.5,5549.8599999999997,2638.7199999999998,-685.23599999999999,-783.98900000000003
173023.0,8416.6399999999994,-1393.4100000000001,4492.1000000000004,6032.3199999999997,2742.98,-436.029,-735.11199999999997
173024.0,8108.9700000000003,-850.04399999999998,4702.9899999999998,6649.6999999999998,2595.0300000000002,85.842799999999997,-177.61600000000001
173025.0,8119.0799999999999,-1333.0699999999999,4033.1100000000001,7136.1899999999996,1878.8199999999999,195.36600000000001,214.73099999999999
173026.0,7974.0299999999997,-1389.04,3467.2399999999998,7453.1300000000001,1250.24,-147.88300000000001,-30.623200000000001
173027.0,7495.6899999999996,-990.52800000000002,3220.7800000000002,7421.3900000000003,948.41099999999994,-333.43400000000003,-166.399
173028.0,7084.8500000000004,-300.50799999999998,3136.0,7697.4099999999999,726.46500000000003,-316.10899999999998,-82.982900000000001
173029.0,6826.54,161.36600000000001,2864.2199999999998,7841.7799999999997,539.76800000000003,-253.26300000000001,5.4527400000000004
173030.0,6672.2799999999997,717.07899999999995,2772.6300000000001,8130.54,382.435,-180.26499999999999,111.148
173031.0,6605.5900000000001,1117.97,2582.5999999999999,8305.4500000000007,239.73500000000001,-115.151,218.80600000000001
173032.0,6580.3900000000003,1545.79,2478.5900000000001,8514.7199999999993,110.495,-58.7239,326.108
173033.0,6585.6599999999999,1878.77,2325.9299999999998,8634.4400000000005,-9.0217100000000006,-10.908799999999999,429.01999999999998
173034.0,6602.8199999999997,2214.0300000000002,2220.1100000000001,8752.9099999999999,-118.93600000000001,30.434100000000001,527.48699999999997
173035.0,6625.8199999999997,2482.77,2086.52,8801.7099999999991,-220.351,66.285399999999996,619.90200000000004
173036.0,6648.1300000000001,2747.8099999999999,1985.47,8842.7700000000004,-313.596,97.939700000000002,706.56700000000001
173037.0,6666.1300000000001,2959.27,1864.5899999999999,8827.8199999999997,-399.67000000000002,125.92100000000001,784.88999999999999
173038.0,6673.2299999999996,3169.4499999999998,1777.45,8807.5900000000001,-479.42599999999999,151.01900000000001,856.23299999999995
173039.0,6671.3299999999999,3336.5599999999999,1678.04,8743.3700000000008,-553.13800000000003,172.53100000000001,921.54700000000003
173040.0,6655.5699999999997,3514.8200000000002,1619.72,8688.2700000000004,-618.67600000000004,190.48099999999999,979.68799999999999
173041.0,6626.9799999999996,3638.9000000000001,1535.1900000000001,8578.0699999999997,-676.10500000000002,206.53100000000001,1033.74
173042.0,6588.6099999999997,3772.4000000000001,1482.97,8478.6399999999994,-726.38400000000001,220.566,1082.6199999999999
173043.0,6537.7399999999998,3857.4400000000001,1402.48,8330.2199999999993,-769.245,232.39400000000001,1124.25
173044.0,6470.9899999999998,3972.23,1373.3699999999999,8207.1499999999996,-804.73500000000001,244.64599999999999,1162.8699999999999
173045.0,6409.6199999999999,4011.7600000000002,1279.4400000000001,8018.6400000000003,-837.55499999999995,256.89600000000002,1198.8900000000001
173046.0,6328.1599999999999,4107.8100000000004,1263.5899999999999,7884.5,-865.16700000000003,268.178,1223.3299999999999
173047.0,6266.25,4067.0500000000002,1114.51,7633.75,-893.928,278.01499999999999,1247.26
173048.0,6166.6999999999998,4202.0,1163.75,7549.5500000000002,-914.86300000000006,283.428,1247.46
173049.0,6093.9799999999996,4056.3899999999999,939.49300000000005,7196.96,-938.17700000000002,294.05500000000001,1274.0599999999999
173050.0,6043.1300000000001,4276.29,1001.7,7278.4099999999999,-961.39200000000005,259.20100000000002,1151.5999999999999
173051.0,5567.54,4407.54,1214.4000000000001,7000.9899999999998,-920.62300000000005,251.452,1010.24
173052.0,65741.899999999994,-72020.0,-6073.8299999999999,-55435.099999999999,1956.46,-12469.6,-10227.4
173053.0,63397.900000000001,-55454.199999999997,3698.5799999999999,-46836.5,4845.1400000000003,-12542.9,-11737.799999999999
173054.0,60869.0,-39417.400000000001,15366.299999999999,-36608.5,7918.2200000000003,-10627.1,-10374.200000000001
173055.0,56521.599999999999,-28306.400000000001,22516.0,-27707.200000000001,9469.8099999999995,-8187.2600000000002,-7566.04
173056.0,51257.0,-20507.0,25759.099999999999,-20265.900000000001,9754.6900000000005,-6249.6700000000001,-5633.04
173057.0,46769.599999999999,-14998.4,27255.700000000001,-15110.0,9504.25,-4756.7700000000004,-4411.5500000000002
173058.0,42304.699999999997,-11442.4,27065.0,-11503.9,8987.6200000000008,-3614.5900000000001,-2767.0700000000002
173059.0,37329.5,-10047.4,24247.200000000001,-8950.2299999999996,8562.5400000000009,-2865.6999999999998,-1751.73
173060.0,33702.599999999999,-9027.5699999999997,21900.900000000001,-7272.9499999999998,8299.3700000000008,-2165.6799999999998,-1804.8499999999999
173061.0,30796.700000000001,-8565.6399999999994,19919.400000000001,-6765.5900000000001,7715.7299999999996,-1242.8299999999999,-783.51300000000003
173062.0,26175.0,-10316.6,14800.5,-6710.6999999999998,6574.2299999999996,-559.42200000000003,639.58199999999999
173063.0,21473.5,-13187.9,8378.2099999999991,-7204.4700000000003,5428.5100000000002,-522.08600000000001,-101.86799999999999
173064.0,19277.299999999999,-13793.0,5673.3500000000004,-7098.2600000000002,4791.29,-648.07799999999997,-1637.98
173065.0,18115.099999999999,-12174.700000000001,5967.04,-5401.7600000000002,4502.7399999999998,-572.10599999999999,-2177.77
173066.0,16885.900000000001,-10454.6,6412.8100000000004,-3366.6199999999999,4264.3100000000004,-449.18700000000001,-2219.8499999999999
173067.0,15678.700000000001,-10042.799999999999,5536.1000000000004,-2696.1999999999998,4017.04,-396.99000000000001,-2214.8000000000002
173068.0,14466.200000000001,-9176.0699999999997,5005.3999999999996,-1818.01,3826.4200000000001,-343.70299999999997,-2166.7800000000002
173069.0,13247.299999999999,-7303.4399999999996,5456.0100000000002,22.0688,3663.0599999999999,-202.422,-2009.6400000000001
173070.0,12156.200000000001,-5918.5699999999997,5475.4499999999998,1442.3099999999999,3529.6900000000001,-79.172200000000004,-1847.72
173071.0,11146.799999999999,-4777.5200000000004,5358.9499999999998,2501.6300000000001,3397.04,95.929100000000005,-1597.29
173072.0,10105.200000000001,-3986.1100000000001,5013.3500000000004,3418.5,3058.2399999999998,362.91000000000003,-1221.95
173073.0,9422.7000000000007,-3356.9299999999998,4824.7600000000002,4515.04,2597.0100000000002,503.73099999999999,-1047.3499999999999
173074.0,9109.3299999999999,-3025.3000000000002,4744.3199999999997,5251.4399999999996,2215.6500000000001,500.15899999999999,-989.57899999999995
173075.0,8738.6299999999992,-2701.04,4634.8199999999997,5782.7299999999996,1830.78,474.50799999999998,-832.54899999999998
173076.0,8226.0900000000001,-2518.6999999999998,4019.6199999999999,6023.8400000000001,1391.6099999999999,433.09699999999998,-689.28099999999995
173077.0,7757.79,-2134.3499999999999,3391.27,6292.9899999999998,1069.45,376.66000000000003,-668.36599999999999
173078.0,7415.2700000000004,-1289.3499999999999,3354.0,6911.2700000000004,941.06500000000005,378.54399999999998,-623.73199999999997
173079.0,7202.8500000000004,-678.68200000000002,3253.3400000000001,7371.71,843.81799999999998,424.06599999999997,-443.54500000000002
173080.0,7083.5600000000004,-88.139200000000002,3178.5900000000001,7865.6400000000003,694.85199999999998,429.64600000000002,-272.84100000000001
173081.0,6958.0799999999999,288.93400000000003,2931.25,8069.5900000000001,540.87099999999998,413.24599999999998,-145.42500000000001
173082.0,6846.8800000000001,816.94899999999996,2858.2399999999998,8378.1900000000005,394.98099999999999,410.70100000000002,-19.940999999999999
173083.0,6775.0900000000001,1200.3199999999999,2665.9499999999998,8531.1100000000006,258.02300000000002,420.137,97.186700000000002
173084.0,6736.8900000000003,1622.46,2554.29,8720.0300000000007,132.75299999999999,436.45699999999999,209.12200000000001
173085.0,6727.5,1959.0899999999999,2398.3699999999999,8826.7299999999996,17.9542,454.12599999999998,315.65100000000001
173086.0,6734.3900000000003,2289.0900000000001,2277.6399999999999,8927.3700000000008,-86.861000000000004,470.93900000000002,416.74700000000001
173087.0,6750.8100000000004,2572.9899999999998,2149.5999999999999,8982.7399999999998,-183.01300000000001,485.767,512.21500000000003
173088.0,6769.5500000000002,2832.2600000000002,2033.7,9013.25,-271.55599999999998,498.39600000000002,600.59900000000005
173089.0,6784.8599999999997,3065.0300000000002,1926.5899999999999,9016.5900000000001,-354.01600000000002,508.423,680.74400000000003
173090.0,6788.3299999999999,3273.27,1830.9000000000001,8991.9200000000001,-429.94,514.66999999999996,752.86599999999999
173091.0,6777.9799999999996,3468.6199999999999,1756.96,8950.6399999999994,-497.61000000000001,517.75099999999998,822.25599999999997
173092.0,6759.6300000000001,3628.96,1675.6199999999999,8874.8600000000006,-556.98099999999999,518.60400000000004,889.39800000000002
173093.0,6732.29,3775.0599999999999,1603.4300000000001,8784.5,-608.73599999999999,518.09400000000005,951.78499999999997
173094.0,6696.1199999999999,3888.23,1519.1900000000001,8661.0900000000001,-654.18799999999999,516.85299999999995,1008.8099999999999
173095.0,6650.5100000000002,4005.1100000000001,1459.01,8541.9599999999991,-694.28999999999996,514.95600000000002,1059.99
173096.0,6596.4700000000003,4073.1300000000001,1369.22,8376.5799999999999,-730.05399999999997,512.63400000000001,1104.4100000000001
173097.0,6530.1599999999999,4152.5200000000004,1313.04,8223.7299999999996,-761.995,510.65800000000002,1143.29
173098.0,6464.9499999999998,4167.3199999999997,1206.3800000000001,8017.2700000000004,-792.27200000000005,507.41300000000001,1176.3199999999999
173099.0,6377.7700000000004,4243.8900000000003,1184.54,7869.8000000000002,-817.02300000000002,502.44600000000003,1199.47
173100.0,6308.2700000000004,4204.04,1048.54,7625.2200000000003,-841.60299999999995,496.31,1221.0999999999999
173101.0,6201.3400000000001,4341.96,1113.4100000000001,7547.1099999999997,-859.14700000000005,486.61799999999999,1223.02
173102.0,6122.0500000000002,4197.5500000000002,898.97000000000003,7199.6000000000004,-878.14599999999996,482.21899999999999,1248.0699999999999
173103.0,6060.6800000000003,4446.8800000000001,1012.0,7315.1899999999996,-903.96500000000003,438.75299999999999,1129.1500000000001
173104.0,5592.0,4445.3999999999996,1103.27,6915.4799999999996,-870.74099999999999,407.83100000000002,995.06299999999999
173105.0,58390.300000000003,-49650.599999999999,8114.4799999999996,-38760.5,7594.0100000000002,-8544.1299999999992,-7980.6599999999999
173106.0,56266.900000000001,-38141.699999999997,15282.700000000001,-32066.200000000001,8473.3400000000001,-8303.2600000000002,-7686.5100000000002
173107.0,52325.300000000003,-28187.299999999999,20057.0,-25603.799999999999,9306.7600000000002,-7001.5699999999997,-6363.3999999999996
173108.0,47825.199999999997,-21097.799999999999,22482.400000000001,-19879.5,9503.2700000000004,-5372.9300000000003,-5230.8100000000004
173109.0,44143.300000000003,-15765.9,24488.099999999999,-14774.299999999999,9127.3799999999992,-4053.4099999999999,-4759.6199999999999
173110.0,41567.0,-11764.4,26627.599999999999,-11031.799999999999,8467.6299999999992,-2799.77,-3778.9400000000001
173111.0,37378.5,-10457.1,25086.400000000001,-8984.6700000000001,7420.7799999999997,-1742.55,-1795.03
173112.0,32084.700000000001,-9727.1100000000006,21403.400000000001,-6882.2299999999996,6565.1199999999999,-1281.3599999999999,-1479.3099999999999
173113.0,29675.200000000001,-9284.0799999999999,19455.400000000001,-6580.4200000000001,6125.1999999999998,-750.80499999999995,-1898.1500000000001
173114.0,27230.599999999999,-10259.5,16874.400000000001,-6911.25,5315.75,-20.6616,-207.494
173115.0,22664.5,-12053.1,11622.700000000001,-5918.8800000000001,4476.6599999999999,123.83499999999999,435.48500000000001
173116.0,19948.700000000001,-13470.299999999999,7580.0,-5715.0500000000002,4224.2799999999997,-30.129000000000001,-1211.75
173117.0,19050.799999999999,-12830.299999999999,7019.6599999999999,-5010.8800000000001,4049.02,14.015000000000001,-2144.8000000000002
173118.0,17617.299999999999,-11748.799999999999,6588.2600000000002,-3897.8099999999999,3723.73,92.761099999999999,-2222.9899999999998
173119.0,16110.1,-11121.9,5560.3299999999999,-3290.9200000000001,3434.6799999999998,184.61799999999999,-2240.3899999999999
173120.0,14707.0,-9137.8500000000004,5989.1599999999999,-1358.9000000000001,3179.2399999999998,311.32900000000001,-2161.4099999999999
173121.0,13415.1,-7630.9200000000001,6051.2299999999996,189.00200000000001,2912.0,443.00799999999998,-2047.6700000000001
173122.0,12262.5,-7046.5699999999997,5331.0500000000002,816.303,2630.8200000000002,555.39300000000003,-1912.4400000000001
173123.0,11177.6,-6195.3800000000001,4928.2399999999998,1683.2,2332.8800000000001,679.33299999999997,-1737.5999999999999
173124.0,10287.1,-5392.21,4609.8900000000003,2610.3200000000002,2024.5599999999999,808.19899999999996,-1583.99
173125.0,9656.0100000000002,-4787.4799999999996,4278.1599999999999,3395.1599999999999,1772.79,858.48099999999999,-1487.5899999999999
173126.0,9036.8400000000001,-4151.6400000000003,3941.5999999999999,4051.0,1589.3800000000001,855.55700000000002,-1353.0599999999999
173127.0,8384.7800000000007,-3157.29,3824.0799999999999,4932.4799999999996,1424.51,881.76800000000003,-1180.1099999999999
173128.0,7916.1599999999999,-2271.04,3708.1999999999998,5739.2799999999997,1272.96,941.12800000000004,-1020.8200000000001
173129.0,7661.3100000000004,-1502.73,3731.0700000000002,6513.0699999999997,1136.4100000000001,982.06600000000003,-863.21299999999997
173130.0,7463.4399999999996,-868.33500000000004,3724.79,7145.21,981.33399999999995,977.81299999999999,-692.56600000000003
173131.0,7247.1199999999999,-500.18799999999999,3393.8400000000001,7417.1400000000003,799.39499999999998,952.25999999999999,-537.26900000000001
173132.0,7061.29,47.725999999999999,3221.9299999999998,7796.1700000000001,627.649,940.91200000000003,-410.404
173133.0,6942.3599999999997,459.60399999999998,2968.5700000000002,8027.9099999999999,482.49400000000003,943.43100000000004,-284.16500000000002
173134.0,6879.6899999999996,1005.54,2899.4499999999998,8395.7900000000009,352.92399999999998,944.91899999999998,-154.46000000000001
173135.0,6848.96,1355.1300000000001,2680.1599999999999,8557.1200000000008,233.09899999999999,941.80999999999995,-30.627099999999999
173136.0,6837.79,1780.6199999999999,2581.5100000000002,8782.4500000000007,121.65000000000001,935.98400000000004,88.471199999999996
173137.0,6840.6400000000003,2095.7399999999998,2411.04,8887.3600000000006,18.103100000000001,928.84100000000001,200.904
173138.0,6852.7399999999998,2436.8499999999999,2304.46,9011.2999999999993,-77.639700000000005,921.46299999999997,307.392
173139.0,6870.1800000000003,2706.9099999999999,2163.1100000000001,9060.3899999999994,-165.798,913.28899999999999,407.09800000000001
173140.0,6888.6499999999996,2974.3200000000002,2054.3899999999999,9104.6100000000006,-246.66,904.23699999999997,500.65699999999998
173141.0,6906.4899999999998,3193.48,1929.9300000000001,9101.6299999999992,-320.863,893.43899999999996,585.36500000000001
173142.0,6913.5500000000002,3413.2800000000002,1840.95,9097.5300000000007,-388.21499999999997,880.35000000000002,658.19500000000005
173143.0,6898.1800000000003,3603.8800000000001,1761.0899999999999,9054.8899999999994,-448.238,865.87,725.37900000000002
173144.0,6870.5699999999997,3787.6799999999998,1703.54,8999.0900000000001,-501.83199999999999,851.57000000000005,797.89499999999998
173145.0,6844.1899999999996,3931.6100000000001,1623.3599999999999,8906.7700000000004,-550.13800000000003,836.65999999999997,870.03200000000004
173146.0,6813.2600000000002,4063.5,1550.6900000000001,8806.1900000000005,-593.495,820.79600000000005,934.12800000000004
173147.0,6772.71,4153.3000000000002,1458.8800000000001,8666.4200000000001,-632.87,804.28800000000001,989.79100000000005
173148.0,6721.1199999999999,4235.29,1382.3299999999999,8520.9300000000003,-668.50699999999995,787.38,1039.24
173149.0,6662.0600000000004,4283.1000000000004,1290.9100000000001,8346.3099999999995,-700.58299999999997,769.61199999999997,1082.1199999999999
173150.0,6589.0299999999997,4348.0200000000004,1237.8099999999999,8189.96,-727.92100000000005,750.91200000000003,1118.1800000000001
173151.0,6514.1499999999996,4361.4899999999998,1146.6300000000001,7990.0900000000001,-752.30200000000002,731.64700000000005,1149.3199999999999
173152.0,6419.71,4421.6499999999996,1122.9300000000001,7833.8199999999997,-771.91499999999996,711.49000000000001,1172.77
173153.0,6343.29,4368.0,985.995,7582.6000000000004,-791.92999999999995,691.42200000000003,1194.1800000000001
173154.0,6230.6400000000003,4469.6599999999999,1027.9100000000001,7475.8199999999997,-806.25999999999999,668.11199999999997,1197.5799999999999
173155.0,6145.7399999999998,4315.6899999999996,814.47799999999995,7126.71,-821.25400000000002,649.94299999999998,1221.6199999999999
173156.0,6074.7200000000003,4499.0200000000004,882.245,7184.1700000000001,-849.24699999999996,598.20100000000002,1104.8900000000001
173157.0,5610.0200000000004,4597.3900000000003,1088.9000000000001,6899.3199999999997,-822.00999999999999,545.93200000000002,977.47000000000003
173158.0,50687.699999999997,-36719.300000000003,11841.700000000001,-31040.599999999999,8680.3899999999994,-5556.2799999999997,-6730.9300000000003
173159.0,48230.300000000003,-28458.200000000001,16853.299999999999,-25302.200000000001,8798.3600000000006,-4961.8900000000003,-5773.1000000000004
173160.0,44780.099999999999,-22356.200000000001,19443.299999999999,-20329.0,8436.2900000000009,-4146.71,-4952.8599999999997
173161.0,41642.800000000003,-17853.5,21010.599999999999,-16119.6,7966.6899999999996,-3464.2399999999998,-4534.3999999999996
173162.0,39327.800000000003,-12973.6,23681.299999999999,-11231.200000000001,7917.9399999999996,-2796.5999999999999,-4178.4700000000003
173163.0,37291.699999999997,-10532.799999999999,24566.099999999999,-8507.9400000000005,7913.4300000000003,-1570.3299999999999,-3185.4499999999998
173164.0,33604.800000000003,-9816.7999999999993,23003.700000000001,-6307.5900000000001,6849.5500000000002,-343.64800000000002,-2148.8099999999999
173165.0,30537.5,-8434.6700000000001,22198.099999999999,-4103.3500000000004,5470.1400000000003,50.005800000000001,-2471.1500000000001
173166.0,29096.400000000001,-8111.7399999999998,21350.599999999999,-4354.7600000000002,4798.8999999999996,347.33199999999999,-1377.72
173167.0,25263.0,-9495.8199999999997,16748.400000000001,-4138.3900000000003,4372.7200000000003,776.58500000000004,854.52999999999997
173168.0,20407.799999999999,-11907.299999999999,9929.6299999999992,-4091.5900000000001,3975.0599999999999,765.16800000000001,135.041
173169.0,18336.299999999999,-12786.5,6592.8599999999997,-4754.0600000000004,3734.75,646.51300000000003,-1703.3
173170.0,17177.599999999999,-11423.9,6475.2700000000004,-3804.02,3497.8499999999999,738.79499999999996,-2211.7600000000002
173171.0,15831.0,-10152.799999999999,6264.2399999999998,-2507.04,3214.6900000000001,870.30499999999995,-2227.8400000000001
173172.0,14609.6,-8794.2399999999998,6272.6199999999999,-1110.27,2931.48,981.32500000000005,-2197.71
173173.0,13424.5,-8250.9799999999996,5498.5200000000004,-505.387,2638.0999999999999,1075.5699999999999,-2107.46
173174.0,12318.5,-7583.1599999999999,4878.7299999999996,214.215,2369.71,1152.0899999999999,-1999.1500000000001
173175.0,11327.700000000001,-6169.8999999999996,5064.6599999999999,1660.9200000000001,2137.0100000000002,1235.05,-1869.0
173176.0,10491.6,-5223.5699999999997,4892.3900000000003,2685.8299999999999,1918.3299999999999,1308.5699999999999,-1733.54
173177.0,9740.4799999999996,-4352.71,4687.0100000000002,3595.0799999999999,1720.0899999999999,1337.3800000000001,-1591.3299999999999
173178.0,9024.5400000000009,-3331.7199999999998,4609.5799999999999,4553.7600000000002,1535.8099999999999,1368.23,-1428.99
173179.0,8459.7199999999993,-2387.9899999999998,4555.5600000000004,5450.8100000000004,1343.8699999999999,1428.3800000000001,-1264.5899999999999
173180.0,8073.4899999999998,-1934.79,4177.8500000000004,5920.7799999999997,1148.8699999999999,1465.5,-1113.9200000000001
173181.0,7739.46,-1456.79,3856.5999999999999,6370.8199999999997,967.66300000000001,1456.24,-968.79999999999995
173182.0,7417.0900000000001,-902.54399999999998,3556.29,6795.04,805.38499999999999,1439.8199999999999,-823.88599999999997
173183.0,7180.1599999999999,-320.19299999999998,3311.1900000000001,7212.9899999999998,662.774,1445.3599999999999,-680.61900000000003
173184.0,7054.25,347.81,3262.9899999999998,7746.9700000000003,536.26599999999996,1455.0899999999999,-539.08299999999997
173185.0,6982.6999999999998,789.11300000000006,3068.4899999999998,8059.0600000000004,417.154,1446.9300000000001,-399.37
173186.0,6934.6800000000003,1304.4300000000001,2982.3299999999999,8416.8099999999995,302.10599999999999,1430.1700000000001,-265.99200000000002
173187.0,6913.8299999999999,1636.1199999999999,2751.1300000000001,8573.8600000000006,192.773,1413.1800000000001,-139.71700000000001
173188.0,6914.54,2061.4200000000001,2655.0500000000002,8815.1000000000004,91.366900000000001,1393.9400000000001,-19.613499999999998
173189.0,6928.7299999999996,2366.25,2477.1599999999999,8926.8199999999997,-1.83968,1372.8900000000001,94.863900000000001
173190.0,6950.4799999999996,2697.5300000000002,2364.25,9058.6299999999992,-87.715000000000003,1349.95,203.62
173191.0,6974.1099999999997,2955.8800000000001,2214.9000000000001,9111.7600000000002,-166.57499999999999,1325.0899999999999,306.63299999999998
173192.0,6996.21,3212.46,2098.1799999999998,9158.9500000000007,-238.94999999999999,1298.6099999999999,403.34199999999998
173193.0,7013.8100000000004,3428.9899999999998,1974.02,9163.0,-305.04899999999998,1270.6099999999999,494.06099999999998
173194.0,7025.9499999999998,3628.6700000000001,1862.24,9149.2199999999993,-365.04300000000001,1240.51,577.12
173195.0,7026.6099999999997,3810.6500000000001,1761.29,9114.8500000000004,-417.70100000000002,1208.0699999999999,649.85400000000004
173196.0,7007.7399999999998,3979.9099999999999,1680.0699999999999,9060.2199999999993,-462.65499999999997,1176.05,715.14700000000005
173197.0,6975.2200000000003,4134.5699999999997,1615.8800000000001,8986.9899999999998,-503.98000000000002,1147.45,781.09299999999996
173198.0,6936.7799999999997,4254.6000000000004,1542.51,8881.75,-545.23699999999997,1119.6700000000001,846.74199999999996
173199.0,6892.8100000000004,4350.1999999999998,1465.0599999999999,8755.5599999999995,-584.11599999999999,1089.8,909.74800000000005
173200.0,6844.0600000000004,4419.5100000000002,1377.9200000000001,8608.3099999999995,-617.96799999999996,1057.9400000000001,966.053
173201.0,6784.7600000000002,4488.8999999999996,1310.0999999999999,8463.8199999999997,-646.56899999999996,1025.26,1014.09
173202.0,6716.2799999999997,4523.0699999999997,1225.23,8287.3099999999995,-671.50699999999995,992.28800000000001,1055.55
173203.0,6635.6700000000001,4563.6800000000003,1165.46,8117.8500000000004,-692.74800000000005,959.12599999999998,1091.5899999999999
173204.0,6554.1300000000001,4555.8500000000004,1068.97,7907.9399999999996,-711.94100000000003,926.19899999999996,1122.4000000000001
173205.0,6453.8000000000002,4597.8100000000004,1042.51,7745.2399999999998,-727.07799999999997,892.70799999999997,1145.77
173206.0,6370.9200000000001,4542.5299999999997,919.07799999999997,7503.96,-742.80399999999997,860.38,1166.55
173207.0,6252.6599999999999,4644.1800000000003,975.96299999999997,7408.6099999999997,-754.00099999999998,824.59299999999996,1170.75
173208.0,6162.2200000000003,4490.9899999999998,775.78700000000003,7071.5299999999997,-765.19399999999996,794.31200000000001,1193.6500000000001
173209.0,6082.6999999999998,4697.0799999999999,887.72000000000003,7162.8400000000001,-795.83699999999999,735.46799999999996,1078.9300000000001
173210.0,5620.5600000000004,4668.54,985.19600000000003,6769.5900000000001,-773.85299999999995,663.25199999999995,958.13199999999995
173211.0,45356.400000000001,-29070.0,14488.5,-25623.5,7167.0100000000002,-3367.6399999999999,-6054.6400000000003
173212.0,42881.199999999997,-22866.799999999999,18153.599999999999,-20559.599999999999,6803.5100000000002,-3010.2199999999998,-5144.4300000000003
173213.0,40452.199999999997,-18037.599999999999,20622.299999999999,-16127.5,6614.0799999999999,-2727.6300000000001,-4413.3199999999997
173214.0,38005.300000000003,-14375.200000000001,21913.5,-12436.5,6863.3999999999996,-2424.6199999999999,-3424.02
173215.0,34877.699999999997,-11682.5,21458.700000000001,-9106.5200000000004,7441.4200000000001,-1790.02,-2652.9899999999998
173216.0,31937.5,-10391.700000000001,19922.799999999999,-6757.3199999999997,7560.8299999999999,-635.93600000000004,-2903.4099999999999
173217.0,30305.400000000001,-8381.0799999999999,20721.799999999999,-3936.23,6790.71,269.23599999999999,-3763.3000000000002
173218.0,30231.700000000001,-6090.8800000000001,23286.200000000001,-2304.8899999999999,6126.2200000000003,773.04100000000005,-3338.9000000000001
173219.0,28052.099999999999,-6655.3199999999997,21314.400000000001,-2820.0500000000002,5468.6400000000003,1564.46,-196.482
173220.0,22296.599999999999,-8725.2700000000004,14310.700000000001,-2242.9299999999998,4360.2200000000003,1939.3299999999999,1350.5999999999999
173221.0,18004.5,-11535.6,7557.54,-3492.4000000000001,3602.3299999999999,1648.6700000000001,-684.78999999999996
173222.0,16982.900000000001,-11299.299999999999,6424.9499999999998,-3644.8000000000002,3241.0,1503.97,-2085.73
173223.0,15765.9,-9785.0200000000004,6596.75,-2286.75,2903.23,1518.0899999999999,-2206.9099999999999
173224.0,14475.6,-9128.8299999999999,5777.1800000000003,-1652.4400000000001,2619.7800000000002,1564.1300000000001,-2233.8200000000002
173225.0,13318.1,-8114.0799999999999,5447.6700000000001,-678.23900000000003,2373.73,1636.95,-2164.77
173226.0,12237.200000000001,-6744.3199999999997,5507.7399999999998,716.27499999999998,2151.9200000000001,1701.02,-2066.4200000000001
173227.0,11267.299999999999,-5415.5699999999997,5610.8999999999996,2059.9099999999999,1937.78,1770.3,-1936.26
173228.0,10390.9,-4868.3100000000004,4982.6700000000001,2636.0,1719.98,1819.8299999999999,-1800.72
173229.0,9603.6800000000003,-3981.8299999999999,4736.0699999999997,3502.3299999999999,1520.25,1853.3599999999999,-1655.7
173230.0,8939.7900000000009,-3140.29,4512.0799999999999,4306.9899999999998,1331.52,1895.71,-1504.27
173231.0,8427.0799999999999,-2546.3400000000001,4153.2399999999998,4892.7600000000002,1147.8399999999999,1929.0699999999999,-1355.6500000000001
173232.0,8000.25,-2016.5,3779.1799999999998,5390.54,984.94299999999998,1928.6800000000001,-1212.27
173233.0,7629.5699999999997,-1132.48,3762.8200000000002,6173.4700000000003,845.90899999999999,1922.47,-1064.5699999999999
173234.0,7364.4499999999998,-363.34500000000003,3695.9400000000001,6827.9099999999999,714.80399999999997,1931.8499999999999,-913.90200000000004
173235.0,7208.3900000000003,230.89599999999999,3564.0300000000002,7334.9799999999996,584.78399999999999,1938.0899999999999,-767.55600000000004
173236.0,7105.1700000000001,726.88699999999994,3398.04,7739.25,459.27300000000002,1922.73,-627.87099999999998
173237.0,7025.54,1091.5999999999999,3115.7199999999998,7970.79,342.25700000000001,1895.6400000000001,-493.43900000000002
173238.0,6984.3999999999996,1583.8299999999999,2991.02,8305.9300000000003,235.274,1871.9400000000001,-363.21499999999997
173239.0,6979.3400000000001,1917.0999999999999,2760.5999999999999,8480.7000000000007,137.46100000000001,1846.53,-237.67400000000001
173240.0,6991.3100000000004,2352.23,2677.8400000000001,8748.8400000000001,48.294199999999996,1815.73,-116.845
173241.0,7014.0699999999997,2634.0100000000002,2481.8000000000002,8854.3700000000008,-33.954799999999999,1782.4000000000001,-1.22146
173242.0,7042.3100000000004,2966.5999999999999,2375.7399999999998,9004.4599999999991,-110.03,1746.4100000000001,108.911
173243.0,7070.8199999999997,3209.0500000000002,2215.6500000000001,9058.2000000000007,-179.84700000000001,1708.1300000000001,213.09700000000001
173244.0,7096.5200000000004,3471.1500000000001,2109.5100000000002,9126.9300000000003,-243.87200000000001,1668.0699999999999,311.798
173245.0,7116.5699999999997,3671.8299999999999,1974.1400000000001,9130.4899999999998,-302.34100000000001,1626.28,404.49000000000001
173246.0,7129.0699999999997,3872.1100000000001,1868.75,9130.6200000000008,-355.52699999999999,1583.1500000000001,491.73099999999999
173247.0,7132.8800000000001,4029.04,1748.0599999999999,9085.2800000000007,-403.80799999999999,1538.72,572.79499999999996
173248.0,7127.0200000000004,4181.5,1648.78,9033.6900000000005,-447.11099999999999,1493.1800000000001,647.61900000000003
173249.0,7110.5699999999997,4299.6000000000004,1539.4100000000001,8946.8500000000004,-485.029,1446.9200000000001,714.32899999999995
173250.0,7080.04,4422.6499999999996,1461.6199999999999,8864.0200000000004,-517.51199999999994,1401.0999999999999,772.39999999999998
173251.0,7030.3999999999996,4525.0900000000001,1394.02,8757.75,-545.96799999999996,1356.5899999999999,824.53300000000002
173252.0,6966.5100000000002,4630.8199999999997,1357.45,8652.4899999999998,-572.66200000000003,1313.6400000000001,879.04600000000005
173253.0,6900.4200000000001,4689.79,1290.75,8504.8799999999992,-598.64499999999998,1270.21,935.28899999999999
173254.0,6832.1300000000001,4738.1400000000003,1225.8199999999999,8352.4599999999991,-621.68600000000004,1225.1900000000001,986.73000000000002
173255.0,6758.3400000000001,4750.21,1137.8599999999999,8169.3100000000004,-641.07100000000003,1179.6700000000001,1029.0999999999999
173256.0,6671.6099999999997,4784.9499999999998,1090.78,8009.6199999999999,-656.89099999999996,1134.3499999999999,1064.22
173257.0,6583.5,4766.8400000000001,1001.97,7804.3199999999997,-671.101,1089.78,1094.26
173258.0,6477.9499999999998,4798.7600000000002,981.64400000000001,7646.3800000000001,-681.96900000000005,1044.5699999999999,1117.46
173259.0,6389.5100000000002,4719.3000000000002,848.92499999999995,7394.46,-693.69200000000001,1001.4299999999999,1137.75
173260.0,6266.2200000000003,4793.6499999999996,893.72500000000002,7285.6199999999999,-701.84199999999998,954.69299999999998,1142.46
173261.0,6171.0,4616.8900000000003,683.18200000000002,6938.7399999999998,-709.404,913.78800000000001,1164.47
173262.0,6083.6300000000001,4771.3800000000001,764.50099999999998,6991.4099999999999,-742.56899999999996,848.83600000000001,1051.3199999999999
173263.0,5622.9700000000003,4826.6899999999996,965.95399999999995,6704.4799999999996,-725.13300000000004,758.63699999999994,936.79200000000003
173264.0,42486.199999999997,-22883.299999999999,18213.299999999999,-20199.5,5981.71,-2037.71,-5757.1199999999999
173265.0,40521.099999999999,-17710.599999999999,21627.400000000001,-15625.4,5715.1999999999998,-1879.3699999999999,-4603.3199999999997
173266.0,37921.199999999997,-13812.0,22986.0,-12246.1,5855.8699999999999,-1676.27,-3043.6900000000001
173267.0,33864.900000000001,-12112.700000000001,20665.700000000001,-10336.4,6268.6300000000001,-1222.04,-1305.03
173268.0,28736.099999999999,-11965.5,15797.799999999999,-8744.5799999999999,6551.1800000000003,-661.37900000000002,-1147.1099999999999
173269.0,26164.799999999999,-11402.4,13228.4,-6930.8800000000001,6701.96,-220.928,-3325.2600000000002
173270.0,27384.299999999999,-8311.3999999999996,16474.0,-4646.9399999999996,6825.5900000000001,341.46199999999999,-4928.3699999999999
173271.0,27350.400000000001,-4864.7799999999997,20299.799999999999,-2667.8299999999999,6620.1499999999996,1436.55,-3031.8499999999999
173272.0,23702.400000000001,-5889.0699999999997,16851.400000000001,-2422.0500000000002,5500.4200000000001,2628.5500000000002,48.3324
173273.0,18802.099999999999,-9094.9799999999996,9993.7199999999993,-2764.5,3911.6500000000001,2823.9000000000001,161.291
173274.0,16384.299999999999,-10314.0,6652.0900000000001,-3054.3600000000001,3006.1100000000001,2339.3400000000001,-1584.8299999999999
173275.0,15451.299999999999,-9450.2999999999993,6353.6300000000001,-2523.9699999999998,2682.4699999999998,2140.0100000000002,-2246.54
173276.0,14228.799999999999,-8234.7800000000007,6203.8299999999999,-1331.03,2401.3899999999999,2154.2600000000002,-2219.6500000000001
173277.0,13107.0,-7275.21,5843.5900000000001,-348.65100000000001,2151.96,2181.5500000000002,-2191.71
173278.0,12070.1,-6019.0699999999997,5846.3999999999996,902.47500000000002,1927.0999999999999,2224.9899999999998,-2091.5799999999999
173279.0,11100.5,-5396.3900000000003,5230.9099999999999,1543.9400000000001,1703.1800000000001,2270.3899999999999,-1975.23
173280.0,10248.200000000001,-4705.2700000000004,4756.5299999999997,2240.5,1502.01,2307.71,-1846.6900000000001
173281.0,9514.3400000000001,-3566.4099999999999,4794.54,3374.5300000000002,1324.02,2340.04,-1711.4200000000001
173282.0,8902.7299999999996,-2755.5700000000002,4582.8199999999997,4175.8999999999996,1154.8399999999999,2369.8299999999999,-1568.22
173283.0,8394.25,-2047.4200000000001,4327.5500000000002,4867.3699999999999,996.447,2381.0999999999999,-1426.27
173284.0,7965.6599999999999,-1200.99,4246.2799999999997,5654.0,856.17100000000005,2380.8299999999999,-1281.26
173285.0,7637.3900000000003,-389.59899999999999,4187.1800000000003,6386.0799999999999,721.00599999999997,2385.8099999999999,-1132.53
173286.0,7411.6400000000003,32.456099999999999,3821.1900000000001,6738.75,585.91700000000003,2384.5900000000001,-987.11400000000003
173287.0,7248.9499999999998,456.46800000000002,3509.5999999999999,7081.3000000000002,461.54700000000003,2364.0,-848.37
173288.0,7129.5100000000002,957.19899999999996,3299.7399999999998,7465.0900000000001,352.65899999999999,2333.6599999999999,-712.70699999999999
173289.0,7062.6700000000001,1451.5599999999999,3126.9200000000001,7823.0500000000002,254.751,2306.0500000000002,-578.71600000000001
173290.0,7044.4099999999999,1974.1900000000001,3048.75,8212.8500000000004,163.59,2278.0300000000002,-448.46600000000001
173291.0,7050.1199999999999,2311.0799999999999,2838.5599999999999,8413.75,78.247500000000002,2241.3299999999999,-323.17099999999999
173292.0,7068.1300000000001,2728.0799999999999,2745.4099999999999,8679.9500000000007,-0.57360699999999998,2199.4499999999998,-203.13999999999999
173293.0,7097.5100000000002,2988.5900000000001,2534.5,8781.6299999999992,-73.617800000000003,2155.54,-87.921499999999995
173294.0,7130.8199999999997,3319.6199999999999,2432.9299999999998,8947.8600000000006,-140.602,2108.2399999999998,21.601500000000001
173295.0,7163.4399999999996,3551.6700000000001,2268.2399999999998,9008.75,-201.60599999999999,2058.6900000000001,126.152
173296.0,7192.5100000000002,3803.4200000000001,2157.5999999999999,9084.9699999999993,-257.39499999999998,2007.0899999999999,225.23099999999999
173297.0,7215.0100000000002,3991.1399999999999,2015.3199999999999,9093.1000000000004,-308.065,1953.78,319.07299999999998
173298.0,7229.46,4178.9499999999998,1903.55,9098.3500000000004,-354.10000000000002,1899.0799999999999,407.34800000000001
173299.0,7234.6199999999999,4329.54,1783.2,9064.0200000000004,-395.70100000000002,1843.3299999999999,490.45600000000002
173300.0,7229.8999999999996,4468.5500000000002,1678.2,9016.7399999999998,-433.22199999999998,1786.77,567.93499999999995
173301.0,7214.8999999999996,4582.2200000000003,1573.3699999999999,8943.3700000000008,-466.86900000000003,1729.72,640.37900000000002
173302.0,7190.3900000000003,4680.6400000000003,1476.23,8855.4500000000007,-497.14400000000001,1671.9300000000001,706.899
173303.0,7155.6599999999999,4761.5,1381.9100000000001,8750.5499999999993,-523.58600000000001,1613.04,765.91999999999996
173304.0,7106.7399999999998,4829.0600000000004,1295.3800000000001,8631.1100000000006,-545.57600000000002,1553.77,814.96400000000006
173305.0,7037.0100000000002,4893.0699999999997,1232.74,8503.1200000000008,-563.19500000000005,1495.98,858.23199999999997
173306.0,6953.3100000000004,4945.7799999999997,1184.6800000000001,8361.8400000000001,-578.375,1440.77,904.40999999999997
173307.0,6868.8100000000004,4991.5,1144.96,8218.7199999999993,-592.97900000000004,1386.95,953.99900000000002
173308.0,6785.7799999999997,4998.1999999999998,1075.0699999999999,8044.9399999999996,-606.98900000000003,1332.28,998.35900000000004
173309.0,6693.7799999999997,5001.7299999999996,1015.21,7870.5100000000002,-618.12400000000002,1276.5699999999999,1034.8699999999999
173310.0,6601.0,4968.8199999999997,928.07600000000002,7667.0799999999999,-627.76199999999994,1221.9200000000001,1064.6500000000001
173311.0,6490.5200000000004,4976.2700000000004,899.75400000000002,7501.46,-634.76700000000005,1166.74,1087.1500000000001
173312.0,6397.0600000000004,4901.6999999999998,787.87900000000002,7270.3699999999999,-642.88300000000004,1114.6700000000001,1107.04
173313.0,6269.3100000000004,4967.9899999999998,840.29200000000003,7169.6499999999996,-648.44200000000001,1058.5,1111.8299999999999
173314.0,6169.7700000000004,4800.6000000000004,652.71000000000004,6847.5200000000004,-652.82399999999996,1008.6900000000001,1132.8199999999999
173315.0,6075.6199999999999,4966.5799999999999,765.803,6925.7200000000003,-689.06600000000003,938.93899999999996,1021.3200000000001
173316.0,5616.5699999999997,4906.1599999999999,871.85500000000002,6548.1999999999998,-675.87,832.39099999999996,912.94399999999996
173317.0,39993.800000000003,-16756.200000000001,21806.599999999999,-14932.5,5525.04,-1261.3900000000001,-5262.21
173318.0,38129.900000000001,-12458.700000000001,24431.099999999999,-11276.1,5565.3699999999999,-872.47900000000004,-3653.9699999999998
173319.0,34788.400000000001,-10632.5,23208.200000000001,-9718.5799999999999,5466.1099999999997,-246.43600000000001,-1331.72
173320.0,29409.0,-11162.700000000001,17907.799999999999,-9092.4699999999993,5003.1999999999998,349.94400000000002,276.14299999999997
173321.0,23729.5,-12904.1,11193.200000000001,-9001.1800000000003,4475.3900000000003,412.779,-457.75
173322.0,21239.200000000001,-11429.700000000001,9296.4099999999999,-7062.3599999999997,4728.3699999999999,76.0137,-2937.4499999999998
173323.0,22489.599999999999,-8469.5699999999997,11501.9,-5720.0600000000004,5649.1199999999999,528.05399999999997,-4385.4799999999996
173324.0,22298.400000000001,-6982.0100000000002,13020.700000000001,-5160.9399999999996,5619.5100000000002,2005.6300000000001,-2793.79
173325.0,19235.299999999999,-7209.3299999999999,11157.799999999999,-3610.8699999999999,4296.3299999999999,3030.8600000000001,-975.34000000000003
173326.0,16331.6,-8639.4400000000005,7690.1199999999999,-3053.8200000000002,3042.75,3011.4099999999999,-1303.46
173327.0,15042.799999999999,-8713.3299999999999,6374.79,-2603.29,2451.9499999999998,2739.98,-2076.1999999999998
173328.0,13998.9,-7662.1199999999999,6259.4099999999999,-1497.6800000000001,2147.52,2654.2600000000002,-2236.7199999999998
173329.0,12897.5,-6801.3500000000004,5842.1300000000001,-565.697,1898.51,2658.4299999999998,-2193.0999999999999
173330.0,11880.299999999999,-5831.0200000000004,5565.4399999999996,432.34699999999998,1680.6900000000001,2681.6999999999998,-2110.6399999999999
173331.0,10959.799999999999,-5051.6899999999996,5142.3400000000001,1236.6800000000001,1484.49,2714.5599999999999,-2003.52
173332.0,10154.200000000001,-3917.8600000000001,5140.8599999999997,2390.4699999999998,1310.22,2745.5599999999999,-1882.6300000000001
173333.0,9446.6000000000004,-2872.4400000000001,5101.0900000000001,3437.79,1145.21,2770.5700000000002,-1750.6300000000001
173334.0,8839.1900000000005,-2296.04,4642.6599999999999,4001.8899999999999,984.63800000000003,2787.52,-1612.6500000000001
173335.0,8333.6700000000001,-1544.72,4413.5299999999997,4721.5799999999999,839.31399999999996,2792.2199999999998,-1473.76
173336.0,7930.5799999999999,-801.92499999999995,4234.8000000000002,5411.79,705.72199999999998,2792.9299999999998,-1331.25
173337.0,7631.3900000000003,-268.91500000000002,3916.21,5890.2799999999997,576.70299999999997,2788.27,-1189.26
173338.0,7413.6599999999999,189.81399999999999,3584.4699999999998,6286.79,460.16199999999998,2769.3899999999999,-1051.79
173339.0,7257.8100000000004,882.36500000000001,3530.8600000000001,6892.5500000000002,359.60399999999998,2741.5799999999999,-916.548
173340.0,7163.3900000000003,1496.55,3450.4899999999998,7404.4899999999998,266.36700000000002,2713.71,-781.20100000000002
173341.0,7121.6599999999999,1957.02,3278.1199999999999,7761.8900000000003,175.977,2682.5799999999999,-648.98000000000002
173342.0,7111.1199999999999,2360.3299999999999,3098.79,8056.7299999999996,91.110799999999998,2641.8800000000001,-521.79899999999998
173343.0,7118.3900000000003,2661.5599999999999,2852.0100000000002,8232.8999999999996,14.1272,2593.4099999999999,-399.35700000000003
173344.0,7142.7399999999998,3064.4499999999998,2745.1999999999998,8498.7000000000007,-55.384500000000003,2543.27,-281.11599999999999
173345.0,7178.1199999999999,3315.5300000000002,2531.0700000000002,8609.3500000000004,-119.03100000000001,2490.3899999999999,-167.351
173346.0,7215.3400000000001,3654.0500000000002,2443.75,8801.3600000000006,-176.71799999999999,2433.6300000000001,-58.591200000000001
173347.0,7251.5600000000004,3862.1300000000001,2261.8400000000001,8857.1700000000001,-229.209,2374.6199999999999,45.386000000000003
173348.0,7283.4099999999999,4112.7700000000004,2156.9200000000001,8951.4400000000005,-276.99599999999998,2313.2600000000002,144.28299999999999
173349.0,7308.2600000000002,4284.6099999999997,2005.3299999999999,8962.9200000000001,-320.15300000000002,2250.0599999999999,238.03100000000001
173350.0,7324.71,4476.2600000000002,1903.9200000000001,8991.25,-359.08800000000002,2185.4099999999999,326.80000000000001
173351.0,7331.4499999999998,4611.5299999999997,1774.71,8960.7900000000009,-394.03899999999999,2119.5599999999999,410.31799999999998
173352.0,7327.9799999999996,4749.2799999999997,1674.8599999999999,8931.1000000000004,-425.233,2052.8899999999999,489.00599999999997
173353.0,7313.9700000000003,4845.9200000000001,1559.04,8859.2999999999993,-452.98599999999999,1985.54,562.47799999999995
173354.0,7289.3900000000003,4941.6499999999996,1465.8499999999999,8786.0200000000004,-477.44900000000001,1917.79,631.13199999999995
173355.0,7254.2700000000004,5003.9499999999998,1361.4200000000001,8679.3700000000008,-498.92200000000003,1849.8599999999999,694.53499999999997
173356.0,7209.6899999999996,5065.3699999999999,1276.6400000000001,8573.0100000000002,-517.774,1782.02,752.99900000000002
173357.0,7155.1499999999996,5103.3199999999997,1187.1600000000001,8445.3700000000008,-534.37699999999995,1713.47,803.72299999999996
173358.0,7085.1000000000004,5152.1300000000001,1128.3599999999999,8326.5,-546.72500000000002,1644.0899999999999,847.06600000000003
173359.0,7002.1000000000004,5173.9899999999998,1061.24,8177.7600000000002,-554.73599999999999,1576.6900000000001,886.41800000000001
173360.0,6908.9700000000003,5202.46,1019.95,8034.9799999999996,-561.625,1512.51,923.91999999999996
173361.0,6808.8000000000002,5198.1199999999999,963.44500000000005,7862.1899999999996,-569.58199999999999,1449.74,960.90700000000004
173362.0,6703.79,5210.0600000000004,936.92600000000004,7709.2600000000002,-576.70799999999997,1386.5999999999999,998.33100000000002
173363.0,6605.0799999999999,5166.2799999999997,858.62199999999996,7511.46,-582.96900000000005,1324.1199999999999,1031.1099999999999
173364.0,6491.8800000000001,5166.6499999999996,839.05200000000002,7357.2299999999996,-586.48099999999999,1260.5999999999999,1054.9000000000001
173365.0,6394.7299999999996,5065.3000000000002,715.072,7116.5200000000004,-591.14300000000003,1200.9000000000001,1074.3199999999999
173366.0,6263.0500000000002,5107.6000000000004,759.03899999999999,7009.2600000000002,-594.09100000000001,1136.78,1079.26
173367.0,6159.7799999999997,4911.8699999999999,557.01400000000001,6675.8900000000003,-595.45100000000002,1079.49,1099.1900000000001
173368.0,6059.0799999999999,5033.7700000000004,646.34900000000005,6725.1400000000003,-634.69600000000003,1006.11,989.303
173369.0,5600.6700000000001,5050.7299999999996,852.11000000000001,6453.3000000000002,-625.197,885.33699999999999,886.73400000000004
173370.0,37136.900000000001,-12274.700000000001,23309.0,-11324.299999999999,5379.9099999999999,-503.84199999999998,-4407.3100000000004
173371.0,35001.699999999997,-9223.8500000000004,24402.599999999999,-8798.7199999999993,5379.4799999999996,254.24100000000001,-2676.0599999999999
173372.0,31522.400000000001,-8930.9699999999993,21815.599999999999,-8129.5500000000002,4737.25,1177.1900000000001,-525.61000000000001
173373.0,26510.599999999999,-10201.5,16563.099999999999,-7618.3299999999999,3660.9099999999999,1605.6099999999999,573.58199999999999
173374.0,21858.700000000001,-12148.4,10735.5,-7963.6199999999999,2956.8200000000002,1405.3699999999999,-274.99099999999999
173375.0,19044.5,-11832.5,7934.7700000000004,-7531.3500000000004,2888.8600000000001,1110.22,-1801.54
173376.0,17948.599999999999,-9496.9200000000001,8090.6999999999998,-6174.6700000000001,3262.9299999999998,1315.22,-2774.29
173377.0,17351.5,-8232.0400000000009,8249.0100000000002,-5380.1599999999999,3410.7199999999998,2144.27,-2557.73
173378.0,16098.4,-7870.6999999999998,7701.54,-4066.6900000000001,2904.1199999999999,2848.21,-1982.6500000000001
173379.0,14737.5,-7696.6899999999996,6767.1800000000003,-2792.2199999999998,2271.0300000000002,3012.6900000000001,-2014.45
173380.0,13705.200000000001,-7079.1000000000004,6261.8900000000003,-1779.1400000000001,1907.8599999999999,3004.1700000000001,-2196.3699999999999
173381.0,12711.1,-6200.8299999999999,5953.6000000000004,-770.78099999999995,1674.6300000000001,3028.4299999999998,-2193.0500000000002
173382.0,11741.299999999999,-5223.8400000000001,5719.0200000000004,287.25999999999999,1472.6500000000001,3060.4400000000001,-2116.6799999999998
173383.0,10860.200000000001,-4295.5699999999997,5474.4899999999998,1262.6400000000001,1291.95,3092.4899999999998,-2016.8699999999999
173384.0,10066.299999999999,-3289.8299999999999,5345.5799999999999,2294.48,1123.21,3118.52,-1900.71
173385.0,9365.4200000000001,-2610.02,4931.8000000000002,2977.0300000000002,962.52099999999996,3137.6100000000001,-1773.9000000000001
173386.0,8780.1399999999994,-1982.98,4529.8500000000004,3597.4899999999998,816.37699999999995,3150.0700000000002,-1644.0599999999999
173387.0,8305.9799999999996,-1069.02,4484.1400000000003,4492.3299999999999,687.19600000000003,3153.6199999999999,-1511.45
173388.0,7931.7200000000003,-390.80399999999997,4263.2200000000003,5139.1800000000003,565.18399999999997,3150.3600000000001,-1375.4400000000001
173389.0,7648.3100000000004,199.78299999999999,4013.9099999999999,5689.5100000000002,451.99700000000001,3136.8200000000002,-1240.8
173390.0,7439.9700000000003,868.96799999999996,3895.3200000000002,6301.0200000000004,352.09300000000002,3113.1599999999999,-1107.4200000000001
173391.0,7298.5699999999997,1523.3099999999999,3810.9299999999998,6880.6700000000001,258.72500000000002,3084.77,-973.31799999999998
173392.0,7216.8100000000004,1902.3800000000001,3505.3499999999999,7178.8599999999997,168.09899999999999,3050.8499999999999,-841.01700000000005
173393.0,7177.6700000000001,2264.7199999999998,3233.9899999999998,7453.3500000000004,85.614599999999996,3007.5799999999999,-713.70000000000005
173394.0,7168.0600000000004,2679.8400000000001,3058.5799999999999,7767.6000000000004,13.4872,2957.0700000000002,-590.46500000000003
173395.0,7182.5299999999997,3064.8800000000001,2897.3200000000002,8040.71,-51.073599999999999,2903.8299999999999,-470.25599999999997
173396.0,7214.75,3468.23,2802.6799999999998,8328.7099999999991,-110.693,2848.2800000000002,-353.892
173397.0,7253.6099999999997,3718.7800000000002,2597.98,8459.75,-165.482,2787.5,-241.833
173398.0,7293.6300000000001,4043.3699999999999,2502.96,8656.7600000000002,-214.898,2722.8299999999999,-134.69499999999999
173399.0,7332.8400000000001,4234.2200000000003,2309.73,8714.9599999999991,-259.67899999999997,2655.9099999999999,-31.6693
173400.0,7366.9499999999998,4482.3599999999997,2208.25,8826.5100000000002,-300.01999999999998,2586.27,66.163600000000002
173401.0,7393.8400000000001,4646.8800000000001,2055.25,8850.4400000000005,-335.97899999999998,2514.8400000000001,159.602
173402.0,7412.1499999999996,4826.9399999999996,1948.1400000000001,8887.2099999999991,-368.17899999999997,2441.7800000000002,248.001
173403.0,7420.5500000000002,4951.6300000000001,1814.21,8866.0300000000007,-396.63400000000001,2367.5,331.89600000000002
173404.0,7418.5500000000002,5076.21,1707.02,8843.0699999999997,-421.82400000000001,2292.23,410.71300000000002
173405.0,7405.8000000000002,5169.6000000000004,1593.8399999999999,8787.5300000000007,-443.80500000000001,2216.3499999999999,485.125
173406.0,7382.21,5252.21,1493.5699999999999,8720.5100000000002,-463.00900000000001,2140.0,554.50199999999995
173407.0,7348.0100000000002,5314.3100000000004,1394.98,8632.6000000000004,-479.43599999999998,2063.52,619.59900000000005
173408.0,7303.5799999999999,5361.54,1302.1099999999999,8530.1599999999999,-493.50700000000001,1986.96,679.65300000000002
173409.0,7249.3999999999996,5396.1199999999999,1215.71,8415.6499999999996,-505.14400000000001,1910.51,735.27200000000005
173410.0,7185.0500000000002,5410.6499999999996,1127.3499999999999,8281.7800000000007,-514.53300000000002,1834.1400000000001,785.38900000000001
173411.0,7111.4200000000001,5414.7799999999997,1045.1900000000001,8137.7200000000003,-521.51599999999996,1758.3699999999999,831.64599999999996
173412.0,7031.2399999999998,5406.1999999999998,964.303,7983.7700000000004,-527.25999999999999,1683.45,871.529
173413.0,6939.5200000000004,5408.6700000000001,910.91300000000001,7842.0,-531.37599999999998,1609.1500000000001,903.01199999999994
173414.0,6831.3199999999997,5394.1800000000003,860.93600000000004,7680.9700000000003,-533.70399999999995,1536.1400000000001,928.60699999999997
173415.0,6710.2399999999998,5389.1099999999997,840.12099999999998,7525.8900000000003,-533.71699999999998,1465.0599999999999,958.16899999999998
173416.0,6599.0500000000002,5341.2200000000003,780.38099999999997,7337.4200000000001,-534.49000000000001,1397.28,990.41200000000003
173417.0,6480.2200000000003,5326.1499999999996,764.21400000000006,7184.3199999999997,-535.21100000000001,1328.5,1016.24
173418.0,6378.5,5227.4899999999998,659.46699999999998,6962.9700000000003,-537.69000000000005,1263.1900000000001,1036.75
173419.0,6244.1599999999999,5267.25,715.95000000000005,6870.9799999999996,-538.572,1192.75,1043.4100000000001
173420.0,6138.25,5077.7600000000002,532.72299999999996,6561.1000000000004,-537.44200000000001,1129.4200000000001,1062.28
173421.0,6032.4899999999998,5214.5799999999999,654.85299999999995,6639.46,-579.88499999999999,1053.3599999999999,954.81299999999999
173422.0,5576.0,5111.7399999999998,761.14999999999998,6277.1099999999997,-573.91200000000003,919.92499999999995,858.12599999999998
173423.0,33812.099999999999,-9312.0400000000009,22932.5,-9030.3299999999999,4939.6199999999999,366.25799999999998,-3603.3499999999999
173424.0,31616.799999999999,-7185.25,23155.5,-6992.6700000000001,4684.6800000000003,1198.0799999999999,-2215.25
173425.0,28846.700000000001,-7377.21,20866.599999999999,-6431.0,3941.9200000000001,2010.77,-708.18600000000004
173426.0,25132.900000000001,-8602.6100000000006,16833.099999999999,-6029.1300000000001,2948.8800000000001,2399.5599999999999,229.84399999999999
173427.0,21246.200000000001,-9366.3600000000006,12806.700000000001,-5433.3599999999997,2229.6700000000001,2348.4000000000001,-108.982
173428.0,18559.599999999999,-9887.5699999999997,9608.0699999999997,-5555.2299999999996,1912.22,2277.8499999999999,-1085.74
173429.0,17024.900000000001,-9421.6599999999999,8225.8799999999992,-5219.8900000000003,1760.2,2363.0100000000002,-1718.5
173430.0,15697.6,-8304.2000000000007,7732.1999999999998,-4120.1800000000003,1736.98,2580.2199999999998,-1808.8699999999999
173431.0,14430.700000000001,-7438.0699999999997,6946.9899999999998,-2989.3499999999999,1774.28,2904.4000000000001,-1894.7
173432.0,13498.9,-6738.3100000000004,6249.8999999999996,-2106.2399999999998,1678.1099999999999,3170.7600000000002,-2130.98
173433.0,12616.200000000001,-5780.2399999999998,6015.8699999999999,-1106.01,1474.05,3290.52,-2183.9299999999998
173434.0,11666.1,-4786.8800000000001,5797.3199999999997,-49.793300000000002,1275.98,3345.77,-2105.9200000000001
173435.0,10796.700000000001,-3910.02,5489.5200000000004,879.22699999999998,1103.3199999999999,3389.04,-2015.6300000000001
173436.0,10020.299999999999,-3033.52,5231.6400000000003,1781.02,945.01900000000001,3420.5,-1908.49
173437.0,9348.3099999999995,-2293.1399999999999,4892.21,2536.1500000000001,800.20500000000004,3443.73,-1792.6600000000001
173438.0,8789.3899999999994,-1399.23,4775.9399999999996,3436.2399999999998,670.88499999999999,3457.7800000000002,-1671.3199999999999
173439.0,8324.6800000000003,-538.44799999999998,4679.2399999999998,4286.9799999999996,550.51900000000001,3459.6100000000001,-1544.1199999999999
173440.0,7952.8500000000004,3.7092000000000001,4314.1300000000001,4804.0,435.97300000000001,3451.8899999999999,-1414.1700000000001
173441.0,7671.6599999999999,639.25999999999999,4101.1599999999999,5403.1099999999997,333.488,3434.2199999999998,-1284.8
173442.0,7468.9499999999998,1259.3,3928.27,5973.3400000000001,240.756,3408.2800000000002,-1154.4300000000001
173443.0,7336.2200000000003,1729.28,3660.0100000000002,6384.8500000000004,153.06399999999999,3375.6999999999998,-1024.77
173444.0,7260.5900000000001,2122.9200000000001,3372.6599999999999,6714.6099999999997,74.282399999999996,3335.0799999999999,-898.91800000000001
173445.0,7226.2399999999998,2657.4000000000001,3278.0500000000002,7175.46,6.3776999999999999,3287.1799999999998,-776.274
173446.0,7223.79,3134.4499999999998,3172.5300000000002,7568.7700000000004,-55.489899999999999,3234.71,-655.23599999999999
173447.0,7244.9300000000003,3492.6700000000001,2994.02,7836.9300000000003,-113.71899999999999,3177.8800000000001,-537.22699999999998
173448.0,7279.6899999999996,3817.6500000000001,2825.27,8066.8599999999997,-167.02199999999999,3115.3099999999999,-423.21300000000002
173449.0,7320.3000000000002,4055.6399999999999,2607.46,8202.1299999999992,-214.29900000000001,3047.3200000000002,-313.67000000000002
173450.0,7363.6800000000003,4370.71,2504.2600000000002,8407.6399999999994,-256.07400000000001,2976.6999999999998,-207.94399999999999
173451.0,7405.8199999999997,4553.5900000000001,2306.9899999999998,8477.9500000000007,-293.65899999999999,2903.3899999999999,-106.633
173452.0,7442.2600000000002,4808.3999999999996,2216.4000000000001,8616.0799999999999,-326.78899999999999,2827.25,-9.6347299999999994
173453.0,7471.6499999999996,4952.5900000000001,2047.3499999999999,8640.0900000000001,-356.13900000000001,2749.1399999999999,82.817499999999995
173454.0,7492.1700000000001,5132.4200000000001,1944.46,8696.9599999999991,-381.88799999999998,2669.25,170.99600000000001
173455.0,7502.6999999999998,5243.3999999999996,1801.3699999999999,8682.5599999999995,-404.35700000000003,2587.96,254.392
173456.0,7502.7399999999998,5374.04,1704.9100000000001,8685.9699999999993,-423.71899999999999,2505.6799999999998,333.60000000000002
173457.0,7491.8400000000001,5452.3900000000003,1581.52,8635.7099999999991,-440.35599999999999,2422.6199999999999,407.95999999999998
173458.0,7470.1000000000004,5536.8900000000003,1488.02,8590.5599999999995,-454.27100000000002,2339.1399999999999,478.31099999999998
173459.0,7437.4499999999998,5580.6499999999996,1376.0999999999999,8504.1700000000001,-465.91500000000002,2255.3600000000001,543.80700000000002
173460.0,7394.4200000000001,5629.8199999999997,1290.3800000000001,8422.8700000000008,-475.20699999999999,2171.6500000000001,605.46500000000003
173461.0,7341.1899999999996,5642.7600000000002,1188.02,8305.6499999999996,-482.68900000000002,2088.0599999999999,662.26499999999999
173462.0,7278.3900000000003,5662.8299999999999,1111.0,8195.8700000000008,-488.154,2004.9100000000001,715.44299999999998
173463.0,7206.6899999999996,5653.0600000000004,1020.9299999999999,8057.2799999999997,-492.24400000000003,1922.3,763.81299999999999
173464.0,7126.8599999999997,5658.4099999999999,961.87599999999998,7935.1400000000003,-494.79399999999998,1840.6099999999999,808.36900000000003
173465.0,7038.7200000000003,5623.6400000000003,877.84000000000003,7775.21,-496.36599999999999,1759.47,847.44899999999996
173466.0,6943.5799999999999,5601.1599999999999,819.00199999999995,7630.0600000000004,-496.22800000000001,1678.74,881.68100000000004
173467.0,6838.71,5552.0200000000004,746.16200000000003,7459.54,-494.62299999999999,1598.2,907.21400000000006
173468.0,6718.6899999999996,5539.1499999999996,726.60599999999999,7320.5,-489.74799999999999,1518.95,929.69299999999998
173469.0,6599.25,5479.9300000000003,669.76700000000005,7138.6099999999997,-485.11599999999999,1444.2,952.12199999999996
173470.0,6468.3400000000001,5470.9300000000003,679.42899999999997,7006.6800000000003,-480.67500000000001,1369.79,973.25599999999997
173471.0,6357.8400000000001,5351.3500000000004,572.55700000000002,6779.0900000000001,-478.89699999999999,1300.55,993.58100000000002
173472.0,6219.4700000000003,5374.54,629.28399999999999,6687.9099999999999,-477.44299999999998,1226.24,1002.05
173473.0,6109.8299999999999,5154.1800000000003,429.85399999999998,6364.4899999999998,-475.04399999999998,1158.98,1020.01
173474.0,5996.3000000000002,5254.9899999999998,537.13400000000001,6421.0200000000004,-522.346,1081.3499999999999,914.73299999999995
173475.0,5538.1700000000001,5226.0900000000001,743.18700000000001,6164.6499999999996,-520.12699999999995,937.10900000000004,824.72299999999996
173476.0,31341.599999999999,-7379.9399999999996,22813.0,-6946.0200000000004,4076.04,1083.51,-3174.27
173477.0,29522.799999999999,-5950.1599999999999,22703.400000000001,-5388.8400000000001,3771.9699999999998,1765.77,-2183.4000000000001
173478.0,27269.299999999999,-5530.8000000000002,21276.200000000001,-4396.2600000000002,3362.2199999999998,2399.2600000000002,-990.81700000000001
173479.0,24274.799999999999,-6162.6800000000003,18121.900000000001,-3882.4000000000001,2819.0500000000002,2929.6399999999999,-193.43600000000001
173480.0,21218.900000000001,-7403.9300000000003,14249.700000000001,-3975.77,2145.29,3155.27,-237.91300000000001
173481.0,18723.799999999999,-7401.6599999999999,11939.5,-3253.8800000000001,1706.6900000000001,3117.9499999999998,-734.25400000000002
173482.0,17028.599999999999,-7108.6899999999996,10337.6,-2814.8899999999999,1713.3099999999999,3097.9899999999998,-1221.4200000000001
173483.0,15431.6,-7040.6999999999998,8390.4400000000005,-2775.1100000000001,1837.97,3282.4200000000001,-1314.6700000000001
173484.0,13675.0,-6299.7200000000003,6833.6300000000001,-1924.5699999999999,1659.51,3504.5799999999999,-1605.3
173485.0,12587.5,-5594.3100000000004,5935.2299999999996,-1378.1800000000001,1322.5999999999999,3541.5500000000002,-2119.2800000000002
173486.0,11760.700000000001,-4553.9399999999996,5868.4799999999996,-544.654,1112.4200000000001,3557.3099999999999,-2138.7800000000002
173487.0,10869.1,-3529.9899999999998,5687.1499999999996,510.47800000000001,955.00099999999998,3623.71,-1997.3599999999999
173488.0,10103.200000000001,-2704.1199999999999,5360.1899999999996,1360.1400000000001,802.77999999999997,3665.5799999999999,-1919.75
173489.0,9435.4699999999993,-1821.5699999999999,5164.3400000000001,2244.1100000000001,669.14300000000003,3693.9200000000001,-1809.1900000000001
173490.0,8863.9400000000005,-981.98299999999995,4969.6800000000003,3090.1599999999999,543.28899999999999,3708.8899999999999,-1697.8299999999999
173491.0,8386.0200000000004,-311.73700000000002,4660.9499999999998,3746.1500000000001,427.053,3710.7199999999998,-1576.3399999999999
173492.0,8012.6000000000004,264.97199999999998,4320.4499999999998,4304.8400000000001,321.01999999999998,3703.8400000000001,-1455.26
173493.0,7731.6700000000001,1009.48,4215.1300000000001,5023.5799999999999,228.44200000000001,3687.0500000000002,-1331.3800000000001
173494.0,7529.0699999999997,1585.23,3996.4000000000001,5564.6700000000001,142.559,3660.6799999999998,-1206.8900000000001
173495.0,7395.5799999999999,2090.9499999999998,3763.6199999999999,6028.1199999999999,64.162999999999997,3626.2199999999998,-1083.26
173496.0,7317.3599999999997,2625.8499999999999,3614.8200000000002,6513.3299999999999,-4.3667199999999999,3583.3600000000001,-961.995
173497.0,7280.7700000000004,3152.5599999999999,3505.0599999999999,6979.6999999999998,-66.460499999999996,3533.25,-841.18200000000002
173498.0,7277.8500000000004,3486.3200000000002,3247.6100000000001,7245.6300000000001,-124.94199999999999,3476.9200000000001,-722.625
173499.0,7298.7200000000003,3798.5500000000002,3015.54,7484.8900000000003,-176.99299999999999,3414.7199999999998,-607.68499999999995
173500.0,7333.6899999999996,4133.5299999999997,2851.3400000000001,7741.29,-221.857,3347.0999999999999,-496.77300000000002
173501.0,7376.4399999999996,4432.5,2693.1399999999999,7955.4700000000003,-260.98000000000002,3275.6100000000001,-389.13400000000001
173502.0,7422.5600000000004,4740.1099999999997,2584.0700000000002,8174.1499999999996,-296.06,3201.1700000000001,-285.12299999999999
173503.0,7466.6599999999999,4929.1300000000001,2393.8200000000002,8271.1499999999996,-327.14800000000002,3122.8899999999999,-185.01400000000001
173504.0,7505.4899999999998,5173.2200000000003,2292.4400000000001,8418.3400000000001,-354.09399999999999,3041.6100000000001,-89.2196
173505.0,7537.5900000000001,5309.9300000000003,2116.29,8455.1200000000008,-377.44999999999999,2958.1300000000001,2.7607300000000001
173506.0,7560.6999999999998,5487.6700000000001,2012.3099999999999,8530.2099999999991,-397.49700000000001,2872.6799999999998,90.157600000000002
173507.0,7573.9300000000003,5598.6999999999998,1870.71,8536.2299999999996,-414.30099999999999,2785.7399999999998,173.67400000000001
173508.0,7576.5500000000002,5717.4099999999999,1764.26,8548.1399999999994,-428.43400000000003,2697.6100000000001,252.577
173509.0,7568.2700000000004,5791.3400000000001,1638.6700000000001,8513.7399999999998,-439.79300000000001,2608.6399999999999,327.64499999999998
173510.0,7548.8699999999999,5861.8299999999999,1533.8699999999999,8474.8700000000008,-448.93900000000002,2519.0700000000002,398.04599999999999
173511.0,7518.6499999999996,5907.96,1427.3,8410.8500000000004,-455.75299999999999,2429.25,464.72500000000002
173512.0,7477.6400000000003,5942.4899999999998,1330.4400000000001,8334.8600000000006,-460.80900000000003,2339.3299999999999,526.77099999999996
173513.0,7426.54,5960.7600000000002,1237.0999999999999,8242.4899999999998,-463.89299999999997,2249.6599999999999,585.26599999999996
173514.0,7365.3400000000001,5964.8599999999997,1148.28,8136.1899999999996,-465.57299999999998,2160.25,639.12599999999998
173515.0,7295.0900000000001,5959.2200000000003,1066.9400000000001,8020.5299999999997,-465.55500000000001,2071.5,689.64200000000005
173516.0,7215.9899999999998,5932.3199999999997,980.60500000000002,7884.6899999999996,-464.49200000000002,1983.3800000000001,735.54600000000005
173517.0,7128.8299999999999,5897.6899999999996,901.49000000000001,7742.1800000000003,-461.964,1895.98,778.08100000000002
173518.0,7033.75,5851.5900000000001,824.74000000000001,7589.4200000000001,-458.63099999999997,1809.3199999999999,815.82500000000005
173519.0,6931.8699999999999,5812.4300000000003,767.67100000000005,7444.5100000000002,-454.05500000000001,1723.8099999999999,850.68899999999996
173520.0,6825.4399999999996,5746.2799999999997,693.99000000000001,7275.7200000000003,-449.483,1639.5,880.25
173521.0,6710.8900000000003,5690.46,642.22900000000004,7118.0100000000002,-443.77999999999997,1555.72,904.67700000000002
173522.0,6593.1599999999999,5606.0699999999997,569.85500000000002,6934.75,-437.97899999999998,1474.1700000000001,922.74400000000003
173523.0,6458.4499999999998,5567.8999999999996,561.37599999999998,6792.9399999999996,-429.67099999999999,1392.55,938.23800000000006
173524.0,6343.3000000000002,5456.5900000000001,473.90100000000001,6589.3199999999997,-423.13299999999998,1318.48,954.09199999999998
173525.0,6198.8199999999997,5476.2200000000003,541.44100000000003,6510.8699999999999,-417.95400000000001,1239.5899999999999,959.73699999999997
173526.0,6084.4799999999996,5270.4799999999996,369.97500000000002,6218.1700000000001,-411.50599999999997,1168.9300000000001,975.779
173527.0,5960.8599999999997,5387.25,513.43799999999999,6304.0699999999997,-461.99200000000002,1089.6300000000001,869.24400000000003
173528.0,5495.1700000000001,5247.6400000000003,636.59199999999998,5965.8100000000004,-460.70400000000001,934.64800000000002,785.36300000000006
173529.0,30355.200000000001,-6623.6999999999998,22784.299999999999,-5618.9700000000003,4087.0300000000002,1535.3199999999999,-3053.1399999999999
173530.0,28821.5,-5031.0699999999997,22861.400000000001,-4025.3499999999999,3992.0599999999999,2170.04,-2435.4400000000001
173531.0,26786.099999999999,-4402.5200000000004,21518.700000000001,-3337.4099999999999,3726.5599999999999,2807.8400000000001,-1499.7
173532.0,23920.099999999999,-3841.75,19466.900000000001,-2069.1399999999999,3250.3000000000002,3357.3299999999999,-717.78300000000002
173533.0,21173.700000000001,-4451.6300000000001,16309.799999999999,-1875.8099999999999,2743.6999999999998,3658.0500000000002,-684.35799999999995
173534.0,18801.099999999999,-5129.1800000000003,13285.700000000001,-2138.0900000000001,2384.5300000000002,3715.9899999999998,-820.66899999999998
173535.0,16427.099999999999,-5106.9799999999996,10775.9,-1986.48,2182.5900000000001,3689.4200000000001,-872.67600000000004
173536.0,14177.4,-5243.1800000000003,7988.1999999999998,-2046.55,1904.79,3819.7600000000002,-1056.8
173537.0,12623.0,-5049.0,6210.7200000000003,-1627.29,1355.03,3923.6700000000001,-1600.4200000000001
173538.0,11873.799999999999,-4577.6400000000003,5675.2700000000004,-1127.23,936.13999999999999,3824.1700000000001,-2068.29
173539.0,11118.200000000001,-3499.3299999999999,5764.7200000000003,-176.19900000000001,812.57600000000002,3798.6900000000001,-2021.8800000000001
173540.0,10295.1,-2475.8299999999999,5571.7299999999996,835.91600000000005,689.14999999999998,3861.6300000000001,-1892.8900000000001
173541.0,9605.5699999999997,-1708.74,5216.7799999999997,1599.45,549.45399999999995,3892.0900000000001,-1818.4400000000001
173542.0,9010.8799999999992,-865.78800000000001,5004.9799999999996,2425.6100000000001,432.53199999999998,3909.04,-1714.3199999999999
173543.0,8520.9400000000005,-183.48599999999999,4687.4300000000003,3095.04,320.47899999999998,3917.1999999999998,-1608.3
173544.0,8131.1099999999997,582.06600000000003,4525.0299999999997,3845.52,222.84800000000001,3913.0900000000001,-1494.4100000000001
173545.0,7828.8299999999999,1304.3,4374.8900000000003,4549.1800000000003,134.03999999999999,3896.4499999999998,-1377.8800000000001
173546.0,7606.3299999999999,1823.6800000000001,4075.5799999999999,5040.71,52.237299999999998,3869.54,-1258.5899999999999
173547.0,7457.9499999999998,2373.3299999999999,3865.4499999999998,5558.0900000000001,-20.573,3834.1700000000001,-1140.1900000000001
173548.0,7367.8100000000004,2901.9000000000001,3689.1300000000001,6047.8000000000002,-84.274299999999997,3789.9699999999998,-1021.74
173549.0,7325.1599999999999,3320.8000000000002,3453.3099999999999,6420.9399999999996,-142.58199999999999,3738.3200000000002,-904.46100000000001
173550.0,7319.9899999999998,3670.9699999999998,3201.8099999999999,6720.9200000000001,-194.23099999999999,3680.75,-789.94399999999996
173551.0,7339.5600000000004,4093.73,3074.3899999999999,7089.4099999999999,-237.91800000000001,3617.1300000000001,-678.63800000000003
173552.0,7374.96,4471.9799999999996,2946.8000000000002,7407.5900000000001,-275.94400000000002,3548.0999999999999,-569.577
173553.0,7419.75,4759.2200000000003,2769.3899999999999,7629.3199999999997,-310.22300000000001,3474.25,-463.60300000000001
173554.0,7468.4200000000001,5026.0200000000004,2611.1300000000001,7826.8299999999999,-340.21499999999997,3396.0500000000002,-360.88400000000001
173555.0,7515.5,5214.6800000000003,2412.6799999999998,7942.1000000000004,-365.786,3313.7399999999998,-262.339
173556.0,7558.3800000000001,5459.6000000000004,2306.3000000000002,8109.8500000000004,-386.93000000000001,3228.6199999999999,-167.13900000000001
173557.0,7594.5500000000002,5592.7600000000002,2122.8299999999999,8163.2700000000004,-404.91300000000001,3141.1500000000001,-76.216300000000004
173558.0,7621.6700000000001,5782.2799999999997,2027.9200000000001,8270.6700000000001,-419.37400000000002,3051.3499999999999,11.083
173559.0,7639.0100000000002,5877.3800000000001,1868.46,8281.25,-431.05200000000002,2959.9299999999998,94.075000000000003
173560.0,7645.6899999999996,6000.7700000000004,1765.53,8318.5200000000004,-439.94999999999999,2867.0799999999999,173.36600000000001
173561.0,7641.1899999999996,6064.54,1629.51,8294.5300000000007,-446.52600000000001,2773.23,248.27000000000001
173562.0,7625.5200000000004,6144.5200000000004,1534.5899999999999,8285.7000000000007,-450.80200000000002,2678.6700000000001,319.50200000000001
173563.0,7598.6099999999997,6178.5799999999999,1417.0999999999999,8230.0599999999995,-453.233,2583.6900000000001,386.38499999999999
173564.0,7560.9399999999996,6216.8699999999999,1325.5699999999999,8178.0900000000001,-453.73099999999999,2488.6100000000001,449.661
173565.0,7512.5200000000004,6219.5799999999999,1219.01,8090.2399999999998,-452.767,2393.5599999999999,508.63200000000001
173566.0,7454.1199999999999,6226.29,1135.46,8006.3199999999997,-450.209,2298.8600000000001,564.125
173567.0,7385.9200000000001,6201.5100000000002,1038.3699999999999,7891.1400000000003,-446.572,2204.5999999999999,615.40099999999995
173568.0,7308.8000000000002,6181.4200000000001,962.52599999999995,7781.0200000000004,-441.64800000000002,2111.0500000000002,663.33299999999997
173569.0,7223.04,6138.6700000000001,879.52099999999996,7648.8999999999996,-435.995,2018.25,707.10799999999995
173570.0,7129.3800000000001,6105.8299999999999,820.80399999999997,7527.2200000000003,-429.32600000000002,1926.47,747.72400000000005
173571.0,7028.8199999999997,6039.8000000000002,741.95799999999997,7373.6499999999996,-422.29500000000002,1835.8699999999999,784.27700000000004
173572.0,6921.2200000000003,5979.8800000000001,681.79700000000003,7227.0799999999999,-414.48899999999998,1746.4000000000001,817.55999999999995
173573.0,6808.8299999999999,5895.8500000000004,608.06399999999996,7058.4499999999998,-406.67899999999997,1658.5899999999999,846.82500000000005
173574.0,6689.8599999999997,5834.7399999999998,568.53300000000002,6914.1099999999997,-398.58499999999998,1571.8199999999999,872.47199999999998
173575.0,6571.1599999999999,5733.8100000000004,494.71699999999998,6734.29,-391.27600000000001,1487.3,893.30799999999999
173576.0,6439.4099999999999,5676.9499999999998,478.488,6596.21,-382.916,1402.1099999999999,909.31899999999996
173577.0,6324.96,5534.0500000000002,369.23200000000003,6380.7299999999996,-375.91899999999998,1323.78,923.54100000000005
173578.0,6178.9499999999998,5519.1099999999997,412.94799999999998,6286.9499999999998,-370.63600000000002,1240.1099999999999,925.64999999999998
173579.0,6059.4200000000001,5291.0799999999999,231.83799999999999,5985.8500000000004,-359.63099999999997,1164.5699999999999,942.74300000000005
173580.0,5935.8199999999997,5350.2299999999996,328.238,6029.5799999999999,-413.43799999999999,1085.03,835.79499999999996
173581.0,5454.4700000000003,5312.0699999999997,583.65599999999995,5819.9700000000003,-415.41699999999997,918.56600000000003,749.40800000000002
173582.0,41922.800000000003,-47936.800000000003,-4982.3800000000001,-45111.0,-2248.46,-1885.53,-3.5813600000000001
173583.0,41620.5,-57494.599999999999,-15014.200000000001,-55150.900000000001,-1907.48,-1885.8,-234.696
173584.0,41900.699999999997,-66164.199999999997,-23250.400000000001,-63846.599999999999,136.02099999999999,-1635.96,-166.78700000000001
173585.0,45015.900000000001,-74281.0,-27637.599999999999,-70322.899999999994,2127.3899999999999,-1378.5599999999999,409.84800000000001
173586.0,48996.099999999999,-83356.600000000006,-31807.5,-77076.600000000006,2306.5,-1417.0599999999999,1368.7
173587.0,51157.400000000001,-92035.0,-37971.900000000001,-84695.100000000006,1772.3699999999999,-1801.22,2452.0599999999999
173588.0,52841.099999999999,-100980.0,-45422.5,-93446.899999999994,2318.8400000000001,-2454.5300000000002,3321.4899999999998
173589.0,55562.400000000001,-110208.0,-51887.900000000001,-101850.0,3171.3000000000002,-3247.29,3729.2800000000002
173590.0,58011.0,-120460.0,-59306.0,-110302.0,3816.9000000000001,-4167.1800000000003,3986.8099999999999
173591.0,62852.400000000001,-132639.0,-65241.300000000003,-117838.0,3583.0,-5550.1099999999997,4303.25
173592.0,66785.199999999997,-151693.0,-78839.699999999997,-132466.0,-544.12599999999998,-6451.2600000000002,4397.1899999999996
173593.0,67497.5,-168334.0,-94969.199999999997,-148242.0,-3533.8299999999999,-6596.5200000000004,5031.1400000000003
173594.0,73386.399999999994,-198442.0,-118499.0,-173671.0,-7180.6300000000001,-7064.4300000000003,4354.8000000000002
173595.0,92370.100000000006,-237936.0,-143329.0,-197946.0,-23671.599999999999,-4398.75,2993.6900000000001
173596.0,41672.0,-44087.099999999999,-1811.0699999999999,-42246.800000000003,-1384.97,-2159.25,-1149.3199999999999
173597.0,41746.699999999997,-53434.099999999999,-11223.200000000001,-51865.099999999999,-951.20899999999995,-2170.8699999999999,-1626.9300000000001
173598.0,42889.699999999997,-62351.400000000001,-18712.900000000001,-60277.5,828.77099999999996,-1885.97,-1700.75
173599.0,46267.5,-71246.0,-23436.200000000001,-67359.600000000006,2125.8000000000002,-1608.8599999999999,-1195.8199999999999
173600.0,49867.599999999999,-80993.300000000003,-28725.200000000001,-75340.5,1778.45,-1674.5799999999999,-377.899
173601.0,51217.5,-90899.0,-37191.699999999997,-85074.699999999997,1282.0999999999999,-2004.8800000000001,464.74400000000003
173602.0,52212.199999999997,-100307.0,-45890.099999999999,-94611.5,2355.6999999999998,-2588.8000000000002,1373.6099999999999
173603.0,54807.699999999997,-110260.0,-53300.599999999999,-103760.0,3490.3099999999999,-3561.71,2076.0900000000001
173604.0,56861.199999999997,-119127.0,-60541.900000000001,-112327.0,4697.0,-4944.9099999999999,2129.6300000000001
173605.0,63190.199999999997,-129415.0,-63984.400000000001,-119410.0,5985.5200000000004,-7222.3500000000004,890.38999999999999
173606.0,68261.699999999997,-150179.0,-77636.899999999994,-135114.0,1385.0,-9098.9500000000007,-1739.1199999999999
173607.0,65731.800000000003,-167119.0,-97028.100000000006,-150081.0,-2354.1700000000001,-9598.4400000000005,-2507.7199999999998
173608.0,69915.5,-197903.0,-123353.0,-175727.0,-4340.2299999999996,-11694.299999999999,-2900.04
173609.0,97776.5,-240013.0,-143172.0,-199366.0,-21755.799999999999,-16139.6,-9393.3799999999992
173610.0,41536.400000000001,-39282.400000000001,2269.5599999999999,-38648.5,-150.55500000000001,-2135.4000000000001,-1906.27
173611.0,42663.699999999997,-48021.300000000003,-5510.46,-47447.599999999999,330.53899999999999,-2196.6700000000001,-2724.9699999999998
173612.0,44868.400000000001,-56922.400000000001,-11857.700000000001,-55445.800000000003,1630.4300000000001,-1943.1600000000001,-3022.6500000000001
173613.0,48278.900000000001,-66669.800000000003,-17205.0,-63232.699999999997,2065.5999999999999,-1700.47,-2633.48
173614.0,50829.0,-77665.399999999994,-24769.900000000001,-72739.199999999997,1087.3,-1751.4300000000001,-1752.1900000000001
173615.0,50877.5,-88425.199999999997,-35582.800000000003,-83855.699999999997,658.36000000000001,-2133.6300000000001,-778.99199999999996
173616.0,50886.0,-98070.0,-45711.0,-94087.399999999994,2218.2399999999998,-2933.9000000000001,-26.266400000000001
173617.0,52838.599999999999,-107763.0,-53789.800000000003,-103276.0,3996.3400000000001,-4198.1400000000003,127.11199999999999
173618.0,54773.400000000001,-115395.0,-60368.5,-111041.0,6015.2399999999998,-5298.2799999999997,-115.53700000000001
173619.0,62732.199999999997,-123364.0,-60645.900000000001,-117012.0,8339.5900000000001,-7077.9899999999998,-537.78300000000002
173620.0,70069.399999999994,-141895.0,-70539.0,-132898.0,4296.6599999999999,-9773.8199999999997,-3519.0900000000001
173621.0,69000.699999999997,-155595.0,-86996.399999999994,-146842.0,1156.04,-11637.1,-7503.3199999999997
173622.0,72193.899999999994,-184967.0,-114777.0,-172933.0,613.62,-14584.799999999999,-10736.9
173623.0,98248.899999999994,-217236.0,-128310.0,-194048.0,-12351.700000000001,-22890.0,-20328.5
173624.0,41220.900000000001,-34201.699999999997,6529.6999999999998,-34563.699999999997,1132.1400000000001,-1713.73,-2048.2600000000002
173625.0,43590.800000000003,-42178.5,890.52300000000002,-42261.800000000003,1474.96,-1857.4100000000001,-2872.0300000000002
173626.0,46543.800000000003,-50940.800000000003,-4429.3699999999999,-49851.400000000001,2058.9499999999998,-1751.24,-3192.71
173627.0,49669.900000000001,-61351.699999999997,-10725.700000000001,-58381.599999999999,1699.79,-1796.5,-3016.46
173628.0,51023.900000000001,-73165.600000000006,-20594.400000000001,-69115.899999999994,406.88900000000001,-2133.1700000000001,-2711.4899999999998
173629.0,49746.599999999999,-84231.800000000003,-33345.599999999999,-81019.899999999994,487.30500000000001,-2584.8600000000001,-2427.9200000000001
173630.0,49353.300000000003,-93799.199999999997,-44268.5,-91871.399999999994,2979.5500000000002,-3279.6999999999998,-2260.4099999999999
173631.0,52219.900000000001,-101359.0,-50214.300000000003,-99909.0,5911.0600000000004,-4352.3299999999999,-2679.21
173632.0,56103.199999999997,-108711.0,-54838.900000000001,-107153.0,8367.9799999999996,-5232.79,-3398.9899999999998
173633.0,62491.400000000001,-115582.0,-55323.699999999997,-112185.0,9921.5699999999997,-6674.1700000000001,-3573.7600000000002
173634.0,68401.600000000006,-128282.0,-61976.5,-124389.0,7753.25,-9202.1700000000001,-5505.5200000000004
173635.0,71865.399999999994,-139474.0,-72590.100000000006,-138213.0,6540.5200000000004,-11087.200000000001,-9605.9599999999991
173636.0,78405.5,-162600.0,-92638.100000000006,-162478.0,6301.75,-13447.6,-14137.4
173637.0,97645.800000000003,-185426.0,-103341.0,-184417.0,-1576.79,-20098.0,-23518.400000000001
173638.0,40380.699999999997,-30184.0,9487.9599999999991,-30962.799999999999,2055.9000000000001,-1072.6099999999999,-1742.03
173639.0,43499.300000000003,-37069.300000000003,5839.0299999999997,-37332.800000000003,2249.77,-1451.1300000000001,-2462.23
173640.0,46735.400000000001,-45430.699999999997,1242.53,-44413.099999999999,2318.6500000000001,-1729.1900000000001,-3009.3200000000002
173641.0,49502.900000000001,-55487.699999999997,-5388.8599999999997,-53056.300000000003,1647.5599999999999,-2104.9000000000001,-3420.5900000000001
173642.0,50618.199999999997,-67043.0,-15836.4,-64384.699999999997,767.87199999999996,-2575.23,-3978.04
173643.0,49873.900000000001,-77827.600000000006,-28222.400000000001,-76497.899999999994,1487.71,-2790.3499999999999,-4506.3800000000001
173644.0,50199.699999999997,-86774.100000000006,-38148.300000000003,-87000.199999999997,4407.4799999999996,-2858.21,-4535.4200000000001
173645.0,53890.400000000001,-93255.600000000006,-42526.099999999999,-94328.899999999994,7863.9899999999998,-3217.29,-4416.1999999999998
173646.0,59416.800000000003,-98691.100000000006,-43834.599999999999,-99988.0,10534.299999999999,-3958.6700000000001,-4773.5500000000002
173647.0,65457.900000000001,-104813.0,-44902.400000000001,-105918.0,12072.4,-5349.6199999999999,-5915.3900000000003
173648.0,71178.600000000006,-112668.0,-48293.400000000001,-114453.0,12204.799999999999,-7054.6599999999999,-8327.6599999999999
173649.0,77054.399999999994,-122801.0,-54491.099999999999,-126457.0,11843.5,-8105.0600000000004,-11404.299999999999
173650.0,83565.300000000003,-136992.0,-64615.300000000003,-143919.0,10476.5,-9056.0,-14377.1
173651.0,95606.800000000003,-156388.0,-76930.300000000003,-168080.0,4976.0799999999999,-12511.0,-20146.200000000001
173652.0,38836.300000000003,-27221.299999999999,10969.700000000001,-27820.700000000001,2524.4000000000001,-464.89699999999999,-1492.9300000000001
173653.0,42353.0,-33080.900000000001,8667.6900000000005,-33347.300000000003,2839.4200000000001,-1003.27,-2035.9000000000001
173654.0,46292.599999999999,-40370.0,5622.8100000000004,-39706.099999999999,2951.23,-1556.4000000000001,-2849.6199999999999
173655.0,49558.300000000003,-49710.5,-132.90100000000001,-48217.900000000001,2257.1100000000001,-1980.71,-3777.1199999999999
173656.0,51046.699999999997,-60094.0,-9380.6299999999992,-59033.0,1713.54,-2216.25,-4584.6199999999999
173657.0,51295.699999999997,-70206.300000000003,-20203.799999999999,-70502.0,2703.2199999999998,-2206.8499999999999,-5150.8100000000004
173658.0,52110.699999999997,-78739.199999999997,-29059.299999999999,-80116.899999999994,5317.2600000000002,-1976.3599999999999,-5181.7200000000003
173659.0,55233.599999999999,-84858.699999999997,-33346.699999999997,-86636.300000000003,8655.0400000000009,-1896.21,-4726.96
173660.0,60718.199999999997,-89597.899999999994,-34149.099999999999,-91712.699999999997,11728.5,-2190.1599999999999,-4594.5900000000001
173661.0,68205.199999999997,-92482.399999999994,-31384.200000000001,-95479.600000000006,14308.9,-2618.9000000000001,-5538.96
173662.0,76737.5,-97899.800000000003,-29880.099999999999,-102425.0,15646.200000000001,-2841.6300000000001,-7639.0299999999997
173663.0,84530.699999999997,-104249.0,-29508.700000000001,-110833.0,15115.1,-2976.1700000000001,-10195.799999999999
173664.0,89708.699999999997,-118906.0,-40532.900000000001,-129193.0,12708.200000000001,-3112.3200000000002,-12645.9
173665.0,97434.899999999994,-131987.0,-49218.199999999997,-148392.0,8092.9899999999998,-3887.5900000000001,-16063.6
173666.0,37077.199999999997,-25101.099999999999,11463.700000000001,-25287.200000000001,2750.4299999999998,-14.491199999999999,-1653.46
173667.0,40642.699999999997,-30113.5,10060.200000000001,-30004.799999999999,3213.4899999999998,-488.52100000000002,-1876.4200000000001
173668.0,45110.099999999999,-36549.400000000001,8362.5400000000009,-35712.099999999999,3435.2800000000002,-1020.04,-2324.6500000000001
173669.0,48909.800000000003,-44831.199999999997,4214.3599999999997,-43401.300000000003,2606.6900000000001,-1442.46,-3063.9200000000001
173670.0,50424.199999999997,-54503.099999999999,-4282.0500000000002,-53668.5,2012.8199999999999,-1569.5699999999999,-3746.9899999999998
173671.0,50925.5,-63678.800000000003,-13881.1,-64128.5,3213.1799999999998,-1543.01,-4198.2700000000004
173672.0,52491.0,-71879.399999999994,-21609.299999999999,-73037.399999999994,5810.79,-1393.9300000000001,-4529.6300000000001
173673.0,55693.800000000003,-77781.800000000003,-25612.400000000001,-79031.0,9076.8600000000006,-1097.4000000000001,-4569.6899999999996
173674.0,61660.900000000001,-82145.399999999994,-25529.700000000001,-83048.800000000003,12699.200000000001,-672.18100000000004,-4457.1800000000003
173675.0,70449.0,-85241.899999999994,-20493.200000000001,-85389.0,15316.299999999999,276.22800000000001,-4363.8299999999999
173676.0,80261.399999999994,-90380.300000000003,-15353.700000000001,-90612.5,15646.299999999999,1966.75,-4058.2600000000002
173677.0,88654.0,-97102.600000000006,-14157.700000000001,-100637.0,14005.9,3508.5,-4025.0
173678.0,94321.600000000006,-105697.0,-20325.799999999999,-115961.0,12650.5,4065.3699999999999,-5687.3999999999996
173679.0,105521.0,-121755.0,-25288.5,-134254.0,7583.1300000000001,5116.5100000000002,-8484.8999999999996
173680.0,35517.300000000003,-22997.799999999999,12105.299999999999,-22763.299999999999,2911.6300000000001,301.35599999999999,-1976.8099999999999
173681.0,38954.699999999997,-27974.0,10757.799999999999,-27203.900000000001,3344.8800000000001,-117.874,-2077.1799999999998
173682.0,43088.400000000001,-33722.900000000001,9566.4899999999998,-32063.0,3465.04,-641.745,-2197.02
173683.0,46616.400000000001,-41710.199999999997,5474.3900000000003,-39489.300000000003,2653.8200000000002,-1202.46,-2651.7800000000002
173684.0,48099.599999999999,-50349.800000000003,-2021.9100000000001,-48707.099999999999,2214.2399999999998,-1466.04,-3342.71
173685.0,48834.699999999997,-59240.099999999999,-11091.1,-58743.400000000001,3670.3899999999999,-1387.6900000000001,-3828.48
173686.0,51449.099999999999,-65977.5,-16329.799999999999,-65938.699999999997,6540.75,-1182.3299999999999,-4143.5299999999997
173687.0,55829.5,-72325.600000000006,-19529.900000000001,-71975.199999999997,9808.8500000000004,-654.13,-4396.8100000000004
173688.0,63316.900000000001,-75484.800000000003,-15872.299999999999,-73224.399999999994,13332.700000000001,376.70400000000001,-4135.7399999999998
173689.0,72493.399999999994,-83724.199999999997,-13201.0,-77958.800000000003,14293.6,2016.6099999999999,-3162.8000000000002
173690.0,81195.699999999997,-90028.600000000006,-7778.4300000000003,-80886.300000000003,12036.4,4412.2399999999998,-1000.87
173691.0,87323.800000000003,-106253.0,-17591.900000000001,-98550.600000000006,8034.5699999999997,7751.8000000000002,2179.8099999999999
173692.0,94188.699999999997,-107992.0,-17783.299999999999,-108669.0,8657.1100000000006,11195.1,4881.8800000000001
173693.0,117913.0,-132580.0,-16218.299999999999,-130951.0,1541.1400000000001,12857.6,3973.6599999999999
173694.0,34038.599999999999,-21091.099999999999,12663.299999999999,-20329.799999999999,3029.6300000000001,510.654,-2314.1199999999999
173695.0,37450.5,-25758.799999999999,11672.200000000001,-24370.299999999999,3374.9899999999998,84.010400000000004,-2402.52
173696.0,41184.400000000001,-31565.900000000001,10013.200000000001,-29340.200000000001,3394.6500000000001,-484.97300000000001,-2558.96
173697.0,44267.400000000001,-38754.400000000001,6109.6999999999998,-36165.5,2899.1399999999999,-1105.99,-3020.73
173698.0,46156.199999999997,-46868.599999999999,-523.39099999999996,-44770.900000000001,2966.6900000000001,-1445.9400000000001,-3771.02
173699.0,47636.300000000003,-54686.099999999999,-7691.6199999999999,-53348.199999999997,4507.7700000000004,-1311.97,-4308.8299999999999
173700.0,50879.5,-60978.900000000001,-11721.1,-59614.5,7461.5100000000002,-993.971,-4387.71
173701.0,56557.300000000003,-66784.199999999997,-12494.0,-64001.5,10627.6,-359.20400000000001,-4297.4499999999998
173702.0,65058.300000000003,-72062.0,-8320.2700000000004,-65414.699999999997,13017.9,699.15700000000004,-3615.9499999999998
173703.0,73926.600000000006,-83345.5,-7255.9200000000001,-71088.5,11933.200000000001,2175.3699999999999,-2346.4099999999999
173704.0,81800.899999999994,-95732.199999999997,-7869.6800000000003,-77978.0,7435.1099999999997,4093.0999999999999,-250.215
173705.0,85222.699999999997,-120867.0,-28720.700000000001,-101036.0,1051.8499999999999,7493.3599999999997,3383.96
173706.0,91977.699999999997,-130352.0,-35481.0,-111451.0,-35.346400000000003,13359.1,10953.6
173707.0,130046.0,-171531.0,-39853.400000000001,-143882.0,-14090.6,17411.400000000001,17741.099999999999
173708.0,32664.599999999999,-19060.099999999999,13428.4,-17726.099999999999,3077.3499999999999,580.71699999999998,-2805.6999999999998
173709.0,35857.900000000001,-23754.299999999999,12276.1,-21733.0,3322.71,157.404,-2777.9699999999998
173710.0,39287.199999999997,-29143.299999999999,10663.0,-26453.0,3316.8000000000002,-390.24099999999999,-2905.9099999999999
173711.0,42169.699999999997,-35894.099999999999,6827.8999999999996,-33067.099999999999,3184.1500000000001,-929.03700000000003,-3311.1199999999999
173712.0,44591.800000000003,-42907.699999999997,1906.77,-40308.699999999997,3659.0500000000002,-1246.7,-3872.0700000000002
173713.0,46759.199999999997,-50727.300000000003,-4297.4700000000003,-48356.300000000003,5070.5500000000002,-1155.26,-4243.5600000000004
173714.0,50431.300000000003,-56176.0,-6767.1499999999996,-53177.5,7923.6800000000003,-856.85299999999995,-4110.3299999999999
173715.0,57203.5,-63524.0,-7029.3100000000004,-57596.0,10643.799999999999,-380.12099999999998,-3653.5599999999999
173716.0,65745.600000000006,-70317.899999999994,-3031.6599999999999,-59220.400000000001,11490.799999999999,273.63900000000001,-2724.5500000000002
173717.0,74792.699999999997,-85672.699999999997,-5268.3699999999999,-67626.800000000003,9008.3700000000008,1115.6099999999999,-1550.48
173718.0,83034.699999999997,-104782.0,-12398.299999999999,-79951.100000000006,2317.3699999999999,2660.9200000000001,176.465
173719.0,85316.100000000006,-135526.0,-41089.599999999999,-108178.0,-5282.6599999999999,5157.1400000000003,3257.2800000000002
173720.0,90848.199999999997,-160228.0,-61859.300000000003,-125936.0,-9708.8400000000001,8094.1499999999996,9915.25
173721.0,135937.0,-222295.0,-89407.800000000003,-164721.0,-35500.599999999999,10579.1,18612.299999999999
173722.0,31688.700000000001,-16577.0,14780.0,-15022.4,3187.3200000000002,483.96100000000001,-3467.29
173723.0,34398.599999999999,-21210.799999999999,13306.700000000001,-18755.5,3349.6799999999998,17.341999999999999,-3505.6199999999999
173724.0,37312.199999999997,-26697.299999999999,11150.0,-23464.700000000001,3281.1199999999999,-488.34199999999998,-3590.1599999999999
173725.0,39855.199999999997,-32850.599999999999,7617.9499999999998,-29394.900000000001,3353.7800000000002,-925.45299999999997,-3756.3099999999999
173726.0,42421.300000000003,-39832.5,3026.5799999999999,-36307.400000000001,4001.1500000000001,-1285.78,-4014.1100000000001
173727.0,44969.800000000003,-46426.099999999999,-1345.03,-42636.099999999999,5385.71,-1390.29,-4229.2399999999998
173728.0,49153.800000000003,-52816.099999999999,-3773.9699999999998,-47609.5,7917.1400000000003,-1260.1199999999999,-3932.2399999999998
173729.0,56340.900000000001,-60232.699999999997,-2863.7399999999998,-51083.900000000001,9813.7000000000007,-1233.0899999999999,-3202.3800000000001
173730.0,64624.199999999997,-71068.600000000006,-2510.6300000000001,-55926.400000000001,9402.1800000000003,-1181.5699999999999,-2275.5100000000002
173731.0,73857.699999999997,-87818.399999999994,-6037.1700000000001,-65081.199999999997,5794.3999999999996,-1125.24,-1259.47
173732.0,82576.100000000006,-115979.0,-22620.0,-85311.699999999997,-2840.71,-587.14499999999998,-293.34699999999998
173733.0,83415.899999999994,-148305.0,-56411.699999999997,-115530.0,-11920.700000000001,1355.9200000000001,2559.5300000000002
173734.0,87752.0,-184429.0,-90167.5,-146891.0,-16364.700000000001,566.77300000000002,6835.0299999999997
173735.0,135932.0,-256008.0,-131480.0,-191682.0,-47256.300000000003,-4984.3999999999996,4785.0100000000002
173736.0,31271.700000000001,-13388.299999999999,17094.5,-12060.299999999999,3587.8899999999999,374.452,-4016.3200000000002
173737.0,33731.599999999999,-17819.200000000001,15476.6,-15606.9,3647.9200000000001,-134.333,-4397.0699999999997
173738.0,36193.699999999997,-23027.799999999999,13109.799999999999,-19918.599999999999,3570.9099999999999,-735.06600000000003,-4721.4099999999999
173739.0,38265.800000000003,-29028.0,9348.1100000000006,-25314.400000000001,3711.71,-1226.77,-4980.6800000000003
173740.0,40549.300000000003,-35751.0,4867.5600000000004,-31624.5,4430.1400000000003,-1625.5,-5104.1199999999999
173741.0,43488.800000000003,-42118.199999999997,1270.23,-37355.400000000001,5889.21,-1887.4200000000001,-5097.4399999999996
173742.0,48166.599999999999,-49188.800000000003,-743.48900000000003,-42293.599999999999,7794.9399999999996,-2065.98,-4636.1499999999996
173743.0,54639.800000000003,-57482.099999999999,-1025.21,-46548.5,8822.9599999999991,-2582.8699999999999,-3755.3600000000001
173744.0,62889.400000000001,-70200.800000000003,-2563.4000000000001,-52835.400000000001,7930.25,-3477.0799999999999,-3072.0300000000002
173745.0,71947.600000000006,-90740.899999999994,-10270.700000000001,-65282.199999999997,3092.1900000000001,-4151.3999999999996,-2654.02
173746.0,80575.600000000006,-120949.0,-30478.599999999999,-88324.699999999997,-6031.4399999999996,-4642.6199999999999,-2640.0100000000002
173747.0,81730.800000000003,-161114.0,-73481.5,-126311.0,-16283.299999999999,-3452.77,-1623.8399999999999
173748.0,84713.899999999994,-195658.0,-109014.0,-159839.0,-21700.099999999999,-4017.9099999999999,3093.0100000000002
173749.0,130679.0,-274642.0,-166889.0,-227218.0,-50503.300000000003,-14694.799999999999,-3035.4099999999999
173750.0,31433.200000000001,-10178.799999999999,20039.200000000001,-9189.4699999999993,4109.8199999999997,558.89700000000005,-4172.3699999999999
173751.0,33581.5,-13677.299999999999,18830.799999999999,-12264.0,4021.0,28.011700000000001,-4703.9399999999996
173752.0,35989.300000000003,-17963.0,16995.5,-15925.6,4206.0200000000004,-717.93499999999995,-5341.4300000000003
173753.0,38375.800000000003,-23293.599999999999,14025.4,-20484.0,4464.1199999999999,-1360.52,-6099.6400000000003
173754.0,40568.699999999997,-29621.400000000001,9881.4099999999999,-26047.900000000001,5089.5699999999997,-1797.1800000000001,-6489.6000000000004
173755.0,43314.800000000003,-35962.900000000001,6460.5299999999997,-31271.099999999999,6316.6400000000003,-2216.0300000000002,-6298.8900000000003
173756.0,47490.099999999999,-43856.099999999999,3584.4200000000001,-36712.800000000003,7525.1300000000001,-2927.8099999999999,-5685.3100000000004
173757.0,52732.099999999999,-52969.900000000001,1208.27,-42029.900000000001,8076.9799999999996,-4052.6700000000001,-4947.8599999999997
173758.0,60974.300000000003,-66601.600000000006,-1651.75,-49432.199999999997,7239.0299999999997,-5779.25,-4558.3599999999997
173759.0,70651.199999999997,-90240.699999999997,-12177.799999999999,-64567.199999999997,1463.5699999999999,-7356.1999999999998,-4967.6599999999999
173760.0,78665.699999999997,-123020.0,-36704.400000000001,-90751.899999999994,-8332.6599999999999,-8010.6800000000003,-5198.5
173761.0,83647.199999999997,-168210.0,-81846.600000000006,-133184.0,-19328.5,-7127.1899999999996,-4590.8599999999997
173762.0,88308.600000000006,-215589.0,-135132.0,-181316.0,-30319.5,-7071.3800000000001,-180.81399999999999
173763.0,114747.0,-274888.0,-203484.0,-249497.0,-52592.199999999997,-17201.799999999999,-4130.8199999999997
173764.0,31403.200000000001,-8353.6399999999994,21873.099999999999,-7478.8999999999996,4216.3500000000004,1028.9300000000001,-3727.0999999999999
173765.0,32871.599999999999,-10016.0,21578.400000000001,-9324.5400000000009,4169.4300000000003,485.577,-4116.9499999999998
173766.0,35372.699999999997,-12928.299999999999,20903.700000000001,-12013.5,4751.7799999999997,-283.56799999999998,-4787.4700000000003
173767.0,38433.300000000003,-17341.599999999999,19478.099999999999,-15697.799999999999,5097.96,-1017.0,-5720.6700000000001
173768.0,40984.400000000001,-22687.200000000001,16677.5,-20211.400000000001,5479.5,-1564.1500000000001,-6430.6300000000001
173769.0,43489.199999999997,-29284.099999999999,12759.0,-25626.200000000001,6315.7399999999998,-2214.7199999999998,-6575.8000000000002
173770.0,46774.400000000001,-36257.0,9466.4500000000007,-30679.599999999999,7348.4099999999999,-3460.4899999999998,-6408.2600000000002
173771.0,51585.300000000003,-45767.400000000001,5567.6499999999996,-36813.900000000001,8154.2700000000004,-5273.8699999999999,-6385.0
173772.0,59382.599999999999,-59268.400000000001,2129.8200000000002,-44294.400000000001,7134.4499999999998,-7567.1199999999999,-6511.9499999999998
173773.0,68745.699999999997,-84211.800000000003,-10775.1,-61359.0,930.60299999999995,-10341.200000000001,-7429.1199999999999
173774.0,75742.0,-120080.0,-41251.5,-90398.600000000006,-9754.3500000000004,-12464.700000000001,-8759.0699999999997
173775.0,82969.100000000006,-169023.0,-90722.399999999994,-133926.0,-22534.900000000001,-13191.5,-8634.75
173776.0,89275.699999999997,-226416.0,-163863.0,-195191.0,-38009.5,-13674.5,-6838.8999999999996
173777.0,93262.300000000003,-270057.0,-245806.0,-263099.0,-47973.900000000001,-17965.299999999999,-10914.1
173778.0,6090.8699999999999,5940.6599999999999,659.87800000000004,6539.0900000000001,-536.50999999999999,1136.5999999999999,564.08900000000006
173779.0,6030.9300000000003,5995.5299999999997,617.80600000000004,6368.9399999999996,-495.37099999999998,1117.1800000000001,524.178
173780.0,5971.8400000000001,6051.7399999999998,585.02999999999997,6213.1700000000001,-457.27199999999999,1085.8,484.83699999999999
173781.0,5912.9499999999998,6088.5500000000002,544.81700000000001,6055.5200000000004,-419.53500000000003,1047.6800000000001,443.87900000000002
173782.0,5855.8000000000002,6128.1999999999998,516.34199999999998,5916.4799999999996,-383.69499999999999,1002.37,402.00900000000001
173783.0,5799.2399999999998,6152.7600000000002,482.95999999999998,5777.2299999999996,-349.20699999999999,952.41600000000005,358.49099999999999
173784.0,5744.3800000000001,6178.7799999999997,459.83699999999999,5654.2200000000003,-316.96899999999999,898.13900000000001,313.577
173785.0,5690.4200000000001,6197.0500000000002,438.28500000000003,5536.9799999999996,-286.78800000000001,841.053,267.14699999999999
173786.0,5638.4700000000003,6209.6599999999999,418.61700000000002,5426.9499999999998,-258.99599999999998,781.06700000000001,219.65799999999999
173787.0,5587.7200000000003,6224.54,409.49099999999999,5330.7700000000004,-233.71100000000001,719.85400000000004,171.19
173788.0,5539.0299999999997,6225.7299999999996,393.327,5232.9700000000003,-210.87799999999999,655.88499999999999,121.837
173789.0,5490.8199999999997,6239.6000000000004,397.97300000000001,5157.4099999999999,-191.703,591.41999999999996,71.861400000000003
173790.0,5441.7600000000002,6235.04,393.55700000000002,5076.8999999999996,-179.47200000000001,521.58699999999999,18.7395
173791.0,5391.3900000000003,6272.2299999999996,445.04899999999998,5054.71,-185.131,453.14600000000002,-38.687600000000003
173792.0,6505.8699999999999,5597.1099999999997,59.387599999999999,6203.1999999999998,-370.15800000000002,1303.5899999999999,899.48599999999999
173793.0,6450.5200000000004,5696.6700000000001,31.475999999999999,6049.4700000000003,-314.94,1285.1099999999999,844.50099999999998
173794.0,6395.0600000000004,5754.4899999999998,-25.926200000000001,5872.3100000000004,-263.09100000000001,1253.2,789.39700000000005
173795.0,6337.9899999999998,5832.6999999999998,-49.238900000000001,5731.6300000000001,-212.13499999999999,1212.8099999999999,732.46799999999996
173796.0,6282.8500000000004,5877.6499999999996,-95.903300000000002,5573.2600000000002,-163.17699999999999,1164.96,674.57799999999997
173797.0,6228.0799999999999,5938.8999999999996,-114.443,5447.5600000000004,-116.09699999999999,1111.24,614.798
173798.0,6174.7399999999998,5969.9499999999998,-153.554,5305.4499999999998,-71.164299999999997,1052.4300000000001,553.66999999999996
173799.0,6122.3199999999997,6011.8199999999997,-170.81200000000001,5189.7700000000004,-28.491900000000001,989.85599999999999,490.78100000000001
173800.0,6071.6599999999999,6031.6999999999998,-201.66900000000001,5064.0299999999997,11.668900000000001,923.58299999999997,426.67599999999999
173801.0,6022.4899999999998,6056.6400000000003,-217.25200000000001,4958.3900000000003,49.071399999999997,855.29399999999998,361.01400000000001
173802.0,5975.6499999999996,6066.4399999999996,-241.286,4847.6899999999996,83.249600000000001,783.68799999999999,294.30700000000002
173803.0,5930.3199999999997,6077.7700000000004,-253.06200000000001,4755.4300000000003,113.44199999999999,711.84199999999998,226.16
173804.0,5881.9499999999998,6068.8500000000004,-272.92399999999998,4656.5200000000004,138.29499999999999,634.899,157.67500000000001
173805.0,5827.5900000000001,6046.46,-287.75599999999997,4566.2299999999996,155.041,556.60500000000002,85.632900000000006
173806.0,6463.6499999999996,5835.79,354.505,6470.04,-403.03500000000003,1340.9000000000001,811.20899999999995
173807.0,6412.46,5947.2200000000003,331.26799999999997,6318.5100000000002,-353.43400000000003,1322.52,760.67200000000003
173808.0,6362.3500000000004,6014.7600000000002,276.44200000000001,6142.4399999999996,-306.53899999999999,1292.0,710.06100000000004
173809.0,6311.2299999999996,6103.8500000000004,255.727,6003.8199999999997,-260.90499999999997,1252.6500000000001,656.85299999999995
173810.0,6260.8900000000003,6154.1800000000003,207.24799999999999,5842.5299999999997,-217.10499999999999,1205.26,602.673
173811.0,6210.4700000000003,6224.25,189.983,5716.1599999999999,-175.05600000000001,1151.47,546.42999999999995
173812.0,6160.6599999999999,6259.9200000000001,149.155,5570.2700000000004,-134.94,1092.1900000000001,489.14600000000002
173813.0,6111.2700000000004,6316.2700000000004,139.62100000000001,5459.6400000000003,-96.936599999999999,1028.0999999999999,430.03699999999998
173814.0,6062.5,6337.6700000000001,105.499,5327.4300000000003,-61.174500000000002,960.39200000000005,370.161
173815.0,6014.8299999999999,6380.8000000000002,102.691,5231.5600000000004,-27.666699999999999,888.77300000000002,308.64499999999998
173816.0,5966.3500000000004,6389.8500000000004,76.785399999999996,5112.9799999999996,3.5165299999999999,814.38900000000001,247.214
173817.0,5917.1099999999997,6409.8299999999999,74.054100000000005,5024.6999999999998,33.529899999999998,735.42200000000003,183.982
173818.0,5858.3699999999999,6398.0299999999997,58.362400000000001,4915.6700000000001,61.969999999999999,651.11500000000001,123.79600000000001
173819.0,5790.3599999999997,6364.9300000000003,47.848300000000002,4821.7399999999998,93.795400000000001,563.68399999999997,57.981000000000002
173820.0,6672.25,5888.79,294.79300000000001,6590.1099999999997,-400.053,1445.49,829.16600000000005
173821.0,6628.6400000000003,6001.1499999999996,253.03399999999999,6418.6899999999996,-352.49000000000001,1430.6500000000001,776.85400000000004
173822.0,6583.6300000000001,6094.8800000000001,207.54400000000001,6247.7700000000004,-305.98099999999999,1402.9200000000001,724.47400000000005
173823.0,6538.3599999999997,6188.0500000000002,173.149,6091.1899999999996,-260.74000000000001,1365.3,670.36300000000006
173824.0,6493.1099999999997,6267.0500000000002,136.40100000000001,5936.54,-217.041,1318.6800000000001,614.976
173825.0,6447.71,6343.9499999999998,108.95099999999999,5794.3400000000001,-174.99600000000001,1264.55,557.78999999999996
173826.0,6402.3900000000003,6406.5900000000001,78.738399999999999,5653.0200000000004,-134.755,1203.72,499.423
173827.0,6357.3299999999999,6464.0100000000002,54.119300000000003,5520.8199999999997,-96.395200000000003,1136.97,439.34399999999999
173828.0,6312.2799999999997,6511.9399999999996,31.4694,5393.5799999999999,-60.287100000000002,1065.3199999999999,378.37799999999999
173829.0,6268.3299999999999,6551.0699999999997,9.6749500000000008,5272.0,-26.175999999999998,988.56899999999996,315.755
173830.0,6222.6099999999997,6583.96,-5.1344200000000004,5158.2299999999996,4.95845,908.14400000000001,252.976
173831.0,6175.75,6601.2799999999997,-23.0642,5048.5799999999999,34.394199999999998,821.26300000000003,187.745
173832.0,6114.7700000000004,6601.75,-31.119499999999999,4939.8900000000003,59.839300000000001,729.91899999999998,125.75
173833.0,6040.1099999999997,6546.9300000000003,-63.730699999999999,4817.1499999999996,86.136799999999994,630.673,55.960599999999999
173834.0,6795.29,6044.2700000000004,400.17200000000003,6800.7200000000003,-408.63999999999999,1528.51,810.01300000000003
173835.0,6755.4099999999999,6171.2600000000002,360.27199999999999,6626.3800000000001,-363.85599999999999,1515.54,759.05700000000002
173836.0,6714.8400000000001,6280.0799999999999,316.92700000000002,6453.5100000000002,-319.28899999999999,1490.0999999999999,706.78200000000004
173837.0,6674.6499999999996,6388.2700000000004,283.70299999999997,6294.3999999999996,-276.41300000000001,1453.76,653.19899999999996
173838.0,6633.8400000000001,6478.6099999999997,245.14599999999999,6133.3800000000001,-234.62799999999999,1407.9000000000001,598.029
173839.0,6592.6499999999996,6567.6700000000001,216.72999999999999,5985.25,-194.53399999999999,1353.4400000000001,541.40499999999997
173840.0,6550.9200000000001,6641.1099999999997,184.81,5836.71,-156.11600000000001,1291.4100000000001,483.30900000000003
173841.0,6509.0799999999999,6715.0299999999997,164.578,5703.0699999999997,-119.623,1222.4000000000001,423.77199999999999
173842.0,6466.8000000000002,6771.29,138.79300000000001,5566.7200000000003,-85.164400000000001,1147.5,363.25700000000001
173843.0,6425.0200000000004,6829.3299999999999,125.288,5447.0900000000001,-52.680999999999997,1066.45,301.33199999999999
173844.0,6380.6099999999997,6868.0299999999997,107.006,5323.4399999999996,-22.3461,980.524,239.55799999999999
173845.0,6334.04,6896.8100000000004,92.425799999999995,5210.1800000000003,7.4001700000000001,886.81799999999998,175.77799999999999
173846.0,6271.1999999999998,6902.4799999999996,84.878399999999999,5094.8299999999999,34.7453,787.51599999999996,116.027
173847.0,6193.6400000000003,6858.5699999999997,59.894799999999996,4973.75,66.306600000000003,678.38199999999995,48.565300000000001
173848.0,6963.0600000000004,6145.0200000000004,423.79899999999998,6969.46,-417.43799999999999,1625.4200000000001,797.18600000000004
173849.0,6928.29,6274.8800000000001,371.48500000000001,6778.3599999999997,-375.48700000000002,1615.5899999999999,746.57500000000005
173850.0,6892.4099999999999,6405.3299999999999,334.56999999999999,6606.4899999999998,-332.55000000000001,1592.9100000000001,694.202
173851.0,6857.1400000000003,6519.6899999999996,292.18900000000002,6433.0100000000002,-291.63799999999998,1558.21,640.76800000000003
173852.0,6820.71,6633.7600000000002,262.346,6274.4200000000001,-251.631,1513.23,585.36900000000003
173853.0,6783.7200000000003,6731.8900000000003,228.20099999999999,6114.0699999999997,-213.374,1458.53,528.75099999999998
173854.0,6745.79,6827.9200000000001,204.28899999999999,5966.3800000000001,-176.48400000000001,1395.1400000000001,470.74700000000001
173855.0,6707.5100000000002,6905.9799999999996,174.119,5815.5600000000004,-141.25999999999999,1323.6500000000001,411.60899999999998
173856.0,6668.4399999999996,6984.8800000000001,157.30500000000001,5680.7299999999996,-107.89400000000001,1245.0,351.50099999999998
173857.0,6629.5699999999997,7043.04,130.97300000000001,5540.8999999999996,-76.151300000000006,1159.1600000000001,290.23099999999999
173858.0,6587.8299999999999,7102.79,121.47,5419.0699999999997,-46.8675,1067.1800000000001,228.828
173859.0,6543.7299999999996,7135.6099999999997,99.363699999999994,5291.7399999999998,-18.399100000000001,966.55200000000002,165.38300000000001
173860.0,6482.8299999999999,7154.8100000000004,95.514799999999994,5175.0,7.5551899999999996,859.45899999999995,105.917
173861.0,6407.8199999999997,7106.8599999999997,55.814700000000002,5036.0699999999997,37.0503,741.04300000000001,38.597999999999999
173862.0,7104.8800000000001,6267.7700000000004,492.93200000000002,7155.8699999999999,-426.404,1717.9200000000001,777.59500000000003
173863.0,7074.75,6417.8299999999999,446.67599999999999,6966.1899999999996,-387.12900000000002,1711.0999999999999,727.83399999999995
173864.0,7043.54,6559.8000000000002,406.79399999999998,6786.3299999999999,-346.59500000000003,1690.8900000000001,675.54100000000005
173865.0,7013.0900000000001,6694.1899999999996,369.94099999999997,6613.29,-307.97000000000003,1657.8800000000001,622.44200000000001
173866.0,6981.0699999999997,6817.0699999999997,334.58999999999997,6443.0699999999997,-269.95600000000002,1613.75,567.50300000000004
173867.0,6948.2399999999998,6932.3800000000001,303.54000000000002,6279.3699999999999,-233.447,1558.8800000000001,511.52699999999999
173868.0,6914.21,7037.25,274.57499999999999,6119.7799999999997,-198.37899999999999,1494.29,454.07499999999999
173869.0,6879.3800000000001,7135.8800000000001,251.59399999999999,5969.0500000000002,-164.90700000000001,1420.4400000000001,395.49700000000001
173870.0,6843.4200000000001,7221.29,228.398,5820.5100000000002,-133.17400000000001,1338.29,336.09100000000001
173871.0,6807.21,7301.4700000000003,211.93700000000001,5683.2600000000002,-103.06699999999999,1247.79,275.47000000000003
173872.0,6767.6700000000001,7365.8800000000001,195.76400000000001,5547.3999999999996,-74.814400000000006,1149.9200000000001,215.13399999999999
173873.0,6725.0699999999997,7413.1099999999997,177.92699999999999,5417.2700000000004,-46.744500000000002,1042.26,152.958
173874.0,6664.9899999999998,7438.4899999999998,171.49000000000001,5291.5299999999997,-20.764099999999999,926.81799999999998,94.972499999999997
173875.0,6590.46,7407.7799999999997,140.916,5156.8599999999997,10.0388,798.83900000000006,29.3063
173876.0,7259.1899999999996,6371.3400000000001,540.17499999999995,7328.71,-435.459,1816.6199999999999,758.28700000000003
173877.0,7233.8900000000003,6533.4099999999999,490.46100000000001,7130.4499999999998,-398.69799999999998,1813.1800000000001,708.93700000000001
173878.0,7207.4099999999999,6690.1199999999999,450.19900000000001,6944.5900000000001,-360.52800000000002,1795.5899999999999,657.04600000000005
173879.0,7181.7299999999996,6837.5200000000004,411.19400000000002,6763.4399999999996,-324.173,1764.48,604.10400000000004
173880.0,7154.3000000000002,6977.9499999999998,378.31200000000001,6589.0900000000001,-288.51499999999999,1721.3099999999999,549.35000000000002
173881.0,7125.71,7108.3599999999997,347.54300000000001,6418.5100000000002,-254.298,1666.4000000000001,493.45699999999999
173882.0,7095.5900000000001,7230.1099999999997,320.88,6253.54,-221.25299999999999,1600.53,436.52699999999999
173883.0,7064.3100000000004,7339.3999999999996,294.39699999999999,6091.3000000000002,-189.56200000000001,1524.24,378.512
173884.0,7031.5500000000002,7441.9499999999998,274.68200000000002,5938.1000000000004,-159.48099999999999,1438.3399999999999,319.93099999999998
173885.0,6998.1099999999997,7529.1999999999998,252.363,5786.7799999999997,-130.584,1342.9000000000001,260.25700000000001
173886.0,6961.2600000000002,7609.5600000000004,239.74100000000001,5646.7799999999997,-103.76300000000001,1238.8699999999999,200.874
173887.0,6921.1099999999997,7668.1000000000004,221.541,5509.0799999999999,-77.157700000000006,1124.0,139.58500000000001
173888.0,6863.5900000000001,7703.0900000000001,213.65600000000001,5376.2299999999996,-52.105400000000003,1000.1900000000001,82.786900000000003
173889.0,6792.25,7677.4499999999998,176.58000000000001,5231.4300000000003,-22.333400000000001,862.82299999999998,18.311699999999998
173890.0,7402.8999999999996,6476.6700000000001,602.95399999999995,7502.9200000000001,-444.423,1915.72,734.57899999999995
173891.0,7382.1199999999999,6660.4799999999996,559.80499999999995,7306.1499999999996,-410.68400000000003,1915.3399999999999,685.54899999999998
173892.0,7360.5,6828.1000000000004,515.46400000000006,7110.5799999999999,-375.41300000000001,1900.54,633.92700000000002
173893.0,7339.5,6997.4099999999999,483.36000000000001,6930.0799999999999,-341.74099999999999,1871.3199999999999,581.25800000000004
173894.0,7316.4499999999998,7146.1199999999999,444.04199999999997,6742.1499999999996,-308.48599999999999,1829.1900000000001,527.14300000000003
173895.0,7291.8599999999997,7296.1499999999996,418.36799999999999,6568.9099999999999,-276.464,1774.1600000000001,471.90800000000002
173896.0,7265.5299999999997,7425.6999999999998,385.23200000000003,6389.3900000000003,-245.655,1707.0799999999999,415.75099999999998
173897.0,7237.7399999999998,7557.9700000000003,367.71899999999999,6227.7799999999997,-216.10900000000001,1628.3499999999999,358.476
173898.0,7208.1300000000001,7666.2399999999998,340.26299999999998,6058.3599999999997,-188.03200000000001,1538.77,300.916
173899.0,7177.4300000000003,7777.2799999999997,328.90300000000002,5909.5100000000002,-161.13999999999999,1438.3699999999999,242.18199999999999
173900.0,7142.9700000000003,7861.6000000000004,308.17399999999998,5753.0900000000001,-135.66,1328.0899999999999,184.267
173901.0,7104.6999999999998,7936.4700000000003,295.19299999999998,5612.7600000000002,-109.944,1205.73,124.548
173902.0,7049.2200000000003,7977.6999999999998,282.87400000000002,5468.9899999999998,-85.636600000000001,1073.1900000000001,69.459999999999994
173903.0,6980.0600000000004,7972.4099999999999,255.572,5329.3199999999997,-55.700099999999999,926.02999999999997,6.88103
173904.0,7546.1700000000001,6574.4499999999998,665.07799999999997,7671.4499999999998,-452.81200000000001,2017.8499999999999,708.93600000000004
173905.0,7530.29,6768.79,616.88999999999999,7464.54,-422.17599999999999,2020.8599999999999,660.52800000000002
173906.0,7513.4399999999996,6954.0,574.79600000000005,7265.0,-389.673,2008.9000000000001,609.47699999999998
173907.0,7497.1000000000004,7134.5900000000001,538.827,7073.9099999999999,-358.72199999999998,1981.7,557.25300000000004
173908.0,7478.5600000000004,7303.0299999999997,504.15600000000001,6883.1599999999999,-328.22300000000001,1940.6700000000001,503.54599999999999
173909.0,7458.2700000000004,7466.4700000000003,476.93799999999999,6700.4099999999999,-298.94799999999998,1885.71,448.71100000000001
173910.0,7435.8199999999997,7615.3299999999999,448.45800000000003,6516.9300000000003,-270.61099999999999,1817.4300000000001,393.315
173911.0,7411.4899999999998,7756.7299999999996,425.846,6341.2200000000003,-243.22900000000001,1736.22,337.01999999999998
173912.0,7385.04,7884.4899999999998,404.08199999999999,6168.3699999999999,-217.21100000000001,1642.8299999999999,280.62299999999999
173913.0,7357.04,8001.6599999999999,385.78399999999999,6003.3999999999996,-191.971,1537.29,223.27600000000001
173914.0,7325.1899999999996,8104.0100000000002,370.55599999999998,5843.8000000000002,-168.29599999999999,1420.6099999999999,166.76599999999999
173915.0,7289.3500000000004,8189.4799999999996,356.221,5694.0900000000001,-144.279,1290.6099999999999,108.504
173916.0,7236.6899999999996,8243.1000000000004,344.572,5544.6099999999997,-120.977,1149.22,55.265999999999998
173917.0,7170.9200000000001,8242.8299999999999,310.21499999999997,5393.7200000000003,-91.923000000000002,992.24300000000005,-5.4730999999999996
173918.0,7682.1899999999996,6665.3199999999997,732.67600000000004,7833.7600000000002,-460.79899999999998,2121.2399999999998,679.84799999999996
173919.0,7671.21,6878.9099999999999,688.12699999999995,7625.1499999999996,-433.55500000000001,2127.8099999999999,632.00699999999995
173920.0,7659.2299999999996,7078.46,644.97799999999995,7418.3800000000001,-404.39600000000002,2118.75,581.31100000000004
173921.0,7647.5500000000002,7278.0699999999997,612.88800000000003,7224.04,-376.53500000000003,2093.71,529.58000000000004
173922.0,7633.3100000000004,7458.6400000000003,575.43399999999997,7022.46,-348.91300000000001,2053.8099999999999,476.553
173923.0,7617.1000000000004,7638.9700000000003,550.32799999999997,6833.1099999999997,-322.23500000000001,1998.9100000000001,422.66399999999999
173924.0,7598.4200000000001,7799.8800000000001,519.35500000000002,6638.0200000000004,-296.565,1929.46,368.20600000000002
173925.0,7577.4700000000003,7960.6700000000001,501.98200000000003,6458.0200000000004,-271.78100000000001,1845.76,312.97399999999999
173926.0,7554.1400000000003,8098.6499999999996,476.68799999999999,6272.04,-248.16300000000001,1748.5599999999999,257.86500000000001
173927.0,7528.96,8235.9099999999999,465.25999999999999,6104.3999999999996,-225.29300000000001,1637.8399999999999,201.91999999999999
173928.0,7499.54,8346.9500000000007,446.28699999999998,5931.7399999999998,-203.369,1514.6099999999999,147.22300000000001
173929.0,7465.79,8445.1000000000004,432.92099999999999,5774.3199999999997,-180.61000000000001,1376.7,91.058000000000007
173930.0,7415.6700000000001,8509.9500000000007,420.92899999999997,5617.4799999999996,-158.55799999999999,1226.1800000000001,39.893099999999997
173931.0,7352.8999999999996,8526.8099999999995,391.80200000000002,5467.0500000000002,-129.92099999999999,1058.95,-18.435199999999998
173932.0,7813.1700000000001,6750.0,805.44600000000003,7990.8500000000004,-467.86799999999999,2226.6799999999998,648.31500000000005
173933.0,7807.1499999999996,6972.7700000000004,754.12699999999995,7769.9399999999996,-444.17700000000002,2236.9099999999999,601.14300000000003
173934.0,7799.8999999999996,7192.4899999999998,715.78300000000002,7561.2600000000002,-418.255,2230.8299999999999,551.23099999999999
173935.0,7792.8599999999997,7401.6899999999996,678.04700000000003,7353.8000000000002,-393.58499999999998,2208.0100000000002,500.125
173936.0,7783.1300000000001,7604.5,647.73299999999995,7151.1000000000004,-369.17399999999998,2169.4099999999999,447.70400000000001
173937.0,7771.0500000000002,7796.1700000000001,619.11000000000001,6949.1800000000003,-345.62799999999999,2114.6399999999999,394.52600000000001
173938.0,7756.1499999999996,7978.6999999999998,595.11900000000003,6751.3800000000001,-322.84199999999998,2044.05,341.12200000000001
173939.0,7738.6000000000004,8147.3100000000004,571.28800000000001,6554.8599999999997,-300.714,1957.8599999999999,287.17000000000002
173940.0,7718.3299999999999,8306.7700000000004,553.63400000000001,6366.3000000000002,-279.56900000000002,1856.75,233.59800000000001
173941.0,7695.8000000000002,8449.3099999999995,534.30399999999997,6180.5,-258.76499999999999,1740.74,179.49100000000001
173942.0,7668.8900000000003,8580.1800000000003,522.53200000000004,6005.3199999999997,-239.00999999999999,1610.8,126.661
173943.0,7637.5299999999997,8688.0599999999995,506.76499999999999,5836.4899999999998,-218.28299999999999,1464.8800000000001,72.549400000000006
173944.0,7590.25,8767.3799999999992,497.19099999999997,5674.8500000000004,-197.47800000000001,1305.03,23.749199999999998
173945.0,7531.0600000000004,8788.8899999999994,460.13099999999997,5511.8400000000001,-169.91800000000001,1127.47,-31.956800000000001
173946.0,7936.7799999999997,6818.7700000000004,875.76300000000003,8132.4499999999998,-474.06400000000002,2333.5500000000002,613.61500000000001
173947.0,7935.8999999999996,7069.1899999999996,836.05399999999997,7917.71,-454.298,2347.5999999999999,567.08699999999999
173948.0,7933.5900000000001,7295.5900000000001,788.82100000000003,7693.4399999999996,-432.17700000000002,2344.6500000000001,517.76199999999994
173949.0,7931.1400000000003,7531.8900000000003,763.03700000000003,7490.0600000000004,-411.02300000000002,2324.1599999999999,467.25700000000001
173950.0,7925.6899999999996,7739.6400000000003,722.72199999999998,7268.3699999999999,-389.90199999999999,2286.8800000000001,415.815
173951.0,7917.3900000000003,7955.9700000000003,704.20000000000005,7066.71,-369.43799999999999,2232.23,363.685
173952.0,7906.1899999999996,8143.21,670.37099999999998,6848.8199999999997,-349.74700000000001,2160.5300000000002,311.55799999999999
173953.0,7892.0,8339.25,659.76599999999996,6654.9099999999999,-330.63200000000001,2071.8699999999999,258.93900000000002
173954.0,7874.75,8501.8299999999999,631.428,6444.8800000000001,-312.28100000000001,1966.8199999999999,207.107
173955.0,7854.9200000000001,8671.8700000000008,626.36400000000003,6262.5900000000001,-294.22300000000001,1845.47,154.79599999999999
173956.0,7830.3900000000003,8804.6700000000001,603.92200000000003,6066.3500000000004,-276.57400000000001,1708.6500000000001,104.298
173957.0,7801.1400000000003,8932.6200000000008,596.30399999999997,5896.0100000000002,-257.57299999999998,1554.49,52.741500000000002
173958.0,7756.6800000000003,9016.8799999999992,579.53099999999995,5719.4799999999996,-238.35599999999999,1385.0599999999999,6.57843
173959.0,7700.8199999999997,9063.0499999999993,554.57600000000002,5563.3400000000001,-211.74799999999999,1196.77,-46.112200000000001
173960.0,8052.9700000000003,6883.8800000000001,956.66999999999996,8270.9699999999993,-479.03300000000002,2441.9000000000001,576.16399999999999
173961.0,8057.3100000000004,7145.4499999999998,911.70500000000004,8045.25,-463.327,2459.9200000000001,530.50900000000001
173962.0,8059.8000000000002,7391.54,868.71799999999996,7818.1400000000003,-444.93799999999999,2460.1500000000001,482.17500000000001
173963.0,8061.8199999999997,7638.6599999999999,838.67200000000003,7602.1400000000003,-427.40600000000001,2442.0700000000002,432.40100000000001
173964.0,8060.6000000000004,7867.3800000000001,804.53200000000004,7377.3199999999997,-409.94600000000003,2406.1700000000001,381.85599999999999
173965.0,8056.3400000000001,8096.3100000000004,783.89400000000001,7163.4200000000001,-393.10500000000002,2351.8200000000002,330.56900000000002
173966.0,8048.71,8304.4300000000003,756.55100000000004,6941.1599999999999,-376.738,2279.02,279.85700000000003
173967.0,8037.6999999999998,8509.2700000000004,740.66499999999996,6730.6199999999999,-360.64600000000002,2187.8499999999999,228.86000000000001
173968.0,8023.3400000000001,8692.6399999999994,719.42499999999995,6516.2399999999998,-345.18900000000002,2078.8099999999999,179.00999999999999
173969.0,8005.9099999999999,8869.1599999999999,707.84100000000001,6315.8900000000003,-329.637,1951.96,128.92099999999999
173970.0,7983.7799999999997,9021.0699999999997,691.90200000000004,6115.29,-314.55500000000001,1808.1700000000001,80.846699999999998
173971.0,7956.8400000000001,9160.2999999999993,683.41700000000003,5933.9700000000003,-297.94,1645.6400000000001,31.861899999999999
173972.0,7915.29,9258.3099999999995,668.06100000000004,5750.8599999999997,-280.25999999999999,1466.4200000000001,-11.2507
173973.0,7863.1700000000001,9311.2299999999996,636.84299999999996,5583.1899999999996,-255.04900000000001,1267.3299999999999,-60.761899999999997
173974.0,8160.7799999999997,6932.54,1036.6600000000001,8393.2600000000002,-482.726,2551.5700000000002,535.51199999999994
173975.0,8170.4499999999998,7219.0100000000002,1000.01,8170.25,-471.54700000000003,2573.5700000000002,490.84699999999998
173976.0,8177.8500000000004,7474.9799999999996,951.44299999999998,7930.3400000000001,-457.291,2577.21,443.233
173977.0,8184.3199999999997,7746.4700000000003,930.72400000000005,7714.96,-443.79000000000002,2561.5900000000001,394.30500000000001
173978.0,8187.1899999999996,7982.9899999999998,889.80499999999995,7473.4099999999999,-430.10399999999998,2527.1900000000001,344.80399999999997
173979.0,8186.6700000000001,8234.4599999999991,877.26300000000003,7256.6800000000003,-416.78899999999999,2473.0999999999999,294.90600000000001
173980.0,8182.4300000000003,8449.7399999999998,842.92899999999997,7015.8999999999996,-403.92200000000003,2399.2399999999998,245.72
173981.0,8174.46,8679.3999999999996,838.00699999999995,6804.3000000000002,-391.29300000000001,2305.5500000000002,196.46000000000001
173982.0,8162.8599999999997,8868.6000000000004,809.11400000000003,6570.1400000000003,-379.03800000000001,2192.4899999999998,148.691
173983.0,8147.9200000000001,9069.9799999999996,809.36500000000001,6369.5699999999997,-366.62700000000001,2060.0900000000001,100.93300000000001
173984.0,8128.0299999999997,9226.5900000000001,785.65700000000004,6149.5799999999999,-354.036,1909.1800000000001,55.672199999999997
173985.0,8103.0900000000001,9383.4599999999991,782.91700000000003,5963.25,-339.47899999999998,1738.05,9.8582599999999996
173986.0,8064.3400000000001,9489.2099999999991,763.08699999999999,5767.0699999999997,-323.815,1548.8299999999999,-30.0319
173987.0,8015.8100000000004,9564.9300000000003,741.58299999999997,5603.2700000000004,-299.89400000000001,1338.53,-75.923100000000005
173988.0,8259.9099999999999,6978.2399999999998,1130.0999999999999,8512.6299999999992,-484.88600000000002,2662.4699999999998,491.95999999999998
173989.0,8274.7399999999998,7269.1599999999999,1081.3299999999999,8271.5900000000001,-478.399,2688.5,448.52699999999999
173990.0,8286.7399999999998,7552.0799999999999,1044.45,8035.6000000000004,-468.24000000000001,2695.5500000000002,401.93200000000002
173991.0,8297.5900000000001,7827.5,1012.8099999999999,7800.1999999999998,-458.89299999999997,2682.5100000000002,354.06700000000001
173992.0,8304.5300000000007,8092.3100000000004,985.70899999999995,7562.1199999999999,-449.22699999999998,2649.6900000000001,305.584
173993.0,8307.6599999999999,8348.7999999999993,964.01700000000005,7324.79,-439.94999999999999,2595.9499999999998,256.97500000000002
173994.0,8306.6000000000004,8592.0300000000007,943.76800000000003,7085.8299999999999,-430.84699999999998,2521.0100000000002,209.36099999999999
173995.0,8301.5400000000009,8823.4200000000001,926.952,6849.6199999999999,-421.71699999999998,2424.8099999999999,162.19
173996.0,8292.5,9040.2399999999998,912.43600000000004,6616.96,-412.755,2307.6599999999999,116.721
173997.0,8279.7299999999996,9241.3600000000006,899.75099999999998,6390.5699999999997,-403.26999999999998,2169.5900000000001,71.777000000000001
173998.0,8261.9799999999996,9424.1299999999992,889.94899999999996,6172.2799999999997,-393.62200000000001,2011.47,29.395099999999999
173999.0,8239.1000000000004,9585.2399999999998,879.58600000000001,5966.9700000000003,-381.79700000000003,1831.5799999999999,-13.1365
174000.0,8203.1599999999999,9711.9899999999998,868.50699999999995,5770.54,-368.08699999999999,1632.1800000000001,-49.439700000000002
174001.0,8158.3900000000003,9787.7600000000002,833.86199999999997,5587.6700000000001,-345.84800000000001,1410.6199999999999,-91.347300000000004
174002.0,8349.4200000000001,6998.8900000000003,1216.26,8606.5900000000001,-485.37700000000001,2774.3299999999999,445.37299999999999
174003.0,8369.6399999999994,7320.0600000000004,1181.1099999999999,8373.6000000000004,-483.96699999999998,2804.5500000000002,403.11599999999999
174004.0,8386.3299999999999,7607.9499999999998,1133.8900000000001,8119.3500000000004,-478.42399999999998,2815.1300000000001,357.37700000000001
174005.0,8401.3700000000008,7912.3400000000001,1116.6900000000001,7888.7600000000002,-473.50700000000001,2804.7399999999998,310.625
174006.0,8412.0599999999995,8180.3100000000004,1078.6500000000001,7628.6099999999997,-467.96800000000002,2773.54,263.44999999999999
174007.0,8418.4799999999996,8463.5799999999999,1070.01,7392.0500000000002,-462.685,2720.1300000000001,216.47900000000001
174008.0,8420.4400000000005,8709.3999999999996,1038.8299999999999,7129.1700000000001,-457.51900000000001,2644.1700000000001,170.673
174009.0,8418.0499999999993,8969.6499999999996,1037.6600000000001,6895.1099999999997,-452.25700000000001,2545.4299999999998,125.65000000000001
174010.0,8411.3600000000006,9188.1200000000008,1011.92,6637.5699999999997,-446.91899999999998,2424.1500000000001,82.681700000000006
174011.0,8400.7199999999993,9417.6000000000004,1015.17,6413.5500000000002,-440.91300000000001,2280.3699999999999,40.624600000000001
174012.0,8384.8400000000001,9600.9699999999993,994.01400000000001,6170.8599999999997,-434.10199999999998,2114.8400000000001,1.61215
174013.0,8363.7800000000007,9783.4200000000001,993.423,5963.3199999999997,-424.73500000000001,1926.05,-37.117400000000004
174014.0,8330.5799999999999,9914.5,974.572,5749.54,-413.37099999999998,1716.25,-69.570300000000003
174015.0,8289.4699999999993,10017.1,953.52700000000004,5573.7299999999996,-392.84899999999999,1483.04,-107.06699999999999
174016.0,8428.8700000000008,7019.21,1321.27,8700.0400000000009,-483.97000000000003,2886.9899999999998,395.85199999999998
174017.0,8454.3099999999995,7340.9499999999998,1269.8699999999999,8444.8899999999994,-487.73599999999999,2921.46,354.99200000000002
174018.0,8475.4599999999991,7660.3000000000002,1239.1199999999999,8198.7999999999993,-486.79199999999997,2935.6399999999999,310.48899999999998
174019.0,8494.3999999999996,7964.3599999999997,1207.4100000000001,7943.5,-486.44799999999998,2927.9499999999998,264.95600000000002
174020.0,8508.5900000000001,8263.6800000000003,1187.1099999999999,7689.3500000000004,-485.334,2898.3899999999999,219.083
174021.0,8518.2600000000002,8548.2399999999998,1166.3599999999999,7427.8400000000001,-484.495,2845.4200000000001,173.655
174022.0,8523.0100000000002,8825.0,1153.02,7169.04,-483.517,2768.4400000000001,129.786
174023.0,8522.9599999999991,9083.3799999999992,1137.28,6906.0600000000004,-482.16800000000001,2667.1100000000001,87.212000000000003
174024.0,8518.3799999999992,9331.6800000000003,1128.9100000000001,6651.3800000000001,-480.5,2541.6500000000001,47.058900000000001
174025.0,8509.4300000000003,9558.3299999999999,1117.49,6398.21,-477.839,2392.0100000000002,8.2872699999999995
174026.0,8495.2900000000009,9769.6000000000004,1112.6900000000001,6158.1400000000003,-474.36599999999999,2219.0,-27.230799999999999
174027.0,8476.0599999999995,9954.3999999999996,1103.0999999999999,5928.9200000000001,-468.05599999999998,2021.1800000000001,-62.020200000000003
174028.0,8445.4799999999996,10107.9,1094.76,5715.5600000000004,-458.93900000000002,1800.8099999999999,-90.162899999999993
174029.0,8408.0400000000009,10209.4,1059.3900000000001,5518.6700000000001,-440.42899999999997,1555.9300000000001,-122.928
174030.0,8497.6000000000004,7006.6000000000004,1413.7,8759.6800000000003,-480.428,3000.25,343.28100000000001
174031.0,8528.2900000000009,7364.96,1382.25,8518.8700000000008,-489.77699999999999,3039.04,303.83300000000003
174032.0,8553.8600000000006,7683.1499999999996,1335.4400000000001,8248.1200000000008,-493.85899999999998,3056.9299999999998,260.42899999999997
174033.0,8576.5699999999997,8021.5,1324.23,8002.6599999999999,-498.37700000000001,3052.02,216.19800000000001
174034.0,8593.8899999999994,8318.1200000000008,1288.1199999999999,7720.1400000000003,-501.85700000000003,3024.1300000000001,171.81700000000001
174035.0,8606.2800000000007,8634.0200000000004,1286.01,7463.4300000000003,-505.36599999999999,2971.5599999999999,128.346
174036.0,8613.5100000000002,8908.0300000000007,1257.4100000000001,7174.75,-508.685,2893.5599999999999,86.665599999999998
174037.0,8615.6399999999994,9199.2099999999991,1262.23,6917.1499999999996,-511.62700000000001,2789.6599999999999,46.633800000000001
174038.0,8612.8799999999992,9444.7800000000007,1239.3099999999999,6632.5600000000004,-513.97000000000003,2659.9699999999998,9.4660700000000002
174039.0,8605.5799999999999,9702.4599999999991,1247.45,6383.6899999999996,-515.14099999999996,2504.4400000000001,-25.8566
174040.0,8592.8500000000004,9910.7299999999996,1228.5799999999999,6114.9499999999998,-514.83299999999997,2323.79,-57.381700000000002
174041.0,8575.0499999999993,10119.1,1231.8,5885.0500000000002,-511.28800000000001,2116.7600000000002,-87.676599999999993
174042.0,8546.9599999999991,10274.299999999999,1213.5699999999999,5651.04,-504.85399999999998,1885.6400000000001,-111.247
174043.0,8513.0300000000007,10405.0,1194.3900000000001,5462.8999999999996,-488.46300000000002,1628.6900000000001,-138.83500000000001
174044.0,8555.2399999999998,6997.9099999999999,1532.03,8822.6900000000005,-474.55700000000002,3113.8600000000001,287.80599999999998
174045.0,8590.8999999999996,7350.3400000000001,1477.8399999999999,8553.0900000000001,-489.572,3157.0599999999999,249.92099999999999
174046.0,8620.5100000000002,7706.1599999999999,1454.29,8296.5799999999999,-498.69,3178.6599999999999,208.01300000000001
174047.0,8646.6200000000008,8038.0,1423.26,8019.9799999999996,-508.166,3176.5500000000002,165.18600000000001
174048.0,8666.8999999999996,8370.8199999999997,1410.77,7747.9200000000001,-516.49900000000002,3150.4000000000001,122.381
174049.0,8681.7900000000009,8681.9200000000001,1391.8099999999999,7459.8100000000004,-524.84199999999998,3098.2600000000002,80.711399999999998
174050.0,8691.1900000000005,8990.7700000000004,1386.1800000000001,7178.5500000000002,-532.69600000000003,3019.25,41.396999999999998
174051.0,8695.0699999999997,9275.2900000000009,1372.8900000000001,6886.6999999999998,-539.87800000000004,2912.73,4.2449300000000001
174052.0,8693.7999999999993,9553.2199999999993,1371.1199999999999,6606.9200000000001,-546.23299999999995,2778.7199999999998,-29.572500000000002
174053.0,8687.6499999999996,9804.6499999999996,1362.3499999999999,6324.8900000000003,-551.14099999999996,2617.1700000000001,-61.070099999999996
174054.0,8676.2000000000007,10042.700000000001,1362.79,6060.04,-554.51099999999997,2428.8200000000002,-88.449600000000004
174055.0,8659.6499999999996,10250.4,1355.1900000000001,5805.0200000000004,-554.33399999999995,2212.4299999999998,-114.095
174056.0,8633.8500000000004,10429.5,1349.54,5572.2299999999996,-550.41600000000005,1970.4000000000001,-132.58600000000001
174057.0,8603.4400000000005,10557.4,1314.8399999999999,5360.9300000000003,-536.43200000000002,1701.46,-154.62899999999999
174058.0,8601.1299999999992,6943.5500000000002,1627.98,8838.4699999999993,-465.98500000000001,3227.5700000000002,229.33600000000001
174059.0,8641.8299999999999,7345.1400000000003,1606.4000000000001,8595.9599999999991,-487.13400000000001,3275.25,193.047
174060.0,8675.3099999999995,7687.75,1555.48,8302.6599999999999,-501.678,3300.6300000000001,152.499
174061.0,8704.4799999999996,8063.8299999999999,1556.01,8045.6499999999996,-516.33600000000001,3301.3800000000001,111.211
174062.0,8727.2999999999993,8383.2099999999991,1518.27,7734.2799999999997,-529.63999999999999,3276.9699999999998,70.215699999999998
174063.0,8744.2800000000007,8734.4799999999996,1528.1099999999999,7459.4300000000003,-542.69600000000003,3225.2600000000002,30.763300000000001
174064.0,8755.3199999999997,9030.5100000000002,1498.76,7137.8999999999996,-555.17100000000005,3145.1700000000001,-5.9197800000000003
174065.0,8760.6800000000003,9354.9699999999993,1514.7,6858.1199999999999,-566.95699999999999,3036.0100000000002,-40.098700000000001
174066.0,8760.4899999999998,9621.6399999999994,1491.4200000000001,6539.5,-577.67399999999998,2897.6100000000001,-70.394000000000005
174067.0,8755.3799999999992,9909.7900000000009,1509.3499999999999,6267.0100000000002,-586.65999999999997,2730.0300000000002,-97.8279
174068.0,8744.7600000000002,10137.4,1489.7,5965.6899999999996,-593.45299999999997,2533.79,-120.512
174069.0,8729.2199999999993,10373.9,1501.29,5714.7399999999998,-596.42999999999995,2307.96,-140.988
174070.0,8705.4699999999993,10548.299999999999,1480.3900000000001,5454.6099999999997,-595.52200000000005,2054.8400000000001,-154.124
174071.0,8678.4099999999999,10710.6,1467.55,5256.7399999999998,-584.00300000000004,1773.54,-170.17099999999999
174072.0,8635.4599999999991,6904.3900000000003,1764.1800000000001,8868.6200000000008,-454.59800000000001,3341.1599999999999,167.98699999999999
174073.0,8680.5100000000002,7285.8400000000001,1705.8399999999999,8583.0799999999999,-481.87599999999998,3393.3000000000002,133.529
174074.0,8717.4400000000005,7678.6300000000001,1691.6900000000001,8316.6900000000005,-501.887,3422.5,94.661100000000005
174075.0,8749.1900000000005,8035.46,1660.97,8015.75,-521.88499999999999,3426.0500000000002,54.994100000000003
174076.0,8774.2199999999993,8400.9099999999999,1658.26,7724.54,-540.30100000000004,3403.4299999999998,15.930199999999999
174077.0,8792.8500000000004,8736.0100000000002,1641.5899999999999,7406.7399999999998,-558.471,3352.0999999999999,-21.343699999999998
174078.0,8805.25,9074.8600000000006,1645.0,7100.3599999999997,-575.81899999999996,3270.9499999999998,-55.278300000000002
174079.0,8811.5100000000002,9382.9599999999991,1634.96,6776.3999999999996,-592.12699999999995,3159.04,-86.081699999999998
174080.0,8812.2299999999996,9688.3299999999999,1640.8499999999999,6468.5699999999997,-607.16899999999998,3016.2600000000002,-112.48699999999999
174081.0,8807.5200000000004,9962.1800000000003,1635.6500000000001,6154.6999999999998,-620.19399999999996,2842.4499999999998,-135.48699999999999
174082.0,8797.6100000000006,10224.700000000001,1642.04,5862.0699999999997,-630.96699999999998,2638.3200000000002,-153.33000000000001
174083.0,8782.8500000000004,10453.799999999999,1637.53,5579.0600000000004,-637.548,2402.8699999999999,-168.39099999999999
174084.0,8761.0699999999997,10656.5,1634.8900000000001,5324.4300000000003,-639.47799999999995,2138.5999999999999,-175.631
174085.0,8737.1299999999992,10810.6,1601.8499999999999,5097.6499999999996,-630.596,1845.03,-185.28999999999999
174086.0,8657.25,6801.6700000000001,1863.4300000000001,8832.7399999999998,-439.78800000000001,3454.1700000000001,103.8
174087.0,8706.9300000000003,7245.6000000000004,1851.3499999999999,8588.0799999999999,-473.77699999999999,3510.9400000000001,71.231399999999994
174088.0,8746.8999999999996,7612.7799999999997,1798.5,8272.6399999999994,-499.589,3543.9200000000001,33.8536
174089.0,8781.0100000000002,8023.0799999999999,1810.01,8000.5500000000002,-525.08600000000001,3550.4099999999999,-3.9273400000000001
174090.0,8807.4799999999996,8364.6499999999996,1773.5599999999999,7659.6800000000003,-548.779,3529.4099999999999,-40.953899999999997
174091.0,8827.4200000000001,8746.3899999999994,1794.05,7361.4399999999996,-571.90499999999997,3478.5300000000002,-75.580799999999996
174092.0,8840.5100000000002,9064.1599999999999,1767.6199999999999,7006.5299999999997,-594.17200000000003,3396.1599999999999,-106.51600000000001
174093.0,8847.4899999999998,9416.1900000000005,1792.8699999999999,6698.4499999999998,-615.34100000000001,3281.5300000000002,-133.80799999999999
174094.0,8848.4799999999996,9704.3299999999999,1773.3900000000001,6345.79,-634.98400000000004,3134.1999999999998,-156.12299999999999
174095.0,8844.1900000000005,10016.9,1798.8399999999999,6043.2799999999997,-652.29200000000003,2954.1999999999998,-174.37200000000001
174096.0,8834.4400000000005,10264.299999999999,1782.52,5709.5799999999999,-666.72699999999998,2741.9400000000001,-186.81100000000001
174097.0,8820.2700000000004,10523.299999999999,1799.98,5431.6700000000001,-676.61900000000003,2496.8899999999999,-195.881
174098.0,8800.0900000000001,10718.4,1780.6400000000001,5146.7700000000004,-681.79999999999995,2221.29,-196.93299999999999
174099.0,8779.0599999999995,10907.700000000001,1771.3499999999999,4934.1000000000004,-675.67999999999995,1915.1500000000001,-199.732
174100.0,8667.6399999999994,6729.3100000000004,2021.6300000000001,8826.1200000000008,-421.678,3566.54,36.821100000000001
174101.0,8720.5400000000009,7132.0299999999997,1952.0999999999999,8517.5,-462.22300000000001,3627.6199999999999,6.3623799999999999
174102.0,8763.4599999999991,7567.1599999999999,1954.9400000000001,8247.0699999999997,-493.791,3664.6599999999999,-29.073399999999999
174103.0,8798.9899999999998,7940.8299999999999,1919.6400000000001,7913.9399999999996,-524.99000000000001,3673.75,-64.943399999999997
174104.0,8826.9699999999993,8341.1499999999996,1932.8499999999999,7605.9499999999998,-553.99900000000002,3654.6500000000001,-99.757499999999993
174105.0,8847.3899999999994,8692.4500000000007,1914.9300000000001,7250.6599999999999,-582.548,3603.9000000000001,-131.815
174106.0,8861.1299999999992,9062.25,1932.77,6920.0799999999999,-609.87,3520.4899999999998,-159.56399999999999
174107.0,8868.0400000000009,9386.5200000000004,1923.0999999999999,6556.5799999999999,-635.82899999999995,3402.8699999999999,-182.94800000000001
174108.0,8869.1700000000001,9719.3299999999999,1941.22,6220.75,-659.93799999999999,3251.0500000000002,-200.76900000000001
174109.0,8864.6000000000004,10009.0,1937.3,5868.4399999999996,-681.52700000000004,3064.5999999999999,-213.88399999999999
174110.0,8855.0300000000007,10295.799999999999,1953.79,5548.0900000000001,-700.11400000000003,2844.3299999999999,-220.75899999999999
174111.0,8841.0200000000004,10540.1,1949.97,5231.0299999999997,-713.75999999999999,2589.3899999999999,-223.53399999999999
174112.0,8822.3299999999999,10766.9,1954.22,4955.2700000000004,-721.93700000000001,2302.5100000000002,-217.85900000000001
174113.0,8803.9099999999999,10942.299999999999,1920.3699999999999,4708.1300000000001,-718.774,1983.8699999999999,-213.34299999999999
174114.0,8665.4500000000007,6565.1700000000001,2117.75,8723.7600000000002,-399.35599999999999,3677.3699999999999,-32.653799999999997
174115.0,8722.4500000000007,7055.4700000000003,2120.8600000000001,8482.6000000000004,-447.06299999999999,3743.4699999999998,-61.102600000000002
174116.0,8766.9799999999996,7442.1099999999997,2063.1500000000001,8140.1099999999997,-484.798,3783.8699999999999,-94.706900000000005
174117.0,8804.1299999999992,7886.1499999999996,2089.3000000000002,7853.3699999999999,-521.63400000000001,3796.1599999999999,-128.441
174118.0,8832.3500000000004,8245.0900000000001,2053.3699999999999,7478.3299999999999,-556.22299999999996,3778.3099999999999,-160.83699999999999
174119.0,8853.3199999999997,8654.7399999999998,2087.04,7154.6700000000001,-589.83100000000002,3728.1100000000001,-189.88300000000001
174120.0,8866.6700000000001,8989.2900000000009,2063.4499999999998,6761.5900000000001,-622.29399999999998,3643.1300000000001,-214.11600000000001
174121.0,8873.6800000000003,9365.9099999999999,2100.2800000000002,6422.7200000000003,-653.23199999999997,3522.8299999999999,-233.46199999999999
174122.0,8874.2299999999996,9670.3600000000006,2084.6199999999999,6031.2200000000003,-682.14400000000001,3366.1199999999999,-246.55600000000001
174123.0,8869.4799999999996,10004.0,2119.5,5695.9799999999996,-708.08100000000002,3173.4200000000001,-254.20599999999999
174124.0,8859.4500000000007,10266.5,2106.5799999999999,5325.6999999999998,-730.43600000000004,2944.75,-254.87
174125.0,8845.6499999999996,10544.9,2131.5300000000002,5018.5,-747.577,2680.1399999999999,-250.851
174126.0,8828.0599999999995,10756.6,2113.5799999999999,4705.29,-759.178,2381.6799999999998,-238.09100000000001
174127.0,8812.2099999999991,10971.6,2109.5500000000002,4477.1300000000001,-759.06700000000001,2050.5100000000002,-225.77799999999999
174128.0,8653.0799999999999,6450.3699999999999,2296.9299999999998,8670.4500000000007,-372.99400000000003,3787.0300000000002,-104.80500000000001
174129.0,8711.6900000000005,6883.29,2225.8400000000001,8348.2600000000002,-427.74299999999999,3857.1199999999999,-130.90100000000001
174130.0,8758.5200000000004,7348.6300000000001,2237.1399999999999,8063.2399999999998,-471.46699999999998,3901.9200000000001,-162.249
174131.0,8795.7099999999991,7745.6000000000004,2207.5599999999999,7704.6899999999996,-514.28399999999999,3916.3400000000001,-193.876
174132.0,8824.5300000000007,8167.3299999999999,2228.6199999999999,7367.5799999999999,-554.24699999999996,3900.5300000000002,-223.56399999999999
174133.0,8844.9400000000005,8539.7999999999993,2219.5599999999999,6980.1499999999996,-593.48299999999995,3850.0500000000002,-249.70099999999999
174134.0,8858.1800000000003,8927.0699999999997,2244.3200000000002,6612.8699999999999,-631.03899999999999,3764.0500000000002,-270.16500000000002
174135.0,8864.25,9271.3600000000006,2244.54,6214.3000000000002,-666.86099999999999,3640.3499999999999,-285.05000000000001
174136.0,8864.3899999999994,9618.6800000000003,2268.0300000000002,5838.5699999999997,-700.28999999999996,3479.1700000000001,-292.935
174137.0,8858.7600000000002,9926.9899999999998,2274.02,5451.6099999999997,-730.66600000000005,3279.6500000000001,-294.80399999999997
174138.0,8848.5599999999995,10225.9,2294.1599999999999,5092.54,-757.21100000000001,3042.9499999999998,-289.02300000000002
174139.0,8834.6399999999994,10488.299999999999,2299.1799999999998,4745.5500000000002,-778.19399999999996,2768.2399999999998,-277.88900000000001
174140.0,8818.2999999999993,10728.5,2304.0100000000002,4438.9300000000003,-792.92499999999995,2458.54,-257.43200000000002
174141.0,8804.6000000000004,10929.4,2277.0500000000002,4176.5600000000004,-795.88599999999997,2114.77,-236.90600000000001
174142.0,8629.8500000000004,6230.9099999999999,2403.4400000000001,8505.5599999999995,-342.16199999999998,3894.3200000000002,-179.16300000000001
174143.0,8690.7900000000009,6749.6700000000001,2405.8600000000001,8252.2099999999991,-403.60199999999998,3969.23,-203.00399999999999
174144.0,8738.1200000000008,7167.9499999999998,2358.6100000000001,7895.5,-454.33499999999998,4017.2800000000002,-232.18799999999999
174145.0,8775.7900000000009,7629.4799999999996,2388.1700000000001,7579.54,-502.47800000000001,4034.8499999999999,-261.37099999999998
174146.0,8803.9099999999999,8011.7399999999998,2364.1799999999998,7176.8400000000001,-548.46699999999998,4019.96,-288.26100000000002
174147.0,8823.9200000000001,8435.4200000000001,2403.4299999999998,6815.3500000000004,-592.55200000000002,3969.9299999999998,-310.91199999999998
174148.0,8836.0599999999995,8789.1000000000004,2391.3600000000001,6387.2399999999998,-635.44200000000001,3881.9899999999998,-327.32299999999998
174149.0,8841.4500000000007,9178.0,2434.3800000000001,6006.9399999999996,-676.16800000000001,3755.4499999999998,-337.57799999999997
174150.0,8840.6700000000001,9498.9200000000001,2429.23,5577.8800000000001,-714.47799999999995,3589.0900000000001,-340.017
174151.0,8834.5300000000007,9843.3899999999994,2469.9200000000001,5201.4399999999996,-749.13900000000001,3383.23,-335.654
174152.0,8823.7099999999991,10119.4,2465.25,4794.5699999999997,-779.46799999999996,3137.9200000000001,-322.834
174153.0,8809.8400000000001,10408.9,2495.3600000000001,4451.6499999999996,-803.88599999999997,2853.52,-303.983
174154.0,8794.5499999999993,10635.6,2482.4499999999998,4110.1999999999998,-822.077,2532.23,-275.48700000000002
174155.0,8782.8700000000008,10870.4,2482.04,3862.0900000000001,-828.21199999999999,2176.0599999999999,-246.24100000000001
174156.0,8597.1599999999999,6045.29,2584.5900000000001,8376.2700000000004,-305.94600000000003,3998.23,-255.66900000000001
174157.0,8660.75,6527.9099999999999,2531.8600000000001,8061.1099999999997,-374.68700000000001,4078.8400000000001,-277.28199999999998
174158.0,8707.25,7003.6899999999996,2537.0,7744.29,-431.81999999999999,4130.0699999999997,-303.61599999999999
174159.0,8745.0799999999999,7432.8199999999997,2526.4400000000001,7369.71,-485.762,4150.2600000000002,-330.53399999999999
174160.0,8771.9899999999998,7860.7200000000003,2547.0100000000002,6990.4099999999999,-537.38,4136.6999999999998,-354.13799999999998
174161.0,8791.3299999999999,8256.3500000000004,2555.27,6573.6999999999998,-586.86800000000005,4086.3600000000001,-373.51299999999998
174162.0,8802.2900000000009,8649.2199999999993,2582.6500000000001,6159.9399999999996,-634.99699999999996,3996.9299999999998,-385.5
174163.0,8806.8099999999995,9011.2299999999996,2597.8200000000002,5725.4899999999998,-680.43200000000002,3866.8600000000001,-390.73500000000001
174164.0,8804.9899999999998,9363.9699999999993,2625.27,5303.0699999999997,-723.23199999999997,3695.6399999999999,-387.17099999999999
174165.0,8798.3299999999999,9686.2399999999998,2643.8099999999999,4878.7399999999998,-762.15899999999999,3482.9099999999999,-376.221
174166.0,8787.2900000000009,9990.4099999999999,2668.0599999999999,4476.6300000000001,-796.68100000000004,3229.4000000000001,-356.12200000000001
174167.0,8773.6700000000001,10264.4,2682.29,4095.5900000000001,-824.84000000000003,2934.8899999999999,-329.21499999999997
174168.0,8759.5699999999997,10513.9,2689.7600000000002,3756.4699999999998,-846.12300000000005,2602.4400000000001,-292.05399999999997
174169.0,8749.75,10734.1,2668.5999999999999,3474.6799999999998,-855.30999999999995,2233.77,-253.61500000000001
174170.0,8561.1599999999999,5793.0900000000001,2737.75,8174.2799999999997,-263.30599999999998,4101.5900000000001,-334.64100000000002
174171.0,8621.9699999999993,6304.5799999999999,2696.0900000000001,7867.3800000000001,-340.75900000000001,4183.8299999999999,-352.947
174172.0,8669.5,6776.9399999999996,2693.2199999999998,7526.0299999999997,-403.85599999999999,4240.5500000000002,-377.33499999999998
174173.0,8705.2999999999993,7230.6099999999997,2701.9200000000001,7153.71,-463.98099999999999,4261.7299999999996,-401.11500000000001
174174.0,8731.7800000000007,7646.6199999999999,2710.7399999999998,6738.0200000000004,-520.93799999999999,4250.21,-421.61700000000002
174175.0,8749.3899999999994,8064.6199999999999,2741.1300000000001,6319.2700000000004,-575.57600000000002,4198.8400000000001,-436.92000000000002
174176.0,8759.6100000000006,8441.25,2754.27,5863.2399999999998,-628.673,4107.96,-444.28300000000002
174177.0,8763.0599999999995,8826.7900000000009,2794.79,5427.3900000000003,-678.95399999999995,3974.1100000000001,-444.17500000000001
174178.0,8760.7900000000009,9163.75,2809.27,4963.6599999999999,-726.38599999999997,3797.8699999999999,-434.41199999999998
174179.0,8753.6900000000005,9505.5499999999993,2850.0900000000001,4535.1499999999996,-769.39099999999996,3578.23,-416.38900000000001
174180.0,8742.9899999999998,9793.2800000000007,2860.4899999999998,4093.1999999999998,-807.505,3316.3400000000001,-388.32299999999998
174181.0,8730.0599999999995,10082.299999999999,2891.5900000000001,3706.1300000000001,-838.97400000000005,3012.0,-352.81400000000002
174182.0,8717.5699999999997,10322.1,2889.02,3337.5100000000002,-863.58100000000002,2668.2600000000002,-306.58999999999997
174183.0,8709.5300000000007,10567.799999999999,2888.9200000000001,3063.1900000000001,-876.01199999999994,2287.4000000000001,-258.49099999999999
174184.0,8521.5499999999993,5520.1400000000003,2907.73,7944.1199999999999,-214.916,4200.3400000000001,-415.072
174185.0,8579.1299999999992,6030.04,2853.7600000000002,7620.3699999999999,-300.714,4285.8400000000001,-430.38299999999998
174186.0,8626.4200000000001,6527.0699999999997,2867.8800000000001,7280.6000000000004,-369.577,4346.54,-452.137
174187.0,8660.0799999999999,6972.4899999999998,2867.8499999999999,6879.8100000000004,-436.09500000000003,4369.5799999999999,-472.75599999999997
174188.0,8685.6700000000001,7406.3800000000001,2895.0,6457.6000000000004,-497.98000000000002,4359.0600000000004,-489.928
174189.0,8701.9899999999998,7814.2600000000002,2918.52,6005.1999999999998,-558.32299999999998,4307.0500000000002,-501.07799999999997
174190.0,8711.5400000000009,8206.5,2951.0500000000002,5539.79,-615.98000000000002,4214.0799999999999,-503.58999999999997
174191.0,8714.3099999999995,8578.1599999999999,2982.5500000000002,5065.6300000000001,-670.976,4076.4299999999998,-497.55200000000002
174192.0,8712.0,8926.6700000000001,3013.8099999999999,4589.46,-722.45600000000002,3894.9000000000001,-481.142
174193.0,8705.4099999999999,9256.3999999999996,3047.9499999999998,4125.8000000000002,-769.63099999999997,3668.3200000000002,-455.61399999999998
174194.0,8695.8700000000008,9555.1200000000008,3074.6799999999998,3673.2800000000002,-811.44299999999998,3398.04,-419.32400000000001
174195.0,8684.6900000000005,9836.4200000000001,3102.3200000000002,3258.23,-846.42999999999995,3083.8699999999999,-374.75299999999999
174196.0,8674.3999999999996,10084.4,3109.7600000000002,2879.5,-873.88800000000003,2729.1199999999999,-318.88400000000001
174197.0,8668.4300000000003,10321.799999999999,3098.77,2579.6500000000001,-889.26800000000003,2336.2199999999998,-260.58800000000002
174198.0,8482.2000000000007,5188.5,3057.1199999999999,7648.0699999999997,-160.52600000000001,4293.2700000000004,-496.45699999999999
174199.0,8536.9699999999993,5734.0900000000001,3038.3699999999999,7349.46,-253.77799999999999,4384.71,-509.42899999999997
174200.0,8581.9599999999991,6225.2299999999996,3033.8699999999999,6978.9499999999998,-329.06099999999998,4447.1099999999997,-528.11199999999997
174201.0,8613.9599999999991,6686.3500000000004,3056.02,6576.3100000000004,-401.584,4473.3199999999997,-545.49400000000003
174202.0,8638.4899999999998,7113.4399999999996,3075.2399999999998,6122.04,-468.42000000000002,4462.4799999999996,-559.024
174203.0,8653.8799999999992,7528.3900000000003,3114.5,5655.21,-533.798,4410.3199999999997,-565.351
174204.0,8663.3400000000001,7911.96,3142.7399999999998,5156.0799999999999,-595.82299999999998,4314.3699999999999,-562.80200000000002
174205.0,8666.3099999999995,8289.3999999999996,3189.3400000000001,4665.3299999999999,-655.51700000000005,4173.1499999999996,-550.41399999999999
174206.0,8665.2399999999998,8630.3600000000006,3219.9299999999998,4158.1000000000004,-710.97900000000004,3985.77,-527.173
174207.0,8660.1499999999996,8961.6100000000006,3264.9099999999999,3674.96,-761.91200000000003,3752.4000000000001,-493.459
174208.0,8653.1800000000003,9251.0300000000007,3289.8000000000002,3192.4899999999998,-806.78399999999999,3473.5,-448.447
174209.0,8644.9099999999999,9530.6599999999999,3323.25,2757.46,-844.70699999999999,3149.8099999999999,-394.10199999999998
174210.0,8638.2099999999991,9776.1800000000003,3332.1799999999998,2358.96,-875.173,2784.1199999999999,-328.27499999999998
174211.0,8634.6599999999999,10024.6,3332.1999999999998,2054.5300000000002,-893.673,2379.6300000000001,-259.31700000000001
174212.0,8445.7800000000007,4797.6599999999999,3197.0300000000002,7292.04,-98.200000000000003,4378.7399999999998,-578.91800000000001
174213.0,8502.0900000000001,5412.8699999999999,3242.27,7044.8299999999999,-199.57900000000001,4479.8400000000001,-589.36400000000003
174214.0,8540.2099999999991,5866.75,3194.4699999999998,6620.4499999999998,-281.39999999999998,4541.5699999999997,-604.64999999999998
174215.0,8573.6100000000006,6363.9499999999998,3257.0799999999999,6231.1499999999996,-359.05399999999997,4572.1700000000001,-618.64800000000002
174216.0,8594.9599999999991,6765.8599999999997,3256.0599999999999,5732.1099999999997,-431.423,4559.6800000000003,-628.19100000000003
174217.0,8612.3700000000008,7197.6800000000003,3321.0900000000001,5257.9899999999998,-501.26799999999997,4507.7200000000003,-629.72900000000004
174218.0,8621.2900000000009,7565.54,3342.8600000000001,4722.0799999999999,-567.90999999999997,4407.9700000000003,-621.59699999999998
174219.0,8627.0,7945.5699999999997,3403.2399999999998,4210.6599999999999,-631.42899999999997,4263.1400000000003,-602.47699999999998
174220.0,8627.7099999999991,8273.9599999999991,3432.4499999999998,3670.77,-690.64599999999996,4069.4899999999998,-571.76999999999998
174221.0,8626.9899999999998,8602.9599999999991,3486.9299999999998,3164.6100000000001,-744.98099999999999,3829.3699999999999,-529.54399999999998
174222.0,8624.0900000000001,8884.9400000000005,3515.71,2657.0900000000001,-793.13999999999999,3541.8299999999999,-475.41500000000002
174223.0,8621.4300000000003,9162.3400000000001,3557.0900000000001,2202.4299999999998,-833.97299999999996,3208.7800000000002,-410.93299999999999
174224.0,8619.6299999999992,9402.1499999999996,3567.21,1783.2,-866.91399999999999,2832.48,-334.459
174225.0,8619.7600000000002,9645.8799999999992,3564.4000000000001,1459.24,-887.89400000000001,2416.79,-254.291
174226.0,8429.2099999999991,4430.7399999999998,3420.3000000000002,6961.3500000000004,-27.3108,4462.71,-663.36900000000003
174227.0,8475.4500000000007,4995.5699999999997,3392.9000000000001,6636.1000000000004,-137.99100000000001,4565.9399999999996,-669.18700000000001
174228.0,8512.8899999999994,5505.0900000000001,3408.4899999999998,6256.9099999999999,-225.52799999999999,4632.6400000000003,-682.00099999999998
174229.0,8543.0499999999993,5964.0799999999999,3431.6300000000001,5804.9700000000003,-308.83999999999997,4662.8100000000004,-692.01300000000003
174230.0,8566.0699999999997,6393.6199999999999,3471.1700000000001,5316.0100000000002,-385.83499999999998,4651.8800000000001,-697.16700000000003
174231.0,8583.8099999999995,6795.5699999999997,3514.52,4788.4700000000003,-459.86000000000001,4596.96,-693.524
174232.0,8596.0799999999999,7174.9899999999998,3563.1399999999999,4244.3199999999997,-530.58500000000004,4494.9899999999998,-679.24400000000003
174233.0,8605.1900000000005,7532.9499999999998,3614.02,3689.5300000000002,-597.73099999999999,4344.7200000000003,-653.17499999999995
174234.0,8611.4200000000001,7865.96,3664.0500000000002,3135.4899999999998,-660.50400000000002,4145.6199999999999,-614.48699999999997
174235.0,8616.6299999999992,8174.25,3712.4299999999998,2590.6300000000001,-717.63300000000004,3897.7600000000002,-563.33500000000004
174236.0,8621.5699999999997,8454.1599999999999,3754.4400000000001,2064.8099999999999,-768.36599999999999,3602.2800000000002,-499.31799999999998
174237.0,8626.8099999999995,8712.3099999999995,3789.4499999999998,1576.0899999999999,-811.32100000000003,3259.7399999999998,-424.21800000000002
174238.0,8632.9400000000005,8954.6299999999992,3812.5,1145.8,-846.77499999999998,2873.52,-336.60199999999998
174239.0,8637.6700000000001,9195.2700000000004,3811.3499999999999,806.30999999999995,-870.37300000000005,2446.8200000000002,-244.97200000000001
174240.0,8437.4899999999998,3988.0700000000002,3615.0,6539.6099999999997,51.065399999999997,4542.6000000000004,-747.52200000000005
174241.0,8468.5799999999999,4556.3900000000003,3578.1300000000001,6207.2299999999996,-67.139600000000002,4644.7600000000002,-749.37099999999998
174242.0,8506.3400000000001,5073.5500000000002,3604.6700000000001,5814.8699999999999,-161.065,4717.1899999999996,-759.01300000000003
174243.0,8533.4099999999999,5528.75,3629.8099999999999,5343.6400000000003,-249.239,4746.5500000000002,-764.80600000000004
174244.0,8559.9599999999991,5953.5299999999997,3677.4400000000001,4827.8400000000001,-330.89800000000002,4736.4099999999999,-765.50199999999995
174245.0,8580.1200000000008,6349.4300000000003,3728.4000000000001,4275.8999999999996,-408.93799999999999,4678.5299999999997,-756.38999999999999
174246.0,8598.4699999999993,6717.5299999999997,3782.9400000000001,3699.3099999999999,-483.30000000000001,4573.3100000000004,-735.57299999999998
174247.0,8613.5400000000009,7065.3699999999999,3841.6700000000001,3117.0100000000002,-553.55200000000002,4417.4499999999998,-702.096
174248.0,8628.7900000000009,7381.3299999999999,3893.8400000000001,2528.0300000000002,-619.08000000000004,4212.2399999999998,-654.73900000000003
174249.0,8643.7700000000004,7679.9399999999996,3951.5300000000002,1958.77,-678.73299999999995,3956.9000000000001,-594.25199999999995
174250.0,8660.5100000000002,7944.2299999999996,3997.0599999999999,1403.21,-731.78399999999999,3653.3400000000001,-519.89800000000002
174251.0,8677.6299999999992,8196.0100000000002,4042.5799999999999,896.10900000000004,-776.822,3301.8400000000001,-433.81099999999998
174252.0,8694.9400000000005,8423.4400000000005,4064.3299999999999,439.30500000000001,-813.96900000000005,2905.9899999999998,-334.38299999999998
174253.0,8706.4099999999999,8657.2399999999998,4063.73,82.515600000000006,-839.51400000000001,2469.0999999999999,-230.749
174254.0,8472.6000000000004,3487.5599999999999,3800.0599999999999,6052.3699999999999,137.65600000000001,4611.0799999999999,-830.13999999999999
174255.0,8497.2299999999996,4072.25,3777.4499999999998,5727.96,13.556699999999999,4719.4300000000003,-830.01199999999994
174256.0,8528.2000000000007,4590.2700000000004,3804.3600000000001,5317.7299999999996,-87.490200000000002,4792.2600000000002,-834.97699999999998
174257.0,8558.3899999999994,5041.04,3837.9299999999998,4826.5100000000002,-179.82599999999999,4823.9200000000001,-837.255
174258.0,8587.9300000000003,5458.9799999999996,3890.73,4283.5900000000001,-265.75099999999998,4811.9499999999998,-832.36800000000005
174259.0,8615.3799999999992,5840.4399999999996,3947.04,3698.9899999999998,-346.93099999999998,4751.9200000000001,-817.54499999999996
174260.0,8641.7999999999993,6197.5600000000004,4009.9400000000001,3093.0100000000002,-424.423,4641.75,-789.61400000000003
174261.0,8668.2900000000009,6526.8100000000004,4072.9699999999998,2475.9499999999998,-497.238,4480.5900000000001,-748.29399999999998
174262.0,8695.7800000000007,6831.0100000000002,4136.71,1860.71,-565.09900000000005,4268.1199999999999,-691.94899999999996
174263.0,8725.5400000000009,7107.1099999999997,4196.5900000000001,1257.05,-626.59199999999998,4005.4499999999998,-621.48500000000001
174264.0,8758.9200000000001,7356.1400000000003,4249.4499999999998,675.25199999999995,-680.96600000000001,3693.9000000000001,-536.22299999999996
174265.0,8793.1100000000006,7585.6700000000001,4293.7600000000002,136.20599999999999,-727.20000000000005,3334.0300000000002,-438.524
174266.0,8825.7299999999996,7805.3900000000003,4324.8400000000001,-337.14299999999997,-765.89300000000003,2929.0799999999999,-326.91399999999999
174267.0,8846.7800000000007,8033.4200000000001,4329.8900000000003,-707.899,-793.42999999999995,2482.6399999999999,-210.91300000000001
174268.0,8554.2199999999993,2924.5700000000002,3986.9499999999998,5503.29,236.06,4671.5500000000002,-912.60199999999998
174269.0,8567.2399999999998,3549.3800000000001,3992.0100000000002,5199.6999999999998,103.57599999999999,4785.2799999999997,-909.13800000000003
174270.0,8595.4400000000005,4039.0,4000.1900000000001,4752.2600000000002,-3.1402299999999999,4860.0299999999997,-909.947
174271.0,8629.1599999999999,4506.2799999999997,4058.6100000000001,4256.2299999999996,-99.3523,4892.5,-907.76800000000003
174272.0,8665.3400000000001,4895.1899999999996,4104.0200000000004,3669.9499999999998,-189.40700000000001,4878.7200000000003,-897.59000000000003
174273.0,8704.2299999999996,5278.5100000000002,4181.0799999999999,3066.8200000000002,-273.32400000000001,4815.4499999999998,-876.55200000000002
174274.0,8742.9699999999993,5604.6800000000003,4239.54,2415.4099999999999,-353.42399999999998,4699.6800000000003,-841.16899999999998
174275.0,8785.3400000000001,5925.6599999999999,4321.1700000000001,1775.4000000000001,-427.91399999999999,4531.8800000000001,-791.43200000000002
174276.0,8830.75,6195.5900000000001,4379.2600000000002,1115.48,-497.29700000000003,4312.0900000000001,-725.38
174277.0,8881.3999999999996,6458.3199999999997,4454.2799999999997,489.32799999999997,-559.83799999999997,4041.8699999999999,-644.43899999999996
174278.0,8937.4300000000003,6678.7200000000003,4507.3000000000002,-127.76000000000001,-615.22900000000004,3722.8099999999999,-547.89400000000001
174279.0,8994.75,6897.1800000000003,4565.6999999999998,-684.93499999999995,-662.255,3354.96,-438.13600000000002
174280.0,9047.4599999999991,7092.5,4593.7399999999998,-1188.3399999999999,-701.63699999999994,2941.6500000000001,-313.73000000000002
174281.0,9081.8400000000001,7307.9899999999998,4600.3299999999999,-1577.72,-730.13099999999997,2486.6599999999999,-184.858
174282.0,8702.8799999999992,2372.8600000000001,4246.3599999999997,4958.4700000000003,345.01999999999998,4728.1499999999996,-994.23400000000004
174283.0,8690.5100000000002,2916.25,4155.4499999999998,4558.9099999999999,204.19399999999999,4840.3000000000002,-985.89200000000005
174284.0,8724.5499999999993,3475.3800000000001,4246.6499999999996,4167.25,93.131399999999999,4921.0600000000004,-983.423
174285.0,8758.3899999999994,3880.8699999999999,4255.79,3594.9499999999998,-8.0764099999999992,4950.4499999999998,-976.18799999999999
174286.0,8811.7600000000002,4294.2399999999998,4346.75,3014.3000000000002,-100.06,4937.7299999999996,-960.096
174287.0,8861.7900000000009,4629.54,4400.3999999999996,2346.7399999999998,-186.59200000000001,4867.5799999999999,-932.06899999999996
174288.0,8921.5599999999995,4957.5200000000004,4491.1700000000001,1682.9100000000001,-267.51299999999998,4746.8100000000004,-888.69100000000003
174289.0,8984.1900000000005,5232.6899999999996,4556.9899999999998,985.63499999999999,-343.18599999999998,4570.5799999999999,-830.16300000000001
174290.0,9053.8700000000008,5494.3199999999997,4643.6099999999997,310.73599999999999,-413.52699999999999,4342.4099999999999,-754.18899999999996
174291.0,9130.7800000000007,5712.1400000000003,4710.0100000000002,-362.34899999999999,-476.60000000000002,4064.4099999999999,-662.10699999999997
174292.0,9218.5400000000009,5915.8699999999999,4779.1099999999997,-1000.8,-531.60599999999999,3739.1399999999999,-553.78399999999999
174293.0,9304.6100000000006,6096.9099999999999,4829.0900000000001,-1598.72,-578.48500000000001,3363.5300000000002,-431.38400000000001
174294.0,9383.7700000000004,6281.6400000000003,4872.6000000000004,-2115.5599999999999,-618.11800000000005,2942.9899999999998,-293.82499999999999
174295.0,9434.9099999999999,6479.75,4880.8800000000001,-2524.73,-647.51700000000005,2479.9499999999998,-151.881
174296.0,8913.7600000000002,1672.6800000000001,4404.9899999999998,4246.6599999999999,465.15300000000002,4771.4399999999996,-1072.0699999999999
174297.0,8892.5200000000004,2300.1199999999999,4411.9700000000003,3937.3099999999999,316.92599999999999,4889.21,-1061.3800000000001
174298.0,8922.7299999999996,2796.5599999999999,4435.5600000000004,3459.7600000000002,201.11799999999999,4970.6999999999998,-1053.71
174299.0,8970.3899999999994,3231.1799999999998,4498.4499999999998,2906.8400000000001,97.046599999999998,5002.1999999999998,-1041.04
174300.0,9036.5300000000007,3604.6300000000001,4569.8500000000004,2265.46,3.2665999999999999,4984.2700000000004,-1018.53
174301.0,9110.8799999999992,3939.2800000000002,4653.1000000000004,1584.1300000000001,-84.510499999999993,4910.9899999999998,-982.495
174302.0,9194.6900000000005,4223.25,4729.8699999999999,860.05399999999997,-166.048,4781.3000000000002,-931.93799999999999
174303.0,9284.4899999999998,4487.1599999999999,4827.0,145.066,-242.22499999999999,4594.8500000000004,-864.63999999999999
174304.0,9381.9599999999991,4690.9099999999999,4897.4300000000003,-587.39599999999996,-312.78199999999998,4355.8699999999999,-777.48400000000004
174305.0,9496.2399999999998,4884.8900000000003,4984.8000000000002,-1279.98,-375.13999999999999,4072.8000000000002,-673.76800000000003
174306.0,9623.0900000000001,5047.9700000000003,5051.0799999999999,-1961.0999999999999,-429.20600000000002,3740.9099999999999,-553.49599999999998
174307.0,9744.6000000000004,5211.5100000000002,5119.8400000000001,-2574.6700000000001,-475.649,3358.3400000000001,-417.87200000000001
174308.0,9855.7999999999993,5359.7299999999996,5157.1599999999999,-3127.21,-514.18499999999995,2931.46,-266.66300000000001
174309.0,9928.9200000000001,5539.7799999999997,5169.0500000000002,-3554.54,-543.327,2462.2600000000002,-111.123
174310.0,9207.0400000000009,944.40200000000004,4604.0799999999999,3515.4699999999998,598.62,4801.3199999999997,-1146.3
174311.0,9185.8700000000008,1595.2,4635.75,3215.25,442.60500000000002,4933.21,-1131.27
174312.0,9208.9699999999993,2078.3600000000001,4654.1899999999996,2712.46,323.41899999999998,5010.8500000000004,-1119.78
174313.0,9276.2199999999993,2517.02,4744.6000000000004,2148.8099999999999,216.374,5044.8199999999997,-1101.4300000000001
174314.0,9364.3899999999994,2850.73,4789.25,1450.1700000000001,119.46599999999999,5025.1999999999998,-1073.4100000000001
174315.0,9467.4799999999996,3181.5799999999999,4900.6999999999998,747.45899999999995,28.865300000000001,4946.4399999999996,-1026.99
174316.0,9588.0799999999999,3433.3499999999999,4980.7600000000002,-27.608699999999999,-46.860999999999997,4808.8000000000002,-970.02300000000002
174317.0,9700.7000000000007,3656.1700000000001,5078.1000000000004,-794.39599999999996,-122.88,4600.6099999999997,-895.09299999999996
174318.0,9829.1299999999992,3805.8499999999999,5167.5799999999999,-1551.45,-193.68199999999999,4349.8100000000004,-792.99699999999996
174319.0,9999.2399999999998,3952.9200000000001,5262.1800000000003,-2285.6700000000001,-251.90000000000001,4066.4699999999998,-679.15999999999997
174320.0,10169.700000000001,4080.9099999999999,5332.3299999999999,-3001.3600000000001,-305.58199999999999,3726.5799999999999,-545.36199999999997
174321.0,10333.5,4200.7399999999998,5399.0900000000001,-3651.6199999999999,-349.214,3338.6399999999999,-396.23700000000002
174322.0,10483.200000000001,4324.0900000000001,5446.6899999999996,-4224.7700000000004,-386.35500000000002,2906.8000000000002,-231.17400000000001
174323.0,10582.799999999999,4483.0799999999999,5466.6400000000003,-4668.7600000000002,-415.01400000000001,2431.9499999999998,-61.791400000000003
174324.0,9609.2099999999991,187.38499999999999,4851.46,2753.04,745.11800000000005,4825.54,-1217.1300000000001
174325.0,9570.5499999999993,820.35299999999995,4859.4499999999998,2427.8000000000002,582.09199999999998,4962.6899999999996,-1195.6300000000001
174326.0,9611.1100000000006,1316.3,4889.9799999999996,1918.8199999999999,458.00599999999997,5052.3699999999999,-1180.9400000000001
174327.0,9688.8099999999995,1720.49,4954.8999999999996,1294.3599999999999,352.005,5081.8100000000004,-1155.53
174328.0,9794.2700000000004,2092.5900000000001,5071.7200000000003,625.61599999999999,260.858,5054.0699999999997,-1109.8399999999999
174329.0,9946.5100000000002,2383.8299999999999,5187.6099999999997,-139.81200000000001,182.738,4974.9899999999998,-1044.9200000000001
174330.0,10105.200000000001,2671.6399999999999,5351.6400000000003,-916.71000000000004,128.93000000000001,4811.1999999999998,-991.16999999999996
174331.0,10224.0,2780.3600000000001,5398.7200000000003,-1758.3900000000001,41.725499999999997,4570.6800000000003,-914.75400000000002
174332.0,10421.200000000001,2806.6999999999998,5432.1800000000003,-2604.9899999999998,-51.422499999999999,4331.2700000000004,-801.25099999999998
174333.0,10656.5,2929.1799999999998,5545.4799999999996,-3376.8499999999999,-108.91200000000001,4043.02,-677.63400000000001
174334.0,10870.4,3005.6500000000001,5622.7399999999998,-4124.0299999999997,-158.376,3692.8400000000001,-528.60599999999999
174335.0,11088.1,3087.5700000000002,5703.2200000000003,-4800.5200000000004,-199.107,3302.8699999999999,-366.54000000000002
174336.0,11280.4,3173.2800000000002,5752.7700000000004,-5402.6400000000003,-233.94800000000001,2866.8299999999999,-186.48400000000001
174337.0,11411.5,3294.9099999999999,5764.6999999999998,-5877.7299999999996,-260.13900000000001,2389.4699999999998,-3.1873100000000001
174338.0,10114.6,-662.92600000000004,5069.4499999999998,1910.5999999999999,902.625,4838.9700000000003,-1275.98
174339.0,10070.9,-20.877700000000001,5052.5699999999997,1591.04,733.59100000000001,4998.29,-1251.52
174340.0,10143.4,519.67700000000002,5150.3299999999999,1079.1700000000001,613.13300000000004,5104.2299999999996,-1215.9000000000001
174341.0,10212.799999999999,961.16300000000001,5236.2299999999996,435.95999999999998,531.69600000000003,5109.2700000000004,-1203.0
174342.0,10314.1,1290.02,5398.5799999999999,-255.483,416.56200000000001,5050.8000000000002,-1111.9300000000001
174343.0,10590.4,1742.8399999999999,5840.1499999999996,-877.947,403.38999999999999,4969.21,-1031.8499999999999
174344.0,10751.799999999999,1920.02,5901.8199999999997,-1764.95,344.87700000000001,4757.0299999999997,-1040.73
174345.0,10887.9,1749.3299999999999,5692.0299999999997,-2814.4699999999998,183.86099999999999,4526.2600000000002,-933.89400000000001
174346.0,11188.5,1748.5599999999999,5735.54,-3723.9699999999998,121.053,4302.8599999999997,-802.53300000000002
174347.0,11462.4,1811.79,5842.9700000000003,-4544.0600000000004,67.404799999999994,3990.5500000000002,-665.95500000000004
174348.0,11741.200000000001,1806.77,5911.9799999999996,-5340.1700000000001,15.0916,3643.54,-502.51400000000001
174349.0,12016.0,1841.6099999999999,5991.5100000000002,-6056.3699999999999,-21.1462,3249.9899999999998,-326.947
174350.0,12255.9,1885.01,6047.9899999999998,-6683.4300000000003,-52.246499999999997,2812.4200000000001,-131.453
174351.0,12425.5,1983.1500000000001,6076.8800000000001,-7171.3299999999999,-75.469800000000006,2332.6500000000001,65.422399999999996
174352.0,10704.9,-1516.1300000000001,5355.1099999999997,1057.4200000000001,1080.8299999999999,4820.1700000000001,-1320.8800000000001
174353.0,10681.9,-833.73299999999995,5418.54,815.16800000000001,919.19899999999996,5016.9200000000001,-1232.8599999999999
174354.0,10853.200000000001,-154.80099999999999,5626.96,337.40899999999999,844.13999999999999,5174.7799999999997,-1224.04
174355.0,10827.700000000001,233.81800000000001,5564.1499999999996,-454.81299999999999,741.77999999999997,5109.6999999999998,-1252.23
174356.0,10964.299999999999,565.87699999999995,5928.5299999999997,-1108.4200000000001,580.75099999999998,5004.75,-1083.47
174357.0,11422.4,1140.1300000000001,6712.3199999999997,-1562.3800000000001,602.59900000000005,4914.5500000000002,-1081.8699999999999
174358.0,11532.9,959.72799999999995,6342.9099999999999,-2738.54,530.23599999999999,4687.96,-1105.98
174359.0,11726.1,637.74400000000003,5980.0500000000002,-3950.5900000000001,379.15800000000002,4489.54,-912.43600000000004
174360.0,12127.799999999999,685.27599999999995,6144.5200000000004,-4853.9799999999996,337.60300000000001,4246.1599999999999,-801.07000000000005
174361.0,12428.0,552.56200000000001,6115.4700000000003,-5816.8599999999997,260.22000000000003,3917.2600000000002,-650.30600000000004
174362.0,12788.1,513.726,6222.8900000000003,-6632.8500000000004,214.982,3572.02,-465.36900000000003
174363.0,13123.1,483.64299999999997,6314.8299999999999,-7377.71,190.46799999999999,3174.6500000000001,-275.51900000000001
174364.0,13422.0,483.16899999999998,6380.2200000000003,-8031.3699999999999,162.898,2743.1599999999999,-65.543800000000005
174365.0,13628.4,525.85000000000002,6382.8299999999999,-8567.2099999999991,140.88800000000001,2263.04,144.84299999999999
174366.0,11367.0,-2535.71,5496.7700000000004,37.235599999999998,1276.4000000000001,4771.21,-1360.74
174367.0,11451.700000000001,-1538.0599999999999,6083.54,173.947,1057.22,5022.4200000000001,-1175.24
174368.0,11796.299999999999,-478.72699999999998,6697.75,-59.774500000000003,1188.95,5224.3800000000001,-1205.27
174369.0,11560.9,-359.42500000000001,6104.1199999999999,-1289.05,1052.9300000000001,5061.8800000000001,-1266.21
174370.0,11778.700000000001,-80.606300000000005,6601.3000000000002,-1947.3900000000001,745.07399999999996,4929.3100000000004,-1091.02
174371.0,12338.5,222.20599999999999,7222.7799999999997,-2551.3899999999999,799.84199999999998,4834.8699999999999,-1165.49
174372.0,12462.6,-138.066,6754.5500000000002,-3806.4200000000001,745.48000000000002,4615.4099999999999,-1079.0599999999999
174373.0,12804.799999999999,-348.06400000000002,6630.25,-4932.2299999999996,658.02999999999997,4419.1700000000001,-889.673
174374.0,13240.9,-493.68799999999999,6603.8199999999997,-6042.5799999999999,597.15099999999995,4157.1499999999996,-786.69299999999998
174375.0,13584.9,-744.50599999999997,6481.5500000000002,-7107.3000000000002,521.24400000000003,3825.8000000000002,-617.90999999999997
174376.0,13996.1,-913.25400000000002,6519.8699999999999,-8017.0,455.72300000000001,3474.46,-421.90899999999999
174377.0,14406.700000000001,-1038.77,6577.1499999999996,-8836.3400000000001,413.01600000000002,3093.6999999999998,-214.732
174378.0,14767.4,-1073.46,6658.0100000000002,-9520.0699999999997,397.97199999999998,2656.7199999999998,8.3240499999999997
174379.0,15016.200000000001,-1056.5999999999999,6707.6300000000001,-10039.299999999999,392.36399999999998,2170.98,237.78700000000001
174380.0,12128.0,-3526.3400000000001,5687.0500000000002,-941.726,1407.5,4751.2799999999997,-1374.3699999999999
174381.0,12418.700000000001,-2080.6500000000001,7011.8500000000004,-414.57900000000001,1235.71,5026.7600000000002,-1086.0999999999999
174382.0,12965.700000000001,-513.86500000000001,8360.1599999999999,-196.24600000000001,1529.72,5190.6700000000001,-1187.1700000000001
174383.0,12578.700000000001,-571.26599999999996,7411.5600000000004,-1687.22,1462.51,4932.6599999999999,-1282.5999999999999
174384.0,12741.200000000001,-867.27599999999995,7212.8900000000003,-2885.9000000000001,1030.4200000000001,4817.8500000000004,-1131.9300000000001
174385.0,13308.9,-913.74800000000005,7504.6499999999996,-3746.9099999999999,1021.66,4724.3900000000003,-1195.6600000000001
174386.0,13586.700000000001,-1276.3900000000001,7281.6099999999997,-4911.4700000000003,928.91200000000003,4514.96,-1047.76
174387.0,14087.299999999999,-1479.74,7298.2700000000004,-6027.0600000000004,888.92999999999995,4321.1599999999999,-897.375
174388.0,14562.9,-1717.6600000000001,7215.3000000000002,-7209.9200000000001,870.221,4045.1799999999998,-750.47900000000004
174389.0,14959.4,-2085.9099999999999,7010.4300000000003,-8380.1800000000003,811.36099999999999,3702.5500000000002,-596.46100000000001
174390.0,15376.700000000001,-2481.02,6833.5,-9467.3799999999992,733.173,3356.3299999999999,-361.24599999999998
174391.0,15908.700000000001,-2572.6799999999998,6997.71,-10271.200000000001,739.79899999999998,2992.8000000000002,-111.03100000000001
174392.0,16323.4,-2669.9000000000001,7085.8999999999996,-10984.799999999999,742.48500000000001,2539.1999999999998,92.291600000000003
174393.0,16575.0,-2809.4899999999998,7014.6599999999999,-11598.1,686.59699999999998,2071.79,338.64299999999997
174394.0,13018.700000000001,-4451.2799999999997,5836.6099999999997,-1957.5,1526.5899999999999,4878.4200000000001,-1250.8499999999999
174395.0,13594.299999999999,-2283.1999999999998,8261.4599999999991,-914.18700000000001,1462.4200000000001,5043.1300000000001,-1074.0699999999999
174396.0,14207.6,-603.06899999999996,10021.4,-481.11599999999999,1760.3099999999999,5038.5799999999999,-1264.8099999999999
174397.0,13885.200000000001,-930.00699999999995,8956.2700000000004,-1999.8199999999999,1723.24,4788.0100000000002,-1372.96
174398.0,13920.299999999999,-1753.8499999999999,7931.7299999999996,-3783.9499999999998,1367.0799999999999,4693.6400000000003,-1222.3099999999999
174399.0,14374.6,-2159.2800000000002,7714.1000000000004,-5069.54,1239.49,4582.1999999999998,-1203.01
174400.0,14837.0,-2595.3600000000001,7607.6199999999999,-6254.0200000000004,1141.5699999999999,4409.3599999999997,-1014.11
174401.0,15493.799999999999,-2762.54,7808.8100000000004,-7317.8900000000003,1160.9200000000001,4207.6300000000001,-864.17100000000005
174402.0,16052.9,-3064.8400000000001,7800.5200000000004,-8481.9699999999993,1136.7,3915.4899999999998,-722.65300000000002
174403.0,16486.599999999999,-3640.23,7418.21,-9820.9799999999996,1095.45,3578.3400000000001,-564.25900000000001
174404.0,16960.099999999999,-4124.5299999999997,7209.1800000000003,-10977.9,1043.8499999999999,3217.3699999999999,-274.43599999999998
174405.0,17632.799999999999,-4186.8199999999997,7580.3800000000001,-11700.299999999999,1047.45,2845.5300000000002,-14.9815
174406.0,18085.299999999999,-4432.6999999999998,7574.04,-12509.299999999999,1051.5899999999999,2402.0700000000002,167.36699999999999
174407.0,18299.099999999999,-4727.29,7310.21,-13229.200000000001,1021.39,1964.6099999999999,456.20100000000002
174408.0,14403.1,-4263.5900000000001,7532.8699999999999,-2306.7399999999998,2054.5999999999999,4916.96,-885.71600000000001
174409.0,14919.700000000001,-2181.4699999999998,9744.7399999999998,-1371.05,1880.23,5000.3500000000004,-1118.75
174410.0,15286.799999999999,-1357.47,10668.700000000001,-1441.28,1894.8,4871.5,-1423.24
174411.0,15225.1,-1808.29,9867.1100000000006,-2790.6599999999999,1848.53,4723.1099999999997,-1399.9300000000001
174412.0,15325.4,-2625.25,8780.0499999999993,-4650.8900000000003,1752.72,4595.8500000000004,-1290.96
174413.0,15614.200000000001,-3435.75,8015.1499999999996,-6401.3999999999996,1573.0899999999999,4413.4899999999998,-1164.24
174414.0,16270.200000000001,-3893.4400000000001,8085.9700000000003,-7583.04,1468.5999999999999,4253.75,-939.58199999999999
174415.0,17083.5,-4077.9899999999998,8442.1800000000003,-8610.3999999999996,1491.8699999999999,4046.4699999999998,-817.101
174416.0,17689.900000000001,-4613.8999999999996,8266.5200000000004,-9927.4799999999996,1482.8,3759.0799999999999,-674.30600000000004
174417.0,18220.700000000001,-5222.9899999999998,7969.3100000000004,-11237.700000000001,1486.49,3424.5700000000002,-455.46199999999999
174418.0,18838.200000000001,-5693.1499999999996,7900.1099999999997,-12385.9,1465.6900000000001,3043.8499999999999,-175.166
174419.0,19493.299999999999,-6022.1400000000003,8039.6300000000001,-13285.1,1432.78,2658.3899999999999,64.019499999999994
174420.0,19998.799999999999,-6366.9399999999996,7990.1199999999999,-14128.799999999999,1446.6199999999999,2278.6599999999999,308.589
174421.0,20191.599999999999,-6716.9300000000003,7662.29,-14863.1,1425.0599999999999,1860.3099999999999,568.07000000000005
174422.0,16322.700000000001,-3090.7399999999998,10840.6,-1664.3299999999999,2580.23,4723.2700000000004,-1046.25
174423.0,16299.0,-2327.25,11127.799999999999,-1908.1600000000001,2302.7199999999998,4796.2299999999996,-1311.6400000000001
174424.0,16316.200000000001,-2454.21,10775.799999999999,-2761.1700000000001,2169.9299999999998,4722.8599999999997,-1412.95
174425.0,16638.900000000001,-2764.4400000000001,10628.799999999999,-3799.5300000000002,2108.9699999999998,4623.1499999999996,-1300.72
174426.0,16977.700000000001,-3482.7199999999998,9888.6800000000003,-5490.71,2185.96,4441.3299999999999,-1298.24
174427.0,17194.799999999999,-4576.3500000000004,8849.3799999999992,-7468.4399999999996,1986.22,4192.0299999999997,-1105.3800000000001
174428.0,17956.200000000001,-5192.2200000000003,8817.3400000000001,-8844.1499999999996,1837.75,4045.6999999999998,-899.01599999999996
174429.0,18824.599999999999,-5623.2200000000003,8989.5699999999997,-10065.200000000001,1827.1900000000001,3846.48,-772.27200000000005
174430.0,19536.0,-6228.46,8883.2099999999991,-11362.299999999999,1848.98,3560.7199999999998,-595.65800000000002
174431.0,20218.700000000001,-6905.6700000000001,8700.2399999999998,-12691.0,1846.02,3209.3400000000001,-353.39400000000001
174432.0,20967.700000000001,-7407.7200000000003,8732.3099999999995,-13823.4,1843.51,2841.0700000000002,-89.326999999999998
174433.0,21572.900000000001,-8082.3900000000003,8504.2299999999996,-14983.1,1851.6900000000001,2439.1300000000001,143.36799999999999
174434.0,22100.599999999999,-8472.8400000000001,8514.3799999999992,-15718.4,1844.29,2113.8499999999999,477.07400000000001
174435.0,22431.799999999999,-8631.1000000000004,8436.1200000000008,-16285.799999999999,1971.4000000000001,1744.77,788.63699999999994
174436.0,18178.099999999999,-2939.5700000000002,12929.6,-1521.5,3039.6199999999999,4695.1599999999999,-1323.5899999999999
174437.0,17507.200000000001,-2990.8499999999999,11709.799999999999,-2822.9499999999998,2674.4400000000001,4647.04,-1482.0799999999999
174438.0,17538.400000000001,-3310.1199999999999,11409.700000000001,-3831.8600000000001,2399.73,4484.4899999999998,-1336.8
174439.0,18272.200000000001,-3791.25,11504.9,-4889.0500000000002,2440.5,4435.7299999999996,-1292.03
174440.0,18677.400000000001,-4580.3800000000001,10811.4,-6599.6499999999996,2449.1999999999998,4222.3999999999996,-1329.0899999999999
174441.0,19012.099999999999,-5833.1599999999999,9809.8799999999992,-8583.5799999999999,2288.98,3955.7399999999998,-1080.8499999999999
174442.0,19860.400000000001,-6605.0299999999997,9629.5,-10135.4,2246.6599999999999,3816.7800000000002,-866.74099999999999
174443.0,20743.900000000001,-7274.5500000000002,9585.2099999999991,-11550.799999999999,2234.79,3615.6900000000001,-700.53300000000002
174444.0,21559.400000000001,-8029.0799999999999,9429.5900000000001,-12980.1,2228.3400000000001,3335.9099999999999,-507.63200000000001
174445.0,22338.900000000001,-8778.1200000000008,9256.6700000000001,-14369.4,2220.3200000000002,2981.6599999999999,-266.54300000000001
174446.0,23147.200000000001,-9558.1499999999996,9111.1000000000004,-15682.700000000001,2219.2199999999998,2622.1100000000001,4.9270699999999996
174447.0,23784.400000000001,-10308.799999999999,8866.4799999999996,-16842.0,2240.3600000000001,2221.25,248.48099999999999
174448.0,24288.700000000001,-11002.9,8663.8400000000001,-17678.599999999999,2270.79,1877.1900000000001,649.52700000000004
174449.0,25147.900000000001,-10430.299999999999,9859.8099999999995,-17426.599999999999,2484.4699999999998,1535.78,1187.45
174450.0,20541.299999999999,-2199.5,16039.299999999999,-855.72500000000002,3755.8299999999999,4700.9499999999998,-1061.24
174451.0,19092.099999999999,-3130.7199999999998,12946.1,-3436.8099999999999,3571.29,4328.5699999999997,-1478.6800000000001
174452.0,18897.5,-4476.21,11941.299999999999,-5080.1199999999999,2577.52,4204.8500000000004,-1200.8499999999999
174453.0,20053.599999999999,-4782.8699999999999,12376.4,-6017.1599999999999,2866.4200000000001,4277.6499999999996,-1348.99
174454.0,20286.799999999999,-6022.6000000000004,11158.799999999999,-8160.3599999999997,2752.8099999999999,3971.52,-1291.04
174455.0,20889.099999999999,-7362.0,10403.200000000001,-10056.6,2617.3699999999999,3735.0900000000001,-1035.22
174456.0,21861.900000000001,-8273.3899999999994,10271.4,-11634.0,2601.6300000000001,3561.7800000000002,-827.76300000000003
174457.0,22884.400000000001,-9108.8799999999992,10206.5,-13155.4,2637.1599999999999,3370.9400000000001,-613.19500000000005
174458.0,23790.400000000001,-9936.75,10019.0,-14675.4,2690.7199999999998,3082.0100000000002,-413.565
174459.0,24652.099999999999,-10903.200000000001,9717.1399999999994,-16227.4,2695.4499999999998,2740.46,-148.41499999999999
174460.0,25488.099999999999,-11851.700000000001,9434.5400000000009,-17660.5,2719.6199999999999,2374.9200000000001,115.73699999999999
174461.0,26208.400000000001,-12823.700000000001,9089.8899999999994,-18939.700000000001,2777.4299999999998,1962.3199999999999,429.363
174462.0,26863.799999999999,-13435.6,9220.7299999999996,-19515.200000000001,2859.3800000000001,1513.01,867.36900000000003
174463.0,28106.200000000001,-12641.799999999999,11154.799999999999,-18879.299999999999,2893.0700000000002,1202.1600000000001,1516.45
174464.0,23258.900000000001,-1057.0599999999999,19974.799999999999,-79.218900000000005,4335.46,4351.0699999999997,-1299.01
174465.0,21065.799999999999,-3466.2199999999998,14892.6,-3721.1300000000001,4098.9899999999998,3776.4099999999999,-1711.4300000000001
174466.0,20711.099999999999,-5460.1499999999996,13037.0,-5981.04,3050.8899999999999,3918.4099999999999,-985.625
174467.0,22089.0,-5592.8400000000001,13573.9,-7045.8100000000004,3497.3600000000001,4026.9899999999998,-1323.8299999999999
174468.0,22216.099999999999,-7464.8599999999997,11836.200000000001,-9572.0799999999999,3277.7199999999998,3628.0100000000002,-1182.3800000000001
174469.0,22992.200000000001,-8930.9699999999993,11128.700000000001,-11515.700000000001,3125.8600000000001,3443.3299999999999,-972.35500000000002
174470.0,24016.099999999999,-10267.5,10675.799999999999,-13426.0,3053.9699999999998,3286.8299999999999,-738.24800000000005
174471.0,25216.599999999999,-11075.1,10818.5,-14893.5,3087.98,3108.2199999999998,-508.983
174472.0,26215.900000000001,-12154.4,10512.6,-16578.799999999999,3149.5900000000001,2802.6599999999999,-314.20699999999999
174473.0,27188.299999999999,-13218.6,10222.6,-18180.700000000001,3178.9200000000001,2480.52,-9.8025199999999995
174474.0,28133.0,-14348.9,9858.0499999999993,-19754.599999999999,3278.9699999999998,2077.8800000000001,261.97500000000002
174475.0,29017.599999999999,-15384.700000000001,9694.4099999999999,-20954.599999999999,3343.5300000000002,1592.77,632.25699999999995
174476.0,29789.400000000001,-16243.1,9762.3999999999996,-21700.200000000001,3314.3800000000001,1062.53,1014.17
174477.0,30985.0,-16004.6,11221.9,-21425.599999999999,3231.7600000000002,811.31299999999999,1682.95
174478.0,25042.400000000001,-2000.3299999999999,20802.099999999999,-1248.4100000000001,4746.0200000000004,3888.79,-1898.3699999999999
174479.0,22811.799999999999,-4737.8900000000003,15957.700000000001,-4620.7299999999996,4123.4300000000003,3440.3400000000001,-1629.52
174480.0,23261.299999999999,-5801.8000000000002,15440.799999999999,-6182.6999999999998,3702.71,3548.9099999999999,-947.41700000000003
174481.0,24570.599999999999,-6561.0600000000004,15363.1,-7886.6400000000003,4088.75,3511.1500000000001,-1302.3199999999999
174482.0,24710.900000000001,-8927.7299999999996,13249.200000000001,-10599.5,3827.9699999999998,3206.7199999999998,-1173.4200000000001
174483.0,25430.0,-10946.799999999999,11894.1,-13112.700000000001,3616.6900000000001,3111.0999999999999,-919.721
174484.0,26534.799999999999,-12316.9,11388.0,-15165.6,3565.3299999999999,3008.1300000000001,-645.85500000000002
174485.0,27745.299999999999,-13431.799999999999,11220.6,-16964.700000000001,3584.1100000000001,2792.5700000000002,-428.63799999999998
174486.0,28837.200000000001,-14665.5,10893.1,-18708.799999999999,3648.8099999999999,2491.6500000000001,-167.71799999999999
174487.0,30062.5,-15786.700000000001,10784.299999999999,-20312.799999999999,3780.5900000000001,2160.8099999999999,181.01300000000001
174488.0,31243.200000000001,-16948.0,10655.4,-21834.099999999999,3932.9499999999998,1680.6099999999999,433.298
174489.0,32226.0,-18426.700000000001,10235.700000000001,-23345.0,3927.5300000000002,1123.96,765.62599999999998
174490.0,33006.800000000003,-19895.599999999999,9740.1700000000001,-24595.900000000001,3868.77,607.40999999999997,1121.2
174491.0,34085.400000000001,-20537.5,10351.299999999999,-24959.400000000001,3725.1300000000001,374.71100000000001,1780.0999999999999
174492.0,26562.5,-3417.4699999999998,20990.200000000001,-2650.2600000000002,5220.5799999999999,3496.4099999999999,-1782.8800000000001
174493.0,25064.099999999999,-5650.8400000000001,17486.0,-5502.1199999999999,4553.9899999999998,3079.6300000000001,-1371.51
174494.0,25934.099999999999,-6751.1400000000003,17358.5,-7020.6499999999996,4173.9799999999996,3073.73,-1172.0599999999999
174495.0,26965.799999999999,-8539.0,16347.700000000001,-9307.7299999999996,4273.29,2997.4099999999999,-1454.6099999999999
174496.0,27218.900000000001,-11340.4,13842.6,-12371.6,4096.6499999999996,2870.5500000000002,-1235.9200000000001
174497.0,28077.099999999999,-13403.5,12444.9,-15051.700000000001,4034.1100000000001,2823.6300000000001,-841.71000000000004
174498.0,29376.400000000001,-14732.5,12062.799999999999,-17178.5,4104.21,2707.6799999999998,-558.37599999999998
174499.0,30584.200000000001,-16154.1,11573.799999999999,-19258.299999999999,4180.6300000000001,2454.75,-336.11200000000002
174500.0,31815.5,-17593.400000000001,11194.9,-21187.599999999999,4226.3199999999997,2120.0999999999999,4.7125599999999999
174501.0,33353.900000000001,-18750.5,11412.6,-22759.599999999999,4338.2399999999998,1716.7,350.63900000000001
174502.0,34728.800000000003,-20333.5,11146.4,-24554.900000000001,4450.7200000000003,1173.99,529.39599999999996
174503.0,35689.199999999997,-22658.099999999999,9960.9500000000007,-26721.900000000001,4378.1999999999998,631.38499999999999,804.67899999999997
174504.0,36425.300000000003,-25162.5,8480.1499999999996,-28882.799999999999,4160.4799999999996,158.709,1150.3599999999999
174505.0,37172.800000000003,-26960.400000000001,7752.9200000000001,-30240.400000000001,3800.6500000000001,-55.584299999999999,1716.49
174506.0,28734.599999999999,-4218.8299999999999,22557.400000000001,-3457.5500000000002,5523.8800000000001,3052.5,-1733.8299999999999
174507.0,27833.900000000001,-6662.1300000000001,19421.200000000001,-6290.8199999999997,4986.6499999999996,2623.9099999999999,-1700.9000000000001
174508.0,28205.599999999999,-9176.9300000000003,17469.799999999999,-9092.1100000000006,4487.5,2618.3800000000001,-1503.1300000000001
174509.0,28943.200000000001,-11902.200000000001,15393.6,-12090.0,4434.4700000000003,2671.3099999999999,-1537.1099999999999
174510.0,29599.0,-14641.1,13253.200000000001,-15177.700000000001,4387.75,2645.4299999999998,-1155.54
174511.0,30850.200000000001,-16470.599999999999,12392.4,-17741.599999999999,4434.3900000000003,2551.6900000000001,-782.96900000000005
174512.0,32310.299999999999,-17962.5,12059.0,-19960.599999999999,4517.5699999999997,2361.6500000000001,-492.02699999999999
174513.0,33687.300000000003,-19541.900000000001,11601.299999999999,-22118.900000000001,4649.9399999999996,2082.5900000000001,-235.345
174514.0,35116.099999999999,-21130.799999999999,11213.0,-24272.200000000001,4716.1899999999996,1709.5599999999999,124.51900000000001
174515.0,36715.300000000003,-22864.900000000001,10896.700000000001,-26512.799999999999,4720.8500000000004,1218.45,358.55700000000002
174516.0,37958.800000000003,-25538.799999999999,9571.8099999999995,-29207.099999999999,4621.1499999999996,615.76999999999998,469.82799999999997
174517.0,38828.300000000003,-29126.599999999999,7182.3299999999999,-32390.200000000001,4413.1099999999997,131.06800000000001,746.38300000000004
174518.0,39352.5,-32766.099999999999,4357.1899999999996,-35651.400000000001,4145.1899999999996,-198.36799999999999,1061.23
174519.0,39581.800000000003,-36086.5,1543.49,-38564.900000000001,3789.71,-317.94600000000003,1623.5799999999999
174520.0,6372.4899999999998,4983.6700000000001,1651.46,8261.7800000000007,-1176.54,-470.14499999999998,1003.29
174521.0,6378.5799999999999,4892.2700000000004,1531.3099999999999,8243.1200000000008,-1109.9200000000001,-244.52699999999999,1004.12
174522.0,6390.2700000000004,4920.7399999999998,1482.96,8280.3099999999995,-1047.3499999999999,-19.619,981.34400000000005
174523.0,6399.1599999999999,4941.3900000000003,1386.8699999999999,8231.7900000000009,-993.48099999999999,193.78100000000001,951.923
174524.0,6404.9399999999996,5040.6099999999997,1341.21,8199.1900000000005,-944.54200000000003,390.77800000000002,920.43700000000001
174525.0,6406.4899999999998,5120.8999999999996,1254.29,8093.5799999999999,-900.13,567.33500000000004,887.88099999999997
174526.0,6401.8800000000001,5252.5500000000002,1206.8199999999999,7999.5,-858.06200000000001,720.44600000000003,854.61199999999997
174527.0,6390.0,5358.6800000000003,1128.4300000000001,7850.6000000000004,-817.37900000000002,848.72000000000003,820.70799999999997
174528.0,6370.1099999999997,5493.5299999999997,1080.03,7711.7799999999997,-777.14599999999996,952.49900000000002,786.298
174529.0,6341.25,5598.8000000000002,1009.96,7535.3999999999996,-736.904,1032.29,750.75
174530.0,6304.8400000000001,5719.0799999999999,963.81500000000005,7371.2299999999996,-696.24099999999999,1090.45,714.38199999999995
174531.0,6256.2200000000003,5805.6999999999998,904.322,7181.25,-655.45100000000002,1128.4400000000001,676.64499999999998
174532.0,6199.4499999999998,5884.3900000000003,844.28999999999996,6986.1400000000003,-608.73699999999997,1145.3,636.92999999999995
174533.0,6148.3100000000004,5900.1300000000001,725.28999999999996,6737.7200000000003,-571.12900000000002,1144.1900000000001,600.19200000000001
174534.0,6794.0699999999997,4041.4000000000001,906.09100000000001,7622.6700000000001,-1291.29,-391.19799999999998,1507.0899999999999
174535.0,6784.6000000000004,4102.5,918.822,7753.5900000000001,-1188.23,-156.69800000000001,1486.75
174536.0,6788.5,4128.2700000000004,840.07399999999996,7772.7399999999998,-1101.3,78.908199999999994,1454.6800000000001
174537.0,6792.8800000000001,4239.54,803.44200000000001,7799.0900000000001,-1024.0999999999999,303.19600000000003,1415.73
174538.0,6797.8900000000003,4336.3699999999999,719.803,7745.1000000000004,-953.63499999999999,512.399,1374.5899999999999
174539.0,6799.5200000000004,4500.5200000000004,680.46100000000001,7702.5900000000001,-888.60500000000002,698.721,1331.9000000000001
174540.0,6796.1999999999998,4634.2600000000002,597.79999999999995,7587.0799999999999,-827.09199999999998,861.27599999999995,1288.3599999999999
174541.0,6785.5,4814.0299999999997,556.58299999999997,7487.3699999999999,-767.38599999999997,996.803,1243.8299999999999
174542.0,6767.0299999999997,4954.0,477.66800000000001,7327.8599999999997,-709.09500000000003,1107.01,1198.46
174543.0,6739.25,5124.7399999999998,438.185,7190.2600000000002,-650.62,1191.1600000000001,1151.9000000000001
174544.0,6703.1499999999996,5247.5799999999999,362.97000000000003,7002.0799999999999,-592.88800000000003,1253.0,1104.52
174545.0,6657.3500000000004,5392.4099999999999,326.94999999999999,6843.8999999999996,-534.226,1293.1700000000001,1053.4200000000001
174546.0,6610.7399999999998,5462.1599999999999,221.51599999999999,6619.2600000000002,-474.45600000000002,1313.1600000000001,997.697
174547.0,6564.7799999999997,5534.1499999999996,129.92400000000001,6408.5500000000002,-423.59199999999998,1312.03,948.351
174548.0,6580.1000000000004,4228.5100000000002,1286.99,7860.9200000000001,-1204.4200000000001,-433.49400000000003,1396.46
174549.0,6592.3699999999999,4295.0200000000004,1291.8900000000001,8024.8500000000004,-1105.79,-201.37,1358.6500000000001
174550.0,6618.4799999999996,4338.6999999999998,1219.02,8080.0500000000002,-1028.1300000000001,44.315399999999997,1319.76
174551.0,6643.5100000000002,4437.54,1162.27,8108.0299999999997,-961.74800000000005,279.113,1278.78
174552.0,6665.0799999999999,4550.3100000000004,1084.0599999999999,8072.6899999999996,-903.30600000000004,498.78899999999999,1237.95
174553.0,6681.2600000000002,4703.21,1024.03,8018.3500000000004,-849.36000000000001,695.51999999999998,1197.27
174554.0,6691.0,4852.4300000000003,945.971,7913.0900000000001,-799.03599999999994,866.83100000000002,1156.9300000000001
174555.0,6692.0500000000002,5026.9700000000003,888.55499999999995,7800.6499999999996,-749.48500000000001,1010.4,1116.1199999999999
174556.0,6683.8500000000004,5179.3400000000001,811.63499999999999,7644.5699999999997,-701.03099999999995,1126.98,1075.0999999999999
174557.0,6665.8800000000001,5347.1999999999998,757.62099999999998,7493.5799999999999,-651.39800000000002,1216.3900000000001,1032.79
174558.0,6637.8199999999997,5483.3900000000003,686.89800000000002,7309.29,-602.80999999999995,1282.45,989.67200000000003
174559.0,6600.4099999999999,5625.3000000000002,636.79399999999998,7137.2600000000002,-550.36400000000003,1325.71,943.49300000000005
174560.0,6561.3800000000001,5697.9899999999998,525.38699999999994,6903.0900000000001,-496.84300000000002,1348.1500000000001,897.596
174561.0,6520.5299999999997,5765.46,421.48000000000002,6674.5,-451.12,1349.5599999999999,856.44399999999996
174562.0,6758.1599999999999,4030.3400000000001,1148.1700000000001,7911.7399999999998,-1191.6500000000001,-485.62900000000002,1431.3199999999999
174563.0,6775.3800000000001,4111.0799999999999,1178.52,8106.9099999999999,-1094.6400000000001,-234.077,1397.8599999999999
174564.0,6800.2299999999996,4181.6999999999998,1131.9200000000001,8188.46,-1015.79,28.8308,1362.6199999999999
174565.0,6828.6899999999996,4286.79,1073.3800000000001,8220.3199999999997,-949.33199999999999,283.36700000000002,1322.5799999999999
174566.0,6853.4300000000003,4419.3500000000004,1003.4400000000001,8198.3700000000008,-891.58900000000006,519.64999999999998,1280.1600000000001
174567.0,6872.2600000000002,4585.0600000000004,941.37900000000002,8144.8800000000001,-838.42899999999997,731.92399999999998,1237.25
174568.0,6884.3900000000003,4757.7600000000002,871.19899999999996,8048.75,-788.928,916.86300000000006,1194.3099999999999
174569.0,6887.6300000000001,4943.3100000000004,807.47500000000002,7929.1899999999996,-740.43299999999999,1072.3800000000001,1151.0799999999999
174570.0,6880.8999999999996,5122.1599999999999,740.68299999999999,7780.6700000000001,-692.86900000000003,1199.1099999999999,1107.52
174571.0,6864.5500000000002,5299.4099999999999,678.15300000000002,7617.2399999999998,-644.03700000000003,1296.97,1063.26
174572.0,6836.8900000000003,5460.6800000000003,617.46000000000004,7436.8199999999997,-596.24599999999998,1370.22,1018.35
174573.0,6801.6999999999998,5607.3599999999997,554.01599999999996,7247.6300000000001,-543.36699999999996,1418.6700000000001,970.22199999999998
174574.0,6766.3699999999999,5701.0200000000004,446.56,7015.1700000000001,-492.779,1445.3699999999999,921.31899999999996
174575.0,6725.7600000000002,5784.6899999999996,345.57499999999999,6782.6800000000003,-448.75900000000001,1450.55,877.73500000000001
174576.0,6799.0600000000004,4051.4699999999998,1301.24,8116.5299999999997,-1148.3900000000001,-533.32500000000005,1431.6800000000001
174577.0,6826.2200000000003,4115.4700000000003,1308.8900000000001,8312.5300000000007,-1055.1300000000001,-267.875,1386.9100000000001
174578.0,6855.0,4209.5100000000002,1282.04,8426.8999999999996,-978.99800000000005,6.70871,1343.24
174579.0,6890.1000000000004,4324.0299999999997,1221.3099999999999,8468.2000000000007,-915.40800000000002,276.55099999999999,1300.1099999999999
174580.0,6924.2799999999997,4466.29,1148.01,8453.9699999999993,-863.20100000000002,528.11400000000003,1255.49
174581.0,6950.2600000000002,4639.0600000000004,1079.0899999999999,8399.8700000000008,-814.87699999999995,753.95600000000002,1211.51
174582.0,6969.3599999999997,4825.0299999999997,1006.8200000000001,8305.6499999999996,-770.42100000000005,951.30600000000004,1168.0699999999999
174583.0,6978.71,5021.3000000000002,938.26700000000005,8182.7799999999997,-726.62599999999998,1117.5999999999999,1124.98
174584.0,6977.3100000000004,5212.3000000000002,868.01999999999998,8030.3999999999996,-683.41200000000003,1253.46,1081.8399999999999
174585.0,6966.0100000000002,5400.5299999999997,800.44299999999998,7860.4700000000003,-638.64400000000001,1358.9100000000001,1038.22
174586.0,6941.2299999999996,5575.1099999999997,739.22799999999995,7675.5500000000002,-594.60199999999998,1438.3199999999999,993.07299999999998
174587.0,6909.6099999999997,5731.0100000000002,669.34500000000003,7477.1800000000003,-544.58900000000006,1490.49,945.20000000000005
174588.0,6879.9300000000003,5831.54,554.67200000000003,7235.0500000000002,-498.178,1521.1300000000001,899.26400000000001
174589.0,6845.0100000000002,5928.1499999999996,452.78899999999999,6998.2799999999997,-456.255,1531.47,858.154
174590.0,6912.9499999999998,3961.48,1314.04,8261.9599999999991,-1111.1500000000001,-596.48099999999999,1429.3499999999999
174591.0,6945.0600000000004,4008.1999999999998,1303.0999999999999,8452.2700000000004,-1021.6,-309.88400000000001,1381.52
174592.0,6977.3599999999997,4116.4399999999996,1291.8,8589.75,-950.04600000000005,-18.258199999999999,1335.4400000000001
174593.0,7014.2200000000003,4247.6000000000004,1240.0599999999999,8645.1800000000003,-887.92899999999997,268.86500000000001,1291.9300000000001
174594.0,7053.9399999999996,4406.4899999999998,1170.5,8641.2000000000007,-840.13199999999995,538.45799999999997,1246.71
174595.0,7085.1400000000003,4591.6599999999999,1099.96,8590.3600000000006,-795.67899999999997,780.08500000000004,1201.46
174596.0,7108.9099999999999,4797.4899999999998,1031.27,8502.0300000000007,-755.46100000000001,991.35599999999999,1156.99
174597.0,7122.75,5004.4899999999998,957.09900000000005,8374.0200000000004,-715.54200000000003,1170.1300000000001,1113.1099999999999
174598.0,7125.0,5218.2700000000004,892.45899999999995,8225.7299999999996,-675.98900000000003,1316.3,1069.22
174599.0,7116.4200000000001,5416.1499999999996,818.28999999999996,8045.1800000000003,-634.78999999999996,1430.6400000000001,1025.3900000000001
174600.0,7094.8900000000003,5610.04,759.74199999999996,7859.9200000000001,-593.31200000000001,1517.3099999999999,978.91600000000005
174601.0,7070.5,5762.3999999999996,665.67100000000005,7638.8800000000001,-547.24900000000002,1574.5699999999999,929.87400000000002
174602.0,7045.3199999999997,5883.6199999999999,557.98400000000004,7399.5299999999997,-505.48099999999999,1610.6199999999999,885.86400000000003
174603.0,7010.3800000000001,6001.4700000000003,465.00700000000001,7161.7600000000002,-464.10399999999998,1625.72,846.11099999999999
174604.0,6984.6000000000004,3921.23,1416.6500000000001,8441.3600000000006,-1062.6300000000001,-656.99800000000005,1423.21
174605.0,7024.54,3950.0700000000002,1381.4300000000001,8626.4200000000001,-976.43299999999999,-350.887,1370.71
174606.0,7059.4499999999998,4064.6599999999999,1374.51,8777.2600000000002,-910.89099999999996,-41.470300000000002,1318.8800000000001
174607.0,7098.3299999999999,4220.7399999999998,1341.4400000000001,8857.8299999999999,-851.72699999999998,261.09800000000001,1272.9000000000001
174608.0,7144.96,4391.9099999999999,1268.1600000000001,8859.9099999999999,-808.40999999999997,547.62300000000005,1226.4400000000001
174609.0,7183.4799999999996,4590.9700000000003,1195.8199999999999,8814.5699999999997,-769.65499999999997,804.86599999999999,1179.8499999999999
174610.0,7213.5,4808.5200000000004,1121.5999999999999,8725.1700000000001,-734.40099999999995,1029.5999999999999,1134.6800000000001
174611.0,7233.0900000000001,5034.7799999999997,1049.22,8600.7999999999993,-699.60000000000002,1220.45,1090.4000000000001
174612.0,7240.8599999999997,5257.6599999999999,975.471,8444.0799999999999,-664.46900000000005,1376.5799999999999,1046.48
174613.0,7235.0299999999997,5475.1400000000003,904.60799999999995,8263.0100000000002,-627.78099999999995,1499.74,1001.92
174614.0,7217.6800000000003,5676.8299999999999,836.18899999999996,8066.6400000000003,-589.01700000000005,1592.1900000000001,955.28200000000004
174615.0,7205.1400000000003,5830.1899999999996,721.07399999999996,7829.8800000000001,-547.92700000000002,1654.6700000000001,909.42399999999998
174616.0,7184.9799999999996,5964.7200000000003,613.64599999999996,7585.8100000000004,-510.72300000000001,1697.5599999999999,867.91800000000001
174617.0,7149.1700000000001,6116.1099999999997,540.803,7358.9200000000001,-470.67200000000003,1716.4000000000001,826.702
174618.0,7073.79,3824.5799999999999,1469.9100000000001,8582.0499999999993,-1012.73,-723.40300000000002,1415.5599999999999
174619.0,7118.2399999999998,3845.1399999999999,1423.3800000000001,8771.3700000000008,-927.85699999999997,-395.96699999999998,1360.5599999999999
174620.0,7159.5200000000004,3953.3800000000001,1401.01,8922.8899999999994,-869.34900000000005,-66.789400000000001,1301.72
174621.0,7197.5500000000002,4137.96,1394.1800000000001,9032.6499999999996,-815.04600000000005,252.375,1252.27
174622.0,7248.2700000000004,4330.96,1327.4200000000001,9048.5400000000009,-774.71299999999997,556.09400000000005,1205.97
174623.0,7295.5900000000001,4544.1999999999998,1251.0899999999999,9008.5599999999995,-742.72299999999996,830.36300000000006,1158.3499999999999
174624.0,7331.1400000000003,4781.0699999999997,1178.9200000000001,8925.1399999999994,-712.26300000000003,1069.8399999999999,1112.5899999999999
174625.0,7356.4399999999996,5021.8599999999997,1101.5899999999999,8798.3199999999997,-682.87,1273.22,1067.73
174626.0,7367.8000000000002,5265.4799999999996,1031.25,8643.0400000000009,-652.41700000000003,1440.3900000000001,1023.95
174627.0,7366.0600000000004,5496.1700000000001,954.46699999999998,8455.0599999999995,-619.47299999999996,1572.78,977.447
174628.0,7358.4200000000001,5699.8599999999997,864.89800000000002,8243.9500000000007,-586.00900000000001,1670.76,929.51400000000001
174629.0,7352.4499999999998,5859.6599999999999,739.61800000000005,7994.0200000000004,-550.37,1739.72,889.10900000000004
174630.0,7331.71,6030.4200000000001,656.31399999999996,7761.5299999999997,-514.27599999999995,1789.8499999999999,850.27999999999997
174631.0,7298.29,6201.8100000000004,586.33600000000001,7532.6700000000001,-476.57999999999998,1811.97,807.44200000000001
174632.0,7135.8400000000001,3742.6199999999999,1568.52,8730.6100000000006,-952.53399999999999,-790.02599999999995,1399.3699999999999
174633.0,7185.1499999999996,3760.1999999999998,1516.1500000000001,8930.2000000000007,-869.64999999999998,-443.30900000000003,1341.8299999999999
174634.0,7239.1499999999996,3848.23,1459.3800000000001,9070.3999999999996,-818.31100000000004,-92.567800000000005,1280.3699999999999
174635.0,7282.8699999999999,4053.3000000000002,1465.1600000000001,9205.2600000000002,-772.46900000000005,243.90700000000001,1224.26
174636.0,7334.3299999999999,4273.0,1413.6400000000001,9240.6900000000005,-735.74199999999996,563.51599999999996,1177.21
174637.0,7388.5799999999999,4506.3800000000001,1337.95,9208.7000000000007,-709.85400000000004,855.44600000000003,1130.53
174638.0,7431.54,4756.96,1260.6400000000001,9126.7999999999993,-685.72699999999998,1109.97,1083.6600000000001
174639.0,7462.96,5019.6099999999997,1184.48,9004.4899999999998,-662.13400000000001,1325.73,1038.8900000000001
174640.0,7479.2399999999998,5275.0200000000004,1107.2,8842.6900000000005,-637.36300000000006,1504.45,993.61500000000001
174641.0,7488.6099999999997,5518.9200000000001,1018.89,8652.1000000000004,-608.70100000000002,1644.8900000000001,945.91800000000001
174642.0,7496.3999999999996,5707.5200000000004,888.66300000000001,8409.2099999999991,-582.34299999999996,1750.3599999999999,903.279
174643.0,7490.1099999999997,5905.9799999999996,790.32600000000002,8174.3000000000002,-551.52999999999997,1827.3499999999999,866.51099999999997
174644.0,7464.6599999999999,6106.6999999999998,724.61699999999996,7946.3199999999997,-516.82500000000005,1881.95,825.13900000000001
174645.0,7436.3199999999997,6298.8000000000002,656.84699999999998,7717.7399999999998,-482.61200000000002,1907.25,782.44100000000003
174646.0,7200.1499999999996,3616.6700000000001,1639.8,8843.5200000000004,-886.14200000000005,-860.005,1379.22
174647.0,7249.4899999999998,3635.0799999999999,1590.47,9055.9200000000001,-806.68600000000004,-493.226,1319.54
174648.0,7309.5500000000002,3726.1999999999998,1525.54,9204.2700000000004,-760.12199999999996,-119.944,1257.6900000000001
174649.0,7363.9399999999996,3926.79,1512.3499999999999,9338.1599999999999,-724.24699999999996,236.47900000000001,1198.3900000000001
174650.0,7419.0900000000001,4181.9799999999996,1485.53,9407.5799999999999,-693.84000000000003,571.98000000000002,1147.3
174651.0,7477.9499999999998,4439.6400000000003,1412.73,9386.8799999999992,-672.577,880.25,1099.3699999999999
174652.0,7529.9499999999998,4708.4700000000003,1332.1800000000001,9310.3400000000001,-656.35799999999995,1150.8599999999999,1052.0699999999999
174653.0,7565.3999999999996,4989.1899999999996,1254.45,9187.8899999999994,-638.34100000000001,1380.0999999999999,1006.72
174654.0,7589.2600000000002,5265.8500000000004,1175.3299999999999,9029.0699999999997,-619.22299999999996,1569.6199999999999,960.50300000000004
174655.0,7614.0200000000004,5499.9700000000003,1050.79,8814.6000000000004,-596.68200000000002,1717.96,916.83299999999997
174656.0,7627.6300000000001,5710.4200000000001,923.61800000000005,8569.7299999999996,-576.30700000000002,1833.0799999999999,880.86099999999999
174657.0,7618.0100000000002,5944.2200000000003,846.779,8343.5200000000004,-548.62300000000005,1917.5,842.57500000000005
174658.0,7596.2600000000002,6169.3999999999996,787.48199999999997,8120.2700000000004,-517.96500000000003,1976.22,798.25699999999995
174659.0,7574.6400000000003,6375.8199999999997,714.87300000000005,7886.2799999999997,-487.798,2005.5599999999999,756.32799999999997
174660.0,7248.2399999999998,3481.3200000000002,1731.3199999999999,8944.1599999999999,-810.29100000000005,-930.14400000000001,1354.8099999999999
174661.0,7297.1300000000001,3506.8400000000001,1690.1300000000001,9176.7000000000007,-734.99800000000005,-544.22400000000005,1289.79
174662.0,7361.0299999999997,3599.52,1615.4400000000001,9332.3899999999994,-693.14499999999998,-150.18000000000001,1224.5899999999999
174663.0,7424.7399999999998,3806.1300000000001,1590.28,9472.8700000000008,-667.23500000000001,227.14099999999999,1163.01
174664.0,7488.21,4079.2199999999998,1569.54,9561.4500000000007,-646.01999999999998,580.41700000000003,1110.3599999999999
174665.0,7554.75,4365.5,1502.8399999999999,9559.5799999999999,-629.947,904.72199999999998,1062.3900000000001
174666.0,7613.75,4650.8100000000004,1416.6900000000001,9484.0699999999997,-622.47000000000003,1191.8599999999999,1015.53
174667.0,7656.8100000000004,4955.1899999999996,1339.26,9369.7700000000004,-609.75699999999995,1435.02,967.322
174668.0,7694.4799999999996,5229.6199999999999,1228.5,9193.2900000000009,-599.28099999999995,1633.4400000000001,920.95799999999997
174669.0,7726.6199999999999,5481.0299999999997,1102.78,8977.1000000000004,-584.21600000000001,1791.53,885.01999999999998
174670.0,7740.0900000000001,5728.4499999999998,995.19299999999998,8742.4699999999993,-567.46600000000001,1916.6199999999999,850.17600000000004
174671.0,7736.0299999999997,5987.54,921.62199999999996,8519.4599999999991,-544.928,2007.55,809.10299999999995
174672.0,7721.4499999999998,6227.96,858.65800000000002,8292.3099999999995,-518.90200000000004,2071.6199999999999,766.62900000000002
174673.0,7705.3400000000001,6454.7700000000004,787.47199999999998,8057.1800000000003,-492.08999999999997,2105.2199999999998,726.34500000000003
174674.0,7286.6300000000001,3313.04,1816.8199999999999,9011.3600000000006,-724.66899999999998,-1002.45,1325.3199999999999
174675.0,7338.6000000000004,3338.48,1774.6099999999999,9259.8099999999995,-655.84699999999998,-596.678,1255.46
174676.0,7409.0699999999997,3441.9400000000001,1698.47,9434.8500000000004,-620.03099999999995,-182.739,1188.51
174677.0,7482.5699999999997,3643.1500000000001,1647.3599999999999,9571.6299999999992,-604.005,216.33600000000001,1124.28
174678.0,7551.6199999999999,3947.6799999999998,1644.24,9689.8299999999999,-593.01800000000003,588.36599999999999,1069.0599999999999
174679.0,7622.8599999999997,4259.9300000000003,1584.3299999999999,9704.2600000000002,-583.09500000000003,929.44600000000003,1021.4400000000001
174680.0,7688.8299999999999,4574.5699999999997,1502.6900000000001,9643.0499999999993,-583.25999999999999,1233.2,972.87
174681.0,7747.3000000000002,4882.6800000000003,1398.1500000000001,9519.9599999999991,-577.98400000000004,1489.1099999999999,923.95600000000002
174682.0,7801.7799999999997,5158.3000000000002,1259.48,9329.8099999999995,-578.16399999999999,1698.6400000000001,883.63
174683.0,7833.4200000000001,5447.79,1156.77,9127.6299999999992,-570.14400000000001,1868.8900000000001,849.48099999999999
174684.0,7844.9899999999998,5739.1499999999996,1074.1099999999999,8910.1000000000004,-556.04399999999998,2001.6099999999999,813.81600000000003
174685.0,7849.3100000000004,6009.3100000000004,987.60799999999995,8675.9599999999991,-538.74599999999998,2099.0599999999999,775.274
174686.0,7841.2799999999997,6276.6199999999999,932.27700000000004,8455.3899999999994,-517.87199999999996,2168.9899999999998,733.60500000000002
174687.0,7830.5799999999999,6515.5600000000004,853.92200000000003,8211.3799999999992,-495.25999999999999,2206.5799999999999,693.78200000000004
174688.0,7312.4700000000003,3124.98,1914.97,9056.0599999999995,-628.39200000000005,-1076.76,1289.8
174689.0,7366.6400000000003,3159.52,1878.6600000000001,9328.5,-567.21699999999998,-650.07600000000002,1215.99
174690.0,7441.4799999999996,3262.6599999999999,1792.6099999999999,9512.2700000000004,-539.40999999999997,-216.03100000000001,1148.4400000000001
174691.0,7523.6199999999999,3482.4499999999998,1739.6900000000001,9669.9599999999991,-531.77200000000005,205.322,1083.8699999999999
174692.0,7602.5299999999997,3788.3899999999999,1714.95,9787.75,-532.899,596.50999999999999,1024.3900000000001
174693.0,7677.96,4144.9200000000001,1683.4000000000001,9840.6700000000001,-531.65499999999997,954.40999999999997,974.57799999999997
174694.0,7757.1300000000001,4470.21,1579.4100000000001,9777.9300000000003,-537.38199999999995,1273.55,925.327
174695.0,7833.5600000000004,4784.4700000000003,1448.1400000000001,9647.8199999999997,-545.00999999999999,1542.49,880.69200000000001
174696.0,7892.79,5083.3500000000004,1313.8599999999999,9460.2299999999996,-552.92399999999998,1766.29,847.48800000000006
174697.0,7926.7700000000004,5422.04,1237.1700000000001,9281.5799999999999,-550.39200000000005,1948.3900000000001,811.44000000000005
174698.0,7943.5100000000002,5731.2299999999996,1149.45,9061.6100000000006,-543.14800000000002,2087.73,773.58900000000006
174699.0,7953.7600000000002,6037.79,1076.3099999999999,8841.2099999999991,-531.00999999999999,2191.3499999999999,736.17999999999995
174700.0,7952.7700000000004,6310.8400000000001,1005.84,8604.7000000000007,-515.61699999999996,2267.27,696.09699999999998
174701.0,7948.5200000000004,6579.1800000000003,936.976,8369.1599999999999,-497.34100000000001,2309.4699999999998,657.80100000000004
174702.0,7331.5600000000004,2901.04,2010.4300000000001,9063.8700000000008,-522.43499999999995,-1152.6600000000001,1249.6199999999999
174703.0,7386.2399999999998,2937.7600000000002,1970.0699999999999,9352.0699999999997,-468.98399999999998,-705.20299999999997,1171.5799999999999
174704.0,7462.6099999999997,3061.2600000000002,1895.22,9566.0300000000007,-451.10399999999998,-250.82499999999999,1100.74
174705.0,7553.4300000000003,3289.2399999999998,1828.47,9736.7399999999998,-450.79300000000001,190.64400000000001,1034.9200000000001
174706.0,7644.6499999999996,3603.29,1783.6600000000001,9860.6200000000008,-465.53899999999999,603.78200000000004,973.93799999999999
174707.0,7726.9399999999996,3989.9099999999999,1764.9400000000001,9940.9799999999996,-474.65100000000001,979.38800000000003,921.13800000000003
174708.0,7818.0200000000004,4337.25,1648.5899999999999,9886.5300000000007,-487.48599999999999,1312.01,875.75800000000004
174709.0,7905.5299999999997,4661.3699999999999,1499.9100000000001,9748.7399999999998,-508.91699999999997,1597.1900000000001,838.173
174710.0,7965.1899999999996,5017.3999999999996,1403.3,9596.7099999999991,-522.64499999999998,1835.45,803.38800000000003
174711.0,8005.7600000000002,5378.71,1319.9300000000001,9416.7900000000009,-526.80200000000002,2027.0799999999999,766.60299999999995
174712.0,8033.2600000000002,5716.0600000000004,1234.5699999999999,9205.8700000000008,-527.38499999999999,2175.1500000000001,730.93799999999999
174713.0,8050.7700000000004,6039.7799999999997,1154.4300000000001,8981.2199999999993,-520.95899999999995,2285.1300000000001,694.38099999999997
174714.0,8056.4799999999996,6338.0100000000002,1087.6099999999999,8747.9099999999999,-511.38,2366.6799999999998,656.12699999999995
174715.0,8058.75,6620.8500000000004,1012.72,8505.4200000000001,-497.87799999999999,2413.7199999999998,619.13499999999999
174716.0,7340.0900000000001,2652.52,2117.79,9040.5,-404.65300000000002,-1229.4400000000001,1203.21
174717.0,7394.9899999999998,2700.3600000000001,2081.5,9354.9699999999993,-360.38900000000001,-761.23500000000001,1121.4300000000001
174718.0,7474.3100000000004,2830.0500000000002,2000.01,9586.5900000000001,-353.666,-286.87200000000001,1048.03
174719.0,7573.2600000000002,3081.6999999999998,1935.4100000000001,9787.2700000000004,-363.05599999999998,174.21299999999999,983.63999999999999
174720.0,7678.6499999999996,3393.0700000000002,1857.4100000000001,9910.2099999999991,-389.95699999999999,609.82100000000003,922.01400000000001
174721.0,7776.3800000000001,3801.02,1829.77,10011.4,-411.673,1003.51,865.197
174722.0,7872.2399999999998,4167.1800000000003,1705.3299999999999,9961.1599999999999,-436.30799999999999,1350.77,823.11000000000001
174723.0,7958.8500000000004,4551.3999999999996,1595.02,9860.5599999999995,-466.78500000000003,1653.1800000000001,788.97299999999996
174724.0,8024.8599999999997,4933.6400000000003,1495.8099999999999,9713.6000000000004,-487.26299999999998,1904.98,752.74800000000005
174725.0,8075.8400000000001,5330.5,1417.6099999999999,9549.6000000000004,-500.72500000000002,2105.8800000000001,717.03399999999999
174726.0,8112.6400000000003,5684.5600000000004,1321.99,9334.3299999999999,-508.68200000000002,2262.9200000000001,683.38300000000004
174727.0,8138.6199999999999,6039.5600000000004,1247.6700000000001,9119.4400000000005,-508.90899999999999,2379.8600000000001,648.77200000000005
174728.0,8151.54,6350.2299999999996,1171.02,8877.0400000000009,-505.27300000000002,2467.1799999999998,612.33699999999999
174729.0,8160.6700000000001,6660.1800000000003,1101.6600000000001,8639.5400000000009,-497.06700000000001,2519.1900000000001,577.06200000000001
174730.0,7346.1800000000003,2365.75,2222.6300000000001,8973.3199999999997,-275.76400000000001,-1307.6199999999999,1152.1600000000001
174731.0,7399.5600000000004,2414.29,2180.21,9305.4899999999998,-241.88499999999999,-818.66099999999994,1066.29
174732.0,7479.3199999999997,2572.5100000000002,2111.23,9576.3099999999995,-246.655,-324.76400000000001,990.71400000000006
174733.0,7581.3400000000001,2833.2399999999998,2036.55,9792.7700000000004,-268.02499999999998,156.28999999999999,926.19500000000005
174734.0,7698.5,3175.4899999999998,1959.6700000000001,9949.6700000000001,-305.05900000000003,613.33399999999995,867.02099999999996
174735.0,7813.4099999999999,3571.23,1882.4400000000001,10034.799999999999,-341.84500000000003,1027.76,813.41700000000003
174736.0,7913.3900000000003,3990.7600000000002,1787.2,10026.299999999999,-380.214,1393.1300000000001,770.72799999999995
174737.0,7999.7399999999998,4414.9099999999999,1689.9200000000001,9945.8199999999997,-418.07600000000002,1709.8800000000001,733.08500000000004
174738.0,8074.7200000000003,4841.1400000000003,1600.8,9822.1000000000004,-448.11799999999999,1974.01,697.33100000000002
174739.0,8136.5200000000004,5252.3400000000001,1506.5899999999999,9653.2900000000009,-470.98599999999999,2185.52,664.34500000000003
174740.0,8182.3699999999999,5644.8900000000003,1420.78,9454.9200000000001,-486.89800000000002,2351.3299999999999,632.54499999999996
174741.0,8216.7299999999996,6010.8999999999996,1331.23,9229.2999999999993,-494.23899999999998,2475.3899999999999,600.16099999999994
174742.0,8237.1200000000008,6355.54,1265.3299999999999,8999.2000000000007,-496.79599999999999,2568.6399999999999,565.70500000000004
174743.0,8253.3299999999999,6674.2600000000002,1182.6199999999999,8748.6700000000001,-494.34500000000003,2625.5700000000002,532.30999999999995
174744.0,7345.7799999999997,2049.2199999999998,2339.96,8865.0300000000007,-133.315,-1385.75,1093.6199999999999
174745.0,7396.4300000000003,2116.4899999999998,2307.9299999999998,9234.0300000000007,-111.645,-877.54899999999998,1004.33
174746.0,7476.5,2275.4400000000001,2220.3200000000002,9518.6499999999996,-129.52500000000001,-364.45800000000003,927.85900000000004
174747.0,7583.0100000000002,2575.1199999999999,2162.6399999999999,9785.4699999999993,-164.23599999999999,136.19499999999999,862.548
174748.0,7706.3000000000002,2924.21,2063.8600000000001,9951.9099999999999,-212.464,613.87800000000004,805.40800000000002
174749.0,7826.9499999999998,3357.73,1990.1800000000001,10064.9,-263.71499999999997,1050.8800000000001,755.00800000000004
174750.0,7934.6899999999996,3797.3299999999999,1885.21,10067.299999999999,-315.54199999999997,1436.03,711.12199999999996
174751.0,8029.9399999999996,4274.0799999999999,1805.8800000000001,10025.4,-363.51999999999998,1766.6099999999999,672.30100000000004
174752.0,8114.8400000000001,4715.8299999999999,1697.1199999999999,9898.3600000000006,-404.94099999999997,2042.9300000000001,638.28200000000004
174753.0,8186.2399999999998,5172.6199999999999,1616.74,9755.0599999999995,-437.29300000000001,2265.46,607.29100000000005
174754.0,8241.5799999999999,5577.4899999999998,1513.05,9547.7000000000007,-461.947,2440.1199999999999,577.94600000000003
174755.0,8284.7299999999996,5983.7299999999996,1436.1400000000001,9340.6700000000001,-476.86000000000001,2571.5599999999999,547.77099999999996
174756.0,8313.0100000000002,6336.5900000000001,1354.1500000000001,9097.1000000000004,-486.18599999999998,2670.8800000000001,515.38400000000001
174757.0,8336.5300000000007,6689.71,1282.9300000000001,8858.9899999999998,-489.73099999999999,2732.9699999999998,484.05399999999997
174758.0,7355.5600000000004,1685.29,2449.1199999999999,8702.5699999999997,20.129200000000001,-1465.4300000000001,1031.99
174759.0,7398.9899999999998,1754.8499999999999,2409.6100000000001,9092.1000000000004,28.816600000000001,-937.76999999999998,938.87099999999998
174760.0,7473.1400000000003,1954.24,2343.5700000000002,9430.0799999999999,-2.8571399999999998,-406.62,860.73000000000002
174761.0,7582.6300000000001,2259.6999999999998,2267.8299999999999,9716.9699999999993,-51.067900000000002,113.544,795.69799999999998
174762.0,7708.29,2659.3600000000001,2189.77,9938.0,-112.33199999999999,613.096,738.27599999999995
174763.0,7831.25,3106.8699999999999,2095.1599999999999,10057.5,-177.75899999999999,1072.51,687.12300000000005
174764.0,7945.3199999999997,3599.7800000000002,2007.99,10101.9,-243.45500000000001,1477.1400000000001,643.57100000000003
174765.0,8049.9499999999998,4090.29,1906.0799999999999,10060.299999999999,-303.74799999999999,1822.8800000000001,606.89099999999996
174766.0,8143.9099999999999,4586.0,1815.28,9969.0100000000002,-356.798,2111.8899999999999,575.20699999999999
174767.0,8224.8500000000004,5053.54,1711.8599999999999,9816.5400000000009,-399.50099999999998,2345.4699999999998,546.56799999999998
174768.0,8289.7800000000007,5506.6199999999999,1624.6500000000001,9636.2800000000007,-433.39299999999997,2529.25,519.84100000000001
174769.0,8341.7900000000009,5920.1400000000003,1526.0699999999999,9414.8600000000006,-456.363,2668.1399999999999,492.22399999999999
174770.0,8378.2299999999996,6314.8400000000001,1460.6600000000001,9191.6100000000006,-472.80500000000001,2773.6799999999998,462.21499999999997
174771.0,8409.2199999999993,6672.6400000000003,1370.5,8936.5200000000004,-482.79700000000003,2840.8800000000001,433.02999999999997
174772.0,7361.96,1300.3199999999999,2588.9000000000001,8496.9799999999996,191.00999999999999,-1543.96,958.93700000000001
174773.0,7395.3999999999996,1391.5599999999999,2558.1700000000001,8927.5900000000001,183.19200000000001,-999.24199999999996,863.06899999999996
174774.0,7466.9099999999999,1586.0599999999999,2463.8299999999999,9281.0900000000001,135.215,-452.31799999999998,786.67700000000002
174775.0,7580.6700000000001,1939.6199999999999,2408.8000000000002,9636.9400000000005,72.254099999999994,86.961600000000004,723.58900000000006
174776.0,7710.3900000000003,2341.1500000000001,2299.3099999999999,9869.7000000000007,-3.36836,611.16700000000003,666.798
174777.0,7832.8299999999999,2851.7800000000002,2230.0500000000002,10045.4,-84.013000000000005,1093.8399999999999,615.29700000000003
174778.0,7949.3400000000001,3353.6999999999998,2113.3099999999999,10086.5,-164.57499999999999,1517.22,572.74000000000001
174779.0,8060.0799999999999,3907.27,2036.3299999999999,10093.299999999999,-238.185,1878.6199999999999,537.44600000000003
174780.0,8162.1899999999996,4411.5900000000001,1916.77,9993.4400000000005,-303.45400000000001,2180.54,507.94799999999998
174781.0,8252.2399999999998,4937.6400000000003,1835.95,9879.6200000000008,-357.30799999999999,2425.3899999999999,481.94900000000001
174782.0,8326.7199999999993,5397.0600000000004,1721.8499999999999,9685.1599999999999,-401.04000000000002,2618.3899999999999,457.97500000000002
174783.0,8387.8899999999994,5861.9399999999996,1644.01,9493.5900000000001,-432.69600000000003,2764.9499999999998,432.983
174784.0,8432.7800000000007,6259.1499999999996,1554.75,9251.5499999999993,-456.755,2876.8899999999999,405.37400000000002
174785.0,8471.4699999999993,6660.4899999999998,1483.48,9018.0799999999999,-473.53300000000002,2949.48,378.50400000000002
174786.0,7402.3900000000003,837.70699999999999,2688.8200000000002,8207.9200000000001,370.48200000000003,-1624.1400000000001,888.17999999999995
174787.0,7416.9899999999998,937.09400000000005,2653.2199999999998,8664.9899999999998,345.55799999999999,-1062.28,788.42999999999995
174788.0,7474.0100000000002,1189.51,2596.46,9094.3999999999996,282.27100000000002,-502.97199999999998,711.33199999999999
174789.0,7588.9499999999998,1544.54,2516.3699999999999,9479.1100000000006,205.761,56.077300000000001,649.33100000000002
174790.0,7715.6099999999997,2018.03,2444.3099999999999,9794.1599999999999,115.548,607.86300000000006,590.78700000000003
174791.0,7832.5900000000001,2531.71,2336.48,9965.4599999999991,17.9681,1114.6600000000001,538.84100000000001
174792.0,7946.3599999999997,3109.0799999999999,2253.8699999999999,10068.6,-78.338300000000004,1556.3699999999999,497.07799999999997
174793.0,8060.9899999999998,3665.9299999999998,2139.96,10064.700000000001,-166.28299999999999,1933.4200000000001,463.714
174794.0,8169.8599999999997,4240.5500000000002,2051.23,10018.200000000001,-244.64699999999999,2248.77,436.78399999999999
174795.0,8268.4500000000007,4769.1099999999997,1935.22,9888.1399999999994,-310.32100000000003,2504.8600000000001,413.59199999999998
174796.0,8352.2999999999993,5291.5500000000002,1848.77,9736.1200000000008,-364.57799999999997,2707.48,392.58300000000003
174797.0,8422.3999999999996,5756.3100000000004,1738.98,9523.4500000000007,-405.375,2861.6900000000001,370.524
174798.0,8475.8799999999992,6206.8599999999997,1675.4400000000001,9313.5400000000009,-437.50799999999998,2980.21,345.678
174799.0,8522.1800000000003,6605.9700000000003,1576.8199999999999,9056.6800000000003,-461.459,3058.0900000000001,321.26999999999998
174800.0,7435.54,396.85899999999998,2876.8899999999999,7892.5,575.57299999999998,-1699.1099999999999,793.03099999999995
174801.0,7428.29,512.85599999999999,2842.2199999999998,8387.5200000000004,526.452,-1128.04,692.17200000000003
174802.0,7483.1400000000003,742.55999999999995,2732.5500000000002,8831.2800000000007,442.80700000000002,-561.53999999999996,625.06200000000001
174803.0,7609.1400000000003,1158.6800000000001,2682.5100000000002,9324.0200000000004,351.77300000000002,18.145199999999999,569.95100000000002
174804.0,7733.9899999999998,1614.9000000000001,2551.02,9639.2800000000007,244.887,604.06299999999999,511.49299999999999
174805.0,7832.7799999999997,2224.8899999999999,2494.0500000000002,9892.9599999999991,128.68600000000001,1135.3399999999999,457.49200000000002
174806.0,7939.3800000000001,2792.5799999999999,2358.4499999999998,9974.3899999999994,15.596299999999999,1594.3599999999999,417.262
174807.0,8054.2799999999997,3439.0999999999999,2291.4000000000001,10046.200000000001,-87.715100000000007,1987.3,385.911
174808.0,8168.0299999999997,4004.8899999999999,2152.5900000000001,9975.25,-179.99000000000001,2316.0500000000002,361.596
174809.0,8274.0100000000002,4616.0200000000004,2079.0900000000001,9909.0300000000007,-258.233,2583.8899999999999,341.42599999999999
174810.0,8366.5499999999993,5129.4099999999999,1946.6900000000001,9728.4500000000007,-323.71199999999999,2795.96,323.60000000000002
174811.0,8445.7000000000007,5666.0,1874.8699999999999,9566.7800000000007,-374.303,2958.29,304.45299999999997
174812.0,8507.6499999999996,6105.4200000000001,1771.5,9324.9899999999998,-414.995,3083.4200000000001,282.41300000000001
174813.0,8561.8199999999997,6564.6199999999999,1706.53,9106.6000000000004,-446.53300000000002,3167.0799999999999,260.51400000000001
174814.0,7534.8699999999999,-210.53399999999999,2926.8099999999999,7404.3800000000001,781.53700000000003,-1775.95,716.61199999999997
174815.0,7495.3500000000004,-66.717500000000001,2905.4299999999998,7950.1099999999997,705.89700000000005,-1196.0799999999999,610.33799999999997
174816.0,7532.2600000000002,249.477,2864.9699999999998,8513.4699999999993,608.47900000000004,-633.92100000000005,547.34199999999998
174817.0,7670.79,660.32000000000005,2783.96,9066.7700000000004,510.279,-26.557099999999998,493.85500000000002
174818.0,7769.04,1233.0799999999999,2724.0700000000002,9502.5599999999995,386.18299999999999,601.78399999999999,426.84300000000002
174819.0,7838.1499999999996,1820.7,2593.9499999999998,9716.0599999999995,248.078,1155.71,372.14699999999999
174820.0,7930.46,2500.8200000000002,2525.4499999999998,9897.8899999999994,117.877,1631.1500000000001,333.40300000000002
174821.0,8042.1999999999998,3124.75,2391.3200000000002,9935.3799999999992,-2.11713,2039.75,304.11099999999999
174822.0,8157.8000000000002,3793.21,2311.0599999999999,9951.3500000000004,-108.991,2382.4000000000001,282.71899999999999
174823.0,8269.5,4385.0100000000002,2176.54,9848.7900000000009,-200.71100000000001,2661.77,265.654
174824.0,8370.0400000000009,4989.0900000000001,2095.3400000000001,9739.3400000000001,-278.03100000000001,2883.96,251.14699999999999
174825.0,8457.3299999999999,5507.2200000000003,1970.0699999999999,9539.2999999999993,-338.98000000000002,3054.1999999999998,235.327
174826.0,8527.6700000000001,6021.6800000000003,1911.6400000000001,9352.0300000000007,-388.71199999999999,3186.2199999999998,216.34200000000001
174827.0,8589.0799999999999,6462.6800000000003,1801.74,9094.9699999999993,-428.26600000000002,3275.3200000000002,197.26300000000001
174828.0,7586.1800000000003,-609.69000000000005,3305.6100000000001,6983.46,1034.2,-1828.99,591.53499999999997
174829.0,7520.1300000000001,-529.58100000000002,3190.46,7504.9799999999996,912.34000000000003,-1270.27,486.66699999999997
174830.0,7597.5100000000002,-280.10199999999998,3039.0700000000002,8114.6899999999996,792.14400000000001,-732.87800000000004,448.21800000000002
174831.0,7778.1999999999998,202.14099999999999,2990.73,8856.9799999999996,689.29700000000003,-81.536000000000001,411.27100000000002
174832.0,7837.6400000000003,726.51199999999994,2814.1300000000001,9243.3099999999995,537.56100000000004,606.12400000000002,339.32100000000003
174833.0,7848.6899999999996,1466.3399999999999,2784.3600000000001,9574.7800000000007,376.988,1174.76,281.947
174834.0,7925.8500000000004,2096.8800000000001,2621.0599999999999,9703.75,228.88,1666.22,245.72999999999999
174835.0,8026.8999999999996,2853.3800000000001,2571.2600000000002,9859.9599999999991,90.862499999999997,2090.8200000000002,218.47300000000001
174836.0,8141.4399999999996,3482.9200000000001,2406.9499999999998,9824.5499999999993,-31.199400000000001,2446.96,200.01499999999999
174837.0,8256.3700000000008,4192.6899999999996,2345.23,9822.1700000000001,-137.464,2738.7600000000002,186.28
174838.0,8363.0300000000007,4763.9200000000001,2190.7399999999998,9662.4300000000003,-227.15199999999999,2970.5100000000002,175.291
174839.0,8458.3299999999999,5381.5500000000002,2127.1999999999998,9541.7800000000007,-299.322,3149.5,162.72499999999999
174840.0,8536.3199999999997,5866.4200000000001,2008.1300000000001,9305.2800000000007,-358.46199999999999,3288.2800000000002,146.81200000000001
174841.0,8605.3600000000006,6387.8100000000004,1950.0999999999999,9107.4300000000003,-406.55599999999998,3383.6300000000001,130.49199999999999
174842.0,7804.5100000000002,-1585.6199999999999,2962.0,6034.29,1284.3099999999999,-1954.6300000000001,369.19900000000001
174843.0,7668.9200000000001,-1367.97,3032.3699999999999,6724.9399999999996,1084.8099999999999,-1387.25,295.44900000000001
174844.0,7778.4300000000003,-945.24300000000005,3123.73,7606.1400000000003,969.76900000000001,-891.28800000000001,370.589
174845.0,8010.46,-440.79599999999999,3068.54,8533.7000000000007,893.31100000000004,-131.84399999999999,345.82900000000001
174846.0,7922.7600000000002,307.54500000000002,3030.0,9045.8199999999997,696.05499999999995,622.76199999999994,240.50899999999999
174847.0,7875.7299999999996,953.26400000000001,2862.1399999999999,9265.9500000000007,517.63300000000004,1188.5799999999999,190.184
174848.0,7929.4399999999996,1767.1099999999999,2830.8600000000001,9572.8400000000001,347.80200000000002,1701.4300000000001,153.684
174849.0,8012.6400000000003,2442.6199999999999,2653.54,9639.3799999999992,192.49600000000001,2138.6199999999999,129.339
174850.0,8122.1400000000003,3235.9200000000001,2602.2199999999998,9753.3700000000008,53.293700000000001,2510.8499999999999,113.711
174851.0,8235.6800000000003,3881.1100000000001,2430.8600000000001,9672.25,-67.752200000000002,2813.1500000000001,103.563
174852.0,8348.0,4590.8500000000004,2370.25,9632.6100000000006,-170.93600000000001,3056.5599999999999,96.008300000000006
174853.0,8448.1399999999994,5155.5500000000002,2215.7800000000002,9440.7099999999991,-254.589,3243.0100000000002,87.307100000000005
174854.0,8534.0699999999997,5750.8500000000004,2174.04,9295.1599999999999,-323.91199999999998,3389.4899999999998,74.625200000000007
174855.0,8608.7299999999996,6227.3599999999997,2042.9400000000001,9033.1299999999992,-380.81900000000002,3490.0599999999999,61.563899999999997
174856.0,7602.3900000000003,-1509.79,4420.6099999999997,5230.7600000000002,1671.6700000000001,-1687.79,280.81299999999999
174857.0,7502.6300000000001,-1713.3599999999999,4012.2199999999998,5636.9700000000003,1275.99,-1474.6199999999999,228.61500000000001
174858.0,8081.8000000000002,-1577.8499999999999,3534.8099999999999,7061.5600000000004,1202.45,-1151.8299999999999,360.279
174859.0,8357.8799999999992,-909.69600000000003,3398.1799999999998,8438.8799999999992,1134.97,-133.035,291.84300000000002
174860.0,8023.5200000000004,-343.76600000000002,3031.8299999999999,8578.0699999999997,855.495,645.09100000000001,136.11000000000001
174861.0,7927.6899999999996,588.56600000000003,3140.73,9094.2800000000007,671.803,1199.23,95.035899999999998
174862.0,7947.5299999999997,1230.6900000000001,2876.9400000000001,9225.2999999999993,475.245,1733.26,58.7624
174863.0,8006.3000000000002,2147.4899999999998,2893.8299999999999,9525.5200000000004,302.78399999999999,2186.0100000000002,36.1721
174864.0,8101.2299999999996,2820.3800000000001,2668.52,9506.2800000000007,145.40000000000001,2570.6700000000001,24.528300000000002
174865.0,8212.5900000000001,3660.3299999999999,2644.5300000000002,9607.2099999999991,8.6163699999999999,2887.1799999999998,17.224699999999999
174866.0,8323.9799999999996,4280.9200000000001,2447.9099999999999,9460.7600000000002,-108.72799999999999,3139.3800000000001,13.993499999999999
174867.0,8430.2999999999993,4999.6999999999998,2407.48,9406.1299999999992,-204.80600000000001,3335.9299999999998,8.3202599999999993
174868.0,8520.9599999999991,5525.3400000000001,2261.0300000000002,9171.0900000000001,-284.64800000000002,3488.8200000000002,-0.69638299999999997
174869.0,8602.5799999999999,6120.29,2218.8299999999999,9008.2700000000004,-350.947,3596.54,-11.0555
174870.0,7939.21,-4671.6899999999996,183.137,1286.72,2199.5799999999999,-1963.6199999999999,-1506.02
174871.0,8435.8700000000008,-4421.6000000000004,1660.76,2958.8800000000001,979.29499999999996,-2485.25,-1029.8299999999999
174872.0,9377.5699999999997,-2915.6300000000001,3082.8699999999999,6774.4300000000003,1551.22,-1714.26,223.971
174873.0,8898.0900000000001,-1674.8800000000001,3199.5999999999999,8238.8700000000008,1338.49,36.655900000000003,161.94300000000001
174874.0,8069.9300000000003,-720.89099999999996,3385.5900000000001,8262.3700000000008,1034.3299999999999,641.77999999999997,44.817599999999999
174875.0,8039.7299999999996,-86.991500000000002,3154.9699999999998,8625.6700000000001,837.279,1205.47,-3.3819300000000001
174876.0,7987.5200000000004,878.64999999999998,3153.98,9046.1299999999992,610.43399999999997,1767.8800000000001,-41.562100000000001
174877.0,8008.3299999999999,1617.7,2942.9000000000001,9164.7099999999991,423.69099999999997,2226.54,-58.479599999999998
174878.0,8089.9300000000003,2538.48,2911.7199999999998,9387.2800000000007,244.601,2630.8600000000001,-68.821399999999997
174879.0,8184.9700000000003,3254.6799999999998,2711.5300000000002,9347.9400000000005,92.516800000000003,2956.3699999999999,-71.5321
174880.0,8298.2299999999996,4070.27,2662.9400000000001,9384.3600000000006,-40.371400000000001,3221.8800000000001,-71.543199999999999
174881.0,8402.75,4698.1300000000001,2487.5599999999999,9219.1700000000001,-149.18299999999999,3425.5500000000002,-72.872399999999999
174882.0,8499.8500000000004,5370.4399999999996,2453.6500000000001,9115.5400000000009,-240.274,3586.96,-78.5334
174883.0,8584.0100000000002,5895.8000000000002,2310.3000000000002,8863.1000000000004,-316.35399999999998,3699.6999999999998,-85.332800000000006
174884.0,7944.3000000000002,-14697.200000000001,-13668.4,-8758.5599999999995,1722.9400000000001,-2233.4000000000001,-1734.51
174885.0,10527.1,-10881.5,-3580.9699999999998,-1656.23,-752.274,-3441.3699999999999,-919.75800000000004
174886.0,11295.799999999999,-2083.1999999999998,6465.4899999999998,8815.4799999999996,2269.6599999999999,-1698.8199999999999,1263.78
174887.0,8843.5499999999993,-1671.46,3742.9200000000001,7909.0299999999997,1622.3800000000001,478.68700000000001,363.10700000000003
174888.0,8265.5300000000007,-1584.24,3337.6399999999999,7595.46,1175.71,524.423,-110.669
174889.0,8224.4200000000001,-489.21600000000001,3484.6999999999998,8414.7099999999991,1036.8499999999999,1251.97,-91.7226
174890.0,8029.2600000000002,231.05600000000001,3180.1799999999998,8536.9099999999999,743.96500000000003,1784.55,-147.29400000000001
174891.0,8050.96,1261.0,3218.0300000000002,8982.4699999999993,561.38300000000004,2270.1100000000001,-155.17500000000001
174892.0,8078.1599999999999,2035.51,2972.3699999999999,9025.6599999999999,347.47199999999998,2684.6100000000001,-165.37100000000001
174893.0,8168.5,2972.8600000000001,2948.6799999999998,9212.9699999999993,187.38900000000001,3024.8400000000001,-162.934
174894.0,8266.7099999999991,3689.1599999999999,2743.0300000000002,9124.9300000000003,32.502699999999997,3300.1599999999999,-159.755
174895.0,8372.9599999999991,4485.1300000000001,2696.3099999999999,9119.9699999999993,-86.026899999999998,3513.6700000000001,-157.13300000000001
174896.0,8470.1599999999999,5084.54,2547.9499999999998,8920.2900000000009,-191.53,3682.4099999999999,-159.30199999999999
174897.0,8558.5100000000002,5733.6599999999999,2499.5799999999999,8777.7099999999991,-276.10300000000001,3802.1700000000001,-163.00999999999999
174898.0,9275.8600000000006,-26557.799999999999,-29571.099999999999,-20630.900000000001,399.56,-2617.5900000000001,-989.94500000000005
174899.0,13614.4,-15524.5,-4600.9799999999996,-3384.3099999999999,-2327.8200000000002,-3380.54,-489.31200000000001
174900.0,13495.9,2658.0,14162.799999999999,13598.700000000001,3985.5999999999999,-1289.8399999999999,1049.6199999999999
174901.0,8207.4500000000007,-1758.76,4027.6100000000001,6709.9300000000003,1883.8099999999999,413.78800000000001,-38.868000000000002
174902.0,8767.9500000000007,-2176.0799999999999,3760.2199999999998,7399.8500000000004,1412.6900000000001,504.94999999999999,-104.098
174903.0,8379.3700000000008,-1192.25,3489.6100000000001,7794.6400000000003,1199.1400000000001,1308.6500000000001,-226.303
174904.0,8135.8599999999997,-248.154,3470.1700000000001,8220.2700000000004,916.04499999999996,1774.9200000000001,-239.45500000000001
174905.0,8121.1999999999998,680.80700000000002,3290.4099999999999,8539.4899999999998,693.34699999999998,2327.0300000000002,-261.80200000000002
174906.0,8083.1899999999996,1644.53,3210.9400000000001,8782.3400000000001,468.505,2723.6500000000001,-260.44799999999998
174907.0,8164.9300000000003,2519.1300000000001,3044.4499999999998,8884.5799999999999,285.04199999999997,3096.7600000000002,-259.149
174908.0,8235.4300000000003,3387.3200000000002,2953.6199999999999,8946.6700000000001,115.852,3370.96,-249.268
174909.0,8343.7299999999996,4137.0699999999997,2802.0599999999999,8871.9200000000001,-18.1891,3601.6500000000001,-244.28299999999999
174910.0,8433.8199999999997,4851.6300000000001,2739.0799999999999,8779.6100000000006,-135.54599999999999,3773.1100000000001,-241.67099999999999
174911.0,8526.3999999999996,5462.9300000000003,2613.6100000000001,8575.75,-230.845,3902.3699999999999,-242.55099999999999
174912.0,8905.6000000000004,-32136.200000000001,-33781.400000000001,-25969.0,-1341.79,-2296.5100000000002,1549.0999999999999
174913.0,15556.200000000001,-14136.9,757.92700000000002,244.11799999999999,-1883.4100000000001,-2356.3099999999999,275.53399999999999
174914.0,14643.700000000001,2336.1199999999999,13910.6,13572.4,5155.9799999999996,-1215.6700000000001,-165.952
174915.0,8247.9099999999999,-2669.1900000000001,3685.3699999999999,5847.8699999999999,1696.4100000000001,-167.001,-413.24799999999999
174916.0,9369.2000000000007,-2399.4699999999998,4536.3900000000003,7357.1700000000001,1910.1199999999999,619.83600000000001,-136.67699999999999
174917.0,8473.9599999999991,-2070.9899999999998,3333.96,6921.3000000000002,1259.0,1315.5699999999999,-359.916
174918.0,8395.2900000000009,-737.36800000000005,3845.9200000000001,7941.6300000000001,1156.6199999999999,1786.4300000000001,-336.82999999999998
174919.0,8172.9300000000003,56.402200000000001,3339.1700000000001,7993.0699999999997,805.07100000000003,2361.9299999999998,-366.64400000000001
174920.0,8152.9499999999998,1189.74,3455.04,8490.2600000000002,616.52599999999995,2771.77,-360.87799999999999
174921.0,8156.9300000000003,2057.5799999999999,3166.0100000000002,8522.8500000000004,381.42500000000001,3154.8600000000001,-354.78399999999999
174922.0,8226.3899999999994,3010.46,3140.9099999999999,8693.3500000000004,212.68299999999999,3445.4699999999998,-343.07100000000003
174923.0,8308.5,3793.0500000000002,2948.8699999999999,8617.0400000000009,53.357199999999999,3680.3800000000001,-332.28699999999998
174924.0,8401.7999999999993,4547.8100000000004,2901.6900000000001,8562.9099999999999,-71.301100000000005,3864.9299999999998,-327.54599999999999
174925.0,8486.6399999999994,5197.1800000000003,2770.0100000000002,8373.6900000000005,-180.971,3996.6199999999999,-323.791
174926.0,10043.4,-20198.5,-11460.6,-17416.200000000001,-963.94000000000005,-1668.55,3159.5799999999999
174927.0,16153.799999999999,-8639.0599999999995,8757.75,4581.9399999999996,952.83199999999999,-1522.71,1129.0799999999999
174928.0,13927.700000000001,-961.69200000000001,10199.1,10497.700000000001,4630.8900000000003,-742.00900000000001,-50.292200000000001
174929.0,9281.5699999999997,-3444.4499999999998,4533.5799999999999,5796.5200000000004,1824.51,-520.10699999999997,-99.420199999999994
174930.0,9833.0100000000002,-2786.7199999999998,4901.8199999999997,6920.6899999999996,2308.6100000000001,749.34500000000003,-317.70100000000002
174931.0,8671.0200000000004,-2894.8200000000002,3390.3400000000001,6131.5699999999997,1380.4400000000001,1243.46,-441.42700000000002
174932.0,8730.0300000000007,-1346.5,4096.6999999999998,7486.6800000000003,1380.95,1852.02,-458.12599999999998
174933.0,8266.1599999999999,-576.48099999999999,3475.46,7454.1300000000001,944.76700000000005,2355.2399999999998,-462.18900000000002
174934.0,8270.6000000000004,670.41999999999996,3656.5,8094.1499999999996,764.46900000000005,2836.1300000000001,-468.36200000000002
174935.0,8169.6199999999999,1557.1300000000001,3318.77,8131.3199999999997,493.35700000000003,3197.04,-449.85500000000002
174936.0,8236.3700000000008,2596.9299999999998,3322.3200000000002,8378.7099999999991,313.85899999999998,3521.4299999999998,-439.60599999999999
174937.0,8280.3400000000001,3400.6700000000001,3102.54,8317.2600000000002,134.97999999999999,3752.6799999999998,-421.92700000000002
174938.0,8373.0699999999997,4218.4300000000003,3073.0500000000002,8306.3199999999997,-1.5364199999999999,3953.3499999999999,-414.89100000000002
174939.0,8446.1800000000003,4880.25,2922.6999999999998,8120.8500000000004,-123.735,4087.3200000000002,-406.76799999999997
174940.0,17471.599999999999,-13432.9,2699.6100000000001,-8912.4699999999993,-97.371399999999994,-4977.6000000000004,-2776.8499999999999
174941.0,17762.5,-1098.3299999999999,16517.400000000001,9497.3700000000008,4721.04,-1848.6900000000001,905.33299999999997
174942.0,12614.9,-3301.3400000000001,8123.7799999999997,7425.6499999999996,3441.1100000000001,-339.048,-272.70600000000002
174943.0,11190.1,-3215.3800000000001,6652.1099999999997,6893.71,2833.6700000000001,-657.85000000000002,-83.088899999999995
174944.0,9943.0599999999995,-3949.6500000000001,4264.3299999999999,5553.8400000000001,2311.1399999999999,870.89599999999996,-529.36400000000003
174945.0,9224.3999999999996,-3349.23,4069.3099999999999,5860.8000000000002,1718.23,1145.9200000000001,-502.952
174946.0,8973.5100000000002,-2254.1399999999999,3969.0,6567.0,1510.25,1916.02,-583.99800000000005
174947.0,8526.6299999999992,-1102.5,3867.4099999999999,7100.8199999999997,1154.78,2347.77,-560.36300000000006
174948.0,8383.3299999999999,-5.4683999999999999,3694.7399999999998,7467.8699999999999,890.76099999999997,2888.1799999999998,-573.21600000000001
174949.0,8250.3999999999996,1090.3,3595.8800000000001,7796.46,633.01199999999994,3241.0300000000002,-549.67600000000004
174950.0,8253.8799999999992,2082.2399999999998,3425.3600000000001,7931.6400000000003,414.14699999999999,3586.5700000000002,-534.88599999999997
174951.0,8276.9599999999991,3013.1199999999999,3324.6700000000001,8025.75,229.959,3824.98,-515.14499999999998
174952.0,8347.8600000000006,3817.1700000000001,3205.8299999999999,7963.4799999999996,72.940100000000001,4033.7199999999998,-502.56299999999999
174953.0,8412.6100000000006,4553.4200000000001,3117.2199999999998,7856.1800000000003,-58.325800000000001,4176.1400000000003,-492.32999999999998
174954.0,22943.299999999999,-24864.299999999999,-5721.3999999999996,-8212.2700000000004,-3127.0799999999999,-6727.29,-3479.29
174955.0,19691.700000000001,2560.0700000000002,19197.700000000001,12358.799999999999,7181.6300000000001,-2748.1599999999999,439.66699999999997
174956.0,12106.9,-4257.2299999999996,8209.8199999999997,5441.8400000000001,2387.23,-472.18299999999999,-277.75099999999998
174957.0,13302.799999999999,-2249.79,9580.2199999999993,8383.7000000000007,4053.4099999999999,-356.03899999999999,148.90899999999999
174958.0,9894.8999999999996,-5393.4300000000003,3374.77,3719.3000000000002,2214.6900000000001,849.53999999999996,-579.69799999999998
174959.0,10065.0,-3704.0700000000002,4949.9200000000001,5762.3400000000001,2118.75,1162.8499999999999,-632.17100000000005
174960.0,9189.9300000000003,-3340.9099999999999,3705.0999999999999,5404.2799999999997,1632.8,1878.6199999999999,-674.08799999999997
174961.0,8944.0799999999999,-1578.3499999999999,4371.21,6787.9799999999996,1383.99,2398.0,-678.798
174962.0,8511.8799999999992,-812.35299999999995,3662.1900000000001,6698.54,1027.3099999999999,2893.7199999999998,-667.779
174963.0,8410.8999999999996,638.10799999999995,3935.6399999999999,7453.8199999999997,782.03200000000004,3304.7399999999998,-656.25199999999995
174964.0,8286.6200000000008,1473.03,3491.1799999999998,7388.2399999999998,525.67600000000004,3630.0100000000002,-628.00999999999999
174965.0,8310.3199999999997,2620.0900000000001,3584.46,7710.5100000000002,331.80500000000001,3902.0500000000002,-610.96600000000001
174966.0,8331.2800000000007,3342.3200000000002,3317.0599999999999,7547.1400000000003,156.99000000000001,4102.9099999999999,-590.82299999999998
174967.0,8395.25,4209.75,3336.4699999999998,7561.2200000000003,14.1846,4264.2299999999996,-579.37
174968.0,23742.599999999999,-25800.5,-1247.8900000000001,-6228.3999999999996,-2988.3200000000002,-2361.6500000000001,2223.96
174969.0,20220.599999999999,189.76400000000001,17586.599999999999,11237.6,7125.3999999999996,-2792.6199999999999,466.78699999999998
174970.0,13567.200000000001,-2203.0500000000002,12239.299999999999,6844.79,2674.8299999999999,-949.51700000000005,-204.32400000000001
174971.0,14754.9,-1515.49,11991.700000000001,8524.3099999999995,4829.2799999999997,42.819899999999997,-186.62299999999999
174972.0,10418.700000000001,-5596.3900000000003,4201.54,3135.25,2561.77,648.24599999999998,-551.61000000000001
174973.0,10718.299999999999,-4980.3299999999999,4714.9399999999996,4522.3299999999999,2312.1599999999999,1263.48,-792.97900000000004
174974.0,9710.6100000000006,-3890.1300000000001,4225.7600000000002,4944.3299999999999,1890.3,1794.4200000000001,-752.904
174975.0,9325.9899999999998,-2540.8499999999999,4319.75,5831.8299999999999,1557.3800000000001,2454.23,-795.82899999999995
174976.0,8796.8600000000006,-1353.3900000000001,4041.96,6269.6000000000004,1215.1600000000001,2892.9000000000001,-765.34900000000005
174977.0,8585.2000000000007,-105.869,3979.29,6745.29,919.41999999999996,3356.79,-758.67399999999998
174978.0,8395.9599999999991,1001.9299999999999,3790.4499999999998,7008.8100000000004,660.24300000000005,3674.0799999999999,-725.64300000000003
174979.0,8358.8099999999995,2038.6300000000001,3678.1700000000001,7171.6400000000003,435.774,3966.2399999999998,-703.96199999999999
174980.0,8351.7099999999991,2936.0900000000001,3567.5599999999999,7207.0699999999997,253.5,4172.0699999999997,-682.29300000000001
174981.0,8387.0599999999995,3737.0599999999999,3462.0999999999999,7121.6499999999996,92.938699999999997,4340.8100000000004,-665.11599999999999
174982.0,24212.099999999999,-8490.2800000000007,18186.200000000001,764.61500000000001,2872.8000000000002,-5.5553900000000001,1920.8299999999999
174983.0,20696.200000000001,-1564.26,18476.299999999999,9852.4899999999998,6198.9899999999998,-1761.4100000000001,437.54399999999998
174984.0,16017.299999999999,-926.779,15260.1,8503.4099999999999,4126.2799999999997,-1465.21,-495.279
174985.0,15068.6,-2851.4899999999998,11119.9,6654.2799999999997,4886.2399999999998,-79.409700000000001,-942.73699999999997
174986.0,11603.0,-5803.8699999999999,5292.8999999999996,3006.6599999999999,3119.71,393.94799999999998,-810.64499999999998
174987.0,11210.200000000001,-6270.04,4386.3199999999997,3003.5,2444.3499999999999,1275.2,-842.95100000000002
174988.0,10511.299999999999,-4558.5299999999997,4768.2399999999998,4437.0699999999997,2198.1500000000001,1795.6099999999999,-877.24400000000003
174989.0,9711.1100000000006,-3492.4200000000001,4307.3000000000002,4832.54,1729.74,2433.6599999999999,-885.67899999999997
174990.0,9232.5699999999997,-2010.23,4382.21,5708.7299999999996,1419.99,2931.29,-877.73599999999999
174991.0,8798.1399999999994,-843.678,4083.1999999999998,6034.9799999999996,1069.04,3371.5500000000002,-851.83199999999999
174992.0,8587.2700000000004,425.26499999999999,4039.2800000000002,6498.9799999999996,802.99099999999999,3730.5900000000001,-827.52999999999997
174993.0,8439.9899999999998,1457.97,3829.8699999999999,6634.71,552.66099999999994,4011.4299999999998,-795.08500000000004
174994.0,8415.0300000000007,2440.0100000000002,3775.8699999999999,6755.5,356.65499999999997,4242.1899999999996,-774.48500000000001
174995.0,8402.6299999999992,3253.7800000000002,3632.5,6673.2299999999996,182.18899999999999,4407.2299999999996,-751.10599999999999
174996.0,26923.299999999999,2686.7399999999998,27411.299999999999,5758.2799999999997,6979.5299999999997,-3280.7800000000002,-738.23900000000003
174997.0,21340.900000000001,-804.85500000000002,20606.200000000001,9151.2900000000009,5932.1000000000004,-1260.9300000000001,-486.01100000000002
174998.0,18490.700000000001,-1325.1500000000001,16823.5,8430.5699999999997,5363.6300000000001,-1602.25,-367.19099999999997
174999.0,15247.200000000001,-4907.1800000000003,9558.6700000000001,4447.9499999999998,4802.75,-238.398,-743.39099999999996
175000.0,12742.4,-7137.8500000000004,5378.4399999999996,1876.7,3388.8899999999999,332.85500000000002,-911.50800000000004
175001.0,12016.9,-6958.0,4846.46,2173.3699999999999,2765.8299999999999,1151.8699999999999,-919.89700000000005
175002.0,11266.0,-5667.7799999999997,4810.7799999999997,3298.6300000000001,2425.04,1832.47,-994.14200000000005
175003.0,10324.700000000001,-4268.7799999999997,4628.9700000000003,4113.5799999999999,1972.05,2396.6300000000001,-974.97000000000003
175004.0,9690.9200000000001,-2887.1399999999999,4495.2399999999998,4827.3000000000002,1603.8800000000001,2957.6799999999998,-981.80899999999997
175005.0,9151.3899999999994,-1528.8699999999999,4347.4499999999998,5412.7600000000002,1251.21,3387.3499999999999,-949.14499999999998
175006.0,8817.2299999999996,-273.84500000000003,4191.7200000000003,5819.75,945.24699999999996,3770.1199999999999,-923.73500000000001
175007.0,8602.8099999999995,872.34799999999996,4054.8499999999999,6100.1400000000003,686.89200000000005,4057.8400000000001,-889.57000000000005
175008.0,8510.0699999999997,1867.8599999999999,3948.6500000000001,6207.04,466.08199999999999,4297.3999999999996,-863.62400000000002
175009.0,8466.2099999999991,2741.0100000000002,3837.8600000000001,6192.8500000000004,282.79700000000003,4471.8199999999997,-839.23800000000006
175010.0,30700.700000000001,1861.5699999999999,27765.5,7031.6599999999999,9239.1700000000001,-6392.2700000000004,-129.49600000000001
175011.0,21165.400000000001,-1908.54,19404.200000000001,6501.6000000000004,5385.5299999999997,-1686.76,-1495.22
175012.0,21171.200000000001,-1709.53,18678.599999999999,7902.2200000000003,6447.6300000000001,-1857.21,-594.12
175013.0,16162.200000000001,-5762.2299999999996,9777.3700000000008,2998.2399999999998,5066.2700000000004,-240.21000000000001,-806.74000000000001
175014.0,14006.200000000001,-8584.6800000000003,5497.3999999999996,373.40199999999999,3684.3600000000001,268.24099999999999,-971.40300000000002
175015.0,13044.6,-7896.7799999999997,5149.2600000000002,1242.6700000000001,3100.3899999999999,1086.28,-1047.2
175016.0,12084.200000000001,-6744.7600000000002,4947.0799999999999,2136.73,2667.6900000000001,1778.8800000000001,-1071.5899999999999
175017.0,11086.4,-5139.3100000000004,4909.8699999999999,3255.0,2226.5799999999999,2409.77,-1083.23
175018.0,10246.5,-3791.1999999999998,4669.5500000000002,3925.0100000000002,1807.8800000000001,2937.9499999999998,-1072.6500000000001
175019.0,9610.5799999999999,-2285.1799999999998,4582.1599999999999,4674.0100000000002,1439.9100000000001,3417.4499999999998,-1049.8800000000001
175020.0,9130.7199999999993,-1023.91,4371.46,5098.3699999999999,1105.21,3788.1999999999998,-1015.53
175021.0,8837.8899999999994,236.30600000000001,4272.6899999999996,5482.6899999999996,827.63999999999999,4103.3000000000002,-983.43499999999995
175022.0,8667.4200000000001,1233.8900000000001,4128.25,5602.5299999999997,589.75300000000004,4341.5,-951.64599999999996
175023.0,8580.0900000000001,2186.0599999999999,4046.8899999999999,5650.0600000000004,391.85500000000002,4530.3000000000002,-925.63300000000004
175024.0,34899.900000000001,-1494.5899999999999,26832.0,7384.25,11763.9,-7577.8100000000004,-529.74099999999999
175025.0,20901.200000000001,-8071.4200000000001,12962.200000000001,143.80699999999999,4586.0,-2942.79,-1886.77
175026.0,23003.200000000001,-3021.1300000000001,18635.299999999999,7735.4899999999998,7302.7799999999997,-2143.4499999999998,-1097.7
175027.0,16853.400000000001,-8681.8899999999994,7519.3800000000001,-308.86700000000002,5209.5799999999999,-560.88900000000001,-1257.02
175028.0,15468.4,-9283.6299999999992,6378.4799999999996,-158.511,4072.9000000000001,194.309,-1116.98
175029.0,14074.700000000001,-9595.5599999999995,4720.6199999999999,-634.41099999999994,3376.5700000000002,1028.98,-1118.05
175030.0,13157.4,-7376.7200000000003,5677.1899999999996,1540.3499999999999,2975.6900000000001,1732.3,-1159.52
175031.0,11860.0,-6472.4200000000001,4724.8299999999999,1827.6500000000001,2461.7399999999998,2383.21,-1170.1700000000001
175032.0,10994.5,-4480.6099999999997,5160.8299999999999,3278.1700000000001,2044.6300000000001,2939.1700000000001,-1164.9100000000001
175033.0,10125.299999999999,-3315.4299999999998,4579.75,3612.02,1631.3499999999999,3415.7800000000002,-1140.95
175034.0,9579.6599999999999,-1661.5899999999999,4742.8900000000003,4489.0200000000004,1283.6700000000001,3815.5999999999999,-1109.6500000000001
175035.0,9131.8700000000008,-586.79999999999995,4353.8500000000004,4657.1899999999996,977.70699999999999,4126.25,-1071.54
175036.0,8913.9899999999998,654.93200000000002,4429.9700000000003,5042.21,725.77300000000002,4385.3100000000004,-1040.7
175037.0,8744.4099999999999,1495.8299999999999,4179.6499999999996,4966.4899999999998,510.88600000000002,4571.4399999999996,-1008.9299999999999
175038.0,34320.199999999997,-14062.299999999999,15743.6,-1076.7,10299.0,-7770.8400000000001,-1687.25
175039.0,23531.5,-9421.5400000000009,14209.799999999999,50.789499999999997,5075.25,-4157.1300000000001,-312.19999999999999
175040.0,23525.5,-7276.7600000000002,15412.200000000001,4154.3699999999999,7281.3100000000004,-1566.8900000000001,-557.505
175041.0,18091.900000000001,-10222.299999999999,7405.3900000000003,-1578.3800000000001,5473.8599999999997,-821.31299999999999,-880.04999999999995
175042.0,16648.400000000001,-11316.1,5745.7600000000002,-2298.5100000000002,4252.8000000000002,304.88799999999998,-1163.8099999999999
175043.0,15445.200000000001,-10379.200000000001,5478.5100000000002,-1456.0899999999999,3774.0999999999999,856.02300000000002,-1159.8499999999999
175044.0,14216.299999999999,-8850.2099999999991,5480.25,-39.464700000000001,3242.1199999999999,1749.05,-1246.71
175045.0,12863.4,-7239.7200000000003,5303.1599999999999,1040.45,2751.7600000000002,2310.8200000000002,-1252.1400000000001
175046.0,11796.4,-5651.9799999999996,5156.5200000000004,2035.48,2275.8000000000002,2946.48,-1257.03
175047.0,10805.5,-4071.7800000000002,4980.1800000000003,2869.4200000000001,1850.74,3399.5100000000002,-1228.22
175048.0,10100.0,-2619.6599999999999,4808.6999999999998,3498.04,1466.1900000000001,3834.0,-1197.3099999999999
175049.0,9548.2800000000007,-1262.23,4680.1999999999998,3997.23,1145.8499999999999,4142.3000000000002,-1159.6600000000001
175050.0,9228.75,-144.595,4543.1000000000004,4227.9799999999996,870.29999999999995,4416.5299999999997,-1123.0799999999999
175051.0,9002.1900000000005,868.57799999999997,4452.6199999999999,4351.6000000000004,643.44000000000005,4609.1199999999999,-1091.1900000000001
175052.0,33264.199999999997,-26691.099999999999,7336.3800000000001,-10201.200000000001,6112.3699999999999,-6415.2200000000003,-871.88
175053.0,29063.400000000001,-5741.7200000000003,23070.599999999999,5246.5200000000004,7235.7700000000004,-4166.8800000000001,639.45100000000002
175054.0,24953.400000000001,-8238.1000000000004,16410.5,1669.52,7249.7700000000004,-1078.4400000000001,-28.118300000000001
175055.0,20419.5,-10297.799999999999,9366.9300000000003,-1612.6600000000001,6414.5500000000002,-599.52200000000005,-604.5
175056.0,17639.900000000001,-13544.299999999999,4738.6599999999999,-5005.3400000000001,4287.71,263.161,-1257.0899999999999
175057.0,17182.5,-11085.700000000001,6563.8299999999999,-2040.21,4290.5299999999997,781.13900000000001,-1225.21
175058.0,15242.9,-10349.5,5226.8400000000001,-1767.1600000000001,3475.6300000000001,1673.0899999999999,-1305.24
175059.0,14059.799999999999,-8209.6299999999992,5776.0600000000004,121.64700000000001,3068.1799999999998,2287.9699999999998,-1321.78
175060.0,12648.6,-6852.3699999999999,5141.5600000000004,747.76499999999999,2512.9499999999998,2906.0700000000002,-1322.3099999999999
175061.0,11647.700000000001,-4942.6800000000003,5346.4300000000003,1993.24,2086.1500000000001,3406.3099999999999,-1315.8900000000001
175062.0,10706.700000000001,-3572.77,4937.5100000000002,2500.8099999999999,1664.4000000000001,3821.1799999999998,-1277.05
175063.0,10089.700000000001,-2055.1999999999998,4953.4300000000003,3193.1399999999999,1324.55,4163.54,-1245.1199999999999
175064.0,9628.5799999999999,-940.09100000000001,4730.8000000000002,3414.5700000000002,1030.54,4425.04,-1204.5899999999999
175065.0,9354.8500000000004,148.30199999999999,4697.5900000000001,3623.5,786.76499999999999,4639.4799999999996,-1171.6800000000001
175066.0,36623.699999999997,-25598.700000000001,14528.5,-8166.3699999999999,5240.2799999999997,-3844.6199999999999,-44.408200000000001
175067.0,33376.099999999999,-5010.9499999999998,28039.5,5999.8699999999999,8888.8299999999999,-3011.3299999999999,152.79599999999999
175068.0,28106.5,-5105.04,22319.5,3447.5599999999999,8006.5200000000004,-1506.0999999999999,-228.583
175069.0,22490.700000000001,-10998.799999999999,10045.799999999999,-3377.2399999999998,7385.4899999999998,-344.69600000000003,-650.75099999999998
175070.0,18961.200000000001,-14724.0,5108.0,-6409.9399999999996,4386.96,66.953100000000006,-1187.27
175071.0,18765.200000000001,-12724.0,6522.9099999999999,-3686.3899999999999,4744.46,775.98800000000006,-1241.04
175072.0,16518.0,-11411.0,5614.8199999999997,-2908.23,3769.5300000000002,1561.1400000000001,-1353.5999999999999
175073.0,15312.0,-9438.1700000000001,5983.54,-1214.6700000000001,3389.0500000000002,2268.9299999999998,-1404.99
175074.0,13712.4,-7798.5,5546.21,-252.108,2787.8299999999999,2857.3600000000001,-1401.99
175075.0,12550.200000000001,-6070.1800000000003,5458.3000000000002,801.42200000000003,2323.8899999999999,3396.9699999999998,-1388.3
175076.0,11472.700000000001,-4456.0299999999997,5236.8999999999996,1587.71,1883.5,3810.6999999999998,-1356.24
175077.0,10711.4,-2991.8600000000001,5117.3599999999997,2210.96,1512.78,4163.7299999999996,-1319.0999999999999
175078.0,10156.200000000001,-1757.51,4970.8900000000003,2584.75,1204.9300000000001,4434.0500000000002,-1278.1600000000001
175079.0,9791.3999999999996,-685.59199999999998,4872.0900000000001,2773.0799999999999,943.75,4653.2299999999996,-1240.1700000000001
175080.0,40000.400000000001,-19763.700000000001,23255.599999999999,-4827.3400000000001,7393.8100000000004,-1139.1800000000001,-558.18600000000004
175081.0,35202.699999999997,-5895.8800000000001,28758.0,3658.8099999999999,9279.9099999999999,-2388.3499999999999,-947.67499999999995
175082.0,30605.5,-4708.7200000000003,24571.200000000001,3685.4099999999999,8877.3999999999996,-2371.77,-683.73500000000001
175083.0,23498.799999999999,-12523.0,9083.3500000000004,-5416.1199999999999,7825.0200000000004,-927.59299999999996,-842.93200000000002
175084.0,20412.599999999999,-16077.6,5256.3100000000004,-7504.1000000000004,4721.75,-51.617199999999997,-1161.5999999999999
175085.0,20258.799999999999,-13802.1,6983.9099999999999,-4943.6400000000003,5092.9499999999998,806.91899999999998,-1190.3099999999999
175086.0,17977.299999999999,-12609.1,6031.6700000000001,-4165.6599999999999,4104.25,1460.78,-1274.1900000000001
175087.0,16520.900000000001,-10825.0,5972.0200000000004,-2601.1700000000001,3687.4200000000001,2217.9200000000001,-1385.1600000000001
175088.0,14884.0,-9026.7900000000009,5700.6899999999996,-1485.04,3076.0900000000001,2839.0700000000002,-1444.4400000000001
175089.0,13555.1,-7100.4399999999996,5713.96,-312.05399999999997,2580.4699999999998,3373.1999999999998,-1452.3
175090.0,12364.5,-5485.25,5458.2600000000002,501.56200000000001,2114.0300000000002,3798.27,-1426.7
175091.0,11446.799999999999,-3922.96,5346.9399999999996,1222.6400000000001,1718.6400000000001,4149.04,-1392.29
175092.0,10802.1,-2640.9899999999998,5227.4799999999996,1655.9400000000001,1391.3299999999999,4426.6800000000003,-1357.1199999999999
175093.0,10334.0,-1524.51,5120.8100000000004,1906.5799999999999,1112.78,4646.2299999999996,-1314.45
175094.0,41100.199999999997,-16542.900000000001,25165.5,-7175.79,9003.1499999999996,263.22899999999998,-1751.8699999999999
175095.0,36459.400000000001,-7575.3699999999999,28087.0,150.166,9188.8199999999997,-2255.0999999999999,-1258.0799999999999
175096.0,32630.099999999999,-5622.1199999999999,25915.700000000001,1934.47,8783.8199999999997,-2566.9699999999998,-157.66399999999999
175097.0,26234.799999999999,-11595.6,13380.700000000001,-4762.1000000000004,7813.1599999999999,-1161.74,643.86099999999999
175098.0,22137.599999999999,-15798.5,7027.4799999999996,-7631.75,5430.0900000000001,-37.540100000000002,-319.0
175099.0,21076.299999999999,-15675.200000000001,6014.6199999999999,-6588.5100000000002,5247.3699999999999,558.37599999999998,-1257.6600000000001
175100.0,19351.900000000001,-13948.1,6129.1700000000001,-5030.8400000000001,4476.1800000000003,1334.0,-1350.4000000000001
175101.0,17899.5,-11724.799999999999,6562.5699999999997,-3552.0900000000001,3998.6500000000001,2256.6700000000001,-1339.1600000000001
175102.0,16195.0,-9947.8600000000006,6270.9799999999996,-2514.1500000000001,3401.7600000000002,2832.1999999999998,-1384.8399999999999
175103.0,14661.1,-8298.0300000000007,5847.6999999999998,-1579.6099999999999,2856.7800000000002,3356.2199999999998,-1468.3800000000001
175104.0,13358.200000000001,-6475.96,5754.46,-570.75199999999995,2357.3299999999999,3786.2600000000002,-1475.45
175105.0,12299.5,-4958.3000000000002,5536.3500000000004,109.705,1940.8,4124.6099999999997,-1449.55
175106.0,11541.299999999999,-3621.5599999999999,5416.7399999999998,648.73400000000004,1590.29,4409.1999999999998,-1409.6700000000001
175107.0,10998.1,-2506.29,5275.1800000000003,898.37699999999995,1296.6500000000001,4642.2700000000004,-1367.8900000000001
175108.0,40763.099999999999,-18073.299999999999,21012.0,-14183.5,9003.9300000000003,-302.55000000000001,-3020.9299999999998
175109.0,38481.699999999997,-9496.7800000000007,27408.5,-4026.1399999999999,9424.0499999999993,-2283.0599999999999,-1706.3299999999999
175110.0,35726.400000000001,-5898.5500000000002,28663.5,-160.02600000000001,8754.1800000000003,-2318.1999999999998,-635.47900000000004
175111.0,31825.099999999999,-6220.1999999999998,24072.599999999999,-828.24199999999996,8662.8700000000008,-1140.4000000000001,367.81299999999999
175112.0,26100.200000000001,-11963.0,13854.799999999999,-6095.29,6607.7600000000002,122.285,478.84300000000002
175113.0,23128.400000000001,-14338.200000000001,9785.4899999999998,-6339.3999999999996,5175.7799999999997,670.99099999999999,279.14999999999998
175114.0,20912.400000000001,-14169.799999999999,7654.3900000000003,-4990.3599999999997,4905.7200000000003,1217.04,-393.35399999999998
175115.0,18626.0,-13505.9,5531.9899999999998,-4574.8900000000003,4332.1499999999996,2064.29,-1374.29
175116.0,17188.099999999999,-11551.799999999999,5688.6599999999999,-3533.04,3646.7199999999998,2863.8600000000001,-1596.0899999999999
175117.0,15814.4,-9229.8799999999992,6146.21,-2537.73,3156.8299999999999,3411.3299999999999,-1524.8699999999999
175118.0,14398.5,-7616.8299999999999,5892.6800000000003,-1808.8,2606.5599999999999,3753.8600000000001,-1514.8599999999999
175119.0,13306.5,-5963.5699999999997,5834.25,-978.42600000000004,2181.5300000000002,4116.8299999999999,-1496.05
175120.0,12415.299999999999,-4546.9499999999998,5769.2600000000002,-435.75599999999997,1817.8299999999999,4361.6999999999998,-1442.1500000000001
175121.0,11806.200000000001,-3349.0700000000002,5734.1099999999997,-8.2937499999999993,1515.02,4597.6400000000003,-1386.27
175122.0,41498.0,-23731.900000000001,14499.299999999999,-23492.200000000001,8641.4200000000001,-1059.45,-3749.4699999999998
175123.0,41239.599999999999,-12595.200000000001,26161.900000000001,-9866.5599999999995,9390.8099999999995,-2388.5,-2252.6999999999998
175124.0,38557.900000000001,-7367.21,29301.700000000001,-3040.6100000000001,9215.3899999999994,-2622.1300000000001,-1487.8199999999999
175125.0,34968.5,-6072.0500000000002,26792.200000000001,-1161.55,9416.9699999999993,-1818.6300000000001,-1160.8599999999999
175126.0,30111.900000000001,-8589.2000000000007,20286.200000000001,-4123.8599999999997,7749.2799999999997,-302.01999999999998,-709.43799999999999
175127.0,27423.5,-9246.4500000000007,18285.099999999999,-4057.77,5994.5799999999999,840.41999999999996,-151.797
175128.0,25318.900000000001,-8978.9799999999996,17082.700000000001,-2191.2600000000002,5318.0100000000002,1424.3900000000001,759.79700000000003
175129.0,22163.599999999999,-10470.5,12242.9,-2601.4899999999998,4899.6599999999999,2402.71,966.08100000000002
175130.0,19057.799999999999,-10807.200000000001,8284.5,-3223.46,4235.0,3261.6599999999999,-293.48899999999998
175131.0,17046.900000000001,-10072.1,6562.8100000000004,-3515.75,3490.1500000000001,3577.1100000000001,-1294.1700000000001
175132.0,15497.299999999999,-8467.0400000000009,6256.9099999999999,-2882.6399999999999,2914.8299999999999,3757.0,-1480.6800000000001
175133.0,14260.9,-7077.3100000000004,5981.2399999999998,-2112.73,2398.52,4026.6199999999999,-1541.76
175134.0,13303.700000000001,-6042.96,5396.1899999999996,-1699.51,2026.1800000000001,4335.0600000000004,-1659.1500000000001
175135.0,12603.299999999999,-4684.7299999999996,5446.21,-1221.6199999999999,1601.1800000000001,4617.0100000000002,-1597.6800000000001
175136.0,42486.699999999997,-33936.0,3351.1199999999999,-36142.099999999999,8850.5900000000001,-1376.8699999999999,-5384.4399999999996
175137.0,43735.099999999999,-19737.299999999999,20190.299999999999,-19800.0,9050.25,-3054.73,-3756.25
175138.0,41790.900000000001,-10370.9,29040.099999999999,-7248.1099999999997,9394.1100000000006,-3360.98,-1626.96
175139.0,37144.199999999997,-8413.9099999999999,26733.299999999999,-3783.4899999999998,9476.7999999999993,-2228.0500000000002,-669.74599999999998
175140.0,32181.900000000001,-9323.3600000000006,21589.299999999999,-4287.2600000000002,8243.75,-998.54499999999996,-1083.9300000000001
175141.0,28913.599999999999,-9785.2600000000002,18334.799999999999,-4912.5900000000001,7022.7600000000002,132.035,-1873.4300000000001
175142.0,28680.700000000001,-6216.6300000000001,22732.400000000001,-1002.03,5699.0500000000002,1137.8900000000001,-1524.96
175143.0,28158.799999999999,-2263.6700000000001,25631.599999999999,2827.46,6185.5600000000004,2298.2600000000002,-282.935
175144.0,23701.0,-5388.1700000000001,17426.900000000001,-689.34799999999996,5588.5799999999999,3298.2800000000002,16.93
175145.0,19833.400000000001,-8204.8700000000008,10938.1,-3166.6399999999999,4218.6700000000001,3819.1500000000001,-524.75900000000001
175146.0,16894.799999999999,-8545.6200000000008,7393.9399999999996,-3961.1799999999998,3493.73,3715.1900000000001,-1341.1099999999999
175147.0,15165.5,-8292.3199999999997,6226.3100000000004,-3444.3200000000002,2457.8200000000002,3779.1399999999999,-1306.05
175148.0,14517.1,-6869.6000000000004,6136.9700000000003,-2301.7399999999998,2491.8899999999999,4368.6599999999999,-1188.4400000000001
175149.0,13359.6,-5982.0799999999999,5037.0900000000001,-2513.8699999999999,1966.6700000000001,4708.8400000000001,-1306.74
175150.0,41061.300000000003,-51888.0,-18010.900000000001,-56212.5,8528.5300000000007,-1546.0799999999999,-7018.8400000000001
175151.0,44539.800000000003,-32977.800000000003,7064.2600000000002,-34481.400000000001,7735.6400000000003,-4285.4099999999999,-5270.7600000000002
175152.0,45486.300000000003,-15853.4,26889.799999999999,-13513.200000000001,9303.7299999999996,-4471.3400000000001,-2374.6500000000001
175153.0,41162.599999999999,-9139.5100000000002,29533.400000000001,-5424.1000000000004,10096.1,-2622.02,-861.28899999999999
175154.0,35175.400000000001,-9811.9300000000003,23918.400000000001,-5450.4200000000001,8607.4599999999991,-1279.5899999999999,-403.61799999999999
175155.0,30590.400000000001,-11305.5,18989.099999999999,-5818.3900000000003,7156.0200000000004,-82.581500000000005,-400.48000000000002
175156.0,29175.400000000001,-9370.3500000000004,20211.099999999999,-2975.7800000000002,6127.7299999999996,1040.52,-1685.1199999999999
175157.0,29429.799999999999,-3981.4899999999998,24861.200000000001,1545.73,6626.1599999999999,1690.9000000000001,-2755.79
175158.0,27029.700000000001,-2719.6999999999998,22902.400000000001,916.92700000000002,6405.7700000000004,2464.3099999999999,-2061.1500000000001
175159.0,22831.5,-5412.9499999999998,15815.6,-2288.75,5423.6199999999999,3165.71,-1720.1700000000001
175160.0,18096.700000000001,-9270.8299999999999,7715.5200000000004,-5728.2299999999996,3933.3000000000002,3194.29,-1784.72
175161.0,16456.900000000001,-9163.4899999999998,7087.5100000000002,-4559.5900000000001,2498.4299999999998,3531.54,-1185.3800000000001
175162.0,16365.6,-6261.2600000000002,9086.4699999999993,-1985.99,2829.0799999999999,4169.0299999999997,-1074.4000000000001
175163.0,14870.1,-5621.1499999999996,7365.0699999999997,-2449.46,2553.71,4523.0600000000004,-943.20399999999995
175164.0,38630.0,-74058.5,-44574.199999999997,-81906.100000000006,7243.9200000000001,-1602.76,-7412.9499999999998
175165.0,45118.900000000001,-50662.0,-9532.4699999999993,-52271.199999999997,5400.8400000000001,-5297.8000000000002,-5876.3800000000001
175166.0,48850.5,-24237.400000000001,22055.599999999999,-21405.0,9218.2099999999991,-5434.9899999999998,-2761.5
175167.0,45017.099999999999,-12331.6,29949.0,-8878.2099999999991,10563.6,-3248.5300000000002,-1478.23
175168.0,39388.900000000001,-9825.1499999999996,27265.0,-6931.2399999999998,9398.9500000000007,-1563.4200000000001,-897.50199999999995
175169.0,35821.0,-8693.7099999999991,26325.900000000001,-4656.9399999999996,7774.3400000000001,-80.319999999999993,-410.803
175170.0,32599.299999999999,-8392.9599999999991,23895.5,-2799.3200000000002,7418.9200000000001,1099.77,-496.82600000000002
175171.0,29143.400000000001,-9315.0300000000007,19631.900000000001,-3057.6700000000001,6699.5200000000004,1738.45,-1795.6500000000001
175172.0,26672.900000000001,-7651.7200000000003,17995.799999999999,-2174.29,6491.0299999999997,1721.1800000000001,-3100.5900000000001
175173.0,22311.200000000001,-9533.5100000000002,11179.9,-5498.8599999999997,5685.0299999999997,1768.0699999999999,-3146.3299999999999
175174.0,18446.799999999999,-11901.0,6216.1000000000004,-7715.7700000000004,3684.27,2521.3899999999999,-1876.96
175175.0,17716.400000000001,-9849.5499999999993,7698.9899999999998,-5301.2799999999997,2877.1199999999999,3402.6799999999998,-1351.5
175176.0,17553.799999999999,-7263.6000000000004,9736.1900000000005,-2877.5500000000002,2718.6799999999998,3951.8899999999999,-1346.97
175177.0,16908.400000000001,-4874.3800000000001,10621.0,-1614.73,2811.7600000000002,4423.8400000000001,-1039.8199999999999
175178.0,40950.800000000003,-95029.600000000006,-66558.800000000003,-108921.0,5795.6499999999996,-958.54600000000005,-7623.6099999999997
175179.0,50141.699999999997,-66053.699999999997,-19571.200000000001,-69119.0,3045.98,-5272.3500000000004,-5491.04
175180.0,53871.900000000001,-32626.599999999999,18778.5,-29917.0,9659.5900000000001,-5649.1899999999996,-2307.9400000000001
175181.0,48648.199999999997,-17705.5,28169.799999999999,-14563.9,10717.1,-3772.46,-1740.78
175182.0,42938.5,-12536.799999999999,27579.900000000001,-9747.0900000000001,10280.1,-2158.5500000000002,-1578.6300000000001
175183.0,39040.099999999999,-10221.4,27063.900000000001,-6897.6800000000003,8815.4899999999998,-780.67200000000003,-1987.02
175184.0,35925.300000000003,-8133.5900000000001,26354.299999999999,-4022.5599999999999,8487.1399999999994,55.531300000000002,-1824.3599999999999
175185.0,31049.299999999999,-10422.4,19938.799999999999,-4924.3800000000001,7509.0,987.54999999999995,-1513.6600000000001
175186.0,25756.099999999999,-13764.299999999999,11414.5,-7438.1000000000004,6641.8400000000001,1334.22,-1914.0
175187.0,21158.5,-15523.5,5758.8900000000003,-9826.5499999999993,4811.8400000000001,1492.3299999999999,-1569.26
175188.0,19820.200000000001,-13339.6,6917.3500000000004,-8206.7399999999998,3643.8499999999999,2391.77,-1021.48
175189.0,19030.5,-10863.6,8052.0,-6356.6300000000001,3324.4899999999998,3296.2800000000002,-1087.03
175190.0,18995.099999999999,-7777.3199999999997,10894.5,-3547.5500000000002,2802.5599999999999,4003.8099999999999,-731.73599999999999
175191.0,19108.799999999999,-3952.04,13824.1,-868.65599999999995,3181.9499999999998,4527.1300000000001,-930.995
175192.0,43243.699999999997,-126665.0,-103092.0,-143828.0,4737.54,-3015.9299999999998,-13173.0
175193.0,56323.900000000001,-84251.100000000006,-33589.099999999999,-88092.0,2537.8099999999999,-6543.1000000000004,-9103.7999999999993
175194.0,59751.800000000003,-41772.800000000003,14044.4,-40443.599999999999,11102.9,-6023.1999999999998,-4019.8699999999999
175195.0,52832.800000000003,-24822.900000000001,24673.599999999999,-22886.900000000001,10867.5,-4516.9799999999996,-2446.79
175196.0,46687.800000000003,-17284.599999999999,26479.299999999999,-14208.6,10895.9,-2960.6999999999998,-1545.3900000000001
175197.0,40743.800000000003,-15118.700000000001,23594.0,-11611.700000000001,9483.3799999999992,-1414.97,-1736.3900000000001
175198.0,37074.699999999997,-12931.0,22890.599999999999,-8960.2900000000009,8305.0400000000009,-658.70299999999997,-1788.71
175199.0,33761.0,-11232.700000000001,21888.599999999999,-6579.2799999999997,7579.5799999999999,35.497599999999998,-982.81100000000004
175200.0,28408.099999999999,-13628.700000000001,14141.700000000001,-8907.2600000000002,6872.0200000000004,963.25999999999999,-250.011
175201.0,23987.099999999999,-15420.5,8935.3400000000001,-10292.700000000001,4843.5799999999999,1847.8199999999999,-221.642
175202.0,22323.700000000001,-13366.200000000001,9305.7700000000004,-8319.8299999999999,4202.2399999999998,2521.79,-637.154
175203.0,21246.799999999999,-10694.9,10594.0,-6404.71,3546.1300000000001,3298.1700000000001,-509.45100000000002
175204.0,21278.700000000001,-6460.9499999999998,14293.799999999999,-2842.7600000000002,3357.1199999999999,4036.6900000000001,-666.34000000000003
175205.0,21018.599999999999,-3758.8699999999999,15997.799999999999,-1015.12,3458.1199999999999,4444.4200000000001,-999.95299999999997
175206.0,38404.099999999999,-172203.0,-151185.0,-185680.0,-1015.2,-4216.7799999999997,-13061.4
175207.0,57747.0,-112860.0,-60133.699999999997,-113770.0,1018.1,-8079.9399999999996,-10113.9
175208.0,61752.800000000003,-61283.699999999997,-4411.04,-59808.199999999997,11230.4,-7436.4300000000003,-6228.5
175209.0,56321.0,-36343.0,16241.799999999999,-34788.0,10634.9,-5825.5799999999999,-3878.6399999999999
175210.0,51138.699999999997,-23114.200000000001,24631.0,-20512.400000000001,11458.1,-3959.6500000000001,-2009.02
175211.0,44160.900000000001,-19726.700000000001,21961.200000000001,-16591.400000000001,10191.200000000001,-2184.8400000000001,-1557.52
175212.0,39229.699999999997,-17020.0,20729.900000000001,-13445.700000000001,8671.6900000000005,-851.06399999999996,-1662.95
175213.0,36563.300000000003,-13444.4,22276.5,-9791.75,7561.5900000000001,-286.51999999999998,-1443.6600000000001
175214.0,33187.699999999997,-11003.299999999999,21203.200000000001,-7853.1499999999996,7164.8500000000004,551.69899999999996,-508.89400000000001
175215.0,28962.900000000001,-11725.799999999999,16774.700000000001,-8384.7999999999993,5799.8500000000004,1792.03,162.57599999999999
175216.0,26232.0,-11160.299999999999,14809.1,-7600.71,4814.79,2820.8699999999999,143.13900000000001
175217.0,24896.5,-7945.29,16550.299999999999,-4765.6000000000004,4152.3100000000004,3455.21,-120.369
175218.0,23882.400000000001,-5064.0299999999997,17893.0,-2450.5599999999999,4128.2600000000002,3848.4200000000001,-563.99400000000003
175219.0,23426.200000000001,-2960.6399999999999,19194.0,-875.04300000000001,3838.29,4261.3699999999999,-617.12300000000005
175220.0,41496.199999999997,-207304.0,-181073.0,-220036.0,-3501.8299999999999,-1778.1199999999999,-12799.700000000001
175221.0,61151.800000000003,-141434.0,-84792.5,-142284.0,424.87599999999998,-7170.6599999999999,-10450.6
175222.0,63904.099999999999,-86060.699999999997,-26276.0,-84122.399999999994,9817.0300000000007,-8331.2099999999991,-6437.04
175223.0,58458.0,-53578.599999999999,984.80999999999995,-51358.199999999997,10345.799999999999,-7297.6700000000001,-5017.3299999999999
175224.0,54027.0,-34596.099999999999,15988.799999999999,-31561.299999999999,11208.4,-5579.1899999999996,-3372.5999999999999
175225.0,48181.599999999999,-25376.200000000001,20254.400000000001,-21759.900000000001,10784.299999999999,-3265.1900000000001,-1858.49
175226.0,42029.900000000001,-21508.700000000001,18521.0,-18198.900000000001,9520.9899999999998,-1219.1800000000001,-1756.8699999999999
175227.0,38348.900000000001,-17766.599999999999,19538.799999999999,-14506.5,7725.3699999999999,-322.495,-1877.6300000000001
175228.0,36572.400000000001,-12246.1,23402.599999999999,-9349.4200000000001,7195.5299999999997,372.53399999999999,-1395.72
175229.0,33876.599999999999,-8533.4799999999996,24179.599999999999,-6530.3699999999999,6626.1400000000003,1431.4300000000001,-613.97000000000003
175230.0,30920.200000000001,-7104.6099999999997,22608.700000000001,-5380.25,5773.4200000000001,2638.9299999999998,-427.61399999999998
175231.0,28191.5,-5740.04,21210.200000000001,-4028.9200000000001,5118.6199999999999,3207.3099999999999,-851.22199999999998
175232.0,26509.900000000001,-3952.6399999999999,21398.799999999999,-2398.0900000000001,4430.71,3448.5500000000002,-912.53300000000002
175233.0,26270.400000000001,-1528.47,23327.799999999999,-88.501400000000004,4350.1300000000001,3910.8699999999999,-1058.6600000000001
175234.0,40581.400000000001,-254443.0,-240744.0,-266277.0,-1592.98,-6336.7600000000002,-18519.700000000001
175235.0,57457.5,-187602.0,-141984.0,-185740.0,-167.041,-11481.6,-17380.700000000001
175236.0,62166.599999999999,-119466.0,-63358.900000000001,-113712.0,8640.8899999999994,-12103.5,-10691.1
175237.0,57552.900000000001,-79506.399999999994,-25384.400000000001,-73617.899999999994,9386.0100000000002,-9619.7099999999991,-6461.6000000000004
175238.0,55148.599999999999,-51480.0,2127.54,-44853.199999999997,9910.3199999999997,-6884.4499999999998,-3746.1399999999999
175239.0,51710.800000000003,-33768.199999999997,16104.5,-28289.599999999999,11082.799999999999,-3971.5599999999999,-2169.9699999999998
175240.0,45310.300000000003,-26664.599999999999,16408.200000000001,-23312.700000000001,10229.200000000001,-1637.6500000000001,-1726.45
175241.0,40637.199999999997,-22521.900000000001,16917.200000000001,-19489.700000000001,8085.0299999999997,-309.40300000000002,-1820.04
175242.0,38636.300000000003,-16236.5,21473.200000000001,-13211.1,7393.3800000000001,411.00900000000001,-1930.45
175243.0,36430.900000000001,-10447.799999999999,24732.599999999999,-8245.6000000000004,7028.3400000000001,1071.74,-1874.0899999999999
175244.0,33648.900000000001,-6982.0,25172.799999999999,-5479.1599999999999,6475.5,1923.5799999999999,-1579.23
175245.0,30346.700000000001,-5809.0,22854.099999999999,-4820.25,5755.1199999999999,2676.5100000000002,-1397.27
175246.0,28332.200000000001,-4494.2799999999997,22541.099999999999,-3358.8099999999999,4675.2600000000002,3114.3000000000002,-1476.9200000000001
175247.0,27941.799999999999,-2945.6399999999999,23726.200000000001,-1304.53,4682.1899999999996,3507.2800000000002,-1608.75
175248.0,32332.5,-302965.0,-294666.0,-309584.0,-9595.25,-11582.9,-8146.1499999999996
175249.0,48908.0,-237855.0,-196689.0,-223699.0,-8993.9500000000007,-14310.0,-8616.1599999999999
175250.0,55039.900000000001,-159883.0,-104935.0,-143020.0,2594.3299999999999,-13152.5,-6143.3299999999999
175251.0,57026.0,-104193.0,-45862.5,-90792.0,5702.25,-10056.799999999999,-4108.2700000000004
175252.0,57365.800000000003,-66689.100000000006,-8411.2099999999991,-55330.0,9471.9200000000001,-6805.9899999999998,-2540.6399999999999
175253.0,53665.5,-45106.699999999997,7685.3299999999999,-37067.800000000003,11299.700000000001,-4111.3500000000004,-2516.5599999999999
175254.0,47803.099999999999,-34362.900000000001,11472.200000000001,-29842.900000000001,10683.799999999999,-2072.4400000000001,-2288.2800000000002
175255.0,43222.5,-28114.200000000001,13715.799999999999,-24894.5,8709.0499999999993,-487.64299999999997,-2198.3400000000001
175256.0,40632.400000000001,-21430.799999999999,18073.700000000001,-18448.700000000001,7841.46,482.70100000000002,-2170.4400000000001
175257.0,38001.699999999997,-15331.0,21529.799999999999,-12919.700000000001,7126.5799999999999,1028.79,-2076.5999999999999
175258.0,35429.800000000003,-10435.200000000001,23690.599999999999,-8665.9099999999999,6603.9200000000001,1515.6400000000001,-1845.5999999999999
175259.0,32267.200000000001,-7518.0200000000004,23033.0,-6649.0900000000001,6085.9499999999998,2177.8400000000001,-1658.4400000000001
175260.0,29897.700000000001,-6265.9499999999998,22236.900000000001,-5377.9099999999999,5055.3400000000001,2718.3299999999999,-1543.46
175261.0,29299.5,-4748.71,23473.299999999999,-3187.7199999999998,4823.29,3083.9499999999998,-1325.3800000000001
175262.0,41282.199999999997,-47079.699999999997,-7543.3699999999999,-49295.599999999999,3627.1700000000001,-485.548,1673.8
175263.0,42215.900000000001,-58889.699999999997,-18756.099999999999,-61576.599999999999,3950.9099999999999,-504.00700000000001,1715.24
175264.0,44294.199999999997,-68768.399999999994,-27009.099999999999,-71369.0,5549.1099999999997,-351.84199999999998,1828.0799999999999
175265.0,48499.599999999999,-76481.899999999994,-30278.400000000001,-77419.300000000003,7264.6499999999996,-188.03999999999999,2222.8000000000002
175266.0,52673.800000000003,-84655.399999999994,-33391.5,-83439.5,7849.04,-355.74099999999999,2720.1999999999998
175267.0,54548.900000000001,-95219.800000000003,-41704.599999999999,-93332.699999999997,7686.8000000000002,-744.18799999999999,3173.23
175268.0,56692.400000000001,-104666.0,-49684.400000000001,-102863.0,8960.6399999999994,-1215.5999999999999,3723.4899999999998
175269.0,59795.300000000003,-113652.0,-55616.0,-111266.0,9743.9500000000007,-1748.55,3919.25
175270.0,62307.599999999999,-123614.0,-62799.800000000003,-119880.0,10441.0,-2491.5999999999999,4136.6800000000003
175271.0,65558.199999999997,-136304.0,-71512.899999999994,-129045.0,11720.4,-3226.21,4976.6899999999996
175272.0,68744.100000000006,-153955.0,-83505.199999999997,-142695.0,9780.3700000000008,-3920.04,5655.96
175273.0,65758.399999999994,-175392.0,-108063.0,-165972.0,8101.5699999999997,-3374.6500000000001,5928.3000000000002
175274.0,73314.199999999997,-194455.0,-119586.0,-181379.0,11621.1,-4229.8900000000003,6293.54
175275.0,79241.199999999997,-244180.0,-155404.0,-216704.0,3394.98,-2739.98,2894.1900000000001
175276.0,40954.599999999999,-43427.099999999999,-4417.6700000000001,-46050.5,3788.4000000000001,-430.74400000000003,951.09799999999996
175277.0,41910.300000000003,-54759.900000000001,-15098.1,-57635.0,4400.6700000000001,-454.291,895.51800000000003
175278.0,44497.5,-64680.0,-22528.700000000001,-66883.300000000003,5836.54,-303.62299999999999,1016.39
175279.0,48810.300000000003,-73345.100000000006,-26498.400000000001,-73844.199999999997,7256.5799999999999,-147.03700000000001,1433.4000000000001
175280.0,52820.5,-82674.899999999994,-31174.5,-81747.5,7600.5299999999997,-308.58600000000001,1916.3499999999999
175281.0,54589.400000000001,-93791.800000000003,-40510.099999999999,-92981.399999999994,7470.0799999999999,-561.29300000000001,2253.5799999999999
175282.0,56521.400000000001,-104308.0,-49898.0,-103765.0,8876.4500000000007,-933.88499999999999,2858.21
175283.0,59950.699999999997,-113783.0,-55961.800000000003,-112220.0,9908.5300000000007,-1550.47,3511.1700000000001
175284.0,62142.199999999997,-123695.0,-63785.800000000003,-121986.0,10153.200000000001,-2550.3200000000002,3796.7399999999998
175285.0,67244.100000000006,-132333.0,-68609.0,-129113.0,13836.200000000001,-4039.48,3295.7199999999998
175286.0,71550.5,-149127.0,-77158.399999999994,-140742.0,11125.4,-5681.46,1289.5699999999999
175287.0,63719.800000000003,-177946.0,-112952.0,-170320.0,7948.7200000000003,-5042.1300000000001,1603.1500000000001
175288.0,70481.600000000006,-198696.0,-127730.0,-186475.0,12334.0,-6628.54,4514.3400000000001
175289.0,81969.199999999997,-245324.0,-156374.0,-218660.0,6106.5900000000001,-10694.0,2058.29
175290.0,40769.599999999999,-38282.800000000003,136.524,-41447.0,4230.46,-219.57499999999999,482.82999999999998
175291.0,42492.099999999999,-48308.699999999997,-8469.7199999999993,-51587.099999999999,5059.0100000000002,-252.63200000000001,188.006
175292.0,45690.900000000001,-57780.400000000001,-14645.200000000001,-60145.099999999999,6306.7700000000004,-112.24299999999999,139.929
175293.0,49895.599999999999,-67253.899999999994,-19340.700000000001,-67898.399999999994,7347.9499999999998,16.235099999999999,454.57999999999998
175294.0,52969.300000000003,-78617.199999999997,-26892.799999999999,-78073.699999999997,7182.2399999999998,-73.972700000000003,1060.3900000000001
175295.0,53841.199999999997,-91478.300000000003,-39083.099999999999,-91355.5,7078.5900000000001,-402.75599999999997,1753.8399999999999
175296.0,55226.599999999999,-103147.0,-50204.900000000001,-103358.0,8466.9899999999998,-1016.35,2432.4299999999998
175297.0,58057.099999999999,-113145.0,-57492.900000000001,-112273.0,9742.4099999999999,-2029.6300000000001,2838.6199999999999
175298.0,60063.599999999999,-123371.0,-65831.199999999997,-122220.0,10266.1,-2735.0100000000002,2772.6500000000001
175299.0,67076.600000000006,-127623.0,-65384.400000000001,-126044.0,14616.4,-3455.6999999999998,3859.9499999999998
175300.0,74311.699999999997,-138137.0,-65183.300000000003,-133081.0,12002.0,-5499.0200000000004,2606.6399999999999
175301.0,66820.199999999997,-165469.0,-100311.0,-163168.0,9262.4500000000007,-5952.4399999999996,-353.71300000000002
175302.0,71900.899999999994,-186243.0,-117535.0,-179954.0,14452.4,-8439.2399999999998,-629.54300000000001
175303.0,83159.100000000006,-228477.0,-145097.0,-213554.0,9684.7999999999993,-14989.6,-3126.6500000000001
175304.0,40499.099999999999,-32970.599999999999,4780.1499999999996,-36512.800000000003,4776.9300000000003,221.41200000000001,247.01300000000001
175305.0,43160.800000000003,-41258.0,-964.77499999999998,-44614.699999999997,5558.8699999999999,162.983,63.527799999999999
175306.0,46723.400000000001,-50281.199999999997,-6122.6999999999998,-52611.699999999997,6441.71,270.66500000000002,131.398
175307.0,50392.300000000003,-60584.800000000003,-12062.799999999999,-61334.300000000003,7006.5200000000004,174.15600000000001,483.74200000000002
175308.0,52219.0,-74109.399999999994,-22999.0,-73815.199999999997,6518.2399999999998,-186.922,802.10400000000004
175309.0,51943.199999999997,-88863.899999999994,-38436.699999999997,-89194.800000000003,6683.9799999999996,-601.774,1046.3
175310.0,53412.599999999999,-100145.0,-49409.699999999997,-101058.0,8612.1700000000001,-1217.1400000000001,1258.9200000000001
175311.0,57103.400000000001,-108411.0,-54862.400000000001,-109261.0,10489.9,-2108.0,1105.8399999999999
175312.0,60802.900000000001,-114994.0,-58156.199999999997,-115254.0,11962.200000000001,-2648.5599999999999,641.01499999999999
175313.0,65731.699999999997,-121832.0,-60564.699999999997,-120559.0,14150.4,-3466.23,1483.01
175314.0,70783.899999999994,-131467.0,-63897.900000000001,-128905.0,13094.200000000001,-5471.3900000000003,1544.71
175315.0,69798.199999999997,-147741.0,-82535.199999999997,-148634.0,12376.6,-5802.5,-377.74099999999999
175316.0,76636.300000000003,-160891.0,-90949.600000000006,-161982.0,15646.1,-7390.6300000000001,-1357.3399999999999
175317.0,87701.199999999997,-192710.0,-111463.0,-192944.0,13466.0,-12327.299999999999,-4880.8000000000002
175318.0,39829.800000000003,-28483.799999999999,8458.8799999999992,-31976.0,5109.9099999999999,810.42700000000002,212.119
175319.0,42920.300000000003,-35554.599999999999,4546.6099999999997,-38626.800000000003,5787.9300000000003,540.0,102.084
175320.0,46291.699999999997,-44351.0,-370.98200000000003,-46225.0,6387.5699999999997,320.12400000000002,119.697
175321.0,49250.800000000003,-55401.099999999999,-7838.5,-56022.599999999999,6668.1000000000004,-38.766399999999997,183.27799999999999
175322.0,50896.900000000001,-68596.899999999994,-19168.299999999999,-68920.399999999994,6594.4799999999996,-500.62400000000002,-34.497199999999999
175323.0,51409.099999999999,-82403.399999999994,-33171.300000000003,-83647.100000000006,7175.54,-703.48400000000004,-350.91199999999998
175324.0,53649.400000000001,-92676.300000000003,-42554.900000000001,-94759.100000000006,9227.3500000000004,-787.89099999999996,-158.57900000000001
175325.0,58152.199999999997,-98932.0,-45349.599999999999,-101150.0,11302.9,-1069.6900000000001,212.762
175326.0,63284.300000000003,-103172.0,-45204.199999999997,-105110.0,13171.9,-1595.4200000000001,377.41699999999997
175327.0,67699.0,-108103.0,-46188.300000000003,-109710.0,14432.299999999999,-2754.9400000000001,45.065800000000003
175328.0,71666.600000000006,-115992.0,-50630.699999999997,-117668.0,15291.9,-3998.3899999999999,-851.11099999999999
175329.0,74319.800000000003,-125663.0,-58155.0,-128102.0,15576.299999999999,-4424.1400000000003,-1728.71
175330.0,79444.899999999994,-139009.0,-67537.600000000006,-143328.0,16296.4,-4748.9399999999996,-1971.47
175331.0,87798.600000000006,-157297.0,-78655.0,-165115.0,15055.9,-7003.5500000000002,-2638.4899999999998
175332.0,38397.199999999997,-25879.5,9870.6599999999999,-28779.799999999999,5123.8599999999997,1331.02,178.149
175333.0,41786.599999999999,-31560.0,7510.5799999999999,-34256.900000000001,5898.6700000000001,921.29700000000003,111.86499999999999
175334.0,45750.300000000003,-38844.099999999999,4448.6899999999996,-40689.099999999999,6703.5900000000001,455.21199999999999,-192.714
175335.0,49086.099999999999,-48633.699999999997,-1615.3900000000001,-49766.599999999999,6909.2299999999996,86.507199999999997,-558.84699999999998
175336.0,51092.099999999999,-60629.5,-11792.700000000001,-62093.5,7072.9300000000003,-116.426,-731.61900000000003
175337.0,52583.599999999999,-72749.199999999997,-23142.400000000001,-75025.5,7836.8999999999996,-146.92500000000001,-771.36099999999999
175338.0,54870.099999999999,-83093.800000000003,-32044.799999999999,-85639.300000000003,9443.5400000000009,-50.863900000000001,-502.23399999999998
175339.0,58462.599999999999,-89929.300000000003,-36099.599999999999,-92236.100000000006,11411.799999999999,-131.97499999999999,52.244799999999998
175340.0,63457.199999999997,-93471.899999999994,-35458.099999999999,-95473.600000000006,13407.5,-593.66200000000003,496.65100000000001
175341.0,69040.600000000006,-95534.100000000006,-33197.599999999999,-98324.100000000006,15229.299999999999,-986.99800000000005,336.61200000000002
175342.0,75968.5,-96363.600000000006,-28362.099999999999,-99915.300000000003,17197.900000000001,-1255.78,-532.01599999999996
175343.0,80874.600000000006,-102983.0,-30626.799999999999,-107823.0,17481.799999999999,-1323.6500000000001,-1783.4300000000001
175344.0,84683.699999999997,-113498.0,-37623.300000000003,-119477.0,17326.5,-1515.0799999999999,-2414.6199999999999
175345.0,90084.199999999997,-134361.0,-54515.199999999997,-143911.0,16761.799999999999,-1431.8900000000001,-3516.0500000000002
175346.0,36736.199999999997,-23996.0,10376.5,-26240.599999999999,5070.1300000000001,1703.3900000000001,-149.90700000000001
175347.0,40184.400000000001,-29031.099999999999,8683.3999999999996,-31100.599999999999,5905.7700000000004,1345.6900000000001,-26.378499999999999
175348.0,44689.199999999997,-34590.5,7754.0500000000002,-36035.800000000003,6787.29,924.221,57.658299999999997
175349.0,48559.0,-43115.0,3537.29,-43961.300000000003,6837.29,600.60799999999995,-73.555000000000007
175350.0,50427.800000000003,-54422.400000000001,-6091.1199999999999,-55738.300000000003,6852.6199999999999,492.041,-200.536
175351.0,52121.199999999997,-65763.800000000003,-16558.400000000001,-67829.800000000003,7934.6800000000003,407.59399999999999,-218.173
175352.0,54772.300000000003,-74929.800000000003,-23824.0,-77089.0,9533.9300000000003,255.16900000000001,-317.37700000000001
175353.0,58160.400000000001,-81907.399999999994,-28141.900000000001,-83694.199999999997,11435.0,268.00099999999998,-227.012
175354.0,63155.0,-84699.199999999997,-26990.799999999999,-86120.699999999997,13833.5,218.75399999999999,-0.71594599999999997
175355.0,70634.199999999997,-85431.600000000006,-20915.200000000001,-85968.699999999997,16228.200000000001,768.79899999999998,121.42400000000001
175356.0,78844.699999999997,-84986.600000000006,-12782.4,-85975.0,17513.099999999999,1824.1199999999999,439.18599999999998
175357.0,85623.0,-87910.5,-10141.5,-91704.5,17764.200000000001,2963.4299999999998,510.51799999999997
175358.0,89113.399999999994,-96544.300000000003,-16673.400000000001,-104762.0,16565.0,2214.75,-83.736199999999997
175359.0,98919.800000000003,-112636.0,-25298.599999999999,-121370.0,20523.900000000001,4237.2399999999998,-486.20400000000001
175360.0,35253.699999999997,-22134.5,10968.0,-23803.599999999999,5039.8500000000004,2019.3399999999999,-439.33999999999997
175361.0,38598.400000000001,-26792.5,9727.4699999999993,-28006.799999999999,5815.8800000000001,1683.5699999999999,-331.30599999999998
175362.0,42648.300000000003,-32614.200000000001,8224.4799999999996,-33029.699999999997,6563.9399999999996,1242.0699999999999,-138.96600000000001
175363.0,46219.099999999999,-40485.199999999997,4343.1000000000004,-40310.300000000003,6654.4700000000003,717.01499999999999,-132.786
175364.0,47926.199999999997,-51421.400000000001,-5067.1599999999999,-51718.5,6669.8400000000001,454.56299999999999,-297.875
175365.0,49794.699999999997,-61536.099999999999,-14142.1,-62488.699999999997,7887.1199999999999,392.334,-249.59100000000001
175366.0,53158.900000000001,-69442.100000000006,-19547.0,-70500.399999999994,9694.5799999999999,347.536,-191.86600000000001
175367.0,57627.0,-74291.100000000006,-20540.0,-74803.600000000006,11592.1,446.72300000000001,-230.387
175368.0,63457.199999999997,-77415.100000000006,-18797.5,-76997.600000000006,14282.4,1020.3200000000001,-13.3483
175369.0,72277.300000000003,-77549.600000000006,-9286.8299999999999,-74059.399999999994,16118.200000000001,1790.26,648.08100000000002
175370.0,77674.899999999994,-85551.899999999994,-10448.799999999999,-80487.199999999997,15339.6,3243.46,1840.5699999999999
175371.0,83518.100000000006,-92893.199999999997,-12188.1,-88463.100000000006,14959.299999999999,5360.5600000000004,3756.3000000000002
175372.0,87043.0,-103208.0,-22606.5,-107207.0,13435.799999999999,7163.7399999999998,3920.3299999999999
175373.0,111376.0,-103392.0,-3701.2800000000002,-103870.0,26500.400000000001,9031.7900000000009,4722.9200000000001
175374.0,33804.699999999997,-20264.099999999999,11662.799999999999,-21219.200000000001,5008.0200000000004,2253.3200000000002,-719.51999999999998
175375.0,37172.599999999999,-24715.400000000001,10705.1,-25170.799999999999,5739.5600000000004,1896.9300000000001,-640.995
175376.0,40839.0,-30374.599999999999,9005.2099999999991,-30115.099999999999,6334.2600000000002,1398.9200000000001,-567.09500000000003
175377.0,44008.199999999997,-38243.800000000003,4550.1999999999998,-37591.300000000003,6575.8900000000003,832.18299999999999,-603.10199999999998
175378.0,46147.5,-47557.699999999997,-2949.1300000000001,-47306.300000000003,7020.1400000000003,504.54199999999997,-858.05499999999995
175379.0,48562.699999999997,-56722.699999999997,-10391.299999999999,-56862.300000000003,8196.75,443.42200000000003,-1016.95
175380.0,52033.199999999997,-63484.900000000001,-14532.4,-63565.099999999999,10073.200000000001,496.31700000000001,-822.16499999999996
175381.0,57657.5,-67669.5,-13559.700000000001,-66577.300000000003,12272.4,657.38599999999997,-654.65200000000004
175382.0,64182.400000000001,-70402.199999999997,-9736.1399999999994,-67138.899999999994,14393.200000000001,1256.78,-174.685
175383.0,72698.800000000003,-75496.699999999997,-4524.4399999999996,-67956.300000000003,15439.4,1837.9100000000001,603.70000000000005
175384.0,76180.399999999994,-88637.399999999994,-12295.0,-79179.899999999994,13903.200000000001,2855.9099999999999,1077.79
175385.0,78540.800000000003,-106921.0,-26617.400000000001,-95546.899999999994,11987.9,4076.2600000000002,2769.5
175386.0,80207.100000000006,-131786.0,-51197.300000000003,-122408.0,9574.75,8873.7800000000007,5633.2600000000002
175387.0,115158.0,-132045.0,-21370.799999999999,-116069.0,23352.900000000001,11031.700000000001,13221.700000000001
175388.0,32323.599999999999,-18446.799999999999,12342.4,-18584.099999999999,4915.7799999999997,2384.2800000000002,-1007.3099999999999
175389.0,35562.300000000003,-22753.400000000001,11451.200000000001,-22366.900000000001,5575.8699999999999,2025.9000000000001,-857.48699999999997
175390.0,39012.199999999997,-28394.299999999999,9491.5900000000001,-27486.700000000001,6086.1000000000004,1548.3299999999999,-787.20799999999997
175391.0,42060.599999999999,-35416.400000000001,5541.6199999999999,-34395.400000000001,6500.0799999999999,1050.96,-865.52499999999998
175392.0,44802.099999999999,-43677.5,-327.38999999999999,-42852.099999999999,7273.9499999999998,763.13699999999994,-934.00300000000004
175393.0,47701.900000000001,-51393.0,-5497.5699999999997,-50574.0,8204.7299999999996,683.87800000000004,-938.79899999999998
175394.0,51305.099999999999,-58049.300000000003,-9385.0200000000004,-57020.599999999999,10157.700000000001,806.303,-710.24000000000001
175395.0,57858.099999999999,-61210.099999999999,-6072.8900000000003,-57966.099999999999,12560.700000000001,827.01499999999999,-374.82499999999999
175396.0,64352.199999999997,-66930.100000000006,-4221.79,-60700.099999999999,13622.299999999999,1152.8599999999999,116.351
175397.0,72164.899999999994,-74818.0,-2668.6700000000001,-64346.900000000001,14626.1,1166.0999999999999,862.07799999999997
175398.0,76292.600000000006,-95337.5,-16128.5,-81415.5,12002.299999999999,2419.1399999999999,1378.05
175399.0,75518.5,-119543.0,-40269.0,-106204.0,9154.2800000000007,3164.7399999999998,2359.6500000000001
175400.0,75810.399999999994,-157338.0,-75973.300000000003,-138357.0,7687.0500000000002,5058.4300000000003,4360.8000000000002
175401.0,100035.0,-197561.0,-90086.800000000003,-161611.0,8910.1800000000003,4970.25,15440.799999999999
175402.0,31062.700000000001,-16032.299999999999,13695.0,-15617.799999999999,4849.79,2359.8099999999999,-1421.6700000000001
175403.0,33821.699999999997,-20636.200000000001,12143.200000000001,-19490.099999999999,5458.0200000000004,1954.46,-1270.6900000000001
175404.0,36857.300000000003,-26373.900000000001,9786.3400000000001,-24573.5,5820.1999999999998,1524.9400000000001,-1177.97
175405.0,39629.400000000001,-33236.400000000001,5640.2399999999998,-31367.200000000001,6344.1999999999998,1162.52,-1075.0799999999999
175406.0,42639.099999999999,-40317.800000000003,1321.8800000000001,-38371.900000000001,7220.8999999999996,788.82399999999996,-1028.4400000000001
175407.0,45516.300000000003,-48057.599999999999,-3743.8699999999999,-45885.199999999997,8070.9200000000001,538.54700000000003,-1047.1300000000001
175408.0,49588.900000000001,-53769.300000000003,-6002.8500000000004,-50797.400000000001,10134.200000000001,582.29200000000003,-690.65499999999997
175409.0,56148.400000000001,-58297.300000000003,-3540.6799999999998,-52686.199999999997,11969.700000000001,287.69999999999999,-124.753
175410.0,62663.800000000003,-65876.0,-3144.6300000000001,-56615.800000000003,12728.9,280.22399999999999,349.48899999999998
175411.0,69542.100000000006,-78675.899999999994,-7312.2200000000003,-65557.800000000003,12947.9,-60.442799999999998,1216.3
175412.0,73772.800000000003,-103396.0,-24424.900000000001,-85292.600000000006,10012.9,85.850300000000004,1539.95
175413.0,70196.800000000003,-142585.0,-65935.699999999997,-125081.0,4261.7299999999996,1714.24,2854.9499999999998
175414.0,71464.600000000006,-176332.0,-98744.199999999997,-156684.0,6964.7799999999997,689.77999999999997,5124.25
175415.0,89440.399999999994,-242835.0,-141695.0,-202579.0,4911.0900000000001,-5827.6099999999997,3962.75
175416.0,30304.200000000001,-12826.799999999999,16158.700000000001,-12142.1,4913.6700000000001,2310.0100000000002,-1744.2
175417.0,32735.200000000001,-16990.799999999999,14643.6,-15637.700000000001,5511.3900000000003,1900.21,-1813.9300000000001
175418.0,35286.199999999997,-22748.599999999999,11869.700000000001,-20588.799999999999,5784.7799999999997,1386.6900000000001,-1882.95
175419.0,37454.699999999997,-29778.0,7108.1099999999997,-27189.400000000001,6286.1000000000004,995.68899999999996,-1782.8099999999999
175420.0,40242.599999999999,-36810.800000000003,2753.6500000000001,-33875.800000000003,7139.1999999999998,600.19500000000005,-1596.75
175421.0,43424.199999999997,-43512.699999999997,-1053.9400000000001,-40281.900000000001,8202.1200000000008,327.93000000000001,-1582.0999999999999
175422.0,48189.699999999997,-49077.300000000003,-2160.48,-44496.699999999997,10167.5,93.005700000000004,-1269.2
175423.0,53709.0,-55491.900000000001,-2274.3699999999999,-48522.300000000003,11146.200000000001,-449.447,-722.58399999999995
175424.0,60295.800000000003,-64613.599999999999,-3805.8099999999999,-53890.0,12521.4,-1251.6199999999999,-80.918199999999999
175425.0,66556.5,-82481.800000000003,-12548.0,-66897.699999999997,11187.1,-1864.0599999999999,222.24000000000001
175426.0,69669.5,-111038.0,-35971.900000000001,-92450.399999999994,9133.6200000000008,-2406.5599999999999,610.67399999999998
175427.0,66312.699999999997,-156435.0,-82603.0,-136240.0,2552.6999999999998,-1729.47,-527.59000000000003
175428.0,64601.099999999999,-202609.0,-131859.0,-184603.0,5060.0900000000001,-1744.72,3237.4000000000001
175429.0,88649.399999999994,-255018.0,-158294.0,-226169.0,2860.9699999999998,-11320.0,4178.0699999999997
175430.0,30219.400000000001,-9140.9799999999996,19613.700000000001,-8332.4500000000007,5135.8299999999999,2390.1500000000001,-2058.1900000000001
175431.0,32240.799999999999,-12596.6,18311.799999999999,-11517.4,5507.1999999999998,2031.96,-2078.52
175432.0,34588.800000000003,-17177.599999999999,16270.200000000001,-15511.9,6023.1700000000001,1445.5999999999999,-2270.5500000000002
175433.0,36926.599999999999,-23291.5,12630.0,-20960.099999999999,6552.8299999999999,936.51400000000001,-2587.0900000000001
175434.0,39304.900000000001,-30153.799999999999,8146.6099999999997,-27247.099999999999,7289.9099999999999,568.88999999999999,-2609.6599999999999
175435.0,42305.599999999999,-37023.199999999997,4222.9799999999996,-33400.699999999997,8351.9200000000001,245.46199999999999,-2262.9499999999998
175436.0,46553.099999999999,-43180.199999999997,2520.73,-37967.5,9688.4300000000003,-389.18700000000001,-1593.1700000000001
175437.0,51026.400000000001,-51721.099999999999,-707.15200000000004,-44198.599999999999,10339.1,-1178.72,-1090.76
175438.0,57603.400000000001,-61434.0,-3410.9000000000001,-50725.199999999997,12089.799999999999,-2522.3699999999999,-436.67599999999999
175439.0,64651.0,-81278.699999999997,-13109.9,-64961.599999999999,10539.0,-3809.1500000000001,-835.41499999999996
175440.0,66484.800000000003,-115705.0,-43558.199999999997,-96990.300000000003,7426.9499999999998,-4022.3699999999999,-581.447
175441.0,66257.800000000003,-160107.0,-86961.100000000006,-140678.0,3953.5500000000002,-3200.8600000000001,-1392.4300000000001
175442.0,63108.5,-216044.0,-146098.0,-197857.0,-386.87200000000001,-3186.2399999999998,458.40899999999999
175443.0,71348.199999999997,-284738.0,-213284.0,-270980.0,-6657.79,-13603.299999999999,5492.5500000000002
175444.0,30396.599999999999,-6142.0500000000002,22849.299999999999,-5155.5799999999999,5060.9399999999996,2709.1100000000001,-2018.54
175445.0,31452.900000000001,-8740.0499999999993,21268.700000000001,-7945.3599999999997,5315.7299999999996,2320.1199999999999,-1919.6199999999999
175446.0,33797.300000000003,-11616.200000000001,20605.200000000001,-10524.200000000001,6211.2600000000002,1752.5,-2087.98
175447.0,36789.400000000001,-15712.299999999999,19759.799999999999,-13875.4,6707.0600000000004,1239.0,-2409.2399999999998
175448.0,39247.5,-21773.299999999999,16169.6,-19428.599999999999,7324.9899999999998,872.46900000000005,-2640.8000000000002
175449.0,41934.5,-28491.0,12164.799999999999,-25263.0,8278.2399999999998,362.94,-2610.0700000000002
175450.0,44905.199999999997,-36022.099999999999,7754.4300000000003,-31631.0,9236.2299999999996,-696.23199999999997,-2284.6799999999998
175451.0,48986.300000000003,-44265.199999999997,3932.8400000000001,-37689.599999999999,10424.799999999999,-2004.4000000000001,-2017.6099999999999
175452.0,55030.400000000001,-55836.900000000001,-720.26999999999998,-45888.400000000001,11485.0,-3540.0300000000002,-1477.9100000000001
175453.0,61484.199999999997,-75732.899999999994,-11660.799999999999,-60999.400000000001,10089.200000000001,-5535.2600000000002,-1252.6500000000001
175454.0,62035.800000000003,-115395.0,-48089.099999999999,-97053.800000000003,4726.6400000000003,-6940.8000000000002,-1278.96
175455.0,60117.699999999997,-169228.0,-102567.0,-147592.0,900.00800000000004,-6821.4700000000003,928.76599999999996
175456.0,57565.300000000003,-237185.0,-176925.0,-216628.0,-9907.0300000000007,-8016.3199999999997,1950.2
175457.0,46908.199999999997,-309359.0,-275861.0,-309822.0,-13258.1,-13309.700000000001,1123.4300000000001
210332.0,58.015700000000002,-2.6099800000000002,18.478400000000001,29.8888,-10.0352,-3.4804200000000001,27.152799999999999
210333.0,88.595200000000006,-93.512,-84.509600000000006,-24.0853,-12.829499999999999,-8.3487299999999998,30.930599999999998
210334.0,68.103999999999999,-37.066600000000001,-64.700500000000005,-2.3692099999999998,-19.066600000000001,-12.6821,6.79908
210335.0,54.253100000000003,15.7338,-13.0307,34.888599999999997,-17.366299999999999,-9.8836200000000005,-0.31851400000000002
210336.0,96.142700000000005,-93.103800000000007,-86.739599999999996,-16.242000000000001,-15.499499999999999,-9.4272200000000002,30.534300000000002
210337.0,54.299599999999998,-6.8912100000000001,11.8216,23.5883,-11.732900000000001,-6.6947599999999996,23.7501
210338.0,65.069199999999995,-131.91200000000001,-105.16500000000001,-90.986800000000002,-7.6963699999999999,-1.48468,30.2989
210339.0,76.170199999999994,-22.013999999999999,-12.183400000000001,27.914100000000001,-13.1591,-3.8459699999999999,32.349200000000003
210340.0,49.215299999999999,-37.371499999999997,-22.575099999999999,-10.3093,-11.23,-7.6810700000000001,20.943899999999999
210341.0,55.624099999999999,-34.185000000000002,-24.541799999999999,-2.7970899999999999,-11.519600000000001,-8.6118000000000006,23.790400000000002
210342.0,62.228299999999997,-48.093299999999999,-37.456499999999998,-9.9524399999999993,-10.835599999999999,-8.5092300000000005,26.713000000000001
210343.0,72.311400000000006,-55.625900000000001,-45.616599999999998,-5.6448600000000004,-10.743,-8.4427099999999999,29.273700000000002
210344.0,81.942400000000006,-72.252499999999998,-61.343299999999999,-12.0511,-11.383699999999999,-7.6585599999999996,31.954999999999998
210345.0,98.397000000000006,-96.935699999999997,-93.931100000000001,-18.304500000000001,-17.858599999999999,-10.9472,28.343299999999999
210346.0,100.708,-91.0929,-94.344499999999996,-13.3178,-20.948799999999999,-12.862299999999999,25.928599999999999
210347.0,99.015100000000004,-88.613699999999994,-97.104600000000005,-15.3592,-22.915900000000001,-13.445499999999999,23.2803
210348.0,93.908000000000001,-82.117199999999997,-97.9161,-16.6691,-23.158999999999999,-13.596299999999999,19.0443
210349.0,82.147599999999997,-71.988200000000006,-94.754499999999993,-20.734500000000001,-21.3734,-13.164400000000001,13.487500000000001
210350.0,38.241599999999998,69.174700000000001,43.733199999999997,71.424599999999998,-15.3874,-2.0863100000000001,-3.1347499999999999
210351.0,34.581299999999999,71.863900000000001,48.603000000000002,59.795999999999999,-15.3561,4.5815700000000001,-2.5473599999999998
210352.0,39.7254,80.617400000000004,57.960700000000003,58.021099999999997,-16.590599999999998,7.6067299999999998,-4.7192600000000002
210353.0,46.384900000000002,74.820300000000003,50.170099999999998,48.666600000000003,-19.788799999999998,8.9253499999999999,-5.5026599999999997
210354.0,52.306100000000001,74.687299999999993,46.538499999999999,49.266599999999997,-23.620999999999999,9.2136099999999992,-5.3043100000000001
210355.0,75.1648,-51.7348,-19.2361,-4.7891700000000004,-6.3048900000000003,0.75603399999999998,35.564
210356.0,97.920400000000001,-81.813900000000004,-70.497799999999998,-1.93207,-9.7285599999999999,-8.0146700000000006,34.188499999999998
210357.0,90.754999999999995,-87.198099999999997,-109.239,-21.461400000000001,-19.6023,-11.002800000000001,12.4437
210358.0,67.859899999999996,-65.322400000000002,-90.063199999999995,-24.285,-17.204000000000001,-11.171200000000001,3.2228300000000001
210359.0,103.26900000000001,-84.1524,-75.354399999999998,1.43927,-12.467499999999999,-8.8320100000000004,33.235999999999997
210360.0,73.822199999999995,-81.283500000000004,-57.499000000000002,-28.722200000000001,-8.2090700000000005,-1.3125199999999999,32.476300000000002
210361.0,76.601500000000001,-91.318700000000007,-62.081800000000001,-38.254899999999999,-2.6847300000000001,4.1831899999999997,34.997799999999998
210362.0,89.812200000000004,-10.6927,12.082700000000001,50.520499999999998,-6.5463800000000001,2.3249399999999998,41.027799999999999
210363.0,77.380700000000004,-74.722499999999997,-54.982300000000002,-18.5184,-6.08819,-1.42225,33.820099999999996
210364.0,81.194299999999998,-80.8887,-64.458600000000004,-21.251899999999999,-4.5637999999999996,-2.77413,34.9298
210365.0,84.703800000000001,-77.165000000000006,-63.455399999999997,-13.703799999999999,-4.7231100000000001,-4.5539699999999996,35.1205
210366.0,88.988100000000003,-77.202299999999994,-64.991,-9.1310199999999995,-6.0332400000000002,-6.3330900000000003,35.297699999999999
210367.0,93.769499999999994,-77.152699999999996,-64.9422,-3.3747400000000001,-7.8889899999999997,-7.2584400000000002,35.386099999999999
210368.0,107.571,-89.899699999999996,-83.390299999999996,0.210867,-15.3591,-9.1330299999999998,31.8217
210369.0,112.024,-95.817599999999999,-93.403700000000001,-1.6815100000000001,-17.927299999999999,-9.5536300000000001,29.8399
210370.0,115.245,-100.447,-103.596,-4.7425699999999997,-20.1721,-10.493600000000001,27.4451
210371.0,115.45099999999999,-100.77800000000001,-110.455,-7.09307,-21.677,-11.5076,24.116900000000001
210372.0,107.78100000000001,-99.055499999999995,-115.471,-14.5413,-21.377300000000002,-11.76,18.541399999999999
210373.0,48.457299999999996,16.755199999999999,-6.9993600000000002,34.785899999999998,-15.3779,-9.0501199999999997,-5.0086300000000001
210374.0,33.883899999999997,64.516300000000001,44.747100000000003,63.201599999999999,-15.7525,-1.2484200000000001,-3.2892800000000002
210375.0,34.845599999999997,76.034499999999994,57.814300000000003,57.242199999999997,-16.0472,4.9413900000000002,-2.9269400000000001
210376.0,42.9206,79.766199999999998,58.264000000000003,51.646799999999999,-18.1143,6.8692299999999999,-4.7547600000000001
210377.0,50.023299999999999,76.822100000000006,50.635800000000003,47.096800000000002,-22.250499999999999,8.1295500000000001,-3.0491100000000002
210378.0,79.239800000000002,-76.928799999999995,-48.041499999999999,-24.3535,-6.9176200000000003,3.5928599999999999,36.591299999999997
210379.0,87.487099999999998,-67.879599999999996,-64.562200000000004,2.1499600000000001,-7.4991300000000001,-0.99374300000000004,30.547699999999999
210380.0,100.587,-88.391400000000004,-109.10899999999999,-9.1315299999999997,-18.946100000000001,-6.5687899999999999,13.6386
210381.0,75.776200000000003,-79.798599999999993,-99.408100000000005,-23.2821,-17.092500000000001,-4.6448400000000003,6.16303
210382.0,90.597999999999999,-71.500799999999998,-69.855099999999993,2.37588,-9.9478399999999993,-1.09057,29.261199999999999
210383.0,87.275999999999996,-76.677000000000007,-55.094799999999999,-15.373699999999999,-5.7509399999999999,3.1767799999999999,39.101500000000001
210384.0,78.549999999999997,-3.4508000000000001,22.0,43.308999999999997,-2.3002699999999998,6.0483599999999997,38.2986
210385.0,81.265699999999995,-30.809699999999999,-2.0369999999999999,16.3459,-5.2540100000000001,4.2885099999999996,39.880600000000001
210386.0,91.572699999999998,-74.8613,-56.907699999999998,-10.2835,-5.0956099999999998,0.54871099999999995,40.716700000000003
210387.0,91.538499999999999,-72.284899999999993,-57.807400000000001,-6.2423799999999998,-4.3097700000000003,-1.00126,39.604199999999999
210388.0,89.775899999999993,-69.765500000000003,-59.403300000000002,-3.1726399999999999,-3.6913200000000002,-1.52738,37.237499999999997
210389.0,87.570599999999999,-68.197100000000006,-60.718299999999999,-1.4837,-4.0353300000000001,-1.24282,34.676900000000003
210390.0,86.441199999999995,-68.018799999999999,-63.061,-0.28147100000000003,-5.3072699999999999,-1.05461,32.182600000000001
210391.0,96.119100000000003,-75.470600000000005,-76.216200000000001,3.5359099999999999,-12.645200000000001,-1.7830699999999999,28.566500000000001
210392.0,103.124,-80.528499999999994,-84.776300000000006,4.1925299999999996,-15.2781,-3.0207000000000002,27.996600000000001
210393.0,110.032,-87.590299999999999,-96.652600000000007,2.10053,-17.567799999999998,-4.3999199999999998,26.9802
210394.0,114.813,-93.337199999999996,-108.273,-0.92283300000000001,-19.229800000000001,-5.9207900000000002,24.654900000000001
210395.0,112.991,-95.947800000000001,-115.387,-5.9413,-19.7685,-7.2245900000000001,20.076899999999998
210396.0,50.005899999999997,-35.673000000000002,-55.269100000000002,-9.1180000000000003,-15.227399999999999,-4.6057100000000002,-6.6277200000000001
210397.0,37.432400000000001,51.625599999999999,32.470999999999997,54.639299999999999,-16.496700000000001,-1.1584399999999999,-7.0008999999999997
210398.0,35.242800000000003,80.626999999999995,65.100099999999998,62.948500000000003,-17.3201,4.3513700000000002,-1.4346000000000001
210399.0,43.666800000000002,76.644000000000005,58.593000000000004,45.223300000000002,-18.302499999999998,5.7642699999999998,-4.3299000000000003
210400.0,50.4467,84.211399999999998,59.044199999999996,49.6828,-21.8902,6.9673600000000002,-1.3003400000000001
210401.0,77.959500000000006,-53.1646,-41.017699999999998,-3.8076400000000001,-6.3015400000000001,7.8509099999999998,35.5411
210402.0,74.200100000000006,-46.456600000000002,-50.563400000000001,8.6320200000000007,-7.05565,2.6063399999999999,26.1921
210403.0,87.813599999999994,-76.383399999999995,-105.068,-15.3165,-17.675699999999999,-1.7205299999999999,12.401300000000001
210404.0,65.490200000000002,-67.543899999999994,-91.299499999999995,-25.427900000000001,-17.466200000000001,-1.15232,3.2242999999999999
210405.0,76.794300000000007,-47.191499999999998,-53.776600000000002,10.2849,-8.7395399999999999,2.3749699999999998,25.337199999999999
210406.0,85.084199999999996,-69.923699999999997,-56.736499999999999,-19.079899999999999,-4.8768099999999999,7.46713,40.464700000000001
210407.0,71.007599999999996,52.203400000000002,69.905199999999994,85.069900000000004,-4.8699500000000002,6.2716099999999999,36.702300000000001
210408.0,61.319899999999997,-73.428899999999999,-49.060899999999997,-44.539099999999998,-2.3820999999999999,8.6964299999999994,30.505700000000001
210409.0,87.764499999999998,-66.049000000000007,-59.348500000000001,-9.4324600000000007,-5.1244199999999998,5.9230499999999999,39.359900000000003
210410.0,85.612700000000004,-63.447600000000001,-59.650100000000002,-7.0962800000000001,-4.5528700000000004,5.30708,37.447499999999998
210411.0,81.331299999999999,-56.884500000000003,-55.750300000000003,-0.70504500000000003,-4.6749499999999999,4.0469799999999996,33.696599999999997
210412.0,77.247,-51.521799999999999,-52.041600000000003,3.47296,-4.9520600000000004,3.2637999999999998,30.595700000000001
210413.0,74.518900000000002,-46.746000000000002,-48.988900000000001,7.7460699999999996,-5.7698099999999997,2.7646099999999998,27.8904
210414.0,82.071399999999997,-52.528199999999998,-62.599600000000002,8.7958599999999993,-10.5578,2.1793300000000002,25.2149
210415.0,89.464200000000005,-59.305599999999998,-74.291899999999998,7.1681800000000004,-12.4946,1.7978400000000001,25.0749
210416.0,96.895399999999995,-67.923900000000003,-88.213800000000006,3.5885400000000001,-14.319699999999999,1.2000599999999999,24.444199999999999
210417.0,102.31100000000001,-73.251499999999993,-99.191699999999997,1.5297499999999999,-16.045999999999999,0.38273200000000002,22.2837
210418.0,100.43000000000001,-79.825100000000006,-109.605,-7.5454999999999997,-17.115500000000001,-0.543242,17.728000000000002
210419.0,45.719799999999999,-3.05654,-23.5214,14.5496,-16.233899999999998,1.29694,-8.2773699999999995
210420.0,35.990099999999998,62.020499999999998,42.260399999999997,54.962499999999999,-16.826000000000001,3.7355100000000001,-5.8671899999999999
210421.0,41.259300000000003,87.832300000000004,71.312399999999997,58.860100000000003,-18.029299999999999,5.3026499999999999,-1.74542
210422.0,50.120399999999997,86.854600000000005,67.909999999999997,46.643700000000003,-19.758800000000001,5.7075800000000001,-3.1128200000000001
210423.0,54.574300000000001,88.2774,61.0383,45.609000000000002,-22.113399999999999,6.0781299999999998,0.26239200000000001
210424.0,74.048900000000003,-25.083100000000002,-24.619299999999999,14.2417,-6.3874399999999998,10.1236,34.278100000000002
210425.0,62.777900000000002,-33.236400000000003,-44.919400000000003,6.8737700000000004,-6.81358,5.0452899999999996,22.446200000000001
210426.0,67.448700000000002,-36.546100000000003,-75.857500000000002,-8.1588700000000003,-16.497199999999999,6.05328,7.2056699999999996
210427.0,50.213799999999999,-23.219799999999999,-59.021799999999999,-15.8796,-16.224399999999999,5.9537000000000004,-2.9964900000000001
210428.0,65.304900000000004,-34.912399999999998,-49.680599999999998,6.7882499999999997,-7.88185,4.8467799999999999,21.870899999999999
210429.0,76.151499999999999,-63.3401,-58.938899999999997,-26.735099999999999,-5.1727299999999996,10.5747,37.350200000000001
210430.0,55.793300000000002,52.701300000000003,56.774299999999997,71.822100000000006,-6.0104800000000003,7.7385799999999998,28.985900000000001
210431.0,45.550899999999999,-67.455299999999994,-51.002099999999999,-52.474299999999999,-2.0551699999999999,8.6326599999999996,23.021699999999999
210432.0,81.719899999999996,-44.849400000000003,-48.4634,1.1994,-6.7194599999999998,9.1327300000000005,36.480600000000003
210433.0,77.798599999999993,-49.020699999999998,-53.185899999999997,-4.7886300000000004,-5.8594600000000003,8.1417699999999993,34.605899999999998
210434.0,72.835599999999999,-39.906999999999996,-47.2256,4.2294099999999997,-5.8208500000000001,6.7608300000000003,30.230499999999999
210435.0,67.269300000000001,-37.399000000000001,-45.724200000000003,4.2197100000000001,-5.71645,6.0389499999999998,26.893699999999999
210436.0,63.6417,-34.123699999999999,-44.090499999999999,6.3003,-6.1384800000000004,5.3752700000000004,23.9041
210437.0,70.758300000000006,-38.740400000000001,-57.733899999999998,5.9959300000000004,-9.2153600000000004,4.7206900000000003,22.161000000000001
210438.0,78.295000000000002,-43.105600000000003,-68.058499999999995,5.7800700000000003,-10.6777,4.4710299999999998,22.3293
210439.0,84.7483,-49.697000000000003,-81.202100000000002,2.0617000000000001,-12.0541,4.2450000000000001,21.5261
210440.0,87.577500000000001,-52.239400000000003,-89.511700000000005,-0.556782,-13.543200000000001,4.0741100000000001,19.001100000000001
210441.0,80.922799999999995,-51.812399999999997,-91.708600000000004,-7.5406899999999997,-15.2536,4.2046200000000002,12.642200000000001
210442.0,42.087699999999998,70.035799999999995,40.523899999999998,55.919499999999999,-16.565899999999999,4.5206400000000002,-8.8158399999999997
210443.0,44.448799999999999,95.984399999999994,71.692700000000002,62.472499999999997,-18.0412,5.50359,-1.76071
210444.0,56.159100000000002,104.605,82.850300000000004,52.662100000000002,-18.408200000000001,5.2682399999999996,-2.0564900000000002
210445.0,61.766300000000001,100.67400000000001,73.982900000000001,42.885800000000003,-20.263300000000001,4.8888499999999997,-0.84240300000000001
210446.0,62.460299999999997,97.072100000000006,62.6905,40.830100000000002,-21.694199999999999,4.69801,1.9649099999999999
210447.0,62.046399999999998,-17.843299999999999,-27.071400000000001,5.4806400000000002,-7.4205300000000003,10.924200000000001,28.764299999999999
210448.0,56.252099999999999,-23.182400000000001,-39.926000000000002,7.25129,-6.2384199999999996,5.8675100000000002,20.2331
210449.0,55.186500000000002,21.202100000000002,-24.256799999999998,23.0868,-16.611499999999999,4.5364300000000002,0.29278900000000002
210450.0,50.057299999999998,67.259100000000004,22.158999999999999,45.970199999999998,-16.8583,4.5705999999999998,-4.5951300000000002
210451.0,58.744500000000002,-23.4941,-43.506799999999998,8.1262399999999992,-6.9797799999999999,5.66737,19.7927
210452.0,68.092100000000002,-45.697400000000002,-50.7667,-21.8689,-6.54514,11.812799999999999,33.541499999999999
210453.0,45.282299999999999,89.174300000000002,77.645399999999995,92.737499999999997,-3.4630700000000001,12.480700000000001,21.2956
210454.0,35.1205,-42.149000000000001,-36.582299999999996,-47.463999999999999,-1.3461399999999999,9.5133700000000001,17.006599999999999
210455.0,74.738600000000005,-38.207599999999999,-50.452100000000002,-5.2130400000000003,-7.3915199999999999,11.2021,33.679499999999997
210456.0,71.658000000000001,-38.620899999999999,-51.0105,-5.5641100000000003,-6.7770299999999999,9.9926899999999996,31.841799999999999
210457.0,66.613500000000002,-31.999099999999999,-46.009399999999999,1.5885400000000001,-6.4764400000000002,8.4795400000000001,27.6937
210458.0,60.944000000000003,-28.1938,-42.338099999999997,3.64011,-6.03315,7.2429600000000001,24.384899999999998
210459.0,57.207099999999997,-23.462399999999999,-38.588299999999997,7.3981199999999996,-5.9599799999999998,6.3377999999999997,21.584099999999999
210460.0,64.030699999999996,-27.846399999999999,-52.747199999999999,5.7453799999999999,-8.1085200000000004,5.7207600000000003,20.162600000000001
210461.0,71.285499999999999,-31.5947,-63.529800000000002,4.4642299999999997,-9.7416,5.7907200000000003,20.204599999999999
210462.0,76.331000000000003,-36.762099999999997,-75.996899999999997,-0.73136999999999996,-11.547000000000001,5.6738900000000001,18.961300000000001
210463.0,76.559899999999999,-33.549300000000002,-79.049700000000001,-2.1606000000000001,-13.367800000000001,5.36172,15.867599999999999
210464.0,64.521500000000003,-31.7805,-77.130399999999995,-13.7395,-15.000999999999999,4.50326,8.6958000000000002
210465.0,55.5291,123.654,85.553600000000003,71.647300000000001,-16.536999999999999,2.6553599999999999,-4.7266700000000004
210466.0,66.724100000000007,115.003,78.219200000000001,47.075699999999998,-18.007100000000001,1.8845799999999999,-0.25684400000000002
210467.0,75.131399999999999,134.08699999999999,99.870199999999997,55.066800000000001,-17.539300000000001,1.7479899999999999,-0.70874800000000004
210468.0,75.993700000000004,118.479,80.349900000000005,38.9054,-18.270199999999999,2.1568700000000001,1.6352500000000001
210469.0,73.117999999999995,115.45699999999999,69.901899999999998,42.127800000000001,-19.841100000000001,2.2182900000000001,3.5842000000000001
210470.0,49.743299999999998,-15.629,-33.059100000000001,-9.1436200000000003,-7.2003500000000003,10.076700000000001,22.769400000000001
210471.0,52.304400000000001,-18.935400000000001,-39.513800000000003,4.9080500000000002,-5.2947899999999999,6.2812999999999999,18.713999999999999
210472.0,53.382399999999997,34.381,-14.1693,19.383400000000002,-18.055499999999999,-1.9985599999999999,-1.38642
210473.0,57.748899999999999,97.354900000000001,46.311700000000002,61.220999999999997,-19.769500000000001,-3.6194299999999999,-4.3381800000000004
210474.0,54.440899999999999,-20.0181,-43.7072,4.5928199999999997,-5.9855499999999999,6.1416700000000004,18.196100000000001
210475.0,61.807099999999998,-28.5304,-43.372799999999998,-16.036899999999999,-7.0168699999999999,11.391299999999999,30.118099999999998
210476.0,40.107399999999998,150.86600000000001,131.55500000000001,142.43700000000001,-5.0210400000000002,10.6593,17.4253
210477.0,35.5137,5.2513399999999999,6.0358499999999999,-17.986799999999999,-1.68899,7.6563800000000004,13.1396
210478.0,70.161699999999996,-29.733499999999999,-47.977400000000003,-7.1360799999999998,-7.3300000000000001,11.724,32.1111
210479.0,68.618499999999997,-30.8994,-49.628300000000003,-5.3135599999999998,-6.6245099999999999,10.584,30.310500000000001
210480.0,63.561300000000003,-25.979900000000001,-44.999299999999998,0.56012600000000001,-6.0004200000000001,9.1473499999999994,26.5212
210481.0,57.775599999999997,-22.3003,-41.025199999999998,3.1983199999999998,-5.4207900000000002,7.84171,23.000900000000001
210482.0,53.632599999999996,-20.060400000000001,-39.2622,4.35337,-5.20723,6.8313199999999998,20.178999999999998
210483.0,59.305,-23.200800000000001,-51.451999999999998,2.8510499999999999,-7.2766200000000003,6.2992900000000001,18.496500000000001
210484.0,66.129300000000001,-25.410900000000002,-60.2744,2.54705,-9.3957300000000004,6.4536300000000004,18.361899999999999
210485.0,70.436899999999994,-29.677,-71.015699999999995,-3.0249799999999998,-11.948600000000001,6.1928099999999997,17.291899999999998
210486.0,70.149799999999999,-24.265999999999998,-71.575999999999993,-3.5463800000000001,-14.690099999999999,5.1524400000000004,13.492800000000001
210487.0,58.113100000000003,-18.311299999999999,-65.368899999999996,-14.6485,-15.884499999999999,2.5266000000000002,8.1821000000000002
210488.0,67.128799999999998,152.45099999999999,109.09,84.054199999999994,-17.186699999999998,-2.8497499999999998,-1.0363500000000001
210489.0,78.164000000000001,132.07599999999999,85.939999999999998,48.214300000000001,-16.308199999999999,-2.5151300000000001,0.39199800000000001
210490.0,86.457700000000003,154.18899999999999,107.157,59.515999999999998,-15.3689,-3.6929099999999999,1.022
210491.0,88.325100000000006,130.297,79.404799999999994,33.628799999999998,-15.263199999999999,-4.01633,3.5998100000000002
210492.0,84.528300000000002,135.03,76.783199999999994,45.302199999999999,-16.672599999999999,-2.8854299999999999,4.7880500000000001
210493.0,43.411799999999999,-1.6515500000000001,-23.214600000000001,-6.9661,-6.4377599999999999,7.6933199999999999,20.033999999999999
210494.0,50.0473,-15.806100000000001,-39.055399999999999,4.00603,-4.0869,6.5327400000000004,17.634499999999999
210495.0,52.455199999999998,9.6910699999999999,-35.595300000000002,-0.59672899999999995,-18.503,-2.4097900000000001,2.3276599999999998
210496.0,55.9129,63.3521,15.095800000000001,38.2988,-20.1371,-6.9255000000000004,-2.4831500000000002
210497.0,51.341099999999997,-15.6378,-41.404000000000003,4.5814700000000004,-4.7805799999999996,6.3750299999999998,16.849599999999999
210498.0,55.739199999999997,-23.556799999999999,-44.423999999999999,-19.684799999999999,-5.8108700000000004,9.3657199999999996,27.148900000000001
210499.0,37.196300000000001,179.16900000000001,152.571,160.97999999999999,-9.2856900000000007,3.7163599999999999,13.278600000000001
210500.0,38.387099999999997,40.055,36.027500000000003,4.8296700000000001,-3.8065600000000002,2.42971,9.9535
210501.0,67.949600000000004,-25.4345,-49.898800000000001,-10.0091,-6.1346600000000002,11.1221,31.194700000000001
210502.0,66.947000000000003,-27.114599999999999,-50.880000000000003,-7.3144900000000002,-5.2825499999999996,10.700799999999999,29.5932
210503.0,62.4148,-23.604600000000001,-46.9788,-1.60944,-4.89513,9.4936000000000007,25.878399999999999
210504.0,56.365400000000001,-20.948599999999999,-43.322899999999997,0.33914499999999997,-4.3014200000000002,8.1808899999999998,22.2912
210505.0,51.957000000000001,-16.624099999999999,-38.957700000000003,3.90713,-4.0302300000000004,7.1305699999999996,19.316700000000001
210506.0,55.216799999999999,-18.670500000000001,-48.205599999999997,2.5429400000000002,-6.14154,6.59246,16.896599999999999
210507.0,61.037300000000002,-21.3249,-56.121400000000001,1.5859000000000001,-8.6049600000000002,6.8478199999999996,16.631499999999999
210508.0,65.282200000000003,-25.741,-65.291300000000007,-3.2925,-11.5548,6.6793800000000001,16.035
210509.0,66.298599999999993,-22.159300000000002,-66.287199999999999,-3.0792000000000002,-15.0482,5.2109300000000003,12.6677
210510.0,58.721600000000002,-17.947199999999999,-62.8003,-11.982699999999999,-16.760200000000001,2.4464999999999999,9.5333000000000006
210511.0,57.822800000000001,127.675,83.076700000000002,79.071799999999996,-17.1235,-9.53477,1.579
210512.0,66.598399999999998,116.914,70.881799999999998,51.134,-14.563800000000001,-10.8371,3.0945100000000001
210513.0,77.432400000000001,144.58699999999999,94.860299999999995,63.3386,-13.9819,-11.150600000000001,0.90998699999999999
210514.0,85.640600000000006,138.72300000000001,80.398300000000006,46.911000000000001,-13.4086,-9.7262199999999996,3.4043399999999999
210515.0,88.854799999999997,144.07400000000001,77.6691,50.095500000000001,-14.058199999999999,-8.5753500000000003,5.1892399999999999
210516.0,43.768000000000001,12.2057,-10.6083,5.5611499999999996,-5.7401299999999997,5.6926600000000001,20.8689
210517.0,48.314799999999998,-13.6203,-39.467700000000001,2.58005,-2.96793,6.6426699999999999,16.595600000000001
210518.0,55.114699999999999,-15.5748,-56.143799999999999,-8.3856300000000008,-17.369199999999999,0.093334899999999998,6.9127599999999996
210519.0,53.6374,6.0547000000000004,-36.516399999999997,4.3867000000000003,-18.430099999999999,-5.4138999999999999,2.9411700000000001
210520.0,48.4345,-13.386900000000001,-41.164200000000001,2.57586,-3.6029800000000001,6.3508500000000003,15.450699999999999
210521.0,52.481200000000001,-26.8568,-49.190300000000001,-26.866399999999999,-3.7254200000000002,7.6474299999999999,26.068000000000001
210522.0,35.133899999999997,181.756,153.667,162.91300000000001,-8.7906899999999997,1.19953,11.305999999999999
210523.0,37.149500000000003,44.5274,40.995800000000003,9.41465,-3.6957499999999999,-1.8098799999999999,8.3249300000000002
210524.0,67.676199999999994,-18.954000000000001,-47.712800000000001,-5.7508299999999997,-3.9721799999999998,10.549799999999999,30.647099999999998
210525.0,66.308400000000006,-28.347100000000001,-55.380000000000003,-11.977399999999999,-3.1706400000000001,10.5497,29.390999999999998
210526.0,62.289299999999997,-21.3001,-48.219099999999997,-1.8909499999999999,-3.2172399999999999,9.8073899999999998,25.4069
210527.0,55.978700000000003,-18.463899999999999,-43.774000000000001,0.062454599999999999,-2.8576100000000002,8.5974199999999996,21.868099999999998
210528.0,51.101500000000001,-15.412100000000001,-40.640099999999997,2.1005199999999999,-2.8864800000000002,7.4321400000000004,18.580500000000001
210529.0,51.025100000000002,-15.0242,-45.653599999999997,1.55446,-4.8418000000000001,6.5100100000000003,15.113899999999999
210530.0,55.444299999999998,-17.618500000000001,-51.780900000000003,0.60760199999999998,-7.0245699999999998,6.8720800000000004,14.8599
210531.0,59.828800000000001,-21.767600000000002,-59.326900000000002,-2.3607300000000002,-9.8219100000000008,7.0501800000000001,14.4306
210532.0,62.5244,-23.936299999999999,-64.111000000000004,-4.44346,-13.318899999999999,6.2965999999999998,12.6633
210533.0,60.545299999999997,-23.806699999999999,-64.591099999999997,-8.5551899999999996,-15.825200000000001,4.1635400000000002,10.715
210534.0,53.2667,40.598199999999999,-4.3696099999999998,25.246500000000001,-17.395299999999999,-10.1083,4.3041999999999998
210535.0,54.592599999999997,37.693899999999999,-8.47499,4.5701099999999997,-14.8744,-13.5345,4.7467499999999996
210536.0,60.524999999999999,70.8108,22.480699999999999,23.824100000000001,-13.9939,-16.360099999999999,0.22592200000000001
210537.0,67.397499999999994,112.185,56.374299999999998,53.4741,-13.0146,-15.7841,0.76421300000000003
210538.0,75.554100000000005,132.51599999999999,69.240099999999998,61.782299999999999,-13.388400000000001,-14.0304,4.0291899999999998
210539.0,47.635899999999999,13.257999999999999,-12.1968,12.571300000000001,-5.1624299999999996,5.0004299999999997,22.235700000000001
210540.0,47.196300000000001,-11.2944,-39.728999999999999,1.5794299999999999,-2.2437100000000001,6.6282699999999997,15.708500000000001
210541.0,59.968600000000002,-29.917400000000001,-71.435400000000001,-13.459199999999999,-14.333600000000001,5.6396499999999996,8.2972400000000004
210542.0,58.224499999999999,-24.124300000000002,-66.410600000000002,-11.1739,-15.520799999999999,3.5303200000000001,6.4948899999999998
210543.0,46.166699999999999,-9.5687800000000003,-39.607599999999998,2.2424499999999998,-2.7276799999999999,6.0097100000000001,14.19
210544.0,53.580100000000002,-32.146299999999997,-54.326599999999999,-32.411299999999997,-0.96917799999999998,7.1672700000000003,27.250299999999999
210545.0,34.9437,173.44900000000001,150.483,159.52099999999999,-8.2663799999999998,-1.5559000000000001,14.2273
210546.0,35.500700000000002,0.36335499999999998,2.2044100000000002,-28.4269,-4.0545200000000001,-6.73916,7.9469700000000003
210547.0,67.819599999999994,-20.659500000000001,-51.5824,-7.3259100000000004,-1.40415,10.7247,30.0122
210548.0,66.421999999999997,-26.431100000000001,-55.177500000000002,-11.2544,-0.93723000000000001,11.0486,29.155100000000001
210549.0,62.395499999999998,-20.8858,-50.154899999999998,-3.2414700000000001,-1.7877799999999999,10.478,24.965299999999999
210550.0,55.8812,-19.5471,-47.525100000000002,-3.5164,-1.85025,9.0157000000000007,21.450199999999999
210551.0,50.636600000000001,-13.549200000000001,-41.477800000000002,1.1314200000000001,-2.07098,7.6915800000000001,17.964600000000001
210552.0,47.443100000000001,-9.9282500000000002,-42.341000000000001,1.7799799999999999,-3.6344799999999999,5.9050099999999999,13.409599999999999
210553.0,50.321800000000003,-12.3718,-47.414400000000001,0.232763,-5.1476300000000004,6.1959799999999996,13.026400000000001
210554.0,54.3626,-14.932499999999999,-52.677199999999999,-0.32873599999999997,-7.3129999999999997,6.7019299999999999,12.529400000000001
210555.0,57.694299999999998,-20.106999999999999,-59.460700000000003,-3.62371,-9.8771699999999996,6.9979399999999998,11.8315
210556.0,60.428899999999999,-23.391200000000001,-64.338499999999996,-5.6041800000000004,-12.364100000000001,6.84314,10.506500000000001
210557.0,59.459299999999999,-29.657399999999999,-75.392899999999997,-20.064299999999999,-16.781500000000001,1.10663,4.6320600000000001
210558.0,54.131300000000003,-13.7974,-60.359200000000001,-15.2157,-16.055099999999999,-2.67943,3.2343899999999999
210559.0,54.023099999999999,-11.1875,-60.508099999999999,-23.4236,-15.5694,-8.3439099999999993,1.10507
210560.0,58.479599999999998,29.6508,-23.472300000000001,7.1838100000000003,-14.9041,-14.305099999999999,-1.4431799999999999
210561.0,62.984099999999998,68.3797,12.792400000000001,35.567900000000002,-15.084199999999999,-17.679300000000001,1.1668700000000001
210562.0,51.508600000000001,6.6123200000000004,-22.5106,10.785,-2.3447200000000001,7.05579,22.362300000000001
210563.0,46.848100000000002,-8.7815600000000007,-39.871099999999998,0.89015100000000003,-2.2073999999999998,6.5672100000000002,15.1653
210564.0,60.361199999999997,-22.3306,-67.575800000000001,-7.3017700000000003,-10.9932,6.80823,7.93499
210565.0,61.604700000000001,-19.6096,-65.188800000000001,-3.6590699999999998,-12.2705,6.9538500000000001,6.8188700000000004
210566.0,45.010399999999997,-6.4410800000000004,-39.188000000000002,1.3065500000000001,-2.5546199999999999,5.4162600000000003,13.319900000000001
210567.0,57.2012,-32.001100000000001,-53.644799999999996,-29.5473,1.94591,8.5052099999999999,28.959900000000001
210568.0,36.216000000000001,153.43299999999999,129.5,136.88200000000001,-4.84619,0.86487400000000003,16.209800000000001
210569.0,32.817100000000003,-41.214599999999997,-39.826900000000002,-68.580600000000004,-1.52152,-5.7936699999999997,7.7570899999999998
210570.0,68.194400000000002,-22.035299999999999,-52.958300000000001,-8.0656099999999995,0.56135400000000002,12.166700000000001,29.5639
210571.0,66.568799999999996,-29.698599999999999,-59.629600000000003,-15.3283,0.44066,11.941599999999999,28.6968
210572.0,62.357100000000003,-21.0243,-51.7761,-5.0865900000000002,-0.75471100000000002,11.3803,24.5518
210573.0,56.192300000000003,-16.178799999999999,-45.982399999999998,-1.9496899999999999,-1.2749699999999999,9.9150700000000001,21.157900000000001
210574.0,50.746899999999997,-12.3178,-42.514800000000001,-0.14469699999999999,-1.92502,8.1793999999999993,17.6615
210575.0,45.293999999999997,-5.2338300000000002,-40.343000000000004,1.4414199999999999,-3.11652,4.8157199999999998,12.128
210576.0,46.924900000000001,-6.1275500000000003,-43.723100000000002,0.30296699999999999,-3.96286,4.6993999999999998,11.4316
210577.0,50.127600000000001,-7.5281799999999999,-47.994700000000002,0.062162599999999998,-5.3589399999999996,5.0735000000000001,10.756399999999999
210578.0,53.168199999999999,-12.7668,-55.156399999999998,-3.5665300000000002,-6.9145599999999998,5.6378500000000003,10.272
210579.0,57.833799999999997,-13.096500000000001,-57.736499999999999,-0.56307200000000002,-8.9791600000000003,6.5243599999999997,9.4138199999999994
210580.0,67.021799999999999,-34.996899999999997,-83.869600000000005,-16.239999999999998,-14.391400000000001,6.96279,4.7636900000000004
210581.0,64.307500000000005,-24.2501,-72.549199999999999,-8.8318100000000008,-15.724,4.5552700000000002,2.3278400000000001
210582.0,64.709400000000002,-33.486899999999999,-84.882400000000004,-22.8642,-16.9892,2.3154599999999999,1.29345
210583.0,62.323599999999999,-22.068000000000001,-75.748199999999997,-20.679200000000002,-17.349900000000002,-2.41303,-1.37262
210584.0,61.544199999999996,-11.8247,-65.673299999999998,-18.796500000000002,-17.532800000000002,-9.66859,-2.0158700000000001
210585.0,52.965499999999999,-3.4447700000000001,-32.328499999999998,2.8828800000000001,0.81224499999999999,9.2224799999999991,22.294499999999999
210586.0,47.479100000000003,-7.86463,-41.346200000000003,-0.92167900000000003,-2.92387,6.64947,15.212899999999999
210587.0,57.769199999999998,-11.0108,-62.805799999999998,-6.4985499999999998,-8.4789300000000001,3.992,6.7577299999999996
210588.0,60.2211,-6.7286900000000003,-59.834699999999998,-0.57510700000000003,-9.8232900000000001,4.4472699999999996,5.5630100000000002
210589.0,45.391399999999997,-4.1492000000000004,-39.618600000000001,0.36129899999999998,-3.2117900000000001,4.9138599999999997,13.1477
210590.0,59.2562,-35.1511,-58.002099999999999,-31.164000000000001,3.90767,9.61693,29.205300000000001
210591.0,37.849499999999999,153.26599999999999,130.99199999999999,139.69399999999999,-0.88029900000000005,2.6386500000000002,18.541399999999999
210592.0,30.0562,-37.6479,-34.922199999999997,-58.892800000000001,2.4529800000000002,-3.3931100000000001,10.553100000000001
210593.0,67.688400000000001,-25.3932,-56.284500000000001,-12.2691,2.1005500000000001,13.4582,28.827999999999999
210594.0,66.2239,-25.024899999999999,-55.067100000000003,-11.7037,1.4262699999999999,13.7677,27.872800000000002
210595.0,62.130099999999999,-20.718299999999999,-52.009700000000002,-6.9565900000000003,-0.67671199999999998,12.8531,24.248699999999999
210596.0,56.389299999999999,-19.096499999999999,-50.571800000000003,-7.4510699999999996,-1.7575499999999999,10.694900000000001,21.091000000000001
210597.0,51.246400000000001,-11.913,-44.179299999999998,-2.3834499999999998,-2.5159699999999998,8.6198899999999998,17.747199999999999
210598.0,45.146700000000003,-1.5779799999999999,-39.631700000000002,1.0749899999999999,-3.5005199999999999,3.6478999999999999,11.625500000000001
210599.0,46.116199999999999,-0.77926099999999998,-41.614600000000003,0.56095399999999995,-3.8634599999999999,2.8656199999999998,10.5395
210600.0,48.486899999999999,0.38258300000000001,-43.621499999999997,1.5861499999999999,-4.6027100000000001,2.7085499999999998,9.5681499999999993
210601.0,50.941699999999997,-2.0295399999999999,-48.688000000000002,-0.63044199999999995,-5.4899300000000002,2.8262200000000002,8.8773400000000002
210602.0,55.010300000000001,-3.5268000000000002,-53.500599999999999,-0.59126999999999996,-6.9565200000000003,3.4733299999999998,8.0014000000000003
210603.0,66.379599999999996,-18.863800000000001,-75.186499999999995,-9.2528699999999997,-12.2834,5.4965000000000002,4.3606199999999999
210604.0,66.817700000000002,-14.9186,-70.369399999999999,-4.6733099999999999,-14.4961,4.9078900000000001,2.16533
210605.0,70.985900000000001,-24.1008,-81.080299999999994,-11.3329,-16.704899999999999,4.5660100000000003,0.83576700000000004
210606.0,70.5274,-19.891999999999999,-76.598500000000001,-9.1440699999999993,-18.2028,3.3802500000000002,-1.3139400000000001
210607.0,68.161500000000004,-23.2639,-80.180300000000003,-17.802,-18.549299999999999,0.093428899999999995,-3.3440300000000001
210608.0,52.649500000000003,-3.9144999999999999,-32.823700000000002,2.6946400000000001,2.9435699999999998,9.2998399999999997,21.7258
210609.0,49.419499999999999,-6.9401599999999997,-42.3904,-1.9953000000000001,-4.2594399999999997,7.29331,16.0397
210610.0,57.175600000000003,2.2500399999999998,-53.814900000000002,-0.46945100000000001,-7.3795299999999999,-0.038035699999999999,5.9849899999999998
210611.0,59.805799999999998,3.10677,-55.405200000000001,0.644374,-8.5826100000000007,-0.040816100000000001,4.8341599999999998
210612.0,47.456099999999999,-3.1425999999999998,-40.935699999999997,-0.42574299999999998,-4.5126799999999996,5.0011400000000004,13.875299999999999
210613.0,57.165999999999997,-29.104700000000001,-52.722999999999999,-26.3934,6.1603899999999996,10.8024,26.924700000000001
210614.0,40.660400000000003,134.07900000000001,113.67,125.312,1.43771,1.5887,21.016100000000002
210615.0,29.012699999999999,-43.402700000000003,-41.563099999999999,-56.9803,3.1071800000000001,-4.3224099999999996,13.466100000000001
210616.0,64.423599999999993,-22.2301,-52.786200000000001,-12.6518,2.7702,14.5101,26.9422
210617.0,63.390500000000003,-29.615100000000002,-59.665500000000002,-19.758900000000001,0.99887800000000004,13.950799999999999,26.677900000000001
210618.0,60.741900000000001,-20.6677,-52.325899999999997,-9.9594100000000001,-1.1365400000000001,13.4877,23.692699999999999
210619.0,56.607999999999997,-14.1431,-46.169199999999996,-5.0451899999999998,-2.3913799999999998,12.098599999999999,21.200399999999998
210620.0,52.634500000000003,-10.974500000000001,-44.512500000000003,-3.7088700000000001,-3.6934900000000002,9.8559999999999999,18.41
210621.0,46.987000000000002,-0.181005,-40.797899999999998,0.44328699999999999,-4.6297600000000001,3.0981299999999998,12.099600000000001
210622.0,47.619199999999999,1.97837,-41.659100000000002,0.76899499999999998,-4.7325100000000004,1.5793900000000001,10.645799999999999
210623.0,49.482199999999999,3.0863299999999998,-43.984200000000001,0.67739199999999999,-5.0542899999999999,0.54614099999999999,9.3614899999999999
210624.0,51.566400000000002,2.7970999999999999,-47.394500000000001,-0.48069499999999998,-5.4197100000000002,-0.0595662,8.2772100000000002
210625.0,54.637,5.39757,-48.125799999999998,2.3772600000000002,-6.2703300000000004,0.0010661500000000001,7.1888300000000003
210626.0,64.243200000000002,-4.5104800000000003,-66.147000000000006,-5.18567,-10.475,0.63977700000000004,3.6004
210627.0,66.254300000000001,-1.41831,-63.682299999999998,-0.90940799999999999,-12.488099999999999,0.76912899999999995,1.9370700000000001
210628.0,70.602699999999999,-11.561,-75.902600000000007,-8.7411600000000007,-14.695499999999999,1.4674499999999999,0.62441100000000005
210629.0,72.763900000000007,-10.634600000000001,-74.759699999999995,-6.03146,-16.838000000000001,1.31369,-1.8684700000000001
210630.0,73.372600000000006,-13.5251,-76.935299999999998,-8.2316599999999998,-17.9345,0.39597500000000002,-3.3463099999999999
210631.0,50.660400000000003,4.59931,-28.5915,3.8167399999999998,4.4495899999999997,7.4094600000000002,20.543500000000002
210632.0,52.143500000000003,-9.3023299999999995,-46.283700000000003,-5.8676500000000003,-5.7306900000000001,8.1775599999999997,17.448599999999999
210633.0,58.213799999999999,2.8366699999999998,-55.006900000000002,-0.94445199999999996,-6.7663399999999996,-2.2892000000000001,5.6070099999999998
210634.0,60.267499999999998,6.75204,-53.334200000000003,2.7684799999999998,-7.6017999999999999,-2.4552700000000001,4.2368899999999998
210635.0,50.961399999999998,-5.5429899999999996,-45.299399999999999,-3.4297300000000002,-5.9836999999999998,5.9727100000000002,15.422700000000001
210636.0,49.052199999999999,-30.740200000000002,-54.745600000000003,-31.274100000000001,6.1088399999999998,6.1734299999999998,23.210000000000001
210637.0,42.551699999999997,89.6541,70.927800000000005,84.400599999999997,2.91947,3.0049199999999998,22.1968
210638.0,27.446300000000001,-37.731000000000002,-46.630899999999997,-49.141100000000002,2.6784300000000001,-1.23753,14.3682
210639.0,54.927799999999998,-17.313700000000001,-47.585999999999999,-12.5931,2.7095699999999998,11.5464,22.460999999999999
210640.0,56.676200000000001,-16.037500000000001,-46.090400000000002,-13.305099999999999,1.1954,13.8568,23.374600000000001
210641.0,56.990900000000003,-16.0596,-47.566600000000001,-11.9427,-2.0636299999999999,13.9236,22.4665
210642.0,55.7089,-19.3352,-51.894199999999998,-14.5283,-4.1624999999999996,11.976900000000001,21.459
210643.0,53.942300000000003,-12.880100000000001,-47.595599999999997,-8.26999,-5.2655900000000004,10.1563,19.413799999999998
210644.0,50.5944,-2.1831399999999999,-44.935600000000001,-1.40717,-5.9384300000000003,3.81053,13.526400000000001
210645.0,50.9574,0.37294899999999997,-45.443600000000004,-0.17659,-5.76396,1.9064000000000001,11.716100000000001
210646.0,52.144599999999997,3.5316000000000001,-45.4315,1.90273,-5.6931099999999999,0.46016000000000001,10.0151
210647.0,53.691299999999998,4.4945399999999998,-47.380600000000001,1.84493,-5.7998799999999999,-0.81059099999999995,8.54922
210648.0,56.165599999999998,4.0376399999999997,-51.175400000000003,0.76319300000000001,-6.2043100000000004,-1.7298800000000001,7.1112900000000003
210649.0,63.6614,3.3140399999999999,-59.741100000000003,-0.15928100000000001,-8.9873799999999999,-2.2769200000000001,2.9381699999999999
210650.0,66.031400000000005,4.43987,-60.256700000000002,1.4422200000000001,-10.6006,-2.34538,1.39503
210651.0,69.9251,0.29841299999999998,-66.839299999999994,-1.03938,-12.3919,-1.76762,-0.074193700000000001
210652.0,72.826499999999996,0.179783,-68.246600000000001,-0.108699,-14.347,-1.6111599999999999,-2.302
210653.0,74.685400000000001,-5.36252,-74.502499999999998,-5.4214399999999996,-15.7239,-2.00088,-3.9964300000000001
210654.0,48.087400000000002,37.782800000000002,4.2405799999999996,30.098700000000001,5.4632199999999997,9.1509800000000006,18.665900000000001
210655.0,55.467199999999998,-9.5364299999999993,-48.028599999999997,-7.98909,-6.8202100000000003,9.8269500000000001,19.1812
210656.0,59.283000000000001,-1.92879,-58.738399999999999,-0.14580899999999999,-5.7837199999999998,-0.23020699999999999,5.2328700000000001
210657.0,60.551900000000003,-2.0366200000000001,-60.354500000000002,-0.44983499999999998,-6.4358500000000003,-1.3899600000000001,3.67157
210658.0,55.817999999999998,-8.1756200000000003,-49.7956,-5.6117600000000003,-6.8885500000000004,8.1546199999999995,17.590699999999998
210659.0,44.058799999999998,8.4689999999999994,-23.602900000000002,-6.1936200000000001,5.1408699999999996,5.6996399999999996,18.175899999999999
210660.0,46.756700000000002,12.029999999999999,-5.4072199999999997,10.1523,4.5275100000000004,7.3003600000000004,23.734400000000001
210661.0,37.434899999999999,-5.1657999999999999,-23.672499999999999,-7.9303299999999997,3.5719599999999998,6.2705700000000002,17.7591
210662.0,42.671199999999999,-3.3997799999999998,-35.593899999999998,-12.694900000000001,2.0750600000000001,4.8545299999999996,17.450900000000001
210663.0,43.305700000000002,-17.015699999999999,-44.950400000000002,-19.648599999999998,-0.82320099999999996,5.3448599999999997,18.920200000000001
210664.0,47.479799999999997,-13.096299999999999,-43.079999999999998,-14.022,-3.3790300000000002,8.7017900000000008,19.328700000000001
210665.0,51.854500000000002,-6.6966999999999999,-39.913600000000002,-8.5739099999999997,-4.5132199999999996,11.1236,20.100200000000001
210666.0,54.072400000000002,-9.5092099999999995,-45.104399999999998,-10.0329,-5.9109800000000003,11.0914,20.0108
210667.0,55.9193,-6.8533400000000002,-51.656700000000001,-3.93763,-6.62249,6.3990400000000003,15.5571
210668.0,56.006999999999998,-5.3301800000000004,-53.015900000000002,-2.51335,-6.21434,4.5776199999999996,13.4398
210669.0,56.6265,-4.9463600000000003,-55.559399999999997,-2.3143500000000001,-5.8292900000000003,2.8751699999999998,11.2249
210670.0,57.1492,-4.2853399999999997,-57.267099999999999,-2.1297899999999998,-5.3884299999999996,1.5226500000000001,9.0563199999999995
210671.0,58.299999999999997,-0.37991000000000003,-55.6021,1.5963799999999999,-5.3682499999999997,0.77314799999999995,7.0263200000000001
210672.0,63.177900000000001,-5.8207599999999999,-66.576400000000007,-4.04535,-7.43954,-1.8331500000000001,2.0857399999999999
210673.0,64.988799999999998,-2.5144600000000001,-64.839699999999993,-0.95719500000000002,-8.6331199999999999,-2.2705000000000002,0.43238199999999999
210674.0,69.082499999999996,-8.1709499999999995,-73.704599999999999,-6.0632900000000003,-10.303100000000001,-2.1066600000000002,-1.0622199999999999
210675.0,72.219300000000004,-5.7226299999999997,-73.285399999999996,-3.4485199999999998,-12.138,-2.2335099999999999,-3.4216099999999998
210676.0,74.413600000000002,-6.5320799999999997,-75.638499999999993,-4.8185900000000004,-13.3978,-2.80775,-5.1052099999999996
210677.0,45.332000000000001,21.506399999999999,-2.8938199999999998,23.682600000000001,2.4448400000000001,8.5454399999999993,19.7043
210678.0,56.066000000000003,-13.794,-53.113300000000002,-13.488300000000001,-6.2669600000000001,9.5795200000000005,19.9345
210679.0,61.873399999999997,-17.528199999999998,-73.434299999999993,-9.1399799999999995,-3.4225400000000001,5.46929,3.5884499999999999
210680.0,60.566600000000001,-10.1997,-65.847800000000007,-3.1551999999999998,-4.04514,4.9583599999999999,1.5404199999999999
210681.0,60.040700000000001,-15.671200000000001,-59.270299999999999,-12.8423,-6.1452,10.7111,19.2803
210682.0,42.610500000000002,67.067700000000002,38.889600000000002,61.557000000000002,1.7831900000000001,7.7897999999999996,17.841699999999999
210683.0,56.004100000000001,-44.707799999999999,-61.996299999999998,-47.141599999999997,6.3210899999999999,12.7714,27.474399999999999
210684.0,54.870600000000003,-6.6153700000000004,-31.778700000000001,-2.5630600000000001,3.6831999999999998,11.551600000000001,24.618300000000001
210685.0,37.184100000000001,47.7483,17.8081,29.908200000000001,0.64915699999999998,3.7833999999999999,14.8088
210686.0,37.563099999999999,21.9377,-12.238300000000001,0.073796600000000004,-2.0603600000000002,1.07098,12.8582
210687.0,39.003500000000003,3.0374099999999999,-29.782599999999999,-12.297000000000001,-3.30091,0.63554200000000005,15.0372
210688.0,42.597999999999999,-10.646699999999999,-40.984000000000002,-16.465,-4.91113,2.7975699999999999,17.711200000000002
210689.0,49.496099999999998,-13.8827,-47.587299999999999,-15.3422,-6.2107400000000004,6.6368200000000002,19.261900000000001
210690.0,62.594299999999997,-15.157299999999999,-62.730800000000002,-9.7558799999999994,-5.85189,10.7476,17.5062
210691.0,63.472000000000001,-15.345499999999999,-66.017200000000003,-8.3006899999999995,-5.0926400000000003,10.026999999999999,15.0006
210692.0,63.7331,-12.803699999999999,-65.931200000000004,-4.7087500000000002,-4.4137000000000004,9.1851400000000005,12.003299999999999
210693.0,63.113199999999999,-13.8042,-68.177400000000006,-5.1600099999999998,-3.81799,7.80654,9.2291500000000006
210694.0,63.072200000000002,-15.577299999999999,-71.304299999999998,-6.4689699999999997,-3.4911400000000001,6.4449100000000001,6.3480100000000004
210695.0,61.8977,-14.9399,-71.993499999999997,-8.2255299999999991,-5.1888699999999996,4.7344999999999997,0.114743
210696.0,62.029299999999999,-10.558299999999999,-67.698300000000003,-4.3777799999999996,-6.9955299999999996,3.5779200000000002,-1.4236500000000001
210697.0,66.686199999999999,-15.0443,-76.058499999999995,-8.7155100000000001,-9.0446500000000007,3.38578,-2.4706100000000002
210698.0,70.2453,-12.482100000000001,-76.075900000000004,-6.1433200000000001,-11.102600000000001,2.11117,-4.6106600000000002
210699.0,73.005499999999998,-16.139500000000002,-82.141400000000004,-10.9267,-12.677300000000001,0.069348199999999999,-6.3288799999999998
210700.0,49.835299999999997,-19.285499999999999,-42.0717,-20.471599999999999,1.6474899999999999,9.9826099999999993,23.6845
210701.0,52.267099999999999,-12.5182,-51.097999999999999,-15.2606,-3.0615600000000001,9.6585199999999993,18.562899999999999
210702.0,63.168700000000001,-27.033899999999999,-81.589699999999993,-17.066400000000002,-1.63507,10.885199999999999,1.5628200000000001
210703.0,57.517400000000002,-27.601600000000001,-77.998199999999997,-17.650700000000001,-2.4274399999999998,7.0740699999999999,0.194663
210704.0,63.004199999999997,-19.480499999999999,-64.263999999999996,-16.197399999999998,-3.6201300000000001,14.0512,19.7866
210705.0,47.101199999999999,14.3399,-10.7895,19.267600000000002,-2.69584,6.6985799999999998,20.676100000000002
210706.0,67.344999999999999,-66.571600000000004,-84.315200000000004,-75.4833,8.4040999999999997,20.233799999999999,30.871300000000002
210707.0,71.953900000000004,-14.956899999999999,-48.506599999999999,-19.6206,6.0036899999999997,20.3202,30.765899999999998
210708.0,36.542900000000003,48.667400000000001,28.442299999999999,49.903700000000001,-3.7913999999999999,3.8967000000000001,16.443000000000001
210709.0,32.436999999999998,78.725499999999997,54.977600000000002,71.219499999999996,-3.3708900000000002,3.8601299999999998,13.3081
210710.0,34.491399999999999,65.010999999999996,36.0871,47.227899999999998,-1.93103,1.93116,13.2767
210711.0,38.130000000000003,26.557500000000001,-7.0890899999999997,6.5319000000000003,-1.7158100000000001,1.3138000000000001,13.911199999999999
210712.0,42.711100000000002,0.606097,-34.989899999999999,-11.6576,-2.0151400000000002,4.38368,16.056899999999999
210713.0,69.865200000000002,-24.278600000000001,-75.162400000000005,-17.046800000000001,-3.3385500000000001,16.3218,18.610600000000002
210714.0,73.126000000000005,-27.1465,-82.224800000000002,-16.787600000000001,-2.6329500000000001,16.9603,15.8344
210715.0,73.569900000000004,-30.351400000000002,-87.6905,-17.833500000000001,-1.81254,16.3705,12.0618
210716.0,71.484999999999999,-30.888200000000001,-88.669600000000003,-18.317900000000002,-1.12941,15.236700000000001,7.89025
210717.0,68.277000000000001,-24.6022,-81.901200000000003,-13.619300000000001,-1.18838,13.7971,4.2160900000000003
210718.0,55.361800000000002,-31.932400000000001,-81.316599999999994,-23.135200000000001,-4.3588199999999997,4.1795799999999996,-1.27681
210719.0,55.062100000000001,-24.833300000000001,-75.149900000000002,-18.047799999999999,-5.6564100000000002,1.97892,-1.2755099999999999
210720.0,58.729500000000002,-30.6129,-84.322000000000003,-24.3691,-7.6348700000000003,1.0107699999999999,-2.0177200000000002
210721.0,64.676199999999994,-25.305,-83.880399999999995,-19.805299999999999,-10.8325,0.67660799999999999,-3.9218000000000002
210722.0,68.911600000000007,-24.950800000000001,-88.021299999999997,-20.855599999999999,-11.8119,-0.65618500000000002,-5.0335299999999998
210723.0,63.973399999999998,-35.342599999999997,-59.402299999999997,-46.634,4.5393999999999997,18.765599999999999,29.095500000000001
210724.0,48.7712,-13.8248,-48.504800000000003,-14.7843,0.62715200000000004,10.655900000000001,16.994599999999998
210725.0,54.909500000000001,-28.892399999999999,-80.765299999999996,-26.1493,-3.4936799999999999,6.7733600000000003,-0.245702
210726.0,47.794400000000003,-15.625299999999999,-65.979699999999994,-22.915400000000002,-4.3825900000000004,-0.042331800000000003,-1.2981499999999999
210727.0,63.118400000000001,-27.419899999999998,-73.344999999999999,-25.124700000000001,1.1452,15.7484,18.404499999999999
210728.0,57.842100000000002,-20.1998,-51.345599999999997,-26.945399999999999,1.0123599999999999,15.5047,24.603300000000001
210729.0,72.842100000000002,-69.797499999999999,-85.679100000000005,-82.274799999999999,8.3590199999999992,23.637799999999999,32.712699999999998
210730.0,86.539000000000001,-14.3673,-50.314900000000002,-24.4099,7.7384399999999998,28.100000000000001,36.094499999999996
210731.0,45.017899999999997,-15.3505,-38.656300000000002,-12.9399,-2.0544799999999999,8.1159199999999991,20.093
210732.0,39.6616,11.030799999999999,-6.9365600000000001,21.613299999999999,-4.3661000000000003,4.9264599999999996,16.513500000000001
210733.0,35.468600000000002,50.100099999999998,33.548699999999997,59.060899999999997,-3.4397000000000002,5.9221399999999997,14.3149
210734.0,36.209400000000002,67.277299999999997,47.234900000000003,68.573599999999999,0.30365500000000001,7.8119899999999998,15.2578
210735.0,38.969200000000001,26.383500000000002,2.0739399999999999,23.430299999999999,1.8967400000000001,7.9002699999999999,16.254999999999999
210736.0,73.965199999999996,-36.480699999999999,-90.578999999999994,-30.525600000000001,1.2822199999999999,20.766400000000001,17.2042
210737.0,81.588800000000006,-37.2791,-97.986099999999993,-28.742100000000001,0.94430499999999995,24.055499999999999,14.623900000000001
210738.0,81.622900000000001,-36.6342,-99.965599999999995,-27.985299999999999,0.384023,23.7118,10.6723
210739.0,76.619900000000001,-34.777700000000003,-97.1571,-26.066600000000001,-0.12465900000000001,20.322199999999999,6.3542100000000001
210740.0,65.173699999999997,-39.463299999999997,-95.337599999999995,-31.360199999999999,-0.97460199999999997,13.842700000000001,3.1385100000000001
210741.0,44.191299999999998,3.3798499999999998,-43.578800000000001,-11.853899999999999,-5.8566099999999999,-6.2198599999999997,-2.0070600000000001
210742.0,47.329300000000003,14.221399999999999,-35.603000000000002,-4.3019400000000001,-5.9695200000000002,-8.6688100000000006,1.2965100000000001
210743.0,50.504300000000001,5.3152400000000002,-45.650700000000001,-13.306100000000001,-8.1264800000000008,-10.8703,0.97430499999999998
210744.0,58.233400000000003,7.8642899999999996,-50.248199999999997,-7.1672099999999999,-10.9541,-9.9874899999999993,0.89791500000000002
210745.0,64.241900000000001,-7.5831999999999997,-71.060500000000005,-19.1084,-11.274100000000001,-10.217000000000001,0.802014
210746.0,75.436400000000006,-34.539400000000001,-58.873699999999999,-49.770200000000003,7.7419099999999998,24.843499999999999,32.6892
210747.0,51.269500000000001,22.6096,-15.089,17.2378,4.2004999999999999,15.303699999999999,14.439299999999999
210748.0,44.829000000000001,10.947800000000001,-36.046399999999998,-1.7604,-6.7513500000000004,-5.7757699999999996,0.155808
210749.0,44.475299999999997,46.584499999999998,5.9914699999999996,31.041599999999999,-8.0827399999999994,-13.155099999999999,-1.2172499999999999
210750.0,61.326099999999997,-9.5460499999999993,-53.170200000000001,-14.995200000000001,8.0552100000000006,18.6495,16.611000000000001
210751.0,76.1815,-28.543900000000001,-60.710599999999999,-38.804499999999997,6.2869599999999997,26.450099999999999,30.4209
210752.0,69.114199999999997,-65.432699999999997,-85.667000000000002,-88.743700000000004,9.1987900000000007,20.8017,30.241499999999998
210753.0,88.712100000000007,-13.732799999999999,-53.305500000000002,-32.825699999999998,9.7272800000000004,29.146999999999998,35.881100000000004
210754.0,64.941400000000002,-34.384599999999999,-64.902299999999997,-43.002699999999997,5.5749899999999997,22.224799999999998,25.164200000000001
210755.0,52.124099999999999,-32.529400000000003,-61.602899999999998,-36.1907,3.3448799999999999,17.369,18.494
210756.0,42.084299999999999,-25.0823,-47.338799999999999,-18.444900000000001,0.94556399999999996,12.2453,14.5078
210757.0,38.115400000000001,-10.0899,-25.7806,2.1568200000000002,-0.0013203900000000001,9.3443500000000004,14.1715
210758.0,37.659700000000001,5.5108899999999998,-15.986800000000001,10.7552,-0.77952600000000005,10.6716,12.548400000000001
210759.0,71.510300000000001,-43.717399999999998,-96.325999999999993,-42.622900000000001,3.6843300000000001,23.081900000000001,14.699400000000001
210760.0,82.422600000000003,-44.763399999999997,-108.43899999999999,-40.600700000000003,1.5139100000000001,25.1752,13.5189
210761.0,77.201400000000007,-51.816899999999997,-114.38200000000001,-46.332599999999999,0.092957100000000001,21.154,10.487500000000001
210762.0,68.118899999999996,-36.913499999999999,-98.017899999999997,-34.581099999999999,-4.2427799999999998,14.396699999999999,5.2495399999999997
210763.0,53.933999999999997,-21.938300000000002,-77.543599999999998,-28.987100000000002,-5.3798000000000004,4.0371800000000002,2.7970199999999998
210764.0,47.194699999999997,92.187299999999993,61.479999999999997,73.597300000000004,-5.9958299999999998,-21.560199999999998,1.5574600000000001
210765.0,52.936799999999998,81.881100000000004,48.500500000000002,62.724699999999999,-4.7312799999999999,-24.578600000000002,5.1974299999999998
210766.0,57.621699999999997,93.461399999999998,58.683900000000001,73.920000000000002,-6.4119599999999997,-27.166,4.8721100000000002
210767.0,62.716999999999999,70.8429,25.1419,51.9313,-7.4234600000000004,-25.930599999999998,7.5043499999999996
210768.0,68.966099999999997,47.458799999999997,-9.4130900000000004,28.672000000000001,-9.8867600000000007,-24.579899999999999,6.6243600000000002
210769.0,74.655799999999999,-36.912300000000002,-61.369500000000002,-58.117600000000003,13.3123,23.614100000000001,30.7666
210770.0,49.424999999999997,51.578899999999997,17.292899999999999,47.396599999999999,6.7721499999999999,14.6356,14.294600000000001
210771.0,46.672400000000003,75.581999999999994,45.563600000000001,67.484300000000005,-8.1585800000000006,-19.616599999999998,5.7908600000000003
210772.0,57.764800000000001,67.233800000000002,47.329900000000002,66.721900000000005,-9.3051999999999992,-29.646000000000001,4.24695
210773.0,48.5045,-24.0092,-53.938099999999999,-24.658200000000001,7.6671899999999997,12.4932,16.646799999999999
210774.0,83.656099999999995,-37.7562,-75.1327,-54.595199999999998,11.094900000000001,30.638100000000001,30.3414
210775.0,64.435000000000002,-28.9941,-50.454999999999998,-58.732100000000003,10.7323,18.165900000000001,26.517900000000001
210776.0,87.862700000000004,16.888500000000001,-27.386800000000001,-9.9489800000000006,14.0726,27.639399999999998,33.374699999999997
210777.0,81.303299999999993,-41.785899999999998,-76.713700000000003,-53.7639,11.0077,31.009899999999998,28.383199999999999
210778.0,72.447100000000006,-39.9739,-74.217699999999994,-48.080399999999997,8.8001699999999996,29.1189,22.4482
210779.0,55.144500000000001,-41.319600000000001,-70.352099999999993,-49.947899999999997,6.3282600000000002,22.315200000000001,15.9168
210780.0,38.3294,-36.194699999999997,-62.037199999999999,-46.089399999999998,1.1754100000000001,15.258900000000001,9.2458200000000001
210781.0,39.466999999999999,16.941700000000001,-15.434100000000001,8.6358999999999995,-1.6103400000000001,14.024100000000001,6.0982500000000002
210782.0,57.058399999999999,-56.681899999999999,-104.373,-59.026600000000002,0.25942300000000001,14.687900000000001,12.113099999999999
210783.0,67.976200000000006,-33.414099999999998,-96.643000000000001,-41.073799999999999,-1.61839,14.545199999999999,11.632999999999999
210784.0,60.925400000000003,-33.185200000000002,-94.664699999999996,-45.162799999999997,-4.0908300000000004,7.8888999999999996,9.8008900000000008
210785.0,54.536299999999997,-0.58782199999999996,-56.904499999999999,-13.4808,-9.9528999999999996,0.59196899999999997,4.6282699999999997
210786.0,46.595199999999998,46.311999999999998,1.98271,34.335099999999997,-10.2925,-8.5739599999999996,4.28796
210787.0,70.803799999999995,108.05500000000001,100.289,111.321,-5.2231899999999998,-39.460000000000001,7.38741
210788.0,75.825500000000005,78.887900000000002,66.589200000000005,82.776899999999998,-2.7817799999999999,-41.882899999999999,9.1203299999999992
210789.0,78.613799999999998,104.129,90.8476,108.107,-2.76938,-43.627099999999999,8.2076100000000007
210790.0,76.047700000000006,82.870400000000004,58.509300000000003,83.921300000000002,-2.2478799999999999,-40.247500000000002,9.8037200000000002
210791.0,71.505799999999994,88.164900000000003,48.544800000000002,86.0334,-5.7580299999999998,-33.504600000000003,7.2130400000000003
210792.0,71.590000000000003,-31.2623,-50.964599999999997,-55.560000000000002,19.8447,20.351400000000002,27.088200000000001
210793.0,32.018300000000004,37.393099999999997,12.867800000000001,28.406600000000001,3.5858400000000001,1.3768100000000001,13.153700000000001
210794.0,60.209899999999998,80.125600000000006,66.733999999999995,89.133899999999997,-9.1677900000000001,-29.788599999999999,10.4863
210795.0,68.205799999999996,60.480600000000003,51.471200000000003,70.585700000000003,-8.4037299999999995,-36.091000000000001,9.2766000000000002
210796.0,32.933500000000002,-19.187799999999999,-48.216099999999997,-32.649900000000002,-0.37519000000000002,-2.8097099999999999,11.936299999999999
210797.0,80.249399999999994,-29.9709,-69.363600000000005,-51.180500000000002,15.1881,29.8857,25.181699999999999
210798.0,52.757899999999999,-50.924500000000002,-65.897300000000001,-67.976699999999994,9.1519100000000009,16.2437,22.2179
210799.0,90.2774,79.0595,28.072199999999999,52.139299999999999,17.835599999999999,28.1892,30.876000000000001
210800.0,80.682900000000004,-47.784399999999998,-88.207499999999996,-68.965199999999996,14.4597,30.175899999999999,25.3263
210801.0,71.940200000000004,-42.661000000000001,-82.719800000000006,-61.473700000000001,9.1555,27.9877,21.361799999999999
210802.0,52.7898,-38.193100000000001,-68.597200000000001,-53.104399999999998,2.6586400000000001,21.303000000000001,15.3918
210803.0,37.487299999999998,8.2847500000000007,-19.097899999999999,-5.3614699999999997,-2.5954799999999998,14.7324,7.5628900000000003
210804.0,31.4861,61.864400000000003,33.670400000000001,51.304600000000001,-0.87985000000000002,8.8967399999999994,6.9018899999999999
210805.0,44.505000000000003,-3.8755799999999998,-50.429600000000001,-21.458400000000001,-4.2261199999999999,-0.594858,9.4546100000000006
210806.0,50.337299999999999,17.136900000000001,-34.842799999999997,0.61130799999999996,-5.4890600000000003,-0.84964200000000001,10.4131
210807.0,48.100200000000001,37.1738,-9.3650199999999995,23.992999999999999,-8.7990399999999998,-5.1080899999999998,9.6073000000000004
210808.0,47.6614,66.905600000000007,28.693000000000001,60.769799999999996,-11.283099999999999,-11.7104,8.4635700000000007
210809.0,51.279000000000003,66.882099999999994,43.962200000000003,70.853899999999996,-10.7873,-21.529599999999999,9.2688400000000009
210810.0,76.901300000000006,82.710800000000006,82.176599999999993,93.8613,-4.73142,-42.7136,8.9946800000000007
210811.0,77.415599999999998,60.936199999999999,53.152099999999997,71.566000000000003,-1.89574,-42.724699999999999,9.1262299999999996
210812.0,78.553600000000003,79.796099999999996,72.790599999999998,91.014499999999998,-0.81645199999999996,-43.772500000000001,7.4622799999999998
210813.0,74.429000000000002,63.782600000000002,47.848500000000001,75.433800000000005,0.84410600000000002,-40.135599999999997,6.5736600000000003
210814.0,68.975800000000007,67.983099999999993,39.2395,83.366600000000005,0.13016800000000001,-32.695599999999999,3.8974799999999998
210815.0,64.486000000000004,-15.915900000000001,-28.3764,-33.224699999999999,22.1691,15.7714,23.795200000000001
210816.0,29.8489,54.3431,41.733699999999999,45.064100000000003,-5.4444600000000003,-10.4489,10.7455
210817.0,59.364199999999997,60.1432,51.4589,75.904600000000002,-8.2272599999999994,-28.967600000000001,10.692299999999999
210818.0,60.005600000000001,51.213900000000002,44.258699999999997,69.366900000000001,-6.5289200000000003,-30.074000000000002,9.2247500000000002
210819.0,33.231299999999997,59.7562,38.994,48.886699999999998,-6.2453200000000004,-11.334300000000001,9.63279
210820.0,64.502300000000005,-37.684199999999997,-74.161699999999996,-58.5916,13.469900000000001,22.7104,18.831399999999999
210821.0,42.817500000000003,-90.845600000000005,-106.56,-104.678,9.1150699999999993,13.807700000000001,16.240100000000002
210822.0,89.904799999999994,89.071700000000007,31.664200000000001,68.0779,19.3765,28.006499999999999,26.282299999999999
210823.0,63.189999999999998,-42.3842,-78.521799999999999,-62.946800000000003,12.0649,20.9679,20.426100000000002
210824.0,50.837600000000002,-36.917200000000001,-71.655500000000004,-57.412500000000001,3.4636100000000001,16.847799999999999,16.1462
210825.0,38.845500000000001,4.7791399999999999,-28.453600000000002,-17.129899999999999,-3.62548,9.87758,10.3363
210826.0,27.999199999999998,58.310099999999998,32.917700000000004,42.397100000000002,-5.5627500000000003,2.2855099999999999,7.7787800000000002
210827.0,24.892199999999999,69.745900000000006,55.096899999999998,61.462699999999998,-5.1248699999999996,-5.1371000000000002,9.9966500000000007
210828.0,38.388300000000001,62.322099999999999,34.599800000000002,55.212499999999999,-6.26539,-11.4872,10.6152
210829.0,43.840000000000003,60.624899999999997,32.325099999999999,59.936999999999998,-7.4730499999999997,-13.6851,11.700100000000001
210830.0,48.778300000000002,57.603099999999998,33.839599999999997,64.944900000000004,-9.4992000000000001,-17.3888,11.667999999999999
210831.0,53.820599999999999,62.881,43.468400000000003,75.370900000000006,-10.600899999999999,-21.2577,11.952
210832.0,57.1631,56.080100000000002,43.903199999999998,69.956400000000002,-9.3654499999999992,-26.251899999999999,11.9331
210833.0,61.819400000000002,63.983199999999997,63.096699999999998,83.947199999999995,-3.3213599999999999,-32.730800000000002,7.2476399999999996
210834.0,60.610399999999998,49.677399999999999,42.022199999999998,68.5916,-0.56577,-31.7196,5.5716099999999997
210835.0,61.024999999999999,63.0274,55.3703,81.369299999999996,0.76587000000000005,-32.4499,3.0442499999999999
210836.0,60.2834,52.178100000000001,34.354700000000001,67.598500000000001,2.2404099999999998,-30.4651,1.20394
210837.0,61.781399999999998,44.235500000000002,11.4366,55.509599999999999,2.2040299999999999,-27.2561,0.58520899999999998
210838.0,46.775399999999998,-24.162500000000001,-36.417400000000001,-38.036900000000003,18.895499999999998,5.6322400000000004,16.822600000000001
210839.0,41.9373,66.098600000000005,67.376400000000004,75.371600000000001,-10.671200000000001,-18.451000000000001,10.328200000000001
210840.0,47.4741,48.060200000000002,36.630000000000003,66.367400000000004,-5.31081,-20.701000000000001,8.33718
210841.0,47.0989,38.503300000000003,26.005500000000001,56.783499999999997,-4.2118900000000004,-21.097300000000001,6.0822900000000004
210842.0,43.5336,64.982100000000003,62.2438,78.986199999999997,-8.5911899999999992,-18.709199999999999,11.279500000000001
210843.0,39.241700000000002,-13.943899999999999,-46.289299999999997,-32.9739,7.2755799999999997,9.1506100000000004,10.5999
210844.0,42.693600000000004,-119.602,-137.374,-136.65000000000001,12.567600000000001,12.6873,13.693
210845.0,86.679000000000002,86.610299999999995,19.628399999999999,62.680599999999998,19.166599999999999,23.999400000000001,20.222999999999999
210846.0,34.572099999999999,-18.341000000000001,-46.976700000000001,-39.945799999999998,4.8120000000000003,3.64567,11.801
210847.0,29.680800000000001,1.51169,-25.435700000000001,-19.350300000000001,-4.7507400000000004,-0.46665600000000002,8.4336199999999995
210848.0,29.1236,64.606899999999996,43.0291,51.028500000000001,-8.7595200000000002,-3.78755,8.5239700000000003
210849.0,31.575800000000001,77.608400000000003,70.514300000000006,74.596699999999998,-9.2017100000000003,-10.5808,11.0924
210850.0,39.511400000000002,61.360799999999998,63.339700000000001,65.196399999999997,-10.9406,-16.669599999999999,10.9148
210851.0,46.164900000000003,60.4465,52.677100000000003,75.758399999999995,-7.6869199999999998,-19.2683,11.921099999999999
210852.0,48.566800000000001,56.112900000000003,43.418399999999998,70.623000000000005,-7.6831500000000004,-19.915800000000001,12.053000000000001
210853.0,50.118499999999997,48.815899999999999,34.260899999999999,62.5152,-7.6827800000000002,-20.876000000000001,11.950799999999999
210854.0,50.085000000000001,47.573799999999999,32.781500000000001,62.262300000000003,-8.0347000000000008,-20.810600000000001,11.0113
210855.0,48.761600000000001,46.735599999999998,34.671500000000002,64.039500000000004,-6.8409199999999997,-20.678000000000001,10.014099999999999
210856.0,47.437600000000003,45.438200000000002,35.191499999999998,64.218800000000002,-2.3050299999999999,-22.613800000000001,4.0859399999999999
210857.0,48.054200000000002,37.575800000000001,22.610800000000001,55.034300000000002,-0.64859,-22.401800000000001,2.0336500000000002
210858.0,49.476500000000001,45.135100000000001,29.350000000000001,62.016800000000003,0.21069399999999999,-23.431100000000001,-0.182807
210859.0,51.237499999999997,40.905299999999997,18.285499999999999,55.624499999999998,0.82905499999999999,-22.749700000000001,-1.7618799999999999
210860.0,52.895000000000003,44.369300000000003,11.9033,53.151699999999998,-0.23141400000000001,-21.3323,-2.3253599999999999
210861.0,33.956800000000001,24.1434,9.9226600000000005,10.0382,14.3233,-3.0981000000000001,10.1357
210862.0,47.630800000000001,55.540599999999998,61.374899999999997,71.556600000000003,-9.9362399999999997,-22.1008,10.1663
210863.0,38.711300000000001,36.924300000000002,17.752700000000001,51.893099999999997,-3.4087399999999999,-12.9293,5.2795100000000001
210864.0,38.613599999999998,34.751800000000003,14.670999999999999,49.770600000000002,-3.0390600000000001,-12.855700000000001,3.5170300000000001
210865.0,46.383699999999997,49.018900000000002,49.1584,65.3048,-7.8711399999999996,-21.3752,10.5185
210866.0,22.909800000000001,36.699399999999997,12.791,22.055900000000001,0.157391,-4.5155000000000003,3.0373299999999999
210867.0,42.781999999999996,-155.86600000000001,-174.13200000000001,-170.83099999999999,14.4663,9.9863300000000006,14.3649
210868.0,85.505300000000005,94.307500000000005,16.595700000000001,66.282899999999998,15.321400000000001,20.281099999999999,15.5594
210869.0,23.441500000000001,44.1691,32.235500000000002,33.8264,-4.4271399999999996,-10.258599999999999,4.0426399999999996
210870.0,30.3063,74.209900000000005,66.356200000000001,69.743399999999994,-9.7550799999999995,-13.027900000000001,5.0747400000000003
210871.0,39.494,70.879499999999993,72.437899999999999,76.098299999999995,-11.7646,-17.495899999999999,8.2605900000000005
210872.0,47.419400000000003,64.959199999999996,73.413700000000006,76.072199999999995,-13.083600000000001,-21.001000000000001,10.180099999999999
210873.0,49.014299999999999,61.960099999999997,71.907200000000003,76.134500000000003,-12.2012,-22.2758,10.1374
210874.0,44.695700000000002,45.444200000000002,39.748399999999997,61.654400000000003,-6.5936399999999997,-19.5303,10.574199999999999
210875.0,42.828800000000001,44.146000000000001,33.910699999999999,60.481000000000002,-5.6712400000000001,-17.065999999999999,10.4129
210876.0,40.943600000000004,44.121899999999997,30.866499999999998,60.600099999999998,-4.9292800000000003,-14.793900000000001,9.6823599999999992
210877.0,39.722999999999999,42.128999999999998,26.1418,58.127299999999998,-4.33894,-13.444900000000001,8.4029699999999998
210878.0,39.020499999999998,35.760800000000003,18.1982,51.118099999999998,-3.8273299999999999,-13.241199999999999,6.7985300000000004
210879.0,39.110700000000001,38.160800000000002,18.4696,53.752000000000002,-2.24586,-13.773300000000001,1.5878099999999999
210880.0,41.337400000000002,34.463700000000003,12.637,50.014899999999997,-1.6008100000000001,-14.6434,-0.207398
210881.0,43.783799999999999,39.072400000000002,17.002199999999998,55.158499999999997,-1.21818,-16.350300000000001,-1.7979700000000001
210882.0,47.234699999999997,36.466999999999999,11.963800000000001,52.907299999999999,-0.73162700000000003,-17.589700000000001,-3.0440200000000002
210883.0,51.058,40.680599999999998,13.376200000000001,57.8386,-1.40663,-18.561800000000002,-4.43248
210884.0,25.401900000000001,57.192500000000003,48.748600000000003,56.406999999999996,8.1163399999999992,-6.7477,9.0508600000000001
210885.0,43.334400000000002,48.887900000000002,56.569800000000001,70.880099999999999,-7.2275799999999997,-19.389199999999999,8.5558899999999998
210886.0,35.814100000000003,33.172499999999999,7.1750600000000002,44.078000000000003,-2.30138,-7.3384600000000004,2.9941399999999998
210887.0,37.0486,31.132000000000001,4.2433500000000004,42.474699999999999,-2.5362399999999998,-7.9269100000000003,1.64828
210888.0,37.939799999999998,46.480800000000002,46.796799999999998,66.102400000000003,-4.8241899999999998,-16.093599999999999,8.4398199999999992
210889.0,25.116499999999998,90.604100000000003,81.260199999999998,94.830399999999997,-6.9265699999999999,-10.599600000000001,1.3155699999999999
210890.0,43.653700000000001,-184.98099999999999,-206.65299999999999,-203.15199999999999,15.514099999999999,6.4446599999999998,14.752700000000001
210891.0,87.678200000000004,111.758,24.9009,82.034000000000006,11.412000000000001,17.156400000000001,13.7576
210892.0,40.744199999999999,73.650499999999994,84.697400000000002,89.938900000000004,-10.7523,-19.1676,1.1041000000000001
210893.0,50.2393,77.686099999999996,92.331199999999995,99.266499999999994,-14.2691,-22.4772,3.3336800000000002
210894.0,55.1845,65.700100000000006,85.472099999999998,89.1584,-13.695,-25.134799999999998,6.0550199999999998
210895.0,53.661000000000001,61.709600000000002,79.469700000000003,85.474100000000007,-12.7751,-24.405899999999999,6.9482100000000004
210896.0,49.238100000000003,52.306100000000001,66.295000000000002,76.035499999999999,-9.8101199999999995,-22.408000000000001,8.2156800000000008
210897.0,34.8812,43.769100000000002,36.900700000000001,60.892299999999999,-3.2153,-13.3421,8.0344700000000007
210898.0,34.057099999999998,39.102899999999998,25.802299999999999,53.964599999999997,-2.3170899999999999,-11.304399999999999,7.4153900000000004
210899.0,34.338700000000003,34.263300000000001,15.8672,47.257199999999997,-1.99102,-9.8556600000000003,6.5716700000000001
210900.0,34.708399999999997,33.008699999999997,10.8933,44.608699999999999,-2.0532699999999999,-8.4946099999999998,5.6378899999999996
210901.0,34.943899999999999,34.6708,10.3588,45.6723,-2.1635599999999999,-7.5027699999999999,4.4189400000000001
210902.0,38.518900000000002,31.055099999999999,3.87384,43.318199999999997,-2.6882100000000002,-8.9291400000000003,0.31917400000000001
210903.0,40.475200000000001,30.716999999999999,3.6310099999999998,44.321100000000001,-2.7655799999999999,-10.4094,-1.00363
210904.0,42.925899999999999,31.860600000000002,5.3516399999999997,47.314500000000002,-2.6974499999999999,-12.336,-2.0866099999999999
210905.0,46.379100000000001,31.703600000000002,5.1212099999999996,49.1492,-2.4893200000000002,-14.4817,-3.08528
210906.0,50.756799999999998,32.897599999999997,5.6234299999999999,52.191299999999998,-2.8198599999999998,-17.0243,-3.67727
210907.0,24.584299999999999,50.063899999999997,44.084000000000003,55.476700000000001,5.0417300000000003,-6.13443,10.2926
210908.0,37.322600000000001,45.643099999999997,51.0139,69.244200000000006,-3.39778,-16.7607,4.3388299999999997
210909.0,36.956600000000002,30.733899999999998,-0.17156399999999999,38.992899999999999,-1.7926200000000001,-4.8300700000000001,1.58701
210910.0,38.168900000000001,31.978899999999999,0.631166,41.092199999999998,-2.4552299999999998,-5.3481500000000004,0.72137600000000002
210911.0,33.018500000000003,38.999099999999999,35.936199999999999,58.747,-1.4367300000000001,-13.6257,4.7332000000000001
210912.0,32.7502,97.802300000000002,91.516300000000001,112.42700000000001,-10.287000000000001,-11.2355,3.2191200000000002
210913.0,49.920299999999997,-192.44200000000001,-216.08000000000001,-212.77199999999999,17.889099999999999,7.3255100000000004,17.122
210914.0,92.054100000000005,113.395,22.628399999999999,80.276600000000002,12.632199999999999,17.7117,15.5436
210915.0,50.685099999999998,69.219300000000004,90.765199999999993,99.497699999999995,-12.228300000000001,-21.475000000000001,1.65611
210916.0,58.146500000000003,71.303700000000006,95.942700000000002,105.66,-15.0593,-24.217400000000001,0.30722699999999997
210917.0,57.607900000000001,61.868000000000002,88.332499999999996,97.284199999999998,-12.0646,-24.871300000000002,1.7190799999999999
210918.0,51.725000000000001,56.670000000000002,78.043599999999998,88.994900000000001,-9.3795000000000002,-22.945399999999999,2.6613199999999999
210919.0,44.050899999999999,51.8033,65.901899999999998,79.761200000000002,-5.9206899999999996,-20.063500000000001,3.7168100000000002
210920.0,30.9772,34.938899999999997,24.165299999999998,51.139600000000002,-0.359678,-10.656599999999999,4.67014
210921.0,30.712599999999998,34.663600000000002,17.209299999999999,47.4193,0.131631,-8.0691900000000008,4.3921000000000001
210922.0,31.729900000000001,36.172199999999997,13.4415,46.3078,0.031816999999999998,-6.0764100000000001,3.9248599999999998
210923.0,33.571300000000001,34.094299999999997,7.4495300000000002,42.844799999999999,-0.36296699999999998,-5.0086599999999999,3.2511000000000001
210924.0,35.4788,31.169,1.7891699999999999,39.355800000000002,-1.0444899999999999,-4.7366400000000004,2.4108100000000001
210925.0,39.982500000000002,30.8048,-0.99878599999999995,41.244700000000002,-3.11198,-6.2422199999999997,-0.233489
210926.0,41.347200000000001,30.991,0.49917600000000001,43.741500000000002,-3.6447400000000001,-7.8459300000000001,-1.14717
210927.0,43.525199999999998,30.4085,0.77338899999999999,45.646500000000003,-3.8495599999999999,-9.6183499999999995,-1.86443
210928.0,46.191200000000002,30.387499999999999,1.8977200000000001,48.549399999999999,-4.0742200000000004,-11.635300000000001,-2.4992999999999999
210929.0,49.0608,31.169499999999999,4.0777900000000002,52.471699999999998,-4.3891799999999996,-13.6501,-2.9058199999999998
210930.0,29.6249,11.0722,1.2101,11.8629,6.7313999999999998,1.86843,14.44
210931.0,32.933,41.488599999999998,44.291499999999999,68.508399999999995,0.14995600000000001,-11.8606,-0.316803
210932.0,38.358899999999998,30.931100000000001,-2.21591,38.731000000000002,-1.4134,-3.9280200000000001,0.58284400000000003
210933.0,39.875799999999998,30.502600000000001,-2.9501400000000002,39.658999999999999,-2.3241299999999998,-4.64093,0.088403800000000005
210934.0,29.223299999999998,40.829500000000003,35.146599999999999,61.447000000000003,1.6348,-9.5121400000000005,0.0122124
210935.0,27.416799999999999,83.764799999999994,67.238900000000001,89.392600000000002,-7.4194000000000004,-2.0770300000000002,7.6553899999999997
210936.0,61.4101,-183.10400000000001,-210.68799999999999,-210.66800000000001,22.688300000000002,9.4070400000000003,20.0092
210937.0,98.039699999999996,72.962100000000007,-17.890599999999999,32.779400000000003,18.658000000000001,19.9831,19.5898
210938.0,33.070799999999998,71.613699999999994,84.139099999999999,94.519800000000004,-7.7806899999999999,-12.4788,4.0919600000000003
210939.0,42.667099999999998,70.936800000000005,90.458299999999994,101.92,-10.1289,-16.088000000000001,0.102447
210940.0,45.219700000000003,58.865099999999998,81.696799999999996,94.447400000000002,-7.4763599999999997,-17.332999999999998,-0.53312700000000002
210941.0,42.467300000000002,52.162999999999997,70.573400000000007,87.647999999999996,-5.1566700000000001,-16.1037,-0.54144099999999995
210942.0,37.916600000000003,43.630200000000002,55.0732,76.157200000000003,-2.1627900000000002,-14.2193,-0.33022499999999999
210943.0,28.3368,40.969499999999996,27.237300000000001,55.927900000000001,2.1739199999999999,-7.5314199999999998,0.54527499999999995
210944.0,29.807700000000001,36.431600000000003,16.4758,48.0398,2.1513,-5.9589600000000003,1.07185
210945.0,32.229500000000002,32.312600000000003,7.2430500000000002,41.808,1.4478599999999999,-4.8665900000000004,1.2536099999999999
210946.0,34.487499999999997,31.713699999999999,2.7094200000000002,39.578099999999999,0.67310000000000003,-4.1698599999999999,1.24736
210947.0,36.4878,33.490400000000001,1.8020700000000001,40.729100000000003,-0.34034599999999998,-3.7398199999999999,1.0204200000000001
210948.0,41.8339,28.597799999999999,-5.3261599999999998,39.303600000000003,-3.2696000000000001,-5.4352600000000004,-0.49732900000000002
210949.0,42.9358,29.2989,-2.97017,42.657600000000002,-4.0604100000000001,-6.8161800000000001,-1.1286400000000001
210950.0,44.836599999999997,28.344799999999999,-2.9672000000000001,44.366199999999999,-4.4866299999999999,-8.2293000000000003,-1.6305099999999999
210951.0,46.887900000000002,27.749300000000002,-1.9269400000000001,46.922199999999997,-4.91113,-9.9112299999999998,-2.1726399999999999
210952.0,49.3718,27.323599999999999,-0.48797099999999999,49.951999999999998,-5.1724500000000004,-11.857100000000001,-2.6255500000000001
210953.0,46.456000000000003,-39.615299999999998,-62.3001,-59.545900000000003,14.2636,8.6858699999999995,16.948599999999999
210954.0,23.0488,48.079300000000003,40.017299999999999,62.215200000000003,3.3999999999999999,-5.1234099999999998,-3.6072500000000001
210955.0,39.309699999999999,30.941199999999998,-2.3181500000000002,40.141199999999998,-1.0132300000000001,-3.8822999999999999,-0.216895
210956.0,40.983800000000002,31.814900000000002,-1.97862,42.319499999999998,-2.11876,-4.4086699999999999,-0.43201699999999998
210957.0,25.907,40.283099999999997,28.011099999999999,54.591799999999999,4.0326000000000004,-4.5584100000000003,-3.1149200000000001
210958.0,40.681899999999999,41.074199999999998,6.1099300000000003,24.758099999999999,1.7771699999999999,10.446899999999999,11.545500000000001
210959.0,74.642399999999995,-157.495,-190.55099999999999,-198.27500000000001,28.4727,12.0634,20.7776
210960.0,108.511,39.077300000000001,-54.284500000000001,-19.651399999999999,28.362500000000001,20.7194,21.533100000000001
210961.0,19.3705,59.1357,49.595199999999998,58.836300000000001,1.92967,5.0146600000000001,8.1721199999999996
210962.0,10.899800000000001,66.331500000000005,65.987200000000001,74.608400000000003,-0.31804700000000002,1.60538,3.6192000000000002
210963.0,13.0785,56.386099999999999,60.154899999999998,70.553899999999999,-0.34879599999999999,-1.7195499999999999,0.30446600000000001
210964.0,16.9251,57.703800000000001,56.826500000000003,72.138499999999993,1.00857,-3.98204,-2.1636099999999998
210965.0,20.511199999999999,53.7988,50.057899999999997,68.202500000000001,3.2181799999999998,-5.2056699999999996,-3.3163999999999998
210966.0,27.769200000000001,33.880699999999997,18.220199999999998,47.963999999999999,3.7142900000000001,-3.88992,-2.5949200000000001
210967.0,29.801100000000002,34.530500000000004,13.663500000000001,46.118899999999996,2.95987,-3.6130399999999998,-1.9252499999999999
210968.0,31.9405,36.692700000000002,11.4566,46.056100000000001,2.5109599999999999,-3.4939100000000001,-1.1300300000000001
210969.0,34.2654,33.713099999999997,5.2788399999999998,42.473399999999998,1.3884099999999999,-3.3293699999999999,-0.49691200000000002
210970.0,37.124400000000001,31.3933,-0.099537399999999998,40.087000000000003,0.055605300000000003,-3.5066899999999999,-0.22717200000000001
210971.0,43.121200000000002,29.806899999999999,-4.6268099999999999,41.9253,-3.2065000000000001,-5.0621900000000002,-0.79554599999999998
210972.0,44.381799999999998,29.663599999999999,-3.3011900000000001,44.550800000000002,-4.1459099999999998,-6.1777100000000003,-1.24176
210973.0,46.235900000000001,27.758400000000002,-4.2638800000000003,45.386800000000001,-4.7360699999999998,-7.32904,-1.69631
210974.0,48.1145,27.793199999999999,-2.5888300000000002,48.616900000000001,-5.2997500000000004,-8.7099700000000002,-2.1440800000000002
210975.0,50.177500000000002,27.2728,-1.0535399999999999,51.656300000000002,-5.7388899999999996,-10.2012,-2.52698
210976.0,1450.74,-1318.8800000000001,-418.04500000000002,-926.91600000000005,-681.94200000000001,-153.84999999999999,93.885900000000007
210977.0,1420.71,1622.9200000000001,2512.5999999999999,2022.9100000000001,-669.35900000000004,-136.44300000000001,87.144199999999998
210978.0,1377.4300000000001,-1517.96,-645.03399999999999,-1112.4200000000001,-649.90499999999997,-112.919,80.547200000000004
210979.0,1370.9100000000001,1911.73,2781.2600000000002,2320.0700000000002,-649.21500000000003,-101.532,73.644300000000001
210980.0,1372.53,-1518.3699999999999,-654.33500000000004,-1113.0599999999999,-652.96500000000003,-99.904399999999995,68.767899999999997
210981.0,1347.02,1218.1099999999999,2064.4000000000001,1615.5,-644.38999999999999,-81.298199999999994,60.802
210982.0,1351.6400000000001,-1630.97,-787.93200000000002,-1237.5,-651.55200000000002,-60.614199999999997,53.335900000000002
210983.0,1354.55,1144.8199999999999,1982.04,1534.6700000000001,-655.61500000000001,-60.293100000000003,51.256399999999999
210984.0,1353.8099999999999,-2034.45,-1207.1300000000001,-1655.6199999999999,-659.49099999999999,-47.848399999999998,46.849699999999999
210985.0,1348.6099999999999,919.15999999999997,1733.8900000000001,1283.3800000000001,-660.74699999999996,-35.4754,42.892600000000002
210986.0,1354.53,-1721.51,-905.29700000000003,-1347.26,-663.59699999999998,-47.260399999999997,45.346200000000003
210987.0,1338.45,584.87,1393.0,967.17100000000005,-654.36599999999999,-60.474299999999999,43.297899999999998
210988.0,1317.22,-2104.0500000000002,-1311.1099999999999,-1729.23,-644.72299999999996,-62.797600000000003,37.362499999999997
210989.0,1315.3399999999999,569.64200000000005,1359.53,946.91099999999994,-644.14700000000005,-66.485399999999998,35.786900000000003
210990.0,1306.8699999999999,-2179.48,-1386.9200000000001,-1781.51,-636.54300000000001,-77.688100000000006,32.228499999999997
210991.0,1304.98,485.70400000000001,1288.1500000000001,915.84199999999998,-630.45000000000005,-89.975099999999998,28.8368
210992.0,1308.79,-2496.8800000000001,-1691.9200000000001,-2056.8800000000001,-631.60900000000004,-94.299700000000001,26.400400000000001
210993.0,1306.3900000000001,272.12,1076.47,717.21600000000001,-629.73000000000002,-97.579599999999999,21.0962
210994.0,1318.4200000000001,-2352.0999999999999,-1531.8,-1875.29,-631.60900000000004,-101.752,20.537600000000001
210995.0,1334.6900000000001,264.45100000000002,1103.03,776.66800000000001,-635.43399999999997,-104.405,20.963699999999999
210996.0,1346.46,-2728.8699999999999,-1861.1099999999999,-2152.7399999999998,-630.82100000000003,-105.86,13.286199999999999
210997.0,1364.6900000000001,44.943100000000001,942.09400000000005,679.45399999999995,-630.25800000000004,-103.759,7.3753500000000001
210998.0,1394.74,-2777.73,-1853.8399999999999,-2099.9099999999999,-639.93899999999996,-99.156599999999997,12.2349
210999.0,1422.1300000000001,-385.89100000000002,568.36500000000001,342.87299999999999,-645.76800000000003,-90.706800000000001,12.012499999999999
211000.0,1465.5,-2825.6199999999999,-1846.72,-2068.4000000000001,-666.54399999999998,-82.979500000000002,35.628300000000003
211001.0,1507.22,226.54900000000001,1219.1800000000001,992.29100000000005,-689.779,-80.150899999999993,67.061000000000007
211002.0,1544.1500000000001,-2392.2399999999998,-1391.3299999999999,-1623.1400000000001,-710.13199999999995,-79.680899999999994,98.209599999999995
211003.0,1592.4400000000001,6.7551899999999998,1013.3,779.18399999999997,-734.71100000000001,-79.697999999999993,147.34399999999999
211004.0,212.899,166.46000000000001,335.89100000000002,207.36099999999999,73.557900000000004,22.2029,-37.258899999999997
211005.0,128.87299999999999,-109.36499999999999,-31.4236,-132.17099999999999,46.988399999999999,-22.999300000000002,-2.8887499999999999
211006.0,119.946,-323.42599999999999,-315.67000000000002,-294.64999999999998,25.302399999999999,15.4108,60.796999999999997
211007.0,64.305099999999996,1284.45,1316.26,1289.55,20.7347,8.6627200000000002,24.113399999999999
211008.0,75.278700000000001,1630.02,1672.1400000000001,1654.73,7.19245,3.3471299999999999,37.124299999999998
211009.0,69.590999999999994,761.27200000000005,807.55399999999997,780.19799999999998,7.2147800000000002,-1.08663,31.931899999999999
211010.0,49.0366,758.61099999999999,778.46900000000005,776.26599999999996,8.7604100000000003,3.1534200000000001,24.420500000000001
211011.0,102.366,857.23199999999997,873.53999999999996,887.904,24.1646,11.091799999999999,50.502299999999998
211012.0,94.072400000000002,-602.01700000000005,-547.48800000000006,-616.23500000000001,39.844999999999999,0.089653399999999994,-6.7283600000000003
211013.0,97.098500000000001,-484.06200000000001,-423.62400000000002,-498.11200000000002,39.487499999999997,-3.3922599999999998,-2.33826
211014.0,95.1494,-683.45600000000002,-641.375,-697.56200000000001,44.069099999999999,5.0257800000000001,-13.999599999999999
211015.0,89.4726,-1245.0799999999999,-1214.48,-1252.6400000000001,45.965600000000002,6.9921899999999999,-9.92056
211016.0,77.581599999999995,-1266.45,-1248.4200000000001,-1260.5599999999999,40.8521,10.897,11.5817
211017.0,97.551000000000002,-805.774,-796.68499999999995,-785.63900000000001,31.8994,14.7941,42.8247
211018.0,113.72,639.17899999999997,660.96400000000006,660.22799999999995,28.756599999999999,16.058299999999999,55.433700000000002
211019.0,113.83,282.59100000000001,293.99900000000002,313.23399999999998,24.092400000000001,13.3056,57.634900000000002
211020.0,96.437600000000003,1064.53,1082.6099999999999,1094.3499999999999,24.285599999999999,10.5017,46.630099999999999
211021.0,91.548900000000003,1280.71,1299.5799999999999,1307.21,23.413599999999999,9.5470000000000006,44.366
211022.0,86.997799999999998,1452.5699999999999,1472.46,1474.9400000000001,21.502600000000001,8.7101000000000006,42.829099999999997
211023.0,76.2667,1442.9000000000001,1468.4100000000001,1457.9200000000001,20.771799999999999,8.4800699999999996,35.653300000000002
211024.0,59.8825,-1479.71,-1454.4400000000001,-1465.74,18.5303,7.3115899999999998,25.263100000000001
211025.0,52.778300000000002,991.71699999999998,1021.1,994.904,17.6432,6.5511600000000003,17.73
211026.0,73.253399999999999,800.69200000000001,809.38099999999997,840.24900000000002,-1.55881,-0.29227199999999998,36.796500000000002
211027.0,98.7851,1098.24,1102.6800000000001,1155.47,-7.5457900000000002,-2.6069,46.643700000000003
211028.0,102.435,1477.9200000000001,1490.5799999999999,1537.3599999999999,-5.8630699999999996,-1.0100499999999999,49.817900000000002
211029.0,84.191900000000004,1708.0899999999999,1734.99,1751.72,1.1221399999999999,0.86636599999999997,43.315300000000001
211030.0,66.721000000000004,-1790.4300000000001,-1762.9300000000001,-1755.02,3.0634399999999999,-3.14114,33.454999999999998
211031.0,74.293400000000005,1241.8199999999999,1293.1400000000001,1254.74,10.820399999999999,3.70648,31.564299999999999
211032.0,84.752399999999994,500.92899999999997,545.01099999999997,532.87900000000002,-1.3169200000000001,-1.10337,43.276299999999999
211033.0,89.442999999999998,312.25799999999998,363.18900000000002,343.822,-3.2133699999999998,3.4865699999999999,44.534199999999998
211034.0,81.333100000000002,7.0930799999999996,63.234000000000002,29.075299999999999,-0.26689600000000002,6.0068099999999998,36.994100000000003
211035.0,52.056600000000003,80.501900000000006,52.052599999999998,51.668300000000002,-22.285599999999999,8.3499599999999994,-7.9652000000000003
211036.0,106.13800000000001,169.613,246.38999999999999,166.97,40.827399999999997,2.7803300000000002,-6.7567700000000004
211037.0,93.919899999999998,476.84899999999999,541.66200000000003,468.31299999999999,35.9803,-1.9647300000000001,-5.7388000000000003
211038.0,88.738299999999995,474.65100000000001,526.76800000000003,462.42000000000002,35.908000000000001,-1.52433,-12.860200000000001
211039.0,95.872600000000006,901.76300000000003,946.87300000000005,887.29399999999998,43.237200000000001,1.7155400000000001,-15.026300000000001
211040.0,89.343699999999998,1378.22,1422.1400000000001,1369.5999999999999,42.685400000000001,6.6573000000000002,0.69758799999999999
211041.0,92.8673,1132.1500000000001,1165.4200000000001,1136.1900000000001,36.799799999999998,14.0749,31.5091
211042.0,112.96899999999999,61.445300000000003,74.9221,92.515600000000006,23.3415,12.949999999999999,57.434199999999997
211043.0,101.898,-633.42100000000005,-619.53599999999994,-601.52800000000002,22.4314,10.4854,50.914200000000001
211044.0,93.288300000000007,-1043.0899999999999,-1027.96,-1013.63,21.370999999999999,9.2668199999999992,46.2746
211045.0,88.859499999999997,-1219.1700000000001,-1204.5799999999999,-1192.02,20.970400000000001,9.2176200000000001,43.847200000000001
211046.0,84.979500000000002,-1438.23,-1422.03,-1413.6500000000001,19.454000000000001,8.9264600000000005,42.3431
211047.0,74.449399999999997,-1547.8599999999999,-1529.46,-1526.4100000000001,18.464700000000001,8.0845099999999999,36.148000000000003
211048.0,55.489199999999997,-1238.8,-1206.5799999999999,-1234.8399999999999,18.445900000000002,7.4827199999999996,17.929300000000001
211049.0,58.058300000000003,-867.16099999999994,-832.52300000000002,-859.91399999999999,12.194000000000001,6.6773300000000004,24.424499999999998
211050.0,71.466700000000003,-662.18399999999997,-633.78200000000004,-636.05799999999999,2.2845399999999998,4.05084,37.839199999999998
211051.0,93.571700000000007,-796.26700000000005,-778.21000000000004,-748.18299999999999,-5.8237300000000003,-0.080928600000000003,47.902900000000002
211052.0,104.33199999999999,-1167.1099999999999,-1154.95,-1105.79,-8.1534099999999992,-3.9490500000000002,49.922699999999999
211053.0,86.558599999999998,-1603.01,-1587.3099999999999,-1549.0,-2.6372200000000001,-4.6143200000000002,41.1995
211054.0,63.599299999999999,-1623.3399999999999,-1580.5999999999999,-1605.8299999999999,8.2229200000000002,0.178201,28.618300000000001
211055.0,75.435100000000006,-1157.78,-1105.6400000000001,-1144.5699999999999,7.5574000000000003,2.2640799999999999,33.160499999999999
211056.0,86.030199999999994,-704.98299999999995,-658.47799999999995,-676.351,-1.9482900000000001,-0.150752,43.737099999999998
211057.0,83.162999999999997,-580.89999999999998,-535.74199999999996,-547.28499999999997,-5.4341299999999997,-0.0094897699999999998,41.538200000000003
211058.0,73.130399999999995,-438.07299999999998,-387.54000000000002,-414.584,-2.2708499999999998,3.1817299999999999,33.585099999999997
211059.0,196.30199999999999,-78.252799999999993,88.881100000000004,-37.6372,59.729700000000001,27.360700000000001,-30.500299999999999
211060.0,124.235,-317.18000000000001,-241.172,-334.68599999999998,48.475000000000001,-17.9438,1.2204900000000001
211061.0,151.303,536.88,538.98400000000004,572.52499999999998,34.745399999999997,21.352699999999999,74.617199999999997
211062.0,74.647599999999997,1899.27,1928.8299999999999,1911.3499999999999,27.632999999999999,13.204700000000001,26.428100000000001
211063.0,86.024000000000001,1985.4000000000001,2029.6099999999999,2018.3599999999999,10.8256,5.2055499999999997,42.362200000000001
211064.0,84.467100000000002,1158.55,1214.26,1174.3399999999999,10.7629,3.6867800000000002,37.7438
211065.0,74.695700000000002,1412.96,1423.8,1441.6099999999999,21.357199999999999,12.304600000000001,32.295999999999999
211066.0,118.736,1487.8299999999999,1499.72,1518.6099999999999,33.727699999999999,13.101599999999999,56.118000000000002
211067.0,88.858900000000006,-423.40199999999999,-373.125,-435.49099999999999,39.0854,1.37252,-2.9179499999999998
211068.0,98.203999999999994,-226.14599999999999,-172.32300000000001,-244.93799999999999,42.262999999999998,-2.6166999999999998,1.08772
211069.0,81.449299999999994,-794.78300000000002,-755.73599999999999,-799.84400000000005,39.380400000000002,8.2171500000000002,-3.2186499999999998
211070.0,79.258099999999999,-637.42899999999997,-611.69000000000005,-639.346,41.251600000000003,10.558,6.5025500000000003
211071.0,91.130600000000001,-594.74599999999998,-581.64499999999998,-583.68200000000002,42.581200000000003,13.817399999999999,26.729800000000001
211072.0,127.226,-306.31799999999998,-301.39499999999998,-278.399,38.320099999999996,19.16,57.7744
211073.0,142.59,2.2599300000000002,16.459,30.3447,35.862400000000001,20.818100000000001,69.718199999999996
211074.0,138.39699999999999,1193.29,1199.0899999999999,1225.9400000000001,35.436,17.555599999999998,67.209500000000006
211075.0,109.146,1868.5799999999999,1885.3800000000001,1902.1800000000001,29.107900000000001,10.941000000000001,52.169600000000003
211076.0,103.504,2080.1399999999999,2101.1799999999998,2114.4000000000001,25.115300000000001,11.133599999999999,50.176200000000001
211077.0,98.334699999999998,2156.9400000000001,2179.5999999999999,2187.8499999999999,23.069700000000001,12.463699999999999,47.744799999999998
211078.0,84.735100000000003,2142.2199999999998,2168.79,2161.8000000000002,24.648599999999998,12.6159,37.907699999999998
211079.0,69.374899999999997,-2128.8099999999999,-2102.2399999999998,-2112.0599999999999,23.924399999999999,9.13279,27.7118
211080.0,70.268100000000004,1578.9300000000001,1602.5799999999999,1594.29,26.8933,13.405900000000001,24.470500000000001
211081.0,93.492000000000004,1475.9100000000001,1475.6400000000001,1523.3800000000001,14.2966,10.2392,43.001100000000001
211082.0,111.221,1745.4200000000001,1742.53,1805.9400000000001,7.4905600000000003,6.7510899999999996,52.342500000000001
211083.0,109.34999999999999,2051.5900000000001,2059.8299999999999,2111.23,4.7700800000000001,4.2122900000000003,53.859099999999998
211084.0,94.248000000000005,2156.4699999999998,2183.3400000000001,2204.2399999999998,6.9851599999999996,3.9720800000000001,48.197600000000001
211085.0,78.158199999999994,-2230.1999999999998,-2199.8400000000001,-2185.6500000000001,8.5711499999999994,3.5659200000000002,37.844000000000001
211086.0,85.622699999999995,1614.6900000000001,1669.4400000000001,1635.1300000000001,13.424899999999999,5.3421200000000004,38.334200000000003
211087.0,84.4101,711.48699999999997,765.84000000000003,732.72299999999996,4.9501400000000002,5.1263899999999998,39.672600000000003
211088.0,83.183400000000006,314.88,366.60000000000002,345.31099999999998,1.1159600000000001,7.5052700000000003,39.663699999999999
211089.0,79.612499999999997,4.2854900000000002,51.729900000000001,40.5045,1.16004,7.8630000000000004,37.878
211090.0,50.098799999999997,85.470200000000006,59.767000000000003,51.897399999999998,-20.7118,7.1351800000000001,-6.9608600000000003
211091.0,109.786,166.72,240.559,162.863,45.400199999999998,6.0156900000000002,-1.7436700000000001
211092.0,95.818299999999994,141.553,205.863,131.75399999999999,37.683300000000003,-1.8415299999999999,-4.0353199999999996
211093.0,84.569000000000003,533.303,585.80200000000002,523.68700000000001,35.067399999999999,0.62255799999999994,-6.0023299999999997
211094.0,79.689099999999996,652.17399999999998,691.053,642.50999999999999,37.788600000000002,5.3011299999999997,0.69106000000000001
211095.0,82.3874,526.13599999999997,556.697,520.35199999999998,39.637599999999999,9.0418800000000008,15.108499999999999
211096.0,112.21899999999999,560.471,585.21699999999998,569.29499999999996,40.630600000000001,17.277799999999999,45.728000000000002
211097.0,141.34200000000001,-898.34799999999996,-892.05700000000002,-860.33500000000004,34.524500000000003,18.145900000000001,68.722800000000007
211098.0,122.604,-1354.1300000000001,-1344.4000000000001,-1318.1300000000001,34.009399999999999,14.9711,57.296300000000002
211099.0,109.70699999999999,-1694.75,-1679.9000000000001,-1661.3299999999999,30.340199999999999,13.2463,51.335799999999999
211100.0,102.97199999999999,-2044.9000000000001,-2027.8499999999999,-2010.46,24.7118,11.644,49.916600000000003
211101.0,97.046800000000005,-2186.21,-2167.8699999999999,-2153.4899999999998,20.741800000000001,10.857200000000001,48.190600000000003
211102.0,83.281099999999995,-2226.8600000000001,-2207.4000000000001,-2199.4099999999999,21.0793,9.6630800000000008,39.683900000000001
211103.0,71.712900000000005,-1784.76,-1753.47,-1773.1600000000001,26.402699999999999,11.426500000000001,25.223700000000001
211104.0,76.834900000000005,-1459.4400000000001,-1433.6800000000001,-1442.02,23.2423,12.7272,33.060499999999998
211105.0,88.930300000000003,-1353.8299999999999,-1338.8499999999999,-1320.5,16.7287,11.9237,43.994300000000003
211106.0,107.764,-1495.1900000000001,-1489.6099999999999,-1441.8,9.9589599999999994,9.8804599999999994,53.037199999999999
211107.0,110.92100000000001,-1852.25,-1847.9000000000001,-1788.4200000000001,4.8236999999999997,5.5593700000000004,52.679200000000002
211108.0,94.981200000000001,-2166.9000000000001,-2151.71,-2107.8000000000002,5.26816,3.1832400000000001,45.025399999999998
211109.0,73.474699999999999,-2023.75,-1979.96,-1995.78,11.766299999999999,4.7253600000000002,33.867199999999997
211110.0,78.520200000000003,-1635.1300000000001,-1584.0599999999999,-1617.6500000000001,10.7285,5.7579399999999996,35.116700000000002
211111.0,82.052499999999995,-1178.9000000000001,-1126.6900000000001,-1161.23,4.4722999999999997,6.1710700000000003,38.482799999999997
211112.0,83.5488,-750.95899999999995,-698.98299999999995,-726.97900000000004,0.258631,8.4983000000000004,39.721400000000003
211113.0,80.546000000000006,-373.96300000000002,-325.44900000000001,-344.17500000000001,0.38662000000000002,9.4017499999999998,38.411099999999998
211114.0,185.25999999999999,74.094300000000004,235.46600000000001,113.572,51.421700000000001,35.455800000000004,-21.514199999999999
211115.0,121.56699999999999,-28.077300000000001,48.201000000000001,-42.918300000000002,47.218800000000002,-16.414100000000001,6.0732999999999997
211116.0,184.96899999999999,1383.72,1385.5,1431.4200000000001,41.840200000000003,25.8916,90.842699999999994
211117.0,86.559299999999993,2806.8499999999999,2818.6500000000001,2831.8099999999999,28.060400000000001,18.196000000000002,34.972700000000003
211118.0,90.518000000000001,2527.5999999999999,2578.2600000000002,2545.3099999999999,16.547999999999998,7.3114699999999999,41.7485
211119.0,90.939400000000006,1227.6199999999999,1293.27,1227.95,11.826700000000001,7.1918699999999998,33.700099999999999
211120.0,105.804,2609.4499999999998,2598.6500000000001,2653.9899999999998,25.658899999999999,18.7849,43.125599999999999
211121.0,133.68899999999999,2607.77,2617.9299999999998,2637.7800000000002,43.758299999999998,17.974699999999999,59.048400000000001
211122.0,91.407600000000002,-445.68900000000002,-402.82299999999998,-456.37299999999999,43.994799999999998,5.5173199999999998,3.99011
211123.0,98.884200000000007,-312.06,-260.351,-328.49099999999999,44.330300000000001,2.4213499999999999,4.8835100000000002
211124.0,93.490099999999998,-288.21800000000002,-259.738,-290.66199999999998,48.887300000000003,9.7370599999999996,11.538500000000001
211125.0,104.55200000000001,-389.19499999999999,-372.60599999999999,-384.90199999999999,51.214599999999997,15.914899999999999,26.331099999999999
211126.0,120.36499999999999,-75.050200000000004,-68.120800000000003,-56.618499999999997,48.733600000000003,18.8611,44.853499999999997
211127.0,160.334,638.63499999999999,640.81600000000003,676.91700000000003,44.8262,23.472999999999999,74.474299999999999
211128.0,173.203,-921.00599999999997,-912.80100000000004,-883.87099999999998,41.432899999999997,24.4467,85.468699999999998
211129.0,163.67099999999999,2121.0,2127.6900000000001,2160.4400000000001,43.076700000000002,22.881799999999998,78.132599999999996
211130.0,117.352,2602.1300000000001,2614.6100000000001,2631.6399999999999,39.344000000000001,14.561400000000001,51.097900000000003
211131.0,110.193,2667.3099999999999,2680.8699999999999,2702.5599999999999,32.774099999999997,14.412000000000001,49.492199999999997
211132.0,110.31,2826.6100000000001,2839.9000000000001,2867.0799999999999,26.515799999999999,16.848700000000001,51.415900000000001
211133.0,100.062,2902.48,2916.4899999999998,2936.5700000000002,25.424800000000001,18.769400000000001,45.223599999999998
211134.0,84.0107,-2920.6599999999999,-2910.79,-2891.8899999999999,24.945599999999999,14.161799999999999,36.277000000000001
211135.0,87.125200000000007,2635.7800000000002,2638.2199999999998,2665.6500000000001,28.2454,18.180800000000001,33.569699999999997
211136.0,122.31999999999999,2770.23,2753.1500000000001,2826.46,22.111699999999999,16.493300000000001,52.486800000000002
211137.0,123.429,3011.8099999999999,3001.8899999999999,3070.1500000000001,19.025300000000001,14.916,55.9773
211138.0,108.851,3116.7800000000002,3124.6799999999998,3165.2600000000002,17.645299999999999,13.312099999999999,52.7682
211139.0,93.676299999999998,2946.6999999999998,2977.4099999999999,2979.6500000000001,17.3507,10.3085,46.677199999999999
211140.0,77.717399999999998,-2945.4099999999999,-2910.8299999999999,-2915.21,16.318300000000001,10.7812,35.726700000000001
211141.0,93.478499999999997,1927.9100000000001,1991.1700000000001,1932.4200000000001,14.7041,6.0560600000000004,37.6066
211142.0,77.0595,573.85599999999999,630.21600000000001,584.63199999999995,7.9523200000000003,8.7353000000000005,30.737100000000002
211143.0,68.626900000000006,151.76499999999999,192.93000000000001,182.07599999999999,3.1250800000000001,10.0565,31.6828
211144.0,73.0137,-3.1034600000000001,21.783300000000001,44.427999999999997,-0.095231700000000002,7.9960100000000001,33.879600000000003
211145.0,51.014200000000002,87.665300000000002,63.813499999999998,49.321399999999997,-20.4971,5.9042899999999996,-6.1340899999999996
211146.0,111.232,28.802099999999999,101.71599999999999,22.589200000000002,46.284700000000001,6.0689799999999998,3.01335
211147.0,98.032700000000006,343.02100000000002,405.99200000000002,335.34800000000001,41.127400000000002,3.0783399999999999,0.28361999999999998
211148.0,89.5809,247.38200000000001,293.38499999999999,237.804,42.041600000000003,3.6801699999999999,3.3148599999999999
211149.0,95.095299999999995,254.04499999999999,284.25400000000002,247.86699999999999,46.8033,9.8593700000000002,18.640799999999999
211150.0,104.89400000000001,257.66699999999997,275.08100000000002,257.59100000000001,47.056600000000003,14.803699999999999,33.6539
211151.0,137.01300000000001,-212.732,-196.321,-197.30000000000001,44.481099999999998,20.044599999999999,61.5824
211152.0,169.37899999999999,-1706.3699999999999,-1704.6500000000001,-1657.4100000000001,39.607300000000002,22.526900000000001,81.944999999999993
211153.0,140.04900000000001,-2407.5300000000002,-2401.3200000000002,-2366.3000000000002,41.880800000000001,18.804300000000001,62.740099999999998
211154.0,122.762,-2599.3499999999999,-2583.9200000000001,-2565.6999999999998,41.823999999999998,17.1675,51.921399999999998
211155.0,113.28100000000001,-2540.3200000000002,-2519.46,-2505.8200000000002,35.735799999999998,15.571,49.558700000000002
211156.0,111.375,-2681.79,-2662.0700000000002,-2642.77,28.082999999999998,15.8565,52.097999999999999
211157.0,101.345,-2866.3499999999999,-2853.04,-2826.9000000000001,23.277699999999999,14.9559,47.490099999999998
211158.0,81.066800000000001,-2747.7800000000002,-2738.3299999999999,-2725.9899999999998,26.804600000000001,15.0763,33.547600000000003
211159.0,97.415400000000005,-2575.1700000000001,-2574.48,-2544.4400000000001,26.129799999999999,18.0778,42.9619
211160.0,116.788,-2615.23,-2626.4099999999999,-2568.6300000000001,23.6173,18.733599999999999,51.947600000000001
211161.0,123.818,-2847.46,-2861.5799999999999,-2788.8000000000002,19.114999999999998,16.561599999999999,54.598599999999998
211162.0,112.727,-3112.46,-3118.3299999999999,-3053.9499999999998,17.212199999999999,15.4452,49.332799999999999
211163.0,90.401600000000002,-3178.9400000000001,-3166.1500000000001,-3132.6999999999998,16.805900000000001,13.3424,41.152700000000003
211164.0,78.2624,-2483.6199999999999,-2432.4000000000001,-2469.0500000000002,14.7814,9.3009699999999995,32.2517
211165.0,85.072400000000002,-1851.3399999999999,-1790.1600000000001,-1848.8199999999999,12.1074,9.4988600000000005,31.262599999999999
211166.0,87.694400000000002,-1126.52,-1064.6800000000001,-1125.1400000000001,8.6908700000000003,10.956200000000001,33.4773
211167.0,82.859200000000001,-480.42599999999999,-428.96499999999997,-464.58800000000002,3.7448199999999998,11.440799999999999,38.064999999999998
211168.0,80.863900000000001,-114.55,-79.836699999999993,-80.097899999999996,1.1678599999999999,10.798,40.780099999999997
211169.0,173.50399999999999,-270.81599999999997,-112.009,-233.911,38.165500000000002,39.366,-11.0124
211170.0,118.334,-235.01499999999999,-158.40000000000001,-245.291,46.976500000000001,-9.6393799999999992,10.6646
211171.0,202.85400000000001,2339.9200000000001,2343.7600000000002,2396.8899999999999,40.232100000000003,27.4101,101.65000000000001
211172.0,119.956,3872.9899999999998,3861.3099999999999,3918.8200000000002,30.924700000000001,25.9939,47.331899999999997
211173.0,103.39,2833.1799999999998,2899.7600000000002,2811.27,15.165100000000001,4.5246300000000002,34.481699999999996
211174.0,95.496499999999997,774.35000000000002,845.51800000000003,749.995,6.1123099999999999,1.77765,23.142800000000001
211175.0,143.77600000000001,4093.5599999999999,4061.5799999999999,4155.4300000000003,29.555299999999999,25.243300000000001,55.704799999999999
211176.0,146.92500000000001,3470.3200000000002,3479.4499999999998,3509.8400000000001,41.918199999999999,22.892900000000001,66.979900000000001
211177.0,100.539,-59.238500000000002,-19.615600000000001,-67.356999999999999,49.259300000000003,9.4105100000000004,14.205
211178.0,105.68600000000001,-87.758600000000001,-39.094299999999997,-102.315,49.375900000000001,4.5602099999999997,12.9701
211179.0,102.705,-265.74900000000002,-232.12899999999999,-261.755,50.613300000000002,10.573499999999999,22.479099999999999
211180.0,120.184,152.70500000000001,179.86000000000001,171.50899999999999,51.834000000000003,16.180299999999999,40.8992
211181.0,146.06899999999999,633.452,643.44899999999996,664.58799999999997,49.038699999999999,21.448699999999999,63.201999999999998
211182.0,185.416,1264.28,1267.3699999999999,1311.98,43.9602,25.272600000000001,90.4221
211183.0,191.88200000000001,-1664.3399999999999,-1656.28,-1616.75,39.0809,25.293199999999999,97.246899999999997
211184.0,178.15600000000001,3165.2600000000002,3172.29,3214.4400000000001,40.467799999999997,26.005400000000002,86.938999999999993
211185.0,128.749,3704.3800000000001,3712.02,3737.6500000000001,41.167999999999999,20.501799999999999,55.737000000000002
211186.0,117.10599999999999,3695.5100000000002,3699.3499999999999,3728.6799999999998,37.9268,18.668900000000001,49.547199999999997
211187.0,117.039,3654.46,3654.1399999999999,3694.98,32.423999999999999,20.116800000000001,50.580300000000001
211188.0,119.36199999999999,3767.6399999999999,3763.1599999999999,3813.5100000000002,29.7089,23.513500000000001,50.3688
211189.0,116.764,-3759.77,-3766.27,-3715.0599999999999,29.948899999999998,23.838699999999999,47.981000000000002
211190.0,127.22,3935.0100000000002,3911.1500000000001,3986.5999999999999,31.666799999999999,26.3398,47.022799999999997
211191.0,141.524,4350.9200000000001,4324.6599999999999,4411.1099999999997,26.108899999999998,22.129799999999999,59.500500000000002
211192.0,115.99299999999999,4417.1300000000001,4410.6899999999996,4462.5600000000004,22.953199999999999,17.3918,53.441899999999997
211193.0,94.315700000000007,4186.1999999999998,4204.8100000000004,4212.6499999999996,19.877099999999999,12.6843,47.164900000000003
211194.0,90.1387,3663.0799999999999,3707.0100000000002,3665.1300000000001,17.476099999999999,8.2648100000000007,41.470300000000002
211195.0,74.051100000000005,-3523.1999999999998,-3476.77,-3526.6399999999999,15.1966,8.8947699999999994,27.2395
211196.0,111.60899999999999,1790.03,1868.47,1756.77,11.5654,2.8231700000000002,26.857500000000002
211197.0,62.030299999999997,63.973300000000002,112.515,63.820799999999998,-0.149677,0.66796199999999994,22.231000000000002
211198.0,49.428800000000003,-200.88200000000001,-179.054,-171.536,-5.0828300000000004,1.8010999999999999,23.515000000000001
211199.0,77.011600000000001,-70.749700000000004,-73.055199999999999,-17.3721,-8.5785599999999995,1.73051,30.130099999999999
211200.0,55.699399999999997,94.482399999999998,68.974299999999999,48.150500000000001,-21.188600000000001,4.9973999999999998,-4.66031
211201.0,114.919,76.322699999999998,144.66800000000001,67.920100000000005,49.694699999999997,9.8844899999999996,7.9276200000000001
211202.0,103.31699999999999,-103.063,-43.0762,-110.167,45.540300000000002,5.3373499999999998,9.8691600000000008
211203.0,98.2423,92.263400000000004,134.131,85.396500000000003,47.777200000000001,7.8320499999999997,13.3165
211204.0,107.06100000000001,71.246600000000001,111.995,74.515199999999993,48.139499999999998,10.8116,29.5593
211205.0,129.346,-419.34399999999999,-393.98200000000003,-406.60300000000001,49.582500000000003,17.183199999999999,51.597700000000003
211206.0,163.80000000000001,-831.53700000000003,-818.72699999999998,-805.47500000000002,45.198099999999997,22.761800000000001,78.820599999999999
211207.0,183.78999999999999,-2766.3600000000001,-2766.1999999999998,-2709.1700000000001,36.487400000000001,24.249500000000001,90.845299999999995
211208.0,152.428,-3306.3299999999999,-3302.6300000000001,-3256.98,38.572099999999999,20.984200000000001,71.141000000000005
211209.0,131.78299999999999,-3530.1700000000001,-3520.1500000000001,-3490.1900000000001,39.930100000000003,18.968599999999999,58.326700000000002
211210.0,119.303,-3649.6700000000001,-3637.5300000000002,-3614.3000000000002,39.0259,18.6874,50.489400000000003
211211.0,116.95099999999999,-3562.1399999999999,-3550.5599999999999,-3524.3400000000001,34.707000000000001,20.660499999999999,50.524000000000001
211212.0,117.31100000000001,-3590.5500000000002,-3586.4499999999998,-3546.77,30.216999999999999,22.7789,50.703899999999997
211213.0,118.514,-3844.3200000000002,-3860.5999999999999,-3801.6500000000001,31.266400000000001,24.183199999999999,46.8249
211214.0,136.13999999999999,-3896.6300000000001,-3923.8299999999999,-3845.3400000000001,30.4239,25.2699,55.001399999999997
211215.0,144.887,-4127.5900000000001,-4160.1599999999999,-4065.6900000000001,26.856100000000001,24.014500000000002,58.283299999999997
211216.0,125.158,-4409.1599999999999,-4432.8599999999997,-4351.4200000000001,22.989999999999998,20.510100000000001,50.178600000000003
211217.0,96.361900000000006,-4404.4399999999996,-4406.8900000000003,-4361.5699999999997,19.854500000000002,16.974900000000002,41.991999999999997
211218.0,74.091499999999996,-4108.9899999999998,-4087.6799999999998,-4086.54,17.298300000000001,12.959899999999999,34.680199999999999
211219.0,97.375900000000001,-2615.3800000000001,-2545.8899999999999,-2641.1300000000001,12.6663,6.2274399999999996,23.1191
211220.0,109.381,-1519.4400000000001,-1441.75,-1551.78,8.8673500000000001,5.7599099999999996,26.048999999999999
211221.0,96.022199999999998,-525.58199999999999,-458.86799999999999,-544.64700000000005,3.1707299999999998,4.42523,31.860099999999999
211222.0,73.701899999999995,88.164900000000003,130.13999999999999,96.100499999999997,-3.15246,2.9355199999999999,35.984000000000002
211223.0,78.727500000000006,252.02500000000001,264.52199999999999,290.673,-7.0186299999999999,3.7942399999999998,40.167200000000001
211224.0,161.23500000000001,-99.539900000000003,51.6083,-68.826800000000006,24.359000000000002,41.106000000000002,0.49359500000000001
211225.0,120.166,74.934700000000007,156.47,72.7423,47.0182,-0.340669,18.0349
211226.0,212.965,3061.1799999999998,3057.29,3119.8699999999999,38.455800000000004,30.933199999999999,107.01900000000001
211227.0,143.869,4940.9700000000003,4915.0799999999999,5005.5500000000002,29.044,28.194900000000001,55.5899
211228.0,123.764,2788.0300000000002,2857.9099999999999,2727.9099999999999,16.913799999999998,6.7972200000000003,23.247299999999999
211229.0,99.458100000000002,275.87099999999998,334.15199999999999,223.89099999999999,9.0199599999999993,1.6743699999999999,13.055999999999999
211230.0,162.00899999999999,5576.1000000000004,5540.6899999999996,5651.2600000000002,23.229099999999999,25.4895,66.120500000000007
211231.0,171.25200000000001,4540.3500000000004,4534.6599999999999,4591.1800000000003,39.903799999999997,28.488,80.022400000000005
211232.0,117.792,-31.039400000000001,6.7682500000000001,-34.892200000000003,58.351100000000002,10.621499999999999,24.0275
211233.0,118.164,-88.911799999999999,-43.479799999999997,-105.119,55.927799999999998,6.7918200000000004,21.4283
211234.0,115.264,368.80599999999998,399.47800000000001,376.08199999999999,53.170299999999997,13.6959,34.016100000000002
211235.0,127.932,465.077,487.59699999999998,486.81200000000001,48.835000000000001,18.039100000000001,50.812199999999997
211236.0,165.78,1060.5699999999999,1070.3399999999999,1101.04,48.2258,23.620000000000001,76.3643
211237.0,207.82900000000001,2135.3699999999999,2134.73,2189.7199999999998,42.508899999999997,28.013300000000001,103.968
211238.0,205.99199999999999,-2514.9000000000001,-2513.73,-2460.1599999999999,36.319299999999998,27.691700000000001,105.26300000000001
211239.0,192.22499999999999,3866.77,3862.75,3922.8800000000001,38.700400000000002,29.974900000000002,93.758799999999994
211240.0,153.535,4775.7799999999997,4768.0600000000004,4819.1999999999998,40.956899999999997,27.682400000000001,68.218699999999998
211241.0,133.27099999999999,4902.8599999999997,4893.8599999999997,4938.6800000000003,39.7913,25.687999999999999,55.812399999999997
211242.0,123.851,4903.6400000000003,4890.5600000000004,4941.6800000000003,35.982300000000002,25.183800000000002,49.786499999999997
211243.0,129.41800000000001,4849.6099999999997,4831.4300000000003,4899.3100000000004,31.885200000000001,26.100999999999999,51.482100000000003
211244.0,134.58000000000001,-4692.8999999999996,-4705.1300000000001,-4639.3000000000002,31.502400000000002,27.825800000000001,55.178100000000001
211245.0,159.864,5213.6999999999998,5178.4399999999996,5289.9300000000003,26.457699999999999,28.083400000000001,61.506999999999998
211246.0,134.28,5756.9399999999996,5737.0500000000002,5812.8400000000001,21.425899999999999,21.889900000000001,59.396299999999997
211247.0,97.473299999999995,5566.3599999999997,5570.4700000000003,5592.6000000000004,20.599799999999998,16.263100000000001,47.738199999999999
211248.0,82.841399999999993,4966.29,4996.0600000000004,4961.4200000000001,19.0732,11.258800000000001,38.018000000000001
211249.0,98.299300000000002,4011.77,4064.6999999999998,3977.23,17.608499999999999,8.7576999999999998,29.8887
211250.0,93.585800000000006,-3688.5999999999999,-3634.0599999999999,-3728.73,16.1616,9.0279699999999998,17.863299999999999
211251.0,129.64699999999999,1430.53,1504.51,1361.5599999999999,15.166,3.62323,15.7957
211252.0,42.555,-397.87900000000002,-371.47399999999999,-414.392,0.091514600000000002,1.7024900000000001,11.493399999999999
211253.0,39.075600000000001,-518.43399999999997,-525.97299999999996,-495.82799999999997,-7.7332799999999997,2.16893,14.0845
211254.0,84.070499999999996,-160.542,-188.86799999999999,-111.066,-13.256500000000001,3.7472099999999999,24.811299999999999
211255.0,63.888500000000001,107.985,75.2119,48.355600000000003,-21.217500000000001,3.5725099999999999,-2.4097400000000002
211256.0,123.527,-136.94200000000001,-70.191100000000006,-145.01900000000001,53.524099999999997,15.7159,16.965199999999999
211257.0,112.41200000000001,40.281599999999997,94.855000000000004,31.817,52.314399999999999,6.3098200000000002,16.276700000000002
211258.0,116.242,-263.51999999999998,-221.53800000000001,-266.22699999999998,55.639000000000003,11.6395,25.398199999999999
211259.0,113.758,-473.04899999999998,-439.32299999999998,-467.303,47.225299999999997,13.879799999999999,39.562800000000003
211260.0,142.101,-634.67100000000005,-609.23000000000002,-616.71500000000003,48.180900000000001,18.814699999999998,62.3262
211261.0,188.74299999999999,-1456.1300000000001,-1443.8900000000001,-1420.8299999999999,46.184800000000003,25.953900000000001,93.524100000000004
211262.0,193.833,-3371.9400000000001,-3378.0,-3312.0300000000002,35.588500000000003,27.613900000000001,95.733599999999996
211263.0,172.614,-4164.4099999999999,-4171.8699999999999,-4108.6400000000003,36.307000000000002,25.6035,82.243099999999998
211264.0,153.87700000000001,-4629.2799999999997,-4639.2399999999998,-4580.25,36.7121,24.129799999999999,70.465199999999996
211265.0,134.46299999999999,-4777.4700000000003,-4789.04,-4736.1700000000001,37.120100000000001,23.907699999999998,57.487099999999998
211266.0,120.824,-4835.2200000000003,-4844.2200000000003,-4799.7600000000002,35.767000000000003,24.4255,49.3733
211267.0,123.29600000000001,-4738.0100000000002,-4746.5200000000004,-4697.3500000000004,33.951099999999997,26.528099999999998,50.203200000000002
211268.0,152.41800000000001,-4846.96,-4870.6700000000001,-4779.8400000000001,29.516999999999999,29.041899999999998,61.722799999999999
211269.0,165.47200000000001,-5197.1000000000004,-5232.7399999999998,-5119.8400000000001,25.102,27.815000000000001,66.271900000000002
211270.0,148.48699999999999,-5590.0200000000004,-5624.7399999999998,-5517.46,20.392299999999999,23.977399999999999,57.983400000000003
211271.0,109.233,-5711.6199999999999,-5730.5299999999997,-5661.5100000000002,19.366399999999999,20.456099999999999,43.723500000000001
211272.0,71.790499999999994,-5414.9499999999998,-5409.1300000000001,-5394.6499999999996,17.804300000000001,15.5176,32.416699999999999
211273.0,66.060199999999995,-4720.8500000000004,-4688.8900000000003,-4731.3900000000003,16.1998,11.413,23.9208
211274.0,124.53700000000001,-2413.1999999999998,-2341.46,-2477.5799999999999,16.564499999999999,6.61219,14.658300000000001
211275.0,127.559,-1052.9100000000001,-980.18200000000002,-1118.9300000000001,13.317,5.8968299999999996,19.8748
211276.0,95.996600000000001,-3.7612100000000002,48.530000000000001,-47.786000000000001,5.8238700000000003,6.13002,25.988499999999998
211277.0,56.6126,529.91499999999996,546.55899999999997,524.298,-2.8947699999999998,6.4827300000000001,29.730599999999999
211278.0,76.6554,513.36500000000001,495.82900000000001,547.91600000000005,-11.101599999999999,5.8432500000000003,33.1494
211279.0,155.69300000000001,-267.10700000000003,-133.18000000000001,-246.73099999999999,19.370000000000001,48.498800000000003,12.049300000000001
211280.0,127.092,-151.20099999999999,-67.192999999999998,-148.24199999999999,47.932699999999997,1.8483799999999999,28.472300000000001
211281.0,226.83799999999999,3806.9499999999998,3795.8200000000002,3870.0,40.154699999999998,35.456000000000003,112.614
211282.0,156.98099999999999,6247.2399999999998,6207.8400000000001,6316.8000000000002,25.157499999999999,28.763200000000001,60.911700000000003
211283.0,129.59,2892.9400000000001,2958.9099999999999,2820.0700000000002,20.7271,8.7140599999999999,16.4175
211284.0,105.66500000000001,328.714,374.34100000000001,259.00700000000001,15.8856,5.3714700000000004,8.1660400000000006
211285.0,153.59299999999999,6765.21,6732.8800000000001,6835.96,14.2742,24.021899999999999,65.598799999999997
211286.0,195.54400000000001,5283.8699999999999,5265.6099999999997,5343.79,39.196300000000001,33.353900000000003,91.784599999999998
211287.0,134.17400000000001,363.31099999999998,409.16199999999998,366.07900000000001,64.072800000000001,12.2416,32.934399999999997
211288.0,132.37,292.16899999999998,341.346,278.96699999999998,60.121299999999998,12.8901,31.292200000000001
211289.0,137.816,374.77699999999999,408.60500000000002,388.70699999999999,62.179299999999998,16.001100000000001,43.815199999999997
211290.0,149.185,1066.48,1082.8199999999999,1090.8699999999999,55.619199999999999,21.717600000000001,60.820799999999998
211291.0,184.672,1711.7,1717.1199999999999,1756.51,49.813200000000002,26.9528,86.959800000000001
211292.0,226.91900000000001,2593.8099999999999,2588.3800000000001,2653.1700000000001,44.5077,33.158999999999999,113.101
211293.0,220.648,-3053.3099999999999,-3059.71,-2993.8000000000002,39.001199999999997,32.504800000000003,111.041
211294.0,210.92699999999999,4718.9499999999998,4704.3000000000002,4781.8800000000001,38.8262,34.866399999999999,102.021
211295.0,173.25999999999999,5834.3000000000002,5815.3199999999997,5887.3999999999996,38.720100000000002,31.964600000000001,78.032799999999995
211296.0,149.392,6037.8999999999996,6017.8500000000004,6083.3599999999997,37.153500000000001,31.291499999999999,62.872399999999999
211297.0,141.88300000000001,6033.2799999999997,6006.96,6080.79,34.417700000000004,31.298500000000001,56.0884
211298.0,147.786,6103.2200000000003,6069.8299999999999,6159.6499999999996,30.442599999999999,30.778099999999998,57.835099999999997
211299.0,147.36799999999999,-5989.8699999999999,-6019.9899999999998,-5931.5,27.9315,28.992699999999999,59.951300000000003
211300.0,166.101,6498.1999999999998,6456.9300000000003,6577.1400000000003,18.9041,26.5442,66.358900000000006
211301.0,114.504,6754.3599999999997,6742.4700000000003,6799.6800000000003,13.3241,19.6693,53.801299999999998
211302.0,82.573499999999996,6315.6099999999997,6327.0600000000004,6327.8599999999997,14.719099999999999,15.571899999999999,42.032299999999999
211303.0,83.001400000000004,5460.5299999999997,5495.3400000000001,5436.6599999999999,17.4803,11.970800000000001,31.253499999999999
211304.0,109.059,4256.5,4312.1499999999996,4202.6700000000001,19.806100000000001,8.8085100000000001,22.313600000000001
211305.0,108.92700000000001,-3840.1399999999999,-3783.0700000000002,-3898.5599999999999,19.153199999999998,8.8661899999999996,13.240600000000001
211306.0,132.07499999999999,1543.6900000000001,1606.1300000000001,1462.6099999999999,20.120799999999999,7.3894700000000002,13.2805
211307.0,41.433799999999998,-475.49400000000003,-463.661,-506.67899999999997,6.6836900000000004,5.0386300000000004,2.89249
211308.0,37.112099999999998,-573.06299999999999,-597.18899999999996,-560.56200000000001,-4.3212900000000003,6.0053000000000001,7.5971099999999998
211309.0,80.452500000000001,-147.27099999999999,-191.05199999999999,-109.015,-11.5282,9.6754499999999997,15.683199999999999
211310.0,75.066999999999993,121.42400000000001,76.742699999999999,44.468299999999999,-19.606999999999999,0.73510500000000001,-0.055032900000000003
211311.0,130.76599999999999,-199.86199999999999,-134.73400000000001,-208.393,54.571800000000003,16.809000000000001,28.564
211312.0,123.86199999999999,-504.05500000000001,-450.44499999999999,-510.08999999999997,57.752499999999998,11.4841,23.847200000000001
211313.0,132.18299999999999,-337.47899999999998,-284.959,-332.23399999999998,60.4559,12.8308,34.172699999999999
211314.0,138.36500000000001,-665.91999999999996,-633.29300000000001,-655.71600000000001,57.284999999999997,17.996200000000002,49.976199999999999
211315.0,161.94399999999999,-1346.8900000000001,-1325.4100000000001,-1325.02,52.582999999999998,22.7864,72.809100000000001
211316.0,206.03100000000001,-1939.75,-1928.8499999999999,-1897.96,46.626300000000001,29.021000000000001,103.26300000000001
211317.0,209.5,-4204.3100000000004,-4217.9300000000003,-4140.3400000000001,36.416600000000003,32.698300000000003,102.55800000000001
211318.0,195.036,-4888.3299999999999,-4907.3800000000001,-4826.2399999999998,36.209099999999999,31.363,92.654700000000005
211319.0,175.56,-5466.6400000000003,-5488.4899999999998,-5407.6700000000001,35.160299999999999,29.664200000000001,80.061199999999999
211320.0,151.10599999999999,-5904.54,-5926.9899999999998,-5853.1300000000001,34.156700000000001,28.3292,64.872
211321.0,136.518,-5951.54,-5973.6300000000001,-5907.5699999999997,34.005400000000002,28.1814,55.954099999999997
211322.0,139.607,-5900.5200000000004,-5925.7299999999996,-5852.4099999999999,31.880600000000001,28.789999999999999,57.129199999999997
211323.0,162.02099999999999,-6155.8100000000004,-6192.4899999999998,-6083.6599999999999,22.169,29.678100000000001,65.668499999999995
211324.0,163.54599999999999,-6466.3599999999997,-6506.7700000000004,-6387.3000000000002,15.036799999999999,28.2349,64.8065
211325.0,132.00999999999999,-6736.79,-6768.1199999999999,-6670.6800000000003,11.4049,23.804300000000001,51.359499999999997
211326.0,88.923299999999998,-6610.0100000000002,-6621.1899999999996,-6570.96,11.498200000000001,18.778199999999998,38.151000000000003
211327.0,57.6571,-6057.0699999999997,-6044.6499999999996,-6052.04,13.716100000000001,14.0101,26.166499999999999
211328.0,74.271299999999997,-5099.9300000000003,-5062.5900000000001,-5130.3599999999997,17.027200000000001,10.5724,16.8779
211329.0,129.02199999999999,-2479.6599999999999,-2417.2399999999998,-2556.2600000000002,20.982600000000001,9.6432900000000004,12.9392
211330.0,130.14699999999999,-1152.95,-1094.6800000000001,-1235.03,19.8185,8.8126099999999994,14.291
211331.0,100.83199999999999,18.558499999999999,58.390799999999999,-44.751300000000001,14.365,10.3187,19.253499999999999
211332.0,51.7864,680.37599999999998,681.50900000000001,662.83299999999997,3.4347599999999998,12.9727,24.5807
211333.0,70.123199999999997,578.36300000000006,545.38099999999997,602.22500000000002,-7.7079300000000002,13.033200000000001,24.394100000000002
211334.0,156.893,-210.50800000000001,-92.474400000000003,-200.49799999999999,14.0997,55.433,25.494900000000001
211335.0,136.33799999999999,162.827,243.71799999999999,166.49799999999999,51.591799999999999,4.2490500000000004,37.811100000000003
211336.0,237.60499999999999,4352.8999999999996,4336.8999999999996,4420.3699999999999,42.433300000000003,39.206400000000002,116.27
211337.0,165.74199999999999,7531.5900000000001,7485.1700000000001,7599.4700000000003,23.757400000000001,31.771799999999999,65.412499999999994
211338.0,130.23500000000001,3224.5700000000002,3289.0300000000002,3147.5700000000002,20.638999999999999,3.8894600000000001,14.026199999999999
211339.0,100.621,661.73400000000004,703.33399999999995,593.20600000000002,13.8832,2.9512900000000002,8.9962400000000002
211340.0,131.28999999999999,7619.5600000000004,7592.7700000000004,7675.3900000000003,11.7403,24.282800000000002,56.932000000000002
211341.0,214.90199999999999,6191.1700000000001,6165.1899999999996,6258.8400000000001,36.704599999999999,38.7639,101.02800000000001
211342.0,141.31399999999999,543.39700000000005,595.76599999999996,550.096,61.047800000000002,14.750299999999999,43.5886
211343.0,149.291,244.68899999999999,299.072,238.37200000000001,64.689400000000006,15.5832,43.451900000000002
211344.0,140.16200000000001,1018.66,1060.51,1038.46,57.762999999999998,17.295200000000001,49.746299999999998
211345.0,163.38800000000001,1250.8599999999999,1274.74,1285.5999999999999,56.6449,23.502600000000001,69.439099999999996
211346.0,205.24700000000001,2102.2600000000002,2105.4899999999998,2152.77,52.0595,31.194500000000001,97.772000000000006
211347.0,240.846,3346.8099999999999,3337.1399999999999,3408.1300000000001,47.052999999999997,37.591200000000001,119.274
211348.0,230.11199999999999,-3716.1700000000001,-3726.27,-3653.5599999999999,42.0959,36.904899999999998,113.864
211349.0,228.58000000000001,5296.79,5274.3599999999997,5366.5100000000002,39.195799999999998,40.111800000000002,109.36799999999999
211350.0,186.435,6611.8999999999996,6585.2799999999997,6672.4700000000003,34.728499999999997,36.892000000000003,83.799400000000006
211351.0,166.453,6874.9700000000003,6845.54,6933.04,33.126800000000003,35.585500000000003,69.923900000000003
211352.0,168.60599999999999,7094.21,7056.25,7158.0100000000002,31.190899999999999,35.497799999999998,67.811000000000007
211353.0,171.81999999999999,7317.3599999999997,7272.2700000000004,7384.6999999999998,28.6355,35.301299999999998,67.624899999999997
211354.0,165.48400000000001,-7295.5100000000002,-7344.5,-7230.6700000000001,24.6678,33.508899999999997,64.316000000000003
211355.0,153.024,7655.3400000000001,7614.6599999999999,7720.9200000000001,16.962,27.616900000000001,62.294899999999998
211356.0,99.877600000000001,7327.6599999999999,7320.1700000000001,7364.1300000000001,9.8680000000000003,19.8428,47.758899999999997
211357.0,76.430099999999996,6755.2299999999996,6768.25,6764.8699999999999,11.221399999999999,16.383500000000002,38.8232
211358.0,79.626599999999996,5872.2399999999998,5905.5200000000004,5849.79,15.1242,13.1853,30.405200000000001
211359.0,109.408,4680.4499999999998,4733.6099999999997,4623.9799999999996,19.5456,8.1709099999999992,23.142299999999999
211360.0,109.57899999999999,-4255.1300000000001,-4200.6000000000004,-4319.0100000000002,18.867000000000001,5.5884600000000004,10.136200000000001
211361.0,126.926,1812.4200000000001,1872.04,1733.2,18.508199999999999,4.3288599999999997,12.5619
211362.0,45.371099999999998,-117.523,-108.07299999999999,-156.524,4.8189099999999998,0.439361,1.7642599999999999
211363.0,25.352900000000002,-316.29899999999998,-340.29599999999999,-319.69799999999998,-5.7192400000000001,2.6607099999999999,2.4165999999999999
211364.0,69.279600000000002,-51.616999999999997,-99.680999999999997,-27.6265,-13.1252,7.2000500000000001,5.43316
211365.0,87.355500000000006,138.02500000000001,79.711799999999997,44.057699999999997,-16.380600000000001,-4.6725000000000003,1.8075600000000001
211366.0,140.405,-360.29599999999999,-301.471,-371.91399999999999,58.3902,18.076499999999999,37.532899999999998
211367.0,137.00999999999999,-438.06999999999999,-382.41000000000003,-439.31,60.105600000000003,14.702400000000001,37.043999999999997
211368.0,130.607,-852.92399999999998,-798.73400000000004,-843.29499999999996,54.7438,14.147,40.659799999999997
211369.0,148.04499999999999,-1070.4200000000001,-1027.74,-1053.5599999999999,57.794899999999998,19.1629,56.003399999999999
211370.0,183.06800000000001,-1427.76,-1401.51,-1398.0899999999999,56.187399999999997,26.576499999999999,83.930899999999994
211371.0,222.5,-2517.7199999999998,-2511.7399999999998,-2470.4499999999998,48.470700000000001,33.848999999999997,111.10599999999999
211372.0,224.09100000000001,-4638.71,-4657.7600000000002,-4571.1700000000001,38.2012,37.859000000000002,108.518
211373.0,215.23400000000001,-5600.8699999999999,-5626.2799999999997,-5531.3400000000001,35.645000000000003,37.226199999999999,101.834
211374.0,190.405,-6308.1999999999998,-6334.96,-6239.6499999999996,31.683499999999999,34.081800000000001,86.619
211375.0,165.40199999999999,-6602.7600000000002,-6629.6300000000001,-6542.0900000000001,31.461500000000001,32.685000000000002,71.065200000000004
211376.0,160.363,-6823.3400000000001,-6853.5600000000004,-6765.5699999999997,31.490100000000002,32.907600000000002,67.072299999999998
211377.0,165.69,-7041.7299999999996,-7082.4399999999996,-6979.1599999999999,28.595300000000002,33.428800000000003,67.148399999999995
211378.0,157.31800000000001,-7493.2399999999998,-7541.8400000000001,-7427.7600000000002,17.8918,31.102799999999998,60.703899999999997
211379.0,141.34100000000001,-7584.4499999999998,-7624.9300000000003,-7521.3900000000003,11.235799999999999,28.129000000000001,54.947600000000001
211380.0,112.294,-7486.8400000000001,-7512.1199999999999,-7435.0299999999997,7.9413499999999999,23.771699999999999,45.065800000000003
211381.0,78.323499999999996,-7123.4099999999999,-7129.6000000000004,-7091.9200000000001,7.2495200000000004,18.236499999999999,35.375399999999999
211382.0,54.933799999999998,-6478.5900000000001,-6465.1300000000001,-6475.3699999999999,10.0656,13.882,25.738700000000001
211383.0,69.424999999999997,-5522.21,-5489.04,-5552.3100000000004,14.8843,9.9338999999999995,16.881499999999999
211384.0,128.929,-2752.9200000000001,-2691.75,-2832.04,19.6938,5.6961500000000003,13.1859
211385.0,123.89100000000001,-1409.5899999999999,-1356.75,-1490.3299999999999,18.245899999999999,6.3523199999999997,14.7524
211386.0,95.514799999999994,-336.71800000000002,-303.93599999999998,-403.83100000000002,12.7784,5.5354799999999997,15.941800000000001
211387.0,45.065399999999997,352.94,350.89299999999997,322.24099999999999,1.98658,7.4139999999999997,17.9849
211388.0,52.766300000000001,431.72800000000001,398.05200000000002,437.06299999999999,-7.6459900000000003,11.2386,17.202100000000002
211389.0,159.17699999999999,-489.84699999999998,-389.62200000000001,-490.625,10.195399999999999,57.341900000000003,40.977699999999999
211390.0,147.911,1.4945200000000001,80.629400000000004,5.2371800000000004,54.709299999999999,10.8324,46.783499999999997
211391.0,243.94,4908.7799999999997,4890.1099999999997,4979.1700000000001,43.382100000000001,43.097999999999999,117.857
211392.0,159.45599999999999,8376.6100000000006,8341.0200000000004,8445.5,17.003599999999999,31.093,66.317700000000002
211393.0,126.854,3543.5999999999999,3608.6100000000001,3470.75,17.170200000000001,0.59281399999999995,17.6724
211394.0,102.95,838.17700000000002,882.78399999999999,768.303,10.202199999999999,-3.6910400000000001,9.2466000000000008
211395.0,114.07899999999999,8072.0500000000002,8058.0799999999999,8121.54,8.7730800000000002,22.2333,51.524999999999999
211396.0,232.97499999999999,6660.6000000000004,6628.21,6735.6999999999998,35.076099999999997,45.299199999999999,108.488
211397.0,157.137,931.39800000000002,981.577,938.88099999999997,66.788300000000007,15.8987,52.767600000000002
211398.0,165.03700000000001,562.75800000000004,619.79499999999996,560.75199999999995,69.153999999999996,16.315300000000001,53.914200000000001
211399.0,151.489,1096.3099999999999,1134.8800000000001,1117.0699999999999,61.192799999999998,20.572399999999998,55.759300000000003
211400.0,175.76900000000001,1826.6500000000001,1851.4400000000001,1865.5799999999999,57.162100000000002,27.144500000000001,76.847899999999996
211401.0,220.358,2657.23,2661.3400000000001,2712.48,54.009599999999999,34.554000000000002,105.48699999999999
211402.0,249.26499999999999,3690.4899999999998,3680.0300000000002,3753.6900000000001,49.520800000000001,40.988700000000001,122.435
211403.0,235.851,-4082.5700000000002,-4092.3400000000001,-4017.4699999999998,44.287300000000002,41.109400000000001,115.039
211404.0,242.33500000000001,5881.8000000000002,5855.4700000000003,5958.5299999999997,38.870899999999999,45.023200000000003,114.762
211405.0,204.18000000000001,7386.7700000000004,7353.1999999999998,7456.5100000000002,32.473300000000002,42.483699999999999,90.883499999999998
211406.0,186.39099999999999,7762.3299999999999,7727.04,7831.9399999999996,30.253499999999999,39.554299999999998,79.064999999999998
211407.0,184.41499999999999,8013.46,7972.9799999999996,8086.7799999999997,26.668600000000001,37.553600000000003,76.731800000000007
211408.0,174.131,8255.3700000000008,8214.9899999999998,8328.5699999999997,21.931100000000001,34.508299999999998,71.5578
211409.0,164.14699999999999,-8219.6700000000001,-8264.0300000000007,-8150.1300000000001,17.252199999999998,33.970799999999997,65.067099999999996
211410.0,137.75999999999999,8320.7399999999998,8294.0599999999995,8381.5200000000004,12.2652,26.752099999999999,58.741199999999999
211411.0,90.261700000000005,7640.2600000000002,7641.6800000000003,7673.7399999999998,7.1600599999999996,17.879300000000001,44.567700000000002
211412.0,72.763499999999993,6976.1599999999999,6994.8299999999999,6988.1700000000001,7.5415599999999996,13.5951,37.862699999999997
211413.0,75.152600000000007,6072.8599999999997,6109.29,6058.8999999999996,9.7267700000000001,9.7485900000000001,31.879999999999999
211414.0,101.681,4936.1700000000001,4989.9899999999998,4889.8500000000004,14.000500000000001,6.6267699999999996,26.3614
211415.0,98.581900000000005,-4564.1599999999999,-4511.9799999999996,-4619.6300000000001,13.458,1.98515,12.495799999999999
211416.0,128.923,2069.77,2132.3000000000002,1990.02,16.052499999999998,-3.47281,13.606
211417.0,51.979900000000001,29.3523,40.8292,-15.6675,-0.0053706800000000001,-2.87765,0.78914300000000004
211418.0,27.603999999999999,-241.06800000000001,-265.01999999999998,-256.13900000000001,-9.9373900000000006,-0.44644699999999998,-2.9044699999999999
211419.0,67.684399999999997,-22.294699999999999,-75.406999999999996,-9.62148,-17.354600000000001,2.52623,-1.1334599999999999
211420.0,93.386799999999994,148.86699999999999,81.628699999999995,48.967700000000001,-13.6401,-10.965,2.4780799999999998
211421.0,153.148,-413.88400000000001,-360.05200000000002,-428.303,62.720500000000001,22.0168,45.8855
211422.0,149.59,-916.90300000000002,-861.46199999999999,-915.26400000000001,62.829000000000001,15.895,47.579000000000001
211423.0,140.053,-1030.48,-982.57100000000003,-1020.6799999999999,58.597700000000003,15.9445,47.007800000000003
211424.0,157.42500000000001,-1349.3099999999999,-1307.03,-1330.04,58.264299999999999,21.937200000000001,62.7438
211425.0,195.20599999999999,-2086.4099999999999,-2059.1599999999999,-2052.1300000000001,55.938499999999998,29.262799999999999,91.588300000000004
211426.0,233.857,-2905.73,-2900.1799999999998,-2853.6799999999998,51.143900000000002,37.7485,115.637
211427.0,234.43700000000001,-5198.7200000000003,-5215.8400000000001,-5126.5600000000004,39.598100000000002,42.390000000000001,112.739
211428.0,232.251,-6022.1499999999996,-6048.6499999999996,-5944.4899999999998,34.670000000000002,43.149500000000003,109.48
211429.0,207.374,-6868.4499999999998,-6902.4099999999999,-6792.6300000000001,30.0884,40.482799999999997,92.905799999999999
211430.0,184.86799999999999,-7458.3599999999997,-7493.4499999999998,-7388.8900000000003,29.1311,38.200699999999998,79.0715
211431.0,179.542,-7738.9499999999998,-7778.0900000000001,-7671.1499999999996,27.1128,37.356000000000002,75.411799999999999
211432.0,174.08099999999999,-7994.1300000000001,-8038.6899999999996,-7923.7799999999997,22.3109,36.008699999999997,70.358800000000002
211433.0,145.34700000000001,-8292.9699999999993,-8330.9899999999998,-8228.0499999999993,12.0252,29.995799999999999,57.340000000000003
211434.0,122.932,-8176.2399999999998,-8203.6000000000004,-8119.0699999999997,7.6814600000000004,25.4254,49.7164
211435.0,97.944500000000005,-7887.2700000000004,-7901.04,-7841.6099999999997,4.8386800000000001,20.7258,42.157299999999999
211436.0,71.714200000000005,-7410.1599999999999,-7408.7399999999998,-7381.4799999999996,3.90855,15.982200000000001,34.383899999999997
211437.0,53.982399999999998,-6697.9399999999996,-6679.9799999999996,-6691.8400000000001,4.9664000000000001,11.2254,27.1523
211438.0,62.914400000000001,-5751.79,-5717.0900000000001,-5773.1099999999997,7.9288100000000004,6.6651199999999999,20.312100000000001
211439.0,125.893,-3096.9099999999999,-3035.6300000000001,-3174.6100000000001,16.267499999999998,-1.5238400000000001,12.842499999999999
211440.0,125.55,-1639.6500000000001,-1583.4100000000001,-1721.25,14.519299999999999,-1.6795500000000001,15.3978
211441.0,97.238699999999994,-497.37799999999999,-462.92099999999999,-567.673,8.5094899999999996,0.16361999999999999,15.134600000000001
211442.0,46.416800000000002,222.357,220.929,181.68600000000001,-1.5656000000000001,2.1613899999999999,13.3552
211443.0,44.968600000000002,407.137,371.00200000000001,400.25700000000001,-10.714499999999999,5.1114899999999999,12.844799999999999
211444.0,169.21600000000001,-291.089,-214.03299999999999,-306.53500000000003,11.119899999999999,62.1235,55.733499999999999
211445.0,163.06,273.91500000000002,350.774,278.61799999999999,60.190300000000001,12.5618,56.799599999999998
211446.0,249.988,5202.6199999999999,5183.3699999999999,5276.9399999999996,39.965600000000002,46.100000000000001,121.10899999999999
211447.0,144.626,8686.2999999999993,8664.7199999999993,8752.8500000000004,9.0564300000000006,27.413,63.469200000000001
211448.0,120.31100000000001,3452.5500000000002,3521.6799999999998,3392.7800000000002,9.0898400000000006,-5.2025399999999999,23.539999999999999
211449.0,111.813,819.95899999999995,872.07399999999996,747.48400000000004,4.1978400000000002,-11.595599999999999,10.002700000000001
211450.0,101.59399999999999,8144.9399999999996,8145.7700000000004,8192.2900000000009,3.07552,17.518999999999998,48.882300000000001
211451.0,240.96299999999999,7246.46,7212.96,7327.4200000000001,30.636099999999999,48.463000000000001,112.268
211452.0,167.88399999999999,1016.42,1074.8099999999999,1029.2,67.027900000000002,18.336200000000002,60.198999999999998
211453.0,177.66,608.17100000000005,667.327,608.38699999999994,71.758200000000002,17.630500000000001,62.439700000000002
211454.0,161.661,1586.8800000000001,1634.6800000000001,1616.5999999999999,60.6721,21.555399999999999,63.111899999999999
211455.0,185.71700000000001,2002.8800000000001,2029.1199999999999,2045.3599999999999,56.058199999999999,29.202300000000001,83.916899999999998
211456.0,226.345,2964.5500000000002,2970.5799999999999,3021.3299999999999,51.585900000000002,36.913899999999998,109.913
211457.0,251.18600000000001,4198.8199999999997,4190.7600000000002,4265.3500000000004,46.356400000000001,44.232799999999997,123.48999999999999
211458.0,240.50899999999999,-4475.6899999999996,-4483.0299999999997,-4407.5600000000004,41.984400000000001,43.988199999999999,117.69499999999999
211459.0,249.49000000000001,6219.3000000000002,6191.3000000000002,6300.1999999999998,34.307699999999997,47.326599999999999,118.883
211460.0,217.10499999999999,7838.0100000000002,7803.5900000000001,7916.8800000000001,27.293299999999999,45.100700000000003,97.773799999999994
211461.0,195.51900000000001,8298.5599999999995,8264.7199999999993,8374.6399999999994,23.6069,40.835999999999999,85.722999999999999
211462.0,182.803,8618.0300000000007,8583.7000000000007,8692.7600000000002,19.267199999999999,37.390799999999999,79.122500000000002
211463.0,162.054,8728.5699999999997,8699.2900000000009,8799.7199999999993,13.725899999999999,32.247599999999998,69.6982
211464.0,150.23699999999999,-8626.7700000000004,-8658.4500000000007,-8558.8199999999997,9.5661199999999997,31.154699999999998,62.210599999999999
211465.0,123.57299999999999,8498.3899999999994,8487.3400000000001,8557.6000000000004,5.3853099999999996,22.317,55.999499999999998
211466.0,80.944900000000004,7577.8100000000004,7592.0,7608.8299999999999,2.09219,12.9229,42.090800000000002
211467.0,69.3583,6817.9200000000001,6846.6400000000003,6828.8000000000002,2.5086300000000001,8.4939499999999999,36.2605
211468.0,75.2072,5862.6700000000001,5906.3199999999997,5850.6099999999997,3.9877400000000001,3.9344600000000001,31.540700000000001
211469.0,96.265100000000004,4722.0699999999997,4780.3900000000003,4685.79,6.6048799999999996,-0.36954100000000001,27.702000000000002
211470.0,92.150199999999998,-4386.1199999999999,-4330.2799999999997,-4429.2299999999996,4.8551799999999998,-4.0085600000000001,18.153700000000001
211471.0,130.874,2116.8400000000001,2185.3400000000001,2040.8299999999999,8.6835199999999997,-9.6820199999999996,17.740600000000001
211472.0,58.9071,-116.246,-98.554500000000004,-161.55000000000001,-4.8278100000000004,-8.8110900000000001,-0.31460399999999999
211473.0,33.861899999999999,-377.04000000000002,-401.96699999999998,-389.65199999999999,-13.754,-2.1048,-5.76729
211474.0,75.655799999999999,-57.5899,-117.336,-43.248800000000003,-18.545500000000001,4.0049700000000001,-1.9832399999999999
211475.0,80.918999999999997,134.83799999999999,70.216999999999999,55.639800000000001,-13.170199999999999,-15.206099999999999,1.0761499999999999
211476.0,166.33500000000001,-618.33100000000002,-568.548,-634.03499999999997,67.294200000000004,22.947500000000002,54.758200000000002
211477.0,158.22800000000001,-864.12599999999998,-807.29399999999998,-860.19799999999998,63.224299999999999,17.938199999999998,54.944299999999998
211478.0,149.935,-1340.99,-1284.51,-1324.74,59.315600000000003,17.728300000000001,53.062100000000001
211479.0,167.88,-1688.0899999999999,-1640.6700000000001,-1662.4100000000001,57.066099999999999,23.359500000000001,70.913499999999999
211480.0,202.97200000000001,-2211.7199999999998,-2185.9400000000001,-2174.8800000000001,54.413499999999999,31.613,97.030900000000003
211481.0,234.43799999999999,-3337.71,-3327.9099999999999,-3281.75,47.462699999999998,39.276800000000001,116.756
211482.0,241.404,-5420.04,-5437.8699999999999,-5344.25,35.778599999999997,45.656399999999998,116.57299999999999
211483.0,238.19300000000001,-6511.1700000000001,-6539.7200000000003,-6430.1199999999999,29.597200000000001,46.839599999999997,112.292
211484.0,218.88,-7392.29,-7429.4300000000003,-7312.4899999999998,26.581199999999999,45.716099999999997,97.991799999999998
211485.0,197.98599999999999,-7892.4700000000003,-7931.1800000000003,-7815.71,22.820599999999999,41.947099999999999,85.623099999999994
211486.0,183.661,-8319.4099999999999,-8358.3899999999994,-8246.5100000000002,19.529399999999999,38.935299999999998,78.238100000000003
211487.0,166.53100000000001,-8570.8799999999992,-8608.5100000000002,-8499.6000000000004,14.4764,35.398499999999999,68.716700000000003
211488.0,130.24299999999999,-8548.4300000000003,-8571.0200000000004,-8485.2900000000009,5.1168699999999996,26.066099999999999,54.535699999999999
211489.0,108.899,-8334.0400000000009,-8346.3099999999995,-8278.9300000000003,1.6517299999999999,21.045400000000001,47.112900000000003
211490.0,85.648499999999999,-7929.8900000000003,-7930.3299999999999,-7887.2799999999997,-0.54804399999999998,16.040299999999998,39.700299999999999
211491.0,64.480500000000006,-7319.8000000000002,-7306.7299999999996,-7293.8599999999997,-1.1092,11.2241,33.020800000000001
211492.0,54.813600000000001,-6525.0,-6497.3400000000001,-6519.4300000000003,-0.25121500000000002,6.3681700000000001,27.327400000000001
211493.0,66.333600000000004,-5541.1300000000001,-5498.6800000000003,-5558.9200000000001,1.7465200000000001,1.17075,22.456299999999999
211494.0,118.401,-3114.2800000000002,-3050.3400000000001,-3181.5100000000002,7.11287,-9.1166400000000003,15.399100000000001
211495.0,128.494,-1750.28,-1689.1400000000001,-1831.3800000000001,7.23421,-11.7355,14.924099999999999
211496.0,105.937,-454.334,-411.55799999999999,-526.59199999999998,3.75339,-9.9050100000000008,15.7499
211497.0,49.373800000000003,381.214,384.22899999999998,341.16300000000001,-4.2797400000000003,-3.4378000000000002,14.2996
211498.0,50.635599999999997,520.42100000000005,478.74400000000003,516.54899999999998,-12.0839,4.07416,12.721299999999999
211499.0,186.15700000000001,-640.42999999999995,-588.09000000000003,-671.78899999999999,15.699199999999999,66.984700000000004,70.922300000000007
211500.0,177.304,137.58600000000001,210.82300000000001,142.06,66.194999999999993,11.8978,65.346699999999998
211501.0,253.18600000000001,5570.8400000000001,5544.5200000000004,5642.7399999999998,38.186399999999999,48.139099999999999,122.504
211502.0,129.23099999999999,8642.5699999999997,8630.6900000000005,8700.9699999999993,4.7774000000000001,24.7378,59.305100000000003
211503.0,120.42400000000001,2897.3099999999999,2964.71,2836.6900000000001,3.27616,-12.719799999999999,23.671500000000002
211504.0,102.497,460.64600000000002,507.05700000000002,393.34199999999998,2.2968899999999999,-11.293699999999999,9.99465
211505.0,83.955699999999993,7764.1800000000003,7776.3800000000001,7800.96,-1.1492100000000001,11.543900000000001,43.1738
211506.0,236.107,7354.0699999999997,7320.2399999999998,7433.3900000000003,26.057099999999998,48.353900000000003,110.416
211507.0,174.423,1359.1700000000001,1417.1500000000001,1372.73,63.997799999999998,21.199300000000001,68.383399999999995
211508.0,187.38800000000001,864.10000000000002,924.21199999999999,867.35799999999995,73.301900000000003,19.1721,69.4358
211509.0,162.376,1611.9200000000001,1657.9200000000001,1640.51,56.809699999999999,21.146000000000001,67.637100000000004
211510.0,186.47200000000001,2404.5799999999999,2429.4200000000001,2448.3499999999999,53.069899999999997,29.547699999999999,86.135900000000007
211511.0,229.53999999999999,3298.4099999999999,3298.4899999999998,3353.5900000000001,47.762999999999998,39.2027,112.83199999999999
211512.0,252.16300000000001,4333.3400000000001,4316.3400000000001,4396.71,42.750700000000002,45.953400000000002,124.34699999999999
211513.0,242.03100000000001,-4721.8100000000004,-4739.3299999999999,-4657.7399999999998,38.897100000000002,45.787799999999997,118.625
211514.0,249.03700000000001,6598.7700000000004,6565.7299999999996,6675.8800000000001,32.091299999999997,48.9739,118.532
211515.0,216.548,8108.1199999999999,8075.8000000000002,8188.2200000000003,20.642700000000001,45.317799999999998,99.001900000000006
211516.0,193.173,8544.3999999999996,8515.6000000000004,8620.8799999999992,15.882300000000001,40.717399999999998,86.994100000000003
211517.0,175.13900000000001,8732.3500000000004,8706.2000000000007,8805.3899999999994,11.7148,36.533799999999999,78.165999999999997
211518.0,150.18100000000001,8780.4500000000007,8760.9400000000005,8847.1900000000005,7.6866599999999998,30.581399999999999,66.920900000000003
211519.0,137.18299999999999,-8651.5499999999993,-8673.9200000000001,-8588.4599999999991,4.65198,29.072500000000002,58.668700000000001
211520.0,105.017,8298.5400000000009,8297.5,8346.7900000000009,1.6501699999999999,17.985700000000001,50.564999999999998
211521.0,70.091800000000006,7089.2600000000002,7115.6999999999998,7112.3699999999999,-3.4159999999999999,5.8315599999999996,37.209699999999998
211522.0,68.431899999999999,6253.9099999999999,6293.71,6259.7200000000003,-4.6254499999999998,0.73339399999999999,32.813299999999998
211523.0,79.250500000000002,5270.5100000000002,5321.1499999999996,5255.4099999999999,-3.7034199999999999,-3.62113,29.685600000000001
211524.0,99.103800000000007,4155.1000000000004,4214.8100000000004,4116.8800000000001,-0.41439900000000002,-8.3931799999999992,27.7028
211525.0,96.267700000000005,-3831.5799999999999,-3774.6799999999998,-3876.1900000000001,-1.3854500000000001,-11.3565,19.2254
211526.0,125.111,1578.3599999999999,1643.5599999999999,1505.8299999999999,4.6740899999999996,-13.367599999999999,16.435700000000001
211527.0,54.063899999999997,-291.65699999999998,-278.13900000000001,-334.67099999999999,-5.8307500000000001,-8.2814800000000002,-0.498081
211528.0,38.508200000000002,-512.06299999999999,-539.03200000000004,-519.86199999999997,-15.6297,-1.55629,-7.4145000000000003
211529.0,85.858000000000004,-114.628,-177.685,-91.226900000000001,-20.4436,6.2788000000000004,0.130387
211530.0,63.048699999999997,58.770299999999999,2.5310800000000002,19.6798,-15.549099999999999,-15.8795,-0.52855799999999997
211531.0,176.005,-640.505,-594.11400000000003,-657.02099999999996,71.533699999999996,22.120200000000001,60.463700000000003
211532.0,167.643,-1280.2,-1223.54,-1275.25,62.920699999999997,20.539100000000001,63.263199999999998
211533.0,152.791,-1496.3800000000001,-1443.21,-1478.8900000000001,55.804499999999997,19.031300000000002,59.757199999999997
211534.0,165.964,-1878.76,-1832.22,-1852.45,53.388399999999997,22.504799999999999,72.664400000000001
211535.0,206.345,-2673.5799999999999,-2648.5900000000001,-2636.3400000000001,51.956699999999998,33.073900000000002,100.196
211536.0,234.69800000000001,-3567.0700000000002,-3567.2800000000002,-3514.1100000000001,43.421300000000002,40.891800000000003,117.749
211537.0,242.00200000000001,-5904.8900000000003,-5933.2600000000002,-5833.6899999999996,32.778100000000002,48.182000000000002,116.166
211538.0,233.86199999999999,-6765.0299999999997,-6800.2600000000002,-6689.1400000000003,25.997699999999998,48.817399999999999,109.3
211539.0,217.05699999999999,-7547.9899999999998,-7584.4300000000003,-7470.3299999999999,21.033000000000001,47.128500000000003,98.207999999999998
211540.0,197.869,-8207.0400000000009,-8242.8199999999997,-8129.3699999999999,15.7738,43.247900000000001,86.992199999999997
211541.0,178.81899999999999,-8521.4799999999996,-8553.7900000000009,-8447.8700000000008,11.937200000000001,38.9163,77.811000000000007
211542.0,156.995,-8651.9599999999991,-8680.4200000000001,-8582.0900000000001,7.6951900000000002,34.095300000000002,66.590100000000007
211543.0,113.008,-8457.4200000000001,-8470.4699999999993,-8402.9200000000001,1.29328,22.984300000000001,49.425899999999999
211544.0,89.315899999999999,-8060.4300000000003,-8061.6199999999999,-8016.1199999999999,-1.9515199999999999,16.558499999999999,41.336300000000001
211545.0,69.534599999999998,-7510.04,-7497.6400000000003,-7477.3500000000004,-4.9949399999999997,10.301399999999999,34.758800000000001
211546.0,58.188299999999998,-6818.7399999999998,-6793.3699999999999,-6800.3000000000002,-7.3570200000000003,4.4555400000000001,29.709499999999998
211547.0,59.484299999999998,-5966.8400000000001,-5930.1499999999996,-5966.5,-7.7834899999999996,-0.94823800000000003,25.952200000000001
211548.0,72.881799999999998,-4967.2799999999997,-4921.2600000000002,-4988.3500000000004,-5.3140099999999997,-5.7788500000000003,23.0611
211549.0,120.61,-2541.9400000000001,-2476.4899999999998,-2608.3400000000001,3.1416599999999999,-15.0982,16.261199999999999
211550.0,122.351,-1230.6199999999999,-1171.8,-1305.3599999999999,5.78376,-14.150399999999999,16.605699999999999
211551.0,97.046599999999998,-179.40600000000001,-141.53700000000001,-245.346,3.0316000000000001,-11.9049,15.1214
211552.0,45.222700000000003,510.94200000000001,511.93700000000001,474.786,-4.82003,-5.7053099999999999,13.3352
211553.0,59.552599999999998,639.11400000000003,593.57500000000005,643.572,-12.9132,4.7352400000000001,15.0806
211554.0,202.18600000000001,-625.61099999999999,-593.29100000000005,-665.67499999999995,18.6904,65.1828,87.826300000000003
211555.0,191.018,454.95100000000002,524.63199999999995,454.76900000000001,70.317700000000002,17.2028,72.796899999999994
211556.0,250.631,5686.9799999999996,5655.0,5751.9799999999996,39.905099999999997,49.849800000000002,120.07899999999999
211557.0,116.366,8275.9899999999998,8275.1700000000001,8327.6200000000008,0.063372899999999996,22.116,55.871600000000001
211558.0,103.65300000000001,2205.79,2255.6500000000001,2146.73,2.0996700000000001,-9.4148999999999994,22.702100000000002
211559.0,91.078599999999994,104.928,143.71799999999999,43.730899999999998,3.47045,-11.943300000000001,8.3211700000000004
211560.0,70.773499999999999,7222.3999999999996,7245.75,7245.9700000000003,-2.9094799999999998,6.7182599999999999,37.849899999999998
211561.0,222.75200000000001,7507.04,7477.3800000000001,7581.0,22.188500000000001,47.0565,104.81100000000001
211562.0,182.26599999999999,1415.7,1464.55,1427.8099999999999,67.7346,21.588200000000001,73.296999999999997
211563.0,196.56999999999999,790.59900000000005,847.83799999999997,794.58299999999997,77.827200000000005,18.422899999999998,73.905699999999996
211564.0,166.238,2113.3800000000001,2147.9000000000001,2134.6799999999998,56.986400000000003,23.545500000000001,71.460099999999997
211565.0,185.47,2463.6199999999999,2477.9899999999998,2500.2199999999998,52.943800000000003,30.2943,86.056200000000004
211566.0,230.10499999999999,3429.0300000000002,3416.1500000000001,3476.6100000000001,53.054499999999997,41.359200000000001,110.045
211567.0,253.92699999999999,4695.4499999999998,4667.04,4752.29,48.531700000000001,48.2044,122.187
211568.0,242.184,-5016.4099999999999,-5045.1899999999996,-4959.6199999999999,41.232199999999999,48.862499999999997,116.48099999999999
211569.0,238.727,6633.3999999999996,6600.96,6703.8299999999999,30.761500000000002,49.098199999999999,113.46299999999999
211570.0,205.93799999999999,7964.3599999999997,7937.29,8040.1999999999998,15.0907,44.244799999999998,95.423100000000005
211571.0,184.33799999999999,8331.25,8309.1900000000005,8404.5200000000004,9.9085800000000006,39.691400000000002,84.633899999999997
211572.0,165.434,8544.4699999999993,8526.4899999999998,8613.75,5.96312,35.143099999999997,75.6922
211573.0,139.06800000000001,8509.8199999999997,8500.0300000000007,8571.6100000000006,2.2099600000000001,28.563500000000001,64.185599999999994
211574.0,124.95,-8350.1499999999996,-8362.7600000000002,-8292.1100000000006,-0.79911600000000005,26.6464,55.437399999999997
211575.0,91.246499999999997,7850.1400000000003,7860.6199999999999,7888.9300000000003,-1.7918799999999999,14.7616,46.385899999999999
211576.0,64.212599999999995,6376.4700000000003,6415.2700000000004,6383.6099999999997,-4.1197400000000002,-1.5356099999999999,30.474299999999999
211577.0,73.153000000000006,5388.9099999999999,5440.54,5379.1000000000004,-6.0363100000000003,-7.1841299999999997,24.6251
211578.0,83.852000000000004,4332.1899999999996,4387.0900000000001,4306.9200000000001,-6.7977999999999996,-8.9871099999999995,23.1692
211579.0,92.813599999999994,3275.6100000000001,3327.0799999999999,3233.6999999999998,-3.9257399999999998,-8.3860899999999994,24.4602
211580.0,89.726699999999994,-2937.6700000000001,-2889.8499999999999,-2981.3000000000002,-1.72028,-11.132099999999999,21.5505
211581.0,108.45399999999999,1102.3,1152.3499999999999,1035.6099999999999,6.15754,-12.981299999999999,16.851700000000001
211582.0,46.174399999999999,-525.55600000000004,-517.29700000000003,-564.88300000000004,-5.0902700000000003,-5.9505299999999997,-1.68527
211583.0,39.995600000000003,-601.02700000000004,-632.26800000000003,-607.11500000000001,-14.4214,1.39683,-7.0001300000000004
211584.0,89.513400000000004,-131.66800000000001,-199.16800000000001,-109.023,-18.875900000000001,10.667999999999999,1.2439499999999999
211585.0,60.413800000000002,-12.2089,-65.688599999999994,-20.9452,-18.540199999999999,-6.7959800000000001,-1.90429
211586.0,187.04900000000001,-776.14499999999998,-733.65700000000004,-796.65899999999999,76.046000000000006,25.2973,64.861000000000004
211587.0,175.56899999999999,-1126.3599999999999,-1073.3399999999999,-1121.45,66.355599999999995,19.921800000000001,67.944000000000003
211588.0,159.88900000000001,-1859.1099999999999,-1817.24,-1845.5699999999999,58.264000000000003,20.897099999999998,65.065899999999999
211589.0,164.75800000000001,-2229.4299999999998,-2195.5500000000002,-2208.8299999999999,52.306899999999999,23.544499999999999,73.9358
211590.0,202.852,-2667.23,-2652.6500000000001,-2636.27,52.730600000000003,33.1434,97.966999999999999
211591.0,235.46600000000001,-3855.7399999999998,-3871.0900000000001,-3812.73,50.350200000000001,44.018999999999998,114.426
211592.0,234.625,-5943.7600000000002,-5977.9399999999996,-5879.46,31.779599999999999,49.5227,111.297
211593.0,221.529,-6917.2600000000002,-6951.7700000000004,-6848.29,23.374500000000001,48.729199999999999,103.255
211594.0,205.72399999999999,-7596.6199999999999,-7628.3100000000004,-7524.4899999999998,16.028099999999998,46.124699999999997,94.296199999999999
211595.0,188.72300000000001,-7978.6899999999996,-8007.8500000000004,-7904.9099999999999,10.0778,42.546399999999998,84.530100000000004
211596.0,169.994,-8316.5,-8341.3199999999997,-8246.0100000000002,6.1058500000000002,38.038699999999999,75.522199999999998
211597.0,146.96600000000001,-8452.4400000000005,-8472.3999999999996,-8386.3600000000006,1.88645,32.652200000000001,64.047300000000007
211598.0,99.038200000000003,-8066.3599999999997,-8068.75,-8018.8299999999999,-3.29474,19.753900000000002,45.560299999999998
211599.0,73.807199999999995,-7598.9499999999998,-7589.6800000000003,-7564.7399999999998,-4.96577,12.517099999999999,36.352600000000002
211600.0,54.5486,-6916.5799999999999,-6893.4899999999998,-6898.1599999999999,-6.5603999999999996,4.8834099999999996,27.8568
211601.0,55.884500000000003,-6042.8100000000004,-6004.0299999999997,-6041.46,-8.5317399999999992,-2.2717100000000001,21.876899999999999
211602.0,70.322000000000003,-5037.7200000000003,-4990.2399999999998,-5053.1000000000004,-8.9958299999999998,-6.5048500000000002,21.2441
211603.0,80.746799999999993,-3981.1700000000001,-3933.2600000000002,-4010.0500000000002,-7.0155599999999998,-8.7272999999999996,23.311499999999999
211604.0,103.837,-1860.3900000000001,-1808.3399999999999,-1919.02,4.8594999999999997,-14.3446,17.271899999999999
211605.0,109.414,-751.649,-698.94899999999996,-816.38999999999999,7.2438500000000001,-15.5814,15.3293
211606.0,86.774500000000003,191.91900000000001,225.63200000000001,133.35599999999999,4.7478999999999996,-10.277100000000001,14.199299999999999
211607.0,37.910600000000002,717.00300000000004,712.06399999999996,684.37300000000005,-2.5950600000000001,-1.7486600000000001,12.6478
211608.0,64.839299999999994,688.55499999999995,637.80899999999997,694.41600000000005,-11.122999999999999,8.3332800000000002,15.4672
211609.0,218.86699999999999,-803.12099999999998,-796.42999999999995,-854.54200000000003,26.883299999999998,63.026800000000001,101.29900000000001
211610.0,206.99199999999999,291.72399999999999,360.851,291.45999999999998,74.774000000000001,20.7605,81.613799999999998
211611.0,237.13200000000001,5805.4200000000001,5778.5799999999999,5865.5,37.338700000000003,48.2226,114.208
211612.0,104.904,7628.3599999999997,7640.7799999999997,7674.21,-4.7135899999999999,17.9726,52.543399999999998
211613.0,69.345100000000002,1548.3699999999999,1571.49,1510.53,0.57912699999999995,-2.3714599999999999,25.494199999999999
211614.0,85.973299999999995,195.21899999999999,228.81700000000001,136.678,3.88158,-13.8725,9.0585199999999997
211615.0,72.994299999999996,6414.0699999999997,6456.0600000000004,6432.0699999999997,-8.1825899999999994,0.41183700000000001,35.567300000000003
211616.0,205.21199999999999,7136.3599999999997,7115.9399999999996,7205.1599999999999,16.977399999999999,44.450299999999999,97.917299999999997
211617.0,191.315,1642.1700000000001,1688.4000000000001,1653.96,75.587999999999994,22.6859,73.451899999999995
211618.0,205.625,1138.55,1193.8800000000001,1138.6500000000001,81.4666,20.045200000000001,77.694699999999997
211619.0,179.697,2020.99,2047.3299999999999,2039.21,67.374600000000001,27.127600000000001,72.845699999999994
211620.0,193.60599999999999,2921.2199999999998,2922.9899999999998,2948.0500000000002,60.936199999999999,33.258800000000001,86.312700000000007
211621.0,228.45400000000001,3720.1199999999999,3704.6199999999999,3761.8400000000001,57.625799999999998,43.367899999999999,106.395
211622.0,247.11799999999999,4651.8900000000003,4626.7600000000002,4705.9899999999998,49.700699999999998,48.743200000000002,117.77200000000001
211623.0,233.02600000000001,-5023.2299999999996,-5051.1300000000001,-4971.2799999999997,40.186599999999999,49.716999999999999,111.227
211624.0,220.38399999999999,6635.0900000000001,6611.3999999999996,6700.3999999999996,25.953800000000001,46.488999999999997,105.97199999999999
211625.0,190.523,7683.5500000000002,7665.4399999999996,7753.9200000000001,10.119199999999999,41.781700000000001,89.815299999999993
211626.0,170.83600000000001,7961.54,7948.79,8029.5200000000004,4.8252699999999997,37.3294,80.175299999999993
211627.0,152.149,8010.6599999999999,8003.1400000000003,8074.3699999999999,0.71605300000000005,32.511400000000002,71.606899999999996
211628.0,126.806,7917.6700000000001,7919.54,7973.7399999999998,-2.8358300000000001,25.4345,60.752299999999998
211629.0,112.568,-7757.5600000000004,-7758.2200000000003,-7705.0699999999997,-5.9433600000000002,23.3005,52.109299999999998
211630.0,83.902900000000002,7123.5100000000002,7149.5900000000001,7157.0500000000002,-6.6545199999999998,9.4607100000000006,43.618099999999998
211631.0,80.582599999999999,5503.5600000000004,5563.2799999999997,5501.4799999999996,-9.6738199999999992,-9.7289899999999996,27.290700000000001
211632.0,95.194500000000005,4345.0699999999997,4415.3400000000001,4325.04,-11.4907,-17.040199999999999,18.684799999999999
211633.0,89.718500000000006,3158.3200000000002,3218.3400000000001,3129.3899999999999,-11.2311,-14.7546,16.747599999999998
211634.0,71.609999999999999,2217.7399999999998,2254.4400000000001,2186.5999999999999,-6.8001399999999999,-6.4668999999999999,21.640000000000001
211635.0,71.257400000000004,-1882.46,-1850.8199999999999,-1909.1199999999999,-0.49435800000000002,-5.5708700000000002,28.453800000000001
211636.0,83.259900000000002,944.15099999999995,972.649,890.91200000000003,6.3534800000000002,-7.3321800000000001,22.256399999999999
211637.0,48.177300000000002,-449.12200000000001,-439.26600000000002,-487.245,-5.4913299999999996,-9.7517099999999992,-2.5224299999999999
211638.0,38.177300000000002,-555.673,-586.81299999999999,-561.42200000000003,-13.8164,1.08101,-4.3807099999999997
211639.0,86.029300000000006,-117.726,-183.24600000000001,-97.007800000000003,-16.5458,12.2538,4.0689299999999999
211640.0,68.291399999999996,-29.671199999999999,-85.407899999999998,-23.552299999999999,-19.409800000000001,1.96811,-3.5029699999999999
211641.0,199.65600000000001,-863.48500000000001,-821.87900000000002,-884.73199999999997,79.055099999999996,27.542899999999999,72.505399999999995
211642.0,180.25700000000001,-1530.48,-1480.97,-1528.3199999999999,70.558400000000006,20.949400000000001,68.047799999999995
211643.0,171.71100000000001,-1798.6099999999999,-1757.46,-1786.8099999999999,66.604900000000001,23.601099999999999,66.226500000000001
211644.0,176.62700000000001,-2378.7800000000002,-2358.5999999999999,-2364.46,61.506399999999999,27.015699999999999,76.015500000000003
211645.0,202.465,-3189.0999999999999,-3185.3600000000001,-3164.5799999999999,57.516199999999998,34.863500000000002,94.688500000000005
211646.0,230.82400000000001,-3923.5100000000002,-3937.4699999999998,-3883.8600000000001,52.767200000000003,45.701300000000003,110.06100000000001
211647.0,218.30699999999999,-6103.7299999999996,-6132.8000000000002,-6045.5100000000002,28.150700000000001,48.509500000000003,103.752
211648.0,203.726,-6721.5699999999997,-6747.5100000000002,-6658.4099999999999,18.378599999999999,46.218899999999998,96.233000000000004
211649.0,190.053,-7254.1499999999996,-7277.0799999999999,-7187.7200000000003,11.0801,43.5687,88.685000000000002
211650.0,174.779,-7730.6700000000001,-7751.0100000000002,-7662.71,5.0256299999999996,40.259799999999998,79.990399999999994
211651.0,156.96000000000001,-7900.5100000000002,-7915.7700000000004,-7835.3999999999996,0.718086,35.724699999999999,71.506299999999996
211652.0,134.62899999999999,-7897.1400000000003,-7906.3299999999999,-7836.4799999999996,-3.4916999999999998,30.046500000000002,60.713799999999999
211653.0,88.087199999999996,-7414.3199999999997,-7403.2299999999996,-7372.3400000000001,-8.5404999999999998,15.295199999999999,42.499699999999997
211654.0,68.094999999999999,-6858.9899999999998,-6833.8699999999999,-6829.7399999999998,-10.938599999999999,6.5980499999999997,33.642899999999997
211655.0,61.421599999999998,-6116.2600000000002,-6074.1499999999996,-6103.0200000000004,-13.2887,-2.9313600000000002,24.6738
211656.0,78.330200000000005,-5132.29,-5071.5,-5139.1999999999998,-14.2987,-12.7707,17.0258
211657.0,93.543700000000001,-3893.6100000000001,-3826.5700000000002,-3915.9099999999999,-11.4008,-16.101800000000001,19.116
211658.0,86.099999999999994,-2719.3499999999999,-2667.5999999999999,-2746.2600000000002,-5.7285899999999996,-11.013,26.812999999999999
211659.0,66.149799999999999,-1322.8699999999999,-1296.0899999999999,-1358.46,2.85927,-7.2254100000000001,20.475300000000001
211660.0,86.428700000000006,-738.85699999999997,-701.13599999999997,-793.28300000000002,4.5376099999999999,-14.4937,10.642799999999999
211661.0,83.965000000000003,76.174700000000001,107.545,19.047799999999999,3.8466999999999998,-13.964499999999999,11.269299999999999
211662.0,38.791200000000003,682.10299999999995,675.279,649.851,-1.7600499999999999,-2.72113,14.2197
211663.0,64.941999999999993,661.47000000000003,610.09799999999996,664.78399999999999,-8.8732699999999998,10.2125,16.813400000000001
211664.0,239.524,-687.69299999999998,-709.899,-755.21500000000003,39.591700000000003,63.261899999999997,111.221
211665.0,220.84299999999999,554.40599999999995,622.27499999999998,558.53499999999997,80.612799999999993,19.459700000000002,89.063999999999993
211666.0,211.833,5622.2299999999996,5603.5299999999997,5675.0900000000001,32.459200000000003,43.782200000000003,103.004
211667.0,96.183700000000002,6684.4799999999996,6712.75,6724.04,-9.1305800000000001,13.4748,49.025700000000001
211668.0,55.625100000000003,1272.8099999999999,1273.45,1250.46,0.38695299999999999,2.0638000000000001,29.2498
211669.0,79.303600000000003,290.55799999999999,319.94099999999997,236.92500000000001,4.2705200000000003,-12.6835,12.054600000000001
211670.0,80.711799999999997,5300.3599999999997,5359.3500000000004,5309.9099999999999,-11.5907,-6.6739300000000004,31.467600000000001
211671.0,183.536,6825.9799999999996,6815.79,6888.2299999999996,11.5502,39.773899999999998,89.305999999999997
211672.0,198.37,1714.0699999999999,1766.24,1726.1900000000001,77.192700000000002,24.549499999999998,76.224699999999999
211673.0,217.33699999999999,1101.1800000000001,1157.6400000000001,1099.79,84.653300000000002,23.8048,83.205299999999994
211674.0,185.44800000000001,2403.1399999999999,2435.8400000000001,2424.29,70.265100000000004,30.1631,73.085800000000006
211675.0,203.714,2859.7199999999998,2862.5300000000002,2886.6300000000001,65.8797,38.033700000000003,88.4739
211676.0,227.512,3829.29,3814.2600000000002,3867.0900000000001,58.110999999999997,43.7348,105.94
211677.0,227.614,4926.7299999999996,4905.5799999999999,4972.4300000000003,46.157600000000002,45.513500000000001,109.086
211678.0,209.018,-5149.7799999999997,-5174.3599999999997,-5107.1999999999998,36.083500000000001,46.455300000000001,99.739800000000002
211679.0,196.892,6240.5,6226.21,6299.1999999999998,20.456199999999999,42.0336,96.128299999999996
211680.0,170.53100000000001,7040.4799999999996,7034.4899999999998,7104.71,4.5856899999999996,37.084899999999998,82.353499999999997
211681.0,153.91399999999999,7203.1400000000003,7203.5299999999997,7265.8199999999997,-0.72306300000000001,32.9893,74.203699999999998
211682.0,137.273,7246.54,7253.4499999999998,7305.1099999999997,-4.6500300000000001,28.3444,66.571200000000005
211683.0,115.521,7063.3100000000004,7080.25,7114.21,-7.7179099999999998,21.448,57.0702
211684.0,102.295,-6891.4399999999996,-6876.46,-6843.5699999999997,-10.9542,19.161799999999999,49.003300000000003
211685.0,80.929900000000004,6101.8699999999999,6144.0299999999997,6127.5299999999997,-10.462899999999999,3.9058700000000002,40.090899999999998
211686.0,93.319699999999997,4280.1499999999996,4352.96,4270.2299999999996,-13.164300000000001,-14.905099999999999,21.606000000000002
211687.0,96.614699999999999,3173.6199999999999,3244.1100000000001,3149.3000000000002,-13.842499999999999,-17.255600000000001,14.050800000000001
211688.0,70.860500000000002,2184.7199999999998,2228.8699999999999,2160.29,-11.98,-10.589700000000001,14.4857
211689.0,49.530000000000001,1573.8,1585.1600000000001,1555.8399999999999,-6.0522900000000002,-0.54280099999999998,23.7149
211690.0,56.445500000000003,-1369.46,-1363.26,-1382.05,-1.27803,0.27152100000000001,31.1233
211691.0,68.655100000000004,908.48500000000001,924.20500000000004,866.79600000000005,5.2479199999999997,-4.4962900000000001,25.362300000000001
211692.0,49.0319,-316.738,-305.56999999999999,-355.19,-3.5139399999999998,-10.555,-0.23769899999999999
211693.0,31.559200000000001,-464.91199999999998,-493.24700000000001,-472.08100000000002,-10.622199999999999,1.04938,-1.0126299999999999
211694.0,78.504199999999997,-90.764700000000005,-151.24100000000001,-73.180099999999996,-12.475899999999999,12.5159,8.0831800000000005
211695.0,73.414100000000005,-9.09694,-70.941199999999995,-2.0387499999999998,-18.502500000000001,1.45285,-3.8828399999999998
211696.0,208.82900000000001,-1002.28,-961.95399999999995,-1021.63,81.272000000000006,26.543900000000001,79.372399999999999
211697.0,189.46700000000001,-1430.9200000000001,-1382.78,-1430.8,73.889300000000006,24.300699999999999,71.729200000000006
211698.0,174.80600000000001,-2067.1399999999999,-2016.78,-2051.9099999999999,66.626199999999997,25.284400000000002,66.635400000000004
211699.0,187.27099999999999,-2480.0,-2452.8899999999999,-2464.71,67.377200000000002,31.074400000000001,77.459999999999994
211700.0,210.119,-3065.0999999999999,-3064.3099999999999,-3041.96,61.4315,38.947800000000001,96.194400000000002
211701.0,219.255,-4215.3400000000001,-4231.4399999999996,-4179.1599999999999,48.475900000000003,44.826799999999999,104.63200000000001
211702.0,194.40899999999999,-5755.1800000000003,-5775.6099999999997,-5705.3299999999999,23.3918,44.667400000000001,93.535600000000002
211703.0,182.13900000000001,-6419.3299999999999,-6435.3599999999997,-6363.3500000000004,13.512600000000001,42.119599999999998,87.592200000000005
211704.0,169.923,-6838.0,-6849.8800000000001,-6778.3699999999999,5.9078499999999998,39.285400000000003,81.105699999999999
211705.0,156.684,-7001.8599999999997,-7009.5299999999997,-6940.2200000000003,-0.39633600000000002,35.952599999999997,73.804199999999994
211706.0,141.387,-7155.3299999999999,-7156.9899999999998,-7095.5200000000004,-4.8796299999999997,31.593,66.444800000000001
211707.0,122.095,-7136.1999999999998,-7130.75,-7080.4399999999996,-8.8017199999999995,26.076599999999999,57.153300000000002
211708.0,81.572299999999998,-6461.7799999999997,-6433.9399999999996,-6425.1400000000003,-12.887700000000001,10.591699999999999,39.673099999999998
211709.0,69.225899999999996,-5833.3699999999999,-5790.0699999999997,-5810.5799999999999,-14.5944,0.75248899999999996,30.243400000000001
211710.0,77.170900000000003,-4978.3000000000002,-4915.9499999999998,-4971.7700000000004,-16.6751,-10.052199999999999,20.776800000000001
211711.0,93.537099999999995,-3913.8400000000001,-3840.4499999999998,-3925.8899999999999,-15.339700000000001,-17.3568,15.5265
211712.0,91.186899999999994,-2772.4200000000001,-2708.8000000000002,-2794.3499999999999,-9.9434400000000007,-16.885899999999999,20.3264
211713.0,69.761899999999997,-1831.03,-1799.3599999999999,-1848.54,-3.6474000000000002,-7.2164400000000004,30.588100000000001
211714.0,45.639400000000002,-1160.51,-1152.9400000000001,-1183.6500000000001,-0.78979200000000005,-2.0897100000000002,20.8171
211715.0,69.381200000000007,-763.05999999999995,-735.82000000000005,-809.01199999999994,2.0952700000000002,-11.1639,10.3489
211716.0,78.939700000000002,-61.573700000000002,-32.921199999999999,-115.008,4.492,-14.214,10.918100000000001
211717.0,41.387300000000003,550.41999999999996,544.89200000000005,518.93399999999997,1.5944199999999999,-4.0460900000000004,16.4146
211718.0,62.561999999999998,592.43399999999997,544.75999999999999,594.59699999999998,-4.7204800000000002,10.1609,19.636299999999999
211719.0,261.42000000000002,-930.05499999999995,-976.55799999999999,-1009.33,51.623899999999999,62.253300000000003,121.04900000000001
211720.0,231.548,385.56200000000001,448.59800000000001,390.14600000000002,87.183199999999999,18.2697,93.282399999999996
211721.0,183.511,5466.5600000000004,5454.25,5508.5100000000002,29.2395,39.153500000000001,89.599800000000002
211722.0,93.726100000000002,5514.4399999999996,5559.1599999999999,5550.6800000000003,-12.8736,10.016999999999999,45.801900000000003
211723.0,61.908000000000001,1152.6800000000001,1143.8699999999999,1136.46,2.9295599999999999,9.8389500000000005,33.2592
211724.0,68.341300000000004,337.65800000000002,364.512,296.05500000000001,5.0126200000000001,-7.4414699999999998,16.930499999999999
211725.0,86.280500000000004,4124.3000000000002,4192.04,4126.1599999999999,-10.904999999999999,-6.3223099999999999,28.874300000000002
211726.0,155.78100000000001,6073.1899999999996,6073.25,6125.6899999999996,7.5193300000000001,33.147199999999998,77.564400000000006
211727.0,202.59999999999999,1979.77,2030.3,1989.21,75.269900000000007,25.8979,81.389799999999994
211728.0,227.54300000000001,1342.04,1400.22,1344.29,88.417400000000001,25.4315,87.795199999999994
211729.0,181.983,2300.7399999999998,2331.6599999999999,2319.8099999999999,64.415000000000006,30.823599999999999,75.475800000000007
211730.0,204.684,3184.8200000000002,3188.1399999999999,3212.0599999999999,64.163799999999995,38.991300000000003,90.039299999999997
211731.0,221.279,4043.0900000000001,4026.9000000000001,4074.7600000000002,58.445,42.653500000000001,102.438
211732.0,203.864,4741.71,4723.9099999999999,4776.5,43.841299999999997,41.712800000000001,97.344700000000003
211733.0,182.91800000000001,-4959.1899999999996,-4978.3000000000002,-4926.8199999999997,33.325400000000002,42.557299999999998,86.914000000000001
211734.0,168.52799999999999,5909.1199999999999,5902.5200000000004,5957.1000000000004,17.119900000000001,36.295499999999997,83.482500000000002
211735.0,144.55199999999999,6317.8699999999999,6325.0,6373.3999999999996,-0.0790405,29.902699999999999,71.819699999999997
211736.0,132.41300000000001,6334.6999999999998,6350.3199999999997,6390.6300000000001,-5.7753699999999997,25.9801,65.598600000000005
211737.0,120.693,6174.3400000000001,6198.6700000000001,6227.8800000000001,-9.8458500000000004,21.811800000000002,59.701000000000001
211738.0,106.59999999999999,5921.5100000000002,5956.0,5968.8500000000004,-12.4162,16.2989,52.618000000000002
211739.0,96.678399999999996,-5776.9700000000003,-5743.5699999999997,-5731.9499999999998,-15.345700000000001,14.3963,46.116399999999999
211740.0,85.023300000000006,4919.1599999999999,4975.1300000000001,4940.3100000000004,-12.4337,2.45696,38.084200000000003
211741.0,93.1096,3132.98,3208.5,3119.4499999999998,-9.5357900000000004,-13.1929,17.948899999999998
211742.0,82.417599999999993,2110.6100000000001,2175.48,2092.21,-8.1174800000000005,-11.4002,12.4453
211743.0,47.856900000000003,1428.0599999999999,1456.71,1415.1700000000001,-6.5680800000000001,-0.181781,16.378599999999999
211744.0,53.526299999999999,1212.8099999999999,1205.8199999999999,1204.29,-1.7664299999999999,10.5967,28.617999999999999
211745.0,58.985999999999997,-1149.8900000000001,-1160.7,-1154.8499999999999,-0.47068199999999999,9.7695000000000007,32.168700000000001
211746.0,64.179699999999997,880.87,894.43700000000001,847.69500000000005,5.5106999999999999,0.28710200000000002,27.646100000000001
211747.0,40.202100000000002,-206.79300000000001,-194.0,-235.22800000000001,0.50934500000000005,-6.1375200000000003,7.4487300000000003
211748.0,24.230799999999999,-360.98200000000003,-381.25400000000002,-363.62900000000002,-4.2946400000000002,3.1329199999999999,6.7835700000000001
211749.0,64.632499999999993,-80.803100000000001,-127.04300000000001,-67.060599999999994,-5.84171,11.9031,15.1387
211750.0,74.546000000000006,-4.03146,-72.199100000000001,-2.97017,-16.058499999999999,-1.0903099999999999,-4.4576700000000002
211751.0,215.07400000000001,-1007.22,-970.28700000000003,-1027.75,84.781199999999998,25.702100000000002,81.991399999999999
211752.0,199.89699999999999,-1807.4400000000001,-1758.7,-1805.4000000000001,76.247399999999999,25.935400000000001,77.930999999999997
211753.0,171.57499999999999,-2109.1199999999999,-2063.4200000000001,-2095.5999999999999,61.9193,25.543700000000001,69.101299999999995
211754.0,185.744,-2558.4000000000001,-2530.5700000000002,-2543.6799999999998,63.534399999999998,31.560300000000002,79.207499999999996
211755.0,209.53899999999999,-3466.4099999999999,-3469.0799999999999,-3446.21,61.1937,40.229300000000002,95.477800000000002
211756.0,203.155,-4239.4200000000001,-4259.5299999999997,-4211.3999999999996,46.641199999999998,43.812199999999997,95.278999999999996
211757.0,167.51499999999999,-5605.3100000000004,-5618.1999999999998,-5565.7799999999997,20.617899999999999,39.680399999999999,81.2898
211758.0,155.01300000000001,-5872.0699999999997,-5878.8299999999999,-5826.5900000000001,10.3637,36.587200000000003,75.872100000000003
211759.0,143.834,-6095.6999999999998,-6095.8199999999997,-6045.8900000000003,2.0101800000000001,33.171199999999999,70.446700000000007
211760.0,133.22900000000001,-6299.4399999999996,-6292.5799999999999,-6246.5200000000004,-4.7843999999999998,29.4438,64.796000000000006
211761.0,122.43300000000001,-6239.7299999999996,-6224.6899999999996,-6186.4499999999998,-9.8001000000000005,25.2136,59.248699999999999
211762.0,109.79900000000001,-6055.4300000000003,-6031.6199999999999,-6004.3000000000002,-13.5913,20.299600000000002,52.604300000000002
211763.0,83.694599999999994,-5326.25,-5281.75,-5291.8100000000004,-16.0443,7.3344899999999997,38.461399999999998
211764.0,76.483999999999995,-4678.6700000000001,-4621.3199999999997,-4658.71,-15.5517,-1.0982799999999999,29.316600000000001
211765.0,83.598699999999994,-3829.6399999999999,-3757.5900000000001,-3827.9699999999998,-13.303599999999999,-10.411899999999999,18.785599999999999
211766.0,92.554400000000001,-2767.8600000000001,-2691.1100000000001,-2779.9899999999998,-8.2651500000000002,-14.471399999999999,15.9682
211767.0,77.688699999999997,-1775.71,-1721.0,-1791.47,-2.1541899999999998,-8.2025400000000008,23.915500000000002
211768.0,62.6297,-1224.97,-1214.29,-1233.76,1.0682199999999999,4.8126199999999999,34.470199999999998
211769.0,42.167000000000002,-1112.55,-1109.6500000000001,-1127.6600000000001,-1.3547,3.2082199999999998,22.069600000000001
211770.0,58.864100000000001,-759.22799999999995,-733.30899999999997,-791.76800000000003,2.3429799999999998,-6.7344600000000003,15.6889
211771.0,66.7911,-126.801,-99.120099999999994,-164.511,6.8893399999999998,-9.49587,16.4925
211772.0,43.474200000000003,413.048,412.06099999999998,392.10599999999999,6.5030999999999999,-1.1146799999999999,21.1389
211773.0,59.163699999999999,460.197,423.91800000000001,464.99200000000002,-0.0011728999999999999,10.453900000000001,23.518799999999999
211774.0,281.76900000000001,-850.32100000000003,-919.26599999999996,-937.09000000000003,65.409999999999997,59.234999999999999,128.75299999999999
211775.0,240.34700000000001,675.19000000000005,734.06500000000005,678.74599999999998,91.9559,18.246200000000002,96.834100000000007
211776.0,157.58099999999999,5126.2399999999998,5119.29,5157.1400000000003,27.1035,34.468200000000003,77.127700000000004
211777.0,92.506900000000002,4122.0100000000002,4182.46,4157.0699999999997,-15.692399999999999,5.0419799999999997,40.738500000000002
211778.0,72.757800000000003,779.10699999999997,772.024,776.69000000000005,3.4238,17.661799999999999,37.7881
211779.0,55.4589,375.82299999999998,391.55000000000001,350.04700000000003,6.5623899999999997,4.9476000000000004,22.773399999999999
211780.0,86.564599999999999,2910.48,2979.9000000000001,2918.29,-11.7464,-1.47966,30.194199999999999
211781.0,124.212,5564.2299999999996,5572.5500000000002,5603.1300000000001,5.8525900000000002,25.7821,63.436900000000001
211782.0,209.178,1957.95,1999.5699999999999,1962.23,80.831299999999999,27.1462,82.404300000000006
211783.0,233.768,1233.52,1290.8599999999999,1236.3199999999999,91.124399999999994,26.601199999999999,90.3292
211784.0,185.03999999999999,2726.2399999999998,2745.1199999999999,2737.9400000000001,70.371600000000001,30.392600000000002,73.800899999999999
211785.0,201.881,3150.8899999999999,3147.7800000000002,3169.73,67.396799999999999,38.717100000000002,86.039599999999993
211786.0,208.68199999999999,3992.8400000000001,3976.21,4014.7399999999998,58.4375,41.969900000000003,94.689800000000005
211787.0,181.85900000000001,4799.8000000000002,4786.5299999999997,4825.5200000000004,41.671199999999999,38.393599999999999,86.144000000000005
211788.0,160.58500000000001,-4866.8299999999999,-4880.1899999999996,-4842.9899999999998,31.170999999999999,38.935699999999997,75.848799999999997
211789.0,139.04900000000001,5361.4899999999998,5361.4499999999998,5396.5799999999999,15.4473,30.2303,69.8673
211790.0,113.086,5412.6899999999996,5430.8800000000001,5454.8599999999997,-2.0301900000000002,21.2453,57.965499999999999
211791.0,104.86499999999999,5237.5,5266.6300000000001,5281.75,-7.9825200000000001,16.776499999999999,53.052199999999999
211792.0,99.465999999999994,4996.0699999999997,5036.8100000000004,5040.5100000000002,-12.4314,12.549899999999999,48.763500000000001
211793.0,95.935400000000001,4605.4700000000003,4657.2399999999998,4647.5900000000001,-15.054500000000001,8.6032600000000006,44.824199999999998
211794.0,91.347200000000001,-4461.6899999999996,-4409.3699999999999,-4421.4399999999996,-17.4512,7.9370399999999997,40.7849
211795.0,89.384100000000004,3560.8699999999999,3627.1500000000001,3584.0700000000002,-14.7203,1.69885,36.2273
211796.0,84.718000000000004,2180.0,2250.0100000000002,2175.5500000000002,-7.1347300000000002,-5.35839,23.843699999999998
211797.0,76.159300000000002,1443.45,1506.8499999999999,1436.48,-4.2996499999999997,-6.9685199999999998,19.059699999999999
211798.0,49.978999999999999,850.19100000000003,884.80999999999995,850.00199999999995,-4.6664399999999997,2.1482800000000002,20.113900000000001
211799.0,63.113599999999998,685.53399999999999,683.32299999999998,690.41899999999998,-1.11904,16.174299999999999,32.430399999999999
211800.0,73.321200000000005,-663.34400000000005,-670.08799999999997,-656.72900000000004,1.2036199999999999,18.022200000000002,37.698
211801.0,61.6111,689.48699999999997,699.56200000000001,671.12099999999998,5.3580699999999997,9.8590300000000006,30.5197
211802.0,40.552599999999998,53.167000000000002,60.185299999999998,35.220799999999997,6.0166399999999998,4.1182100000000004,18.145399999999999
211803.0,35.611600000000003,-96.627300000000005,-106.752,-98.478200000000001,3.70919,6.6537699999999997,18.3202
211804.0,51.372999999999998,-32.402299999999997,-55.959000000000003,-28.361999999999998,2.2854399999999999,10.326499999999999,23.360800000000001
211805.0,74.233999999999995,-2.2309399999999999,-70.680599999999998,0.13118199999999999,-13.5555,-1.96322,-5.63476
211806.0,220.142,-1121.74,-1086.6300000000001,-1143.96,87.344300000000004,25.531300000000002,83.891499999999994
211807.0,206.405,-1598.5899999999999,-1552.3699999999999,-1597.8299999999999,78.732500000000002,26.944900000000001,81.089399999999998
211808.0,175.13,-2393.8699999999999,-2362.0,-2387.3099999999999,67.476500000000001,25.942,68.659800000000004
211809.0,184.25,-2817.1199999999999,-2800.0,-2808.6700000000001,66.237099999999998,31.2378,76.6785
211810.0,200.74000000000001,-3317.9200000000001,-3324.1199999999999,-3304.3499999999999,60.771999999999998,40.139400000000002,89.5852
211811.0,185.89699999999999,-4290.1999999999998,-4309.2200000000003,-4270.4700000000003,45.588700000000003,42.536999999999999,85.183599999999998
211812.0,141.40899999999999,-5106.2299999999996,-5112.8999999999996,-5077.5699999999997,19.049199999999999,34.821899999999999,68.830799999999996
211813.0,125.621,-5398.0100000000002,-5397.1300000000001,-5365.1700000000001,9.0656099999999995,30.468399999999999,62.446800000000003
211814.0,113.31,-5453.6999999999998,-5444.04,-5417.1599999999999,0.69981300000000002,26.005099999999999,56.960700000000003
211815.0,104.157,-5277.75,-5257.8999999999996,-5237.8699999999999,-6.1436500000000001,21.3935,52.184600000000003
211816.0,97.8596,-5127.8800000000001,-5097.0299999999997,-5085.8999999999996,-11.5307,16.8371,47.986499999999999
211817.0,93.934899999999999,-4867.4300000000003,-4825.3599999999997,-4825.0799999999999,-15.3688,12.3142,44.264099999999999
211818.0,88.521699999999996,-3975.0,-3914.54,-3941.21,-17.811299999999999,3.74783,36.914299999999997
211819.0,84.614900000000006,-3408.27,-3341.7399999999998,-3385.04,-16.0578,-0.70395399999999997,31.4328
211820.0,81.348200000000006,-2731.5599999999999,-2661.8499999999999,-2721.4099999999999,-11.258900000000001,-5.0160900000000002,25.2073
211821.0,81.218599999999995,-1984.9000000000001,-1914.9300000000001,-1985.0599999999999,-5.70791,-8.7240800000000007,21.316800000000001
211822.0,75.379400000000004,-1219.3699999999999,-1162.1800000000001,-1223.0,-0.520509,-5.5485300000000004,26.443000000000001
211823.0,71.427800000000005,-668.81399999999996,-651.29399999999998,-667.19399999999996,3.34491,9.56785,38.783799999999999
211824.0,51.802399999999999,-814.42700000000002,-809.60799999999995,-815.25199999999995,-0.49348700000000001,11.8028,27.3066
211825.0,49.9666,-644.58199999999999,-626.67899999999997,-659.83000000000004,4.1084300000000002,4.3418799999999997,22.828800000000001
211826.0,51.887599999999999,-278.94900000000001,-263.839,-298.69099999999997,8.6241500000000002,2.0931199999999999,22.654800000000002
211827.0,48.121099999999998,36.011899999999997,34.256100000000004,24.119399999999999,9.1388300000000005,4.9973900000000002,24.9435
211828.0,53.577500000000001,129.084,109.45399999999999,130.006,4.2417699999999998,9.7391900000000007,26.631499999999999
211829.0,299.75700000000001,-1036.04,-1124.8199999999999,-1126.6199999999999,79.020600000000002,55.1736,134.09299999999999
211830.0,248.78899999999999,470.13400000000001,524.09100000000001,471.23599999999999,96.811499999999995,19.3977,99.660600000000002
211831.0,135.17599999999999,4918.8500000000004,4914.7600000000002,4937.96,26.352499999999999,30.622900000000001,65.613900000000001
211832.0,85.4268,2730.1900000000001,2802.2199999999998,2757.29,-14.682399999999999,-3.57857,29.6769
211833.0,74.441800000000001,436.78300000000002,424.86599999999999,434.02600000000001,6.1617899999999999,23.315100000000001,35.024500000000003
211834.0,60.227400000000003,406.45800000000003,406.35399999999998,392.649,8.87209,17.833200000000001,27.373200000000001
211835.0,83.315700000000007,1580.6300000000001,1649.1500000000001,1596.22,-13.616199999999999,-1.1272,28.937200000000001
211836.0,94.968699999999998,4839.7799999999997,4851.7299999999996,4862.79,6.8494900000000003,19.473199999999999,49.475099999999998
211837.0,215.02799999999999,2176.3000000000002,2218.0100000000002,2179.1900000000001,86.739800000000002,28.6616,80.774000000000001
211838.0,240.018,1468.1400000000001,1525.05,1470.9100000000001,95.326899999999995,26.741700000000002,91.491900000000001
211839.0,191.875,2540.7399999999998,2560.3099999999999,2550.02,75.454700000000003,33.296500000000002,73.308599999999998
211840.0,201.07499999999999,3396.1199999999999,3393.5599999999999,3409.4099999999999,68.806299999999993,40.046500000000002,84.063500000000005
211841.0,194.72,4100.8199999999997,4085.9299999999998,4113.5900000000001,57.389200000000002,40.720199999999998,86.575699999999998
211842.0,162.196,4517.8500000000004,4507.6800000000003,4534.1000000000004,40.387599999999999,35.447200000000002,75.524699999999996
211843.0,140.875,-4594.6499999999996,-4604.6300000000001,-4579.8500000000004,29.7286,35.5045,65.691900000000004
211844.0,113.23,5027.2200000000003,5030.1099999999997,5048.4499999999998,15.6181,25.1858,57.121200000000002
211845.0,81.664400000000001,4719.5699999999997,4743.3100000000004,4744.3500000000004,-0.25883600000000001,13.4061,42.973599999999998
211846.0,75.163600000000002,4369.6099999999997,4405.9899999999998,4396.2200000000003,-5.657,7.7532500000000004,37.903100000000002
211847.0,75.177400000000006,3863.8800000000001,3914.5599999999999,3891.5999999999999,-10.042,2.3685700000000001,33.667999999999999
211848.0,80.295199999999994,3319.9400000000001,3382.8299999999999,3348.3299999999999,-12.841900000000001,-1.5665800000000001,31.462399999999999
211849.0,80.437200000000004,-3159.98,-3094.0799999999999,-3133.46,-14.5641,-0.82526500000000003,29.060300000000002
211850.0,88.071799999999996,2130.77,2205.7600000000002,2153.7199999999998,-15.1517,-3.1295099999999998,29.489799999999999
211851.0,73.534400000000005,1135.6400000000001,1190.52,1140.3199999999999,-7.9843700000000002,1.2626500000000001,28.486799999999999
211852.0,63.1158,736.11199999999997,778.75,731.04200000000003,-1.6249199999999999,2.2369599999999998,25.171299999999999
211853.0,47.784300000000002,392.702,416.60700000000003,389.81400000000002,0.60243199999999997,7.3123699999999996,22.1587
211854.0,61.5657,306.27699999999999,302.73099999999999,308.33199999999999,3.48143,18.6309,29.936399999999999
211855.0,74.235500000000002,-332.86000000000001,-340.346,-329.108,5.4732799999999999,21.3598,36.304699999999997
211856.0,64.840299999999999,478.53899999999999,476.00299999999999,468.23099999999999,6.9198300000000001,20.0002,30.4086
211857.0,59.1434,304.43700000000001,303.62299999999999,290.78300000000002,11.123799999999999,15.511900000000001,27.257300000000001
211858.0,57.959099999999999,173.25899999999999,170.68600000000001,163.24199999999999,11.1694,12.961499999999999,28.283200000000001
211859.0,57.645400000000002,15.796799999999999,11.2933,7.6504300000000001,9.5876900000000003,11.4148,29.475200000000001
211860.0,73.004900000000006,-14.086,-79.989400000000003,-9.1425800000000006,-12.877000000000001,1.21217,-6.6923300000000001
211861.0,226.74299999999999,-1101.03,-1069.74,-1126.9200000000001,90.694400000000002,25.8705,86.1554
211862.0,209.471,-1957.27,-1911.3699999999999,-1956.74,81.467299999999994,27.270700000000001,80.938599999999994
211863.0,181.94900000000001,-2312.2600000000002,-2279.96,-2308.7600000000002,73.799499999999995,28.072900000000001,66.981200000000001
211864.0,187.94999999999999,-2778.75,-2761.27,-2772.5,68.7179,33.900199999999998,76.323300000000003
211865.0,192.62700000000001,-3624.3699999999999,-3629.9699999999998,-3614.73,59.1447,40.7226,84.572400000000002
211866.0,169.05199999999999,-4182.29,-4199.79,-4171.21,44.468499999999999,40.579099999999997,75.461799999999997
211867.0,118.727,-4921.5799999999999,-4925.0699999999997,-4904.0600000000004,18.7713,30.470500000000001,57.368400000000001
211868.0,99.642300000000006,-4855.79,-4851.04,-4836.0799999999999,9.7482100000000003,25.154800000000002,49.759
211869.0,84.232399999999998,-4731.79,-4717.1700000000001,-4710.3500000000004,2.3552200000000001,19.594100000000001,43.076099999999997
211870.0,74.208399999999997,-4581.7700000000004,-4554.8400000000001,-4558.5600000000004,-3.5484800000000001,13.7216,37.706800000000001
211871.0,70.524600000000007,-4175.8100000000004,-4135.5799999999999,-4150.8199999999997,-8.5919699999999999,8.2220899999999997,33.226199999999999
211872.0,74.053100000000001,-3679.5100000000002,-3625.5300000000002,-3653.5999999999999,-11.9374,3.1616399999999998,30.766100000000002
211873.0,86.783600000000007,-2593.1399999999999,-2519.98,-2567.8299999999999,-15.9069,-2.7265199999999998,29.488800000000001
211874.0,87.329400000000007,-2022.8499999999999,-1950.22,-2001.21,-15.0701,-3.00637,30.252199999999998
211875.0,79.207099999999997,-1518.0,-1456.3800000000001,-1502.6400000000001,-10.5848,-1.6764699999999999,30.782399999999999
211876.0,67.439800000000005,-1096.22,-1046.23,-1089.0,-4.4229399999999996,-0.88864399999999999,27.6692
211877.0,60.755099999999999,-683.06200000000001,-643.29300000000001,-682.75400000000002,2.08623,0.76098399999999999,26.5016
211878.0,66.271799999999999,-329.58499999999998,-316.017,-327.517,6.96509,11.531700000000001,35.057899999999997
211879.0,62.3155,-509.36900000000003,-513.59500000000003,-511.149,3.6735500000000001,20.444400000000002,29.299099999999999
211880.0,57.834200000000003,-505.36399999999998,-504.46199999999999,-512.62400000000002,6.7071300000000003,17.384499999999999,27.344200000000001
211881.0,56.93,-423.75400000000002,-425.18299999999999,-434.32999999999998,9.45974,15.700799999999999,26.6723
211882.0,57.547499999999999,-327.577,-331.78699999999998,-339.096,10.680300000000001,13.7355,27.698399999999999
211883.0,57.235199999999999,-191.03200000000001,-196.511,-200.30500000000001,9.2257700000000007,11.6555,29.141999999999999
211884.0,317.94999999999999,-836.89700000000005,-948.48900000000003,-937.25599999999997,93.386799999999994,52.214500000000001,135.922
211885.0,257.59800000000001,715.28300000000002,766.85900000000004,720.60500000000002,104.238,18.908300000000001,100.455
211886.0,119.346,4603.71,4599.29,4611.6300000000001,26.562999999999999,28.160699999999999,56.657600000000002
211887.0,83.716999999999999,1681.28,1760.3599999999999,1691.3699999999999,-7.96021,-14.7204,14.2781
211888.0,69.387799999999999,348.67500000000001,328.18400000000003,337.34500000000003,9.5112799999999993,24.9146,28.077300000000001
211889.0,68.9846,506.86599999999999,496.28300000000002,492.85199999999998,11.4138,23.997599999999998,28.753599999999999
211890.0,77.119900000000001,313.36200000000002,383.16300000000001,322.67099999999999,-13.0078,-8.0137699999999992,17.6829
211891.0,74.291300000000007,4552.1599999999999,4562.1400000000003,4559.5,10.3551,15.83,38.146599999999999
211892.0,215.839,2072.6399999999999,2118.48,2075.0999999999999,85.752600000000001,30.7928,81.007800000000003
211893.0,243.256,1402.1199999999999,1460.28,1405.29,97.358400000000003,26.043700000000001,92.185699999999997
211894.0,197.18799999999999,2830.3299999999999,2852.2199999999998,2838.4699999999998,75.864900000000006,36.5809,75.795900000000003
211895.0,198.00700000000001,3294.8899999999999,3291.7800000000002,3303.29,67.836799999999997,39.719099999999997,82.788799999999995
211896.0,179.40700000000001,3974.79,3963.0999999999999,3981.1300000000001,54.358199999999997,38.3202,78.880200000000002
211897.0,146.90700000000001,4522.3500000000004,4514.3299999999999,4530.3299999999999,38.7012,33.513599999999997,67.148499999999999
211898.0,126.562,-4484.1899999999996,-4492.9799999999996,-4477.54,28.921199999999999,32.917400000000001,57.959699999999998
211899.0,95.277100000000004,4596.6199999999999,4598.1800000000003,4604.3500000000004,17.577000000000002,22.230499999999999,46.968499999999999
211900.0,58.4893,4137.6499999999996,4159.8299999999999,4144.4399999999996,4.5788200000000003,8.5904900000000008,30.271799999999999
211901.0,52.665199999999999,3676.0900000000001,3710.9000000000001,3682.73,0.52532199999999996,1.8321400000000001,24.067299999999999
211902.0,58.526600000000002,3131.8299999999999,3182.6999999999998,3138.3299999999999,-3.1695099999999998,-5.2359499999999999,18.385400000000001
211903.0,70.195700000000002,2438.5799999999999,2503.1999999999998,2445.8499999999999,-5.3995199999999999,-10.3942,15.883599999999999
211904.0,73.077299999999994,-2213.8600000000001,-2145.0300000000002,-2208.5,-7.1452299999999997,-9.58019,13.1031
211905.0,90.515900000000002,934.13800000000003,1019.6,945.57399999999996,-11.447699999999999,-15.3131,14.601800000000001
211906.0,57.0077,-30.236799999999999,5.8241300000000003,-25.684799999999999,-8.3124000000000002,4.8221800000000004,24.602599999999999
211907.0,54.485199999999999,-66.012299999999996,-57.5627,-68.011399999999995,-0.29438500000000001,13.9375,27.648599999999998
211908.0,55.202800000000003,37.588500000000003,31.462399999999999,32.209800000000001,5.4125699999999997,17.868500000000001,25.613099999999999
211909.0,62.613599999999998,192.40199999999999,175.62,184.47300000000001,8.2350300000000001,21.764800000000001,26.359500000000001
211910.0,66.223399999999998,-279.49099999999999,-297.20999999999998,-285.47199999999998,8.5488999999999997,22.188600000000001,28.551400000000001
211911.0,68.755200000000002,462.70600000000002,446.91000000000003,449.70600000000002,10.172000000000001,25.059899999999999,27.807099999999998
211912.0,71.018600000000006,449.709,446.64100000000002,434.053,13.717000000000001,21.0185,31.344100000000001
211913.0,73.002399999999994,272.09100000000001,274.91399999999999,255.93700000000001,15.2288,17.973800000000001,33.415999999999997
211914.0,70.933300000000003,37.6008,42.433100000000003,21.765000000000001,14.342499999999999,15.461499999999999,33.399500000000003
211915.0,69.021000000000001,-28.062200000000001,-90.659499999999994,-23.430900000000001,-12.239100000000001,0.87707999999999997,-5.2416700000000001
211916.0,233.38200000000001,-1234.28,-1204.4000000000001,-1259.6700000000001,95.344800000000006,25.238700000000001,87.536699999999996
211917.0,207.93199999999999,-1750.5599999999999,-1702.1900000000001,-1749.8299999999999,80.626900000000006,27.253699999999998,80.001300000000001
211918.0,187.00999999999999,-2411.8400000000001,-2372.5,-2408.5300000000002,74.264700000000005,30.5867,68.779499999999999
211919.0,190.32900000000001,-2905.3299999999999,-2888.2199999999998,-2899.8000000000002,67.852000000000004,36.052,78.071600000000004
211920.0,181.03299999999999,-3430.54,-3438.02,-3425.5,55.6098,39.741500000000002,78.821100000000001
211921.0,153.76300000000001,-4157.8199999999997,-4171.6000000000004,-4153.6199999999999,41.982799999999997,38.150199999999998,67.635900000000007
211922.0,102.949,-4481.3000000000002,-4484.7200000000003,-4473.9399999999996,19.7486,27.552299999999999,48.511200000000002
211923.0,81.488699999999994,-4532.1099999999997,-4528.3199999999997,-4524.6999999999998,12.303800000000001,21.7072,39.713000000000001
211924.0,63.162199999999999,-4339.2700000000004,-4326.1099999999997,-4332.29,6.31684,15.5046,31.720500000000001
211925.0,51.564500000000002,-3897.6399999999999,-3871.7800000000002,-3891.3499999999999,1.9673799999999999,8.5736399999999993,25.0425
211926.0,49.556399999999996,-3460.7399999999998,-3421.1399999999999,-3454.75,-2.1424300000000001,1.95103,18.8309
211927.0,60.135899999999999,-2905.3400000000001,-2850.3699999999999,-2900.1599999999999,-4.5081800000000003,-4.4156000000000004,15.6355
211928.0,87.242500000000007,-1495.53,-1413.77,-1488.9000000000001,-10.398899999999999,-13.356400000000001,13.723599999999999
211929.0,89.912599999999998,-795.84900000000005,-714.31299999999999,-790.05200000000002,-10.5032,-12.4681,18.954999999999998
211930.0,74.5351,-220.233,-162.86099999999999,-215.02699999999999,-5.2705599999999997,-3.4089200000000002,28.386500000000002
211931.0,60.9833,22.9419,48.4863,28.804500000000001,0.35084900000000002,7.2522399999999996,31.747299999999999
211932.0,55.3369,-17.095300000000002,-12.2904,-13.9825,5.0580999999999996,13.209300000000001,28.543199999999999
211933.0,60.285400000000003,-132.315,-141.28899999999999,-133.04400000000001,8.0965500000000006,17.793900000000001,28.362400000000001
211934.0,65.895099999999999,-429.05200000000002,-446.43099999999998,-439.00599999999997,8.3320399999999992,24.063400000000001,26.886299999999999
211935.0,65.661100000000005,-531.09900000000005,-544.73000000000002,-541.96699999999998,9.0169999999999995,23.895299999999999,27.072199999999999
211936.0,65.268600000000006,-556.00599999999997,-565.279,-568.26300000000003,10.025,22.4513,27.831399999999999
211937.0,66.895200000000003,-478.25799999999998,-480.64100000000002,-492.608,12.226800000000001,19.2256,30.2225
211938.0,68.724299999999999,-290.517,-286.94200000000001,-305.19400000000002,13.3339,15.950100000000001,32.381799999999998
211939.0,336.77699999999999,-1064.24,-1198.5699999999999,-1175.8399999999999,109.68000000000001,49.415799999999997,134.78
211940.0,263.18700000000001,522.36099999999999,573.33100000000002,534.75400000000002,110.47499999999999,17.198699999999999,99.408199999999994
211941.0,109.965,4450.8299999999999,4443.5799999999999,4449.25,27.884799999999998,26.958500000000001,50.119
211942.0,97.971500000000006,1230.02,1313.03,1220.46,-0.67387600000000003,-24.630199999999999,0.41188799999999998
211943.0,67.165999999999997,383.04899999999998,348.60199999999998,364.88999999999999,9.3256099999999993,24.386299999999999,22.916599999999999
211944.0,64.0017,587.74000000000001,572.93799999999999,568.22500000000002,12.3832,20.802800000000001,25.9925
211945.0,80.838399999999993,-602.85799999999995,-532.84400000000005,-608.10900000000004,-7.9265499999999998,-18.663900000000002,1.17164
211946.0,65.972999999999999,4147.6700000000001,4151.8599999999997,4142.6199999999999,14.6976,15.221399999999999,31.331700000000001
211947.0,214.90299999999999,2213.3600000000001,2257.0599999999999,2214.79,83.666499999999999,31.396899999999999,82.415400000000005
211948.0,242.88800000000001,1556.3299999999999,1613.22,1557.9000000000001,98.4011,25.606000000000002,90.974500000000006
211949.0,197.77699999999999,2614.5700000000002,2633.1799999999998,2620.6199999999999,74.5916,36.240900000000003,77.917599999999993
211950.0,190.48699999999999,3479.3299999999999,3474.3699999999999,3481.7600000000002,66.587800000000001,38.152799999999999,78.685400000000001
211951.0,165.36000000000001,3989.5999999999999,3978.4299999999998,3988.96,51.9955,36.229300000000002,71.127700000000004
211952.0,135.68700000000001,4194.9899999999998,4185.1400000000003,4194.1099999999997,38.061,32.030200000000001,60.271900000000002
211953.0,117.09999999999999,-4202.5,-4212.3699999999999,-4203.5299999999997,29.482600000000001,31.188300000000002,51.956800000000001
211954.0,86.831800000000001,4440.7799999999997,4438.3000000000002,4437.8199999999997,20.302199999999999,21.3703,40.520000000000003
211955.0,49.574100000000001,3923.96,3939.3600000000001,3916.4699999999998,10.5063,7.7485999999999997,22.641400000000001
211956.0,44.470799999999997,3457.2199999999998,3484.0300000000002,3447.6799999999998,7.8347300000000004,0.52067300000000005,15.572699999999999
211957.0,55.0655,2807.4200000000001,2851.5300000000002,2796.3499999999999,4.9283799999999998,-8.2194199999999995,8.1652900000000006
211958.0,73.412199999999999,2073.6599999999999,2135.2199999999998,2063.1700000000001,3.22994,-15.8528,4.4238799999999996
211959.0,78.611400000000003,-1820.75,-1754.1400000000001,-1832.6600000000001,-0.94371099999999997,-16.362400000000001,-0.453403
211960.0,109.583,261.25900000000001,353.43599999999998,252.059,-6.3996700000000004,-28.462299999999999,-2.9456099999999998
211961.0,33.494900000000001,-949.35500000000002,-926.98199999999997,-951.72500000000002,-3.9251200000000002,1.86463,12.9879
211962.0,53.976100000000002,-747.83000000000004,-767.64700000000005,-753.01900000000001,1.3352599999999999,18.8659,22.5352
211963.0,71.002600000000001,-298.75999999999999,-336.20100000000002,-308.42899999999997,5.5146699999999997,25.0383,25.4039
211964.0,68.992000000000004,98.4953,60.809100000000001,83.682000000000002,7.4822800000000003,24.896599999999999,23.459099999999999
211965.0,65.811899999999994,-201.46799999999999,-236.77500000000001,-213.49199999999999,7.51309,23.9892,22.126799999999999
211966.0,65.016199999999998,549.63900000000001,522.88699999999994,530.20699999999999,10.912699999999999,23.009399999999999,23.861599999999999
211967.0,67.588200000000001,509.28500000000003,507.05799999999999,488.95699999999999,13.991099999999999,18.309699999999999,29.452100000000002
211968.0,73.311499999999995,318.92500000000001,323.76999999999998,298.46699999999998,15.1991,16.562799999999999,33.253799999999998
211969.0,74.525599999999997,40.858800000000002,48.4923,21.826899999999998,14.6698,15.8385,34.593400000000003
211970.0,63.739800000000002,-11.7463,-73.427599999999998,-19.9465,-11.956,-9.4126399999999997,0.83716100000000004
211971.0,234.995,-1175.9100000000001,-1144.3099999999999,-1198.24,97.966200000000001,23.790500000000002,86.659300000000002
211972.0,206.88900000000001,-2011.1300000000001,-1962.99,-2012.9300000000001,80.646600000000007,27.082799999999999,78.916300000000007
211973.0,188.46000000000001,-2315.1700000000001,-2277.27,-2312.1100000000001,72.213499999999996,30.811900000000001,72.329099999999997
211974.0,184.899,-2888.5799999999999,-2876.6500000000001,-2885.6999999999998,65.180400000000006,35.343800000000002,76.546599999999998
211975.0,168.22900000000001,-3678.71,-3688.02,-3680.1100000000001,53.283999999999999,38.048900000000003,71.565100000000001
211976.0,141.89599999999999,-3969.98,-3982.6300000000001,-3972.23,40.101300000000002,35.785499999999999,61.459400000000002
211977.0,94.492500000000007,-4398.8100000000004,-4404.7799999999997,-4399.96,21.4803,26.074300000000001,42.719700000000003
211978.0,73.402600000000007,-4220.1599999999999,-4220.5799999999999,-4222.4200000000001,15.48,20.451000000000001,33.714399999999998
211979.0,54.381700000000002,-3990.3499999999999,-3983.3800000000001,-3994.5599999999999,10.9292,14.342000000000001,25.0749
211980.0,42.0473,-3731.5300000000002,-3713.1999999999998,-3738.3299999999999,8.0478699999999996,7.0581300000000002,17.4876
211981.0,40.762099999999997,-3198.0100000000002,-3166.8800000000001,-3206.9099999999999,4.6617100000000002,-0.32435700000000001,9.4994499999999995
211982.0,56.907400000000003,-2544.4699999999998,-2496.9299999999998,-2555.9499999999998,3.00698,-8.4226600000000005,4.5042099999999996
211983.0,104.634,-964.65599999999995,-876.82500000000005,-977.54600000000005,-5.1330799999999996,-24.646599999999999,-3.3742100000000002
211984.0,105.84099999999999,51.537399999999998,140.30799999999999,37.054699999999997,-2.20295,-24.394200000000001,2.99594
211985.0,72.345399999999998,833.61699999999996,889.87900000000002,822.80799999999999,4.7698600000000004,-9.9763099999999998,18.0428
211986.0,54.363799999999998,993.27999999999997,1000.8200000000001,986.76199999999994,7.9457599999999999,9.6248799999999992,27.926400000000001
211987.0,67.111400000000003,646.33100000000002,619.18399999999997,640.66300000000001,7.2839099999999997,21.666699999999999,27.816099999999999
211988.0,67.853499999999997,159.83500000000001,124.004,152.851,6.0829899999999997,24.004799999999999,23.678599999999999
211989.0,63.444699999999997,-450.108,-480.91500000000002,-465.57100000000003,8.4862699999999993,23.5641,21.8447
211990.0,60.383699999999997,-590.08399999999995,-611.85799999999995,-607.423,9.1971900000000009,22.1067,22.576599999999999
211991.0,60.372799999999998,-612.32500000000005,-622.48500000000001,-630.47699999999998,10.1899,19.955500000000001,25.102499999999999
211992.0,66.506799999999998,-520.18799999999999,-521.03099999999995,-539.42499999999995,12.4293,17.776800000000001,29.7607
211993.0,71.3322,-324.67399999999998,-318.91000000000003,-343.38,13.755000000000001,15.511799999999999,33.2057
211994.0,353.39299999999997,-953.60799999999995,-1104.3599999999999,-1068.8699999999999,124.10599999999999,46.254399999999997,133.697
211995.0,265.29599999999999,774.56899999999996,822.72699999999998,788.12599999999998,114.812,15.985799999999999,96.988200000000006
211996.0,105.246,4203.8599999999997,4193.2299999999996,4194.6800000000003,29.405899999999999,26.606300000000001,45.677100000000003
211997.0,107.127,1187.5,1267.1800000000001,1164.3800000000001,3.4063400000000001,-29.015899999999998,-7.9473000000000003
211998.0,74.782799999999995,418.19499999999999,361.53699999999998,394.96800000000002,5.1443300000000001,25.340299999999999,19.605499999999999
211999.0,57.650700000000001,825.90599999999995,799.49199999999996,795.95399999999995,12.8484,16.086099999999998,20.399100000000001
212000.0,83.909599999999998,-701.19200000000001,-644.27499999999998,-723.54700000000003,-0.312388,-24.059999999999999,-9.8687900000000006
212001.0,66.668300000000002,4138.4200000000001,4136.1700000000001,4125.8000000000002,18.479299999999999,16.532299999999999,28.660799999999998
212002.0,212.75800000000001,2088.3000000000002,2125.8000000000002,2088.5100000000002,86.049400000000006,29.8812,79.531199999999998
212003.0,240.31899999999999,1394.3299999999999,1449.03,1395.45,99.837900000000005,24.612500000000001,87.752700000000004
212004.0,196.20500000000001,2892.5999999999999,2904.52,2891.6700000000001,77.361599999999996,35.149500000000003,74.568299999999994
212005.0,182.73699999999999,3266.4699999999998,3259.1199999999999,3260.7600000000002,66.546599999999998,37.2271,72.813299999999998
212006.0,154.75200000000001,3776.54,3764.46,3768.8600000000001,50.985799999999998,34.7502,64.328800000000001
212007.0,127.922,4197.6700000000001,4185.6400000000003,4189.5799999999999,38.340200000000003,30.899000000000001,54.702199999999998
212008.0,111.246,-4120.9099999999999,-4132.5200000000004,-4128.6899999999996,30.315100000000001,30.044599999999999,47.629399999999997
212009.0,84.914299999999997,4168.7700000000004,4161.2799999999997,4158.0600000000004,23.090800000000002,21.8004,36.943899999999999
212010.0,51.370600000000003,3767.3299999999999,3775.1500000000001,3752.2399999999998,15.1227,9.6902299999999997,20.529900000000001
212011.0,45.315199999999997,3357.9699999999998,3376.1900000000001,3340.3499999999999,13.010899999999999,2.68147,13.670999999999999
212012.0,54.243200000000002,2845.5999999999999,2881.5,2825.8099999999999,10.1656,-7.0583999999999998,5.5334399999999997
212013.0,76.314899999999994,2118.52,2174.0700000000002,2097.4299999999998,8.3095199999999991,-17.4588,0.078907500000000005
212014.0,83.246499999999997,-1817.6800000000001,-1754.5699999999999,-1837.29,1.5888,-19.559000000000001,-7.5156599999999996
212015.0,117.992,142.048,228.02099999999999,117.934,-1.2247699999999999,-33.140300000000003,-13.866099999999999
212016.0,28.579999999999998,-1112.95,-1100.1900000000001,-1129.1199999999999,3.4662099999999998,-6.9765699999999997,1.1925699999999999
212017.0,32.668300000000002,-1053.8699999999999,-1076.76,-1065.8199999999999,3.42794,9.9387699999999999,10.6807
212018.0,64.453000000000003,-617.88,-665.64800000000002,-632.62900000000002,2.5743999999999998,21.688600000000001,17.591200000000001
212019.0,75.913600000000002,-58.033000000000001,-115.494,-76.412400000000005,2.7210399999999999,25.822399999999998,19.636900000000001
212020.0,75.989400000000003,-15.614000000000001,-72.225200000000001,-33.427100000000003,4.0267900000000001,26.357399999999998,19.389900000000001
212021.0,66.176599999999993,733.60599999999999,687.84500000000003,705.928,8.91953,21.7302,19.411999999999999
212022.0,59.398400000000002,681.36500000000001,677.99699999999996,652.46100000000001,16.1465,10.413600000000001,23.602799999999998
212023.0,66.079800000000006,379.93900000000002,388.97500000000002,351.22300000000001,15.8591,8.6153999999999993,27.224799999999998
212024.0,68.174300000000002,65.055499999999995,72.166300000000007,37.591099999999997,13.984500000000001,10.5486,30.149999999999999
212025.0,70.139499999999998,52.093299999999999,-3.04555,37.662999999999997,-10.206200000000001,-25.855,7.0416600000000003
212026.0,233.67500000000001,-1243.3800000000001,-1211.2,-1266.53,99.787700000000001,22.3828,83.491
212027.0,205.29400000000001,-1737.6199999999999,-1692.0599999999999,-1741.52,82.617099999999994,25.750499999999999,76.180899999999994
212028.0,186.69399999999999,-2467.5599999999999,-2436.4099999999999,-2468.3099999999999,73.994200000000006,29.537299999999998,70.279399999999995
212029.0,178.06399999999999,-2977.98,-2970.6999999999998,-2981.23,65.049599999999998,34.693300000000001,71.447800000000001
212030.0,158.38300000000001,-3348.5999999999999,-3358.4299999999998,-3355.6900000000001,51.990600000000001,36.816400000000002,65.403099999999995
212031.0,133.422,-3895.6100000000001,-3908.4899999999998,-3903.8400000000001,39.841700000000003,34.062800000000003,56.068399999999997
212032.0,91.165000000000006,-4061.9400000000001,-4071.5100000000002,-4070.0900000000001,23.5229,25.551600000000001,39.210700000000003
212033.0,72.559100000000001,-4100.6199999999999,-4106.3900000000003,-4109.8299999999999,18.4864,20.672599999999999,31.051400000000001
212034.0,55.359400000000001,-3931.4000000000001,-3931.52,-3942.2800000000002,14.610200000000001,15.307399999999999,23.1252
212035.0,42.732100000000003,-3534.0999999999999,-3524.3400000000001,-3547.54,12.212400000000001,8.46448,15.8819
212036.0,38.019199999999998,-3138.23,-3116.5799999999999,-3153.8099999999999,8.7320899999999995,0.92355900000000002,7.4204100000000004
212037.0,54.1051,-2590.5100000000002,-2551.6300000000001,-2608.96,6.8545199999999999,-8.4403400000000008,1.0341499999999999
212038.0,114.58799999999999,-841.14200000000005,-754.827,-864.06500000000005,-0.35997899999999999,-29.8429,-12.9618
212039.0,110.137,221.97300000000001,302.84800000000001,195.876,5.9720599999999999,-29.208200000000001,-6.61869
212040.0,71.506900000000002,1006.6900000000001,1050.46,980.79200000000003,13.0746,-16.146100000000001,5.7063300000000003
212041.0,41.770499999999998,1287.55,1291.26,1266.3299999999999,12.9185,1.2658799999999999,15.2347
212042.0,56.268599999999999,1090.75,1060.1900000000001,1071.71,9.32681,16.727900000000002,21.2197
212043.0,72.605699999999999,554.49599999999998,503.15600000000001,535.63099999999997,5.3791099999999998,24.625499999999999,21.153400000000001
212044.0,68.868099999999998,-470.07100000000003,-521.71400000000006,-490.99200000000002,5.0043600000000001,24.459900000000001,16.817499999999999
212045.0,56.308900000000001,-749.74599999999998,-786.93200000000002,-774.99099999999999,7.1579699999999997,20.1282,15.4938
212046.0,49.3523,-796.25999999999999,-813.21400000000006,-824.85000000000002,9.9663799999999991,14.5669,17.136099999999999
212047.0,58.529499999999999,-625.11699999999996,-623.02099999999996,-654.84199999999998,13.1806,10.1751,23.4069
212048.0,69.807299999999998,-328.10199999999998,-322.19099999999997,-359.411,15.242000000000001,9.9317600000000006,29.888100000000001
212049.0,367.46300000000002,-1119.8,-1285.46,-1236.3900000000001,137.261,42.658799999999999,130.79900000000001
212050.0,266.95699999999999,560.54100000000005,606.84699999999998,574.91700000000003,118.369,15.6335,94.540599999999998
212051.0,103.01300000000001,4102.8500000000004,4089.0700000000002,4087.6399999999999,30.9649,26.514099999999999,42.483899999999998
212052.0,94.4649,1484.5,1547.3599999999999,1454.5,7.1360900000000003,-24.5642,-8.6280099999999997
212053.0,85.260000000000005,452.04199999999997,377.03100000000001,423.76999999999998,1.92313,27.562899999999999,14.987299999999999
212054.0,59.082500000000003,1197.6199999999999,1160.5699999999999,1167.4100000000001,10.998100000000001,17.014700000000001,19.088200000000001
212055.0,73.769599999999997,-218.988,-185.92500000000001,-254.14099999999999,6.9681100000000002,-20.260400000000001,-13.8277
212056.0,70.0809,3889.8899999999999,3882.6999999999998,3873.0700000000002,21.082899999999999,18.107800000000001,28.169499999999999
212057.0,211.53200000000001,2182.1500000000001,2219.23,2178.9699999999998,90.783199999999994,30.299700000000001,72.486999999999995
212058.0,239.06200000000001,1555.51,1611.1800000000001,1555.27,104.935,23.546199999999999,80.291700000000006
212059.0,195.839,2562.5300000000002,2572.0,2555.23,79.150199999999998,35.8825,71.842299999999994
212060.0,177.02699999999999,3373.9899999999998,3365.4400000000001,3362.0100000000002,66.070999999999998,36.464300000000001,68.652199999999993
212061.0,146.33199999999999,3769.6700000000001,3757.2600000000002,3755.9699999999998,50.264600000000002,33.446399999999997,58.610900000000001
212062.0,122.374,3878.3600000000001,3864.52,3863.9299999999998,38.774299999999997,30.138200000000001,50.1325
212063.0,107.574,-3865.9099999999999,-3879.5500000000002,-3879.5799999999999,31.421800000000001,29.1418,44.256399999999999
212064.0,85.790400000000005,4115.3400000000001,4103.8400000000001,4099.4200000000001,25.3155,22.544899999999998,35.165900000000001
212065.0,55.650599999999997,3772.1799999999998,3774.04,3754.1500000000001,17.734999999999999,12.0831,21.2409
212066.0,47.428199999999997,3436.5300000000002,3447.6599999999999,3416.5799999999999,15.288399999999999,5.7341600000000001,15.337999999999999
212067.0,49.627499999999998,2921.0799999999999,2947.8299999999999,2898.8099999999999,12.0891,-3.3434599999999999,7.8189399999999996
212068.0,67.900400000000005,2295.1700000000001,2338.2800000000002,2268.5100000000002,10.732699999999999,-13.422000000000001,1.4208400000000001
212069.0,71.940899999999999,-2026.95,-1975.51,-2048.4499999999998,4.2483199999999997,-16.0548,-6.6758600000000001
212070.0,102.41200000000001,546.36199999999997,610.98500000000001,514.79200000000003,4.8969899999999997,-28.546199999999999,-15.902200000000001
212071.0,42.923699999999997,-529.56299999999999,-533.52599999999995,-564.553,12.393599999999999,-8.6345299999999998,-4.3448399999999996
212072.0,30.036000000000001,-568.78399999999999,-588.596,-596.26400000000001,9.90442,-1.16631,0.425846
212073.0,36.802100000000003,-463.06,-499.23899999999998,-486.06700000000001,4.0193199999999996,8.8324800000000003,4.6908700000000003
212074.0,66.710899999999995,-98.933800000000005,-159.65100000000001,-123.58499999999999,1.1217200000000001,20.855399999999999,10.7117
212075.0,80.165199999999999,132.48400000000001,65.154399999999995,101.55800000000001,5.9090100000000003,25.868400000000001,17.3855
212076.0,79.228099999999998,952.34199999999998,886.65899999999999,922.53800000000001,6.2143600000000001,25.747499999999999,17.583100000000002
212077.0,57.783200000000001,1106.47,1104.9100000000001,1077.5599999999999,17.3249,5.8336199999999998,22.679500000000001
212078.0,67.705200000000005,666.55600000000004,690.94100000000003,641.524,18.459700000000002,-0.46441100000000002,24.010100000000001
212079.0,65.674499999999995,141.07900000000001,162.364,114.336,14.8589,2.8431500000000001,25.093800000000002
212080.0,74.421999999999997,97.203100000000006,58.025500000000001,95.4208,-6.6397700000000004,-35.450299999999999,7.4825200000000001
212081.0,233.13,-1178.77,-1145.5999999999999,-1203.6900000000001,101.72199999999999,21.4527,80.372200000000007
212082.0,203.69800000000001,-1970.05,-1920.79,-1975.9000000000001,87.085400000000007,25.259399999999999,68.502200000000002
212083.0,187.62700000000001,-2242.9699999999998,-2210.48,-2249.0100000000002,76.884699999999995,30.4985,66.811099999999996
212084.0,174.887,-2817.73,-2811.9200000000001,-2825.75,64.900400000000005,35.316000000000003,68.466099999999997
212085.0,150.446,-3533.9299999999998,-3544.3800000000001,-3545.9099999999999,50.954300000000003,35.742100000000001,60.235399999999998
212086.0,126.684,-3702.48,-3715.5799999999999,-3716.3200000000002,39.633699999999997,32.579799999999999,51.543700000000001
212087.0,90.620900000000006,-4053.8499999999999,-4066.54,-4067.5799999999999,25.4465,25.501300000000001,37.1633
212088.0,74.771500000000003,-3914.46,-3924.4200000000001,-3928.4699999999998,20.845700000000001,21.448899999999998,30.282699999999998
212089.0,59.642200000000003,-3765.0599999999999,-3770.29,-3779.5700000000002,17.0303,16.889700000000001,23.5886
212090.0,46.898499999999999,-3618.8499999999999,-3615.0999999999999,-3634.48,14.279400000000001,10.833299999999999,17.4971
212091.0,37.499600000000001,-3213.3400000000001,-3198.6100000000001,-3230.0,10.315099999999999,3.9162699999999999,10.0181
212092.0,46.424199999999999,-2677.9499999999998,-2647.7800000000002,-2696.8800000000001,8.2112999999999996,-4.9931999999999999,3.5803500000000001
212093.0,99.073599999999999,-1154.8299999999999,-1085.49,-1180.05,4.8580800000000002,-25.810199999999998,-13.581099999999999
212094.0,94.684100000000001,-166.84,-106.85599999999999,-197.137,11.934900000000001,-25.390999999999998,-9.4908999999999999
212095.0,64.630300000000005,518.95799999999997,539.05100000000004,482.233,19.201000000000001,-13.906499999999999,-0.42691299999999999
212096.0,44.326099999999997,703.52200000000005,697.55200000000002,668.03499999999997,16.291399999999999,-4.5393499999999998,2.8065500000000001
212097.0,37.657400000000003,716.60299999999995,696.45699999999999,684.64700000000005,11.6373,3.6263200000000002,7.9384199999999998
212098.0,56.5623,582.48800000000006,538.60599999999999,550.52599999999995,9.2304499999999994,15.5771,14.957000000000001
212099.0,85.275300000000001,-463.298,-536.07299999999998,-492.10199999999998,3.2275399999999999,28.965,15.210100000000001
212100.0,65.444800000000001,-968.53099999999995,-1022.29,-995.60500000000002,2.5974599999999999,23.342199999999998,12.3902
212101.0,42.839799999999997,-1177.5,-1201.3,-1205.8499999999999,5.8712499999999999,13.361800000000001,12.917999999999999
212102.0,51.807099999999998,-1027.21,-1016.51,-1056.4100000000001,12.076000000000001,2.6356899999999999,17.7591
212103.0,71.753500000000003,-522.50199999999995,-499.31700000000001,-552.35500000000002,17.4377,1.0281,26.5352
212104.0,378.78300000000002,-1012.79,-1191.8699999999999,-1128.1700000000001,151.55099999999999,38.7547,122.94799999999999
212105.0,267.577,855.72500000000002,900.44000000000005,871.71699999999998,121.678,15.7761,91.093100000000007
212106.0,101.77800000000001,3883.79,3867.8200000000002,3863.6700000000001,32.199800000000003,26.379999999999999,40.090899999999998
212107.0,67.575000000000003,1907.05,1939.6600000000001,1870.95,11.9155,-13.391,-4.4302900000000003
212108.0,74.597200000000001,701.55899999999997,633.13599999999997,675.39200000000005,2.6616300000000002,23.386299999999999,10.436
212109.0,56.1751,1402.77,1370.23,1381.74,9.0243699999999993,16.353400000000001,20.753399999999999
212110.0,55.647199999999998,700.28700000000003,709.68899999999996,662.178,12.75,-11.306699999999999,-10.430199999999999
212111.0,73.343999999999994,3925.5,3914.0300000000002,3904.8600000000001,23.168800000000001,19.2193,27.927499999999998
212112.0,209.303,1953.74,1997.28,1950.73,89.361800000000002,31.605399999999999,70.281300000000002
212113.0,238.07499999999999,1387.5,1448.72,1385.78,103.438,23.533999999999999,79.717799999999997
212114.0,193.167,2765.8800000000001,2774.98,2754.8000000000002,79.505200000000002,36.234000000000002,68.568799999999996
212115.0,171.94499999999999,3114.6500000000001,3104.9000000000001,3097.2600000000002,65.885800000000003,35.711300000000001,64.519999999999996
212116.0,140.14099999999999,3531.1999999999998,3518.52,3511.9299999999998,49.513500000000001,32.4621,54.270299999999999
212117.0,118.404,3889.0100000000002,3873.8400000000001,3869.25,39.1389,29.4255,46.567
212118.0,105.33,-3804.52,-3819.3899999999999,-3823.1300000000001,32.4193,28.469000000000001,41.709699999999998
212119.0,87.131399999999999,3883.2399999999998,3868.48,3862.8600000000001,27.174399999999999,23.062999999999999,33.905000000000001
212120.0,59.941499999999998,3656.9000000000001,3652.4699999999998,3635.5,19.888000000000002,14.023300000000001,21.862400000000001
212121.0,50.496400000000001,3379.54,3382.0300000000002,3356.2399999999998,17.354700000000001,8.5906300000000009,16.5105
212122.0,46.172699999999999,3034.6300000000001,3048.0599999999999,3008.8200000000002,14.5662,1.51678,9.9202100000000009
212123.0,53.9925,2531.25,2554.0599999999999,2500.0700000000002,13.7499,-5.7143699999999997,3.93709
212124.0,51.5642,-2298.2199999999998,-2268.3099999999999,-2322.73,9.3763900000000007,-7.2917399999999999,-1.5254000000000001
212125.0,71.968400000000003,1238.55,1269.49,1200.3800000000001,11.674099999999999,-16.640499999999999,-10.7187
212126.0,46.152500000000003,443.31599999999997,426.57900000000001,402.68200000000002,16.328199999999999,-3.9474200000000002,-3.28267
212127.0,42.261499999999998,372.62299999999999,348.45600000000002,333.39999999999998,14.076000000000001,-2.1334300000000002,-1.0643100000000001
212128.0,34.035499999999999,325.166,296.53399999999999,293.09500000000003,8.6057100000000002,1.3547100000000001,-0.46779399999999999
212129.0,47.579099999999997,390.28300000000002,342.24599999999998,362.86900000000003,3.8405399999999998,12.113799999999999,3.5146999999999999
212130.0,66.095600000000005,-260.11700000000002,-317.17500000000001,-294.75299999999999,9.5772099999999991,18.600000000000001,13.8629
212131.0,77.736900000000006,1157.2,1092.8499999999999,1132.6400000000001,5.5535199999999998,25.061,17.353000000000002
212132.0,55.881,1280.9400000000001,1286.29,1262.1700000000001,15.610300000000001,4.6768000000000001,24.797499999999999
212133.0,72.415199999999999,823.05399999999997,858.57899999999995,809.31299999999999,19.935199999999998,-4.0661300000000002,26.224299999999999
212134.0,73.568799999999996,187.03899999999999,232.12200000000001,177.20699999999999,17.484999999999999,-4.5092299999999996,24.9115
212135.0,69.756,78.529499999999999,51.027500000000003,92.286600000000007,-1.89845,-34.180999999999997,2.94943
212136.0,233.40199999999999,-1292.24,-1256.98,-1317.21,102.904,20.741800000000001,78.889700000000005
212137.0,202.15799999999999,-1597.55,-1538.78,-1603.76,85.307000000000002,26.127099999999999,66.156800000000004
212138.0,187.24600000000001,-2248.8699999999999,-2209.77,-2256.54,76.447800000000001,31.6844,64.881
212139.0,170.97999999999999,-2829.04,-2824.96,-2842.8299999999999,65.186400000000006,35.269100000000002,64.527799999999999
212140.0,144.624,-3164.4000000000001,-3175.23,-3181.5500000000002,49.979500000000002,35.025700000000001,56.320599999999999
212141.0,121.78700000000001,-3619.71,-3633.1599999999999,-3638.2399999999998,39.548200000000001,31.367599999999999,48.003900000000002
212142.0,90.953999999999994,-3752.1100000000001,-3767.02,-3770.48,27.1524,25.465399999999999,35.727600000000002
212143.0,77.499499999999998,-3839.0700000000002,-3852.0900000000001,-3857.1999999999998,22.951799999999999,22.180800000000001,29.9316
212144.0,64.253500000000003,-3750.8899999999999,-3759.9400000000001,-3768.8200000000002,19.285,18.340599999999998,24.238499999999998
212145.0,52.154699999999998,-3461.4299999999998,-3463.1599999999999,-3479.9000000000001,16.4619,13.2056,18.900200000000002
212146.0,41.127200000000002,-3203.04,-3196.21,-3222.3699999999999,12.948,7.4668200000000002,12.502000000000001
212147.0,40.9236,-2832.1900000000001,-2814.5599999999999,-2853.5599999999999,11.4278,0.58904599999999996,6.7682799999999999
212148.0,66.599500000000006,-1649.53,-1611.77,-1677.7,11.053800000000001,-14.1652,-7.8364000000000003
212149.0,66.472700000000003,-979.851,-950.20600000000002,-1011.74,15.9734,-14.8531,-7.07341
212150.0,52.326599999999999,-476.834,-476.29899999999998,-513.54100000000005,20.131900000000002,-7.1770699999999996,-0.32948499999999997
212151.0,45.234900000000003,-314.36000000000001,-331.899,-354.221,16.6035,-2.6793499999999999,0.28774
212152.0,39.883499999999998,-256.60599999999999,-277.68000000000001,-294.67000000000002,12.8195,-1.0832900000000001,1.0586199999999999
212153.0,42.151800000000001,-172.381,-204.04599999999999,-206.84999999999999,11.6419,5.9439799999999998,7.4131200000000002
212154.0,82.8536,-664.29100000000005,-736.25300000000004,-697.03300000000002,4.5730000000000004,26.909099999999999,15.6549
212155.0,65.753600000000006,-1177.73,-1231.5899999999999,-1204.77,0.34857399999999999,22.9207,13.804399999999999
212156.0,40.114899999999999,-1380.25,-1399.8599999999999,-1402.1700000000001,2.9603100000000002,12.5647,14.991199999999999
212157.0,48.750300000000003,-1209.3199999999999,-1191.5,-1227.74,10.701499999999999,0.78814700000000004,18.672599999999999
212158.0,73.240300000000005,-705.13400000000001,-662.35299999999995,-718.86500000000001,17.199200000000001,-5.3823999999999996,24.382999999999999
212159.0,387.55000000000001,-1075.4000000000001,-1265.6300000000001,-1190.8399999999999,164.559,35.444299999999998,112.0
212160.0,265.69400000000002,556.74099999999999,599.827,576.14099999999996,124.28700000000001,15.9499,85.812600000000003
212161.0,101.15000000000001,3785.6599999999999,3767.3400000000001,3760.8000000000002,33.417700000000004,26.095400000000001,38.0364
212162.0,55.795499999999997,2470.8200000000002,2466.23,2424.3000000000002,19.472300000000001,-0.191999,-1.1593199999999999
212163.0,58.120800000000003,1497.9000000000001,1442.02,1461.75,9.6693899999999999,14.2643,5.0768199999999997
212164.0,48.815899999999999,1567.5599999999999,1545.1500000000001,1542.3900000000001,12.616300000000001,10.3939,18.3446
212165.0,58.427799999999998,1789.0999999999999,1768.8199999999999,1738.4000000000001,20.9803,-1.1145700000000001,-6.7334100000000001
212166.0,77.479699999999994,3684.5300000000002,3667.04,3658.1799999999998,25.994399999999999,20.275700000000001,27.099699999999999
212167.0,202.34100000000001,2095.1799999999998,2137.9200000000001,2092.2199999999998,86.668999999999997,29.092600000000001,68.083500000000001
212168.0,234.66200000000001,1551.51,1611.0599999999999,1549.05,102.39100000000001,21.5687,78.569900000000004
212169.0,186.375,2382.9200000000001,2392.98,2369.2800000000002,77.002399999999994,35.525100000000002,65.158299999999997
212170.0,166.376,3141.9699999999998,3132.0999999999999,3120.5700000000002,64.467299999999994,35.174999999999997,60.983499999999999
212171.0,135.24799999999999,3488.4400000000001,3475.0700000000002,3465.0300000000002,48.671799999999998,31.3292,51.077500000000001
212172.0,115.367,3559.7600000000002,3543.4899999999998,3535.4299999999998,39.2958,28.662500000000001,43.7864
212173.0,103.857,-3546.8800000000001,-3562.8699999999999,-3569.79,33.387700000000002,27.7744,39.6387
212174.0,88.876400000000004,3837.73,3819.02,3812.3000000000002,29.2331,23.373999999999999,32.533799999999999
212175.0,66.533299999999997,3671.7199999999998,3657.5700000000002,3643.5900000000001,23.484500000000001,16.2775,21.474499999999999
212176.0,58.251600000000003,3482.3899999999999,3471.3299999999999,3451.1100000000001,21.645900000000001,12.1478,16.2272
212177.0,52.162100000000002,3170.6399999999999,3164.25,3135.5999999999999,19.941700000000001,7.3986200000000002,10.3094
212178.0,52.6858,2838.6199999999999,2833.8800000000001,2797.54,19.6692,3.2329699999999999,4.7722199999999999
212179.0,47.252899999999997,-2661.9899999999998,-2661.54,-2697.0100000000002,17.785299999999999,3.0608399999999998,2.1067499999999999
212180.0,59.249600000000001,2102.8899999999999,2093.1599999999999,2052.6500000000001,20.6494,-1.8677900000000001,-5.5067899999999996
212181.0,58.365000000000002,1588.9200000000001,1556.3599999999999,1537.0599999999999,20.656300000000002,1.22438,-4.4957599999999998
212182.0,57.476399999999998,1460.1600000000001,1420.23,1407.8099999999999,18.191400000000002,3.2882600000000002,-3.3388499999999999
212183.0,55.759799999999998,1406.6800000000001,1361.5799999999999,1356.8099999999999,15.6724,5.2512400000000001,-2.4368799999999999
212184.0,54.161799999999999,1422.3,1371.6600000000001,1379.1700000000001,12.268700000000001,8.9593500000000006,-0.42761500000000002
212185.0,58.3217,-1346.5799999999999,-1400.3499999999999,-1390.24,12.6365,11.238200000000001,5.57944
212186.0,57.976599999999998,1594.25,1545.3199999999999,1562.5999999999999,10.001099999999999,15.6304,12.662100000000001
212187.0,58.005200000000002,1308.6500000000001,1319.9300000000001,1290.95,18.821400000000001,2.2136300000000002,23.4315
212188.0,75.941299999999998,800.60799999999995,837.55100000000004,788.755,24.244700000000002,-4.3330900000000003,25.847200000000001
212189.0,84.815799999999996,156.46700000000001,210.43700000000001,149.27600000000001,24.583600000000001,-8.6877499999999994,24.505500000000001
212190.0,61.950899999999997,48.279400000000003,16.8887,59.104500000000002,0.82000399999999996,-28.221800000000002,-1.17357
212191.0,233.673,-1174.4000000000001,-1137.3900000000001,-1198.53,104.389,19.6328,77.266900000000007
212192.0,196.358,-1922.8699999999999,-1865.45,-1928.73,83.355900000000005,23.947199999999999,64.095399999999998
212193.0,178.90700000000001,-2081.5,-2040.3,-2089.5799999999999,72.397000000000006,29.925699999999999,61.915999999999997
212194.0,165.69300000000001,-2588.5599999999999,-2582.3200000000002,-2606.8699999999999,63.721299999999999,34.768000000000001,60.9876
212195.0,140.08699999999999,-3279.4699999999998,-3291.23,-3301.5300000000002,49.186300000000003,34.105400000000003,53.2652
212196.0,118.34999999999999,-3405.0100000000002,-3418.5,-3427.6999999999998,39.439,30.424099999999999,45.360999999999997
212197.0,91.917199999999994,-3750.3200000000002,-3767.3800000000001,-3773.2199999999998,29.0791,25.421900000000001,34.393300000000004
212198.0,80.809299999999993,-3659.8600000000001,-3676.48,-3682.8200000000002,25.6432,22.851800000000001,29.262499999999999
212199.0,70.003,-3589.4099999999999,-3604.0900000000001,-3612.7800000000002,22.7742,19.849,24.110700000000001
212200.0,60.016800000000003,-3554.0999999999999,-3564.9299999999998,-3578.9699999999998,20.673300000000001,15.9945,19.027699999999999
212201.0,50.860700000000001,-3304.9299999999998,-3311.4099999999999,-3332.0500000000002,18.549600000000002,11.8391,13.316599999999999
212202.0,46.895699999999998,-2988.8299999999999,-2990.7600000000002,-3019.27,17.994800000000001,7.33683,8.0557099999999995
212203.0,51.866399999999999,-2298.4499999999998,-2300.3899999999999,-2338.1599999999999,19.726500000000001,-0.12623599999999999,-2.5344500000000001
212204.0,55.3748,-1938.3099999999999,-1948.4000000000001,-1982.1500000000001,21.755199999999999,-1.5112300000000001,-4.4089799999999997
212205.0,55.854199999999999,-1656.6600000000001,-1679.5599999999999,-1703.3900000000001,22.057300000000001,-0.116824,-2.6924399999999999
212206.0,55.556699999999999,-1479.03,-1511.4400000000001,-1528.53,19.7453,1.71495,-1.95882
212207.0,55.180999999999997,-1365.5799999999999,-1405.1700000000001,-1415.3900000000001,17.522099999999998,3.7736000000000001,-1.3163899999999999
212208.0,54.4268,-1330.6300000000001,-1376.0899999999999,-1377.8099999999999,15.258100000000001,6.20099,0.66464199999999996
212209.0,62.835799999999999,-1425.5899999999999,-1483.1400000000001,-1466.0899999999999,8.6028199999999995,16.091100000000001,10.453099999999999
212210.0,52.497199999999999,-1540.8,-1582.8800000000001,-1576.3299999999999,5.5666500000000001,14.6677,12.641299999999999
212211.0,41.004800000000003,-1505.9000000000001,-1518.3499999999999,-1533.02,8.0438299999999998,8.3003999999999998,15.577199999999999
212212.0,55.030099999999997,-1225.8399999999999,-1205.9200000000001,-1244.9300000000001,15.571999999999999,-0.13864399999999999,19.660499999999999
212213.0,75.579099999999997,-719.23400000000004,-673.16600000000005,-731.76999999999998,20.603899999999999,-7.2627600000000001,21.782800000000002
212214.0,394.30500000000001,-924.03399999999999,-1123.3299999999999,-1041.3499999999999,174.96799999999999,32.6614,100.557
212215.0,261.10899999999998,804.80499999999995,845.55100000000004,828.08799999999997,125.952,15.778600000000001,78.708600000000004
212216.0,101.349,3560.8899999999999,3538.9499999999998,3530.7800000000002,35.174399999999999,25.681699999999999,35.841000000000001
212217.0,73.458399999999997,3171.7600000000002,3134.5500000000002,3113.75,27.853999999999999,12.4213,2.1649799999999999
212218.0,63.6342,2509.3299999999999,2457.96,2456.8400000000001,17.0458,12.2933,2.96366
212219.0,54.049900000000001,2107.27,2093.3800000000001,2071.4200000000001,20.145199999999999,5.8318599999999998,14.394
212220.0,78.1524,2910.6799999999998,2863.23,2845.7600000000002,27.7684,11.434100000000001,-2.3918599999999999
212221.0,84.134100000000004,3754.9200000000001,3728.6399999999999,3721.0799999999999,30.046199999999999,21.740100000000002,25.859200000000001
212222.0,198.13800000000001,1890.9300000000001,1931.73,1883.48,89.289699999999996,27.025700000000001,60.896700000000003
212223.0,232.411,1358.6700000000001,1416.1600000000001,1354.6600000000001,105.825,19.839200000000002,72.308599999999998
212224.0,177.166,2578.2399999999998,2586.5599999999999,2560.0900000000001,75.542599999999993,32.938699999999997,59.057099999999998
212225.0,157.69200000000001,2831.6300000000001,2820.8499999999999,2806.4299999999998,62.442399999999999,33.076799999999999,56.000799999999998
212226.0,130.03800000000001,3202.9000000000001,3188.4899999999998,3175.9899999999998,47.913800000000002,30.014299999999999,47.5244
212227.0,113.039,3546.1500000000001,3527.6199999999999,3517.3699999999999,39.740200000000002,27.693100000000001,41.2348
212228.0,103.358,-3468.2600000000002,-3486.0100000000002,-3495.6900000000001,34.9422,27.123799999999999,37.559600000000003
212229.0,92.070599999999999,3616.9400000000001,3592.4499999999998,3585.3200000000002,32.150599999999997,23.787400000000002,30.841799999999999
212230.0,77.527500000000003,3628.6100000000001,3601.1100000000001,3591.4200000000001,28.657699999999998,19.423200000000001,20.8034
212231.0,73.009,3552.3800000000001,3523.54,3510.5799999999999,27.776199999999999,17.125499999999999,15.94
212232.0,70.570700000000002,3478.3299999999999,3448.1399999999999,3431.2800000000002,27.379899999999999,14.9491,10.887600000000001
212233.0,71.353200000000001,3330.4200000000001,3297.0900000000001,3277.3699999999999,27.5885,13.396800000000001,6.1328300000000002
212234.0,67.129599999999996,-3190.3800000000001,-3220.8200000000002,-3238.71,26.437999999999999,13.5038,4.8580100000000002
212235.0,76.341800000000006,3031.77,2989.4299999999998,2969.7199999999998,28.232199999999999,11.833,-0.71795500000000001
212236.0,78.342799999999997,2785.1599999999999,2733.1100000000001,2719.1900000000001,26.312999999999999,11.609500000000001,-3.0574599999999998
212237.0,77.021000000000001,2691.1100000000001,2634.8000000000002,2626.1900000000001,23.768699999999999,12.6211,-3.1715300000000002
212238.0,75.797399999999996,2631.48,2571.6300000000001,2568.46,21.466899999999999,13.742000000000001,-2.1556999999999999
212239.0,71.463099999999997,2585.3400000000001,2526.8600000000001,2526.3099999999999,19.212800000000001,13.497299999999999,-0.26746199999999998
212240.0,67.025300000000001,-2498.3099999999999,-2555.54,-2555.2399999999998,15.865399999999999,12.5664,1.3595200000000001
212241.0,55.474800000000002,2367.96,2330.6999999999998,2323.0599999999999,16.782699999999998,10.111800000000001,8.0503199999999993
212242.0,71.755499999999998,1661.4300000000001,1680.49,1637.72,27.911000000000001,-0.950743,21.846499999999999
212243.0,90.032700000000006,990.94299999999998,1036.75,978.86000000000001,32.689500000000002,-6.2260499999999999,25.730899999999998
212244.0,100.767,190.32499999999999,255.47800000000001,185.30199999999999,33.108400000000003,-10.851599999999999,25.2639
212245.0,53.593299999999999,40.575099999999999,8.7740600000000004,50.875700000000002,-0.028332300000000001,-21.542300000000001,-3.41838
212246.0,232.571,-1240.24,-1202.1900000000001,-1263.77,106.292,17.855499999999999,73.807400000000001
212247.0,194.023,-1578.3399999999999,-1520.79,-1586.1400000000001,86.035399999999996,22.7273,57.929499999999997
212248.0,171.19300000000001,-2148.8699999999999,-2108.4699999999998,-2160.7199999999998,71.272400000000005,28.018599999999999,56.158900000000003
212249.0,156.36699999999999,-2591.3800000000001,-2585.5100000000002,-2613.3200000000002,61.174199999999999,32.260399999999997,56.145800000000001
212250.0,133.773,-2857.8899999999999,-2869.77,-2884.3600000000001,48.418100000000003,32.111600000000003,49.130499999999998
212251.0,115.476,-3284.8899999999999,-3299.2199999999998,-3311.6199999999999,39.614800000000002,29.214700000000001,42.9313
212252.0,93.820400000000006,-3447.5799999999999,-3468.0,-3475.6700000000001,31.750599999999999,25.337,32.758299999999998
212253.0,85.673100000000005,-3601.02,-3623.3400000000001,-3630.1700000000001,29.427,23.6143,28.117699999999999
212254.0,78.439899999999994,-3618.0,-3641.5300000000002,-3648.9099999999999,27.725200000000001,21.714400000000001,23.4559
212255.0,72.353200000000001,-3480.54,-3504.8699999999999,-3514.4699999999998,26.589200000000002,19.505400000000002,18.7529
212256.0,67.817700000000002,-3435.0500000000002,-3460.2600000000002,-3472.9899999999998,25.8977,17.257400000000001,13.8445
212257.0,66.077699999999993,-3347.5700000000002,-3374.3499999999999,-3390.3499999999999,26.014199999999999,15.113300000000001,9.1035500000000003
212258.0,70.019900000000007,-3041.3600000000001,-3077.1199999999999,-3094.71,27.189299999999999,12.3957,1.52694
212259.0,72.584100000000007,-2919.5,-2961.0599999999999,-2977.0599999999999,27.171900000000001,11.6038,-0.70577900000000005
212260.0,74.072999999999993,-2795.04,-2841.8299999999999,-2855.71,26.293600000000001,11.103899999999999,-1.9150400000000001
212261.0,74.010000000000005,-2675.8200000000002,-2726.9400000000001,-2737.8299999999999,24.454000000000001,11.2536,-2.2576900000000002
212262.0,74.006100000000004,-2589.3099999999999,-2645.8000000000002,-2651.3099999999999,22.1813,12.397500000000001,-1.5525199999999999
212263.0,72.469300000000004,-2538.8800000000001,-2598.6999999999998,-2599.6900000000001,19.138300000000001,13.0885,-0.66010599999999997
212264.0,58.995399999999997,-2419.5599999999999,-2468.1199999999999,-2470.6199999999999,13.226800000000001,11.512,4.8935599999999999
212265.0,50.623899999999999,-2270.5799999999999,-2303.02,-2314.9699999999998,12.7712,9.0770900000000001,9.0025399999999998
212266.0,49.254300000000001,-2002.72,-2009.8800000000001,-2038.26,15.9519,4.0481699999999998,13.5844
212267.0,69.212699999999998,-1554.1300000000001,-1527.45,-1577.8499999999999,23.841799999999999,-3.4725899999999998,19.5123
212268.0,89.401399999999995,-889.76599999999996,-834.57799999999997,-902.05999999999995,28.0456,-9.7074499999999997,22.172699999999999
212269.0,400.28500000000003,-965.96199999999999,-1172.05,-1085.9300000000001,185.393,30.4758,86.003799999999998
212270.0,253.85400000000001,541.65700000000004,579.49199999999996,569.33500000000004,126.843,15.0533,69.148600000000002
212271.0,102.77500000000001,3473.1399999999999,3446.2199999999998,3437.3699999999999,37.678600000000003,25.296199999999999,33.3795
212272.0,92.109700000000004,3844.4000000000001,3785.8499999999999,3781.48,32.093400000000003,22.434799999999999,7.7600100000000003
212273.0,66.735299999999995,3399.73,3352.6399999999999,3346.8899999999999,18.223700000000001,16.486000000000001,6.3405500000000004
212274.0,60.615900000000003,2727.7199999999998,2724.4299999999998,2692.9899999999998,24.624300000000002,4.8559900000000003,15.077400000000001
212275.0,92.465599999999995,3816.3600000000001,3751.6500000000001,3749.2600000000002,29.295200000000001,22.837199999999999,4.54223
212276.0,93.045699999999997,3582.6900000000001,3546.3099999999999,3541.0599999999999,34.769100000000002,23.537400000000002,24.6738
212277.0,197.40899999999999,1979.8900000000001,2022.8,1971.3099999999999,89.549800000000005,26.5319,59.2104
212278.0,229.691,1493.78,1549.24,1489.05,105.128,18.5458,71.204099999999997
212279.0,168.72,2203.2600000000002,2212.9200000000001,2182.1199999999999,74.290599999999998,30.911200000000001,52.592500000000001
212280.0,147.99700000000001,2851.0900000000001,2839.8099999999999,2821.4699999999998,60.868299999999998,30.4621,49.444000000000003
212281.0,124.93000000000001,3128.7600000000002,3112.3600000000001,3097.1599999999999,47.794899999999998,28.252500000000001,43.244300000000003
212282.0,111.27,3202.98,3181.1799999999998,3169.3200000000002,41.047699999999999,26.566600000000001,38.012500000000003
212283.0,103.509,-3204.5999999999999,-3225.4099999999999,-3237.0599999999999,37.206499999999998,26.249300000000002,35.038699999999999
212284.0,97.040199999999999,3608.0500000000002,3576.23,3569.6100000000001,35.875599999999999,24.3369,28.937100000000001
212285.0,90.942499999999995,3750.4400000000001,3709.1100000000001,3704.6599999999999,34.178899999999999,22.972799999999999,20.5837
212286.0,89.884600000000006,3803.4099999999999,3757.8499999999999,3753.0700000000002,33.6982,22.495100000000001,16.715699999999998
212287.0,90.486800000000002,3797.73,3747.54,3742.6700000000001,33.531100000000002,22.3931,13.2133
212288.0,91.069400000000002,3825.3000000000002,3770.77,3765.8699999999999,32.848599999999998,22.303699999999999,9.9893999999999998
212289.0,87.035300000000007,-3726.0799999999999,-3778.8400000000001,-3781.73,31.057500000000001,22.1751,9.3379600000000007
212290.0,92.721800000000002,3839.1300000000001,3777.0500000000002,3773.5999999999999,30.9438,22.652999999999999,5.9343199999999996
212291.0,91.084699999999998,3802.8000000000002,3736.48,3735.2600000000002,27.268999999999998,22.702400000000001,3.5744799999999999
212292.0,87.656800000000004,3758.4899999999998,3692.3800000000001,3692.4000000000001,24.619599999999998,22.115500000000001,3.0849000000000002
212293.0,82.521900000000002,3681.98,3618.23,3619.1300000000001,21.747,21.202500000000001,3.4353099999999999
212294.0,75.556200000000004,3569.52,3511.73,3511.0799999999999,19.383299999999998,19.506599999999999,4.5507499999999999
212295.0,69.305099999999996,-3442.5799999999999,-3497.5500000000002,-3498.3800000000001,15.4672,17.846399999999999,4.5527499999999996
212296.0,58.032400000000003,3135.3899999999999,3106.04,3090.21,19.334,11.5627,9.4729899999999994
212297.0,87.552700000000002,2108.3699999999999,2142.1500000000001,2088.2800000000002,35.343200000000003,-4.0272699999999997,23.425699999999999
212298.0,108.90900000000001,1219.9000000000001,1282.02,1213.23,40.607900000000001,-10.332700000000001,27.541799999999999
212299.0,120.758,223.91,306.80000000000001,228.119,40.793700000000001,-15.6953,27.758099999999999
212300.0,52.448,42.171900000000001,15.1508,61.0366,-0.67857000000000001,-19.031600000000001,-4.7273100000000001
212301.0,229.256,-1141.5899999999999,-1102.52,-1163.1300000000001,107.67400000000001,15.3919,68.882199999999997
212302.0,193.00800000000001,-1829.26,-1771.6600000000001,-1838.71,86.189700000000002,21.800999999999998,56.535800000000002
212303.0,165.20099999999999,-1952.4200000000001,-1910.0799999999999,-1965.52,69.411000000000001,27.330500000000001,51.889000000000003
212304.0,146.68100000000001,-2374.6199999999999,-2368.2600000000002,-2401.1700000000001,59.657400000000003,29.491199999999999,49.379300000000001
212305.0,127.435,-2952.7600000000002,-2964.4400000000001,-2984.0300000000002,48.069499999999998,29.591999999999999,44.465499999999999
212306.0,112.73099999999999,-3042.9299999999998,-3058.75,-3073.98,40.700899999999997,27.6998,39.637500000000003
212307.0,97.014300000000006,-3463.4699999999998,-3488.8800000000001,-3497.5500000000002,35.226100000000002,25.2178,30.767600000000002
212308.0,92.219399999999993,-3466.6599999999999,-3496.5599999999999,-3502.9200000000001,33.948599999999999,24.404499999999999,26.679200000000002
212309.0,88.847899999999996,-3534.77,-3569.0300000000002,-3573.8699999999999,33.135199999999998,23.684100000000001,22.7667
212310.0,86.773700000000005,-3691.0100000000002,-3729.98,-3733.96,32.495800000000003,23.111000000000001,18.885899999999999
212311.0,86.138599999999997,-3696.1799999999998,-3739.5500000000002,-3743.3600000000001,32.2577,22.615400000000001,15.31
212312.0,86.064999999999998,-3693.3600000000001,-3741.3000000000002,-3744.8499999999999,31.6645,22.312200000000001,11.8996
212313.0,87.835099999999997,-3736.9699999999998,-3793.8299999999999,-3796.0,30.148599999999998,22.152100000000001,7.1861800000000002
212314.0,88.079099999999997,-3717.4699999999998,-3777.8800000000001,-3779.1399999999999,28.690999999999999,22.1509,5.4673800000000004
212315.0,87.661699999999996,-3703.8299999999999,-3767.1300000000001,-3767.2600000000002,26.816400000000002,22.0593,4.1648500000000004
212316.0,85.638999999999996,-3687.7399999999998,-3752.5799999999999,-3751.5900000000001,24.2666,21.567799999999998,3.2406299999999999
212317.0,82.011799999999994,-3636.1999999999998,-3700.6900000000001,-3698.6900000000001,21.282599999999999,20.848199999999999,3.1319400000000002
212318.0,76.682299999999998,-3556.0300000000002,-3617.6199999999999,-3615.6999999999998,18.101800000000001,19.8111,3.6647500000000002
212319.0,59.540100000000002,-3268.8000000000002,-3312.0799999999999,-3319.1399999999999,13.869899999999999,14.482100000000001,6.0598799999999997
212320.0,50.876399999999997,-3000.4099999999999,-3025.4200000000001,-3043.1999999999998,15.004300000000001,9.5306899999999999,9.2008700000000001
212321.0,54.454300000000003,-2587.4400000000001,-2584.7199999999998,-2619.73,20.0855,2.5463,14.1129
212322.0,84.1845,-1961.46,-1919.5999999999999,-1979.1199999999999,30.5412,-6.9770000000000003,21.1296
212323.0,107.639,-1083.54,-1011.61,-1087.3099999999999,35.329799999999999,-13.877599999999999,24.529199999999999
212324.0,404.96600000000001,-751.84299999999996,-963.05799999999999,-878.00800000000004,192.108,28.639099999999999,75.144400000000005
212325.0,246.203,710.14499999999998,746.53800000000001,741.48699999999997,129.25700000000001,14.174300000000001,53.928899999999999
212326.0,105.22499999999999,3283.5799999999999,3250.96,3241.8000000000002,40.843600000000002,24.790199999999999,30.427600000000002
212327.0,103.005,4271.29,4201.1099999999997,4208.5699999999997,32.949300000000001,28.298200000000001,12.8322
212328.0,65.393500000000003,3938.6500000000001,3894.5799999999999,3890.4099999999999,16.474799999999998,18.488499999999998,9.8929899999999993
212329.0,62.916499999999999,3118.48,3122.8600000000001,3089.21,25.6143,4.9934900000000004,17.430399999999999
212330.0,99.896199999999993,4407.8500000000004,4334.0299999999997,4343.5500000000002,28.089400000000001,28.6174,10.2829
212331.0,101.52200000000001,3718.9899999999998,3673.9299999999998,3671.02,39.034999999999997,25.02,23.719200000000001
212332.0,196.06,1838.0,1876.02,1824.9100000000001,92.510300000000001,23.238900000000001,54.864100000000001
212333.0,225.93100000000001,1294.4300000000001,1343.47,1285.2,109.539,16.700800000000001,61.289200000000001
212334.0,159.173,2398.4400000000001,2409.9699999999998,2375.4200000000001,71.648300000000006,27.867899999999999,47.178400000000003
212335.0,137.852,2520.8499999999999,2511.0599999999999,2488.8899999999999,58.142000000000003,28.324100000000001,43.400599999999997
212336.0,120.733,2849.1999999999998,2830.1900000000001,2813.6599999999999,47.990299999999998,26.523700000000002,39.191200000000002
212337.0,110.55500000000001,3208.0900000000001,3182.0599999999999,3169.1500000000001,42.991199999999999,25.259399999999999,34.560299999999998
212338.0,104.41,-3148.5700000000002,-3173.4899999999998,-3186.5100000000002,40.1586,25.160399999999999,31.883299999999998
212339.0,102.63800000000001,3441.5999999999999,3402.5799999999999,3396.8200000000002,39.756500000000003,24.754300000000001,26.9239
212340.0,101.877,3771.1399999999999,3719.5900000000001,3719.6199999999999,38.403700000000001,25.7118,20.940300000000001
212341.0,101.89400000000001,3910.3299999999999,3853.79,3855.6399999999999,37.401299999999999,26.302199999999999,18.386700000000001
212342.0,103.03400000000001,4078.9000000000001,4016.7800000000002,4020.9699999999998,36.461799999999997,27.140000000000001,16.346599999999999
212343.0,102.66800000000001,4184.5299999999997,4118.1800000000003,4124.0100000000002,34.5518,27.690300000000001,14.2622
212344.0,98.760099999999994,-4086.5,-4151.6300000000001,-4144.25,32.362099999999998,27.276900000000001,13.7051
212345.0,102.15000000000001,4350.1400000000003,4277.3599999999997,4286.0699999999997,30.760000000000002,28.6692,11.4343
212346.0,96.346100000000007,4408.5600000000004,4335.2700000000004,4345.0699999999997,25.130800000000001,28.122699999999998,9.4177199999999992
212347.0,91.266000000000005,4378.7200000000003,4308.0500000000002,4317.0799999999999,22.135999999999999,27.012599999999999,8.80063
212348.0,84.494200000000006,4303.7399999999998,4238.1700000000001,4245.04,19.412199999999999,25.139600000000002,8.5065399999999993
212349.0,75.627899999999997,4163.3500000000004,4106.4300000000003,4109.1099999999997,17.297000000000001,22.335599999999999,8.7677499999999995
212350.0,68.067700000000002,-4017.48,-4070.4099999999999,-4068.0100000000002,12.9305,20.4526,8.0924999999999994
212351.0,56.569800000000001,3606.8499999999999,3582.73,3566.7800000000002,18.4588,12.8362,12.415800000000001
212352.0,97.3596,2398.2399999999998,2442.5999999999999,2383.8000000000002,39.303800000000003,-5.6328300000000002,25.378599999999999
212353.0,122.40900000000001,1387.24,1460.78,1386.5799999999999,46.414400000000001,-13.212199999999999,29.094999999999999
212354.0,138.154,254.381,351.07600000000002,265.01400000000001,47.6175,-20.311199999999999,29.505299999999998
212355.0,51.770699999999998,32.273699999999998,4.8012800000000002,51.899000000000001,-2.3693300000000002,-17.733799999999999,-3.6902200000000001
212356.0,225.36500000000001,-1124.4400000000001,-1081.4100000000001,-1145.3900000000001,110.849,13.032999999999999,58.381399999999999
212357.0,193.75399999999999,-1539.6400000000001,-1487.74,-1553.71,90.950199999999995,19.677700000000002,51.450400000000002
212358.0,155.58500000000001,-2092.0100000000002,-2053.4200000000001,-2106.5900000000001,66.724800000000002,24.772099999999998,47.4161
212359.0,135.80500000000001,-2359.8000000000002,-2349.8000000000002,-2387.6999999999998,56.242400000000004,26.708400000000001,43.420900000000003
212360.0,121.72499999999999,-2514.9899999999998,-2526.0100000000002,-2549.9299999999998,47.972000000000001,26.9068,39.933399999999999
212361.0,110.988,-2935.3800000000001,-2953.6999999999998,-2971.1100000000001,42.3386,26.0503,36.2742
212362.0,100.90900000000001,-3201.0100000000002,-3232.3200000000002,-3241.3899999999999,39.030500000000004,24.862200000000001,28.350200000000001
212363.0,98.920000000000002,-3465.0999999999999,-3502.6999999999998,-3508.1700000000001,38.237400000000001,24.864000000000001,25.128299999999999
212364.0,98.131200000000007,-3629.1900000000001,-3672.8400000000001,-3675.1900000000001,37.577599999999997,25.1099,22.2712
212365.0,98.019099999999995,-3675.7399999999998,-3725.7399999999998,-3725.02,36.567300000000003,25.6752,19.615300000000001
212366.0,98.564400000000006,-3847.9499999999998,-3903.27,-3900.2800000000002,35.743899999999996,26.202400000000001,17.4983
212367.0,98.262200000000007,-3998.5500000000002,-4058.9200000000001,-4053.6500000000001,33.904499999999999,26.763999999999999,15.3109
212368.0,98.272900000000007,-4170.0200000000004,-4238.6599999999999,-4229.75,30.281700000000001,27.6175,12.0946
212369.0,96.812200000000004,-4251.7399999999998,-4322.7600000000002,-4312.6499999999996,27.668600000000001,27.7163,10.6965
212370.0,94.131699999999995,-4288.79,-4360.6300000000001,-4349.8000000000002,24.673300000000001,27.435500000000001,9.5982699999999994
212371.0,90.174800000000005,-4280.8599999999997,-4351.7799999999997,-4340.96,21.436800000000002,26.733799999999999,8.7333099999999995
212372.0,84.723200000000006,-4247.6499999999996,-4315.6000000000004,-4305.8599999999997,18.2181,25.404699999999998,8.0824800000000003
212373.0,77.380099999999999,-4166.3599999999997,-4228.5900000000001,-4221.4700000000003,15.2033,23.334399999999999,7.7603299999999997
212374.0,57.073099999999997,-3787.9400000000001,-3827.04,-3832.3299999999999,11.932600000000001,16.509,9.1167400000000001
212375.0,48.737099999999998,-3451.5599999999999,-3470.6599999999999,-3487.9899999999998,14.2776,10.9375,11.667299999999999
212376.0,56.436599999999999,-2957.8000000000002,-2947.1199999999999,-2983.1199999999999,21.250800000000002,2.8392200000000001,16.1264
212377.0,93.559399999999997,-2232.9899999999998,-2180.5599999999999,-2242.9000000000001,34.615000000000002,-8.3253299999999992,22.978999999999999
212378.0,120.721,-1238.8199999999999,-1153.95,-1233.9300000000001,40.317700000000002,-16.867599999999999,26.024899999999999
212379.0,409.44799999999998,-899.72299999999996,-1115.6500000000001,-1031.46,196.92599999999999,26.871200000000002,67.349999999999994
212380.0,238.602,439.52100000000002,476.17200000000003,469.34300000000002,128.185,13.129099999999999,44.648000000000003
212381.0,107.881,3252.0900000000001,3214.3400000000001,3204.8400000000001,44.010100000000001,23.954999999999998,27.2773
212382.0,105.21899999999999,4446.6499999999996,4374.3299999999999,4387.75,31.721699999999998,30.366800000000001,16.788
212383.0,63.243899999999996,4051.9499999999998,4012.7600000000002,4010.9099999999999,14.1479,20.2226,13.6751
212384.0,63.128399999999999,3206.3099999999999,3214.4499999999998,3182.3699999999999,25.039200000000001,6.7257800000000003,19.442799999999998
212385.0,99.569699999999997,4570.7600000000002,4497.4499999999998,4512.8500000000004,25.408300000000001,30.597200000000001,15.125500000000001
212386.0,106.479,3569.6799999999998,3519.6300000000001,3517.9000000000001,41.792000000000002,25.431100000000001,22.827999999999999
212387.0,197.732,1936.3699999999999,1970.47,1918.6700000000001,97.091700000000003,21.585000000000001,49.462699999999998
212388.0,225.30000000000001,1339.3099999999999,1388.9400000000001,1327.1300000000001,112.65300000000001,17.681699999999999,53.334600000000002
212389.0,150.33600000000001,2099.8800000000001,2110.5900000000001,2074.8600000000001,70.734899999999996,23.498899999999999,40.517699999999998
212390.0,126.232,2571.79,2562.3600000000001,2537.04,55.470999999999997,24.710999999999999,36.068199999999997
212391.0,115.94799999999999,2792.1199999999999,2769.3800000000001,2751.9699999999998,48.7654,24.196000000000002,33.350000000000001
212392.0,110.89,2907.8099999999999,2876.6100000000001,2863.8099999999999,45.750900000000001,23.8551,30.405100000000001
212393.0,106.282,-2932.04,-2961.6300000000001,-2975.6300000000001,43.354300000000002,24.038599999999999,28.5076
212394.0,106.749,3482.3099999999999,3438.1500000000001,3432.6900000000001,42.930599999999998,24.5275,24.7669
212395.0,107.099,3861.3200000000002,3804.96,3807.3299999999999,40.506100000000004,26.679400000000001,21.324999999999999
212396.0,106.77200000000001,4044.0599999999999,3983.0700000000002,3988.4400000000001,38.718499999999999,27.690999999999999,19.838799999999999
212397.0,107.35299999999999,4167.79,4101.6000000000004,4110.3599999999997,36.944699999999997,28.8369,18.770700000000001
212398.0,106.004,4317.4700000000003,4247.9399999999996,4259.1599999999999,34.133499999999998,29.6465,17.555299999999999
212399.0,101.86,-4233.5100000000002,-4302.0500000000002,-4289.7700000000004,31.567900000000002,28.9253,17.017399999999999
212400.0,102.989,4530.8299999999999,4457.2299999999996,4472.0699999999997,28.683399999999999,30.712700000000002,15.952299999999999
212401.0,95.065700000000007,4590.9499999999998,4519.5,4534.6199999999999,22.121400000000001,29.986999999999998,14.356
212402.0,89.197999999999993,4552.5900000000001,4485.04,4498.7200000000003,18.9679,28.7852,13.717700000000001
212403.0,81.953299999999999,4454.0600000000004,4392.71,4403.5,16.257899999999999,26.916499999999999,13.3117
212404.0,73.058599999999998,4292.1999999999998,4240.1400000000003,4245.8999999999996,14.4361,24.119599999999998,13.216799999999999
212405.0,65.987899999999996,-4143.5699999999997,-4191.1700000000001,-4186.1499999999996,10.420299999999999,22.529900000000001,12.3005
212406.0,55.285600000000002,3704.9099999999999,3685.1700000000001,3671.1100000000001,16.8203,14.5627,15.3482
212407.0,99.736500000000007,2478.5300000000002,2526.3499999999999,2468.5700000000002,40.443600000000004,-4.0269399999999997,26.6419
212408.0,127.854,1450.3299999999999,1527.0999999999999,1452.47,49.3369,-12.427899999999999,30.8064
212409.0,145.12200000000001,268.21100000000001,370.06400000000002,282.68900000000002,51.343299999999999,-19.443300000000001,31.1389
212410.0,49.619399999999999,27.277999999999999,0.26336100000000001,49.223599999999998,-4.0412499999999998,-13.944100000000001,-2.9167999999999998
212411.0,223.548,-908.74000000000001,-857.94500000000005,-932.32299999999998,112.33799999999999,11.526999999999999,49.604199999999999
212412.0,199.41800000000001,-1693.8599999999999,-1641.1400000000001,-1712.8599999999999,96.344800000000006,19.819800000000001,46.905999999999999
212413.0,148.345,-1973.3800000000001,-1942.2,-1992.1199999999999,67.473100000000002,21.853400000000001,40.859200000000001
212414.0,122.59699999999999,-2239.0999999999999,-2228.73,-2267.4499999999998,52.590000000000003,22.649699999999999,36.465699999999998
212415.0,114.331,-2633.5500000000002,-2643.7199999999998,-2670.9200000000001,47.851700000000001,23.4087,33.853200000000001
212416.0,109.58799999999999,-2715.1700000000001,-2737.3099999999999,-2756.0,45.049599999999998,23.798999999999999,31.4574
212417.0,104.27500000000001,-3270.2600000000002,-3306.98,-3316.4699999999998,42.381500000000003,24.0227,25.601600000000001
212418.0,103.402,-3372.3200000000002,-3415.4699999999998,-3420.6999999999998,41.297699999999999,24.544499999999999,23.476400000000002
212419.0,103.196,-3553.8499999999999,-3603.0599999999999,-3604.21,40.080800000000004,25.3093,21.824400000000001
212420.0,103.13500000000001,-3832.0,-3887.3299999999999,-3884.3200000000002,38.328800000000001,26.3857,20.306000000000001
212421.0,103.283,-3963.3200000000002,-4023.5700000000002,-4017.2199999999998,36.675400000000003,27.300999999999998,19.2193
212422.0,102.29900000000001,-4084.23,-4148.9799999999996,-4139.5,33.936799999999998,28.160399999999999,17.906300000000002
212423.0,100.119,-4347.3100000000004,-4418.0,-4403.8900000000003,28.575299999999999,29.420300000000001,16.103000000000002
212424.0,97.384200000000007,-4409.0100000000002,-4480.5699999999997,-4465.2200000000003,25.224499999999999,29.575199999999999,15.1982
212425.0,93.682599999999994,-4450.9700000000003,-4521.8900000000003,-4506.1400000000003,21.784199999999998,29.304500000000001,14.325799999999999
212426.0,88.818299999999994,-4462.5699999999997,-4531.1599999999999,-4515.8999999999996,18.294799999999999,28.552299999999999,13.5159
212427.0,82.723600000000005,-4412.7399999999998,-4476.9300000000003,-4463.3900000000003,15.0373,27.279,12.880599999999999
212428.0,75.137900000000002,-4307.7600000000002,-4365.1300000000001,-4354.8299999999999,12.2254,25.346499999999999,12.4246
212429.0,55.538899999999998,-3899.0799999999999,-3933.0500000000002,-3936.02,10.025600000000001,18.597200000000001,12.6777
212430.0,48.1845,-3549.3200000000002,-3564.0100000000002,-3578.9200000000001,13.104799999999999,13.1409,14.5108
212431.0,57.210599999999999,-3048.1799999999998,-3033.9499999999998,-3067.3099999999999,21.140799999999999,5.2366700000000002,18.343599999999999
212432.0,95.887799999999999,-2316.02,-2260.3699999999999,-2320.0599999999999,35.938600000000001,-5.8718899999999996,25.026199999999999
212433.0,125.756,-1301.5599999999999,-1211.72,-1291.3099999999999,43.104300000000002,-15.283099999999999,27.593599999999999
212434.0,414.471,-739.16800000000001,-960.03300000000002,-874.82100000000003,201.387,24.941600000000001,60.6297
212435.0,231.91200000000001,666.77700000000004,700.99800000000005,692.38300000000004,125.526,11.2158,41.573700000000002
212436.0,109.15000000000001,3122.0799999999999,3081.3600000000001,3070.8499999999999,46.498199999999997,22.5273,23.8598
212437.0,100.04300000000001,4340.0100000000002,4272.8800000000001,4287.0,29.380400000000002,29.261800000000001,19.0853
212438.0,60.630000000000003,3775.29,3743.0900000000001,3741.4000000000001,12.622199999999999,20.896699999999999,16.2683
212439.0,62.527099999999997,2969.9000000000001,2979.6799999999998,2950.2600000000002,23.778600000000001,9.3895800000000005,20.619599999999998
212440.0,92.909999999999997,4431.21,4365.4399999999996,4381.1400000000003,22.6083,29.359300000000001,18.0062
212441.0,106.828,3672.9499999999998,3622.1799999999998,3619.9299999999998,42.727699999999999,24.5504,21.8322
212442.0,198.10900000000001,1761.9100000000001,1794.52,1740.3299999999999,100.56100000000001,20.647400000000001,42.417900000000003
212443.0,221.77699999999999,1167.0599999999999,1216.21,1155.4200000000001,113.193,16.514199999999999,47.628399999999999
212444.0,146.39699999999999,2313.77,2323.9200000000001,2284.02,72.222899999999996,20.711300000000001,32.692100000000003
212445.0,118.187,2316.0700000000002,2305.9400000000001,2277.2199999999998,55.0961,20.888100000000001,27.8962
212446.0,112.592,2579.4699999999998,2553.8200000000002,2533.2399999999998,50.465400000000002,21.5809,26.0166
212447.0,112.16800000000001,2977.8899999999999,2942.3600000000001,2928.1399999999999,48.969700000000003,22.293399999999998,25.340699999999998
212448.0,107.89400000000001,-2937.54,-2971.79,-2986.71,46.226999999999997,22.435199999999998,24.586500000000001
212449.0,107.634,3342.3000000000002,3296.5300000000002,3290.0799999999999,44.604100000000003,23.461400000000001,22.609100000000002
212450.0,106.527,3770.5999999999999,3714.5999999999999,3716.8000000000002,40.712899999999998,25.8566,21.233599999999999
212451.0,105.337,3945.5100000000002,3885.6999999999998,3891.4899999999998,38.271299999999997,26.918800000000001,20.519200000000001
212452.0,104.491,4138.6199999999999,4074.96,4084.3200000000002,35.698500000000003,27.936499999999999,20.077300000000001
212453.0,102.11799999999999,4256.3599999999997,4190.6300000000001,4202.6400000000003,32.342199999999998,28.704000000000001,19.525099999999998
212454.0,97.680199999999999,-4154.4200000000001,-4218.9499999999998,-4206.6000000000004,29.566600000000001,27.8109,18.959900000000001
212455.0,96.9285,4401.79,4334.6000000000004,4349.9700000000003,26.029599999999999,29.495799999999999,18.5718
212456.0,88.183000000000007,4395.3900000000003,4332.3900000000003,4347.5,19.337900000000001,28.844200000000001,17.447299999999998
212457.0,82.540599999999998,4323.1000000000004,4264.5299999999997,4277.8800000000001,16.391500000000001,27.8399,16.881900000000002
212458.0,76.036199999999994,4204.0799999999999,4151.6899999999996,4161.9499999999998,14.038399999999999,26.286300000000001,16.380800000000001
212459.0,68.495999999999995,4025.2199999999998,3981.48,3986.8400000000001,12.600099999999999,24.0198,16.096599999999999
212460.0,62.904400000000003,-3883.23,-3922.6100000000001,-3918.4000000000001,9.3110900000000001,22.9955,15.3588
212461.0,54.753999999999998,3438.3299999999999,3423.3800000000001,3410.5300000000002,15.492900000000001,16.2026,17.413699999999999
212462.0,96.099699999999999,2294.5900000000001,2339.96,2286.4400000000001,39.226300000000002,-0.41811399999999999,26.606100000000001
212463.0,124.114,1338.98,1410.6099999999999,1339.6700000000001,49.416400000000003,-8.1968399999999999,30.522500000000001
212464.0,137.697,244.066,335.48700000000002,253.78800000000001,51.834200000000003,-13.821199999999999,30.349699999999999
212465.0,49.7729,27.9237,0.086966000000000002,50.836100000000002,-4.9286700000000003,-12.2021,-2.59016
212466.0,222.07400000000001,-959.22799999999995,-905.64300000000003,-984.79100000000005,112.958,9.0834200000000003,44.334200000000003
212467.0,198.23500000000001,-1383.4300000000001,-1330.5,-1404.4300000000001,98.040999999999997,17.952400000000001,41.394100000000002
212468.0,145.786,-2055.9499999999998,-2027.3,-2081.0799999999999,69.884699999999995,19.733499999999999,32.970599999999997
212469.0,114.741,-2271.4699999999998,-2262.48,-2303.1900000000001,52.204000000000001,19.453099999999999,28.763200000000001
212470.0,108.68600000000001,-2270.3899999999999,-2279.7600000000002,-2310.8699999999999,48.680799999999998,20.320399999999999,26.566400000000002
212471.0,109.798,-2657.2399999999998,-2681.9200000000001,-2704.0100000000002,48.465000000000003,21.596599999999999,25.6097
212472.0,105.45,-3057.0500000000002,-3096.8099999999999,-3107.5700000000002,44.431399999999996,22.503599999999999,22.756499999999999
212473.0,104.14700000000001,-3379.8899999999999,-3425.0999999999999,-3431.2199999999998,42.582000000000001,23.210799999999999,21.854500000000002
212474.0,103.27,-3593.8099999999999,-3644.1300000000001,-3645.79,40.656799999999997,24.140899999999998,21.125900000000001
212475.0,102.373,-3682.3800000000001,-3737.6999999999998,-3734.9000000000001,38.261099999999999,25.293900000000001,20.460599999999999
212476.0,101.381,-3886.3699999999999,-3945.5300000000002,-3939.0999999999999,35.817399999999999,26.249099999999999,20.0152
212477.0,99.383799999999994,-4058.0700000000002,-4120.3599999999997,-4110.7299999999996,32.525399999999998,27.081600000000002,19.409600000000001
212478.0,94.951499999999996,-4231.7299999999996,-4297.04,-4282.96,26.190899999999999,28.230399999999999,18.464099999999998
212479.0,91.5107,-4295.21,-4360.0900000000001,-4345.04,22.66,28.3718,17.881
212480.0,87.4071,-4304.1700000000001,-4367.25,-4352.0699999999997,19.1952,28.195,17.3048
212481.0,82.571100000000001,-4261.25,-4321.0900000000001,-4306.7399999999998,15.896000000000001,27.6599,16.7013
212482.0,76.934899999999999,-4187.6300000000001,-4242.6599999999999,-4230.2399999999998,12.9979,26.669899999999998,16.1126
212483.0,70.349900000000005,-4065.6599999999999,-4114.04,-4104.8800000000001,10.648999999999999,25.154,15.5932
212484.0,54.909999999999997,-3634.2800000000002,-3661.54,-3664.54,9.3262699999999992,19.974900000000002,15.5258
212485.0,50.081099999999999,-3298.27,-3308.6900000000001,-3322.3499999999999,12.6881,15.602499999999999,16.904800000000002
212486.0,58.679200000000002,-2828.0300000000002,-2812.9099999999999,-2843.21,20.8431,8.9439899999999994,20.094899999999999
212487.0,93.423000000000002,-2148.21,-2095.73,-2150.5799999999999,35.777700000000003,-0.79871800000000004,25.8307
212488.0,121.768,-1207.24,-1124.47,-1198.52,44.788699999999999,-9.2133400000000005,27.984400000000001
212489.0,420.61599999999999,-823.81700000000001,-1051.77,-963.33299999999997,205.15799999999999,21.665600000000001,56.616599999999998
212490.0,230.309,437.92599999999999,468.48099999999999,458.87200000000001,127.639,9.6055200000000003,32.442100000000003
212491.0,107.506,3140.1999999999998,3100.3899999999999,3087.4899999999998,47.287300000000002,20.755199999999999,20.753799999999998
212492.0,90.088399999999993,4069.9000000000001,4012.4099999999999,4023.3600000000001,26.921099999999999,25.944900000000001,19.385400000000001
212493.0,56.721299999999999,3244.3800000000001,3220.29,3215.4099999999999,12.5641,19.868300000000001,16.708600000000001
212494.0,60.766199999999998,2511.5999999999999,2520.2600000000002,2492.23,22.828800000000001,11.224600000000001,19.434699999999999
212495.0,82.090999999999994,4026.9000000000001,3972.8499999999999,3984.4099999999999,20.484200000000001,25.879000000000001,18.620899999999999
212496.0,103.14,3449.0799999999999,3401.1700000000001,3397.02,42.081400000000002,22.6051,20.668099999999999
212497.0,195.179,1880.6700000000001,1913.4300000000001,1856.52,101.904,18.574000000000002,33.953699999999998
212498.0,219.51300000000001,1343.5699999999999,1391.52,1330.24,116.45999999999999,13.128,35.886099999999999
212499.0,143.03299999999999,1998.75,2008.3,1964.48,72.567999999999998,18.521599999999999,26.064599999999999
212500.0,116.17,2429.2800000000002,2417.3800000000001,2385.2399999999998,56.337800000000001,18.538699999999999,21.491
212501.0,113.036,2618.1700000000001,2590.79,2566.71,52.542900000000003,19.9145,20.949000000000002
212502.0,112.298,2764.9000000000001,2728.3699999999999,2711.1199999999999,50.860999999999997,20.41,21.1191
212503.0,107.137,-2797.8400000000001,-2833.9099999999999,-2850.9899999999998,47.559800000000003,20.082000000000001,20.605399999999999
212504.0,104.943,3372.5999999999999,3328.8600000000001,3320.1300000000001,44.5246,21.644300000000001,20.7287
212505.0,101.43300000000001,3716.04,3664.3000000000002,3664.52,39.514200000000002,23.608000000000001,20.545999999999999
212506.0,99.156999999999996,3860.3499999999999,3805.7399999999998,3809.6599999999999,36.666800000000002,24.4343,20.2027
212507.0,96.578100000000006,3932.02,3875.3099999999999,3882.3200000000002,33.533000000000001,25.0809,19.994199999999999
212508.0,93.3887,4016.5300000000002,3958.9699999999998,3968.3499999999999,30.115200000000002,25.630700000000001,19.731300000000001
212509.0,88.760900000000007,-3919.52,-3975.5,-3966.5300000000002,27.308199999999999,24.706299999999999,19.1295
212510.0,86.369500000000002,4071.7399999999998,4015.3600000000001,4027.0799999999999,23.6648,26.041399999999999,19.060300000000002
212511.0,77.567599999999999,3964.4899999999998,3913.71,3924.29,17.6221,25.472100000000001,18.125399999999999
212512.0,72.658000000000001,3852.0599999999999,3805.75,3814.3600000000001,15.1631,24.763200000000001,17.606999999999999
212513.0,67.483099999999993,3694.4200000000001,3653.7800000000002,3659.3899999999999,13.303900000000001,23.7028,17.1462
212514.0,61.9452,3494.3899999999999,3461.1100000000001,3462.29,12.2935,22.114999999999998,16.802299999999999
212515.0,58.236499999999999,-3367.5599999999999,-3397.04,-3397.5300000000002,10.0175,21.676300000000001,16.300699999999999
212516.0,53.566499999999998,2926.77,2916.1399999999999,2901.9299999999998,15.278600000000001,16.395099999999999,17.288699999999999
212517.0,88.281099999999995,1937.02,1974.0699999999999,1925.5,37.044400000000003,3.64683,23.839700000000001
212518.0,113.776,1137.3900000000001,1195.54,1130.8900000000001,47.963700000000003,-2.66574,27.209099999999999
212519.0,123.28700000000001,203.73699999999999,274.43099999999998,201.43700000000001,50.665100000000002,-5.8941400000000002,27.2577
212520.0,50.446199999999997,23.360700000000001,-4.9452400000000001,48.092799999999997,-5.54826,-10.341100000000001,-2.4953799999999999
212521.0,223.083,-901.73699999999997,-848.73599999999999,-929.32399999999996,116.754,6.5263999999999998,35.174399999999999
212522.0,194.63399999999999,-1667.55,-1614.97,-1691.8499999999999,99.365799999999993,14.2087,31.742599999999999
212523.0,142.559,-1886.8399999999999,-1856.9000000000001,-1916.2,70.055700000000002,17.331800000000001,26.2073
212524.0,112.259,-2117.8899999999999,-2109.02,-2153.9000000000001,53.5351,17.2773,21.704000000000001
212525.0,108.57599999999999,-2450.1599999999999,-2460.1999999999998,-2495.1799999999998,50.756300000000003,18.684999999999999,21.112500000000001
212526.0,110.90600000000001,-2522.1100000000001,-2548.48,-2573.6599999999999,50.599200000000003,20.144100000000002,21.667899999999999
212527.0,103.39400000000001,-3158.1700000000001,-3197.52,-3210.4200000000001,44.624899999999997,20.3369,20.438700000000001
212528.0,101.15900000000001,-3259.0100000000002,-3302.6900000000001,-3310.6999999999998,42.216299999999997,21.050899999999999,20.289999999999999
212529.0,99.278700000000001,-3426.4899999999998,-3474.1900000000001,-3477.6999999999998,39.750500000000002,21.9238,20.1571
212530.0,97.174099999999996,-3677.3400000000001,-3728.5300000000002,-3727.8699999999999,36.965200000000003,22.8599,19.910599999999999
212531.0,94.712999999999994,-3767.5999999999999,-3821.3099999999999,-3817.2199999999998,33.910400000000003,23.606000000000002,19.726700000000001
212532.0,91.734099999999998,-3835.3000000000002,-3890.6100000000001,-3883.7800000000002,30.531600000000001,24.1845,19.459900000000001
212533.0,85.338200000000001,-3959.3200000000002,-4014.7600000000002,-4004.5799999999999,23.998000000000001,24.995699999999999,18.864100000000001
212534.0,81.449700000000007,-3941.73,-3995.5700000000002,-3984.96,20.680800000000001,25.0839,18.4651
212535.0,77.3292,-3903.1799999999998,-3954.4099999999999,-3944.1700000000001,17.624500000000001,24.964500000000001,18.015699999999999
212536.0,72.913600000000002,-3837.5700000000002,-3885.1799999999998,-3876.1199999999999,14.850099999999999,24.616099999999999,17.505299999999998
212537.0,68.281199999999998,-3720.48,-3763.3899999999999,-3756.3899999999999,12.5512,24.015899999999998,17.021899999999999
212538.0,63.331699999999998,-3563.3800000000001,-3600.3400000000001,-3596.4499999999998,10.8089,23.080200000000001,16.584700000000002
212539.0,53.330399999999997,-3119.5599999999999,-3139.5599999999999,-3146.0900000000001,10.3864,19.622800000000002,16.2469
212540.0,51.5471,-2805.4400000000001,-2812.6700000000001,-2827.8800000000001,13.692500000000001,16.571899999999999,17.099699999999999
212541.0,59.448300000000003,-2394.3099999999999,-2381.9400000000001,-2410.8099999999999,21.3218,11.748900000000001,19.379000000000001
212542.0,87.249099999999999,-1822.4000000000001,-1780.6500000000001,-1830.0599999999999,35.283499999999997,4.4805900000000003,23.775600000000001
212543.0,112.005,-1034.3800000000001,-968.678,-1034.9400000000001,45.316400000000002,-1.9603200000000001,25.942299999999999
212544.0,74.534899999999993,-41.9178,-81.852500000000006,-91.758499999999998,25.5501,14.766299999999999,16.875900000000001
212545.0,29.489599999999999,35.195500000000003,11.3187,29.8276,5.3507800000000003,9.8837600000000005,-2.57734
212546.0,39.694299999999998,31.427099999999999,-0.56438200000000005,42.991999999999997,-0.67172399999999999,-3.87391,-0.83332300000000004
212547.0,41.880299999999998,29.223400000000002,-3.52495,42.481699999999996,-1.82535,-4.4290500000000002,-0.94748699999999997
212548.0,27.1008,44.0045,19.548500000000001,42.359099999999998,4.6987399999999999,4.9917100000000003,-3.3119200000000002
212549.0,72.472399999999993,2.8786200000000002,-53.154200000000003,-46.869300000000003,17.028300000000002,18.729399999999998,12.9483
212550.0,84.321700000000007,-127.29000000000001,-164.66499999999999,-180.16999999999999,33.201099999999997,13.951499999999999,18.280200000000001
212551.0,120.679,24.976800000000001,-70.766000000000005,-52.679699999999997,37.109099999999998,22.028700000000001,20.1187
212552.0,56.448399999999999,2.0384699999999998,-34.090499999999999,-30.6402,14.5326,18.422799999999999,10.6782
212553.0,47.658200000000001,9.5329200000000007,-20.220300000000002,-14.6488,10.933199999999999,18.376899999999999,7.0484099999999996
212554.0,41.140599999999999,14.7661,-10.7041,-4.2460199999999997,8.8237000000000005,17.369700000000002,3.0497200000000002
212555.0,39.933199999999999,36.012999999999998,9.1760300000000008,19.8857,8.2808600000000006,16.738399999999999,0.55211699999999997
212556.0,34.910200000000003,35.1447,11.070499999999999,24.910699999999999,7.9669499999999998,14.0031,-0.84007399999999999
212557.0,26.268000000000001,40.037999999999997,16.9971,42.678699999999999,4.0982599999999998,0.61018499999999998,-3.6425299999999998
212558.0,28.141500000000001,38.636499999999998,15.5435,45.044899999999998,3.2553399999999999,-1.3612299999999999,-3.2786499999999998
212559.0,30.616700000000002,33.450499999999998,9.4299599999999995,42.685299999999998,2.66838,-2.3881700000000001,-2.2228300000000001
212560.0,33.563800000000001,29.959499999999998,3.4931299999999998,40.295900000000003,1.5995999999999999,-3.2193000000000001,-1.5141800000000001
212561.0,36.749200000000002,32.783499999999997,3.1323400000000001,43.444699999999997,0.26425900000000002,-3.5460400000000001,-1.0965
212562.0,44.318199999999997,28.505600000000001,-5.2690599999999996,43.3123,-2.9812799999999999,-4.9285899999999998,-1.22577
212563.0,45.809699999999999,27.7012,-5.1069500000000003,45.007800000000003,-3.9870399999999999,-5.7595599999999996,-1.59473
212564.0,47.675400000000003,27.5471,-4.48522,47.464399999999998,-4.7686200000000003,-6.6390000000000002,-1.97702
212565.0,49.479599999999998,25.401,-5.05898,48.518599999999999,-5.3906599999999996,-7.7050400000000003,-2.3488000000000002
212566.0,51.514800000000001,25.159400000000002,-3.2927599999999999,51.882300000000001,-5.9579700000000004,-8.9440600000000003,-2.7888799999999998
212567.0,93.475399999999993,-40.603400000000001,-93.256100000000004,-108.34099999999999,34.440300000000001,17.522300000000001,12.437200000000001
212568.0,39.680399999999999,-14.063700000000001,-52.597999999999999,-35.733899999999998,5.4238400000000002,11.019299999999999,-0.92311299999999996
212569.0,39.9193,31.3565,1.28112,45.763800000000003,-0.44649100000000003,-3.7605,-1.3073699999999999
212570.0,42.601399999999998,30.816600000000001,-0.926867,46.479500000000002,-1.6049800000000001,-4.1054899999999996,-1.4630399999999999
212571.0,33.329000000000001,11.2011,-22.607099999999999,-2.5731700000000002,3.8431500000000001,8.0423500000000008,-1.34538
212572.0,98.626999999999995,-17.492799999999999,-89.320700000000002,-92.982900000000001,30.055099999999999,20.858899999999998,9.5980000000000008
212573.0,87.580200000000005,-101.73699999999999,-141.00399999999999,-160.738,36.229599999999998,13.773899999999999,12.3447
212574.0,125.473,17.774699999999999,-77.6845,-69.178399999999996,42.766100000000002,20.8962,13.831899999999999
212575.0,86.324200000000005,-35.146099999999997,-94.958100000000002,-102.83499999999999,26.1188,19.653400000000001,6.7294099999999997
212576.0,78.174000000000007,-33.984499999999997,-91.737300000000005,-96.184399999999997,20.813800000000001,19.547999999999998,4.2100299999999997
212577.0,68.093000000000004,-39.832799999999999,-91.668999999999997,-91.272000000000006,16.6386,19.279399999999999,2.8557299999999999
212578.0,58.481499999999997,-42.948999999999998,-90.655299999999997,-82.789599999999993,12.876200000000001,17.809899999999999,1.6934400000000001
212579.0,47.677900000000001,-36.702300000000001,-78.693200000000004,-66.048199999999994,9.1721599999999999,14.4695,0.42344300000000001
212580.0,27.821200000000001,32.159599999999998,3.6707000000000001,26.547799999999999,2.5327099999999998,4.6890599999999996,-1.36355
212581.0,26.940999999999999,38.676299999999998,12.9414,40.140900000000002,2.2000500000000001,0.98155199999999998,-1.4470400000000001
212582.0,28.842500000000001,37.7331,13.849500000000001,45.123800000000003,2.2659899999999999,-1.70092,-1.4419299999999999
212583.0,32.317799999999998,35.208500000000001,10.461399999999999,46.252600000000001,1.38225,-2.9064100000000002,-1.37432
212584.0,36.4754,31.039100000000001,3.5505300000000002,44.174700000000001,0.463675,-3.4442599999999999,-1.2879
212585.0,45.158000000000001,29.3185,-3.60493,46.523299999999999,-2.74254,-4.5061900000000001,-1.7669699999999999
212586.0,47.046900000000001,27.8476,-4.6390599999999997,47.479599999999998,-3.8315299999999999,-5.0815700000000001,-2.1070500000000001
212587.0,48.946899999999999,26.123000000000001,-5.5852599999999999,48.439900000000002,-4.7022700000000004,-5.7605199999999996,-2.5048699999999999
212588.0,50.738900000000001,25.621500000000001,-4.7160399999999996,50.989800000000002,-5.3860700000000001,-6.5741300000000003,-2.8413300000000001
212589.0,52.703699999999998,25.1556,-3.2691300000000001,54.082799999999999,-6.1063900000000002,-7.4929600000000001,-3.1829499999999999
212590.0,96.621499999999997,-34.517800000000001,-92.080299999999994,-105.465,38.448300000000003,14.188499999999999,3.3634499999999998
212591.0,37.139800000000001,3.9004699999999999,-36.118600000000001,-24.579599999999999,5.68513,-1.7771300000000001,0.102864
212592.0,40.991,28.543900000000001,0.38865,46.7134,-0.228575,-3.5353500000000002,-1.6526400000000001
212593.0,44.178699999999999,28.095700000000001,-2.44889,47.3354,-1.44692,-3.6689099999999999,-2.18214
212594.0,30.656700000000001,11.1069,-22.766999999999999,-3.6725400000000001,4.7064000000000004,-1.2112400000000001,1.11778
212595.0,103.497,-18.065300000000001,-95.720600000000005,-99.955600000000004,34.659599999999998,15.552899999999999,1.27593
212596.0,85.088999999999999,-90.847999999999999,-129.959,-147.68100000000001,37.351700000000001,12.0169,5.3108199999999997
212597.0,123.60299999999999,16.025300000000001,-77.983500000000006,-69.635499999999993,45.352499999999999,17.4373,4.9132999999999996
212598.0,90.593299999999999,-32.702100000000002,-98.645899999999997,-107.715,29.281300000000002,14.2118,0.20708599999999999
212599.0,78.272900000000007,-32.924300000000002,-95.953999999999994,-101.895,21.289100000000001,11.2845,-0.90098800000000001
212600.0,66.916200000000003,-23.938800000000001,-82.9191,-84.989000000000004,16.113800000000001,5.3111899999999999,-1.7471099999999999
212601.0,57.375300000000003,-8.7589799999999993,-61.331000000000003,-60.889699999999998,13.3909,0.076480999999999993,-2.0929199999999999
212602.0,45.906599999999997,-6.00488,-50.268900000000002,-46.509799999999998,9.7489000000000008,-1.9243399999999999,-1.1752100000000001
212603.0,25.933700000000002,10.557399999999999,-15.9915,8.5544899999999995,1.6904699999999999,-1.0032799999999999,1.3276600000000001
212604.0,28.975899999999999,33.261099999999999,7.0484200000000001,37.923200000000001,-0.0137836,-1.36351,0.99725900000000001
212605.0,31.072900000000001,38.134,14.496,49.028799999999997,2.16737,-2.3027299999999999,0.42695899999999998
212606.0,33.419400000000003,29.621700000000001,7.3029900000000003,45.125100000000003,1.1594,-3.0126599999999999,-0.60546900000000003
212607.0,37.750700000000002,34.558999999999997,8.4912100000000006,51.171100000000003,0.45044699999999999,-3.2622100000000001,-1.1621999999999999
212608.0,46.469299999999997,26.524899999999999,-5.1439700000000004,47.058500000000002,-2.4553199999999999,-3.9188800000000001,-2.6082299999999998
212609.0,48.360999999999997,26.2273,-5.6125299999999996,48.462800000000001,-3.6569699999999998,-4.3070700000000004,-2.9912399999999999
212610.0,50.004800000000003,26.200800000000001,-4.9017400000000002,50.799900000000001,-4.5585399999999998,-4.7932100000000002,-3.24742
212611.0,51.862699999999997,23.566800000000001,-6.4228199999999998,51.085900000000002,-5.3515499999999996,-5.3251499999999998,-3.50176
212612.0,53.755699999999997,23.0534,-5.0695699999999997,54.073999999999998,-6.12751,-5.9919200000000004,-3.8190400000000002
212613.0,84.661900000000003,-36.7271,-89.576700000000002,-90.976299999999995,36.254399999999997,10.1516,-3.9296500000000001
212614.0,21.6416,39.970199999999998,23.828800000000001,43.9758,3.2950499999999998,-5.4283099999999997,1.43035
212615.0,43.9572,29.567799999999998,2.5014599999999998,52.476799999999997,-0.075961399999999998,-3.1469999999999998,-2.88849
212616.0,46.162199999999999,30.595300000000002,1.0139499999999999,53.229599999999998,-1.2516400000000001,-3.2587999999999999,-3.5339
212617.0,26.889900000000001,32.727699999999999,15.126200000000001,42.030200000000001,3.56175,-6.0555899999999996,2.2292999999999998
212618.0,84.206000000000003,-16.738700000000001,-84.7941,-75.064300000000003,29.694500000000001,9.6222999999999992,-5.8750900000000001
212619.0,79.369699999999995,-91.060299999999998,-128.66,-139.60400000000001,36.945900000000002,9.2770499999999991,-0.66741899999999998
212620.0,117.06699999999999,17.802800000000001,-74.671800000000005,-57.2624,44.520400000000002,12.831,-2.5743499999999999
212621.0,62.143799999999999,-25.581399999999999,-77.639499999999998,-70.758099999999999,20.698699999999999,4.2662000000000004,-6.3973000000000004
212622.0,48.055599999999998,3.7057799999999999,-42.133099999999999,-33.199599999999997,11.340199999999999,-1.45966,-6.9676099999999996
212623.0,36.938400000000001,49.324599999999997,13.844200000000001,22.077200000000001,7.8505200000000004,-4.02522,-5.6690100000000001
212624.0,25.480699999999999,64.8553,40.8583,49.6023,6.6735899999999999,-4.27013,-2.4812699999999999
212625.0,19.345700000000001,50.941299999999998,34.573399999999999,47.391500000000001,5.2286799999999998,-4.8224999999999998,0.14634
212626.0,29.865200000000002,23.7209,6.7280600000000002,38.300400000000003,2.34938,-6.2690999999999999,1.67337
212627.0,33.659300000000002,31.190799999999999,10.9801,48.531300000000002,0.56010000000000004,-4.8714599999999999,0.62779499999999999
212628.0,36.421100000000003,40.936399999999999,19.676100000000002,60.845799999999997,2.0525699999999998,-3.7264300000000001,0.42121999999999998
212629.0,38.383099999999999,31.8809,10.648899999999999,54.3078,1.3066599999999999,-3.52555,-0.55404699999999996
212630.0,41.817999999999998,30.5533,5.70364,53.385599999999997,0.53504499999999999,-3.1795599999999999,-1.94678
212631.0,48.025399999999998,28.067,-2.6120700000000001,51.540500000000002,-2.2685300000000002,-3.3790499999999999,-3.8469099999999998
212632.0,49.868499999999997,26.7193,-4.1908899999999996,51.8367,-3.4590100000000001,-3.5093100000000002,-4.1360900000000003
212633.0,51.381900000000002,24.100100000000001,-5.98421,51.518799999999999,-4.3914999999999997,-3.7451699999999999,-4.4134799999999998
212634.0,52.934699999999999,24.214300000000001,-4.9359799999999998,54.038699999999999,-5.2028800000000004,-4.0634300000000003,-4.57193
212635.0,54.677100000000003,23.241399999999999,-4.3339600000000003,56.18,-6.0772599999999999,-4.4629300000000001,-4.6687700000000003
212636.0,67.745999999999995,-33.028599999999997,-77.546199999999999,-63.883299999999998,30.6051,3.62384,-7.7430399999999997
212637.0,43.248399999999997,45.779600000000002,57.493000000000002,92.528499999999994,-0.58520000000000005,-5.4972300000000001,-1.10443
212638.0,48.823900000000002,28.306000000000001,2.38293,57.558300000000003,-0.041801100000000001,-2.3167599999999999,-5.21699
212639.0,50.379399999999997,25.142600000000002,-2.5482900000000002,54.222999999999999,-1.11025,-2.15496,-5.8520399999999997
212640.0,41.433900000000001,44.746499999999997,48.1721,86.964799999999997,0.78687600000000002,-4.6381899999999998,-0.53861599999999998
212641.0,59.966999999999999,-8.7638200000000008,-62.591999999999999,-34.302,19.521599999999999,0.083254700000000001,-9.6219300000000008
212642.0,73.430199999999999,-98.400999999999996,-134.19499999999999,-136.29300000000001,35.772100000000002,6.6942000000000004,-4.39323
212643.0,109.221,22.695399999999999,-67.921400000000006,-38.4328,41.546100000000003,7.80145,-7.2931600000000003
212644.0,37.9876,12.136100000000001,-20.310400000000001,6.6381199999999998,8.1267899999999997,-3.59491,-10.025600000000001
212645.0,31.080400000000001,65.738900000000001,47.822699999999998,76.333100000000002,1.31542,-4.1163800000000004,-9.7797999999999998
212646.0,32.656399999999998,68.373999999999995,72.322699999999998,99.585700000000003,-1.22878,-3.3920300000000001,-7.3228499999999999
212647.0,40.8551,58.427100000000003,73.390000000000001,102.771,-3.2812700000000001,-4.1314900000000003,-4.4295799999999996
212648.0,44.0685,52.448700000000002,69.076899999999995,100.979,-2.1192799999999998,-5.3913200000000003,-2.3548100000000001
212649.0,41.180999999999997,43.752099999999999,39.670000000000002,82.071799999999996,1.7998700000000001,-3.8410500000000001,-0.36812699999999998
212650.0,42.956299999999999,36.378500000000003,25.8964,72.584400000000002,1.9291,-3.1950099999999999,-1.03281
212651.0,45.249000000000002,28.6449,13.032400000000001,63.5137,1.8429199999999999,-2.43486,-2.2753700000000001
212652.0,46.366900000000001,29.777799999999999,10.0566,62.339100000000002,1.3766799999999999,-2.3235600000000001,-3.49709
212653.0,47.285499999999999,31.593499999999999,8.3301400000000001,61.775199999999998,0.79711500000000002,-2.5003099999999998,-4.5098200000000004
212654.0,51.462699999999998,25.987300000000001,-2.6256300000000001,55.120800000000003,-2.1407799999999999,-2.2246100000000002,-6.2918200000000004
212655.0,52.239400000000003,24.346599999999999,-4.5904499999999997,53.7791,-3.2163900000000001,-2.4676499999999999,-6.4379299999999997
212656.0,52.906399999999998,26.2651,-1.9352199999999999,56.993600000000001,-4.1581099999999998,-2.7018900000000001,-6.3052099999999998
212657.0,54.220700000000001,21.9054,-5.58683,54.6873,-4.93635,-2.76573,-6.1130500000000003
212658.0,55.816600000000001,22.112400000000001,-4.1914899999999999,57.510899999999999,-5.8770800000000003,-2.9530099999999999,-6.0455300000000003
212659.0,57.767600000000002,-23.223800000000001,-63.061100000000003,-41.186500000000002,25.895,2.4076,-6.1633899999999997
212660.0,61.295999999999999,42.125,67.265199999999993,110.605,-3.5716000000000001,1.0096000000000001,-6.2161499999999998
212661.0,54.424999999999997,32.642400000000002,5.2146699999999999,65.346500000000006,-0.52841499999999997,-0.54371199999999997,-8.9724699999999995
212662.0,54.548000000000002,32.515000000000001,4.3325300000000002,64.195899999999995,-1.40205,-1.24566,-9.5594999999999999
212663.0,57.390700000000002,34.914700000000003,50.527000000000001,97.437600000000003,-0.91284200000000004,0.98516599999999999,-6.0977800000000002
212664.0,50.868699999999997,39.706899999999997,-9.3582699999999992,27.4102,12.4008,-0.64195199999999997,-7.5229200000000001
212665.0,69.236500000000007,-102.41200000000001,-137.267,-132.06399999999999,34.593499999999999,4.4998300000000002,-5.23604
212666.0,103.563,25.249700000000001,-63.108600000000003,-24.994700000000002,39.111800000000002,4.3944999999999999,-7.8725899999999998
212667.0,36.392200000000003,71.8292,48.321899999999999,85.694299999999998,3.79128,-1.6266,-8.2171900000000004
212668.0,42.132199999999997,83.880899999999997,83.973200000000006,123.485,-2.2437299999999998,-0.92321399999999998,-8.0123599999999993
212669.0,56.150100000000002,63.916899999999998,87.1738,125.206,-6.3910999999999998,-1.1431,-7.1764999999999999
212670.0,63.579000000000001,56.480499999999999,87.872399999999999,126.687,-7.7769700000000004,-0.76561199999999996,-7.0367600000000001
212671.0,64.364699999999999,47.415300000000002,79.243600000000001,119.423,-5.9584700000000002,0.57719699999999996,-6.5572299999999997
212672.0,53.645400000000002,29.839400000000001,34.762099999999997,84.729600000000005,0.89195100000000005,0.94394699999999998,-5.9388100000000001
212673.0,50.728099999999998,33.627000000000002,27.8248,80.151600000000002,1.58335,0.0471122,-5.7056899999999997
212674.0,50.413200000000003,39.595100000000002,24.4588,79.370500000000007,1.9852099999999999,-1.0899399999999999,-6.1335800000000003
212675.0,51.805399999999999,35.431800000000003,14.233000000000001,71.624899999999997,1.78162,-0.63042200000000004,-6.9882900000000001
212676.0,53.3307,30.003900000000002,5.1486000000000001,64.422600000000003,0.52314899999999998,0.018308399999999999,-7.8616700000000002
212677.0,54.424300000000002,30.528700000000001,2.8197000000000001,62.430300000000003,-2.3386900000000002,-1.47062,-9.4806100000000004
212678.0,54.969799999999999,26.999500000000001,-0.171491,60.064300000000003,-3.2728299999999999,-1.2842800000000001,-9.2132400000000008
212679.0,55.471499999999999,24.074000000000002,-1.5393300000000001,59.050699999999999,-4.0773400000000004,-1.1879,-9.08657
212680.0,56.001300000000001,23.6554,-1.0192099999999999,60.131799999999998,-4.7055600000000002,-1.21624,-8.6769700000000007
212681.0,57.098799999999997,22.9087,-1.0725899999999999,61.2759,-5.5307500000000003,-1.36652,-8.07592
212682.0,57.683599999999998,-29.6114,-69.809700000000007,-46.033799999999999,26.025200000000002,3.8390200000000001,-2.9329299999999998
212683.0,56.279699999999998,46.421100000000003,66.373400000000004,104.458,-3.61524,4.7339799999999999,-12.282500000000001
212684.0,57.081099999999999,33.1175,-2.3940399999999999,58.7941,-1.00221,2.02826,-11.700799999999999
212685.0,58.622900000000001,27.919599999999999,-6.0478500000000004,56.368699999999997,-2.9913799999999999,2.43838,-12.4161
212686.0,51.652999999999999,49.031300000000002,60.323099999999997,100.84099999999999,-0.87387800000000004,3.7528600000000001,-11.499499999999999
212687.0,54.217300000000002,25.483799999999999,-27.1053,12.0189,13.870100000000001,5.7889999999999997,-2.7709299999999999
212688.0,67.101100000000002,-97.946100000000001,-132.608,-125.68000000000001,33.702100000000002,2.55735,-4.69529
212689.0,100.486,24.438800000000001,-61.015000000000001,-22.739999999999998,38.580100000000002,1.59728,-6.5296000000000003
212690.0,39.709800000000001,58.177,26.926200000000001,64.637,7.1458300000000001,7.9638200000000001,-2.0962700000000001
212691.0,35.449599999999997,72.586200000000005,61.301499999999997,97.474500000000006,1.4507399999999999,8.0615699999999997,-3.04216
212692.0,42.667900000000003,63.542000000000002,72.044600000000003,105.83799999999999,-4.0684800000000001,8.0615900000000007,-4.9762300000000002
212693.0,51.549599999999998,61.543399999999998,77.540199999999999,114.31100000000001,-6.3686499999999997,7.0750599999999997,-7.9441899999999999
212694.0,56.758699999999997,51.049700000000001,72.463099999999997,110.17100000000001,-4.52013,5.7833399999999999,-11.136200000000001
212695.0,48.507199999999997,46.349800000000002,46.641800000000003,91.005200000000002,1.03305,3.0131700000000001,-10.6671
212696.0,48.115900000000003,39.840699999999998,27.120000000000001,75.932100000000005,2.8061600000000002,4.0663900000000002,-10.302
212697.0,48.9146,31.570399999999999,9.6159800000000004,61.220599999999997,2.6589900000000002,5.4873000000000003,-9.4693500000000004
212698.0,52.457299999999996,34.0533,2.0205099999999998,58.945799999999998,0.030644299999999999,3.79576,-9.4062300000000008
212699.0,56.132800000000003,38.898699999999998,1.9760800000000001,62.499699999999997,0.069495299999999996,1.88713,-10.777799999999999
212700.0,59.167299999999997,28.815999999999999,-1.59084,60.716299999999997,-3.9216899999999999,2.1705999999999999,-13.2704
212701.0,58.613199999999999,26.240300000000001,-0.47342499999999998,60.853700000000003,-4.2691800000000004,1.2688999999999999,-13.412000000000001
212702.0,57.671700000000001,29.010200000000001,5.9808700000000004,66.247799999999998,-4.4541700000000004,0.56616200000000005,-12.7933
212703.0,57.888399999999997,22.495699999999999,1.2951900000000001,62.184699999999999,-4.78993,0.67072699999999996,-11.7584
212704.0,58.863199999999999,22.765799999999999,2.4133,64.766499999999994,-5.1822499999999998,0.62814300000000001,-10.801600000000001
212705.0,67.129400000000004,-32.033299999999997,-77.675899999999999,-60.737200000000001,30.960000000000001,0.36815300000000001,-3.3335599999999999
212706.0,37.866599999999998,47.430799999999998,43.177100000000003,68.804000000000002,-1.41645,10.7638,-13.0953
212707.0,59.927300000000002,25.248000000000001,-29.173300000000001,26.973199999999999,-1.4540200000000001,3.34259,-12.817600000000001
212708.0,60.010899999999999,30.007400000000001,-19.723500000000001,38.940800000000003,-6.1479499999999998,1.42316,-12.7095
212709.0,40.8444,45.779200000000003,38.945300000000003,68.238799999999998,-0.056237200000000001,11.0113,-14.1408
212710.0,66.400899999999993,-9.6218500000000002,-69.316999999999993,-39.052300000000002,23.807600000000001,1.4319999999999999,-3.1473800000000001
212711.0,67.280699999999996,-85.626800000000003,-120.363,-116.605,33.411099999999998,0.77850399999999997,-5.3471599999999997
212712.0,100.154,19.953700000000001,-62.3613,-31.7591,39.436599999999999,-1.7982899999999999,-7.3535399999999997
212713.0,50.983899999999998,-15.6426,-62.2898,-32.557000000000002,16.457699999999999,5.8192899999999996,-2.0128599999999999
212714.0,43.508000000000003,4.11782,-34.772100000000002,-4.1099300000000003,10.780200000000001,9.3457299999999996,-2.7165599999999999
212715.0,34.140900000000002,5.7267299999999999,-19.467700000000001,8.3073899999999998,4.0470699999999997,10.5169,-5.10602
212716.0,34.142499999999998,42.225299999999997,21.382200000000001,49.603900000000003,-0.21967400000000001,9.7632899999999996,-8.8868100000000005
212717.0,34.852699999999999,62.089799999999997,51.474499999999999,76.734700000000004,0.88045099999999998,10.2478,-11.7575
212718.0,41.007300000000001,36.715499999999999,24.043600000000001,56.810200000000002,0.44946199999999997,9.8862900000000007,-13.7691
212719.0,44.486199999999997,36.3782,10.7158,50.898499999999999,3.4701599999999999,7.4151999999999996,-13.365600000000001
212720.0,47.2973,4.6074200000000003,-28.284800000000001,16.1525,4.4907300000000001,5.7826399999999998,-12.6661
212721.0,54.274099999999997,14.207100000000001,-33.696100000000001,17.4633,-1.1369499999999999,4.6097000000000001,-11.786300000000001
212722.0,62.046399999999998,39.6111,-19.5122,36.8643,-0.78015800000000002,4.0922900000000002,-12.3421
212723.0,61.463099999999997,37.598999999999997,-6.9325200000000002,54.853700000000003,-7.0085499999999996,0.129661,-13.918100000000001
212724.0,59.267899999999997,36.858600000000003,4.1992099999999999,64.203299999999999,-5.7819900000000004,1.3681000000000001,-15.2681
212725.0,58.981200000000001,25.940999999999999,1.7546999999999999,60.847099999999998,-5.8807999999999998,2.8484400000000001,-15.308299999999999
212726.0,59.752499999999998,28.329499999999999,9.4224999999999994,69.0017,-5.9554999999999998,3.0811099999999998,-14.7737
212727.0,60.497799999999998,23.732199999999999,7.7301500000000001,68.654700000000005,-4.99993,2.98902,-13.7264
212728.0,79.666700000000006,-26.5489,-78.7654,-71.335499999999996,35.518000000000001,-2.8821300000000001,-6.91533
212729.0,39.326999999999998,17.114599999999999,-17.8049,3.0696300000000001,0.64863599999999999,4.93018,-13.4938
212730.0,70.758499999999998,-18.073699999999999,-89.220299999999995,-28.151800000000001,-2.0423300000000002,3.4171200000000002,-13.0746
212731.0,70.239599999999996,-9.1575500000000005,-76.807500000000005,-17.0169,-7.9663199999999996,4.2331700000000003,-13.938599999999999
212732.0,38.819200000000002,32.218499999999999,5.1650299999999998,29.0351,1.8420399999999999,3.49736,-16.372299999999999
212733.0,86.516099999999994,-13.2675,-82.902799999999999,-66.758099999999999,32.923699999999997,-5.0124899999999997,-7.5776700000000003
212734.0,69.617999999999995,-73.201999999999998,-108.48699999999999,-109.071,33.6004,-1.0244599999999999,-7.9703799999999996
212735.0,101.98399999999999,16.6539,-62.7395,-41.200699999999998,40.520699999999998,-4.7370700000000001,-10.807600000000001
212736.0,78.284000000000006,-25.7727,-89.607699999999994,-76.053600000000003,28.7193,-4.8557800000000002,-7.9552899999999998
212737.0,73.165800000000004,-23.5717,-87.980099999999993,-72.772900000000007,23.489899999999999,-4.4266500000000004,-8.9238199999999992
212738.0,64.334199999999996,-13.251200000000001,-74.078000000000003,-58.693899999999999,16.8033,-2.05972,-9.6318300000000008
212739.0,58.479799999999997,6.7073999999999998,-50.526600000000002,-33.380000000000003,12.0928,2.5501100000000001,-11.1549
212740.0,46.3889,1.9261200000000001,-41.743299999999998,-24.9468,7.0627500000000003,6.2042799999999998,-11.988300000000001
212741.0,37.636800000000001,19.716799999999999,-1.99675,23.275400000000001,1.6330199999999999,3.6281099999999999,-16.407599999999999
212742.0,41.381799999999998,20.275400000000001,-11.3643,20.525099999999998,2.0804800000000001,2.7252900000000002,-14.9237
212743.0,47.442900000000002,10.3606,-31.000299999999999,6.55762,5.3808800000000003,1.8994,-13.9673
212744.0,55.350499999999997,-14.703200000000001,-68.626900000000006,-21.816800000000001,1.4429700000000001,1.64967,-12.5763
212745.0,69.0608,-6.2998700000000003,-76.914500000000004,-17.975000000000001,-0.90115199999999995,2.0463399999999998,-12.3301
212746.0,68.933700000000002,18.615100000000002,-43.869799999999998,15.138400000000001,-10.628,4.5642399999999999,-14.7341
212747.0,60.593400000000003,31.4299,-12.0733,44.625500000000002,-11.0914,4.0639200000000004,-14.2858
212748.0,60.701799999999999,34.393000000000001,1.70652,61.409100000000002,-8.3770799999999994,3.2317,-15.9323
212749.0,60.694899999999997,28.781300000000002,9.3524700000000003,67.244600000000005,-7.3900600000000001,4.9948899999999998,-16.742999999999999
212750.0,61.800800000000002,25.5045,13.4633,71.844499999999996,-5.8093300000000001,6.2236000000000002,-15.827400000000001
212751.0,87.561300000000003,-25.4971,-80.157600000000002,-78.537800000000004,36.924100000000003,-5.5834200000000003,-13.921799999999999
212752.0,58.639499999999998,4.49336,-53.957299999999996,-37.627400000000002,4.6689299999999996,-5.2030599999999998,-13.703200000000001
212753.0,77.871499999999997,-4.8430099999999996,-78.9345,-7.7010500000000004,-1.42909,-8.14452,-13.819000000000001
212754.0,78.8292,-17.192699999999999,-90.463800000000006,-16.737200000000001,-3.1597,-5.4680099999999996,-15.189399999999999
212755.0,46.761299999999999,41.920299999999997,-4.0149600000000003,13.2387,2.77081,-2.6255199999999999,-13.263
212756.0,97.806299999999993,-10.0206,-84.355000000000004,-74.928899999999999,35.536099999999998,-8.5920000000000005,-14.633100000000001
212757.0,73.392700000000005,-67.423000000000002,-103.78100000000001,-107.279,34.115600000000001,-2.4610599999999998,-11.767099999999999
212758.0,105.504,14.0032,-64.025800000000004,-47.831800000000001,41.099400000000003,-7.1050000000000004,-16.582899999999999
212759.0,94.950400000000002,-22.213000000000001,-95.132900000000006,-88.968100000000007,33.302900000000001,-8.3826099999999997,-13.805
212760.0,93.757999999999996,-24.210899999999999,-101.545,-94.218199999999996,29.269400000000001,-8.0091300000000007,-13.6675
212761.0,89.5244,-30.7211,-109.431,-99.203500000000005,24.519200000000001,-6.9761300000000004,-13.7867
212762.0,82.783900000000003,-33.856999999999999,-109.057,-95.516800000000003,20.554400000000001,-6.6663199999999998,-14.5177
212763.0,68.537599999999998,-34.456000000000003,-99.1614,-85.193299999999994,12.6249,-6.4617800000000001,-14.328200000000001
212764.0,37.1357,43.384700000000002,10.4152,31.743500000000001,1.2295199999999999,-1.5249999999999999,-13.277200000000001
212765.0,39.247799999999998,38.300800000000002,8.0480699999999992,37.679200000000002,1.9142999999999999,-0.74589700000000003,-14.501899999999999
212766.0,44.792000000000002,17.2563,-17.238499999999998,20.9343,4.2844199999999999,-0.35194500000000001,-14.3828
212767.0,53.561599999999999,-0.44943899999999998,-47.310699999999997,2.0032899999999998,2.4931299999999998,-3.1875399999999998,-12.9458
212768.0,69.633200000000002,6.0418000000000003,-60.110399999999998,3.1083799999999999,0.65365200000000001,-6.87357,-13.1035
212769.0,77.818100000000001,-46.345399999999998,-114.188,-41.276200000000003,-10.760999999999999,-1.66635,-15.5741
212770.0,70.350800000000007,2.3991600000000002,-49.947400000000002,14.4003,-15.0471,1.81457,-15.7872
212771.0,62.891800000000003,29.6431,-11.0992,47.731000000000002,-10.694900000000001,4.3801600000000001,-16.639700000000001
212772.0,59.887500000000003,32.109400000000001,9.2651299999999992,65.253200000000007,-10.9474,6.3116399999999997,-15.598599999999999
212773.0,62.212699999999998,33.178699999999999,21.224900000000002,78.227599999999995,-6.3315999999999999,8.6643100000000004,-16.473700000000001
212774.0,92.543000000000006,-25.3125,-81.202500000000001,-80.738299999999995,36.470599999999997,-6.7055100000000003,-21.142700000000001
212775.0,52.858699999999999,-37.657600000000002,-90.580200000000005,-65.637200000000007,7.0034299999999998,-4.0235300000000001,-12.8507
212776.0,81.487399999999994,39.716200000000001,-42.691299999999998,23.976099999999999,-1.6549100000000001,-5.1197999999999997,-16.449000000000002
212777.0,84.186000000000007,31.720199999999998,-53.357799999999997,15.1752,-4.08589,-7.85161,-15.7889
212778.0,40.122199999999999,-20.359999999999999,-61.162999999999997,-33.173900000000003,-0.33920600000000001,0.809338,-10.0207
212779.0,100.657,-12.333299999999999,-85.428200000000004,-76.183800000000005,33.765799999999999,-10.367699999999999,-23.354600000000001
212780.0,79.163600000000002,-69.7697,-107.69799999999999,-112.98099999999999,35.5974,-4.0845200000000004,-15.795199999999999
212781.0,112.575,14.932700000000001,-65.759399999999999,-50.341200000000001,42.240699999999997,-9.3527500000000003,-22.7529
212782.0,92.226299999999995,-21.6629,-88.694400000000002,-80.558300000000003,29.116099999999999,-11.8346,-22.5702
212783.0,88.6905,-18.910299999999999,-87.718199999999996,-72.696799999999996,24.7285,-15.061500000000001,-21.7897
212784.0,84.762,-21.848600000000001,-87.987399999999994,-69.425899999999999,23.0427,-15.9755,-21.093499999999999
212785.0,77.364699999999999,-30.759699999999999,-93.917100000000005,-74.532499999999999,19.9468,-13.9901,-18.834
212786.0,65.671099999999996,-40.744100000000003,-100.57599999999999,-79.055599999999998,13.533099999999999,-9.8488100000000003,-15.458600000000001
212787.0,37.2883,35.7622,2.9185099999999999,35.634,-3.2802699999999998,2.24777,-9.4598099999999992
212788.0,36.429400000000001,60.170499999999997,36.297800000000002,70.830699999999993,1.1068899999999999,3.32518,-10.8355
212789.0,41.099899999999998,45.868299999999998,21.035399999999999,61.257300000000001,2.6691500000000001,3.1389200000000002,-11.584899999999999
212790.0,53.333599999999997,42.5259,-0.68997399999999998,51.523699999999998,1.3147899999999999,0.85198399999999996,-12.906000000000001
212791.0,71.444400000000002,52.871499999999997,-15.3668,47.799500000000002,1.2017500000000001,-2.5790500000000001,-15.747299999999999
212792.0,88.029300000000006,15.416600000000001,-67.188400000000001,6.9023500000000002,-13.3369,-10.9346,-14.878299999999999
212793.0,78.899799999999999,34.670900000000003,-31.4374,39.074599999999997,-13.572800000000001,-5.2475100000000001,-17.407699999999998
212794.0,66.579499999999996,-13.379200000000001,-58.266599999999997,3.09436,-9.9690799999999999,4.45695,-18.7028
212795.0,62.659100000000002,16.447099999999999,-6.2404900000000003,47.829500000000003,-16.0642,9.6984100000000009,-14.8125
212796.0,62.980699999999999,42.652299999999997,28.570799999999998,84.630799999999994,-8.0858899999999991,12.415900000000001,-15.878299999999999
212797.0,96.999300000000005,-29.521799999999999,-86.832499999999996,-84.828000000000003,36.408799999999999,-8.1468100000000003,-26.1999
212798.0,41.602699999999999,-18.4648,-42.728099999999998,-5.2836400000000001,4.5075500000000002,-4.7791100000000002,-13.1534
212799.0,89.242400000000004,-19.748200000000001,-112.239,-45.869100000000003,-2.1247699999999998,0.26519999999999999,-19.403500000000001
212800.0,95.472200000000001,-24.177399999999999,-123.214,-53.910600000000002,-10.4039,-0.851132,-18.622599999999998
212801.0,39.7774,-2.6765300000000001,-21.3475,19.549399999999999,-1.28477,-1.7492099999999999,-10.173999999999999
212802.0,101.129,-11.2143,-83.776799999999994,-70.379300000000001,31.828199999999999,-10.588800000000001,-28.1601
212803.0,86.801900000000003,-82.286000000000001,-122.128,-128.93700000000001,38.297199999999997,-6.3179600000000002,-19.2333
212804.0,123.462,14.297599999999999,-72.558599999999998,-54.674599999999998,44.784199999999998,-12.6546,-28.490600000000001
212805.0,81.7958,-19.227,-80.2423,-67.650700000000001,21.6815,-9.7096699999999991,-25.062100000000001
212806.0,75.080399999999997,28.6493,-32.674399999999999,-12.8706,14.9114,-11.5932,-23.2986
212807.0,65.413200000000003,50.072000000000003,0.53785499999999997,21.100999999999999,14.6717,-10.211,-22.078800000000001
212808.0,54.258400000000002,24.380800000000001,-14.166399999999999,10.7408,12.112299999999999,-8.3834199999999992,-19.552099999999999
212809.0,46.931100000000001,-3.5094599999999998,-35.196100000000001,-3.10141,8.7188499999999998,-6.6638500000000001,-16.574200000000001
212810.0,40.729399999999998,39.231999999999999,21.162800000000001,63.4099,-3.2613699999999999,3.6855799999999999,-8.9121799999999993
212811.0,41.167099999999998,59.125900000000001,42.142499999999998,81.648399999999995,0.12303799999999999,9.3261599999999998,-9.2294800000000006
212812.0,44.455800000000004,62.731699999999996,36.299900000000001,78.689599999999999,0.65771299999999999,9.06982,-10.849600000000001
212813.0,58.747799999999998,64.582499999999996,13.430199999999999,66.0274,1.3493900000000001,4.3051700000000004,-15.2499
212814.0,79.590100000000007,46.039999999999999,-32.3294,29.454799999999999,3.3477199999999998,1.1105700000000001,-19.834399999999999
212815.0,98.0548,-6.3864700000000001,-104.149,-33.182000000000002,-19.1311,-2.02251,-16.8187
212816.0,82.670299999999997,46.866799999999998,-27.415400000000002,39.9268,-18.773399999999999,-1.2361500000000001,-15.513199999999999
212817.0,69.1327,10.0318,-40.529800000000002,23.505400000000002,-8.87026,2.0550700000000002,-19.2471
212818.0,62.0486,-9.7687100000000004,-27.759,24.9556,-14.569900000000001,10.394500000000001,-15.6515
212819.0,64.502499999999998,32.506700000000002,22.853200000000001,75.540499999999994,-11.2454,16.0182,-14.73
212820.0,101.08499999999999,-38.045299999999997,-96.363699999999994,-93.131600000000006,37.627699999999997,-10.7682,-28.2836
212821.0,40.903199999999998,49.026699999999998,39.870899999999999,75.043000000000006,-2.0559799999999999,11.6021,-9.2680799999999994
212822.0,98.650199999999998,-68.733500000000006,-166.16,-92.341700000000003,-5.2103299999999999,-11.153,-22.568899999999999
212823.0,102.396,-57.803100000000001,-154.822,-74.8005,-10.486800000000001,-14.7667,-21.971299999999999
212824.0,43.285800000000002,62.883400000000002,52.091500000000003,88.869799999999998,-3.1799200000000001,13.3475,-8.8818900000000003
212825.0,100.455,-17.648199999999999,-89.828599999999994,-71.9739,30.598299999999998,-12.144600000000001,-29.438500000000001
212826.0,96.196100000000001,-99.405199999999994,-140.255,-149.93799999999999,41.902200000000001,-10.4695,-22.3566
212827.0,136.63300000000001,14.594099999999999,-78.973200000000006,-58.293599999999998,48.703400000000002,-18.4861,-33.063899999999997
212828.0,70.086299999999994,-20.830200000000001,-75.386300000000006,-57.071199999999997,15.667,-7.6857100000000003,-23.7058
212829.0,58.508499999999998,36.058500000000002,-15.4109,13.454499999999999,6.1384299999999996,-3.8241000000000001,-20.572700000000001
212830.0,43.805100000000003,55.524299999999997,23.557700000000001,51.477600000000002,3.9144700000000001,3.8473299999999999,-17.508400000000002
212831.0,37.283000000000001,59.544499999999999,40.997399999999999,70.942099999999996,0.46543699999999999,7.6088199999999997,-13.2965
212832.0,38.649700000000003,56.588700000000003,44.670999999999999,77.754499999999993,0.27553899999999998,9.7174899999999997,-11.075699999999999
212833.0,44.989199999999997,63.195099999999996,51.9191,88.717799999999997,-2.9535800000000001,14.8484,-9.4881899999999995
212834.0,46.6173,60.2455,42.094200000000001,81.049000000000007,-1.4279500000000001,13.724,-12.4115
212835.0,52.327399999999997,51.016399999999997,14.698600000000001,57.980499999999999,-0.26937100000000003,9.6814,-16.6968
212836.0,68.664000000000001,33.886800000000001,-28.875599999999999,21.158799999999999,2.4482599999999999,4.5736999999999997,-21.069099999999999
212837.0,86.775199999999998,-18.5945,-104.73,-42.950600000000001,1.9076900000000001,-2.6711100000000001,-22.971
212838.0,98.984200000000001,-58.566400000000002,-147.499,-65.716899999999995,-17.929099999999998,-12.9923,-18.284400000000002
212839.0,80.683099999999996,19.881799999999998,-45.962000000000003,23.854099999999999,-20.487300000000001,-4.4730600000000003,-13.8781
212840.0,66.850499999999997,42.4191,-9.1507400000000008,53.541600000000003,-11.851699999999999,2.7448000000000001,-14.924799999999999
212841.0,57.238399999999999,24.4983,2.0154999999999998,54.051499999999997,-10.2477,11.2248,-13.415100000000001
212842.0,63.010399999999997,20.129799999999999,15.744400000000001,61.284199999999998,-9.4212600000000002,20.6433,-13.319100000000001
212843.0,102.443,-47.739100000000001,-102.81,-99.312200000000004,38.698999999999998,-15.1029,-28.665400000000002
212844.0,49.754399999999997,69.822299999999998,65.979500000000002,97.960700000000003,-5.0496999999999996,20.294499999999999,-9.1056100000000004
212845.0,100.408,-23.070599999999999,-113.974,-36.326799999999999,-7.8657399999999997,-16.633400000000002,-24.711500000000001
212846.0,96.2864,-15.8809,-104.657,-29.762,-9.61388,-15.7628,-21.654699999999998
212847.0,50.605899999999998,63.213700000000003,54.104999999999997,88.338200000000001,-4.33528,19.932300000000001,-11.0998
212848.0,97.972200000000001,-21.176100000000002,-90.568399999999997,-69.216999999999999,30.3188,-15.6625,-27.781099999999999
212849.0,103.30800000000001,-123.133,-163.03399999999999,-174.893,44.518099999999997,-14.7232,-24.9709
212850.0,146.779,8.8189600000000006,-88.145200000000003,-64.459199999999996,51.331000000000003,-25.003799999999998,-36.956800000000001
212851.0,61.013399999999997,-25.822500000000002,-75.516099999999994,-53.726900000000001,14.2384,-7.7275,-18.919599999999999
212852.0,47.473100000000002,40.952800000000003,-2.8851900000000001,30.186699999999998,2.8777200000000001,-2.68668,-14.6229
212853.0,36.368400000000001,71.893199999999993,51.048400000000001,80.173400000000001,0.29008499999999998,7.2682500000000001,-12.757400000000001
212854.0,39.9574,66.400899999999993,60.253100000000003,87.405500000000004,-4.8422799999999997,15.097,-8.8387399999999996
212855.0,46.365900000000003,75.2136,71.535899999999998,101.456,-5.4078099999999996,18.7958,-8.2363
212856.0,49.209699999999998,53.649799999999999,39.0122,72.434899999999999,-3.4771100000000001,18.148299999999999,-13.603
212857.0,50.5974,54.017099999999999,26.3309,63.740400000000001,-4.1646299999999998,12.799300000000001,-17.188500000000001
212858.0,62.148400000000002,46.893500000000003,1.5240400000000001,47.078000000000003,-1.06759,6.4767200000000003,-23.568100000000001
212859.0,72.833399999999997,-15.013999999999999,-72.499399999999994,-19.521999999999998,1.12984,0.430869,-27.292100000000001
212860.0,87.128399999999999,-38.906100000000002,-114.839,-46.971600000000002,-4.7689399999999997,-9.8289200000000001,-25.915700000000001
212861.0,92.133399999999995,-2.10338,-86.734099999999998,-11.8849,-16.0808,-12.561999999999999,-16.422999999999998
212862.0,72.3018,21.347999999999999,-39.805500000000002,24.411100000000001,-15.6806,-0.89556199999999997,-13.553100000000001
212863.0,64.779799999999994,20.613499999999998,-23.647500000000001,35.469999999999999,-14.7805,9.6971799999999995,-11.855
212864.0,61.939300000000003,42.189700000000002,14.458399999999999,67.496899999999997,-10.2722,18.201000000000001,-11.758900000000001
212865.0,65.418899999999994,19.3186,15.2941,56.546799999999998,-5.9303100000000004,26.934100000000001,-12.1905
212866.0,94.084900000000005,-60.826799999999999,-106.788,-101.44199999999999,36.863999999999997,-15.1027,-27.052399999999999
212867.0,42.089700000000001,52.511299999999999,33.530099999999997,55.962000000000003,-3.6170599999999999,19.070399999999999,-8.2372399999999999
212868.0,87.077500000000001,34.745199999999997,-38.772500000000001,32.096899999999998,-8.8306900000000006,-8.2546700000000008,-25.344100000000001
212869.0,81.491100000000003,12.763199999999999,-55.869700000000002,15.552899999999999,-9.0872399999999995,-2.7160099999999998,-22.069700000000001
212870.0,45.104199999999999,54.064700000000002,26.933,54.594700000000003,-3.4235600000000002,15.9566,-12.7095
212871.0,85.028999999999996,-31.690899999999999,-93.157499999999999,-65.612200000000001,26.134799999999998,-15.6525,-23.108899999999998
212872.0,102.217,-142.02699999999999,-176.36699999999999,-186.83099999999999,43.059699999999999,-17.592199999999998,-27.7456
212873.0,146.15299999999999,6.6034899999999999,-85.698300000000003,-55.884500000000003,49.576799999999999,-29.4133,-39.728999999999999
212874.0,51.940600000000003,-22.7715,-65.082899999999995,-36.971600000000002,12.933299999999999,-7.1811100000000003,-14.722200000000001
212875.0,37.569200000000002,39.296399999999998,3.6490900000000002,34.915500000000002,2.7523399999999998,0.13203500000000001,-9.2178699999999996
212876.0,31.006399999999999,73.712500000000006,52.446800000000003,77.802000000000007,0.19670299999999999,9.9004300000000001,-6.0911099999999996
212877.0,35.312800000000003,68.742900000000006,57.869399999999999,78.592399999999998,-1.9156,16.535299999999999,-5.5795700000000004
212878.0,39.933599999999998,56.824100000000001,45.909799999999997,64.710899999999995,-3.2254800000000001,19.7256,-6.5519999999999996
212879.0,50.302900000000001,46.315800000000003,13.763999999999999,44.528700000000001,-3.2411099999999999,12.42,-18.542400000000001
212880.0,56.836399999999998,36.960500000000003,-3.6125699999999998,32.179499999999997,-5.2334800000000001,7.47112,-22.403099999999998
212881.0,65.652600000000007,39.257199999999997,-11.6675,32.750999999999998,-4.4874900000000002,0.94232300000000002,-25.4483
212882.0,71.729200000000006,26.2972,-28.303599999999999,22.712800000000001,-4.02149,-4.5053000000000001,-27.308599999999998
212883.0,81.109499999999997,30.189800000000002,-34.649900000000002,27.881699999999999,-9.3618900000000007,-8.8351699999999997,-25.960100000000001
212884.0,80.212699999999998,-5.0511999999999997,-71.533600000000007,3.5594899999999998,-13.069699999999999,2.67414,-16.669899999999998
212885.0,70.728099999999998,2.8588200000000001,-46.732100000000003,20.389800000000001,-13.0654,10.7219,-13.032
212886.0,67.129900000000006,21.296299999999999,-12.596500000000001,47.529699999999998,-13.059900000000001,17.148800000000001,-11.3499
212887.0,67.443299999999994,32.061799999999998,11.853400000000001,64.868300000000005,-9.9264899999999994,23.993200000000002,-11.230399999999999
212888.0,70.367599999999996,35.6494,29.5931,71.666600000000003,-5.6245000000000003,30.877700000000001,-12.170299999999999
212889.0,74.021500000000003,-54.274999999999999,-85.081900000000005,-70.957999999999998,28.753499999999999,-10.242800000000001,-25.630099999999999
212890.0,40.761400000000002,1.7479199999999999,-22.788,3.3144100000000001,-2.7248399999999999,12.6265,-13.140700000000001
212891.0,75.104600000000005,57.236600000000003,-4.4683099999999998,56.727400000000003,-10.121600000000001,5.6349400000000003,-22.073799999999999
212892.0,71.582599999999999,29.866399999999999,-24.8857,37.421999999999997,-9.3339700000000008,8.9138500000000001,-19.628
212893.0,48.127699999999997,14.3742,-21.869299999999999,10.1967,-3.1032799999999998,8.0060300000000009,-17.468599999999999
212894.0,65.277100000000004,-16.0047,-60.292099999999998,-24.5611,16.697099999999999,-12.463100000000001,-20.8413
212895.0,87.449100000000001,-150.67599999999999,-178.40199999999999,-181.578,35.126100000000001,-12.889200000000001,-29.328800000000001
212896.0,127.087,13.4368,-66.708299999999994,-28.322099999999999,39.698799999999999,-25.384399999999999,-39.453800000000001
212897.0,42.595100000000002,18.959199999999999,-10.131,19.637599999999999,10.010400000000001,-4.5430999999999999,-13.9686
212898.0,29.429500000000001,44.083599999999997,23.087900000000001,50.354999999999997,3.4528799999999999,2.6309499999999999,-8.1186399999999992
212899.0,28.453099999999999,53.7119,38.020200000000003,63.0349,-0.188059,9.0375700000000005,-5.3229899999999999
212900.0,32.773800000000001,58.7988,44.5276,66.261799999999994,1.15801,13.335599999999999,-7.5435600000000003
212901.0,36.273499999999999,13.6327,0.142205,19.4788,0.0808836,15.6226,-9.8066499999999994
212902.0,55.932899999999997,25.300799999999999,-19.0777,16.195799999999998,-2.1208800000000001,4.3422799999999997,-21.680700000000002
212903.0,60.825800000000001,17.537600000000001,-31.657,6.0425800000000001,-3.8521800000000002,2.64025,-23.434999999999999
212904.0,66.461799999999997,17.204499999999999,-38.587299999999999,3.4647800000000002,-7.2200699999999998,1.8160499999999999,-23.9162
212905.0,69.697400000000002,31.3918,-27.9404,18.083300000000001,-9.4225200000000005,2.67157,-23.5383
212906.0,72.677400000000006,43.1721,-18.363199999999999,36.222299999999997,-12.278600000000001,3.5726499999999999,-21.48
212907.0,71.267099999999999,34.005099999999999,-16.536200000000001,50.3919,-11.6099,10.4901,-15.202400000000001
212908.0,69.767899999999997,33.356400000000001,-9.0351999999999997,55.595399999999998,-11.804399999999999,15.395300000000001,-12.962999999999999
212909.0,68.425899999999999,47.736899999999999,16.310099999999998,72.062799999999996,-11.267799999999999,22.799099999999999,-11.516999999999999
212910.0,70.161699999999996,50.8795,31.693999999999999,78.2761,-10.9381,29.369599999999998,-10.515599999999999
212911.0,73.438199999999995,65.424400000000006,53.204599999999999,93.383700000000005,-7.2046000000000001,33.700400000000002,-13.6335
212912.0,53.719499999999996,-2.28729,-22.4726,-3.4339900000000001,17.369800000000001,-2.2322799999999998,-22.9499
212913.0,42.165700000000001,33.7072,8.4670299999999994,36.9176,-0.54780300000000004,3.2981400000000001,-18.402999999999999
212914.0,66.618899999999996,53.799500000000002,2.7205699999999999,59.109299999999998,-9.43187,10.861599999999999,-17.405000000000001
212915.0,66.206800000000001,41.147399999999998,-7.8036099999999999,47.028799999999997,-8.8796900000000001,15.077400000000001,-15.7704
212916.0,51.435600000000001,33.280999999999999,-2.9611900000000002,31.4955,-1.3621399999999999,0.83640199999999998,-21.494
212917.0,48.036999999999999,57.718800000000002,24.993099999999998,58.7913,8.80335,-4.1927000000000003,-17.465199999999999
212918.0,70.396199999999993,-120.77200000000001,-138.06399999999999,-131.03800000000001,24.423500000000001,-5.5126400000000002,-30.811599999999999
212919.0,100.958,45.0486,-17.921399999999998,28.404599999999999,25.521799999999999,-16.337800000000001,-37.609400000000001
212920.0,32.192,50.462899999999998,31.0548,54.323700000000002,6.34056,5.1562900000000003,-11.097200000000001
212921.0,28.405999999999999,56.267899999999997,38.504100000000001,61.759099999999997,1.14734,8.8693299999999997,-6.4213300000000002
212922.0,29.377700000000001,62.683599999999998,46.431199999999997,67.165300000000002,-0.084392499999999995,10.8462,-7.1423800000000002
212923.0,31.8063,53.660400000000003,36.751399999999997,57.4499,0.44828000000000001,10.3993,-10.3643
212924.0,34.983699999999999,40.445900000000002,22.378799999999998,45.411200000000001,0.58551399999999998,7.4675000000000002,-14.315
212925.0,58.479100000000003,26.429500000000001,-17.995999999999999,20.747499999999999,-1.3866700000000001,0.45617099999999999,-23.522500000000001
212926.0,61.924500000000002,12.801500000000001,-35.499200000000002,8.6857100000000003,-4.1095699999999997,0.42624099999999998,-23.3262
212927.0,65.357699999999994,10.2783,-39.5533,9.7104999999999997,-6.0991799999999996,1.5996999999999999,-23.784700000000001
212928.0,64.822900000000004,3.8117299999999998,-44.2179,7.0947399999999998,-8.9304000000000006,5.0124399999999998,-21.695399999999999
212929.0,66.002300000000005,29.489799999999999,-20.4544,34.749499999999998,-11.7258,7.6242099999999997,-18.116700000000002
212930.0,68.5274,45.533000000000001,-5.4893999999999998,49.639499999999998,-11.4154,17.838699999999999,-13.175000000000001
212931.0,69.335599999999999,44.0411,-6.0555500000000002,46.599699999999999,-11.141299999999999,21.1112,-12.296200000000001
212932.0,69.353999999999999,46.467100000000002,7.6965199999999996,55.0152,-12.176399999999999,26.8536,-9.9027899999999995
212933.0,72.965699999999998,51.771900000000002,22.6981,66.705299999999994,-13.457800000000001,31.477900000000002,-10.093400000000001
212934.0,74.591099999999997,72.388300000000001,50.289499999999997,88.182000000000002,-10.434699999999999,34.374200000000002,-14.208
212935.0,42.210999999999999,42.847900000000003,25.938300000000002,37.436100000000003,9.6761199999999992,7.9233200000000004,-19.051100000000002
212936.0,46.351199999999999,57.645200000000003,21.193300000000001,45.930900000000001,-1.9665699999999999,6.0884299999999998,-18.135300000000001
212937.0,58.8611,55.831899999999997,9.2770499999999991,56.115600000000001,-8.9415499999999994,12.2477,-14.0726
212938.0,60.400399999999998,51.560499999999998,5.1651300000000004,54.451999999999998,-8.8050999999999995,14.640000000000001,-12.6173
212939.0,52.414099999999998,50.626600000000003,9.2775400000000001,40.610300000000002,-2.4094600000000002,3.8347500000000001,-20.7348
212940.0,38.041600000000003,82.974000000000004,51.938400000000001,79.305400000000006,1.7214700000000001,6.46943,-12.2461
212941.0,56.741599999999998,-72.797600000000003,-92.760400000000004,-84.008399999999995,17.796900000000001,0.28223500000000001,-25.617599999999999
212942.0,85.982100000000003,117.77200000000001,58.480800000000002,104.283,17.023800000000001,-9.5825899999999997,-33.418500000000002
212943.0,32.286200000000001,59.579500000000003,43.548900000000003,60.536900000000003,1.3046599999999999,13.1052,-9.1069899999999997
212944.0,32.525199999999998,62.137599999999999,44.506,64.537800000000004,-2.27461,12.8522,-7.9136800000000003
212945.0,33.8309,54.747799999999998,36.610100000000003,54.472700000000003,-1.57864,13.1732,-9.8724100000000004
212946.0,35.521900000000002,55.878999999999998,33.009099999999997,51.956600000000002,-2.1852299999999998,11.0763,-11.982200000000001
212947.0,40.497100000000003,60.090299999999999,29.944299999999998,50.863500000000002,-1.8286100000000001,8.4556400000000007,-15.2722
212948.0,56.732599999999998,40.887799999999999,-2.9116300000000002,34.901699999999998,-3.0529500000000001,2.4431699999999998,-22.216200000000001
212949.0,59.475999999999999,39.658499999999997,-7.3919800000000002,36.363199999999999,-4.7289399999999997,1.74352,-21.537700000000001
212950.0,59.997500000000002,43.316299999999998,-5.2170899999999998,41.195700000000002,-5.6081700000000003,2.6087500000000001,-20.230799999999999
212951.0,58.219000000000001,45.158999999999999,-1.44052,45.094700000000003,-7.2415200000000004,5.1703599999999996,-18.105399999999999
212952.0,57.733699999999999,46.198,0.55461199999999999,46.956299999999999,-9.2150999999999996,8.7721099999999996,-15.5892
212953.0,64.204400000000007,48.839700000000001,0.0129111,53.6676,-7.7990700000000004,16.527000000000001,-12.612399999999999
212954.0,67.355999999999995,15.302099999999999,-36.126300000000001,19.448499999999999,-8.6894799999999996,18.256799999999998,-12.0425
212955.0,66.102400000000003,22.532800000000002,-26.1586,25.318899999999999,-11.8026,19.808700000000002,-9.3129399999999993
212956.0,64.331699999999998,39.640300000000003,-3.5689500000000001,41.940899999999999,-13.8588,21.328099999999999,-8.6786100000000008
212957.0,65.633899999999997,62.446199999999997,25.404599999999999,68.063199999999995,-15.2982,24.049700000000001,-9.2887400000000007
212958.0,38.646599999999999,38.0473,20.855499999999999,23.8369,6.8863700000000003,11.2239,-15.4939
212959.0,49.136499999999998,44.113100000000003,8.2041900000000005,36.089399999999998,-3.76694,6.6976599999999999,-19.761399999999998
212960.0,53.950299999999999,48.718200000000003,6.2539400000000001,46.934199999999997,-8.5827399999999994,12.6591,-12.626099999999999
212961.0,54.603499999999997,52.2898,7.8357200000000002,50.4666,-8.9459099999999996,12.9018,-10.7029
212962.0,52.798699999999997,45.412100000000002,4.40482,36.722799999999999,-4.0589399999999998,5.3729399999999998,-20.419699999999999
212963.0,36.174100000000003,79.529399999999995,49.650500000000001,72.9161,-2.0491899999999998,7.6121999999999996,-11.3025
212964.0,51.871299999999998,-86.837400000000002,-115.373,-108.158,14.245100000000001,2.9955500000000002,-21.559699999999999
212965.0,82.852099999999993,138.721,72.876499999999993,114.14700000000001,14.0472,-7.1958799999999998,-30.527799999999999
212966.0,32.165300000000002,59.259500000000003,42.827199999999998,52.671700000000001,-1.5849599999999999,13.317600000000001,-9.8289399999999993
212967.0,32.334099999999999,65.315299999999993,44.295400000000001,58.811100000000003,-3.5270100000000002,11.4078,-9.4927899999999994
212968.0,34.568600000000004,57.917400000000001,36.719299999999997,50.265500000000003,-2.68771,10.970499999999999,-12.470800000000001
212969.0,38.8889,53.9863,27.825099999999999,45.638599999999997,-3.4474399999999998,9.2320499999999992,-15.114000000000001
212970.0,44.4069,46.805700000000002,16.0611,38.4161,-3.4127999999999998,8.0622000000000007,-18.114000000000001
212971.0,55.320300000000003,50.052,4.7850200000000003,40.521500000000003,-4.8988300000000002,4.6305100000000001,-20.128799999999998
212972.0,56.826700000000002,50.071300000000001,2.4762200000000001,41.073,-5.8167999999999997,5.0389900000000001,-19.4389
212973.0,56.839300000000001,48.268300000000004,0.48741499999999999,41.055700000000002,-7.1963600000000003,6.5703199999999997,-17.845800000000001
212974.0,56.253599999999999,49.409300000000002,2.3288600000000002,43.576000000000001,-7.9021299999999997,8.6270000000000007,-16.102799999999998
212975.0,54.225200000000001,48.266500000000001,4.5537000000000001,44.673999999999999,-8.4344000000000001,11.141500000000001,-13.9986
212976.0,54.962499999999999,56.833100000000002,9.2898099999999992,54.077100000000002,-6.4484199999999996,12.2234,-10.180999999999999
212977.0,61.082700000000003,46.083599999999997,-9.3333600000000008,46.035600000000002,-7.8283300000000002,8.6900999999999993,-9.17075
212978.0,66.622500000000002,24.880199999999999,-37.984400000000001,20.124300000000002,-8.4451300000000007,6.6111899999999997,-11.802099999999999
212979.0,63.357700000000001,-17.9147,-77.774100000000004,-28.672599999999999,-12.793900000000001,8.0112400000000008,-9.5864700000000003
212980.0,67.5244,16.231000000000002,-42.457900000000002,6.4791299999999996,-21.6221,7.3696700000000002,-2.9942299999999999
212981.0,36.0137,17.674099999999999,-1.25953,1.0027900000000001,6.4488700000000003,4.83277,-16.1389
212982.0,48.606499999999997,50.039499999999997,11.289,37.165999999999997,-2.9590700000000001,2.4155199999999999,-19.581900000000001
212983.0,50.271299999999997,53.584800000000001,12.269399999999999,48.397599999999997,-9.0387400000000007,10.2822,-12.1844
212984.0,50.227200000000003,50.257800000000003,9.1146499999999993,46.222700000000003,-9.4552999999999994,10.7324,-11.0451
212985.0,52.099600000000002,46.903300000000002,4.6966700000000001,35.185000000000002,-3.9285299999999999,2.34687,-20.2271
212986.0,34.952399999999997,83.323700000000002,53.833300000000001,71.656700000000001,-0.68467100000000003,1.49604,-13.5624
212987.0,56.227400000000003,-108.373,-132.613,-130.72200000000001,15.151199999999999,-2.5276700000000001,-25.221399999999999
212988.0,82.324100000000001,91.634,32.773200000000003,69.925399999999996,13.518599999999999,-11.914300000000001,-32.378399999999999
212989.0,28.4328,50.9101,35.005200000000002,38.889400000000002,-1.1950700000000001,7.8068900000000001,-11.761799999999999
212990.0,30.868400000000001,60.5563,38.622900000000001,49.875100000000003,-3.5693299999999999,6.5389499999999998,-11.9091
212991.0,34.697200000000002,52.086500000000001,28.372399999999999,39.817300000000003,-2.2450800000000002,6.6982600000000003,-14.517099999999999
212992.0,39.377000000000002,51.883200000000002,22.5228,39.437800000000003,-2.43336,4.9333799999999997,-16.414000000000001
212993.0,44.262599999999999,50.681100000000001,16.578299999999999,37.616900000000001,-2.25685,3.5102099999999998,-18.428100000000001
212994.0,54.145699999999998,43.3048,-1.24614,33.439599999999999,-5.0325499999999996,3.0822699999999998,-19.8719
212995.0,54.848300000000002,43.914700000000003,-1.9878499999999999,35.599899999999998,-6.0634399999999999,4.1361299999999996,-18.727900000000002
212996.0,54.221499999999999,46.567799999999998,0.67737400000000003,39.370699999999999,-6.9842700000000004,5.57315,-17.058800000000002
212997.0,53.188400000000001,48.143500000000003,3.2855699999999999,42.146099999999997,-7.8862300000000003,7.2525700000000004,-15.3347
212998.0,51.189300000000003,47.664200000000001,5.1961300000000001,42.343499999999999,-8.6311900000000001,9.2076700000000002,-13.3743
212999.0,49.506999999999998,50.996499999999997,9.9709299999999992,47.544400000000003,-8.6249800000000008,10.618,-10.5854
213000.0,57.447800000000001,50.417499999999997,-2.72275,47.902799999999999,-9.1495099999999994,5.3756300000000001,-9.4135299999999997
213001.0,67.864999999999995,34.384900000000002,-29.2241,34.375999999999998,-7.21793,0.38111899999999999,-11.595800000000001
213002.0,70.491299999999995,-34.822200000000002,-99.251400000000004,-32.991700000000002,-8.7254199999999997,-0.90059999999999996,-12.4604
213003.0,75.156999999999996,-57.360399999999998,-125.398,-60.930799999999998,-19.520800000000001,-1.6320399999999999,-5.7267599999999996
213004.0,43.931899999999999,31.274899999999999,12.162000000000001,17.422000000000001,8.6820799999999991,-5.1005599999999998,-21.0823
213005.0,49.177,40.685400000000001,2.4163199999999998,29.4223,-2.3679199999999998,-0.63356500000000004,-20.3306
213006.0,49.151899999999998,49.908700000000003,7.9095300000000002,42.873699999999999,-9.4610400000000006,7.6931700000000003,-12.2728
213007.0,48.877000000000002,46.816299999999998,5.6563800000000004,40.353299999999997,-10.3681,8.5562199999999997,-11.209300000000001
213008.0,51.661499999999997,41.032299999999999,-0.76637999999999995,30.5474,-2.9563100000000002,-0.85921400000000003,-20.1798
213009.0,36.1038,60.633299999999998,36.725999999999999,48.892000000000003,2.0996700000000001,-3.8555000000000001,-16.501999999999999
213010.0,65.604200000000006,-104.52200000000001,-121.444,-125.977,18.529699999999998,-10.6149,-29.167400000000001
213011.0,81.349199999999996,43.765999999999998,-2.4298700000000002,29.621600000000001,13.6112,-19.2197,-33.030299999999997
213012.0,28.099,52.205599999999997,34.597700000000003,38.941499999999998,0.31949100000000002,1.1078600000000001,-13.3309
213013.0,30.596800000000002,55.2881,33.970100000000002,42.841000000000001,-1.5580499999999999,1.2053,-13.9102
213014.0,35.120100000000001,49.098500000000001,24.9129,35.924900000000001,-1.3486,1.48119,-16.1401
213015.0,40.497700000000002,47.218800000000002,17.816099999999999,34.506300000000003,-1.69669,0.51880999999999999,-18.058
213016.0,45.370600000000003,42.132399999999997,8.2169899999999991,29.889600000000002,-1.84233,-0.111459,-19.6922
213017.0,52.782699999999998,43.617100000000001,-0.60559499999999999,33.812600000000003,-3.8599600000000001,-0.582928,-19.3399
213018.0,53.096600000000002,44.220399999999998,-1.5067200000000001,35.200099999999999,-5.0499700000000001,0.378664,-18.096499999999999
213019.0,52.256999999999998,43.267800000000001,-2.5143,34.902200000000001,-6.2066800000000004,2.0920299999999998,-16.523700000000002
213020.0,51.296500000000002,46.024299999999997,0.67006200000000005,38.184800000000003,-7.5041200000000003,3.8166199999999999,-14.785
213021.0,49.544899999999998,46.767400000000002,3.5213800000000002,39.192100000000003,-8.5772200000000005,6.02888,-13.228
213022.0,48.280200000000001,57.482199999999999,17.8352,51.862900000000003,-10.801600000000001,9.0528399999999998,-10.869199999999999
213023.0,53.702599999999997,44.654699999999998,-1.5462800000000001,41.893999999999998,-10.6225,6.0295100000000001,-11.8573
213024.0,61.369799999999998,47.056199999999997,-6.6764900000000003,50.3371,-11.335000000000001,1.4514899999999999,-10.0038
213025.0,72.565600000000003,23.587299999999999,-38.556600000000003,33.182099999999998,-8.9811499999999995,-3.2263299999999999,-12.1433
213026.0,76.9345,-32.671799999999998,-94.510499999999993,-15.529,-11.6767,-2.2982800000000001,-10.2639
213027.0,51.648699999999998,42.545299999999997,23.401900000000001,30.8535,10.325799999999999,-10.300800000000001,-24.152699999999999
213028.0,49.793399999999998,41.3155,4.09368,31.4498,-1.5335000000000001,-4.2290299999999998,-20.8414
213029.0,48.893099999999997,49.558500000000002,5.9919900000000004,42.105600000000003,-9.1474899999999995,4.8115600000000001,-12.1265
213030.0,49.313600000000001,47.188200000000002,4.0492900000000001,39.595599999999997,-10.538,6.5011400000000004,-11.266500000000001
213031.0,51.894199999999998,39.898099999999999,-0.56086100000000005,31.126100000000001,-2.3507899999999999,-4.0509199999999996,-20.5608
213032.0,38.257100000000001,48.681399999999996,29.769400000000001,38.984499999999997,4.4780499999999996,-7.01905,-18.141500000000001
213033.0,70.842600000000004,-85.843199999999996,-93.762600000000006,-98.626999999999995,19.442399999999999,-14.7605,-32.177300000000002
213034.0,79.308300000000003,15.153700000000001,-21.008099999999999,8.5722799999999992,13.143700000000001,-21.517800000000001,-33.012700000000002
213035.0,31.355699999999999,47.244300000000003,29.8002,36.740499999999997,1.4433100000000001,-3.37032,-15.399699999999999
213036.0,32.844900000000003,47.240200000000002,26.923999999999999,36.021900000000002,0.035846099999999999,-2.3466200000000002,-15.827999999999999
213037.0,37.2087,45.081200000000003,20.956499999999998,33.286000000000001,-0.372033,-2.4085399999999999,-17.607800000000001
213038.0,42.1783,42.918300000000002,14.0703,31.4117,-0.70211800000000002,-3.0991900000000001,-19.287800000000001
213039.0,46.571300000000001,42.491999999999997,9.18201,31.651800000000001,-0.96887900000000005,-3.8253400000000002,-20.462900000000001
213040.0,52.717399999999998,37.908799999999999,-4.8908399999999999,30.133700000000001,-3.2895699999999999,-3.26939,-19.622299999999999
213041.0,52.733600000000003,39.055500000000002,-5.4271200000000004,32.050800000000002,-4.3180399999999999,-2.23665,-18.1999
213042.0,51.7639,41.068600000000004,-3.9117799999999998,34.354700000000001,-5.4032799999999996,-0.76791399999999999,-16.571400000000001
213043.0,50.936900000000001,43.473799999999997,-1.7630999999999999,36.920299999999997,-6.7175399999999996,0.93868499999999999,-14.873699999999999
213044.0,49.265099999999997,43.4848,-0.64452600000000004,36.467500000000001,-7.9130500000000001,3.1181999999999999,-13.2043
213045.0,49.192,52.109400000000001,10.418799999999999,44.217300000000002,-11.6488,8.3628400000000003,-10.513299999999999
213046.0,52.766800000000003,49.908200000000001,4.9912999999999998,42.972700000000003,-12.304,7.7396099999999999,-11.494300000000001
213047.0,56.987499999999997,53.330599999999997,4.1156100000000002,48.621899999999997,-14.0444,6.7249499999999998,-10.126099999999999
213048.0,64.478099999999998,49.816800000000001,-8.7717100000000006,47.398200000000003,-13.032,3.75081,-10.148199999999999
213049.0,69.097200000000001,38.243499999999997,-22.682400000000001,44.263199999999998,-12.3369,2.3624900000000002,-7.8767399999999999
213050.0,50.118200000000002,29.383299999999998,17.2517,21.4726,9.1798699999999993,-9.6181199999999993,-24.9513
213051.0,50.526299999999999,36.028500000000001,0.47977500000000001,28.6935,-1.4260999999999999,-6.0774999999999997,-21.441600000000001
213052.0,49.424999999999997,45.393300000000004,0.19045899999999999,38.537500000000001,-8.3645300000000002,2.4095800000000001,-12.043200000000001
213053.0,49.614800000000002,44.642000000000003,-0.90396100000000001,36.733400000000003,-9.6785099999999993,4.2485200000000001,-10.7964
213054.0,52.173900000000003,35.975099999999998,-2.6688100000000001,29.711300000000001,-2.0268199999999998,-5.9544300000000003,-20.919699999999999
213055.0,40.536000000000001,46.606400000000001,28.3172,40.328600000000002,4.82165,-8.36008,-19.1891
213056.0,66.315100000000001,-83.400899999999993,-90.5441,-91.855199999999996,16.836600000000001,-14.7134,-30.744800000000001
213057.0,79.632499999999993,35.979700000000001,6.0919100000000004,35.5015,12.387700000000001,-20.476299999999998,-35.326599999999999
213058.0,34.528500000000001,43.279000000000003,27.109100000000002,34.805100000000003,2.7766600000000001,-5.2670700000000004,-17.220199999999998
213059.0,36.168900000000001,45.200699999999998,25.120100000000001,36.061599999999999,0.96553900000000004,-5.0743400000000003,-17.558499999999999
213060.0,39.948,41.520099999999999,18.084,31.776700000000002,0.33684700000000001,-5.0471199999999996,-19.1768
213061.0,44.196300000000001,40.2866,12.423299999999999,31.046399999999998,-0.34883700000000001,-5.6066700000000003,-20.448
213062.0,47.880499999999998,36.936599999999999,5.0833199999999996,28.479399999999998,-0.83649200000000001,-5.9408099999999999,-21.352599999999999
213063.0,52.745100000000001,37.663400000000003,-3.3595199999999998,32.235500000000002,-2.7848899999999999,-5.4485799999999998,-19.832999999999998
213064.0,52.706600000000002,38.230400000000003,-4.7209500000000002,33.346699999999998,-3.7387899999999998,-4.50082,-18.406300000000002
213065.0,51.8521,38.188699999999997,-5.9117800000000003,33.314399999999999,-4.7379699999999998,-3.0371800000000002,-16.732900000000001
213066.0,51.0503,40.585799999999999,-4.4405099999999997,35.476599999999998,-5.8815499999999998,-1.49204,-14.9695
213067.0,49.634999999999998,41.9955,-2.88368,36.043700000000001,-7.0872599999999997,0.48773699999999998,-13.2888
213068.0,49.449800000000003,54.116,9.4718599999999995,44.718000000000004,-11.0784,6.4345100000000004,-9.8492899999999999
213069.0,52.453000000000003,49.215699999999998,2.6340300000000001,39.075099999999999,-12.477399999999999,7.78634,-10.0343
213070.0,55.270899999999997,56.6571,8.2636299999999991,46.665700000000001,-13.802,9.4723299999999995,-9.2370000000000001
213071.0,59.497999999999998,51.549900000000001,-1.5704199999999999,41.004300000000001,-14.1707,9.8944799999999997,-9.5059699999999996
213072.0,64.623599999999996,51.679299999999998,-7.5125400000000004,41.752400000000002,-15.571999999999999,9.9522499999999994,-6.7574100000000001
213073.0,46.357599999999998,22.4435,14.6281,14.801299999999999,8.7108399999999993,-7.7280800000000003,-23.681699999999999
213074.0,51.168900000000001,36.016399999999997,2.5580500000000002,31.418099999999999,-1.42692,-7.7351700000000001,-21.953700000000001
213075.0,49.714399999999998,43.533499999999997,-2.1284999999999998,38.368299999999998,-7.3837700000000002,0.10996,-12.001200000000001
213076.0,49.724299999999999,44.036999999999999,-2.53945,37.322200000000002,-8.5944400000000005,1.9480599999999999,-10.611700000000001
213077.0,52.366900000000001,35.210700000000003,-1.1569199999999999,31.5822,-2.0840200000000002,-7.3819299999999997,-21.307099999999998
213078.0,41.804699999999997,48.844200000000001,30.8643,45.150500000000001,3.8650600000000002,-8.6502099999999995,-20.065100000000001
213079.0,58.886400000000002,-77.732399999999998,-82.7012,-80.904200000000003,10.784700000000001,-12.181900000000001,-29.746099999999998
213080.0,76.643100000000004,68.513599999999997,43.230699999999999,69.797399999999996,10.470499999999999,-17.983599999999999,-36.063400000000001
213081.0,37.523899999999998,38.184699999999999,22.6341,30.636299999999999,3.0520499999999999,-5.9746800000000002,-19.075199999999999
213082.0,39.369599999999998,42.017699999999998,22.070599999999999,34.975999999999999,1.09579,-6.5587099999999996,-19.238
213083.0,42.6145,38.336199999999998,15.6676,30.681699999999999,0.53440900000000002,-6.7332200000000002,-20.657399999999999
213084.0,46.148800000000001,37.532899999999998,10.8537,30.824400000000001,-0.29630000000000001,-7.3430499999999999,-21.5243
213085.0,49.112200000000001,36.6462,6.5177199999999997,30.841100000000001,-0.77610500000000004,-7.6616799999999996,-22.117599999999999
213086.0,52.710299999999997,34.265000000000001,-4.5850299999999997,31.364699999999999,-2.8097400000000001,-6.6592599999999997,-20.137799999999999
213087.0,52.576900000000002,35.185699999999997,-5.7810100000000002,32.704900000000002,-3.5438499999999999,-5.7435099999999997,-18.662800000000001
213088.0,51.858199999999997,36.886600000000001,-5.5954100000000002,34.368099999999998,-4.3523100000000001,-4.5670999999999999,-16.988199999999999
213089.0,51.219499999999996,38.641399999999997,-5.2749800000000002,35.741,-5.3065199999999999,-3.1966700000000001,-15.260199999999999
213090.0,50.106099999999998,39.469000000000001,-5.2450000000000001,35.530999999999999,-6.2977699999999999,-1.5081800000000001,-13.491300000000001
213091.0,49.665100000000002,47.583100000000002,0.62660300000000002,38.702199999999998,-9.8437900000000003,4.1093700000000002,-9.2826199999999996
213092.0,51.208100000000002,49.568100000000001,1.2424200000000001,38.717300000000002,-11.0619,5.8069800000000003,-8.6653599999999997
213093.0,52.949800000000003,54.745699999999999,5.17204,41.830599999999997,-12.4953,7.7622600000000004,-7.53721
213094.0,56.284100000000002,56.068199999999997,3.5245600000000001,41.220599999999997,-13.1778,9.3685200000000002,-7.7993499999999996
213095.0,59.969299999999997,54.278399999999998,-1.46295,39.375,-13.986000000000001,11.4428,-6.2773000000000003
213096.0,44.379300000000001,29.103899999999999,19.6586,21.0594,6.7244099999999998,-6.7834399999999997,-23.2227
213097.0,51.493200000000002,32.771999999999998,1.4892300000000001,30.7973,-1.81443,-8.5041700000000002,-22.3903
213098.0,49.960500000000003,39.922499999999999,-5.1156800000000002,36.962800000000001,-6.7649800000000004,-1.57437,-12.212300000000001
213099.0,49.746400000000001,41.185600000000001,-5.2082600000000001,36.5623,-7.6710900000000004,-0.062961199999999995,-10.628399999999999
213100.0,52.311500000000002,32.701900000000002,-1.29532,31.683800000000002,-2.3608199999999999,-8.1365800000000004,-21.594200000000001
213101.0,41.965699999999998,43.743899999999996,27.303699999999999,40.4649,2.9900099999999998,-8.1116700000000002,-20.8948
213102.0,54.836199999999998,-24.962599999999998,-29.0899,-29.508299999999998,8.0730799999999991,-10.8802,-28.503900000000002
213103.0,65.461200000000005,60.430500000000002,40.350000000000001,59.259599999999999,7.3315799999999998,-13.9435,-32.4529
213104.0,40.365099999999998,38.457099999999997,23.0839,32.060099999999998,2.5202599999999999,-6.99376,-20.693300000000001
213105.0,42.347799999999999,39.2746,20.172499999999999,34.035699999999999,0.89605699999999999,-7.7763799999999996,-20.9543
213106.0,45.104599999999998,36.191299999999998,14.551500000000001,30.920000000000002,0.25625100000000001,-8.1013000000000002,-22.025300000000001
213107.0,47.829000000000001,35.3977,10.3017,31.285399999999999,-0.59223300000000001,-8.5429099999999991,-22.5396
213108.0,50.040300000000002,33.126100000000001,4.9025999999999996,29.9894,-1.1893,-8.6405499999999993,-22.788399999999999
213109.0,52.484400000000001,34.081099999999999,-2.3109899999999999,33.768900000000002,-2.9603299999999999,-7.5308299999999999,-20.372
213110.0,52.296999999999997,34.494,-4.0819799999999997,34.489899999999999,-3.6152199999999999,-6.67455,-18.9224
213111.0,51.704900000000002,34.990499999999997,-5.4747700000000004,34.817900000000002,-4.3096199999999998,-5.5675499999999998,-17.264700000000001
213112.0,51.1389,36.3947,-5.8282800000000003,35.733499999999999,-5.0432499999999996,-4.3926400000000001,-15.553100000000001
213113.0,50.322000000000003,38.189900000000002,-5.3830400000000003,36.544400000000003,-5.8691000000000004,-3.0275799999999999,-13.8064
213114.0,49.577500000000001,46.279699999999998,-1.0967499999999999,39.558399999999999,-8.7023200000000003,1.57779,-9.1650700000000001
213115.0,50.275100000000002,46.005699999999997,-2.67841,36.942399999999999,-9.8565100000000001,3.3244400000000001,-7.9985799999999996
213116.0,51.282499999999999,51.061900000000001,1.0846,39.274500000000003,-10.896599999999999,5.3110099999999996,-6.86775
213117.0,53.241700000000002,51.333799999999997,-0.74778100000000003,36.798499999999997,-11.691700000000001,6.9807800000000002,-6.1005200000000004
213118.0,55.231200000000001,56.343499999999999,2.1390600000000002,39.539900000000003,-12.323,8.42774,-4.9052499999999997
213119.0,44.4009,31.109500000000001,21.520099999999999,24.078700000000001,4.2880000000000003,-7.33725,-23.670000000000002
213120.0,51.784100000000002,32.142800000000001,3.3733900000000001,33.094799999999999,-2.2276400000000001,-9.1584000000000003,-22.797000000000001
213121.0,50.000500000000002,38.366300000000003,-5.20411,37.851500000000001,-6.5395099999999999,-2.8422999999999998,-12.534000000000001
213122.0,49.7333,40.145400000000002,-5.0099999999999998,38.004199999999997,-7.3172300000000003,-1.5586800000000001,-10.9329
213123.0,52.206800000000001,32.023699999999998,0.61682400000000004,33.727400000000003,-2.8054299999999999,-8.6442899999999998,-21.8706
213124.0,42.919899999999998,42.192300000000003,27.504000000000001,38.918500000000002,2.0561799999999999,-8.3494899999999994,-21.923400000000001
213125.0,48.877699999999997,-2.7293799999999999,-9.3738799999999998,-11.070499999999999,5.6078799999999998,-9.1644400000000008,-25.719100000000001
213126.0,55.540799999999997,54.955800000000004,39.554600000000001,52.353000000000002,4.3980100000000002,-10.767899999999999,-28.722999999999999
213127.0,43.023499999999999,35.362200000000001,20.8337,30.661999999999999,1.5851200000000001,-8.0851900000000008,-22.229800000000001
213128.0,44.893099999999997,36.127200000000002,18.407900000000001,32.917000000000002,0.350078,-8.7984100000000005,-22.475100000000001
213129.0,47.207000000000001,33.668999999999997,13.589399999999999,31.074000000000002,-0.27537299999999998,-9.1413700000000002,-23.2361
213130.0,49.253100000000003,32.789999999999999,9.6575799999999994,31.531400000000001,-1.0381199999999999,-9.4129199999999997,-23.4468
213131.0,50.845999999999997,32.4148,6.45594,32.275100000000002,-1.6113999999999999,-9.4089100000000006,-23.392900000000001
213132.0,52.150599999999997,31.758600000000001,-2.1092200000000001,33.919800000000002,-3.3882599999999998,-7.9195000000000002,-20.5928
213133.0,51.877699999999997,32.607199999999999,-3.5262899999999999,34.925600000000003,-3.9359199999999999,-7.0925099999999999,-19.140999999999998
213134.0,51.374299999999998,34.064700000000002,-4.0860099999999999,36.219499999999996,-4.5202,-6.16099,-17.529199999999999
213135.0,50.911099999999998,35.209299999999999,-4.8922400000000001,36.840299999999999,-5.1496700000000004,-5.1296400000000002,-15.887600000000001
213136.0,50.341900000000003,36.301900000000003,-5.5661199999999997,36.989100000000001,-5.8189900000000003,-3.9892599999999998,-14.1751
213137.0,49.799799999999998,41.092700000000001,-5.7050599999999996,36.985700000000001,-8.16371,-0.21737799999999999,-9.4028100000000006
213138.0,49.831200000000003,44.377099999999999,-3.76457,37.893500000000003,-9.0413399999999999,1.2305299999999999,-7.8705600000000002
213139.0,50.228900000000003,47.172400000000003,-2.3042899999999999,37.940800000000003,-9.9094999999999995,2.7092900000000002,-6.5804299999999998
213140.0,51.234900000000003,49.994700000000002,-0.99411400000000005,37.850499999999997,-10.8506,4.1978600000000004,-5.5021500000000003
213141.0,52.950600000000001,52.9161,0.010968,37.855200000000004,-11.7666,5.81053,-4.4021600000000003
213142.0,1633.3800000000001,-2409.8600000000001,-1397.51,-1625.5899999999999,-752.61699999999996,-75.444999999999993,187.58500000000001
213143.0,1671.8900000000001,-346.46499999999997,672.673,456.18900000000002,-766.90300000000002,-64.701400000000007,226.08699999999999
213144.0,1704.22,-2320.3200000000002,-1301.8,-1511.3900000000001,-777.45699999999999,-63.571899999999999,265.255
213145.0,1733.73,178.66999999999999,1193.98,992.17399999999998,-784.30200000000002,-63.833500000000001,306.33699999999999
213146.0,1766.8399999999999,-2162.29,-1151.9000000000001,-1338.98,-788.94899999999996,-53.949100000000001,355.34500000000003
213147.0,1798.21,-394.44200000000001,607.20500000000004,438.70100000000002,-790.63400000000001,-37.597200000000001,404.59899999999999
213148.0,1829.02,-2442.3800000000001,-1454.5699999999999,-1601.6400000000001,-788.94799999999998,-19.125399999999999,456.36200000000002
213149.0,1849.73,-165.43799999999999,807.60900000000004,679.40099999999995,-783.923,-6.6507199999999997,496.40100000000001
213150.0,1867.6700000000001,-2189.3699999999999,-1233.78,-1341.8699999999999,-775.35500000000002,4.2694400000000003,536.36000000000001
213151.0,1877.05,-105.79300000000001,830.78999999999996,738.149,-765.83399999999995,17.2057,566.83699999999999
213152.0,1879.8499999999999,-1944.5,-1026.8,-1107.1900000000001,-755.55399999999997,28.316099999999999,589.91300000000001
213153.0,1875.51,82.363299999999995,982.75099999999998,909.19200000000001,-746.28200000000004,37.623899999999999,603.49300000000005
213154.0,1867.46,-1680.54,-796.72400000000005,-865.81500000000005,-737.23400000000004,45.160899999999998,612.62
213155.0,1854.6300000000001,230.011,1101.3499999999999,1030.79,-731.52200000000005,49.856299999999997,612.12900000000002
213156.0,1840.5599999999999,-1460.9400000000001,-599.70699999999999,-673.59799999999996,-727.21000000000004,52.491700000000002,608.09699999999998
213157.0,1825.4300000000001,334.30399999999997,1190.6099999999999,1106.0699999999999,-728.45600000000002,52.530999999999999,595.529
213158.0,1812.0799999999999,-1292.5599999999999,-438.31,-536.851,-732.79999999999995,50.842500000000001,580.11699999999996
213159.0,1802.8599999999999,391.75799999999998,1249.3,1128.8099999999999,-744.02800000000002,46.482300000000002,558.72699999999998
213160.0,1799.48,-1191.0599999999999,-327.041,-473.27199999999999,-759.21299999999997,40.185200000000002,536.18799999999999
213161.0,1805.48,381.56,1257.8299999999999,1079.0899999999999,-781.28200000000004,30.865600000000001,510.726
213162.0,1820.02,-1157.45,-265.44099999999997,-478.23500000000001,-806.15800000000002,19.7547,486.64699999999999
213163.0,1846.25,311.34199999999998,1225.46,975.279,-836.09100000000001,6.1939500000000001,462.55399999999997
213164.0,1879.76,-1166.0599999999999,-226.21799999999999,-511.90899999999999,-866.37199999999996,-7.8250000000000002,441.625
213165.0,1923.2,205.024,1177.4100000000001,856.50999999999999,-899.24900000000002,-22.310400000000001,422.20100000000002
213166.0,1975.6099999999999,-1226.8599999999999,-215.42099999999999,-571.45299999999997,-934.12099999999998,-36.855899999999998,404.79300000000001
213167.0,2053.7199999999998,-146.74100000000001,921.66899999999998,521.67899999999997,-981.154,-54.479500000000002,385.89299999999997
213168.0,429.23000000000002,-788.34199999999998,-1025.0999999999999,-929.85900000000004,210.94200000000001,17.980599999999999,49.0002
213169.0,232.84200000000001,715.55999999999995,743.60400000000004,730.38300000000004,130.971,8.9066500000000008,25.339500000000001
213170.0,102.871,3014.3299999999999,2978.5500000000002,2962.1500000000001,46.054600000000001,18.687899999999999,18.5793
213171.0,78.256900000000002,3674.1700000000001,3627.3299999999999,3633.0100000000002,24.960899999999999,21.192599999999999,17.7668
213172.0,51.3279,2632.8800000000001,2615.1100000000001,2605.3000000000002,13.724600000000001,16.971900000000002,14.3667
213173.0,57.570399999999999,2000.45,2005.6500000000001,1978.0599999999999,22.566500000000001,11.553000000000001,15.720599999999999
213174.0,69.799300000000002,3554.0799999999999,3511.9499999999998,3517.1399999999999,19.389700000000001,20.878499999999999,16.866
213175.0,96.932100000000005,3447.6100000000001,3404.4099999999999,3397.6300000000001,40.503300000000003,19.738399999999999,19.150600000000001
213176.0,193.92400000000001,1740.5599999999999,1778.6900000000001,1711.4300000000001,103.203,16.344899999999999,21.899799999999999
213177.0,223.78999999999999,1205.9300000000001,1259.3599999999999,1188.78,120.639,11.9808,25.3368
213178.0,142.04300000000001,2210.6399999999999,2219.9099999999999,2168.02,73.664199999999994,15.973800000000001,16.674299999999999
213179.0,121.205,2217.21,2202.4699999999998,2164.3899999999999,59.999699999999997,17.265699999999999,15.9968
213180.0,114.849,2517.27,2489.3400000000001,2462.1199999999999,54.805399999999999,18.234300000000001,17.320399999999999
213181.0,108.395,2904.48,2871.4699999999998,2850.5100000000002,50.2181,18.162600000000001,18.014800000000001
213182.0,102.587,-2852.1900000000001,-2885.3000000000002,-2905.7600000000002,46.481200000000001,17.273700000000002,17.845400000000001
213183.0,99.724100000000007,3184.1100000000001,3144.4400000000001,3133.0700000000002,43.140799999999999,19.18,19.177900000000001
213184.0,93.867900000000006,3484.6399999999999,3438.9499999999998,3436.1199999999999,37.688099999999999,20.2822,19.069500000000001
213185.0,90.605900000000005,3579.1799999999998,3531.4400000000001,3532.0999999999999,34.702100000000002,20.748000000000001,18.7758
213186.0,86.399799999999999,3677.5,3629.3099999999999,3632.2800000000002,31.293600000000001,20.929400000000001,18.482900000000001
213187.0,82.642499999999998,3696.1799999999998,3648.04,3652.9000000000001,28.145199999999999,21.191500000000001,18.2453
213188.0,77.992099999999994,-3580.6700000000001,-3626.75,-3622.98,25.454899999999999,20.400099999999998,17.570900000000002
213189.0,74.167299999999997,3628.52,3583.54,3589.4099999999999,22.099699999999999,21.108000000000001,17.373699999999999
213190.0,65.605900000000005,3425.3299999999999,3386.6500000000001,3390.4899999999998,17.076899999999998,20.543600000000001,16.339300000000001
213191.0,61.464399999999998,3273.1399999999999,3238.6300000000001,3240.3499999999999,15.192500000000001,20.034400000000002,15.777200000000001
213192.0,57.588299999999997,3093.0100000000002,3063.21,3062.0700000000002,13.884600000000001,19.328399999999998,15.2112
213193.0,54.013500000000001,2880.0300000000002,2855.8400000000001,2850.8699999999999,13.3018,18.327200000000001,14.7072
213194.0,52.025399999999998,-2766.4200000000001,-2787.6300000000001,-2794.6300000000001,12.051500000000001,18.3322,14.3208
213195.0,50.682400000000001,2348.1500000000001,2339.73,2322.7199999999998,16.0961,14.827,14.4742
213196.0,79.230900000000005,1538.46,1564.76,1521.1700000000001,34.896299999999997,6.5424199999999999,18.715
213197.0,101.59,900.202,942.43899999999996,885.14499999999998,45.725200000000001,2.2815699999999999,21.4939
213198.0,109.36499999999999,157.18299999999999,205.529,141.47999999999999,48.912399999999998,0.92871899999999996,21.8916
213199.0,51.773200000000003,25.6372,-2.8237000000000001,52.6554,-5.7832499999999998,-9.0989299999999993,-2.7556600000000002
213200.0,227.714,-1005.49,-952.66300000000001,-1036.75,121.20099999999999,4.7841100000000001,27.669599999999999
213201.0,196.68299999999999,-1371.4000000000001,-1312.27,-1402.02,100.89100000000001,12.462899999999999,21.8888
213202.0,142.38200000000001,-1938.8,-1902.29,-1974.5699999999999,70.417199999999994,14.678800000000001,16.652799999999999
213203.0,117.712,-2096.5599999999999,-2085.77,-2141.0300000000002,57.269199999999998,15.771800000000001,15.245699999999999
213204.0,113.349,-2151.48,-2164.9400000000001,-2203.1900000000001,54.135800000000003,18.0,17.559699999999999
213205.0,108.51300000000001,-2590.4299999999998,-2618.4699999999998,-2644.3800000000001,50.372,17.968599999999999,18.357700000000001
213206.0,98.759,-2937.3099999999999,-2973.5999999999999,-2988.8099999999999,43.401499999999999,17.794699999999999,18.73
213207.0,95.8523,-3200.8099999999999,-3240.6399999999999,-3251.0999999999999,40.832799999999999,18.396599999999999,18.778500000000001
213208.0,92.943899999999999,-3354.2800000000002,-3397.27,-3403.4400000000001,38.137,18.970500000000001,18.660900000000002
213209.0,89.675399999999996,-3381.27,-3426.3000000000002,-3428.9000000000001,35.213099999999997,19.525400000000001,18.500499999999999
213210.0,85.823099999999997,-3501.0900000000001,-3547.52,-3547.1599999999999,31.820399999999999,19.9238,18.233499999999999
213211.0,82.0839,-3580.8000000000002,-3627.4899999999998,-3625.0900000000001,28.701599999999999,20.168500000000002,18.004100000000001
213212.0,74.064999999999998,-3555.6999999999998,-3600.3299999999999,-3595.96,22.513500000000001,20.4665,17.244900000000001
213213.0,69.915899999999993,-3516.21,-3558.52,-3554.3499999999999,19.668900000000001,20.424600000000002,16.780899999999999
213214.0,65.914699999999996,-3428.46,-3467.7600000000002,-3464.46,17.1935,20.2911,16.297999999999998
213215.0,62.019799999999996,-3299.3800000000001,-3335.04,-3333.2800000000002,15.0646,20.058599999999998,15.779
213216.0,58.348599999999998,-3152.1100000000001,-3183.5500000000002,-3183.98,13.438700000000001,19.683700000000002,15.2536
213217.0,54.916499999999999,-2975.73,-3002.4099999999999,-3005.71,12.337300000000001,19.1281,14.7303
213218.0,49.898800000000001,-2527.23,-2542.02,-2553.7600000000002,12.6569,17.186599999999999,14.057499999999999
213219.0,50.723700000000001,-2250.6100000000001,-2257.0799999999999,-2275.3200000000002,15.7081,15.4421,14.432499999999999
213220.0,58.298099999999998,-1908.6199999999999,-1901.7,-1930.21,22.4145,12.5305,15.8881
213221.0,80.076400000000007,-1449.3399999999999,-1420.98,-1465.3599999999999,34.702300000000001,7.9322999999999997,19.107700000000001
213222.0,101.646,-824.34100000000001,-778.45500000000004,-837.02200000000005,45.060099999999998,3.7671999999999999,21.212399999999999
213223.0,439.98000000000002,-869.678,-1115.5999999999999,-1013.53,218.21100000000001,13.9335,38.107500000000002
213224.0,238.83500000000001,527.38099999999997,553.85900000000004,535.63900000000001,136.07599999999999,8.9440299999999997,15.291
213225.0,96.934899999999999,2974.7399999999998,2943.4899999999998,2924.1199999999999,43.899099999999997,16.114799999999999,17.111799999999999
213226.0,67.619799999999998,3296.0700000000002,3257.8699999999999,3258.1900000000001,23.908100000000001,16.0547,14.5787
213227.0,45.9863,2133.5100000000002,2118.79,2104.8099999999999,15.3636,12.8659,9.8679500000000004
213228.0,53.665300000000002,1591.01,1592.0599999999999,1564.99,22.743300000000001,10.024800000000001,10.348699999999999
213229.0,59.143599999999999,3077.4000000000001,3044.1500000000001,3043.23,19.3142,15.4437,13.2433
213230.0,89.996700000000004,3138.9000000000001,3100.75,3091.2600000000002,38.752600000000001,16.429300000000001,17.1005
213231.0,194.28100000000001,1835.8,1881.54,1801.4200000000001,101.566,15.6904,20.113199999999999
213232.0,227.96199999999999,1419.01,1479.22,1400.4100000000001,122.648,11.7173,21.109400000000001
213233.0,146.01400000000001,1887.3900000000001,1898.76,1836.5899999999999,74.010099999999994,16.7255,15.926399999999999
213234.0,126.992,2363.27,2348.1799999999998,2305.9099999999999,62.601799999999997,17.911999999999999,15.8644
213235.0,113.22199999999999,2617.4899999999998,2592.8499999999999,2562.1799999999998,54.522799999999997,16.714600000000001,15.910399999999999
213236.0,102.27,2706.73,2679.3800000000001,2654.54,47.705300000000001,16.155999999999999,16.374600000000001
213237.0,96.635199999999998,-2705.04,-2733.3299999999999,-2756.3800000000001,44.1736,14.8565,16.718800000000002
213238.0,93.490499999999997,3128.5,3093.3299999999999,3079.4099999999999,41.381300000000003,16.246200000000002,17.238399999999999
213239.0,85.892700000000005,3317.73,3278.1999999999998,3272.04,35.911200000000001,16.501300000000001,16.8081
213240.0,81.983199999999997,3373.0500000000002,3331.9099999999999,3328.9499999999998,33.023000000000003,16.585699999999999,16.343699999999998
213241.0,76.627200000000002,3353.4400000000001,3312.98,3311.6399999999999,29.581900000000001,16.3706,15.805999999999999
213242.0,72.683400000000006,3340.4499999999998,3300.3400000000001,3300.46,26.917999999999999,16.331399999999999,15.3271
213243.0,68.186000000000007,-3233.6999999999998,-3271.4499999999998,-3272.8600000000001,24.421399999999998,15.7186,14.5885
213244.0,63.4452,3205.8800000000001,3169.75,3169.8600000000001,21.536799999999999,15.787800000000001,13.9626
213245.0,55.315199999999997,2940.75,2910.6399999999999,2908.1700000000001,17.530899999999999,15.073399999999999,12.505699999999999
213246.0,51.866500000000002,2770.0799999999999,2743.4899999999998,2738.9099999999999,16.141400000000001,14.649900000000001,11.757400000000001
213247.0,49.068300000000001,2574.8400000000001,2551.9000000000001,2544.77,15.247,14.178000000000001,11.047700000000001
213248.0,46.956899999999997,2362.6700000000001,2343.7600000000002,2333.4699999999998,14.9268,13.588800000000001,10.4008
213249.0,46.178800000000003,-2263.6399999999999,-2280.3800000000001,-2292.8299999999999,14.4009,13.738799999999999,10.0044
213250.0,46.925899999999999,1880.99,1872.52,1853.22,17.316400000000002,11.7416,9.6801100000000009
213251.0,71.536900000000003,1222.28,1239.25,1199.99,33.347900000000003,7.3003400000000003,12.356999999999999
213252.0,91.475300000000004,720.95600000000002,750.50999999999999,700.02200000000005,43.706400000000002,5.0542299999999996,14.4916
213253.0,98.809799999999996,123.053,154.89099999999999,98.936599999999999,47.0839,5.0172499999999998,14.989699999999999
213254.0,52.947899999999997,21.455200000000001,-6.9846700000000004,50.696300000000001,-5.9393099999999999,-7.5815299999999999,-3.1484100000000002
213255.0,234.41399999999999,-994.45000000000005,-941.58199999999999,-1029.29,126.23999999999999,3.9391799999999999,20.353100000000001
213256.0,197.91200000000001,-1623.6400000000001,-1555.9200000000001,-1657.3599999999999,99.195800000000006,12.479900000000001,19.794599999999999
213257.0,148.459,-1678.6099999999999,-1631.45,-1721.0699999999999,69.882800000000003,14.607799999999999,15.4861
213258.0,126.962,-1903.52,-1891.1600000000001,-1955.78,60.681699999999999,16.322800000000001,15.746
213259.0,115.087,-2394.9099999999999,-2411.1900000000001,-2450.7800000000002,54.854500000000002,17.0442,17.021100000000001
213260.0,102.99299999999999,-2533.23,-2559.1700000000001,-2587.2399999999998,48.218400000000003,15.1303,15.878399999999999
213261.0,93.183300000000003,-2967.1500000000001,-2999.25,-3016.8200000000002,41.739800000000002,15.1591,16.976400000000002
213262.0,89.810199999999995,-3001.48,-3036.75,-3049.7800000000002,39.228099999999998,15.477,16.903600000000001
213263.0,86.089299999999994,-3096.1599999999999,-3133.9000000000001,-3143.0100000000002,36.474600000000002,15.699400000000001,16.626000000000001
213264.0,81.965800000000002,-3260.1300000000001,-3298.8699999999999,-3305.02,33.644399999999997,15.822800000000001,16.274899999999999
213265.0,77.101100000000002,-3265.4200000000001,-3304.9200000000001,-3308.54,30.161100000000001,15.866899999999999,15.7479
213266.0,73.002700000000004,-3244.3499999999999,-3283.3099999999999,-3285.4699999999998,27.510400000000001,15.7934,15.3108
213267.0,64.091899999999995,-3180.8000000000002,-3216.79,-3218.0799999999999,21.967400000000001,15.5656,14.020099999999999
213268.0,59.884,-3077.2600000000002,-3110.77,-3112.6799999999998,19.622800000000002,15.353400000000001,13.333299999999999
213269.0,56.089100000000002,-2959.5599999999999,-2990.1700000000001,-2993.27,17.708500000000001,15.110200000000001,12.6343
213270.0,52.6477,-2825.1599999999999,-2852.5599999999999,-2857.3499999999999,16.140699999999999,14.8324,11.908200000000001
213271.0,49.793500000000002,-2655.9000000000001,-2679.9000000000001,-2686.8099999999999,15.0463,14.529199999999999,11.2179
213272.0,47.537399999999998,-2466.7399999999998,-2487.1900000000001,-2496.6500000000001,14.3893,14.1761,10.5641
213273.0,45.788800000000002,-2041.3699999999999,-2054.1399999999999,-2070.1399999999999,15.049300000000001,13.161899999999999,9.5591899999999992
213274.0,48.161700000000003,-1797.1199999999999,-1804.8900000000001,-1825.5,17.7121,12.3367,9.6024399999999996
213275.0,55.613399999999999,-1516.1500000000001,-1514.96,-1543.02,23.4742,10.8812,10.473599999999999
213276.0,73.676699999999997,-1155.4300000000001,-1138.45,-1178.6500000000001,34.206400000000002,8.4290199999999995,12.6892
213277.0,93.120699999999999,-664.61000000000001,-634.17499999999995,-686.029,44.277099999999997,6.2724399999999996,14.5505
213278.0,453.779,-832.68100000000004,-1088.02,-982.62900000000002,226.89500000000001,7.4370099999999999,25.233699999999999
213279.0,245.036,752.89599999999996,779.96199999999999,758.24400000000003,140.18199999999999,10.9848,6.0834799999999998
213280.0,91.409199999999998,2782.1199999999999,2754.3200000000002,2733.27,42.116199999999999,13.335599999999999,15.278
213281.0,60.5976,2981.1500000000001,2947.79,2944.0999999999999,23.7728,11.299099999999999,10.7118
213282.0,42.806800000000003,1868.6400000000001,1853.46,1837.8800000000001,16.680399999999999,8.5610700000000008,4.7545200000000003
213283.0,50.4223,1397.71,1395.3900000000001,1369.8099999999999,23.011800000000001,7.4254899999999999,4.8086200000000003
213284.0,52.838999999999999,2774.2199999999998,2744.9200000000001,2739.9000000000001,19.9726,10.4772,8.8504500000000004
213285.0,83.717399999999998,3078.96,3045.25,3033.1399999999999,37.307899999999997,13.0023,14.545299999999999
213286.0,191.499,1730.28,1772.77,1696.6700000000001,100.54000000000001,13.654500000000001,21.793399999999998
213287.0,227.345,1286.75,1347.0999999999999,1268.99,122.855,10.0022,18.948899999999998
213288.0,144.619,2161.9699999999998,2171.7399999999998,2113.25,73.4696,16.805399999999999,17.601600000000001
213289.0,122.45999999999999,2216.0999999999999,2202.4200000000001,2162.6900000000001,60.790599999999998,16.9802,15.6669
213290.0,106.047,2470.7199999999998,2450.5100000000002,2418.6599999999999,51.024799999999999,15.007999999999999,15.194100000000001
213291.0,96.416799999999995,2754.3600000000001,2730.6199999999999,2703.8400000000001,45.065600000000003,13.928699999999999,15.334300000000001
213292.0,91.920000000000002,-2677.3200000000002,-2702.0900000000001,-2726.8400000000001,42.486199999999997,12.689399999999999,15.3985
213293.0,87.648200000000003,2882.6700000000001,2851.6100000000001,2835.3200000000002,39.811500000000002,13.1633,14.954000000000001
213294.0,79.102699999999999,3048.0300000000002,3013.4499999999998,3004.3000000000002,34.574800000000003,12.711,14.0311
213295.0,75.138300000000001,3073.27,3036.9899999999998,3030.8600000000001,31.978899999999999,12.4962,13.328900000000001
213296.0,69.384200000000007,3103.8299999999999,3068.6100000000001,3063.6500000000001,28.7121,12.0143,12.494899999999999
213297.0,65.750299999999996,3060.25,3025.0700000000002,3021.4200000000001,26.559000000000001,11.762499999999999,11.721
213298.0,61.534999999999997,-2944.96,-2977.71,-2983.0,24.266400000000001,11.356199999999999,10.9411
213299.0,56.761400000000002,2887.0700000000002,2855.3800000000001,2851.3800000000001,21.8339,10.901,9.8098799999999997
213300.0,49.5182,2618.8800000000001,2592.0999999999999,2585.6700000000001,18.515899999999998,10.0799,7.9177
213301.0,46.652700000000003,2452.9200000000001,2428.9200000000001,2420.6700000000001,17.3752,9.6801100000000009,7.0078800000000001
213302.0,44.517899999999997,2273.21,2251.98,2241.6300000000001,16.647300000000001,9.3002099999999999,6.1482000000000001
213303.0,43.119599999999998,2077.6999999999998,2059.5,2046.6600000000001,16.3687,8.9193700000000007,5.3820899999999998
213304.0,42.7545,-1985.02,-2001.5999999999999,-2016.3399999999999,16.092700000000001,8.9945400000000006,4.8826499999999999
213305.0,44.126800000000003,1647.6300000000001,1637.3299999999999,1617.74,18.267399999999999,8.0747300000000006,4.4358899999999997
213306.0,66.349000000000004,1079.4100000000001,1091.4000000000001,1056.03,32.601599999999998,6.4505299999999997,6.2787800000000002
213307.0,84.951700000000002,638.40899999999999,662.38999999999999,617.68200000000002,42.518500000000003,5.8768399999999996,7.9153200000000004
213308.0,92.192800000000005,109.616,135.41200000000001,86.218299999999999,46.0276,6.3532099999999998,8.2938299999999998
213309.0,53.991,23.611999999999998,-4.5404600000000004,54.930399999999999,-5.9600200000000001,-6.0492600000000003,-3.81196
213310.0,239.62,-1051.99,-996.43200000000002,-1088.3099999999999,129.41300000000001,5.2021199999999999,14.9404
213311.0,195.47399999999999,-1388.02,-1320.74,-1420.28,98.392799999999994,10.446400000000001,19.154399999999999
213312.0,146.166,-1848.1800000000001,-1803.3599999999999,-1889.0999999999999,69.259600000000006,13.5617,17.370100000000001
213313.0,122.553,-2047.97,-2038.8499999999999,-2097.9000000000001,59.169600000000003,14.898,16.523700000000002
213314.0,107.011,-2172.3400000000001,-2187.8299999999999,-2225.6300000000001,51.321800000000003,13.837400000000001,15.507899999999999
213315.0,97.142200000000003,-2520.4200000000001,-2541.4000000000001,-2572.3600000000001,45.533499999999997,12.741300000000001,15.073
213316.0,88.165099999999995,-2687.6199999999999,-2715.79,-2735.6999999999998,40.290999999999997,12.5878,15.014900000000001
213317.0,84.236199999999997,-2885.1799999999998,-2916.21,-2931.7399999999998,37.852800000000002,12.507899999999999,14.632400000000001
213318.0,80.029300000000006,-2973.6700000000001,-3006.8499999999999,-3018.6700000000001,35.18,12.394299999999999,14.1168
213319.0,75.647400000000005,-2935.1100000000001,-2968.8499999999999,-2978.0999999999999,32.617100000000001,12.191700000000001,13.5326
213320.0,70.413700000000006,-2987.79,-3022.2600000000002,-3029.23,29.273900000000001,11.9457,12.6723
213321.0,66.497699999999995,-3004.2199999999998,-3038.0900000000001,-3043.8800000000001,27.142199999999999,11.6553,11.9352
213322.0,57.688699999999997,-2866.6799999999998,-2898.02,-2903.2800000000002,22.247499999999999,11.026300000000001,10.059100000000001
213323.0,53.759700000000002,-2782.6199999999999,-2811.9000000000001,-2817.8499999999999,20.282299999999999,10.663399999999999,9.0942000000000007
213324.0,50.377200000000002,-2660.1599999999999,-2687.1300000000001,-2694.1900000000001,18.725000000000001,10.313499999999999,8.1584400000000006
213325.0,47.426699999999997,-2507.6999999999998,-2532.1300000000001,-2540.6999999999998,17.455200000000001,9.9696599999999993,7.2413299999999996
213326.0,45.128500000000003,-2349.0300000000002,-2370.8600000000001,-2381.2399999999998,16.589099999999998,9.6321999999999992,6.3721699999999997
213327.0,43.474699999999999,-2175.0700000000002,-2194.29,-2206.73,16.068300000000001,9.3048800000000007,5.5632900000000003
213328.0,42.899500000000003,-1785.25,-1799.0699999999999,-1816.4400000000001,16.5852,8.6816099999999992,4.3355600000000001
213329.0,45.556800000000003,-1573.5999999999999,-1583.8199999999999,-1604.55,18.8674,8.3448399999999996,4.1891800000000003
213330.0,52.488799999999998,-1331.0,-1333.9300000000001,-1360.3699999999999,23.953800000000001,7.7865799999999998,4.7087599999999998
213331.0,68.639499999999998,-1017.83,-1006.76,-1043.02,33.734400000000001,6.8897599999999999,6.3027199999999999
213332.0,86.920699999999997,-588.26599999999996,-564.601,-610.69500000000005,43.4315,6.2435499999999999,7.8632
213333.0,470.041,-990.24900000000002,-1253.6800000000001,-1145.6300000000001,236.43199999999999,2.68859,14.2385
213334.0,248.773,556.024,580.98000000000002,561.02999999999997,142.661,9.9042700000000004,2.1505700000000001
213335.0,86.343800000000002,2699.21,2674.5700000000002,2651.8400000000001,40.656999999999996,10.6297,12.567399999999999
213336.0,57.960500000000003,2795.73,2763.3600000000001,2757.5500000000002,24.3325,7.4512700000000001,6.9947600000000003
213337.0,42.076099999999997,1825.99,1807.8399999999999,1793.5999999999999,17.299499999999998,5.1998199999999999,0.57287600000000005
213338.0,48.042499999999997,1392.27,1387.9400000000001,1365.24,23.090299999999999,5.0190599999999996,0.49288999999999999
213339.0,51.448399999999999,2592.71,2562.8800000000001,2556.3699999999999,20.947600000000001,6.6520200000000003,4.8830200000000001
213340.0,78.836600000000004,2768.4400000000001,2738.0,2723.73,36.302199999999999,9.7290299999999998,11.732799999999999
213341.0,193.63300000000001,1911.6099999999999,1949.6800000000001,1877.25,104.67,10.632300000000001,10.7903
213342.0,228.26900000000001,1425.45,1481.8099999999999,1405.5699999999999,124.98099999999999,7.2993600000000001,11.4503
213343.0,140.91399999999999,1986.53,1997.3900000000001,1940.8399999999999,74.068700000000007,13.074199999999999,7.81562
213344.0,113.15600000000001,2365.6300000000001,2356.8000000000002,2314.46,57.370600000000003,12.403499999999999,8.6354600000000001
213345.0,98.136700000000005,2478.3200000000002,2461.8099999999999,2427.9099999999999,47.798200000000001,11.8222,11.2021
213346.0,90.671400000000006,2481.6100000000001,2460.5900000000001,2432.6999999999998,43.118499999999997,11.0688,12.5162
213347.0,87.514899999999997,-2466.7600000000002,-2488.1199999999999,-2515.1399999999999,41.218299999999999,10.135199999999999,12.789899999999999
213348.0,82.705699999999993,2804.6399999999999,2776.8899999999999,2758.6300000000001,38.569200000000002,10.1883,12.324400000000001
213349.0,74.420699999999997,2904.4200000000001,2873.02,2861.5300000000002,33.867600000000003,9.2222899999999992,11.0113
213350.0,70.947900000000004,2924.1199999999999,2890.48,2882.0300000000002,31.645099999999999,8.8437300000000008,10.126799999999999
213351.0,65.530500000000004,2877.8600000000001,2844.9899999999998,2837.6399999999999,28.6465,8.2923500000000008,9.1392699999999998
213352.0,62.645699999999998,2847.5500000000002,2813.96,2808.0500000000002,26.9255,7.9458700000000002,8.1322899999999994
213353.0,58.739199999999997,-2750.3000000000002,-2781.6199999999999,-2788.9699999999998,24.798300000000001,7.6963200000000001,7.3580300000000003
213354.0,54.803899999999999,2708.5300000000002,2677.0599999999999,2671.23,22.656700000000001,7.05877,5.9504299999999999
213355.0,48.639400000000002,2477.4099999999999,2449.3600000000001,2441.8800000000001,19.579899999999999,6.2812700000000001,3.8527499999999999
213356.0,46.149900000000002,2336.0900000000001,2310.1399999999999,2301.3400000000001,18.442399999999999,5.9368100000000004,2.8764799999999999
213357.0,44.208199999999998,2177.4499999999998,2153.73,2143.4200000000001,17.638200000000001,5.64072,1.9872700000000001
213358.0,42.740099999999998,2007.77,1986.71,1974.55,17.205500000000001,5.3830299999999998,1.2083999999999999
213359.0,42.013800000000003,-1920.5,-1940.1400000000001,-1953.7,16.771100000000001,5.3007499999999999,0.62284499999999998
213360.0,42.671500000000002,1625.49,1612.46,1594.95,18.617999999999999,5.0492600000000003,0.24263999999999999
213361.0,63.513300000000001,1085.55,1097.02,1065.3399999999999,32.536000000000001,5.1203799999999999,1.6175900000000001
213362.0,81.987499999999997,649.81500000000005,675.02300000000002,635.00699999999995,42.3386,5.5882500000000004,2.7442000000000002
213363.0,89.171700000000001,112.905,142.00200000000001,98.178799999999995,45.904000000000003,6.1142500000000002,2.9387799999999999
213364.0,54.922899999999998,20.293500000000002,-7.2953999999999999,53.563899999999997,-5.9219400000000002,-4.43879,-4.6992799999999999
213365.0,240.37299999999999,-974.76900000000001,-919.35299999999995,-1010.04,130.47399999999999,4.5123800000000003,11.227
213366.0,198.31800000000001,-1674.6600000000001,-1611.6800000000001,-1708.49,102.619,6.9941599999999999,10.8032
213367.0,141.87899999999999,-1856.0899999999999,-1818.25,-1896.22,70.894999999999996,9.5401000000000007,8.5175199999999993
213368.0,111.95699999999999,-2059.9099999999999,-2050.1900000000001,-2106.5900000000001,55.540300000000002,10.035299999999999,9.1356099999999998
213369.0,98.367500000000007,-2380.6999999999998,-2390.4899999999998,-2431.5500000000002,47.999499999999998,9.5068999999999999,10.1572
213370.0,91.808000000000007,-2361.0300000000002,-2377.96,-2410.9200000000001,43.595399999999998,10.2387,12.677099999999999
213371.0,83.731399999999994,-2682.7199999999998,-2707.52,-2729.52,39.1203,9.9199300000000008,12.652900000000001
213372.0,79.732200000000006,-2671.2600000000002,-2698.8600000000001,-2716.5599999999999,36.866300000000003,9.6139500000000009,12.097099999999999
213373.0,75.605800000000002,-2721.8699999999999,-2751.77,-2765.8099999999999,34.451300000000003,9.2556700000000003,11.3658
213374.0,71.533600000000007,-2846.6399999999999,-2877.2800000000002,-2888.8499999999999,32.253999999999998,8.8678500000000007,10.542400000000001
213375.0,66.594700000000003,-2819.79,-2851.6700000000001,-2860.9200000000001,29.167200000000001,8.4741,9.4932400000000001
213376.0,63.310200000000002,-2775.5900000000001,-2807.3699999999999,-2815.3699999999999,27.474699999999999,8.1044499999999999,8.5229499999999998
213377.0,55.516800000000003,-2692.4899999999998,-2723.1700000000001,-2730.2199999999998,23.057300000000001,7.3219599999999998,6.2936899999999998
213378.0,52.123600000000003,-2593.6500000000001,-2623.04,-2630.4400000000001,21.261399999999998,6.9316000000000004,5.1977099999999998
213379.0,49.235799999999998,-2489.4699999999998,-2517.3099999999999,-2525.4099999999999,19.810700000000001,6.5589700000000004,4.1395499999999998
213380.0,46.659799999999997,-2376.5300000000002,-2402.5700000000002,-2411.71,18.558399999999999,6.1967400000000001,3.1217899999999998
213381.0,44.601900000000001,-2236.3299999999999,-2260.4299999999998,-2270.8200000000002,17.630800000000001,5.8660100000000002,2.1855199999999999
213382.0,42.972200000000001,-2082.77,-2104.7600000000002,-2116.6199999999999,16.964600000000001,5.5624900000000004,1.3399300000000001
213383.0,41.619799999999998,-1743.72,-1760.6199999999999,-1776.1600000000001,16.976199999999999,5.0841099999999999,0.058198100000000003
213384.0,43.442300000000003,-1549.46,-1562.4200000000001,-1580.6700000000001,18.935199999999998,4.9723800000000002,-0.15842800000000001
213385.0,49.3401,-1323.4000000000001,-1328.25,-1351.48,23.707699999999999,4.9070400000000003,0.163356
213386.0,64.977599999999995,-1023.22,-1012.58,-1044.8299999999999,33.341299999999997,4.9019500000000003,1.26864
213387.0,82.961799999999997,-596.524,-571.39999999999998,-612.49900000000002,42.804099999999998,5.1627299999999998,2.4720900000000001
213388.0,487.32600000000002,-956.08699999999999,-1227.6500000000001,-1114.3199999999999,246.01599999999999,0.76101200000000002,5.72485
213389.0,254.95500000000001,823.10699999999997,841.99000000000001,828.22900000000004,146.74299999999999,5.5101100000000001,-2.8552399999999998
213390.0,81.492699999999999,2509.9400000000001,2488.6500000000001,2463.8099999999999,39.1907,7.7091399999999997,9.2442100000000007
213391.0,58.278100000000002,2677.3499999999999,2643.8200000000002,2637.3800000000001,25.185099999999998,4.57376,4.0371800000000002
213392.0,42.225700000000003,1895.6099999999999,1873.96,1862.8299999999999,17.3734,3.4028700000000001,-1.73916
213393.0,46.118000000000002,1483.1300000000001,1477.8599999999999,1458.77,22.953199999999999,3.7668900000000001,-1.9068400000000001
213394.0,52.867699999999999,2551.6599999999999,2519.1799999999998,2513.0300000000002,21.912800000000001,4.0572900000000001,2.04758
213395.0,75.299899999999994,2741.04,2712.8699999999999,2696.9099999999999,35.663699999999999,6.6528299999999998,8.6377600000000001
213396.0,199.85300000000001,1872.05,1912.29,1835.26,108.339,9.4266900000000007,1.68276
213397.0,232.49100000000001,1349.8699999999999,1402.51,1328.9100000000001,128.59,5.9048100000000003,3.0704600000000002
213398.0,140.81899999999999,2287.6999999999998,2303.7600000000002,2241.54,73.875500000000002,10.267799999999999,1.9061300000000001
213399.0,107.474,2187.8200000000002,2185.3200000000002,2137.3200000000002,54.1526,9.1591500000000003,4.86815
213400.0,92.493799999999993,2321.4200000000001,2309.27,2271.9699999999998,45.359000000000002,8.7642299999999995,7.2994399999999997
213401.0,85.240200000000002,2535.8400000000001,2518.6799999999998,2488.5300000000002,41.284999999999997,8.2006700000000006,8.7471099999999993
213402.0,82.810299999999998,-2445.6900000000001,-2463.02,-2492.5100000000002,39.748100000000001,7.29183,9.6089599999999997
213403.0,78.475099999999998,2572.0300000000002,2547.0500000000002,2527.02,37.541200000000003,7.1757600000000004,9.1310900000000004
213404.0,71.645399999999995,2694.54,2664.9299999999998,2651.7800000000002,33.624200000000002,6.1181700000000001,7.9581299999999997
213405.0,69.033000000000001,2715.4299999999998,2682.8699999999999,2672.8899999999999,31.794,5.7166199999999998,7.0662399999999996
213406.0,64.349599999999995,2752.9699999999998,2720.5500000000002,2711.8400000000001,29.084099999999999,5.2337400000000001,6.1040299999999998
213407.0,62.332299999999996,2728.1500000000001,2694.1500000000001,2687.2199999999998,27.656600000000001,4.9513400000000001,5.0831200000000001
213408.0,58.685400000000001,-2627.77,-2659.79,-2667.7800000000002,25.6357,4.80246,4.4065599999999998
213409.0,55.7667,2620.3800000000001,2586.96,2580.9699999999998,23.6204,4.3109299999999999,3.0288200000000001
213410.0,50.3401,2445.6500000000001,2414.3299999999999,2407.7800000000002,20.471499999999999,3.8502900000000002,1.1204499999999999
213411.0,47.885399999999997,2331.9200000000001,2302.27,2294.9899999999998,19.1874,3.6675800000000001,0.26037700000000003
213412.0,45.721600000000002,2204.6900000000001,2177.02,2168.8000000000002,18.1828,3.52616,-0.52404200000000001
213413.0,43.726100000000002,2059.52,2034.5599999999999,2025.03,17.5183,3.4281999999999999,-1.1954100000000001
213414.0,42.265999999999998,-1971.1199999999999,-1994.6700000000001,-2004.99,16.740600000000001,3.2607400000000002,-1.7578800000000001
213415.0,41.665999999999997,1710.6600000000001,1695.0699999999999,1681.0,18.508099999999999,3.4654799999999999,-2.03274
213416.0,62.157699999999998,1167.1600000000001,1180.3599999999999,1152.23,32.691200000000002,4.4654999999999996,-1.11059
213417.0,81.339600000000004,701.98299999999995,731.38400000000001,695.38400000000001,42.535499999999999,5.3494799999999998,-0.40149600000000002
213418.0,89.169300000000007,125.44799999999999,161.97800000000001,122.648,46.209099999999999,5.7846399999999996,-0.35986499999999999
213419.0,56.0396,22.130800000000001,-4.1322200000000002,57.830399999999997,-5.7905899999999999,-2.7966199999999999,-6.1804699999999997
213420.0,241.46600000000001,-1135.78,-1086.8099999999999,-1168.29,133.17699999999999,1.1133500000000001,3.96455
213421.0,203.01599999999999,-1523.0699999999999,-1463.0799999999999,-1558.75,106.639,4.9585400000000002,2.1959399999999998
213422.0,142.81899999999999,-2065.7600000000002,-2027.51,-2107.9699999999998,71.706299999999999,6.0465099999999996,0.93304299999999996
213423.0,107.92400000000001,-2166.5100000000002,-2151.5900000000001,-2213.21,52.742899999999999,6.6748399999999997,4.7534000000000001
213424.0,94.158100000000005,-2094.4299999999998,-2097.4699999999998,-2144.1399999999999,45.671300000000002,6.7984400000000003,6.8296299999999999
213425.0,86.969300000000004,-2349.7800000000002,-2362.4699999999998,-2398.25,41.917200000000001,7.3158599999999998,8.8742699999999992
213426.0,79.595600000000005,-2409.5999999999999,-2431.0999999999999,-2455.1199999999999,38.0914,7.0648299999999997,9.6132799999999996
213427.0,76.2072,-2573.7800000000002,-2598.5999999999999,-2618.1900000000001,36.2166,6.7041199999999996,9.16526
213428.0,72.729900000000001,-2639.6599999999999,-2667.3499999999999,-2683.1199999999999,34.177599999999998,6.3046800000000003,8.4426199999999998
213429.0,69.397900000000007,-2589.5700000000002,-2618.5799999999999,-2631.7399999999998,32.362099999999998,5.8943199999999996,7.5938499999999998
213430.0,65.139099999999999,-2640.6599999999999,-2671.6799999999998,-2682.2800000000002,29.565200000000001,5.4733900000000002,6.5210100000000004
213431.0,62.651800000000001,-2667.04,-2698.71,-2707.77,28.184000000000001,5.1588099999999999,5.5039899999999999
213432.0,56.097299999999997,-2578.3800000000001,-2610.5799999999999,-2617.8000000000002,24.0184,4.5148400000000004,3.3544499999999999
213433.0,53.176499999999997,-2531.23,-2562.8899999999999,-2569.9299999999998,22.2332,4.2304500000000003,2.3203399999999998
213434.0,50.613999999999997,-2451.9499999999998,-2482.75,-2489.9200000000001,20.716899999999999,3.9837600000000002,1.34707
213435.0,48.157699999999998,-2347.1599999999999,-2376.73,-2384.3299999999999,19.316099999999999,3.7595100000000001,0.43843799999999999
213436.0,45.967599999999997,-2238.2399999999998,-2266.2399999999998,-2274.5,18.173300000000001,3.5602,-0.394125
213437.0,43.933100000000003,-2113.9099999999999,-2139.9499999999998,-2149.1100000000001,17.235600000000002,3.3875199999999999,-1.1376900000000001
213438.0,40.845399999999998,-1813.05,-1833.3099999999999,-1845.2,16.635200000000001,3.1784500000000002,-2.2443
213439.0,41.418700000000001,-1634.03,-1649.27,-1663.5699999999999,18.356400000000001,3.2326899999999998,-2.4841099999999998
213440.0,46.265599999999999,-1410.6400000000001,-1415.98,-1435.1300000000001,23.027899999999999,3.4605800000000002,-2.3160599999999998
213441.0,62.399500000000003,-1097.3399999999999,-1084.47,-1112.5699999999999,32.885100000000001,4.0322100000000001,-1.55002
213442.0,80.938500000000005,-641.59799999999996,-611.38,-647.89700000000005,42.192500000000003,4.6773400000000001,-0.74619199999999997
213443.0,505.59899999999999,-1030.05,-1310.5699999999999,-1190.1700000000001,255.69,-1.5275000000000001,-5.0948900000000004
213444.0,267.21100000000001,662.77599999999995,676.04499999999996,665.35699999999997,153.27600000000001,2.0261999999999998,-15.915800000000001
213445.0,77.208699999999993,2471.3800000000001,2453.3000000000002,2426.5900000000001,37.799300000000002,4.6677999999999997,5.3710699999999996
213446.0,59.433100000000003,2625.1300000000001,2590.3499999999999,2583.9200000000001,26.0016,2.4497800000000001,1.94143
213447.0,41.978999999999999,1953.1400000000001,1929.5599999999999,1921.4000000000001,17.359000000000002,3.0640399999999999,-2.2380599999999999
213448.0,44.490600000000001,1541.1099999999999,1535.6099999999999,1519.77,22.7163,3.8667500000000001,-2.4764599999999999
213449.0,54.490900000000003,2514.4299999999998,2479.8299999999999,2474.5999999999999,22.6966,2.4359600000000001,0.46087499999999998
213450.0,72.703999999999994,2490.1599999999999,2463.98,2446.5100000000002,35.170000000000002,3.7354400000000001,5.3432899999999997
213451.0,203.13300000000001,2094.3400000000001,2137.1500000000001,2057.1999999999998,109.81699999999999,6.73855,-6.9731500000000004
213452.0,239.124,1619.8800000000001,1670.3199999999999,1599.74,132.76300000000001,3.5547599999999999,-9.9833300000000005
213453.0,139.87799999999999,2107.9899999999998,2126.8200000000002,2062.4000000000001,73.244200000000006,7.1077899999999996,-3.0569500000000001
213454.0,102.14100000000001,2379.9299999999998,2381.75,2332.4000000000001,51.512700000000002,6.3587499999999997,0.71846500000000002
213455.0,86.714600000000004,2384.9400000000001,2377.5500000000002,2337.71,42.653799999999997,5.6974400000000003,3.04636
213456.0,80.389499999999998,2308.4499999999998,2295.21,2262.6199999999999,39.361699999999999,5.2300000000000004,4.5928300000000002
213457.0,78.707099999999997,-2279.8600000000001,-2293.27,-2325.0799999999999,38.365600000000001,4.3503600000000002,5.8780700000000001
213458.0,74.972499999999997,2542.6500000000001,2520.3499999999999,2498.5700000000002,36.597999999999999,4.1991500000000004,5.5358900000000002
213459.0,69.995999999999995,2624.8899999999999,2596.5999999999999,2582.1500000000001,33.545400000000001,3.3256899999999998,4.90923
213460.0,68.311000000000007,2657.0300000000002,2625.0700000000002,2614.02,32.086399999999998,3.0180199999999999,4.23461
213461.0,64.378900000000002,2634.7600000000002,2602.3200000000002,2592.8299999999999,29.631,2.7316099999999999,3.5529700000000002
213462.0,63.040399999999998,2637.0999999999999,2602.4099999999999,2595.0700000000002,28.401499999999999,2.6024500000000002,2.7097500000000001
213463.0,59.579799999999999,-2555.3699999999999,-2588.3800000000001,-2596.3699999999999,26.450700000000001,2.50163,2.20506
213464.0,57.261099999999999,2582.77,2547.6100000000001,2542.0700000000002,24.4635,2.4285600000000001,1.1767799999999999
213465.0,51.932499999999997,2447.1799999999998,2413.4699999999998,2408.3200000000002,21.1465,2.4929700000000001,-0.21304100000000001
213466.0,49.276000000000003,2352.5,2320.3000000000002,2314.8800000000001,19.712499999999999,2.5859399999999999,-0.82427099999999998
213467.0,46.736699999999999,2237.3200000000002,2207.1199999999999,2201.1900000000001,18.532,2.7131799999999999,-1.3712899999999999
213468.0,44.181199999999997,2105.3699999999999,2078.0799999999999,2071.21,17.680099999999999,2.8708900000000002,-1.84256
213469.0,42.126300000000001,-2018.6900000000001,-2044.54,-2051.7600000000002,16.628499999999999,2.7357300000000002,-2.2726700000000002
213470.0,40.588999999999999,1771.1600000000001,1754.3299999999999,1743.4300000000001,18.349900000000002,3.35012,-2.4672000000000001
213471.0,61.034599999999998,1216.0899999999999,1230.5999999999999,1205.6400000000001,32.520600000000002,4.7516999999999996,-2.1181999999999999
213472.0,80.493099999999998,733.88300000000004,765.79600000000005,733.322,42.195799999999998,5.5018500000000001,-1.8499300000000001
213473.0,89.191699999999997,132.46000000000001,173.68700000000001,138.17500000000001,45.998600000000003,5.8109400000000004,-1.7807500000000001
213474.0,57.345700000000001,20.467400000000001,-3.1714099999999998,59.284599999999998,-5.60466,-1.02704,-8.3260500000000004
213475.0,248.745,-1209.9200000000001,-1169.1600000000001,-1241.54,138.596,-2.3851100000000001,-9.6580499999999994
213476.0,205.20500000000001,-1932.1199999999999,-1874.74,-1967.4200000000001,108.541,1.9994000000000001,-7.94367
213477.0,143.25999999999999,-2039.3800000000001,-1999.04,-2081.48,71.495599999999996,2.6613500000000001,-4.8221800000000004
213478.0,104.29600000000001,-2159.3800000000001,-2142.0799999999999,-2204.46,50.738799999999998,3.7798699999999998,0.40407300000000002
213479.0,88.7072,-2355.0300000000002,-2353.0599999999999,-2401.8099999999999,42.835999999999999,4.0964900000000002,3.1194000000000002
213480.0,82.301000000000002,-2242.5900000000001,-2250.0500000000002,-2289.0300000000002,39.947600000000001,4.2049599999999998,4.71129
213481.0,76.086299999999994,-2449.8499999999999,-2468.0300000000002,-2494.1599999999999,37.145299999999999,4.1294300000000002,6.0748600000000001
213482.0,73.434200000000004,-2411.27,-2433.5,-2454.8099999999999,35.693600000000004,3.8212899999999999,5.9027900000000004
213483.0,70.826400000000007,-2450.7800000000002,-2476.6300000000001,-2493.8499999999999,34.071899999999999,3.4759799999999998,5.4001200000000003
213484.0,68.377099999999999,-2578.3600000000001,-2606.2800000000002,-2620.5999999999999,32.625300000000003,3.1808100000000001,4.7332000000000001
213485.0,64.886300000000006,-2566.7800000000002,-2597.46,-2608.8899999999999,30.0977,2.8557000000000001,3.9064700000000001
213486.0,63.073599999999999,-2547.77,-2579.7800000000002,-2589.2800000000002,28.921500000000002,2.7053400000000001,3.0571700000000002
213487.0,57.373800000000003,-2536.8800000000001,-2570.6300000000001,-2577.4000000000001,24.866499999999998,2.41913,1.37985
213488.0,54.635300000000001,-2481.46,-2515.1399999999999,-2521.2399999999998,23.024999999999999,2.36686,0.61012599999999995
213489.0,52.0914,-2422.71,-2455.8800000000001,-2461.6199999999999,21.396899999999999,2.3702299999999998,-0.105125
213490.0,49.481400000000001,-2355.3200000000002,-2387.48,-2393.1599999999999,19.834700000000002,2.40787,-0.75596699999999994
213491.0,46.979100000000003,-2259.1700000000001,-2289.8499999999999,-2295.7399999999998,18.4986,2.4879500000000001,-1.3352900000000001
213492.0,44.455300000000001,-2146.23,-2174.8600000000001,-2181.2399999999998,17.345199999999998,2.59335,-1.8418099999999999
213493.0,39.884999999999998,-1868.6500000000001,-1890.72,-1899.22,16.308499999999999,2.90347,-2.6101899999999998
213494.0,39.5824,-1690.1400000000001,-1706.4200000000001,-1717.1700000000001,17.855699999999999,3.20539,-2.8160699999999999
213495.0,43.822000000000003,-1464.5,-1469.76,-1485.3,22.402000000000001,3.7065399999999999,-2.7698399999999999
213496.0,60.5366,-1143.04,-1128.53,-1153.0,32.306600000000003,4.5645699999999998,-2.3723700000000001
213497.0,79.321299999999994,-668.64700000000005,-635.33399999999995,-667.84900000000005,41.288400000000003,5.24003,-1.9583999999999999
213498.0,525.15200000000004,-1058.0,-1347.9000000000001,-1219.9100000000001,265.45600000000002,-4.77447,-18.254200000000001
213499.0,284.81799999999998,936.54499999999996,948.09400000000005,932.33299999999997,160.785,-0.50190800000000002,-33.4925
213500.0,73.708600000000004,2358.9899999999998,2344.3600000000001,2315.6700000000001,36.356099999999998,1.65337,0.973495
213501.0,59.851500000000001,2561.3000000000002,2526.7600000000002,2520.1799999999998,26.560400000000001,0.71212600000000004,0.45299099999999998
213502.0,41.197200000000002,1911.9200000000001,1889.2,1882.4100000000001,17.6769,3.3202799999999999,-1.8482000000000001
213503.0,43.574300000000001,1494.5899999999999,1489.3800000000001,1475.4400000000001,22.5823,4.4370799999999999,-2.2886700000000002
213504.0,54.8324,2492.54,2458.0900000000001,2453.25,23.2713,1.25145,-0.35356500000000002
213505.0,70.536799999999999,2539.96,2516.0599999999999,2497.1799999999998,34.561799999999998,0.96312200000000003,1.8753
213506.0,208.71600000000001,2094.9200000000001,2140.8600000000001,2056.8499999999999,111.559,3.2630599999999998,-17.176600000000001
213507.0,251.411,1583.73,1635.4200000000001,1560.46,137.75299999999999,0.42512100000000003,-24.915600000000001
213508.0,141.69399999999999,2464.8800000000001,2487.7199999999998,2419.3099999999999,73.0989,3.02868,-11.2544
213509.0,100.447,2283.6500000000001,2290.5,2237.3800000000001,49.8217,2.4419900000000001,-6.3255499999999998
213510.0,82.9452,2306.1199999999999,2303.73,2260.79,40.394599999999997,2.0578400000000001,-2.5705
213511.0,76.584199999999996,2436.9400000000001,2427.8200000000002,2392.73,37.498699999999999,1.92866,-0.37569999999999998
213512.0,75.391999999999996,-2332.1900000000001,-2341.46,-2375.73,36.9452,1.23197,1.4026700000000001
213513.0,72.041399999999996,2387.5500000000002,2368.1100000000001,2344.6799999999998,35.563600000000001,1.29217,1.6575500000000001
213514.0,68.627499999999998,2492.46,2465.8899999999999,2450.25,33.323,0.74497100000000005,1.87906
213515.0,67.6571,2524.5500000000002,2493.79,2481.77,32.191800000000001,0.58447499999999997,1.5698700000000001
213516.0,64.2577,2581.9899999999998,2550.3299999999999,2540.1399999999999,29.965800000000002,0.52142100000000002,1.3136300000000001
213517.0,63.307600000000001,2583.3200000000002,2549.0700000000002,2541.3000000000002,28.896999999999998,0.60801700000000003,0.81525400000000003
213518.0,60.005499999999998,-2495.3299999999999,-2528.1500000000001,-2536.25,27.0197,0.534856,0.56635500000000005
213519.0,57.715000000000003,2533.5700000000002,2498.5500000000002,2493.1399999999999,25.0548,0.95250000000000001,0.018105099999999999
213520.0,52.069800000000001,2411.1700000000001,2377.6999999999998,2373.1900000000001,21.683499999999999,1.61469,-0.70876600000000001
213521.0,49.147100000000002,2317.9099999999999,2286.1300000000001,2281.5599999999999,20.1999,2.0176500000000002,-1.0251300000000001
213522.0,46.339199999999998,2206.0599999999999,2176.46,2171.5700000000002,18.968499999999999,2.4457300000000002,-1.3239399999999999
213523.0,43.559699999999999,2071.04,2044.53,2038.8599999999999,18.065999999999999,2.8892899999999999,-1.5879000000000001
213524.0,41.371299999999998,-1983.01,-2008.1700000000001,-2014.02,16.955300000000001,2.8769399999999998,-1.8444
213525.0,39.7575,1726.53,1710.47,1701.1500000000001,18.529900000000001,3.8018900000000002,-2.0628199999999999
213526.0,59.340200000000003,1172.6900000000001,1186.48,1163.8900000000001,31.774799999999999,5.3468099999999996,-2.43147
213527.0,77.528899999999993,703.875,733.85599999999999,704.30600000000004,40.842500000000001,5.7919200000000002,-2.5568599999999999
213528.0,85.736500000000007,127.58499999999999,166.148,133.71899999999999,44.500799999999998,5.8340899999999998,-2.5495800000000002
213529.0,59.120899999999999,22.5548,3.1170399999999998,65.170400000000001,-5.5685000000000002,1.1803999999999999,-11.192399999999999
213530.0,262.96300000000002,-1371.8800000000001,-1335.3299999999999,-1407.5799999999999,145.035,-5.4007899999999998,-26.082100000000001
213531.0,212.393,-1805.1600000000001,-1748.29,-1842.8099999999999,111.422,-1.82816,-18.823499999999999
213532.0,146.04400000000001,-2288.29,-2245.5799999999999,-2330.6999999999998,71.787300000000002,-0.84710700000000005,-11.9985
213533.0,104.322,-2339.5999999999999,-2318.3600000000001,-2384.2800000000002,49.474899999999998,-0.1149,-6.9131600000000004
213534.0,85.827299999999994,-2164.2199999999998,-2157.3299999999999,-2209.1900000000001,40.680300000000003,0.56898800000000005,-2.5968499999999999
213535.0,78.876000000000005,-2304.6799999999998,-2307.0300000000002,-2349.1100000000001,38.049599999999998,1.02183,-0.15503900000000001
213536.0,73.147400000000005,-2252.5799999999999,-2267.3200000000002,-2295.4099999999999,36.111199999999997,1.1597200000000001,2.1681400000000002
213537.0,71.154499999999999,-2389.9200000000001,-2409.3499999999999,-2432.3099999999999,35.080500000000001,0.95865400000000001,2.3739699999999999
213538.0,69.283199999999994,-2444.77,-2468.4899999999998,-2487.04,33.843299999999999,0.75092599999999998,2.25631
213539.0,67.572199999999995,-2397.5,-2423.9000000000001,-2439.2800000000002,32.727600000000002,0.63747200000000004,1.9641299999999999
213540.0,64.656199999999998,-2461.6300000000001,-2491.3600000000001,-2503.52,30.438099999999999,0.45316899999999999,1.5343
213541.0,63.287599999999998,-2508.9499999999998,-2540.4299999999998,-2550.3800000000001,29.428100000000001,0.51643600000000001,1.01126
213542.0,57.890500000000003,-2473.5100000000002,-2507.2600000000002,-2513.8400000000001,25.4634,0.69619799999999998,0.076252299999999995
213543.0,55.076500000000003,-2453.9299999999998,-2487.6599999999999,-2493.3000000000002,23.597799999999999,0.91562299999999996,-0.34395300000000001
213544.0,52.354700000000001,-2400.4099999999999,-2433.5900000000001,-2438.6199999999999,21.923100000000002,1.2173400000000001,-0.72608600000000001
213545.0,49.490699999999997,-2318.3000000000002,-2350.3400000000001,-2355.0999999999999,20.304300000000001,1.5749299999999999,-1.0564
213546.0,46.697200000000002,-2227.8200000000002,-2258.1799999999998,-2262.9699999999998,18.912400000000002,1.98041,-1.3525400000000001
213547.0,43.903399999999998,-2117.0900000000001,-2145.1999999999998,-2150.3400000000001,17.712499999999999,2.41486,-1.6104099999999999
213548.0,39.012300000000003,-1828.3900000000001,-1849.6600000000001,-1856.6800000000001,16.583300000000001,3.3298899999999998,-2.05159
213549.0,38.746000000000002,-1648.02,-1663.5999999999999,-1672.7,18.013400000000001,3.8661599999999998,-2.278
213550.0,42.973599999999998,-1419.72,-1424.78,-1438.3699999999999,22.2668,4.5692700000000004,-2.41072
213551.0,59.008200000000002,-1100.6600000000001,-1087.1099999999999,-1109.1199999999999,31.626300000000001,5.6091899999999999,-2.37852
213552.0,76.596000000000004,-641.10900000000004,-610.03599999999994,-639.64599999999996,40.057000000000002,6.1608900000000002,-2.3938000000000001
213553.0,546.08799999999997,-1213.3800000000001,-1511.8699999999999,-1377.9300000000001,275.22899999999998,-8.6578800000000005,-35.009799999999998
213554.0,303.726,770.60400000000004,781.95000000000005,759.05999999999995,168.66499999999999,-2.7835100000000002,-46.509099999999997
213555.0,71.290499999999994,2428.1599999999999,2417.4200000000001,2386.6100000000001,34.814799999999998,-1.5149999999999999,-3.8409300000000002
213556.0,59.066699999999997,2513.8600000000001,2481.5100000000002,2474.3000000000002,26.777100000000001,-1.05006,-0.96585200000000004
213557.0,40.442700000000002,1781.3900000000001,1761.9100000000001,1754.6099999999999,18.465399999999999,3.0702099999999999,-1.7867500000000001
213558.0,43.5428,1352.46,1347.8099999999999,1334.23,22.726700000000001,4.4055999999999997,-2.51105
213559.0,53.823300000000003,2406.8800000000001,2375.0700000000002,2369.6999999999998,23.676600000000001,-0.063797499999999993,-1.10259
213560.0,68.4709,2380.3800000000001,2359.4499999999998,2339.1900000000001,33.646599999999999,-1.7687200000000001,-1.8392299999999999
213561.0,216.65100000000001,2373.6999999999998,2422.6300000000001,2334.1500000000001,114.087,0.43785400000000002,-25.795200000000001
213562.0,265.23399999999998,1843.78,1896.96,1815.5,142.988,-1.36795,-35.935600000000001
213563.0,145.958,2350.3000000000002,2377.5700000000002,2304.3800000000001,73.635400000000004,-0.63491699999999995,-17.620200000000001
213564.0,102.40000000000001,2548.4699999999998,2559.9299999999998,2502.21,49.157499999999999,-1.24251,-11.9815
213565.0,82.512600000000006,2475.3099999999999,2477.4099999999999,2431.1900000000001,38.984999999999999,-1.3833599999999999,-8.1570599999999995
213566.0,74.710499999999996,2324.6500000000001,2319.8299999999999,2282.1300000000001,35.846299999999999,-1.4204300000000001,-5.6128200000000001
213567.0,73.281800000000004,-2276.9299999999998,-2281.9099999999999,-2318.6100000000001,35.440899999999999,-1.9936100000000001,-3.4422000000000001
213568.0,69.626000000000005,2458.3000000000002,2442.25,2417.1599999999999,34.299300000000002,-1.63357,-2.62019
213569.0,67.000500000000002,2502.0500000000002,2478.1100000000001,2461.27,32.734000000000002,-1.7728200000000001,-1.3295300000000001
213570.0,66.441800000000001,2530.8899999999999,2502.46,2489.4299999999998,31.896999999999998,-1.78945,-1.18387
213571.0,63.299300000000002,2511.8499999999999,2482.3800000000001,2471.3200000000002,29.885899999999999,-1.62723,-0.91207300000000002
213572.0,62.546900000000001,2519.8699999999999,2487.73,2479.23,29.009499999999999,-1.3686400000000001,-1.0306
213573.0,59.4435,-2445.52,-2476.3800000000001,-2485.0799999999999,27.252199999999998,-1.4181699999999999,-0.98514199999999996
213574.0,56.863399999999999,2475.3200000000002,2442.6700000000001,2436.6900000000001,25.378499999999999,-0.59418599999999999,-1.0528599999999999
213575.0,50.895699999999998,2334.71,2304.1999999999998,2299.1500000000001,22.171600000000002,0.53076800000000002,-1.1902200000000001
213576.0,47.860300000000002,2230.0700000000002,2201.5500000000002,2196.4099999999999,20.777999999999999,1.1722300000000001,-1.2848299999999999
213577.0,45.041499999999999,2100.6799999999998,2074.5599999999999,2069.0700000000002,19.640699999999999,1.8250999999999999,-1.4119900000000001
213578.0,42.4313,1951.4000000000001,1928.4100000000001,1922.1500000000001,18.822099999999999,2.4781599999999999,-1.56857
213579.0,40.590000000000003,-1867.22,-1889.05,-1895.5599999999999,17.861699999999999,2.60189,-1.70991
213580.0,39.596400000000003,1585.5,1571.79,1562.25,19.1875,3.6874500000000001,-2.0504699999999998
213581.0,57.327399999999997,1047.3800000000001,1058.5799999999999,1037.3900000000001,30.7349,5.3339499999999997,-3.16622
213582.0,73.137799999999999,621.95399999999995,646.35900000000004,618.83799999999997,38.858199999999997,5.6429999999999998,-3.7594599999999998
213583.0,79.470500000000001,110.16500000000001,139.82900000000001,109.836,41.992400000000004,5.45756,-3.92822
213584.0,60.897199999999998,23.763999999999999,9.8396500000000007,69.874099999999999,-5.8761000000000001,3.8028,-14.135199999999999
213585.0,278.85399999999998,-1376.95,-1343.04,-1418.1099999999999,151.38200000000001,-7.9607599999999996,-39.0749
213586.0,222.65199999999999,-2192.7600000000002,-2136.1399999999999,-2234.1900000000001,115.32599999999999,-4.6938500000000003,-27.924900000000001
213587.0,151.22,-2312.6799999999998,-2267.5799999999999,-2356.1500000000001,72.809399999999997,-4.2276499999999997,-18.490600000000001
213588.0,107.789,-2372.5799999999999,-2346.6900000000001,-2417.77,49.129199999999997,-3.6604399999999999,-12.3172
213589.0,86.734999999999999,-2496.4099999999999,-2485.1999999999998,-2540.8699999999999,39.589500000000001,-2.8210700000000002,-8.0836900000000007
213590.0,77.681100000000001,-2306.9200000000001,-2304.8299999999999,-2349.8299999999999,36.514499999999998,-2.2535099999999999,-5.2930000000000001
213591.0,70.885499999999993,-2395.6999999999998,-2406.6199999999999,-2436.6700000000001,34.8752,-1.91049,-2.2281599999999999
213592.0,69.1614,-2322.96,-2339.0799999999999,-2363.6500000000001,34.188800000000001,-1.91933,-1.4767600000000001
213593.0,67.708699999999993,-2342.0100000000002,-2362.8800000000001,-2382.7600000000002,33.284799999999997,-1.96431,-1.0980399999999999
213594.0,66.433099999999996,-2460.0900000000001,-2484.0100000000002,-2500.52,32.458399999999997,-1.8725700000000001,-0.932647
213595.0,63.8232,-2447.5300000000002,-2475.0999999999999,-2488.1399999999999,30.387899999999998,-1.9034599999999999,-0.84685200000000005
213596.0,62.700200000000002,-2432.3600000000001,-2461.8499999999999,-2472.5300000000002,29.565000000000001,-1.6283399999999999,-0.97152799999999995
213597.0,57.302500000000002,-2432.3299999999999,-2464.0500000000002,-2471.1300000000001,25.791399999999999,-1.03861,-1.11067
213598.0,54.351900000000001,-2379.6399999999999,-2411.1500000000001,-2417.2399999999998,23.9955,-0.58518099999999995,-1.1848099999999999
213599.0,51.456400000000002,-2319.6500000000001,-2350.3200000000002,-2355.79,22.3916,-0.038420000000000003,-1.2750999999999999
213600.0,48.429400000000001,-2246.27,-2275.4899999999998,-2280.7199999999998,20.855599999999999,0.569797,-1.3566400000000001
213601.0,45.563699999999997,-2139.5300000000002,-2166.77,-2172.1100000000001,19.569600000000001,1.23264,-1.45069
213602.0,42.835700000000003,-2012.02,-2036.8199999999999,-2042.5699999999999,18.493300000000001,1.9114,-1.55871
213603.0,38.751100000000001,-1700.0999999999999,-1718.4100000000001,-1726.03,17.5715,3.2453799999999999,-1.88887
213604.0,39.204000000000001,-1508.73,-1522.3,-1531.78,18.916699999999999,3.92842,-2.2081
213605.0,43.693199999999997,-1281.5899999999999,-1286.55,-1299.98,22.729900000000001,4.7458799999999997,-2.5933199999999998
213606.0,57.862099999999998,-981.98900000000003,-971.64099999999996,-992.56200000000001,31.034400000000002,5.8448700000000002,-3.0484800000000001
213607.0,73.231700000000004,-566.16700000000003,-541.779,-569.654,38.780000000000001,6.3541600000000003,-3.56298
213608.0,568.44600000000003,-1282.1600000000001,-1588.54,-1449.9300000000001,285.041,-12.6737,-52.571399999999997
213609.0,323.56400000000002,1069.74,1081.1800000000001,1052.03,176.34,-5.2154699999999998,-59.658000000000001
213610.0,70.551000000000002,2450.3400000000001,2443.52,2410.8800000000001,33.313200000000002,-4.7840100000000003,-9.0334699999999994
213611.0,57.511600000000001,2457.27,2428.6199999999999,2420.4000000000001,26.641400000000001,-3.1694,-2.8547500000000001
213612.0,40.535499999999999,1631.0699999999999,1615.49,1606.6500000000001,19.609400000000001,1.6360600000000001,-2.7540100000000001
213613.0,44.4268,1199.49,1195.4400000000001,1181.1900000000001,23.258299999999998,3.1850800000000001,-3.8084099999999999
213614.0,52.352200000000003,2348.9299999999998,2321.25,2314.6999999999998,23.9483,-1.96624,-2.4443299999999999
213615.0,66.739400000000003,2541.3099999999999,2524.0599999999999,2502.5100000000002,32.378100000000003,-4.6370399999999998,-6.0779199999999998
213616.0,225.88300000000001,2416.21,2467.23,2375.3099999999999,116.895,-2.6958899999999999,-34.854500000000002
213617.0,278.49299999999999,1844.8099999999999,1898.45,1813.1800000000001,147.536,-3.2658,-47.0871
213618.0,152.37700000000001,2780.5,2810.8600000000001,2734.5300000000002,75.004900000000006,-4.4060499999999996,-24.855899999999998
213619.0,106.66500000000001,2557.1700000000001,2572.2800000000002,2511.5500000000002,49.2714,-5.1456200000000001,-18.407900000000001
213620.0,84.841899999999995,2520.02,2526.0599999999999,2476.9899999999998,38.150399999999998,-5.0997300000000001,-14.2096
213621.0,75.232699999999994,2587.0999999999999,2586.2199999999998,2546.27,34.525399999999998,-4.9121100000000002,-11.251300000000001
213622.0,73.084400000000002,-2460.6900000000001,-2461.73,-2500.5500000000002,34.068600000000004,-5.34314,-8.66371
213623.0,68.194800000000001,2428.6799999999998,2416.4499999999998,2389.8299999999999,32.8551,-4.7036199999999999,-7.3486000000000002
213624.0,65.207899999999995,2463.7800000000002,2443.4200000000001,2425.4400000000001,31.696999999999999,-4.4207900000000002,-5.0131800000000002
213625.0,64.717399999999998,2472.5799999999999,2447.6199999999999,2433.5799999999999,31.111999999999998,-4.31853,-4.3956799999999996
213626.0,61.616199999999999,2511.0900000000001,2485.1399999999999,2473.0999999999999,29.319900000000001,-3.9895200000000002,-3.5988799999999999
213627.0,61.008000000000003,2496.04,2467.4400000000001,2457.9699999999998,28.699200000000001,-3.6132599999999999,-3.3331
213628.0,58.198,-2410.5700000000002,-2437.9899999999998,-2447.6799999999998,27.1403,-3.6376300000000001,-2.9554900000000002
213629.0,55.356099999999998,2411.1399999999999,2382.3899999999999,2375.3299999999999,25.4513,-2.6089600000000002,-2.653
213630.0,49.498399999999997,2243.04,2216.9000000000001,2210.54,22.6449,-1.2607699999999999,-2.34219
213631.0,46.613199999999999,2122.2199999999998,2098.2399999999998,2091.6700000000001,21.451799999999999,-0.51253099999999996,-2.3021799999999999
213632.0,44.078699999999998,1980.6700000000001,1959.1600000000001,1952.1199999999999,20.511500000000002,0.23799500000000001,-2.3590399999999998
213633.0,41.934199999999997,1816.1500000000001,1797.5799999999999,1789.72,19.8687,0.98024900000000004,-2.4946299999999999
213634.0,40.652900000000002,-1734.1500000000001,-1751.8699999999999,-1760.1099999999999,19.1465,1.20641,-2.6091700000000002
213635.0,40.365299999999998,1428.9200000000001,1417.96,1407.1500000000001,20.233599999999999,2.33528,-3.1214400000000002
213636.0,56.314599999999999,915.46900000000005,923.68100000000004,902.83299999999997,30.066199999999998,4.4315600000000002,-4.8170400000000004
213637.0,69.957899999999995,538.17200000000003,556.24400000000003,529.62099999999998,37.2376,5.0602999999999998,-5.8635599999999997
213638.0,75.011200000000002,94.570800000000006,114.559,85.796499999999995,39.929900000000004,4.7994599999999998,-6.38903
213639.0,62.462400000000002,24.583400000000001,15.6953,72.754400000000004,-7.0399900000000004,7.0419700000000001,-16.0883
213640.0,294.46800000000002,-1569.0599999999999,-1538.8499999999999,-1614.3599999999999,157.01499999999999,-10.2563,-51.966799999999999
213641.0,232.80099999999999,-2095.8400000000001,-2040.04,-2139.6799999999998,118.925,-7.4826699999999997,-37.045000000000002
213642.0,158.71600000000001,-2607.8800000000001,-2561.0999999999999,-2652.4899999999998,74.798199999999994,-7.8077300000000003,-25.5517
213643.0,112.642,-2632.3200000000002,-2603.71,-2677.46,49.581299999999999,-7.2692300000000003,-18.3184
213644.0,89.805999999999997,-2410.3099999999999,-2395.48,-2454.1500000000001,38.991999999999997,-6.4798600000000004,-13.972300000000001
213645.0,78.854200000000006,-2492.6500000000001,-2486.7399999999998,-2534.23,35.371400000000001,-5.7690299999999999,-10.878500000000001
213646.0,69.873199999999997,-2327.4299999999998,-2334.4200000000001,-2366.2600000000002,33.523000000000003,-5.0952799999999998,-7.0327500000000001
213647.0,67.775499999999994,-2419.8400000000001,-2432.1500000000001,-2458.23,32.993400000000001,-4.9372499999999997,-5.8338700000000001
213648.0,66.222800000000007,-2439.9299999999998,-2457.1500000000001,-2478.3400000000001,32.3125,-4.8080400000000001,-4.94428
213649.0,65.005799999999994,-2366.3000000000002,-2386.6900000000001,-2404.3899999999999,31.730599999999999,-4.5165499999999996,-4.2627899999999999
213650.0,62.4345,-2409.4499999999998,-2433.6199999999999,-2447.6999999999998,29.8689,-4.4307999999999996,-3.6599699999999999
213651.0,61.465499999999999,-2439.7800000000002,-2465.8600000000001,-2477.5500000000002,29.290700000000001,-3.9873699999999999,-3.38592
213652.0,56.106699999999996,-2372.3899999999999,-2400.5500000000002,-2408.6700000000001,25.873000000000001,-3.1284800000000001,-2.76322
213653.0,53.1723,-2334.6999999999998,-2362.46,-2369.6599999999999,24.260400000000001,-2.5449899999999999,-2.55694
213654.0,50.317799999999998,-2260.1500000000001,-2286.8699999999999,-2293.5700000000002,22.846,-1.87033,-2.4339599999999999
213655.0,47.384700000000002,-2153.8499999999999,-2178.8899999999999,-2185.5100000000002,21.5106,-1.13533,-2.35859
213656.0,44.715400000000002,-2036.21,-2059.1300000000001,-2066.0,20.433900000000001,-0.35661399999999999,-2.3625600000000002
213657.0,42.346499999999999,-1896.5899999999999,-1917.05,-1924.46,19.576499999999999,0.428844,-2.4338600000000001
213658.0,39.508800000000001,-1554.9000000000001,-1569.71,-1579.0,18.992899999999999,1.90706,-2.8613400000000002
213659.0,40.7012,-1359.6500000000001,-1370.9300000000001,-1381.8099999999999,20.277699999999999,2.63592,-3.3557000000000001
213660.0,45.3748,-1136.26,-1141.1700000000001,-1155.4100000000001,23.636099999999999,3.5472800000000002,-4.0131899999999998
213661.0,57.782299999999999,-858.02599999999995,-851.37400000000002,-872.16200000000003,30.8537,4.8959200000000003,-4.9299400000000002
213662.0,71.201599999999999,-490.62799999999999,-473.70999999999998,-500.822,37.884399999999999,5.6387600000000004,-5.9438800000000001
213663.0,591.51199999999994,-1448.22,-1761.51,-1620.25,294.11799999999999,-16.404599999999999,-72.373199999999997
213664.0,344.58699999999999,934.84100000000001,947.38099999999997,911.33699999999999,183.52799999999999,-7.7901300000000004,-74.1768
213665.0,72.357200000000006,2676.4200000000001,2673.2199999999998,2639.1700000000001,32.045099999999998,-8.3865800000000004,-14.898199999999999
213666.0,56.115900000000003,2470.21,2445.8899999999999,2436.75,26.141100000000002,-5.8867700000000003,-5.7035900000000002
213667.0,42.196800000000003,1551.2,1538.5799999999999,1528.1500000000001,20.906300000000002,-0.996251,-4.7114500000000001
213668.0,46.781599999999997,1118.1500000000001,1114.54,1099.1099999999999,24.318000000000001,0.99310500000000002,-5.9048100000000003
213669.0,51.535400000000003,2303.6100000000001,2280.21,2272.5,24.044899999999998,-4.6710599999999998,-4.7735000000000003
213670.0,66.318100000000001,2526.7800000000002,2513.5,2491.02,30.8962,-7.8425599999999998,-11.0946
213671.0,237.625,2734.9400000000001,2788.1199999999999,2692.1300000000001,120.19,-6.2554400000000001,-44.995100000000001
213672.0,293.05000000000001,2133.6399999999999,2188.1300000000001,2098.6700000000001,151.852,-5.9016000000000002,-59.158999999999999
213673.0,162.321,2744.4000000000001,2777.5799999999999,2697.6199999999999,77.468800000000002,-8.5506200000000003,-33.084400000000002
213674.0,114.444,2934.6799999999998,2952.8400000000001,2889.1799999999998,50.511499999999998,-9.3537199999999991,-25.524000000000001
213675.0,90.326899999999995,2825.6799999999998,2834.9899999999998,2783.5900000000001,38.147500000000001,-9.1621699999999997,-20.746200000000002
213676.0,78.718599999999995,2626.5599999999999,2629.1199999999999,2587.3499999999999,33.701000000000001,-8.7340499999999999,-17.4772
213677.0,75.399000000000001,-2555.0900000000001,-2552.73,-2593.1999999999998,32.991700000000002,-8.9973700000000001,-14.478300000000001
213678.0,68.708699999999993,2653.9899999999998,2645.5700000000002,2617.8200000000002,31.395900000000001,-8.08507,-12.820399999999999
213679.0,64.1648,2602.9200000000001,2586.6999999999998,2567.8499999999999,30.290099999999999,-7.4414899999999999,-9.5696100000000008
213680.0,63.340299999999999,2590.5100000000002,2569.7399999999998,2554.9299999999998,29.877400000000002,-7.2577499999999997,-8.5157600000000002
213681.0,60.039700000000003,2534.48,2512.8200000000002,2500.0,28.284600000000001,-6.78592,-7.1923399999999997
213682.0,59.538400000000003,2508.21,2483.8899999999999,2473.5999999999999,27.960799999999999,-6.3748100000000001,-6.5814300000000001
213683.0,57.079099999999997,-2431.9299999999998,-2455.0900000000001,-2465.7800000000002,26.6709,-6.3893599999999999,-5.8572300000000004
213684.0,54.224200000000003,2401.3800000000001,2376.9400000000001,2368.8400000000001,25.253399999999999,-5.3157699999999997,-5.22105
213685.0,49.065800000000003,2202.7600000000002,2180.8299999999999,2173.1700000000001,23.034700000000001,-3.9760599999999999,-4.5012699999999999
213686.0,46.630200000000002,2070.0599999999999,2050.1700000000001,2042.1700000000001,22.121099999999998,-3.2311999999999999,-4.3454800000000002
213687.0,44.597499999999997,1913.9300000000001,1896.3,1887.73,21.438300000000002,-2.4762900000000001,-4.3368599999999997
213688.0,43.015700000000002,1740.4300000000001,1725.4100000000001,1715.9300000000001,21.013200000000001,-1.7025699999999999,-4.4500500000000001
213689.0,42.234900000000003,-1664.98,-1679.53,-1689.3900000000001,20.516999999999999,-1.43008,-4.5648
213690.0,42.565100000000001,1345.29,1336.3199999999999,1324.05,21.545300000000001,-0.15593199999999999,-5.1014999999999997
213691.0,57.749499999999998,846.45399999999995,852.85400000000004,831.12800000000004,30.449000000000002,2.8908299999999998,-7.1785199999999998
213692.0,70.425200000000004,493.96699999999998,508.06299999999999,480.61200000000002,37.036099999999998,4.34579,-8.6162500000000009
213693.0,75.192599999999999,85.722300000000004,99.932500000000005,70.494299999999996,39.492899999999999,4.3470000000000004,-9.4509600000000002
213694.0,62.989199999999997,23.4971,16.992999999999999,71.431700000000006,-8.6235599999999994,9.9216099999999994,-16.303699999999999
213695.0,310.75999999999999,-1616.73,-1589.8599999999999,-1666.1900000000001,162.10900000000001,-12.615399999999999,-65.213200000000001
213696.0,245.041,-2516.8099999999999,-2461.3800000000001,-2563.23,122.83199999999999,-10.700100000000001,-47.040399999999998
213697.0,169.05000000000001,-2684.1500000000001,-2635.9400000000001,-2730.4299999999998,77.758899999999997,-11.5871,-33.354799999999997
213698.0,120.89100000000001,-2759.9699999999998,-2729.1900000000001,-2805.8000000000002,51.206800000000001,-11.324299999999999,-25.204999999999998
213699.0,95.740600000000001,-2863.0999999999999,-2845.6199999999999,-2906.73,39.307200000000002,-10.4503,-20.2605
213700.0,82.812299999999993,-2633.7199999999998,-2624.7399999999998,-2674.25,34.7821,-9.5850299999999997,-16.9831
213701.0,70.9375,-2622.8299999999999,-2626.1700000000001,-2659.3899999999999,32.223100000000002,-8.5768900000000006,-12.529
213702.0,67.904200000000003,-2501.1799999999998,-2509.6199999999999,-2536.9000000000001,31.642700000000001,-8.25,-10.913600000000001
213703.0,65.691999999999993,-2474.4000000000001,-2487.5799999999999,-2509.8299999999999,31.0183,-7.9815300000000002,-9.5854599999999994
213704.0,64.0792,-2550.4699999999998,-2566.6799999999998,-2585.3800000000001,30.580100000000002,-7.52658,-8.4621600000000008
213705.0,61.259500000000003,-2500.0999999999999,-2520.0700000000002,-2535.0500000000002,28.8996,-7.3582400000000003,-7.3488499999999997
213706.0,60.332799999999999,-2450.6900000000001,-2472.52,-2485.1799999999998,28.598500000000001,-6.7940399999999999,-6.7006500000000004
213707.0,55.195599999999999,-2388.9000000000001,-2412.8600000000001,-2422.0500000000002,25.688600000000001,-5.8329500000000003,-5.3618100000000002
213708.0,52.525599999999997,-2307.6799999999998,-2331.3000000000002,-2339.6700000000001,24.359000000000002,-5.2211400000000001,-4.8940599999999996
213709.0,50.002699999999997,-2219.9400000000001,-2242.5799999999999,-2250.5700000000002,23.2258,-4.5336600000000002,-4.5860300000000001
213710.0,47.451500000000003,-2119.25,-2140.3200000000002,-2148.3299999999999,22.163499999999999,-3.79643,-4.3842999999999996
213711.0,45.234699999999997,-1985.78,-2004.8900000000001,-2013.26,21.3505,-3.01586,-4.3198299999999996
213712.0,43.362099999999998,-1832.8,-1849.6900000000001,-1858.6900000000001,20.734200000000001,-2.2282199999999999,-4.3700700000000001
213713.0,41.638199999999998,-1480.04,-1492.29,-1503.1400000000001,20.5015,-0.693218,-4.84964
213714.0,43.348799999999997,-1279.6900000000001,-1289.4100000000001,-1301.6800000000001,21.798999999999999,0.122138,-5.4509400000000001
213715.0,48.1569,-1059.2,-1064.0799999999999,-1079.45,24.895199999999999,1.26169,-6.3219900000000004
213716.0,59.745199999999997,-793.32799999999997,-788.94500000000005,-810.53700000000003,31.478200000000001,3.1224400000000001,-7.6773400000000001
213717.0,72.315399999999997,-449.678,-437.34699999999998,-465.12799999999999,38.030700000000003,4.5935699999999997,-9.0543700000000005
213718.0,614.61400000000003,-1546.47,-1865.1199999999999,-1723.4200000000001,302.03899999999999,-20.404900000000001,-93.721500000000006
213719.0,365.61000000000001,1229.9400000000001,1244.03,1201.02,190.31800000000001,-10.072100000000001,-88.055400000000006
213720.0,77.731800000000007,2882.8499999999999,2882.5,2847.7399999999998,31.3337,-12.516400000000001,-21.651499999999999
213721.0,56.093000000000004,2564.27,2544.0900000000001,2534.75,25.227,-9.35121,-9.8643000000000001
213722.0,45.654000000000003,1591.5899999999999,1580.52,1568.9100000000001,22.2151,-4.4930500000000002,-7.2393599999999996
213723.0,50.972099999999998,1152.98,1150.0799999999999,1132.8,25.987300000000001,-1.6769000000000001,-8.2966499999999996
213724.0,52.225200000000001,2392.25,2372.46,2364.3000000000002,23.804200000000002,-8.2021599999999992,-8.2884200000000003
213725.0,68.853700000000003,2879.4400000000001,2869.7600000000002,2847.0300000000002,29.466100000000001,-11.6655,-17.296399999999998
213726.0,251.36500000000001,2821.75,2876.46,2776.8699999999999,124.31999999999999,-9.8523399999999999,-54.967300000000002
213727.0,308.39299999999997,2146.6500000000001,2201.52,2107.8299999999999,156.315,-8.5122900000000001,-70.561400000000006
213728.0,174.876,3249.5999999999999,3284.9099999999999,3201.8000000000002,81.055000000000007,-12.815799999999999,-41.470700000000001
213729.0,125.181,3056.3099999999999,3076.6100000000001,3010.6199999999999,52.861699999999999,-13.7925,-33.110100000000003
213730.0,99.064999999999998,3016.6100000000001,3028.1399999999999,2975.1500000000001,39.154000000000003,-13.553800000000001,-27.890000000000001
213731.0,85.722399999999993,3057.6599999999999,3062.7199999999998,3019.8499999999999,33.688499999999998,-13.0314,-24.409800000000001
213732.0,80.975200000000001,-2909.0,-2904.2800000000002,-2945.6900000000001,32.518300000000004,-13.082000000000001,-21.052399999999999
213733.0,72.573499999999996,2815.9000000000001,2810.71,2782.5300000000002,30.233899999999998,-12.0587,-19.3307
213734.0,65.590400000000002,2751.73,2739.4400000000001,2720.4499999999998,28.7456,-11.1014,-15.367599999999999
213735.0,63.982300000000002,2710.5500000000002,2693.9000000000001,2679.04,28.355,-10.8588,-13.9367
213736.0,60.157499999999999,2701.3400000000001,2683.9699999999998,2671.0599999999999,26.8733,-10.2822,-12.145
213737.0,59.509,2642.6100000000001,2622.54,2612.1300000000001,26.7987,-9.8555600000000005,-11.1805
213738.0,57.290900000000001,-2550.4400000000001,-2569.3099999999999,-2580.4000000000001,25.795000000000002,-9.8817199999999996,-10.078200000000001
213739.0,54.478200000000001,2483.6700000000001,2463.1500000000001,2454.7399999999998,24.662800000000001,-8.8082899999999995,-9.0580700000000007
213740.0,50.299500000000002,2262.04,2243.3499999999999,2235.0999999999999,23.147500000000001,-7.5551700000000004,-7.74573
213741.0,48.452800000000003,2121.3699999999999,2104.3200000000002,2095.5900000000001,22.575800000000001,-6.8491499999999998,-7.3539700000000003
213742.0,47.018900000000002,1963.71,1948.48,1939.03,22.213100000000001,-6.1103300000000003,-7.1534300000000002
213743.0,45.991700000000002,1786.46,1773.4100000000001,1762.9100000000001,22.075900000000001,-5.3017200000000004,-7.1044400000000003
213744.0,45.515700000000002,-1713.05,-1725.9200000000001,-1736.72,21.753499999999999,-5.0472099999999998,-7.1756200000000003
213745.0,46.413200000000003,1383.24,1375.4200000000001,1361.73,23.0534,-3.38185,-7.5238100000000001
213746.0,62.303199999999997,875.96400000000006,882.56700000000001,858.173,32.241399999999999,1.25718,-9.6751299999999993
213747.0,75.437399999999997,514.78099999999995,528.61300000000006,497.66000000000003,38.884599999999999,3.8538999999999999,-11.385999999999999
213748.0,80.330299999999994,90.836200000000005,104.363,71.358900000000006,41.2254,4.2796000000000003,-12.565
213749.0,63.878100000000003,18.452100000000002,12.4154,64.895600000000002,-11.273,13.666700000000001,-14.8887
213750.0,327.22399999999999,-1802.1400000000001,-1778.3,-1856.01,166.78800000000001,-14.794600000000001,-77.911199999999994
213751.0,259.21199999999999,-2440.1100000000001,-2385.3699999999999,-2489.5500000000002,127.449,-13.8527,-56.973799999999997
213752.0,181.44,-3031.27,-2982.4400000000001,-3079.2800000000002,81.760099999999994,-15.4762,-41.291699999999999
213753.0,131.541,-3104.23,-3072.1799999999998,-3150.9899999999998,53.934199999999997,-15.5436,-32.350299999999997
213754.0,104.398,-2900.0700000000002,-2881.0700000000002,-2943.7399999999998,40.605899999999998,-14.7235,-27.107700000000001
213755.0,89.836100000000002,-2970.52,-2959.5999999999999,-3010.3699999999999,35.034199999999998,-13.774699999999999,-23.640899999999998
213756.0,75.168800000000005,-2736.9699999999998,-2737.48,-2771.4099999999999,31.276700000000002,-12.551399999999999,-18.924399999999999
213757.0,70.912999999999997,-2785.0,-2790.1500000000001,-2817.96,30.3962,-12.116300000000001,-17.061599999999999
213758.0,67.645300000000006,-2758.3200000000002,-2767.8000000000002,-2790.4699999999998,29.6252,-11.737399999999999,-15.3955
213759.0,65.191000000000003,-2637.29,-2649.46,-2668.54,29.175000000000001,-11.1561,-13.889699999999999
213760.0,61.803699999999999,-2633.5,-2649.25,-2664.52,27.573899999999998,-10.9474,-12.3492
213761.0,60.6387,-2619.9299999999998,-2637.4299999999998,-2650.4499999999998,27.491599999999998,-10.307600000000001,-11.3614
213762.0,55.5822,-2476.04,-2495.8899999999999,-2505.54,25.117799999999999,-9.3277699999999992,-9.2586499999999994
213763.0,53.258400000000002,-2407.0999999999999,-2426.8800000000001,-2435.79,24.119299999999999,-8.7372800000000002,-8.4710199999999993
213764.0,51.208599999999997,-2306.0599999999999,-2325.25,-2333.8499999999999,23.325399999999998,-8.0880600000000005,-7.8914400000000002
213765.0,49.198700000000002,-2177.73,-2195.77,-2204.48,22.591699999999999,-7.3933799999999996,-7.4551299999999996
213766.0,47.531100000000002,-2041.97,-2058.5,-2067.6599999999999,22.081,-6.6489000000000003,-7.2028499999999998
213767.0,46.187399999999997,-1887.46,-1902.24,-1912.0899999999999,21.738299999999999,-5.8726200000000004,-7.0965999999999996
213768.0,45.298200000000001,-1524.1300000000001,-1535.1199999999999,-1547.01,21.934899999999999,-4.21692,-7.3567600000000004
213769.0,47.312800000000003,-1322.6400000000001,-1331.48,-1344.97,23.385999999999999,-3.1670099999999999,-7.9226200000000002
213770.0,52.377699999999997,-1097.76,-1102.1700000000001,-1119.1199999999999,26.587800000000001,-1.5163199999999999,-8.8397600000000001
213771.0,64.278899999999993,-824.55499999999995,-820.13099999999997,-844.05799999999999,33.230699999999999,1.2948500000000001,-10.4511
213772.0,77.215599999999995,-469.62700000000001,-457.697,-488.48599999999999,39.801900000000003,3.8246000000000002,-12.1495
213773.0,637.03300000000002,-1701.6600000000001,-2023.8099999999999,-1884.3800000000001,308.25200000000001,-24.552499999999998,-116.393
213774.0,386.33499999999998,1095.1700000000001,1111.23,1061.6500000000001,196.40600000000001,-12.3361,-101.90300000000001
213775.0,87.430599999999998,3318.1399999999999,3319.21,3284.77,31.5655,-17.349599999999999,-29.446400000000001
213776.0,59.068300000000001,2839.8600000000001,2823.02,2814.9000000000001,23.851099999999999,-13.7067,-15.6256
213777.0,50.373600000000003,1773.0699999999999,1763.0,1750.29,23.363,-8.3709199999999999,-9.9810300000000005
213778.0,56.9542,1302.1800000000001,1300.8900000000001,1280.4400000000001,28.258400000000002,-4.5643799999999999,-10.6334
213779.0,55.084299999999999,2606.4400000000001,2589.4899999999998,2582.1900000000001,22.966999999999999,-12.503,-13.145
213780.0,76.101900000000001,3113.4200000000001,3106.0300000000002,3084.27,28.527799999999999,-16.372900000000001,-24.8796
213781.0,267.041,3178.4099999999999,3233.9299999999998,3131.3899999999999,128.87799999999999,-13.5413,-65.8964
213782.0,324.36000000000001,2442.2600000000002,2497.0700000000002,2399.8800000000001,160.49600000000001,-11.3485,-82.510499999999993
213783.0,189.756,3292.2199999999998,3328.8499999999999,3243.5900000000001,85.495599999999996,-17.159800000000001,-50.688600000000001
213784.0,138.601,3546.29,3567.8699999999999,3500.4000000000001,56.232900000000001,-18.537600000000001,-41.355800000000002
213785.0,111.09399999999999,3468.54,3481.0999999999999,3427.3800000000001,41.300699999999999,-18.419599999999999,-35.767499999999998
213786.0,96.552400000000006,3277.7600000000002,3283.9200000000001,3240.9299999999998,34.776600000000002,-17.890699999999999,-32.212800000000001
213787.0,90.2898,-3189.7600000000002,-3184.21,-3225.5500000000002,32.992699999999999,-17.721,-28.488
213788.0,81.071299999999994,3273.2199999999998,3269.8600000000001,3242.3499999999999,29.800699999999999,-16.828499999999998,-27.0687
213789.0,71.616500000000002,3149.23,3139.6900000000001,3121.8400000000001,27.438099999999999,-15.711600000000001,-22.7273
213790.0,68.898799999999994,3092.1300000000001,3078.5700000000002,3065.0300000000002,26.830500000000001,-15.4229,-20.997900000000001
213791.0,64.183099999999996,2990.4499999999998,2976.3699999999999,2964.8000000000002,25.281099999999999,-14.723699999999999,-18.7685
213792.0,62.857100000000003,2919.3200000000002,2902.6599999999999,2893.5300000000002,25.2653,-14.2719,-17.438400000000001
213793.0,60.519100000000002,-2830.0599999999999,-2845.3600000000001,-2855.46,24.460599999999999,-14.3208,-15.9316
213794.0,57.274700000000003,2734.6500000000001,2717.29,2709.9299999999998,23.519600000000001,-13.134499999999999,-14.3782
213795.0,53.383899999999997,2481.4499999999998,2465.1900000000001,2457.5599999999999,22.659199999999998,-11.8393,-12.1442
213796.0,51.891500000000001,2330.0999999999999,2315.0500000000002,2306.6100000000001,22.472100000000001,-11.099500000000001,-11.3019
213797.0,50.866,2159.71,2146.0599999999999,2136.52,22.5106,-10.298500000000001,-10.669499999999999
213798.0,50.272399999999998,1974.25,1962.4200000000001,1951.3699999999999,22.787800000000001,-9.3734199999999994,-10.216699999999999
213799.0,50.002600000000001,-1903.1700000000001,-1914.9300000000001,-1926.1800000000001,22.655799999999999,-9.2302,-10.1288
213800.0,51.605699999999999,1552.0899999999999,1545.3299999999999,1529.75,24.686699999999998,-6.9012900000000004,-9.9668200000000002
213801.0,69.882300000000001,993.61500000000001,1002.96,973.39800000000002,35.372199999999999,-0.47407899999999997,-12.1677
213802.0,84.667900000000003,582.90099999999995,600.35699999999997,562.44299999999998,42.6509,3.3131200000000001,-14.1189
213803.0,89.6858,101.554,118.85599999999999,78.732500000000002,45.000100000000003,4.2390600000000003,-15.2705
213804.0,65.208200000000005,27.717199999999998,24.327100000000002,74.731800000000007,-13.0519,16.780200000000001,-13.103300000000001
213805.0,343.536,-1848.6600000000001,-1827.9200000000001,-1906.54,170.87,-16.911300000000001,-90.531599999999997
213806.0,274.90699999999998,-2877.8499999999999,-2824.1500000000001,-2930.0999999999999,132.31200000000001,-17.0945,-67.722099999999998
213807.0,195.80799999999999,-3165.8200000000002,-3117.4099999999999,-3215.3499999999999,86.562700000000007,-19.439800000000002,-50.111499999999999
213808.0,144.126,-3326.1900000000001,-3293.8800000000001,-3373.6100000000001,57.520499999999998,-19.933599999999998,-40.124299999999998
213809.0,115.762,-3475.8499999999999,-3456.3000000000002,-3519.73,42.948999999999998,-19.326699999999999,-34.5501
213810.0,100.09999999999999,-3266.9400000000001,-3255.5,-3306.54,36.352699999999999,-18.394400000000001,-31.031500000000001
213811.0,83.493300000000005,-3244.27,-3243.4899999999998,-3277.04,31.0749,-17.186900000000001,-26.3827
213812.0,78.182900000000004,-3098.4099999999999,-3101.75,-3128.9299999999998,29.669699999999999,-16.732199999999999,-24.435099999999998
213813.0,73.859499999999997,-3038.52,-3045.6399999999999,-3067.4699999999998,28.508500000000002,-16.3338,-22.610099999999999
213814.0,70.349800000000002,-3075.2399999999998,-3084.54,-3102.6900000000001,27.794499999999999,-15.697800000000001,-20.876899999999999
213815.0,66.156999999999996,-2982.5599999999999,-2995.0799999999999,-3009.29,26.091999999999999,-15.465299999999999,-18.9754
213816.0,64.272300000000001,-2890.2800000000002,-2904.3000000000002,-2916.3099999999999,26.023900000000001,-14.7646,-17.661899999999999
213817.0,58.560099999999998,-2749.2199999999998,-2765.5900000000001,-2774.3400000000001,23.987400000000001,-13.7432,-14.706099999999999
213818.0,56.235599999999998,-2635.1700000000001,-2651.7199999999998,-2659.8400000000001,23.271699999999999,-13.142799999999999,-13.483700000000001
213819.0,54.345500000000001,-2520.3200000000002,-2536.6300000000001,-2544.5900000000001,22.7986,-12.4893,-12.473699999999999
213820.0,52.625300000000003,-2398.2399999999998,-2413.8600000000001,-2422.1199999999999,22.4148,-11.788500000000001,-11.6066
213821.0,51.316299999999998,-2248.2600000000002,-2262.8499999999999,-2271.79,22.265899999999998,-11.0175,-10.9351
213822.0,50.333300000000001,-2082.4099999999999,-2095.6999999999998,-2105.6300000000001,22.281099999999999,-10.1793,-10.426
213823.0,50.0764,-1706.27,-1716.3499999999999,-1729.1500000000001,23.190200000000001,-8.1945200000000007,-9.9723600000000001
213824.0,52.468299999999999,-1489.55,-1497.3800000000001,-1512.53,25.061599999999999,-6.8123800000000001,-10.3278
213825.0,58.211799999999997,-1243.7,-1246.51,-1266.3399999999999,28.8247,-4.5416800000000004,-11.213900000000001
213826.0,71.529899999999998,-937.20500000000004,-929.90300000000002,-958.66200000000003,36.201799999999999,-0.60592599999999996,-13.0807
213827.0,85.943200000000004,-532.64200000000005,-516.98900000000003,-554.21299999999997,43.363,3.1743000000000001,-14.910600000000001
213828.0,658.17200000000003,-1808.5599999999999,-2132.48,-1997.1600000000001,312.61500000000001,-28.860399999999998,-139.16900000000001
213829.0,406.75099999999998,1384.5699999999999,1403.1300000000001,1347.02,201.756,-14.666,-115.806
213830.0,101.515,3749.0500000000002,3749.5599999999999,3716.77,33.072099999999999,-22.930099999999999,-38.241999999999997
213831.0,67.025000000000006,3318.9099999999999,3303.9299999999998,3299.3099999999999,22.077300000000001,-19.153600000000001,-23.1995
213832.0,55.166699999999999,2092.6500000000001,2084.9699999999998,2070.6700000000001,23.908799999999999,-12.155799999999999,-13.0632
213833.0,63.832999999999998,1545.77,1548.27,1522.51,30.677499999999998,-7.0560200000000002,-12.8704
213834.0,61.121899999999997,3071.3600000000001,3056.5,3052.02,21.319400000000002,-17.5549,-19.498000000000001
213835.0,89.039900000000003,3764.04,3756.6300000000001,3737.5799999999999,28.595199999999998,-22.147500000000001,-33.884799999999998
213836.0,284.44900000000001,3297.9200000000001,3354.1999999999998,3248.6500000000001,133.60599999999999,-17.3917,-77.639899999999997
213837.0,341.11399999999998,2462.3000000000002,2516.9899999999998,2416.3200000000002,164.37700000000001,-14.318199999999999,-94.981399999999994
213838.0,207.102,3863.4400000000001,3901.1199999999999,3813.9499999999998,90.605000000000004,-21.787199999999999,-60.844499999999996
213839.0,154.803,3770.0,3792.04,3723.8299999999999,60.654800000000002,-23.610399999999998,-50.3964
213840.0,126.288,3801.1900000000001,3813.54,3760.0599999999999,44.674199999999999,-23.732099999999999,-44.4208
213841.0,111.136,3891.8699999999999,3897.5,3855.5100000000002,37.143500000000003,-23.352399999999999,-40.896900000000002
213842.0,103.33799999999999,-3737.1500000000001,-3732.6199999999999,-3772.5900000000001,34.6614,-22.939900000000002,-36.781700000000001
213843.0,94.650800000000004,3698.3299999999999,3694.5999999999999,3669.3200000000002,30.551500000000001,-22.5274,-36.003300000000003
213844.0,83.732399999999998,3626.4899999999998,3617.25,3602.5500000000002,26.910699999999999,-21.514500000000002,-31.689900000000002
213845.0,80.006799999999998,3564.8200000000002,3552.0900000000001,3542.0100000000002,25.7791,-21.225999999999999,-29.797000000000001
213846.0,74.351699999999994,3527.02,3514.0799999999999,3506.1599999999999,23.8767,-20.438199999999998,-27.2775
213847.0,71.772199999999998,3434.4000000000001,3419.3800000000001,3413.8600000000001,23.555099999999999,-19.8934,-25.563500000000001
213848.0,68.773799999999994,-3321.8699999999999,-3335.3099999999999,-3342.0500000000002,22.733899999999998,-19.930199999999999,-23.601800000000001
213849.0,64.167599999999993,3200.1199999999999,3184.8000000000002,3180.6700000000001,21.730699999999999,-18.392499999999998,-21.378599999999999
213850.0,58.727200000000003,2905.2399999999998,2891.0900000000001,2885.71,21.2498,-16.6814,-17.834199999999999
213851.0,56.738100000000003,2730.3099999999999,2717.3400000000001,2710.46,21.403300000000002,-15.7224,-16.3155
213852.0,55.434600000000003,2538.8800000000001,2527.3099999999999,2518.48,21.878599999999999,-14.684100000000001,-15.0124
213853.0,54.795999999999999,2326.6199999999999,2316.96,2305.5700000000002,22.688099999999999,-13.4788,-13.906599999999999
213854.0,54.668799999999997,-2248.3000000000002,-2257.54,-2269.1700000000001,22.7593,-13.590400000000001,-13.571199999999999
213855.0,57.065800000000003,1837.27,1833.3599999999999,1814.6199999999999,26.047699999999999,-10.185499999999999,-12.5168
213856.0,79.618099999999998,1182.0599999999999,1196.8,1158.98,39.196300000000001,-1.8762300000000001,-14.478999999999999
213857.0,96.796599999999998,695.51400000000001,719.63599999999997,671.25199999999995,47.4711,2.7280600000000002,-16.642800000000001
213858.0,101.989,120.429,144.542,93.742400000000004,49.8887,3.5812900000000001,-17.884
213859.0,64.494699999999995,17.0672,17.4907,62.205399999999997,-9.9204500000000007,21.935500000000001,-11.5802
213860.0,360.11399999999998,-2034.26,-2016.3900000000001,-2096.1399999999999,174.34899999999999,-19.104199999999999,-103.506
213861.0,291.93000000000001,-2821.0799999999999,-2768.4400000000001,-2876.0700000000002,137.23099999999999,-20.438500000000001,-79.128200000000007
213862.0,212.33099999999999,-3562.5500000000002,-3514.5799999999999,-3613.4200000000001,91.881100000000004,-23.645299999999999,-59.865699999999997
213863.0,159.239,-3752.3299999999999,-3720.2600000000002,-3800.3600000000001,62.028300000000002,-24.613700000000001,-48.719499999999996
213864.0,129.761,-3628.3299999999999,-3609.3499999999999,-3672.5799999999999,46.409500000000001,-24.2256,-42.651200000000003
213865.0,113.55200000000001,-3757.5500000000002,-3747.0100000000002,-3797.2600000000002,38.848399999999998,-23.4755,-39.186199999999999
213866.0,96.165999999999997,-3590.8699999999999,-3590.9899999999998,-3622.6500000000001,32.012,-22.545100000000001,-34.845300000000002
213867.0,90.408000000000001,-3650.48,-3654.4000000000001,-3679.21,29.9315,-22.2318,-33.038200000000003
213868.0,85.497799999999998,-3623.0500000000002,-3630.3000000000002,-3649.3899999999999,28.170000000000002,-21.9361,-31.253499999999999
213869.0,81.1601,-3490.2600000000002,-3499.2199999999998,-3514.2800000000002,26.908300000000001,-21.371400000000001,-29.454599999999999
213870.0,76.294899999999998,-3465.29,-3476.8600000000001,-3487.77,24.826899999999998,-21.172499999999999,-27.3721
213871.0,73.328000000000003,-3423.7199999999998,-3436.29,-3444.96,24.3963,-20.447299999999998,-25.787299999999998
213872.0,65.844999999999999,-3212.3499999999999,-3226.5100000000002,-3232.0700000000002,22.194700000000001,-19.235499999999998,-21.891100000000002
213873.0,62.709000000000003,-3107.8099999999999,-3121.9699999999998,-3127.1599999999999,21.5684,-18.484000000000002,-20.0913
213874.0,60.122900000000001,-2972.04,-2985.8800000000001,-2991.3000000000002,21.282,-17.670000000000002,-18.468
213875.0,57.876899999999999,-2810.4000000000001,-2823.5500000000002,-2829.79,21.1828,-16.8003,-16.961300000000001
213876.0,56.189999999999998,-2642.6900000000001,-2654.8299999999999,-2662.3800000000001,21.397300000000001,-15.8466,-15.644500000000001
213877.0,55.019199999999998,-2456.2800000000002,-2467.1300000000001,-2476.4699999999998,21.8628,-14.7973,-14.490500000000001
213878.0,55.023899999999998,-2020.78,-2028.1900000000001,-2042.51,23.942,-12.227499999999999,-12.8216
213879.0,57.940800000000003,-1772.5899999999999,-1777.3499999999999,-1795.4200000000001,26.556000000000001,-10.3323,-12.7265
213880.0,64.975300000000004,-1485.8199999999999,-1484.6500000000001,-1509.4100000000001,31.306000000000001,-7.2655000000000003,-13.389099999999999
213881.0,80.837100000000007,-1122.9000000000001,-1109.9300000000001,-1146.45,39.924999999999997,-2.2045400000000002,-15.3812
213882.0,97.479299999999995,-640.61500000000001,-618.01599999999996,-665.04600000000005,47.973999999999997,2.41553,-17.516300000000001
213883.0,677.23800000000006,-1937.9300000000001,-2261.21,-2132.4400000000001,314.298,-33.521000000000001,-162.75700000000001
213884.0,426.64800000000002,1245.78,1267.29,1204.3599999999999,206.30199999999999,-16.968599999999999,-129.63399999999999
213885.0,119.437,4403.3999999999996,4401.1599999999999,4371.5500000000002,35.999699999999997,-29.197099999999999,-47.859000000000002
213886.0,81.848500000000001,4097.5900000000001,4081.6500000000001,4084.0799999999999,20.2956,-26.056999999999999,-32.686399999999999
213887.0,58.647500000000001,2573.4200000000001,2571.1399999999999,2554.2800000000002,23.279299999999999,-14.898400000000001,-16.530799999999999
213888.0,70.146199999999993,1868.55,1879.0799999999999,1845.8,32.194000000000003,-8.6761900000000001,-15.463200000000001
213889.0,71.973799999999997,3785.8400000000001,3771.9699999999998,3773.27,18.8355,-23.503599999999999,-27.5839
213890.0,107.25700000000001,4318.8400000000001,4308.1999999999998,4294.1199999999999,30.1343,-28.969799999999999,-43.973599999999998
213891.0,302.92700000000002,3676.52,3733.5700000000002,3625.1700000000001,138.29900000000001,-21.311499999999999,-89.818799999999996
213892.0,358.44600000000003,2762.48,2817.2800000000002,2713.0700000000002,167.85499999999999,-17.430599999999998,-107.84999999999999
213893.0,226.17400000000001,3954.6999999999998,3993.04,3904.46,96.286100000000005,-26.4895,-71.451400000000007
213894.0,173.33000000000001,4346.2200000000003,4367.96,4299.7600000000002,66.040700000000001,-28.857900000000001,-60.054600000000001
213895.0,144.19999999999999,4380.6999999999998,4391.6899999999996,4339.4300000000003,49.207099999999997,-29.368500000000001,-53.740699999999997
213896.0,128.91200000000001,4283.7799999999997,4287.2299999999996,4247.4499999999998,40.825200000000002,-29.310300000000002,-50.279200000000003
213897.0,119.679,-4202.71,-4201.0699999999997,-4238.2399999999998,37.619199999999999,-28.674299999999999,-45.779400000000003
213898.0,112.77200000000001,4425.0500000000002,4418.1999999999998,4397.0299999999997,32.780999999999999,-29.0852,-45.883200000000002
213899.0,101.928,4394.2399999999998,4381.6800000000003,4372.8199999999997,27.736499999999999,-28.581600000000002,-41.964700000000001
213900.0,97.745900000000006,4362.5699999999997,4346.9899999999998,4343.3400000000001,25.842600000000001,-28.418900000000001,-40.061300000000003
213901.0,91.635000000000005,4271.8100000000004,4256.2299999999996,4255.29,23.322199999999999,-27.6661,-37.464599999999997
213902.0,87.798000000000002,4195.96,4179.2399999999998,4180.8100000000004,22.211200000000002,-27.0548,-35.480699999999999
213903.0,83.710800000000006,-4080.0599999999999,-4094.98,-4094.7199999999998,21.0169,-26.9817,-33.063800000000001
213904.0,77.096699999999998,3959.48,3944.1999999999998,3946.6500000000001,19.480699999999999,-24.8902,-30.2471
213905.0,67.364800000000002,3604.48,3592.25,3591.5,18.729399999999998,-21.990600000000001,-25.003699999999998
213906.0,63.320700000000002,3386.79,3376.5900000000001,3372.8699999999999,19.066199999999998,-20.360199999999999,-22.506
213907.0,60.322499999999998,3140.79,3132.8499999999999,3125.4400000000001,19.921099999999999,-18.666499999999999,-20.217600000000001
213908.0,58.5899,2870.1900000000001,2864.9899999999998,2853.1300000000001,21.294899999999998,-16.844999999999999,-18.181000000000001
213909.0,58.302599999999998,-2778.0,-2781.8400000000001,-2793.9400000000001,21.419499999999999,-17.2591,-17.525500000000001
213910.0,61.287100000000002,2244.1999999999998,2246.8200000000002,2223.21,26.353100000000001,-12.387700000000001,-15.3826
213911.0,89.390500000000003,1407.7,1432.0899999999999,1383.72,42.143799999999999,-2.6434899999999999,-17.193899999999999
213912.0,108.848,811.02300000000002,845.42399999999998,784.58500000000004,51.340899999999998,2.3382999999999998,-19.4252
213913.0,113.35599999999999,133.523,167.09200000000001,104.624,53.783200000000001,3.0220600000000002,-20.100999999999999
213914.0,66.526799999999994,7.7606999999999999,9.6578800000000005,49.645899999999997,-6.9292400000000001,27.739100000000001,-9.9145599999999998
213915.0,376.851,-2083.1599999999999,-2068.0300000000002,-2149.1399999999999,177.298,-21.341699999999999,-116.56999999999999
213916.0,309.82900000000001,-3271.6199999999999,-3219.8200000000002,-3329.0799999999999,141.892,-23.889500000000002,-91.142099999999999
213917.0,230.34999999999999,-3727.9099999999999,-3680.3600000000001,-3779.79,97.584800000000001,-27.899100000000001,-70.094099999999997
213918.0,176.428,-4035.6999999999998,-4004.29,-4084.1799999999998,67.397400000000005,-29.421800000000001,-57.8596
213919.0,146.16999999999999,-4305.1499999999996,-4287.6000000000004,-4349.7299999999996,50.901600000000002,-29.3889,-51.3947
213920.0,129.751,-4195.6000000000004,-4187.29,-4235.6199999999999,42.512300000000003,-28.9222,-47.9617
213921.0,112.767,-4329.2200000000003,-4332.6700000000001,-4360.6800000000003,34.307400000000001,-28.576699999999999,-44.131500000000003
213922.0,107.21899999999999,-4243.9300000000003,-4251.4300000000003,-4271.7399999999998,31.569299999999998,-28.556899999999999,-42.577199999999998
213923.0,102.414,-4232.04,-4242.8500000000004,-4256.6700000000001,29.1267,-28.535399999999999,-41.002499999999998
213924.0,97.894000000000005,-4303.3500000000004,-4315.7799999999997,-4324.8000000000002,27.096599999999999,-28.235099999999999,-39.332299999999996
213925.0,92.8874,-4232.4300000000003,-4246.9499999999998,-4251.3199999999997,24.407800000000002,-28.176500000000001,-37.263300000000001
213926.0,89.0137,-4147.1700000000001,-4162.0900000000001,-4163.8800000000001,23.149899999999999,-27.546199999999999,-35.528399999999998
213927.0,79.329700000000003,-3978.8000000000002,-3993.3699999999999,-3992.1599999999999,19.9374,-26.0852,-30.892700000000001
213928.0,74.509100000000004,-3831.25,-3844.7600000000002,-3843.6599999999999,18.982199999999999,-24.9803,-28.459800000000001
213929.0,69.962999999999994,-3671.4299999999998,-3683.5300000000002,-3683.5,18.541699999999999,-23.677299999999999,-26.049099999999999
213930.0,65.713700000000003,-3494.1100000000001,-3504.5,-3506.4099999999999,18.5029,-22.229399999999998,-23.646100000000001
213931.0,62.176099999999998,-3279.4299999999998,-3287.8800000000001,-3292.54,18.9801,-20.668900000000001,-21.379100000000001
213932.0,59.536000000000001,-3040.0599999999999,-3046.3200000000002,-3054.3899999999999,19.8977,-19.0245,-19.288499999999999
213933.0,58.491999999999997,-2488.5900000000001,-2489.6399999999999,-2506.4200000000001,23.404,-15.333299999999999,-16.0471
213934.0,62.289200000000001,-2165.6999999999998,-2163.0300000000002,-2185.73,27.043600000000001,-12.9861,-15.4716
213935.0,71.429299999999998,-1795.3800000000001,-1785.54,-1817.3199999999999,33.061500000000002,-9.3464100000000006,-15.9855
213936.0,90.495699999999999,-1337.9100000000001,-1314.71,-1361.1700000000001,43.0214,-3.3732199999999999,-18.112300000000001
213937.0,109.117,-751.98199999999997,-718.86099999999999,-777.37699999999995,51.953099999999999,1.82541,-20.135000000000002
213938.0,693.78399999999999,-2047.97,-2368.3699999999999,-2247.6700000000001,313.45999999999998,-38.460900000000002,-185.81
213939.0,445.83199999999999,1524.74,1549.8900000000001,1479.53,209.84399999999999,-19.349299999999999,-143.441
213940.0,140.143,5022.8900000000003,5015.9200000000001,4991.0200000000004,40.245800000000003,-35.9056,-57.9407
213941.0,103.881,5157.6400000000003,5135.4399999999996,5149.7399999999998,19.476299999999998,-34.682400000000001,-43.4544
213942.0,58.728299999999997,3230.0599999999999,3238.0,3217.6300000000001,20.458500000000001,-14.9437,-20.061599999999999
213943.0,72.455100000000002,2264.46,2287.02,2245.2399999999998,31.217099999999999,-6.3005599999999999,-17.274000000000001
213944.0,89.743099999999998,4872.6000000000004,4856.46,4868.2399999999998,16.201599999999999,-30.945499999999999,-37.346200000000003
213945.0,129.387,5266.0699999999997,5248.8699999999999,5242.1300000000001,33.280700000000003,-36.565600000000003,-54.619799999999998
213946.0,322.06,3808.6399999999999,3866.5100000000002,3755.6300000000001,142.70699999999999,-25.2666,-102.443
213947.0,376.05700000000002,2781.8699999999999,2837.1500000000001,2729.21,170.767,-20.653600000000001,-120.989
213948.0,246.5,4561.0299999999997,4599.96,4510.5,102.10299999999999,-31.189299999999999,-82.730699999999999
213949.0,193.583,4635.6199999999999,4656.6800000000003,4589.1899999999996,72.016800000000003,-34.172699999999999,-70.319699999999997
213950.0,164.15100000000001,4815.0699999999997,4823.8800000000001,4773.7399999999998,54.6464,-35.1736,-63.575699999999998
213951.0,149.06700000000001,5040.0299999999997,5039.9399999999996,5003.5900000000001,45.628700000000002,-35.574800000000003,-60.1494
213952.0,138.52000000000001,-4905.9799999999996,-4908.71,-4941.7200000000003,41.731299999999997,-34.757100000000001,-55.233499999999999
213953.0,134.21000000000001,5090.3400000000001,5077.7399999999998,5062.6199999999999,36.498100000000001,-36.255200000000002,-56.2575
213954.0,124.74299999999999,5228.9399999999996,5208.9200000000001,5208.8400000000001,30.259599999999999,-36.639400000000002,-52.864800000000002
213955.0,120.70999999999999,5255.0600000000004,5231.9300000000003,5238.1099999999997,27.568100000000001,-36.768300000000004,-51.007599999999996
213956.0,115.00700000000001,5288.3199999999997,5264.8199999999997,5274.8400000000001,24.361799999999999,-36.316899999999997,-48.552900000000001
213957.0,110.467,5246.4200000000001,5222.54,5235.6700000000001,22.1325,-35.799399999999999,-46.403100000000002
213958.0,105.16200000000001,-5107.1800000000003,-5129.3199999999997,-5117.1899999999996,20.224599999999999,-35.455800000000004,-43.557099999999998
213959.0,97.385599999999997,5036.25,5016.4399999999996,5030.3999999999996,17.666499999999999,-33.107399999999998,-40.613599999999998
213960.0,81.677099999999996,4636.9499999999998,4625.1700000000001,4633.0500000000002,15.4535,-28.262499999999999,-33.9129
213961.0,73.474100000000007,4357.8599999999997,4351.0,4353.2600000000002,15.452199999999999,-25.109300000000001,-30.299199999999999
213962.0,66.192099999999996,4029.4299999999998,4027.6199999999999,4022.9099999999999,16.2989,-21.722799999999999,-26.675799999999999
213963.0,60.859099999999998,3651.71,3655.0,3642.4299999999998,17.972200000000001,-18.2486,-23.154699999999998
213964.0,59.532200000000003,-3527.29,-3520.8600000000001,-3533.6100000000001,17.752800000000001,-18.771899999999999,-21.751999999999999
213965.0,61.417099999999998,2771.2600000000002,2784.96,2755.4200000000001,24.3918,-11.182700000000001,-17.8538
213966.0,95.440700000000007,1673.3499999999999,1710.6900000000001,1651.46,42.191899999999997,0.63403100000000001,-18.946999999999999
213967.0,115.17400000000001,946.26400000000001,993.06100000000004,921.76599999999996,51.226199999999999,5.3733599999999999,-21.3672
213968.0,118.601,152.14500000000001,197.23500000000001,125.79900000000001,53.444899999999997,4.8136299999999999,-22.4526
213969.0,71.269900000000007,23.621400000000001,23.860700000000001,63.156700000000001,-7.8967400000000003,32.156300000000002,-8.8808299999999996
213970.0,393.62099999999998,-2263.5999999999999,-2250.79,-2333.9499999999998,179.47,-23.7286,-129.87899999999999
213971.0,328.19099999999997,-3221.4899999999998,-3170.2800000000002,-3281.0300000000002,146.16399999999999,-27.370000000000001,-103.529
213972.0,249.49700000000001,-4146.7200000000003,-4099.4399999999996,-4199.0,103.325,-32.153100000000002,-80.992400000000004
213973.0,195.161,-4508.9499999999998,-4478.2799999999997,-4557.29,73.202200000000005,-34.269199999999998,-67.648300000000006
213974.0,164.447,-4537.0200000000004,-4521.3299999999999,-4581.5299999999997,56.145899999999997,-34.692599999999999,-60.687399999999997
213975.0,148.095,-4801.3800000000001,-4796.2200000000003,-4841.54,47.145299999999999,-34.611400000000003,-57.223700000000001
213976.0,132.30099999999999,-4877.8999999999996,-4886.8199999999997,-4909.4099999999999,37.9375,-35.076300000000003,-53.862299999999998
213977.0,127.515,-5048.9200000000001,-5062.8500000000004,-5076.4399999999996,34.674300000000002,-35.497700000000002,-52.615000000000002
213978.0,123.37,-5125.2799999999997,-5143.2399999999998,-5149.1000000000004,31.639800000000001,-35.882300000000001,-51.290100000000002
213979.0,119.29600000000001,-5086.21,-5106.54,-5106.1800000000003,28.831700000000001,-36.033999999999999,-49.787999999999997
213980.0,114.8,-5142.4300000000003,-5164.8999999999996,-5158.9499999999998,25.493200000000002,-36.259999999999998,-47.883499999999998
213981.0,110.627,-5164.6400000000003,-5187.4399999999996,-5177.9399999999996,23.105399999999999,-35.9313,-46.079999999999998
213982.0,99.6952,-5017.5699999999997,-5037.9799999999996,-5024.8500000000004,18.095800000000001,-34.461599999999997,-41.121600000000001
213983.0,93.180300000000003,-4904.3699999999999,-4921.75,-4909.2200000000003,16.208500000000001,-32.978299999999997,-38.255699999999997
213984.0,86.062399999999997,-4728.6000000000004,-4741.96,-4731.6899999999996,14.9582,-30.948899999999998,-35.191099999999999
213985.0,78.411100000000005,-4494.0100000000002,-4502.6300000000001,-4496.2799999999997,14.3673,-28.395800000000001,-31.886099999999999
213986.0,70.804699999999997,-4220.6700000000001,-4224.1499999999996,-4223.2399999999998,14.619199999999999,-25.387599999999999,-28.453499999999998
213987.0,64.062200000000004,-3897.8600000000001,-3896.1900000000001,-3901.8699999999999,15.710800000000001,-22.120699999999999,-24.9665
213988.0,58.253799999999998,-3116.5900000000001,-3106.1300000000001,-3125.8000000000002,20.5627,-15.593299999999999,-19.190899999999999
213989.0,61.915999999999997,-2672.3899999999999,-2657.5,-2685.23,25.0716,-11.988300000000001,-17.691600000000001
213990.0,73.150800000000004,-2178.8400000000001,-2156.0700000000002,-2194.9899999999998,32.152299999999997,-7.2412900000000002,-17.750299999999999
213991.0,95.816100000000006,-1595.1199999999999,-1558.05,-1613.6099999999999,43.035499999999999,-0.48318800000000001,-20.183800000000002
213992.0,115.246,-882.529,-836.11400000000003,-903.47900000000004,51.947800000000001,4.2028600000000003,-22.8565
213993.0,707.06500000000005,-2151.6700000000001,-2466.4200000000001,-2356.2600000000002,309.18200000000002,-43.749200000000002,-208.88
213994.0,463.93099999999998,1380.3099999999999,1409.71,1331.4000000000001,212.422,-21.8139,-156.78200000000001
213995.0,162.30500000000001,5810.4200000000001,5797.5100000000002,5778.5900000000001,45.4343,-42.725200000000001,-68.080600000000004
213996.0,130.47499999999999,6475.3500000000004,6439.6199999999999,6470.6700000000001,20.6309,-44.4422,-53.820500000000003
213997.0,60.110999999999997,4148.1599999999999,4173.4899999999998,4147.8100000000004,15.5908,-11.597200000000001,-24.698599999999999
213998.0,72.457400000000007,2737.5599999999999,2780.3099999999999,2730.0500000000002,25.9846,1.8279000000000001,-18.341799999999999
213999.0,113.607,6248.5600000000004,6222.2399999999998,6250.5699999999997,15.1191,-40.094099999999997,-47.074800000000003
214000.0,153.477,6042.8900000000003,6016.6199999999999,6019.21,37.813099999999999,-44.434199999999997,-65.099199999999996
214001.0,341.524,4188.9499999999998,4247.9499999999998,4134.6700000000001,146.57400000000001,-29.216200000000001,-115.465
214002.0,393.65199999999999,3073.5599999999999,3129.9000000000001,3018.04,173.06200000000001,-24.010200000000001,-134.16
214003.0,267.58600000000001,4671.3299999999999,4711.0799999999999,4621.0699999999997,107.794,-35.807899999999997,-94.504499999999993
214004.0,214.898,5252.7799999999997,5273.2799999999997,5207.0,78.220399999999998,-39.413899999999998,-81.056600000000003
214005.0,185.30199999999999,5461.71,5468.1099999999997,5420.8000000000002,60.587499999999999,-40.953000000000003,-73.748999999999995
214006.0,170.50200000000001,5530.0200000000004,5525.6800000000003,5493.71,51.166200000000003,-41.864699999999999,-70.189899999999994
214007.0,158.74199999999999,-5480.8299999999999,-5488.6599999999999,-5516.3699999999999,46.636200000000002,-40.930599999999998,-64.814099999999996
214008.0,157.33500000000001,5991.4899999999998,5971.3000000000002,5963.8299999999999,41.372599999999998,-43.611800000000002,-66.579899999999995
214009.0,149.983,6271.9700000000003,6241.0900000000001,6252.3100000000004,34.3583,-45.109000000000002,-63.551400000000001
214010.0,146.37299999999999,6387.8699999999999,6353.04,6371.9799999999996,31.014299999999999,-45.6098,-61.607199999999999
214011.0,141.691,6433.46,6396.7399999999998,6421.3100000000004,27.312899999999999,-45.649900000000002,-59.263599999999997
214012.0,136.90600000000001,6476.6700000000001,6439.3800000000001,6468.2600000000002,23.975899999999999,-45.402200000000001,-56.823799999999999
214013.0,130.535,-6341.1000000000004,-6377.1800000000003,-6348.4399999999996,21.262,-44.664900000000003,-53.5642
214014.0,123.01300000000001,6401.5299999999997,6369.2700000000004,6400.3000000000002,17.701799999999999,-42.763100000000001,-50.674599999999998
214015.0,102.53700000000001,6032.2200000000003,6014.0299999999997,6036.7799999999997,13.2301,-36.313499999999998,-43.197099999999999
214016.0,90.0184,5711.5299999999997,5703.4799999999996,5717.5100000000002,12.172000000000001,-31.3279,-39.012
214017.0,77.255099999999999,5286.3599999999997,5289.6099999999997,5292.1400000000003,12.1066,-25.3096,-34.552900000000001
214018.0,66.315700000000007,4761.1199999999999,4775.9399999999996,4764.9300000000003,13.106299999999999,-18.6587,-29.778700000000001
214019.0,62.658099999999997,-4582.5600000000004,-4561.54,-4573.2299999999996,11.2157,-18.637,-26.917899999999999
214020.0,61.040999999999997,3466.8699999999999,3501.7399999999998,3463.0500000000002,19.280899999999999,-4.6287500000000001,-19.857099999999999
214021.0,97.728399999999993,1947.1800000000001,2002.5899999999999,1935.1300000000001,37.171799999999998,9.6735799999999994,-20.3461
214022.0,113.256,1052.3499999999999,1114.24,1038.1900000000001,44.403500000000001,13.861700000000001,-21.823799999999999
214023.0,113.646,167.90700000000001,223.221,150.77600000000001,46.491599999999998,12.8735,-23.332799999999999
214024.0,75.248599999999996,50.888500000000001,46.138800000000003,83.426400000000001,-10.3757,35.649799999999999,-9.8461800000000004
214025.0,410.048,-2308.3899999999999,-2297.4899999999998,-2383.1500000000001,181.041,-26.275400000000001,-142.84899999999999
214026.0,346.73500000000001,-3668.9899999999998,-3617.8899999999999,-3730.1599999999999,149.76900000000001,-30.878599999999999,-116.327
214027.0,269.37,-4322.6400000000003,-4275.2299999999996,-4374.6899999999996,108.84399999999999,-36.342300000000002,-92.433899999999994
214028.0,214.98500000000001,-4821.8000000000002,-4791.5200000000004,-4869.1999999999998,79.147300000000001,-39.079099999999997,-77.983599999999996
214029.0,183.93899999999999,-5265.6199999999999,-5251.6499999999996,-5309.3100000000004,61.766599999999997,-39.9968,-70.415999999999997
214030.0,167.70500000000001,-5317.9899999999998,-5316.2200000000003,-5357.6899999999996,52.3628,-40.337000000000003,-66.754300000000001
214031.0,153.43100000000001,-5760.96,-5776.6199999999999,-5792.3500000000004,42.564,-41.731900000000003,-63.619900000000001
214032.0,149.65600000000001,-5828.6999999999998,-5850.9799999999996,-5856.0299999999997,39.005000000000003,-42.653399999999998,-62.557899999999997
214033.0,146.47800000000001,-5967.6899999999996,-5995.4499999999998,-5991.1000000000004,35.580599999999997,-43.520099999999999,-61.3932
214034.0,143.25999999999999,-6185.4300000000003,-6217.1899999999996,-6204.6599999999999,32.131399999999999,-44.235999999999997,-59.966799999999999
214035.0,139.60599999999999,-6255.2299999999996,-6290.1000000000004,-6270.5299999999997,28.3385,-44.799700000000001,-58.146799999999999
214036.0,135.56299999999999,-6297.1899999999996,-6333.4499999999998,-6308.6300000000001,24.839400000000001,-44.906700000000001,-56.112699999999997
214037.0,124.583,-6327.3400000000001,-6361.3299999999999,-6330.8100000000004,17.9679,-43.765999999999998,-50.848300000000002
214038.0,117.04600000000001,-6233.4200000000001,-6263.0900000000001,-6232.9499999999998,14.8629,-42.127899999999997,-47.6738
214039.0,107.931,-6082.96,-6105.96,-6078.8100000000004,12.289,-39.544899999999998,-44.2072
214040.0,97.114599999999996,-5858.8500000000004,-5872.8400000000001,-5851.54,10.387,-35.867899999999999,-40.400100000000002
214041.0,85.028400000000005,-5529.9899999999998,-5532.9499999999998,-5520.5100000000002,9.4337400000000002,-31.025099999999998,-36.278700000000001
214042.0,72.758300000000006,-5103.0500000000002,-5093.8299999999999,-5092.8000000000002,9.5886600000000008,-25.155100000000001,-31.749199999999998
214043.0,57.083199999999998,-3980.0,-3948.8800000000001,-3973.23,14.404299999999999,-11.594900000000001,-21.828099999999999
214044.0,60.784399999999998,-3313.6599999999999,-3276.4099999999999,-3310.4699999999998,19.934699999999999,-5.36721,-19.472300000000001
214045.0,72.988100000000003,-2602.3499999999999,-2559.1300000000001,-2603.7600000000002,27.3081,0.59721400000000002,-19.650600000000001
214046.0,97.339600000000004,-1828.74,-1772.3,-1834.4400000000001,37.9544,8.5740599999999993,-21.552499999999998
214047.0,113.699,-954.42499999999995,-894.05999999999995,-963.36800000000005,45.981000000000002,12.062200000000001,-25.0627
214048.0,716.60599999999999,-2257.29,-2563.7600000000002,-2465.8000000000002,301.76900000000001,-49.310099999999998,-230.607
214049.0,480.57799999999997,1644.0699999999999,1678.4000000000001,1591.55,213.827,-24.425599999999999,-169.56800000000001
214050.0,184.32499999999999,6491.6300000000001,6472.6199999999999,6460.4200000000001,51.006300000000003,-49.2254,-77.8018
214051.0,156.75899999999999,7848.6700000000001,7794.21,7844.3400000000001,23.866199999999999,-53.670499999999997,-61.8461
214052.0,66.994799999999998,5422.3000000000002,5463.6199999999999,5431.6300000000001,13.456799999999999,-6.9115700000000002,-28.242000000000001
214053.0,85.555599999999998,3338.1599999999999,3408.9899999999998,3343.3699999999999,20.058599999999998,12.8238,-17.742899999999999
214054.0,137.54499999999999,7788.6300000000001,7743.1199999999999,7791.4200000000001,16.811,-49.098799999999997,-53.643799999999999
214055.0,177.322,7096.8299999999999,7060.5799999999999,7073.5799999999999,43.142200000000003,-51.948999999999998,-74.725099999999998
214056.0,360.92399999999998,4312.6899999999996,4373.3100000000004,4257.7700000000004,149.786,-33.125399999999999,-128.642
214057.0,410.90800000000002,3080.3800000000001,3138.3699999999999,3022.3899999999999,174.696,-27.437799999999999,-147.131
214058.0,288.88600000000002,5278.9200000000001,5320.1000000000004,5229.71,113.00700000000001,-40.251100000000001,-106.67700000000001
214059.0,236.52199999999999,5557.1099999999997,5577.6400000000003,5512.8299999999999,84.249499999999998,-44.4071,-92.0899
214060.0,206.649,5925.4700000000003,5929.9099999999999,5885.8500000000004,66.576800000000006,-46.453400000000002,-83.997500000000002
214061.0,191.96199999999999,6330.3999999999996,6322.0299999999997,6295.0200000000004,56.908999999999999,-47.865499999999997,-80.071700000000007
214062.0,179.00399999999999,-6235.25,-6247.9099999999999,-6269.6199999999999,51.794499999999999,-46.865200000000002,-74.160300000000007
214063.0,180.24799999999999,6739.0100000000002,6710.7299999999996,6711.8299999999999,46.832299999999996,-50.639099999999999,-76.260000000000005
214064.0,175.02600000000001,7243.2200000000003,7200.04,7223.8999999999996,39.517099999999999,-53.2134,-73.145399999999995
214065.0,171.70599999999999,7451.7799999999997,7403.2299999999996,7436.3999999999996,35.743200000000002,-54.015599999999999,-70.830500000000001
214066.0,168.178,7661.0100000000002,7608.3000000000002,7649.1499999999996,31.8094,-54.538699999999999,-68.388199999999998
214067.0,162.94999999999999,7785.0900000000001,7730.5600000000004,7777.1999999999998,27.593800000000002,-54.466000000000001,-65.227599999999995
214068.0,155.72800000000001,-7632.4099999999999,-7686.4300000000003,-7638.8000000000002,24.225100000000001,-53.319499999999998,-61.501100000000001
214069.0,148.43299999999999,7856.4700000000003,7804.8500000000004,7855.71,20.144200000000001,-51.988399999999999,-57.966099999999997
214070.0,123.88,7599.4700000000003,7563.79,7605.5900000000001,14.1233,-44.712400000000002,-49.061300000000003
214071.0,107.429,7296.54,7274.71,7305.54,12.260400000000001,-38.5169,-44.2911
214072.0,89.258899999999997,6848.1000000000004,6844.0,6859.0500000000002,11.366,-30.275700000000001,-39.361800000000002
214073.0,72.919799999999995,6228.21,6244.9700000000003,6239.6300000000001,11.4368,-19.984100000000002,-34.189100000000003
214074.0,64.658000000000001,-5986.6499999999996,-5960.96,-5967.0600000000004,5.6644300000000003,-18.103000000000002,-29.2148
214075.0,74.048500000000004,4415.9499999999998,4479.3800000000001,4424.79,14.585900000000001,5.2741600000000002,-20.1736
214076.0,107.001,2294.6199999999999,2372.29,2294.1799999999998,30.6905,20.447500000000002,-20.827200000000001
214077.0,114.47499999999999,1209.24,1288.2,1207.3,34.609099999999998,23.8033,-21.756900000000002
214078.0,108.727,230.393,298.245,227.233,35.739800000000002,22.022300000000001,-23.848500000000001
214079.0,75.7697,51.034599999999998,35.673400000000001,70.370900000000006,-13.510300000000001,36.120199999999997,-11.1441
214080.0,425.87,-2476.46,-2466.9699999999998,-2555.7199999999998,181.816,-29.009799999999998,-155.50399999999999
214081.0,365.04500000000002,-3610.5799999999999,-3559.1599999999999,-3672.9000000000001,152.66300000000001,-34.335700000000003,-129.19
214082.0,289.524,-4738.9200000000001,-4690.75,-4789.9399999999996,113.855,-40.412399999999998,-104.32899999999999
214083.0,235.298,-5303.9899999999998,-5273.3999999999996,-5349.4799999999996,84.856399999999994,-43.716999999999999,-88.757900000000006
214084.0,203.84200000000001,-5520.3599999999997,-5507.4499999999998,-5562.1300000000001,67.362499999999997,-45.109699999999997,-80.379800000000003
214085.0,187.535,-5960.1499999999996,-5961.25,-5998.3199999999997,57.686999999999998,-45.857500000000002,-76.291600000000003
214086.0,174.488,-6378.3000000000002,-6400.7700000000004,-6408.7700000000004,47.646299999999997,-48.116199999999999,-72.895700000000005
214087.0,171.714,-6722.8100000000004,-6753.8800000000001,-6749.3299999999999,44.000599999999999,-49.523400000000002,-71.822599999999994
214088.0,169.488,-6975.0299999999997,-7013.4700000000003,-6997.6599999999999,40.430500000000002,-50.836599999999997,-70.592699999999994
214089.0,167.15100000000001,-7112.1700000000001,-7156.8199999999997,-7130.5699999999997,36.5824,-52.093400000000003,-68.974400000000003
214090.0,164.304,-7343.25,-7392.5600000000004,-7357.6899999999996,32.597200000000001,-52.928100000000001,-67.021699999999996
214091.0,160.34800000000001,-7532.0500000000002,-7584.6300000000001,-7542.4799999999996,28.2089,-53.417200000000001,-64.391199999999998
214092.0,149.262,-7685.5600000000004,-7738.6199999999999,-7687.9700000000003,20.073599999999999,-52.473199999999999,-58.069000000000003
214093.0,140.75800000000001,-7691.1000000000004,-7740.5200000000004,-7689.4300000000003,16.093699999999998,-50.715800000000002,-54.133000000000003
214094.0,129.791,-7599.21,-7641.6800000000003,-7593.4200000000001,12.5017,-47.7517,-49.841999999999999
214095.0,115.92,-7397.0600000000004,-7428.7200000000003,-7387.1999999999998,9.4732199999999995,-43.271700000000003,-45.238799999999998
214096.0,99.155699999999996,-7082.9700000000003,-7099.54,-7069.2299999999996,7.1873300000000002,-36.959699999999998,-40.364600000000003
214097.0,80.693299999999994,-6620.04,-6617.2700000000004,-6602.9700000000003,5.8332699999999997,-28.578700000000001,-35.153100000000002
214098.0,61.430199999999999,-5167.0799999999999,-5113.6000000000004,-5145.9899999999998,7.5373799999999997,-4.6132,-21.308399999999999
214099.0,74.152699999999996,-4131.4700000000003,-4063.9699999999998,-4112.9799999999996,14.8468,5.12561,-19.218399999999999
214100.0,85.870199999999997,-3070.3800000000001,-3000.9699999999998,-3058.0900000000001,23.077200000000001,11.230499999999999,-20.671700000000001
214101.0,106.878,-2066.2800000000002,-1987.0799999999999,-2058.9899999999998,31.682400000000001,19.430099999999999,-22.589300000000001
214102.0,115.20999999999999,-1001.1900000000001,-925.346,-997.77599999999995,37.778500000000001,21.3826,-26.553799999999999
214103.0,721.72799999999995,-2324.21,-2619.2399999999998,-2535.8899999999999,290.43799999999999,-55.326999999999998,-251.161
214104.0,495.28199999999998,1485.7,1525.49,1429.73,214.03200000000001,-27.173400000000001,-181.40000000000001
214105.0,204.56399999999999,7263.1999999999998,7239.1700000000001,7233.79,56.301299999999998,-54.963999999999999,-86.675899999999999
214106.0,177.90100000000001,9123.1800000000003,9050.7700000000004,9118.1000000000004,28.434100000000001,-60.673999999999999,-66.528700000000001
214107.0,62.537999999999997,6606.5200000000004,6644.1800000000003,6608.5900000000001,17.934899999999999,-2.7703700000000002,-22.9373
214108.0,104.961,3988.2199999999998,4073.96,3985.9000000000001,20.366,24.694299999999998,-11.363099999999999
214109.0,154.27099999999999,9128.7900000000009,9063.3199999999997,9128.1100000000006,20.6236,-54.934899999999999,-55.460000000000001
214110.0,198.595,7847.5200000000004,7802.2299999999996,7825.6400000000003,48.526800000000001,-58.445300000000003,-82.842799999999997
214111.0,379.91699999999997,4673.2299999999996,4736.1000000000004,4618.25,152.20599999999999,-36.944899999999997,-141.78700000000001
214112.0,427.50099999999998,3350.4400000000001,3410.73,3290.5300000000002,175.71799999999999,-30.912700000000001,-159.60599999999999
214113.0,309.85899999999998,5374.3299999999999,5417.75,5327.0500000000002,117.54300000000001,-44.407200000000003,-118.988
214114.0,257.72899999999998,6163.1599999999999,6184.75,6121.5,89.732399999999998,-48.986699999999999,-103.22799999999999
214115.0,227.221,6562.3699999999999,6565.9799999999996,6525.2399999999998,72.131900000000002,-51.431199999999997,-94.090800000000002
214116.0,212.126,6809.1599999999999,6797.8500000000004,6775.8999999999996,62.300800000000002,-53.219499999999996,-89.439700000000002
214117.0,197.893,-6800.0,-6816.2399999999998,-6831.75,56.6205,-52.199399999999997,-82.892799999999994
214118.0,200.959,7618.8999999999996,7583.5,7593.25,52.1462,-56.777900000000002,-84.760300000000001
214119.0,197.21600000000001,8255.4400000000005,8200.9099999999999,8237.2600000000002,44.941299999999998,-60.170099999999998,-80.954400000000007
214120.0,193.74799999999999,8550.3099999999995,8488.9799999999996,8535.9699999999993,40.978900000000003,-61.081299999999999,-77.933400000000006
214121.0,190.94999999999999,8769.0699999999997,8701.3199999999997,8757.7299999999996,37.084499999999998,-61.871600000000001,-75.057900000000004
214122.0,184.614,8974.8299999999999,8903.9400000000005,8967.1299999999992,32.288499999999999,-61.6693,-70.727000000000004
214123.0,176.66300000000001,-8823.5,-8894.4400000000005,-8829.1700000000001,28.435400000000001,-60.174500000000002,-66.481800000000007
214124.0,167.733,9178.7399999999998,9108.0400000000009,9176.1299999999992,24.266100000000002,-58.532800000000002,-61.287199999999999
214125.0,136.89099999999999,8980.7700000000004,8924.7700000000004,8981.4200000000001,17.7575,-49.5608,-49.163899999999998
214126.0,115.401,8680.1299999999992,8638.4099999999999,8681.4400000000005,15.958500000000001,-42.083799999999997,-42.597499999999997
214127.0,90.512500000000003,8205.9300000000003,8183.9399999999996,8207.4099999999999,15.354699999999999,-32.125,-35.920000000000002
214128.0,66.848100000000002,7528.9300000000003,7532.25,7530.4799999999996,15.867900000000001,-19.447500000000002,-29.271100000000001
214129.0,49.5334,-7234.3599999999997,-7222.8299999999999,-7224.6899999999996,7.6256399999999998,-15.4953,-21.938300000000002
214130.0,84.000500000000002,5376.5100000000002,5447.6400000000003,5378.2600000000002,17.3307,13.979799999999999,-14.5053
214131.0,121.31100000000001,2643.3899999999999,2733.9299999999998,2637.5900000000001,28.148399999999999,31.357600000000001,-14.536
214132.0,120.056,1372.6300000000001,1455.0699999999999,1363.6900000000001,30.421399999999998,32.467300000000002,-16.940000000000001
214133.0,111.09699999999999,298.75299999999999,367.75700000000001,288.17000000000002,30.549499999999998,31.098700000000001,-18.596299999999999
214134.0,66.733699999999999,54.881300000000003,22.4053,64.4482,-16.143899999999999,25.5777,-9.1640499999999996
214135.0,440.64600000000002,-2506.77,-2498.27,-2590.3899999999999,182.00200000000001,-31.8765,-167.30199999999999
214136.0,382.80900000000003,-4039.1700000000001,-3986.9000000000001,-4102.1999999999998,154.70599999999999,-37.722799999999999,-141.97800000000001
214137.0,309.47899999999998,-4899.75,-4850.1499999999996,-4948.9899999999998,118.19799999999999,-44.256399999999999,-116.422
214138.0,255.5,-5606.6099999999997,-5574.7600000000002,-5649.04,90.0505,-48.047899999999998,-99.768799999999999
214139.0,223.375,-6241.5500000000002,-6228.5500000000002,-6280.0600000000004,72.516199999999998,-49.843600000000002,-90.396500000000003
214140.0,206.505,-6469.71,-6472.4499999999998,-6504.9200000000001,62.621499999999997,-50.8949,-85.554599999999994
214141.0,193.73599999999999,-7245.9899999999998,-7274.04,-7274.1400000000003,52.492400000000004,-53.7744,-81.245599999999996
214142.0,191.596,-7482.0100000000002,-7520.7200000000003,-7506.4499999999998,48.949800000000003,-55.535400000000003,-79.8309
214143.0,190.023,-7791.7200000000003,-7839.6999999999998,-7812.4099999999999,45.454900000000002,-57.173099999999998,-78.244500000000002
214144.0,188.29599999999999,-8180.8800000000001,-8237.3199999999997,-8197.4699999999993,41.446800000000003,-58.8354,-76.140500000000003
214145.0,185.833,-8422.0699999999997,-8484.7700000000004,-8435.0,37.535400000000003,-59.752699999999997,-73.730199999999996
214146.0,181.488,-8626.6200000000008,-8694.5,-8635.7000000000007,32.565300000000001,-60.398000000000003,-70.093800000000002
214147.0,168.84800000000001,-8948.6299999999992,-9019.8799999999992,-8951.0200000000004,23.790199999999999,-59.0122,-61.783799999999999
214148.0,158.416,-8972.8199999999997,-9041.6000000000004,-8972.2299999999996,19.389099999999999,-56.703499999999998,-56.421599999999998
214149.0,144.482,-8914.25,-8976.9599999999991,-8911.1100000000006,15.4277,-52.8919,-50.427799999999998
214150.0,126.351,-8746.9500000000007,-8799.3400000000001,-8741.75,12.1721,-47.229500000000002,-43.908099999999997
214151.0,103.43300000000001,-8425.1100000000006,-8462.1900000000005,-8418.3199999999997,9.7787299999999995,-39.347900000000003,-36.941499999999998
214152.0,76.106200000000001,-7932.5,-7948.5200000000004,-7924.3400000000001,8.3411600000000004,-28.839500000000001,-29.632899999999999
214153.0,53.074399999999997,-6278.0299999999997,-6227.3999999999996,-6265.8599999999997,7.59335,2.0541399999999999,-13.362399999999999
214154.0,83.371700000000004,-4978.5100000000002,-4902.3800000000001,-4970.0,13.9556,16.099900000000002,-11.095599999999999
214155.0,103.11499999999999,-3577.5100000000002,-3494.1599999999999,-3574.9299999999998,23.049700000000001,23.922000000000001,-13.9473
214156.0,120.19199999999999,-2266.5100000000002,-2178.9200000000001,-2268.2399999999998,31.2438,29.619599999999998,-18.792200000000001
214157.0,119.45099999999999,-1036.47,-959.072,-1043.55,34.322200000000002,30.360499999999998,-21.450099999999999
214158.0,722.05700000000002,-2409.2399999999998,-2689.7199999999998,-2622.5500000000002,275.68400000000003,-61.738100000000003,-269.31200000000001
214159.0,507.45400000000001,1725.99,1771.6500000000001,1666.77,212.792,-30.052199999999999,-192.06100000000001
214160.0,221.60499999999999,7857.4099999999999,7830.4399999999996,7831.3699999999999,60.688899999999997,-59.537700000000001,-94.379099999999994
214161.0,191.25899999999999,10110.200000000001,10025.799999999999,10105.5,33.347700000000003,-64.776799999999994,-68.087699999999998
214162.0,57.756900000000002,7051.2399999999998,7079.5500000000002,7038.6499999999996,22.323899999999998,0.52452900000000002,-13.2073
214163.0,115.137,4313.3000000000002,4395.1700000000001,4295.3699999999999,25.156400000000001,30.672000000000001,-3.78715
214164.0,161.125,10129.6,10053.0,10126.6,25.179200000000002,-56.850900000000003,-53.909999999999997
214165.0,215.279,8748.1800000000003,8696.4799999999996,8729.1499999999996,53.099400000000003,-63.349200000000003,-89.061199999999999
214166.0,398.08600000000001,4765.8299999999999,4831.5500000000002,4711.5,153.91300000000001,-40.591999999999999,-154.50899999999999
214167.0,442.964,3329.3600000000001,3392.3699999999999,3267.9400000000001,176.154,-34.333500000000001,-171.24700000000001
214168.0,330.06200000000001,5949.4700000000003,5996.0500000000002,5905.0500000000002,121.252,-48.181399999999996,-131.221
214169.0,277.91800000000001,6432.3999999999996,6456.3599999999997,6394.5799999999999,94.410499999999999,-52.989899999999999,-114.25700000000001
214170.0,246.19999999999999,6981.7299999999996,6986.1499999999996,6948.5600000000004,76.8703,-55.6511,-103.81100000000001
214171.0,229.92599999999999,7547.25,7534.9099999999999,7517.6999999999998,66.814499999999995,-57.627000000000002,-98.064400000000006
214172.0,214.22499999999999,-7487.9700000000003,-7505.7200000000003,-7515.3199999999997,60.547800000000002,-56.607300000000002,-90.743700000000004
214173.0,217.72399999999999,8248.3999999999996,8208.25,8225.8700000000008,56.567700000000002,-61.5349,-91.703999999999994
214174.0,214.244,9035.6399999999994,8972.7900000000009,9020.0699999999997,49.7455,-65.314599999999999,-86.534400000000005
214175.0,210.125,9382.2399999999998,9311.5799999999999,9370.2700000000004,45.833199999999998,-66.1267,-82.544300000000007
214176.0,207.46199999999999,9719.1800000000003,9640.6000000000004,9709.7399999999998,42.182899999999997,-66.940299999999993,-79.028800000000004
214177.0,199.37299999999999,9955.6499999999996,9873.3099999999995,9949.3500000000004,37.131399999999999,-66.318200000000004,-73.299599999999998
214178.0,190.75800000000001,-9780.0400000000009,-9862.6599999999999,-9783.8099999999995,32.983899999999998,-64.572400000000002,-68.525899999999993
214179.0,178.285,10177.5,10095.0,10174.200000000001,28.974599999999999,-61.730800000000002,-61.340000000000003
214180.0,139.06299999999999,9911.8899999999994,9846.0400000000009,9908.1299999999992,22.171700000000001,-49.827100000000002,-45.871000000000002
214181.0,112.164,9524.75,9474.8199999999997,9518.9400000000005,20.366700000000002,-40.3949,-37.438299999999998
214182.0,82.568299999999994,8931.8099999999995,8902.9300000000003,8922.9799999999996,19.897400000000001,-28.6694,-28.909300000000002
214183.0,57.722099999999998,8108.5699999999997,8105.46,8096.4399999999996,20.717099999999999,-14.8902,-20.494399999999999
214184.0,37.0351,-7755.3100000000004,-7750.9399999999996,-7760.7600000000002,13.341699999999999,-10.6799,-11.870900000000001
214185.0,86.162599999999998,5774.71,5834.7600000000002,5759.8500000000004,23.7089,16.892399999999999,-7.3431600000000001
214186.0,129.84200000000001,2808.4000000000001,2895.04,2786.1500000000001,28.995000000000001,37.7012,-6.9235100000000003
214187.0,125.58799999999999,1443.73,1517.3699999999999,1415.97,31.048999999999999,37.267600000000002,-12.6061
214188.0,115.81999999999999,314.29500000000002,379.31400000000002,289.428,28.5839,36.155900000000003,-13.8896
214189.0,66.678899999999999,10.282299999999999,-48.004899999999999,6.4746199999999998,-18.478400000000001,6.1177700000000002,-6.3108700000000004
214190.0,453.90100000000001,-2651.3400000000001,-2643.3499999999999,-2739.1700000000001,181.36699999999999,-34.856299999999997,-178.15700000000001
214191.0,399.56200000000001,-3954.8899999999999,-3901.46,-4018.23,156.00200000000001,-40.936399999999999,-154.22999999999999
214192.0,328.79199999999997,-5287.3699999999999,-5235.71,-5334.0699999999997,121.771,-47.778700000000001,-128.46299999999999
214193.0,275.07499999999999,-6059.0200000000004,-6024.8999999999996,-6097.29,94.513999999999996,-51.931800000000003,-110.818
214194.0,241.869,-6462.1700000000001,-6447.6499999999996,-6495.9499999999998,76.9375,-54.0045,-100.25
214195.0,223.73500000000001,-7065.3999999999996,-7067.9899999999998,-7095.9399999999996,66.731300000000005,-55.206099999999999,-94.330399999999997
214196.0,209.64599999999999,-7770.4700000000003,-7801.79,-7794.5299999999997,56.442799999999998,-58.2883,-88.309200000000004
214197.0,207.47800000000001,-8251.4599999999991,-8295.1599999999999,-8272.0400000000009,53.058100000000003,-60.192,-86.2136
214198.0,205.98599999999999,-8639.5599999999995,-8694.1700000000001,-8656.6700000000001,49.801499999999997,-61.945300000000003,-83.939800000000005
214199.0,204.381,-8910.8099999999995,-8975.7399999999998,-8924.0100000000002,45.895299999999999,-63.800600000000003,-81.051000000000002
214200.0,201.80699999999999,-9271.9099999999999,-9344.2399999999998,-9281.8999999999996,42.266599999999997,-64.618799999999993,-77.954999999999998
214201.0,196.54400000000001,-9578.0300000000007,-9656.7700000000004,-9584.3999999999996,37.045099999999998,-65.181899999999999,-73.092500000000001
214202.0,180.768,-9911.0799999999999,-9994.2800000000007,-9912.4200000000001,28.128599999999999,-62.7682,-62.373100000000001
214203.0,167.41,-9961.5799999999999,-10042.1,-9961.1800000000003,23.552600000000002,-59.520299999999999,-55.435000000000002
214204.0,149.44399999999999,-9873.8600000000006,-9947.4099999999999,-9872.5799999999999,19.4497,-54.3904,-47.669699999999999
214205.0,126.23999999999999,-9627.3700000000008,-9689.1700000000001,-9626.2800000000007,16.187200000000001,-47.070999999999998,-39.222200000000001
214206.0,97.430999999999997,-9214.6900000000005,-9259.4400000000005,-9215.0200000000004,14.069000000000001,-37.271000000000001,-30.239899999999999
214207.0,64.613100000000003,-8596.1599999999999,-8618.6599999999999,-8598.8400000000001,13.1846,-25.054300000000001,-20.952400000000001
214208.0,48.168300000000002,-6689.8500000000004,-6653.8400000000001,-6696.6999999999998,13.880599999999999,5.1161300000000001,-4.95723
214209.0,84.671400000000006,-5393.8100000000004,-5330.2799999999997,-5405.8599999999997,17.1783,21.081900000000001,-1.1538999999999999
214210.0,112.035,-3900.4400000000001,-3823.73,-3919.0100000000002,24.460899999999999,31.7712,-5.0076799999999997
214211.0,126.074,-2409.1700000000001,-2332.8099999999999,-2434.1100000000001,32.148400000000002,36.027200000000001,-13.435499999999999
214212.0,123.999,-1125.4300000000001,-1055.78,-1152.6400000000001,32.322000000000003,36.701700000000002,-15.4232
214213.0,717.18399999999997,-2422.25,-2684.4200000000001,-2635.4499999999998,257.07499999999999,-68.764899999999997,-284.964
214214.0,516.43200000000002,1542.4200000000001,1594.2,1480.3099999999999,209.94499999999999,-33.001199999999997,-201.203
214215.0,234.614,8488.0100000000002,8460.9799999999996,8467.2299999999996,63.641300000000001,-62.674900000000001,-100.843
214216.0,197.23400000000001,10780.299999999999,10691.799999999999,10778.5,37.6633,-66.429400000000001,-67.643199999999993
214217.0,67.4482,7019.8000000000002,7056.79,7000.1099999999997,24.321200000000001,2.7902200000000001,-9.4249700000000001
214218.0,121.07599999999999,4136.79,4220.8100000000004,4111.8699999999999,27.890799999999999,29.150500000000001,-0.67965399999999998
214219.0,161.864,10691.6,10614.0,10690.200000000001,29.487100000000002,-56.867400000000004,-51.588299999999997
214220.0,226.077,9249.9200000000001,9195.6200000000008,9235.5900000000001,56.117699999999999,-66.290999999999997,-93.280500000000004
214221.0,414.976,5080.0500000000002,5149.0900000000001,5026.9399999999996,154.91200000000001,-43.990400000000001,-166.48500000000001
214222.0,456.70999999999998,3559.1199999999999,3625.0599999999999,3496.6700000000001,175.976,-37.606999999999999,-181.72499999999999
214223.0,349.08999999999997,5994.8599999999997,6045.4200000000001,5954.1700000000001,124.182,-51.463500000000003,-143.04400000000001
214224.0,296.71600000000001,6980.6099999999997,7008.3100000000004,6947.8999999999996,98.179500000000004,-56.2958,-124.995
214225.0,263.17399999999998,7544.8199999999997,7551.96,7517.1999999999998,80.5518,-58.957299999999996,-113.072
214226.0,244.75299999999999,7925.0200000000004,7914.04,7900.9499999999998,70.083399999999997,-60.8658,-105.86
214227.0,227.32400000000001,-7943.5,-7960.1899999999996,-7964.54,63.1631,-59.865299999999998,-97.615399999999994
214228.0,229.44399999999999,8937.2900000000009,8895.6800000000003,8919.7099999999991,59.444499999999998,-64.581800000000001,-96.992400000000004
214229.0,224.68199999999999,9734.5799999999999,9667.9200000000001,9723.4899999999998,53.033200000000001,-68.260599999999997,-89.886499999999998
214230.0,219.50800000000001,10099.6,10024.700000000001,10091.799999999999,49.366,-68.823400000000007,-84.7898
214231.0,216.56299999999999,10375.9,10292.4,10370.299999999999,46.175400000000003,-69.519300000000001,-80.562799999999996
214232.0,206.75,10619.700000000001,10532.700000000001,10616.9,41.219099999999997,-68.459699999999998,-73.593100000000007
214233.0,197.72300000000001,-10440.799999999999,-10528.0,-10440.700000000001,37.012799999999999,-66.616399999999999,-68.464100000000002
214234.0,181.83500000000001,10811.6,10726.200000000001,10810.6,33.308100000000003,-62.641399999999997,-59.8782
214235.0,136.73400000000001,10418.299999999999,10354.200000000001,10415.5,26.393799999999999,-48.839799999999997,-42.857599999999998
214236.0,107.15600000000001,9930.0599999999995,9885.2600000000002,9924.5499999999993,24.377400000000002,-38.402299999999997,-34.082500000000003
214237.0,76.960800000000006,9205.5499999999993,9185.2800000000007,9196.1900000000005,23.4803,-25.821100000000001,-25.560600000000001
214238.0,57.981299999999997,8233.7900000000009,8242.1200000000008,8219.7199999999993,23.563400000000001,-11.6165,-17.384499999999999
214239.0,41.023299999999999,-7847.3299999999999,-7830.8699999999999,-7855.7200000000003,16.502199999999998,-7.6837099999999996,-8.3507999999999996
214240.0,97.370699999999999,5633.5299999999997,5698.1099999999997,5609.1800000000003,26.961500000000001,17.507100000000001,-3.8603200000000002
214241.0,127.72,2685.1999999999998,2769.1999999999998,2658.4099999999999,30.766999999999999,33.223300000000002,-6.7267700000000001
214242.0,120.92,1395.3800000000001,1466.26,1367.3499999999999,32.320900000000002,31.139299999999999,-16.1374
214243.0,109.42400000000001,276.745,338.661,248.95599999999999,27.754300000000001,28.0838,-17.982199999999999
214244.0,78.985600000000005,-46.409399999999998,-119.38500000000001,-48.808700000000002,-15.703099999999999,-5.1035599999999999,-9.3938500000000005
214245.0,464.976,-2651.3099999999999,-2643.4499999999998,-2742.9400000000001,179.959,-37.835799999999999,-187.59399999999999
214246.0,414.79199999999997,-4342.8999999999996,-4288.0799999999999,-4406.2200000000003,156.488,-43.907600000000002,-165.64599999999999
214247.0,346.98700000000002,-5403.75,-5349.6599999999999,-5447.3800000000001,124.614,-50.853900000000003,-140.07900000000001
214248.0,293.59800000000001,-6312.6899999999996,-6275.4499999999998,-6345.8299999999999,98.219499999999996,-55.2301,-121.64
214249.0,258.94299999999998,-7124.29,-7106.8100000000004,-7151.9399999999996,80.465199999999996,-57.443300000000001,-109.81
214250.0,238.75299999999999,-7496.8000000000002,-7497.2200000000003,-7520.96,69.750500000000002,-58.610900000000001,-102.51600000000001
214251.0,221.28899999999999,-8486.4400000000005,-8517.9099999999999,-8504.3999999999996,58.912100000000002,-61.379199999999997,-93.998199999999997
214252.0,218.16800000000001,-8807.8099999999995,-8852.8999999999996,-8822.5699999999997,55.649700000000003,-63.151699999999998,-90.841099999999997
214253.0,216.035,-9195.1000000000004,-9252.1499999999996,-9206.6800000000003,52.673999999999999,-64.788300000000007,-87.609999999999999
214254.0,213.995,-9655.3299999999999,-9723.8700000000008,-9663.2199999999993,49.0321,-66.617000000000004,-83.762299999999996
214255.0,210.91399999999999,-9960.9899999999998,-10037.5,-9966.1900000000005,45.891399999999997,-67.211699999999993,-79.859099999999998
214256.0,204.577,-10214.700000000001,-10298.1,-10216.6,40.798400000000001,-67.584000000000003,-73.820899999999995
214257.0,185.744,-10567.4,-10654.5,-10565.6,32.216299999999997,-64.262200000000007,-61.221200000000003
214258.0,169.90799999999999,-10555.1,-10638.299999999999,-10552.299999999999,27.6389,-60.284599999999998,-53.285299999999999
214259.0,148.93799999999999,-10413.4,-10487.6,-10410.6,23.485199999999999,-54.272300000000001,-44.608899999999998
214260.0,122.5,-10107.299999999999,-10167.1,-10105.700000000001,20.103000000000002,-45.994,-35.501300000000001
214261.0,90.865300000000005,-9585.6100000000006,-9624.7800000000007,-9586.3500000000004,17.771899999999999,-35.270499999999998,-26.274699999999999
214262.0,57.690600000000003,-8836.3799999999992,-8849.5400000000009,-8840.4799999999996,16.506,-22.332000000000001,-17.1144
214263.0,62.137700000000002,-6627.8000000000002,-6584.5,-6641.9200000000001,18.477399999999999,6.9438800000000001,-1.4756
214264.0,95.799599999999998,-5265.1499999999996,-5196.7299999999996,-5284.25,21.5625,21.7349,2.0266199999999999
214265.0,115.721,-3777.75,-3701.8200000000002,-3803.3000000000002,27.7791,29.7179,-4.7852499999999996
214266.0,122.746,-2364.23,-2294.5599999999999,-2396.1500000000001,33.174399999999999,31.245100000000001,-15.702400000000001
214267.0,119.254,-1145.8800000000001,-1080.25,-1178.1099999999999,30.732600000000001,30.625299999999999,-19.257899999999999
214268.0,707.07600000000002,-2471.1100000000001,-2711.3299999999999,-2681.5,235.59100000000001,-76.194400000000002,-296.98599999999999
214269.0,521.52700000000004,1748.9300000000001,1806.96,1684.46,205.238,-35.946399999999997,-208.55000000000001
214270.0,243.66499999999999,8913.8099999999995,8889.8999999999996,8900.2199999999993,64.890900000000002,-64.301199999999994,-106.309
214271.0,197.28800000000001,11101.4,11015.6,11104.4,40.761600000000001,-66.349199999999996,-66.088200000000001
214272.0,87.127499999999998,6934.5799999999999,6985.6800000000003,6907.8199999999997,29.676300000000001,4.3452099999999998,-8.11402
214273.0,133.67699999999999,3701.0999999999999,3794.3400000000001,3668.3099999999999,29.918399999999998,27.884899999999998,2.9813800000000001
214274.0,160.28200000000001,10940.6,10868.4,10942.9,33.412100000000002,-56.603299999999997,-49.475999999999999
214275.0,230.715,9855.3299999999999,9802.8199999999997,9847.6100000000006,56.959099999999999,-67.177300000000002,-95.822900000000004
214276.0,429.94400000000002,5109.4099999999999,5181.8999999999996,5058.0200000000004,155.32499999999999,-47.005899999999997,-177.22399999999999
214277.0,467.99200000000002,3487.5999999999999,3556.3099999999999,3424.3699999999999,175.06899999999999,-40.641399999999997,-190.65600000000001
214278.0,366.54300000000001,6498.5299999999997,6553.5500000000002,6462.2399999999998,126.41800000000001,-54.159399999999998,-154.13
214279.0,313.97199999999998,7170.1300000000001,7202.6700000000001,7143.5900000000001,101.146,-58.821199999999997,-135.25299999999999
214280.0,278.19200000000001,7868.4499999999998,7880.1300000000001,7847.8599999999997,83.215500000000006,-61.278300000000002,-121.86
214281.0,256.76999999999998,8538.2199999999993,8531.1399999999994,8521.4400000000005,72.001999999999995,-62.880000000000003,-112.994
214282.0,237.33199999999999,-8498.0300000000007,-8511.0200000000004,-8510.9200000000001,64.304599999999994,-61.916699999999999,-103.68600000000001
214283.0,236.00700000000001,9340.4400000000005,9301.2099999999991,9329.8299999999999,60.314399999999999,-65.818899999999999,-100.92
214284.0,228.16999999999999,10144.200000000001,10078.799999999999,10139.5,54.154200000000003,-68.930599999999998,-91.320599999999999
214285.0,221.733,10482.0,10408.299999999999,10480.200000000001,50.866900000000001,-69.205699999999993,-85.118600000000001
214286.0,218.34700000000001,10797.799999999999,10715.799999999999,10798.0,48.2515,-69.782600000000002,-80.283699999999996
214287.0,207.41200000000001,10999.5,10914.299999999999,11002.0,43.769300000000001,-68.494600000000005,-72.405699999999996
214288.0,198.35400000000001,-10799.299999999999,-10884.200000000001,-10793.6,39.763599999999997,-66.671499999999995,-67.193600000000004
214289.0,181.00899999999999,11092.4,11010.9,11095.799999999999,36.865200000000002,-62.446199999999997,-57.925400000000003
214290.0,134.678,10589.1,10531.700000000001,10588.799999999999,30.5732,-48.589100000000002,-40.7301
214291.0,105.794,10039.200000000001,10002.5,10034.799999999999,28.779299999999999,-38.353900000000003,-32.081400000000002
214292.0,78.861400000000003,9258.0499999999993,9247.0599999999995,9247.8799999999992,28.160399999999999,-26.053100000000001,-23.743500000000001
214293.0,67.515100000000004,8223.7000000000007,8242.3999999999996,8206.7000000000007,28.3687,-11.914,-15.932700000000001
214294.0,51.124899999999997,-7844.1999999999998,-7818.7600000000002,-7856.21,20.388300000000001,-7.19285,-6.1774500000000003
214295.0,120.072,5381.7200000000003,5463.6599999999999,5349.3500000000004,30.3339,20.351600000000001,0.42669200000000002
214296.0,125.24299999999999,2196.7800000000002,2278.52,2163.8200000000002,32.5443,25.307600000000001,-6.4335100000000001
214297.0,106.54000000000001,1024.97,1086.03,996.95000000000005,32.692999999999998,17.596800000000002,-18.170000000000002
214298.0,96.901300000000006,189.76400000000001,235.36799999999999,159.14599999999999,29.751200000000001,12.032,-25.078099999999999
214299.0,80.233400000000003,-38.197899999999997,-105.015,-24.456199999999999,-10.963100000000001,-5.0278999999999998,-11.963800000000001
214300.0,473.14600000000002,-2754.48,-2746.1399999999999,-2849.3699999999999,177.398,-40.804600000000001,-195.446
214301.0,427.81999999999999,-4205.5699999999997,-4149.3299999999999,-4268.6000000000004,156.267,-46.518500000000003,-175.68899999999999
214302.0,363.51299999999998,-5728.1000000000004,-5671.4700000000003,-5768.2799999999997,126.771,-53.3489,-150.881
214303.0,310.73700000000002,-6694.7600000000002,-6653.9200000000001,-6722.1000000000004,101.244,-57.815800000000003,-131.96899999999999
214304.0,274.50900000000001,-7264.7399999999998,-7243.1800000000003,-7285.1400000000003,83.198800000000006,-60.054099999999998,-118.953
214305.0,251.65600000000001,-7992.3299999999999,-7988.7200000000003,-8008.5600000000004,71.671700000000001,-61.033200000000001,-110.167
214306.0,228.67099999999999,-8830.1599999999999,-8858.4099999999999,-8840.0599999999995,59.565199999999997,-62.982799999999997,-98.538200000000003
214307.0,223.47499999999999,-9336.3799999999992,-9378.7700000000004,-9343.3099999999995,56.1721,-64.327399999999997,-94.002600000000001
214308.0,219.81700000000001,-9733.5200000000004,-9788.3199999999997,-9737.6599999999999,53.413499999999999,-65.5976,-89.5505
214309.0,216.77500000000001,-10002.4,-10069.200000000001,-10003.1,50.161799999999999,-67.202100000000002,-84.627300000000005
214310.0,212.994,-10351.9,-10426.6,-10350.5,47.613,-67.565200000000004,-79.967200000000005
214311.0,205.79599999999999,-10634.4,-10715.9,-10629.9,42.995600000000003,-67.777500000000003,-73.029399999999995
214312.0,185.49199999999999,-10874.700000000001,-10958.700000000001,-10867.799999999999,35.4559,-64.169300000000007,-59.409399999999998
214313.0,168.80699999999999,-10845.700000000001,-10924.799999999999,-10838.6,31.279800000000002,-60.088299999999997,-51.167700000000004
214314.0,146.934,-10651.799999999999,-10720.799999999999,-10645.700000000001,27.3643,-53.980800000000002,-42.340499999999999
214315.0,119.88200000000001,-10271.4,-10324.700000000001,-10267.6,24.148599999999998,-45.668199999999999,-33.238799999999998
214316.0,88.655900000000003,-9698.4099999999999,-9730.2000000000007,-9698.6399999999994,21.937999999999999,-35.012799999999999,-24.050000000000001
214317.0,58.920699999999997,-8894.0200000000004,-8899.25,-8899.7099999999991,20.779599999999999,-22.130600000000001,-15.0219
214318.0,83.181200000000004,-6536.2399999999998,-6476.71,-6556.4700000000003,21.753900000000002,10.1431,3.33521
214319.0,119.304,-4939.1800000000003,-4853.9499999999998,-4966.71,26.725200000000001,23.552900000000001,4.4015500000000003
214320.0,128.154,-3248.5900000000001,-3165.5599999999999,-3283.1100000000001,33.805999999999997,25.218699999999998,-6.7257199999999999
214321.0,123.482,-1831.97,-1765.0599999999999,-1870.29,37.904200000000003,20.269300000000001,-19.9618
214322.0,108.253,-799.73699999999997,-748.30499999999995,-833.97699999999998,33.346299999999999,13.822699999999999,-27.270199999999999
214323.0,691.78099999999995,-2418.0700000000002,-2632.1399999999999,-2622.5599999999999,211.256,-84.103700000000003,-305.279
214324.0,522.08699999999999,1531.0899999999999,1595.3399999999999,1464.95,198.52799999999999,-38.757399999999997,-213.75700000000001
214325.0,249.95400000000001,9376.3600000000006,9358.5100000000002,9371.8199999999997,64.615399999999994,-64.5886,-111.32299999999999
214326.0,191.434,11151.700000000001,11074.0,11159.9,42.339700000000001,-64.624200000000002,-63.241300000000003
214327.0,103.593,6511.6800000000003,6569.8199999999997,6475.1700000000001,35.2791,6.4488700000000003,-3.4969800000000002
214328.0,134.58199999999999,3199.3499999999999,3288.98,3158.3099999999999,30.285900000000002,24.988299999999999,5.4912900000000002
214329.0,154.93700000000001,10845.200000000001,10781.9,10849.9,36.898299999999999,-55.283900000000003,-46.290399999999998
214330.0,230.179,10076.6,10030.299999999999,10077.4,55.363,-66.182000000000002,-97.403800000000004
214331.0,442.21699999999998,5338.8999999999996,5414.5799999999999,5289.5600000000004,155.107,-49.519300000000001,-186.30500000000001
214332.0,475.92000000000002,3652.96,3723.96,3589.25,173.26300000000001,-43.316000000000003,-197.642
214333.0,381.90600000000001,6447.3400000000001,6506.7799999999997,6415.8199999999997,128.10400000000001,-56.163899999999998,-164.06999999999999
214334.0,329.58199999999999,7613.46,7651.3500000000004,7593.8000000000002,103.52200000000001,-60.5184,-144.81999999999999
214335.0,291.68599999999998,8316.3400000000001,8333.8299999999999,8303.9400000000005,85.145200000000003,-62.643099999999997,-130.23400000000001
214336.0,266.86700000000002,8781.6100000000006,8780.5200000000004,8773.6700000000001,72.864500000000007,-63.7727,-119.76900000000001
214337.0,245.23699999999999,-8814.8199999999997,-8822.1000000000004,-8818.1599999999999,64.237700000000004,-62.875399999999999,-109.334
214338.0,238.63300000000001,9812.1399999999994,9779.0100000000002,9810.4500000000007,59.159399999999998,-65.451499999999996,-104.164
214339.0,225.303,10489.299999999999,10430.1,10492.6,52.586399999999998,-67.464799999999997,-91.488399999999999
214340.0,217.13399999999999,10768.700000000001,10701.6,10774.200000000001,49.790900000000001,-67.411500000000004,-84.006299999999996
214341.0,213.01499999999999,10950.9,10875.700000000001,10957.6,48.004199999999997,-67.897400000000005,-78.389600000000002
214342.0,201.57599999999999,11094.799999999999,11017.0,11103.200000000001,44.482999999999997,-66.620400000000004,-69.789599999999993
214343.0,192.70099999999999,-10895.5,-10972.5,-10883.5,40.796799999999998,-64.789500000000004,-64.709400000000002
214344.0,175.227,11076.200000000001,11003.200000000001,11083.5,39.4039,-60.870100000000001,-54.849400000000003
214345.0,130.233,10455.700000000001,10407.4,10455.700000000001,34.946199999999997,-47.482799999999997,-37.432600000000001
214346.0,103.386,9842.8899999999994,9814.8899999999994,9835.8799999999992,33.759099999999997,-37.324399999999997,-28.596499999999999
214347.0,81.089100000000002,8985.5100000000002,8982.4699999999993,8969.4599999999991,33.322499999999998,-24.815100000000001,-19.824000000000002
214348.0,77.378900000000002,7874.9799999999996,7900.0,7849.5100000000002,33.4908,-10.511900000000001,-11.2469
214349.0,64.113600000000005,-7485.2700000000004,-7454.8800000000001,-7506.3500000000004,25.891100000000002,-5.4093400000000003,-1.05684
214350.0,134.19900000000001,4879.2200000000003,4966.4300000000003,4836.79,33.453200000000002,21.849299999999999,6.1531099999999999
214351.0,115.483,1818.04,1889.6900000000001,1779.3599999999999,30.564699999999998,17.408799999999999,-8.6303599999999996
214352.0,93.542199999999994,792.32100000000003,840.83799999999997,760.98099999999999,28.8751,6.2172200000000002,-20.625800000000002
214353.0,90.185500000000005,133.16300000000001,167.81100000000001,105.866,29.028199999999998,0.38324599999999998,-30.075800000000001
214354.0,70.0929,44.4587,-19.607099999999999,45.607700000000001,-13.277100000000001,0.83918599999999999,-8.2195400000000003
214355.0,477.58600000000001,-2705.4200000000001,-2695.98,-2802.7399999999998,173.60499999999999,-43.642899999999997,-201.22900000000001
214356.0,437.83999999999997,-4521.6099999999997,-4464.0500000000002,-4584.0500000000002,155.21199999999999,-48.656399999999998,-183.96000000000001
214357.0,377.71300000000002,-5757.6300000000001,-5698.75,-5794.29,128.31,-55.139400000000002,-160.40199999999999
214358.0,326.11599999999999,-6852.5900000000001,-6808.21,-6873.8699999999999,103.75700000000001,-59.569499999999998,-141.471
214359.0,288.63999999999999,-7823.4899999999998,-7797.3999999999996,-7836.0200000000004,85.383399999999995,-61.765999999999998,-127.583
214360.0,263.03199999999998,-8308.3299999999999,-8299.5200000000004,-8315.6000000000004,72.810500000000005,-62.492699999999999,-117.432
214361.0,232.983,-9369.3400000000001,-9391.4599999999991,-9369.4699999999993,58.477499999999999,-63.284999999999997,-102.503
214362.0,224.51900000000001,-9663.3700000000008,-9699.25,-9660.6299999999992,54.482999999999997,-63.931199999999997,-96.347499999999997
214363.0,218.15100000000001,-9994.7199999999993,-10042.700000000001,-9989.5599999999995,51.578200000000002,-64.556299999999993,-90.433400000000006
214364.0,213.16200000000001,-10380.6,-10440.299999999999,-10372.6,48.651499999999999,-65.673199999999994,-84.240399999999994
214365.0,208.19300000000001,-10602.299999999999,-10669.700000000001,-10593.0,46.828000000000003,-65.7376,-78.632300000000001
214366.0,200.30000000000001,-10764.9,-10838.9,-10753.299999999999,43.143000000000001,-65.817099999999996,-70.888099999999994
214367.0,179.827,-10924.299999999999,-11000.0,-10911.9,37.419800000000002,-62.383400000000002,-56.670999999999999
214368.0,163.21700000000001,-10810.9,-10881.5,-10799.6,34.161799999999999,-58.444800000000001,-48.2667
214369.0,141.655,-10563.0,-10623.299999999999,-10554.299999999999,31.154599999999999,-52.543700000000001,-39.291899999999998
214370.0,115.18000000000001,-10143.4,-10188.299999999999,-10139.5,28.688500000000001,-44.341700000000003,-29.964400000000001
214371.0,85.479100000000003,-9497.9099999999999,-9521.8799999999992,-9500.8999999999996,26.886800000000001,-33.606000000000002,-20.3125
214372.0,61.313499999999998,-8616.3700000000008,-8614.6100000000006,-8628.0400000000009,25.982700000000001,-20.359000000000002,-10.4969
214373.0,101.333,-6098.9399999999996,-6033.1599999999999,-6131.1000000000004,26.179099999999998,12.597099999999999,9.3184100000000001
214374.0,131.47900000000001,-4415.7799999999997,-4330.1300000000001,-4458.4700000000003,30.109999999999999,23.2639,6.5475599999999998
214375.0,128.148,-2750.27,-2674.0900000000001,-2796.4899999999998,34.306699999999999,19.651800000000001,-9.5290400000000002
214376.0,117.357,-1468.6900000000001,-1409.8399999999999,-1512.0999999999999,35.5608,11.1326,-23.8383
214377.0,100.881,-563.04499999999996,-524.13300000000004,-596.673,32.499499999999998,1.77572,-31.860399999999998
214378.0,671.68100000000004,-2426.1599999999999,-2610.4299999999998,-2620.96,185.55600000000001,-92.026499999999999,-309.00400000000002
214379.0,517.60500000000002,1698.5999999999999,1768.97,1631.77,189.76499999999999,-41.254899999999999,-216.529
214380.0,255.44900000000001,9652.1399999999994,9642.2199999999993,9657.9699999999993,63.527700000000003,-63.905700000000003,-116.483
214381.0,177.035,10929.5,10863.6,10940.299999999999,41.960000000000001,-60.372,-57.611499999999999
214382.0,112.76600000000001,5761.5500000000002,5824.6800000000003,5718.8400000000001,36.414299999999997,8.5983400000000003,1.77922
214383.0,113.93300000000001,2659.0900000000001,2737.23,2623.0999999999999,25.5,16.4923,0.66616500000000001
214384.0,142.63900000000001,10458.799999999999,10406.700000000001,10462.9,39.3386,-51.2209,-40.344200000000001
214385.0,227.00700000000001,10471.299999999999,10434.700000000001,10482.299999999999,51.796300000000002,-63.826700000000002,-98.9953
214386.0,450.84300000000002,5261.4799999999996,5339.7200000000003,5214.3699999999999,154.196,-51.394300000000001,-193.19999999999999
214387.0,479.60300000000001,3505.4899999999998,3578.1500000000001,3441.52,170.24600000000001,-45.597700000000003,-202.33000000000001
214388.0,394.45299999999997,6824.4399999999996,6887.6499999999996,6797.6999999999998,129.29400000000001,-57.376399999999997,-172.40000000000001
214389.0,343.31299999999999,7667.7700000000004,7710.7700000000004,7655.1999999999998,105.56100000000001,-61.350700000000003,-153.40100000000001
214390.0,304.089,8502.4099999999999,8526.0300000000007,8498.7399999999998,86.773899999999998,-63.1205,-138.167
214391.0,276.274,9254.4699999999993,9260.4500000000007,9256.3400000000001,73.270099999999999,-63.7607,-126.488
214392.0,252.49000000000001,-9233.5,-9234.2399999999998,-9226.5799999999999,63.615200000000002,-62.957000000000001,-114.98699999999999
214393.0,239.78700000000001,10042.700000000001,10018.4,10051.5,56.6496,-63.954099999999997,-107.57599999999999
214394.0,218.078,10634.5,10586.1,10647.299999999999,48.483699999999999,-64.248400000000004,-91.275199999999998
214395.0,206.56800000000001,10819.5,10763.6,10832.9,45.782200000000003,-63.547600000000003,-82.084500000000006
214396.0,199.93199999999999,10966.6,10903.4,10979.799999999999,44.666600000000003,-63.589500000000001,-74.959999999999994
214397.0,187.28999999999999,10996.0,10930.1,11008.799999999999,42.581800000000001,-62.210099999999997,-65.020300000000006
214398.0,178.38,-10769.4,-10833.6,-10752.1,39.412399999999998,-60.165599999999998,-59.892200000000003
214399.0,161.59700000000001,10760.9,10699.6,10769.5,40.561599999999999,-56.735300000000002,-48.842799999999997
214400.0,119.89100000000001,9962.9899999999998,9925.5200000000004,9960.25,38.2761,-43.473700000000001,-31.622499999999999
214401.0,96.958299999999994,9271.0,9253.2199999999993,9259.6800000000003,37.532299999999999,-33.424999999999997,-22.9513
214402.0,82.005700000000004,8348.0300000000007,8354.25,8326.7999999999993,37.094700000000003,-21.185500000000001,-14.4777
214403.0,87.4375,7172.29,7205.2399999999998,7139.1599999999999,37.006900000000002,-7.2359099999999996,-5.9215600000000004
214404.0,77.486400000000003,-6782.3800000000001,-6744.75,-6811.6499999999996,29.197500000000002,-1.88818,4.5200100000000001
214405.0,128.917,4170.3500000000004,4254.3800000000001,4127.6700000000001,30.9802,19.264900000000001,7.2627699999999997
214406.0,95.926400000000001,1527.51,1586.8599999999999,1496.0699999999999,25.205500000000001,7.7687999999999997,-15.6805
214407.0,88.055899999999994,729.995,771.09699999999998,698.81600000000003,25.045300000000001,0.63872700000000004,-25.350000000000001
214408.0,86.389099999999999,136.02500000000001,169.464,105.867,26.147600000000001,-0.70194100000000004,-28.133199999999999
214409.0,65.670100000000005,73.871799999999993,13.107200000000001,60.946300000000001,-16.136900000000001,9.9996399999999994,-7.2433100000000001
214410.0,477.48899999999998,-2749.0599999999999,-2737.6100000000001,-2847.6900000000001,168.172,-46.322499999999998,-204.715
214411.0,444.01799999999997,-4295.4499999999998,-4236.6199999999999,-4356.9700000000003,153.28800000000001,-50.247700000000002,-189.93100000000001
214412.0,388.73500000000001,-5968.9799999999996,-5908.3800000000001,-6002.2299999999996,129.18199999999999,-56.087000000000003,-168.148
214413.0,339.21100000000001,-7108.0500000000002,-7060.6899999999996,-7123.4700000000003,105.88800000000001,-60.383400000000002,-149.75299999999999
214414.0,301.35899999999998,-7833.0200000000004,-7802.6999999999998,-7837.6700000000001,87.352699999999999,-62.534700000000001,-135.53899999999999
214415.0,273.57600000000002,-8671.9300000000003,-8657.7299999999996,-8669.8999999999996,73.681700000000006,-63.056100000000001,-124.434
214416.0,236.32499999999999,-9563.8799999999992,-9578.2399999999998,-9553.1900000000005,56.350299999999997,-62.661799999999999,-106.56699999999999
214417.0,223.74299999999999,-10015.5,-10042.299999999999,-10001.700000000001,51.108800000000002,-62.442900000000002,-98.738399999999999
214418.0,213.38200000000001,-10314.200000000001,-10351.9,-10298.299999999999,47.430599999999998,-62.159500000000001,-91.139499999999998
214419.0,204.78700000000001,-10451.799999999999,-10500.1,-10433.700000000001,44.325099999999999,-62.384700000000002,-83.337199999999996
214420.0,196.85300000000001,-10648.5,-10703.6,-10630.4,42.868699999999997,-61.774299999999997,-76.232600000000005
214421.0,186.91300000000001,-10768.200000000001,-10829.4,-10749.299999999999,40.321199999999997,-61.328000000000003,-67.1327
214422.0,165.80600000000001,-10685.700000000001,-10749.5,-10670.1,37.778700000000001,-57.828400000000002,-51.224800000000002
214423.0,150.30099999999999,-10505.799999999999,-10565.0,-10492.799999999999,35.924599999999998,-54.052900000000001,-42.850000000000001
214424.0,129.79400000000001,-10168.6,-10218.299999999999,-10160.4,34.045000000000002,-48.2667,-33.843000000000004
214425.0,104.94499999999999,-9647.3700000000008,-9682.0100000000002,-9646.1499999999996,32.3977,-40.113399999999999,-24.450099999999999
214426.0,79.518799999999999,-8931.5499999999993,-8946.0100000000002,-8939.0,31.0078,-29.535599999999999,-14.8864
214427.0,64.661299999999997,-7979.5500000000002,-7969.4799999999996,-7997.1199999999999,29.906700000000001,-16.640699999999999,-5.1698300000000001
214428.0,110.258,-5356.29,-5287.3599999999997,-5395.5,27.863299999999999,13.2461,10.1523
214429.0,123.837,-3730.7600000000002,-3650.6500000000001,-3775.3499999999999,28.480399999999999,17.545000000000002,0.76324499999999995
214430.0,110.642,-2264.7600000000002,-2200.79,-2307.0300000000002,29.107199999999999,9.6313200000000005,-16.716699999999999
214431.0,100.00700000000001,-1268.7,-1221.1900000000001,-1305.49,27.944099999999999,2.78647,-27.551100000000002
214432.0,90.025199999999998,-580.226,-545.46299999999997,-613.41800000000001,26.743500000000001,-0.39758900000000003,-28.834900000000001
214433.0,647.23800000000006,-2303.98,-2454.4200000000001,-2484.9200000000001,158.86799999999999,-99.805199999999999,-308.31
214434.0,507.74599999999998,1444.21,1520.75,1377.6099999999999,178.839,-43.409799999999997,-216.648
214435.0,261.89800000000002,9976.4099999999999,9974.6499999999996,9993.0499999999993,62.593400000000003,-62.620699999999999,-122.152
214436.0,150.39400000000001,10533.1,10484.200000000001,10544.0,37.408799999999999,-52.239100000000001,-48.9758
214437.0,107.489,4824.6000000000004,4886.4200000000001,4784.6800000000003,33.083599999999997,9.35046,6.42293
214438.0,86.615200000000002,2235.4400000000001,2290.98,2204.1500000000001,21.8733,4.5997500000000002,-8.2044800000000002
214439.0,119.27,9715.3500000000004,9676.3400000000001,9714.6700000000001,39.155299999999997,-43.017899999999997,-29.317900000000002
214440.0,224.55099999999999,10572.200000000001,10546.799999999999,10594.299999999999,47.571300000000001,-60.7973,-101.414
214441.0,454.86799999999999,5361.6999999999998,5441.3999999999996,5316.8299999999999,152.435,-52.451300000000003,-197.48500000000001
214442.0,478.12299999999999,3586.0100000000002,3659.4000000000001,3522.1300000000001,165.864,-47.365699999999997,-204.273
214443.0,403.29000000000002,6613.8400000000001,6679.75,6591.5600000000004,129.89599999999999,-57.712800000000001,-178.62700000000001
214444.0,354.55700000000002,7938.1599999999999,7985.1800000000003,7932.25,107.38,-61.286499999999997,-160.548
214445.0,315.42099999999999,8780.1700000000001,8809.1800000000003,8785.0200000000004,88.521299999999997,-62.781399999999998,-145.41200000000001
214446.0,285.82600000000002,9341.6700000000001,9354.3899999999994,9353.4400000000005,73.929299999999998,-63.0443,-133.19800000000001
214447.0,260.23899999999998,-9407.9200000000001,-9402.7299999999996,-9390.9599999999991,63.2774,-62.362400000000001,-120.85599999999999
214448.0,242.126,10390.6,10376.0,10410.700000000001,53.989100000000001,-61.892200000000003,-111.773
214449.0,210.136,10844.1,10808.700000000001,10867.200000000001,43.035800000000002,-60.035800000000002,-91.625399999999999
214450.0,193.19300000000001,10931.700000000001,10890.5,10953.9,39.701599999999999,-58.191899999999997,-80.272300000000001
214451.0,180.81899999999999,10878.9,10832.1,10898.700000000001,38.3581,-57.002800000000001,-70.778400000000005
214452.0,163.60400000000001,10756.4,10707.6,10772.6,36.930999999999997,-54.639299999999999,-58.553699999999999
214453.0,153.524,-10498.9,-10544.9,-10477.0,33.9129,-52.188499999999998,-52.763500000000001
214454.0,135.12899999999999,10187.1,10141.5,10192.299999999999,38.294800000000002,-48.6021,-38.436999999999998
214455.0,103.416,9128.2099999999991,9099.9400000000005,9120.1499999999996,39.194600000000001,-36.050800000000002,-22.736699999999999
214456.0,88.150999999999996,8363.2399999999998,8352.4300000000003,8345.7000000000007,38.548699999999997,-27.525600000000001,-16.377800000000001
214457.0,81.634500000000003,7395.75,7408.54,7367.0900000000001,37.880600000000001,-16.340299999999999,-8.3007100000000005
214458.0,93.378,6217.5799999999999,6256.8599999999997,6178.6700000000001,37.030799999999999,-2.6018400000000002,0.25590400000000002
214459.0,87.112099999999998,-5840.3699999999999,-5796.4499999999998,-5875.5600000000004,29.537299999999998,2.1910599999999998,9.0208700000000004
214460.0,101.307,3394.1599999999999,3460.5999999999999,3360.4000000000001,26.2563,11.0052,3.45716
214461.0,83.790599999999998,1403.26,1449.54,1371.9200000000001,21.3218,0.83800300000000005,-18.978100000000001
214462.0,82.649699999999996,748.05799999999999,787.72400000000005,719.14999999999998,21.163499999999999,0.89564699999999997,-25.3582
214463.0,79.285799999999995,156.98400000000001,194.60300000000001,130.51900000000001,19.5321,2.40171,-25.904800000000002
214464.0,60.9679,53.756599999999999,-2.8489900000000001,37.322600000000001,-14.2255,11.8476,-6.9494400000000001
214465.0,472.14100000000002,-2636.9699999999998,-2622.2800000000002,-2735.4899999999998,161.02699999999999,-48.814599999999999,-205.434
214466.0,445.471,-4506.6599999999999,-4446.8800000000001,-4566.8500000000004,150.34299999999999,-51.088299999999997,-193.22800000000001
214467.0,395.69,-5857.1899999999996,-5795.5200000000004,-5887.3000000000002,129.261,-56.122,-173.61799999999999
214468.0,349.27199999999999,-7103.0699999999997,-7053.6899999999996,-7113.2200000000003,107.633,-60.163499999999999,-156.34899999999999
214469.0,312.30900000000003,-8223.8199999999997,-8190.2799999999997,-8221.2600000000002,89.354600000000005,-62.310600000000001,-142.46799999999999
214470.0,283.62400000000002,-8828.9500000000007,-8810.2700000000004,-8818.1200000000008,74.837400000000002,-62.765999999999998,-131.095
214471.0,240.69200000000001,-9978.1700000000001,-9985.0200000000004,-9956.5799999999999,54.238999999999997,-61.480899999999998,-111.215
214472.0,223.96600000000001,-10228.4,-10246.0,-10203.4,47.311500000000002,-60.422499999999999,-101.839
214473.0,208.876,-10458.200000000001,-10484.700000000001,-10431.0,42.190899999999999,-59.093299999999999,-92.462500000000006
214474.0,195.11000000000001,-10689.299999999999,-10724.299999999999,-10660.6,38.170400000000001,-58.061599999999999,-82.721199999999996
214475.0,181.69499999999999,-10709.6,-10749.4,-10682.299999999999,36.223500000000001,-56.220999999999997,-73.425200000000004
214476.0,166.54400000000001,-10633.0,-10677.1,-10606.799999999999,34.0276,-54.430399999999999,-62.177900000000001
214477.0,138.78899999999999,-10257.0,-10302.9,-10240.0,34.137099999999997,-49.118000000000002,-42.232599999999998
214478.0,124.29300000000001,-9887.1599999999999,-9931.0,-9876.5,35.077500000000001,-45.034599999999998,-32.508699999999997
214479.0,109.086,-9414.0499999999993,-9452.1700000000001,-9410.4099999999999,35.025300000000001,-39.656399999999998,-25.140799999999999
214480.0,90.613399999999999,-8811.2800000000007,-8837.8099999999995,-8815.9099999999999,33.672199999999997,-32.9514,-17.791399999999999
214481.0,71.593100000000007,-8025.8900000000003,-8033.6199999999999,-8039.9499999999998,31.999199999999998,-23.6937,-8.5793700000000008
214482.0,67.302000000000007,-7045.6400000000003,-7029.0100000000002,-7070.3000000000002,30.7866,-11.337999999999999,1.38639
214483.0,103.446,-4397.3100000000004,-4334.7700000000004,-4437.71,27.738700000000001,9.1300500000000007,4.8982700000000001
214484.0,97.869299999999996,-2992.8800000000001,-2933.8200000000002,-3032.3600000000001,25.1205,5.3398199999999996,-8.5971899999999994
214485.0,87.943100000000001,-1954.26,-1907.8499999999999,-1990.22,22.677299999999999,0.0494741,-18.933199999999999
214486.0,84.956000000000003,-1222.3299999999999,-1182.3800000000001,-1253.71,21.812000000000001,-0.088791300000000004,-25.534500000000001
214487.0,80.5428,-623.76199999999994,-585.096,-650.577,19.421099999999999,2.5330699999999999,-26.365300000000001
214488.0,619.06899999999996,-2278.4299999999998,-2391.3600000000001,-2441.5300000000002,132.50700000000001,-107.244,-302.839
214489.0,492.61200000000002,1580.46,1663.6800000000001,1515.6700000000001,166.262,-44.969200000000001,-213.81899999999999
214490.0,270.00599999999997,10095.1,10100.0,10121.799999999999,62.793999999999997,-61.002400000000002,-128.19300000000001
214491.0,115.413,10098.700000000001,10072.0,10108.5,29.7578,-41.074199999999998,-38.866599999999998
214492.0,85.3536,3758.7199999999998,3804.96,3722.6399999999999,25.3276,5.3159700000000001,7.4687000000000001
214493.0,67.842500000000001,2046.53,2080.8400000000001,2019.0799999999999,18.5078,-1.7707900000000001,-15.2058
214494.0,80.834599999999995,8750.6900000000005,8732.3400000000001,8740.9099999999999,33.055900000000001,-29.369,-11.769399999999999
214495.0,225.327,10900.0,10884.9,10933.0,44.231099999999998,-57.7194,-105.032
214496.0,453.43000000000001,5137.29,5217.6300000000001,5094.6800000000003,149.49799999999999,-52.706000000000003,-198.76499999999999
214497.0,470.89400000000001,3343.79,3417.5700000000002,3280.71,159.631,-48.6511,-203.404
214498.0,407.27600000000001,6800.5900000000001,6867.6400000000003,6782.0299999999997,129.768,-57.099299999999999,-182.107
214499.0,362.327,7777.7700000000004,7827.1499999999996,7777.5799999999999,109.006,-60.275599999999997,-165.61699999999999
214500.0,324.98899999999998,8749.9200000000001,8782.5200000000004,8762.2600000000002,90.572299999999998,-61.609200000000001,-151.447
214501.0,295.42500000000001,9619.4599999999991,9637.2900000000009,9640.25,75.401899999999998,-61.734999999999999,-139.53100000000001
214502.0,268.71100000000001,-9651.1200000000008,-9641.8700000000008,-9625.3099999999995,63.9833,-61.18,-126.73099999999999
214503.0,247.21100000000001,10509.9,10503.6,10540.700000000001,52.463099999999997,-59.673099999999998,-116.89
214504.0,205.084,10956.0,10933.1,10989.4,38.045400000000001,-55.6753,-93.131100000000004
214505.0,181.66200000000001,10960.5,10934.0,10991.299999999999,33.468299999999999,-52.442500000000003,-79.415700000000001
214506.0,161.38399999999999,10852.299999999999,10823.1,10878.5,31.085799999999999,-49.512300000000003,-67.031599999999997
214507.0,136.24700000000001,10555.299999999999,10526.6,10574.6,29.419499999999999,-45.330300000000001,-51.796100000000003
214508.0,123.295,-10235.4,-10261.299999999999,-10210.0,25.669599999999999,-42.200299999999999,-44.386499999999998
214509.0,94.7898,9498.6499999999996,9476.3600000000006,9496.0599999999995,31.457899999999999,-35.532600000000002,-24.377099999999999
214510.0,78.916799999999995,7941.9700000000003,7925.0299999999997,7927.4399999999996,35.199300000000001,-25.550999999999998,-10.0093
214511.0,77.378299999999996,7149.46,7141.4200000000001,7124.8999999999996,36.453000000000003,-20.370999999999999,-9.7534600000000005
214512.0,77.112499999999997,6207.2399999999998,6221.3699999999999,6171.1499999999996,35.019500000000001,-9.1276799999999998,-1.37246
214513.0,87.315700000000007,5020.7299999999996,5057.8199999999997,4980.0299999999997,31.2318,2.1900900000000001,6.86829
214514.0,84.217500000000001,-4605.8299999999999,-4564.9700000000003,-4645.3500000000004,25.7257,2.8831099999999998,8.8718400000000006
214515.0,67.970600000000005,2746.75,2785.7600000000002,2718.9400000000001,20.161000000000001,0.60586499999999999,-2.6032500000000001
214516.0,75.459599999999995,1383.02,1422.22,1351.76,17.4832,1.60612,-18.533000000000001
214517.0,71.295199999999994,682.95699999999999,720.78800000000001,656.55200000000002,15.702400000000001,2.9581,-19.913799999999998
214518.0,65.055400000000006,144.78800000000001,174.869,122.625,13.7852,0.56222499999999997,-23.0824
214519.0,55.891500000000001,56.714300000000001,1.84256,38.576999999999998,-12.5154,8.66418,-5.2946600000000004
214520.0,461.12799999999999,-2613.3499999999999,-2593.98,-2709.8000000000002,152.13999999999999,-50.912999999999997,-203.20599999999999
214521.0,441.69600000000003,-4159.8400000000001,-4098.54,-4218.0,146.143,-51.323999999999998,-193.57499999999999
214522.0,397.56900000000002,-5903.0500000000002,-5841.0299999999997,-5930.3599999999997,128.339,-55.150700000000001,-176.29300000000001
214523.0,355.255,-7159.3500000000004,-7109.1099999999997,-7165.1800000000003,108.926,-58.838200000000001,-160.59700000000001
214524.0,320.68200000000002,-8020.5600000000004,-7985.3599999999997,-8012.0,91.432400000000001,-61.004399999999997,-147.85300000000001
214525.0,292.76900000000001,-8988.3999999999996,-8966.9400000000005,-8970.0300000000007,76.616799999999998,-61.608899999999998,-137.00700000000001
214526.0,247.11099999999999,-10038.200000000001,-10039.4,-10006.700000000001,53.340400000000002,-60.012900000000002,-116.46299999999999
214527.0,227.00299999999999,-10491.0,-10501.200000000001,-10455.299999999999,44.5182,-58.299100000000003,-105.908
214528.0,207.381,-10728.0,-10745.200000000001,-10690.1,37.594999999999999,-56.003300000000003,-94.825900000000004
214529.0,187.899,-10736.1,-10759.200000000001,-10697.299999999999,32.084699999999998,-53.5822,-82.989699999999999
214530.0,167.53299999999999,-10730.6,-10756.1,-10694.5,28.850000000000001,-50.193100000000001,-71.052199999999999
214531.0,144.72900000000001,-10576.799999999999,-10603.6,-10544.1,26.097200000000001,-46.490099999999998,-57.005299999999998
214532.0,100.73399999999999,-9751.9400000000005,-9775.3899999999994,-9735.2099999999991,26.1126,-36.937800000000003,-30.476299999999998
214533.0,80.336799999999997,-9137.3899999999994,-9156.7399999999998,-9132.3700000000008,28.558499999999999,-30.2546,-15.965
214534.0,76.409499999999994,-8355.4899999999998,-8373.2600000000002,-8360.2299999999996,32.084600000000002,-26.026,-12.4383
214535.0,74.0929,-7581.7399999999998,-7599.0699999999997,-7593.8299999999999,32.492199999999997,-23.678799999999999,-11.595700000000001
214536.0,62.767400000000002,-6825.7600000000002,-6831.21,-6847.5900000000001,30.089099999999998,-16.616099999999999,-1.6284099999999999
214537.0,68.4602,-5842.1499999999996,-5822.9300000000003,-5875.0100000000002,27.814800000000002,-4.9946200000000003,8.3786400000000008
214538.0,81.480500000000006,-3377.0799999999999,-3334.52,-3415.7600000000002,23.540400000000002,1.19157,-2.4346399999999999
214539.0,68.388800000000003,-2485.3899999999999,-2454.0599999999999,-2516.54,19.1814,-3.6128800000000001,-14.223100000000001
214540.0,65.219099999999997,-1869.3,-1837.53,-1897.9200000000001,15.294,-1.49746,-16.406199999999998
214541.0,74.188000000000002,-1183.4000000000001,-1145.9300000000001,-1214.4300000000001,16.125699999999998,2.15855,-19.8339
214542.0,73.821100000000001,-491.37200000000001,-456.21499999999997,-517.47299999999996,15.3058,1.4139699999999999,-25.204999999999998
214543.0,587.77300000000002,-2051.9000000000001,-2120.4099999999999,-2191.8699999999999,106.44199999999999,-114.764,-292.84800000000001
214544.0,472.77300000000002,1294.3499999999999,1389.8699999999999,1234.5899999999999,150.74299999999999,-47.032200000000003,-208.41
214545.0,278.74400000000003,10199.0,10207.5,10234.0,64.5154,-59.011000000000003,-133.87100000000001
214546.0,81.421199999999999,9763.8799999999992,9758.3600000000006,9769.1599999999999,23.2821,-29.5504,-27.665199999999999
214547.0,62.559199999999997,2922.5599999999999,2951.1700000000001,2888.4400000000001,17.473500000000001,1.00102,3.4340700000000002
214548.0,54.380699999999997,1542.1400000000001,1564.05,1514.2,14.4374,-1.4319200000000001,-12.2842
214549.0,57.074300000000001,7748.6000000000004,7753.9499999999998,7725.3999999999996,24.7637,-13.267799999999999,8.1420399999999997
214550.0,230.095,10910.200000000001,10902.1,10952.6,43.229500000000002,-54.960599999999999,-109.64100000000001
214551.0,445.73899999999998,5080.7600000000002,5159.8000000000002,5039.8299999999999,145.387,-51.855699999999999,-196.678
214552.0,457.22500000000002,3336.3499999999999,3409.4899999999998,3274.9200000000001,151.53100000000001,-49.1023,-199.434
214553.0,405.40199999999999,6373.6800000000003,6440.5,6358.1899999999996,128.71600000000001,-55.505899999999997,-182.26900000000001
214554.0,365.33699999999999,7789.8599999999997,7839.46,7793.8999999999996,110.178,-58.220599999999997,-167.93700000000001
214555.0,331.392,8755.1200000000008,8788.9899999999998,8773.2099999999991,92.898799999999994,-59.572299999999998,-155.37200000000001
214556.0,303.73700000000002,9447.0200000000004,9467.1299999999992,9474.8799999999992,77.805899999999994,-59.751600000000003,-144.642
214557.0,276.82499999999999,-9584.0300000000007,-9573.4099999999999,-9551.4899999999998,65.965800000000002,-59.305999999999997,-131.90899999999999
214558.0,254.81,10697.0,10696.0,10737.0,53.027099999999997,-57.478200000000001,-122.39700000000001
214559.0,204.869,11145.0,11131.6,11187.5,35.261699999999998,-51.846200000000003,-95.956199999999995
214560.0,175.10300000000001,11113.0,11098.200000000001,11151.4,29.118300000000001,-47.2742,-79.9011
214561.0,146.155,10847.1,10832.4,10878.299999999999,25.312799999999999,-42.507199999999997,-64.217600000000004
214562.0,111.551,10409.6,10398.6,10430.0,22.9129,-36.260800000000003,-45.320599999999999
214563.0,94.1721,-10046.799999999999,-10056.299999999999,-10020.5,18.223700000000001,-32.302500000000002,-35.189700000000002
214564.0,58.222099999999998,8878.2700000000004,8881.2000000000007,8866.3099999999995,24.485800000000001,-20.115400000000001,-7.9696999999999996
214565.0,59.4131,6646.8599999999997,6645.1800000000003,6620.3800000000001,27.241299999999999,-13.0717,6.61531
214566.0,63.0625,5744.1000000000004,5742.2600000000002,5713.1599999999999,29.908000000000001,-11.391299999999999,-0.36218099999999998
214567.0,66.260400000000004,4840.6899999999996,4854.0100000000002,4804.29,27.7973,-3.5709599999999999,3.9380299999999999
214568.0,69.212900000000005,3848.3000000000002,3875.3600000000001,3811.5,22.555,1.7739400000000001,7.5681900000000004
214569.0,66.347099999999998,-3472.7199999999998,-3444.5799999999999,-3510.3699999999999,19.027200000000001,-0.55810400000000004,3.9390100000000001
214570.0,52.755699999999997,2150.5700000000002,2173.29,2120.6700000000001,14.5075,-1.6331199999999999,-4.2623499999999996
214571.0,60.222799999999999,1017.4,1044.4400000000001,988.36199999999997,13.6721,1.07274,-15.3116
214572.0,55.823099999999997,517.11000000000001,541.53599999999994,490.41699999999997,10.9003,0.52832599999999996,-16.306999999999999
214573.0,51.339199999999998,133.27500000000001,149.42599999999999,110.02500000000001,9.0950900000000008,-1.8442400000000001,-20.003299999999999
214574.0,53.320999999999998,51.068199999999997,-2.08758,35.287599999999998,-11.920299999999999,6.26973,-4.5892299999999997
214575.0,444.81200000000001,-2436.6700000000001,-2408.48,-2528.0300000000002,141.59100000000001,-53.094200000000001,-197.93899999999999
214576.0,431.77800000000002,-4252.6000000000004,-4191.3000000000002,-4308.5,140.41,-50.340899999999998,-190.941
214577.0,393.46699999999998,-5608.1099999999997,-5546.0100000000002,-5632.9399999999996,126.306,-53.245199999999997,-175.53399999999999
214578.0,356.12400000000002,-6920.4099999999999,-6870.6300000000001,-6923.0100000000002,109.465,-56.296100000000003,-162.023
214579.0,325.19299999999998,-8148.0299999999997,-8112.7600000000002,-8135.1099999999997,93.454599999999999,-58.591000000000001,-150.881
214580.0,299.76400000000001,-8880.0300000000007,-8858.0100000000002,-8856.1100000000006,79.063199999999995,-59.4651,-141.38200000000001
214581.0,254.90199999999999,-10258.200000000001,-10257.1,-10218.9,54.267499999999998,-58.204900000000002,-121.761
214582.0,233.03100000000001,-10572.0,-10578.299999999999,-10527.700000000001,44.048900000000003,-56.275799999999997,-110.60599999999999
214583.0,209.989,-10808.200000000001,-10819.799999999999,-10761.299999999999,35.320300000000003,-53.327800000000003,-98.221299999999999
214584.0,185.34800000000001,-10974.5,-10989.700000000001,-10927.1,28.092099999999999,-49.715600000000002,-84.405600000000007
214585.0,157.816,-10845.5,-10860.6,-10802.200000000001,23.168800000000001,-44.764899999999997,-69.589500000000001
214586.0,126.20999999999999,-10526.0,-10539.700000000001,-10488.700000000001,19.324400000000001,-39.017299999999999,-52.140599999999999
214587.0,61.123800000000003,-9348.2600000000002,-9352.0100000000002,-9336.1499999999996,18.8934,-23.999099999999999,-15.610900000000001
214588.0,44.173200000000001,-8386.6000000000004,-8380.8099999999995,-8391.3899999999994,20.378299999999999,-14.090400000000001,2.9227099999999999
214589.0,54.097700000000003,-7205.4700000000003,-7199.0100000000002,-7224.6499999999996,25.685300000000002,-10.962899999999999,4.2135899999999999
214590.0,59.098799999999997,-6170.2700000000004,-6171.6599999999999,-6193.8299999999999,28.7501,-12.590299999999999,-2.07328
214591.0,55.5242,-5365.2299999999996,-5362.6599999999999,-5392.3400000000001,25.830400000000001,-8.7907899999999994,3.5669200000000001
214592.0,62.346400000000003,-4463.1000000000004,-4444.4700000000003,-4497.5100000000002,22.191800000000001,-2.4381900000000001,8.5472199999999994
214593.0,61.262300000000003,-2585.52,-2559.7600000000002,-2621.1599999999999,16.580500000000001,-2.2811699999999999,-4.4796199999999997
214594.0,54.820300000000003,-1869.1800000000001,-1849.24,-1899.22,14.736499999999999,-3.9677899999999999,-11.6594
214595.0,54.866599999999998,-1326.75,-1304.4300000000001,-1354.79,12.9436,-2.3831500000000001,-13.9057
214596.0,61.2866,-820.18499999999995,-794.21900000000005,-851.25999999999999,12.346299999999999,-1.0067600000000001,-16.822199999999999
214597.0,60.2059,-325.84100000000001,-305.86000000000001,-354.82299999999998,11.231,-2.8388,-21.632000000000001
214598.0,45.217799999999997,31.089700000000001,22.7864,25.415199999999999,2.6368800000000001,-8.4659300000000002,-24.185099999999998
214599.0,51.892499999999998,29.779399999999999,3.4621200000000001,33.488100000000003,-2.7898800000000001,-9.3175799999999995,-23.130600000000001
214600.0,49.982700000000001,36.460999999999999,-5.4232300000000002,38.069600000000001,-6.7534799999999997,-3.5278999999999998,-12.907999999999999
214601.0,49.751300000000001,38.160499999999999,-5.5215899999999998,38.207900000000002,-7.3934100000000003,-2.4765799999999998,-11.293200000000001
214602.0,52.037300000000002,30.022600000000001,1.1338600000000001,34.350000000000001,-3.3152200000000001,-8.7689900000000005,-22.1052
214603.0,44.507899999999999,37.849600000000002,25.6004,35.9983,0.94331799999999999,-9.1524199999999993,-23.066500000000001
214604.0,44.915900000000001,9.5753000000000004,4.3727900000000002,2.3834499999999998,2.7592500000000002,-8.4353700000000007,-24.081499999999998
214605.0,51.110300000000002,50.518799999999999,38.921500000000002,47.732700000000001,2.35182,-10.232900000000001,-26.904699999999998
214606.0,45.5212,33.623100000000001,20.8931,31.345300000000002,0.69540299999999999,-9.2175399999999996,-23.647400000000001
214607.0,47.138199999999998,33.213099999999997,17.635000000000002,32.802500000000002,-0.31129099999999998,-9.7148299999999992,-23.819700000000001
214608.0,48.969999999999999,31.1721,13.2173,31.6586,-0.89492099999999997,-9.8998699999999999,-24.291899999999998
214609.0,50.383899999999997,30.7669,9.95092,32.593200000000003,-1.6103099999999999,-9.9359099999999998,-24.220700000000001
214610.0,51.404899999999998,29.5654,5.9889400000000004,32.381500000000003,-2.2033800000000001,-9.7246000000000006,-23.902699999999999
214611.0,51.844499999999996,31.404299999999999,0.093961699999999995,36.089399999999998,-3.8485,-8.0929300000000008,-20.8003
214612.0,51.505699999999997,31.953299999999999,-1.67205,36.636299999999999,-4.3896800000000002,-7.3025900000000004,-19.364799999999999
214613.0,51.033799999999999,32.819000000000003,-3.0204200000000001,37.159599999999998,-4.9468300000000003,-6.4129800000000001,-17.783799999999999
214614.0,50.622300000000003,33.783000000000001,-4.1626799999999999,37.508400000000002,-5.4999200000000004,-5.5031400000000001,-16.185400000000001
214615.0,50.222499999999997,35.571399999999997,-4.3474199999999996,38.402999999999999,-6.10745,-4.54399,-14.536099999999999
214616.0,49.957000000000001,40.740600000000001,-4.8234399999999997,39.122999999999998,-8.1295900000000003,-1.4615199999999999,-9.7643299999999993
214617.0,49.819800000000001,41.734299999999998,-5.3455700000000004,37.793599999999998,-8.9116900000000001,-0.21197299999999999,-8.1057900000000007
214618.0,50.168900000000001,44.790900000000001,-3.9140199999999998,38.2102,-9.6959300000000006,1.0279700000000001,-6.7515099999999997
214619.0,50.898499999999999,45.818899999999999,-4.5660999999999996,36.404499999999999,-10.521000000000001,2.2935699999999999,-5.4733499999999999
214620.0,51.839700000000001,49.7164,-2.3159800000000001,37.375799999999998,-11.272500000000001,3.52583,-4.1351300000000002
214621.0,46.781500000000001,29.950500000000002,24.1265,27.2315,1.18089,-9.6717700000000004,-25.0215
214622.0,52.0488,28.7926,5.0383899999999997,35.407299999999999,-3.3308599999999999,-9.2677999999999994,-23.473199999999999
214623.0,49.941200000000002,35.832599999999999,-4.3601000000000001,39.321599999999997,-7.1756700000000002,-3.89581,-13.2446
214624.0,49.790500000000002,37.939700000000002,-4.2276699999999998,39.855899999999998,-7.79901,-2.98603,-11.651999999999999
214625.0,51.943899999999999,29.313800000000001,2.9288599999999998,36.2806,-3.8755899999999999,-8.6591699999999996,-22.358000000000001
214626.0,46.333300000000001,34.486499999999999,25.375900000000001,35.176499999999997,0.053364599999999998,-9.9847099999999998,-24.206900000000001
214627.0,44.853700000000003,16.941500000000001,14.2081,11.673400000000001,1.60825,-9.6519100000000009,-23.831299999999999
214628.0,49.564500000000002,43.325000000000003,36.014299999999999,42.027299999999997,0.89889699999999995,-10.647399999999999,-26.258199999999999
214629.0,47.632399999999997,30.205400000000001,19.959900000000001,31.087700000000002,-0.24665000000000001,-10.0289,-24.847100000000001
214630.0,48.914000000000001,30.106999999999999,17.052,32.817700000000002,-1.0270300000000001,-10.219200000000001,-24.919499999999999
214631.0,50.317300000000003,28.780200000000001,13.2804,32.543500000000002,-1.5738300000000001,-10.220599999999999,-25.154699999999998
214632.0,51.259599999999999,28.332100000000001,10.013400000000001,33.331899999999997,-2.20723,-10.0649,-24.878799999999998
214633.0,51.8797,28.5656,7.5268600000000001,34.475200000000001,-2.76098,-9.7462599999999995,-24.3706
214634.0,51.5946,29.6357,0.70769199999999999,36.664200000000001,-4.4160500000000003,-7.9468399999999999,-21.011800000000001
214635.0,51.196100000000001,30.677800000000001,-0.67135599999999995,37.505499999999998,-4.9285800000000002,-7.1967400000000001,-19.573499999999999
214636.0,50.754199999999997,32.0884,-1.56029,38.488999999999997,-5.4604400000000002,-6.4114800000000001,-18.0245
214637.0,50.395699999999998,33.221600000000002,-2.6695099999999998,38.897199999999998,-6.0069499999999998,-5.59232,-16.4678
214638.0,50.107599999999998,34.430300000000003,-3.6609400000000001,39.118899999999996,-6.57864,-4.7441800000000001,-14.8537
214639.0,50.167299999999997,38.209499999999998,-6.1689299999999996,38.444800000000001,-8.4831599999999998,-2.1028899999999999,-10.126799999999999
214640.0,50.037599999999998,41.3825,-4.7225599999999996,39.363700000000001,-9.1557099999999991,-1.0729200000000001,-8.4093099999999996
214641.0,50.431399999999996,43.115299999999998,-4.8346499999999999,38.6494,-9.8545200000000008,-0.112627,-6.9988099999999998
214642.0,50.989899999999999,45.688600000000001,-4.0174899999999996,38.507599999999996,-10.6257,0.911111,-5.5809199999999999
214643.0,51.865900000000003,48.496600000000001,-2.9941399999999998,38.303400000000003,-11.475199999999999,2.0015000000000001,-4.1897599999999997
214644.0,48.474499999999999,26.940799999999999,24.441500000000001,28.025600000000001,0.082677299999999995,-10.5396,-25.861000000000001
214645.0,52.120800000000003,27.1233,5.6992700000000003,36.295200000000001,-3.9453200000000002,-8.8422000000000001,-23.774699999999999
214646.0,49.956400000000002,35.176900000000003,-3.5713699999999999,40.181199999999997,-7.71793,-3.9587699999999999,-13.5345
214647.0,49.895800000000001,36.919499999999999,-4.02074,40.267400000000002,-8.30687,-3.1898,-11.9399
214648.0,51.881999999999998,27.713200000000001,3.6046,37.071199999999997,-4.4584000000000001,-8.24742,-22.610099999999999
214649.0,48.100099999999998,30.580400000000001,24.788900000000002,34.484299999999998,-0.81690300000000005,-10.433299999999999,-25.256399999999999
214650.0,46.834200000000003,17.128900000000002,18.092099999999999,15.694699999999999,0.63448899999999997,-10.6989,-24.7957
214651.0,50.041899999999998,38.681199999999997,35.995699999999999,40.605499999999999,-0.036277999999999998,-11.254899999999999,-26.508400000000002
214652.0,49.314900000000002,27.887499999999999,20.501000000000001,32.264000000000003,-1.0863100000000001,-10.351699999999999,-25.825700000000001
214653.0,50.299599999999998,27.591999999999999,17.308399999999999,33.6357,-1.76275,-10.2859,-25.812799999999999
214654.0,51.315300000000001,26.5688,13.653,33.571899999999999,-2.2714699999999999,-10.106199999999999,-25.852499999999999
214655.0,51.889499999999998,26.7455,10.942600000000001,34.782600000000002,-2.8608600000000002,-9.7997099999999993,-25.420000000000002
214656.0,52.187100000000001,26.398199999999999,7.77095,35.107399999999998,-3.4045999999999998,-9.3752600000000008,-24.7654
214657.0,51.471600000000002,29.233000000000001,2.53599,38.527000000000001,-4.97525,-7.5959399999999997,-21.250399999999999
214658.0,51.042200000000001,30.0672,0.85121599999999997,38.993699999999997,-5.49838,-6.9049800000000001,-19.811800000000002
214659.0,50.599899999999998,31.2988,-0.39133800000000002,39.584899999999998,-6.0318699999999996,-6.1771700000000003,-18.2685
214660.0,50.272300000000001,32.311999999999998,-1.77295,39.729799999999997,-6.5648,-5.4536100000000003,-16.724699999999999
214661.0,50.0488,34.194200000000002,-2.2269800000000002,40.552,-7.1296999999999997,-4.7170100000000001,-15.134399999999999
214662.0,50.346899999999998,38.945399999999999,-4.3349900000000003,40.652799999999999,-8.9658200000000008,-2.4611000000000001,-10.4161
214663.0,50.319200000000002,40.366900000000001,-4.8983800000000004,39.757300000000001,-9.6097300000000008,-1.5813699999999999,-8.6747999999999994
214664.0,50.792200000000001,42.900300000000001,-4.4555999999999996,39.779499999999999,-10.2796,-0.76481900000000003,-7.2238100000000003
214665.0,51.4373,44.172899999999998,-5.2171200000000004,38.300400000000003,-11.003399999999999,0.087668999999999997,-5.7369300000000001
214666.0,52.246899999999997,47.5199,-3.87419,38.580100000000002,-11.705500000000001,0.951955,-4.2481099999999996
214667.0,50.129300000000001,24.891200000000001,25.752800000000001,30.083400000000001,-0.82689299999999999,-10.7385,-26.719100000000001
214668.0,52.250399999999999,26.2456,7.0589399999999998,37.826300000000003,-4.5747900000000001,-8.1960200000000007,-24.092600000000001
214669.0,50.051600000000001,34.896900000000002,-2.58399,41.293399999999998,-8.2521199999999997,-3.8629500000000001,-13.791600000000001
214670.0,50.058500000000002,37.204500000000003,-2.6438299999999999,41.858899999999998,-8.8324599999999993,-3.21252,-12.1906
214671.0,51.913600000000002,27.2041,5.2189800000000002,38.773600000000002,-5.0825699999999996,-7.6234299999999999,-22.888300000000001
214672.0,49.608800000000002,27.5687,25.1523,34.891300000000001,-1.6064499999999999,-10.368399999999999,-26.163699999999999
214673.0,50.124299999999998,17.506599999999999,23.071999999999999,21.160599999999999,0.085559300000000005,-11.4611,-26.422000000000001
214674.0,51.3476,31.9023,33.817999999999998,37.7241,-0.76259500000000002,-11.4023,-27.193000000000001
214675.0,50.539000000000001,25.2638,20.679400000000001,32.985999999999997,-1.9534400000000001,-10.1356,-26.573799999999999
214676.0,51.2288,25.399799999999999,17.773299999999999,34.473500000000001,-2.5355599999999998,-9.8669100000000007,-26.4786
214677.0,51.970199999999998,24.929600000000001,14.491099999999999,34.835299999999997,-3.0232299999999999,-9.5690899999999992,-26.383700000000001
214678.0,52.314799999999998,24.979399999999998,11.556800000000001,35.718899999999998,-3.5553599999999999,-9.1752599999999997,-25.863199999999999
214679.0,52.440800000000003,25.6325,9.3116000000000003,36.911099999999998,-4.0598200000000002,-8.7234200000000008,-25.130600000000001
214680.0,51.439100000000003,27.942399999999999,3.2216200000000002,39.225200000000001,-5.5912499999999996,-7.0081699999999998,-21.5059
214681.0,50.994199999999999,29.214500000000001,1.84168,39.970100000000002,-6.0908600000000002,-6.3894700000000002,-20.060500000000001
214682.0,50.5715,30.675799999999999,0.72836000000000001,40.6995,-6.6060499999999998,-5.7600199999999999,-18.524899999999999
214683.0,50.274700000000003,32.077300000000001,-0.40975099999999998,41.109499999999997,-7.1339499999999996,-5.1296299999999997,-16.985399999999998
214684.0,50.092700000000001,33.427799999999998,-1.5950500000000001,41.234200000000001,-7.6828500000000002,-4.4929699999999997,-15.3916
214685.0,50.574399999999997,37.827500000000001,-4.6160899999999998,40.646900000000002,-9.4695900000000002,-2.5870899999999999,-10.6395
214686.0,50.633099999999999,40.836799999999997,-3.81386,41.255400000000002,-10.074199999999999,-1.87503,-8.8722399999999997
214687.0,51.165700000000001,42.659399999999998,-4.2648599999999997,40.5197,-10.7127,-1.2258500000000001,-7.3728199999999999
214688.0,51.871299999999998,45.220300000000002,-3.9500700000000002,40.258899999999997,-11.392799999999999,-0.54930699999999999,-5.8295599999999999
214689.0,52.6526,48.232500000000002,-3.0544199999999999,40.057699999999997,-12.0976,0.16578899999999999,-4.2913399999999999
214690.0,51.5809,22.192799999999998,26.332000000000001,31.097200000000001,-1.69038,-10.302099999999999,-27.5321
214691.0,52.340200000000003,25.280100000000001,8.0447900000000008,38.802999999999997,-5.2781700000000003,-7.3092699999999997,-24.3765
214692.0,50.222799999999999,34.735999999999997,-1.70373,42.340200000000003,-8.7559500000000003,-3.5952899999999999,-14.032999999999999
214693.0,50.288499999999999,36.490099999999998,-2.5331100000000002,42.212699999999998,-9.3048999999999999,-3.0862599999999998,-12.4061
214694.0,51.979300000000002,26.060600000000001,5.93703,39.470100000000002,-5.7483399999999998,-6.7889799999999996,-23.1648
214695.0,50.816200000000002,24.960000000000001,25.479600000000001,35.406100000000002,-2.4171499999999999,-9.79251,-26.914100000000001
214696.0,53.230600000000003,14.1473,23.9359,22.5517,-0.339505,-11.2057,-28.1204
214697.0,53.2742,28.2789,34.064700000000002,38.111600000000003,-1.31589,-10.9427,-28.286899999999999
214698.0,51.390799999999999,23.769500000000001,21.849399999999999,34.458100000000002,-2.8013699999999999,-9.4609699999999997,-27.144600000000001
214699.0,51.859699999999997,23.860700000000001,18.717600000000001,35.607100000000003,-3.3538199999999998,-9.0844000000000005,-26.976900000000001
214700.0,52.386000000000003,23.580300000000001,15.456799999999999,35.965400000000002,-3.8184800000000001,-8.7131299999999996,-26.7881
214701.0,52.589100000000002,24.123999999999999,12.895300000000001,37.150199999999998,-4.3185000000000002,-8.2809600000000003,-26.2164
214702.0,52.5976,24.287299999999998,10.0345,37.670299999999997,-4.79976,-7.8166799999999999,-25.436900000000001
214703.0,51.511600000000001,27.6661,4.73048,40.7239,-6.2216100000000001,-6.2523,-21.786899999999999
214704.0,51.073300000000003,28.721299999999999,3.0263900000000001,41.159399999999998,-6.70451,-5.71448,-20.3399
214705.0,50.657200000000003,30.239999999999998,1.8087,41.7986,-7.1952999999999996,-5.17075,-18.797699999999999
214706.0,50.383699999999997,31.381,0.263876,41.843899999999998,-7.69679,-4.6446300000000003,-17.250699999999998
214707.0,50.227200000000003,33.442999999999998,-0.32376700000000003,42.622399999999999,-8.21739,-4.1165799999999999,-15.651899999999999
214708.0,50.831299999999999,38.636899999999997,-3.0895199999999998,42.491900000000001,-9.9168199999999995,-2.5952799999999998,-10.8286
214709.0,50.963900000000002,40.405099999999997,-3.7537699999999998,41.737699999999997,-10.4825,-2.0358000000000001,-9.0297099999999997
214710.0,51.554400000000001,43.113900000000001,-3.5438000000000001,41.7209,-11.0968,-1.5424599999999999,-7.4701599999999999
214711.0,52.320399999999999,44.711300000000001,-4.4139799999999996,40.338299999999997,-11.7364,-1.03182,-5.8710899999999997
214712.0,53.268900000000002,48.0443,-3.4925299999999999,40.397599999999997,-12.411199999999999,-0.49901299999999998,-4.2536199999999997
214713.0,52.6462,19.725200000000001,26.893999999999998,31.363800000000001,-2.53464,-9.3638200000000005,-28.201000000000001
214714.0,52.471899999999998,24.711200000000002,9.2738200000000006,39.880600000000001,-6.0303699999999996,-6.2712500000000002,-24.655100000000001
214715.0,50.455800000000004,34.450699999999998,-1.07247,43.174300000000002,-9.2338000000000005,-3.2059000000000002,-14.2744
214716.0,50.551600000000001,36.9953,-1.23393,43.8202,-9.7277299999999993,-2.8189000000000002,-12.632899999999999
214717.0,52.105899999999998,25.8886,7.4565400000000004,40.848500000000001,-6.4694900000000004,-5.8056099999999997,-23.445499999999999
214718.0,51.816099999999999,23.6145,26.600899999999999,36.842399999999998,-3.3128700000000002,-8.8257700000000003,-27.531300000000002
214719.0,55.363999999999997,7.9532699999999998,21.159199999999998,19.6874,-0.99817800000000001,-10.212999999999999,-29.394600000000001
214720.0,55.851799999999997,26.247299999999999,34.681899999999999,39.631100000000004,-2.17049,-10.0185,-29.815000000000001
214721.0,51.917400000000001,22.048999999999999,22.518799999999999,35.045999999999999,-3.6983100000000002,-8.4472400000000007,-27.5517
214722.0,52.217500000000001,22.8339,19.857299999999999,36.728299999999997,-4.2343099999999998,-8.0147700000000004,-27.3063
214723.0,52.601900000000001,22.708300000000001,16.663499999999999,37.030900000000003,-4.6767200000000004,-7.6197100000000004,-27.073499999999999
214724.0,52.747300000000003,23.109300000000001,13.8385,37.950699999999998,-5.1431500000000003,-7.1793500000000003,-26.485700000000001
214725.0,52.7271,23.898599999999998,11.529400000000001,38.997900000000001,-5.5849399999999996,-6.7375100000000003,-25.707599999999999
214726.0,51.639699999999998,26.847899999999999,5.4650400000000001,41.340899999999998,-6.90876,-5.3346799999999996,-22.067499999999999
214727.0,51.2119,28.252099999999999,3.9820799999999998,42.038899999999998,-7.34734,-4.88218,-20.619499999999999
214728.0,50.822200000000002,29.7347,2.6312199999999999,42.609499999999997,-7.7966899999999999,-4.4359299999999999,-19.080400000000001
214729.0,50.566099999999999,31.390599999999999,1.4713400000000001,43.103400000000001,-8.2552699999999994,-4.0115800000000004,-17.525300000000001
214730.0,50.4358,32.811100000000003,0.056451099999999997,43.116999999999997,-8.7343799999999998,-3.6033200000000001,-15.9092
214731.0,51.131900000000002,37.9893,-3.1816399999999998,42.779400000000003,-10.2828,-2.4647800000000002,-11.012700000000001
214732.0,51.307400000000001,40.941699999999997,-2.8505199999999999,43.110799999999998,-10.7949,-2.0883799999999999,-9.1710600000000007
214733.0,51.933,43.1098,-3.3487399999999998,42.484299999999998,-11.3545,-1.76834,-7.5531600000000001
214734.0,52.721699999999998,45.787799999999997,-3.3210899999999999,42.048400000000001,-11.9314,-1.45539,-5.8913000000000002
214735.0,53.772599999999997,49.146000000000001,-2.6459100000000002,42.0092,-12.5375,-1.1289800000000001,-4.1790399999999996
214736.0,53.369,17.080300000000001,26.945699999999999,30.550000000000001,-3.47689,-8.1853400000000001,-28.665299999999998
214737.0,52.576099999999997,24.3599,10.462300000000001,40.707299999999996,-6.8441400000000003,-5.0991900000000001,-24.8874
214738.0,50.7134,34.632899999999999,-0.156995,44.250500000000002,-9.6692900000000002,-2.68222,-14.5184
214739.0,50.844299999999997,36.322400000000002,-1.3690800000000001,43.936199999999999,-10.114100000000001,-2.46407,-12.838100000000001
214740.0,52.238100000000003,25.189900000000002,8.1991099999999992,41.270899999999997,-7.23963,-4.6944999999999997,-23.699200000000001
214741.0,52.570599999999999,22.823699999999999,27.807700000000001,38.249499999999998,-4.3269799999999998,-7.5613900000000003,-27.988399999999999
214742.0,56.401200000000003,-0.413636,15.464499999999999,13.267200000000001,-2.1199400000000002,-8.9639900000000008,-30.024999999999999
214743.0,58.4876,27.060300000000002,37.476199999999999,43.368000000000002,-3.5041699999999998,-8.8311399999999995,-31.3338
214744.0,52.243600000000001,21.218900000000001,23.854900000000001,35.966799999999999,-4.6284200000000002,-7.2226299999999997,-27.827200000000001
214745.0,52.432000000000002,22.223800000000001,21.182300000000001,37.809800000000003,-5.1712800000000003,-6.7527600000000003,-27.518799999999999
214746.0,52.7151,22.073499999999999,17.920400000000001,37.878999999999998,-5.57944,-6.3700999999999999,-27.270600000000002
214747.0,52.843400000000003,22.8964,15.388199999999999,39.127000000000002,-6.02569,-5.9365600000000001,-26.683900000000001
214748.0,52.814900000000002,23.255600000000001,12.5519,39.620100000000001,-6.4378200000000003,-5.5236499999999999,-25.923100000000002
214749.0,51.810200000000002,26.822900000000001,6.7968500000000001,42.425199999999997,-7.6314299999999999,-4.2982699999999996,-22.34
214750.0,51.4101,28.011900000000001,5.0035699999999999,42.885399999999997,-8.0260899999999999,-3.9268399999999999,-20.901900000000001
214751.0,51.035200000000003,29.717700000000001,3.7349999999999999,43.609699999999997,-8.4220299999999995,-3.5757300000000001,-19.3598
214752.0,50.799500000000002,30.902999999999999,1.98746,43.599600000000002,-8.8331999999999997,-3.25624,-17.797599999999999
214753.0,50.677100000000003,33.152700000000003,1.3291500000000001,44.464399999999998,-9.2474900000000009,-2.94659,-16.1751
214754.0,51.429000000000002,38.604100000000003,-2.0827300000000002,44.231699999999996,-10.615399999999999,-2.2421799999999998,-11.1915
214755.0,51.630699999999997,40.6738,-2.7859099999999999,43.6631,-11.035299999999999,-2.0239600000000002,-9.3185500000000001
214756.0,52.2761,43.529800000000002,-2.7680600000000002,43.643700000000003,-11.5176,-1.8939299999999999,-7.6437900000000001
214757.0,53.084400000000002,45.426400000000001,-3.6762000000000001,42.364400000000003,-12.0139,-1.7857000000000001,-5.9244500000000002
214758.0,54.122100000000003,48.911200000000001,-3.0007100000000002,42.404600000000002,-12.513999999999999,-1.68329,-4.14276
214759.0,53.819000000000003,15.6584,27.700500000000002,30.392299999999999,-4.5526299999999997,-6.9031099999999999,-28.905999999999999
214760.0,52.688099999999999,24.1599,11.6213,41.305999999999997,-7.6998100000000003,-3.8349500000000001,-25.085599999999999
214761.0,50.9876,34.465000000000003,0.286464,44.751800000000003,-10.1473,-2.0720399999999999,-14.7464
214762.0,51.113799999999998,37.279000000000003,0.16830000000000001,45.667400000000001,-10.49,-1.9412199999999999,-13.068199999999999
214763.0,52.395000000000003,25.437999999999999,9.7043599999999994,42.281300000000002,-8.0536399999999997,-3.4887899999999998,-23.9297
214764.0,53.0456,22.448499999999999,29.2014,39.402000000000001,-5.4374500000000001,-6.1283500000000002,-28.2485
214765.0,56.727400000000003,-4.9710999999999999,13.2773,10.068899999999999,-3.5491000000000001,-7.67157,-30.104800000000001
214766.0,60.207599999999999,26.871300000000002,39.131799999999998,45.201999999999998,-5.1493700000000002,-7.4296499999999996,-32.239800000000002
214767.0,52.384599999999999,20.314900000000002,24.799399999999999,36.272599999999997,-5.6391099999999996,-5.8689499999999999,-27.941700000000001
214768.0,52.4861,21.943000000000001,22.592099999999999,38.667400000000001,-6.15395,-5.3622699999999996,-27.6022
214769.0,52.720300000000002,21.7348,19.225000000000001,38.522100000000002,-6.5332400000000002,-5.0103099999999996,-27.360700000000001
214770.0,52.861800000000002,22.443200000000001,16.4663,39.570900000000002,-6.9500400000000004,-4.58847,-26.800799999999999
214771.0,52.875999999999998,23.1905,13.936199999999999,40.3842,-7.3283100000000001,-4.21584,-26.083600000000001
214772.0,51.990200000000002,26.549099999999999,7.6482599999999996,42.853900000000003,-8.3966499999999993,-3.1622699999999999,-22.584700000000002
214773.0,51.613900000000001,27.990600000000001,5.98231,43.522100000000002,-8.73719,-2.8781599999999998,-21.155899999999999
214774.0,51.256,29.495200000000001,4.4283400000000004,44.051200000000001,-9.0752000000000006,-2.6154999999999999,-19.617000000000001
214775.0,51.037599999999998,31.3292,3.2128700000000001,44.6721,-9.4129799999999992,-2.4033199999999999,-18.055199999999999
214776.0,50.935099999999998,32.727499999999999,1.5360499999999999,44.614400000000003,-9.7701100000000007,-2.2349600000000001,-16.411999999999999
214777.0,51.727400000000003,38.394599999999997,-1.9219200000000001,44.710299999999997,-10.8873,-1.88418,-11.3949
214778.0,51.9557,41.234999999999999,-1.99485,44.908499999999997,-11.231999999999999,-1.8760399999999999,-9.4735099999999992
214779.0,52.585000000000001,43.582299999999996,-2.5496699999999999,44.435400000000001,-11.626300000000001,-1.92693,-7.7520899999999999
214780.0,53.395499999999998,46.256500000000003,-2.7781799999999999,43.973799999999997,-12.0214,-2.02101,-5.9891199999999998
214781.0,54.4465,49.760199999999998,-2.1884299999999999,44.063699999999997,-12.435600000000001,-2.13957,-4.1459599999999996
214782.0,54.093899999999998,15.0566,28.943000000000001,30.741299999999999,-5.7840600000000002,-5.5580400000000001,-28.937100000000001
214783.0,52.772300000000001,24.377400000000002,12.9422,41.841999999999999,-8.5760900000000007,-2.5026999999999999,-25.232199999999999
214784.0,51.251600000000003,35.237699999999997,1.417,45.808,-10.566000000000001,-1.3965700000000001,-14.9765
214785.0,51.422400000000003,36.652000000000001,-0.28367799999999999,45.276400000000002,-10.8659,-1.4988900000000001,-13.2432
214786.0,52.5244,25.218599999999999,10.465999999999999,42.332500000000003,-8.8895400000000002,-2.2223899999999999,-24.110299999999999
214787.0,53.290500000000002,22.1463,30.514800000000001,40.0413,-6.5923499999999997,-4.6247400000000001,-28.3127
214788.0,56.570900000000002,-6.5819700000000001,13.599,9.3403100000000006,-4.9224399999999999,-6.3034999999999997,-29.826799999999999
214789.0,61.023299999999999,26.747900000000001,40.757399999999997,46.308599999999998,-6.7586399999999998,-5.8892699999999998,-32.546900000000001
214790.0,52.421399999999998,20.355599999999999,26.503799999999998,37.144300000000001,-6.69367,-4.4268400000000003,-27.918700000000001
214791.0,52.456800000000001,21.821999999999999,24.014299999999999,39.246699999999997,-7.16106,-3.8898299999999999,-27.581700000000001
214792.0,52.6723,21.779900000000001,20.747199999999999,39.148299999999999,-7.5034799999999997,-3.5663399999999998,-27.3657
214793.0,52.851399999999998,22.732600000000001,18.113,40.341700000000003,-7.89236,-3.1647500000000002,-26.8551
214794.0,52.910600000000002,23.226199999999999,15.215999999999999,40.815300000000001,-8.2438199999999995,-2.8320400000000001,-26.186199999999999
214795.0,52.168500000000002,26.896899999999999,8.8814200000000003,43.472999999999999,-9.1823800000000002,-1.9678800000000001,-22.796399999999998
214796.0,51.8322,28.206199999999999,6.9888300000000001,44.020499999999998,-9.4682999999999993,-1.7613399999999999,-21.389399999999998
214797.0,51.499400000000001,30.073399999999999,5.6673900000000001,44.887500000000003,-9.7456800000000001,-1.6015699999999999,-19.856999999999999
214798.0,51.297199999999997,31.236799999999999,3.7021799999999998,44.861199999999997,-10.0406,-1.48146,-18.289000000000001
214799.0,51.182499999999997,33.7089,3.0776699999999999,45.954300000000003,-10.307399999999999,-1.3809499999999999,-16.652200000000001
214800.0,52.007100000000001,39.065199999999997,-1.0077499999999999,45.7836,-11.218299999999999,-1.5408599999999999,-11.545
214801.0,52.231699999999996,41.240900000000003,-1.77685,45.453499999999998,-11.435,-1.6417900000000001,-9.6313999999999993
214802.0,52.877800000000001,44.091200000000001,-1.9300900000000001,45.5501,-11.7195,-1.8795900000000001,-7.8778899999999998
214803.0,53.697200000000002,46.011699999999998,-2.9709099999999999,44.447899999999997,-12.017799999999999,-2.1753300000000002,-6.0763600000000002
214804.0,54.746400000000001,49.429299999999998,-2.52732,44.583599999999997,-12.307700000000001,-2.5020500000000001,-4.1930100000000001
214805.0,54.265999999999998,14.360799999999999,30.054200000000002,30.634499999999999,-7.0444800000000001,-4.19686,-28.7944
214806.0,52.839100000000002,24.592400000000001,14.0463,41.930599999999998,-9.4603900000000003,-1.1335200000000001,-25.3307
214807.0,51.583100000000002,35.3598,1.7656499999999999,45.992400000000004,-11.120799999999999,-0.69737199999999999,-15.160600000000001
214808.0,51.711599999999997,38.489699999999999,1.87653,47.357599999999998,-11.305300000000001,-0.76487499999999997,-13.479100000000001
214809.0,52.666200000000003,25.997,12.0322,42.985399999999998,-9.7289300000000001,-0.91055399999999997,-24.2654
214810.0,53.445799999999998,22.171600000000002,31.999500000000001,40.674100000000003,-7.7965900000000001,-3.0765099999999999,-28.217099999999999
214811.0,56.136499999999998,-8.6429200000000002,13.1454,7.6075400000000002,-6.1690199999999997,-4.8597900000000003,-29.334599999999998
214812.0,61.975900000000003,27.019500000000001,42.401299999999999,47.444400000000002,-8.3872,-4.2813400000000001,-32.8399
214813.0,52.307699999999997,19.999700000000001,27.6599,37.175199999999997,-7.7710999999999997,-2.9361899999999999,-27.730599999999999
214814.0,52.2881,22.055299999999999,25.582999999999998,39.706099999999999,-8.1685499999999998,-2.36104,-27.4191
214815.0,52.5002,21.857800000000001,22.066800000000001,39.287399999999998,-8.4733499999999999,-2.0754299999999999,-27.250499999999999
214816.0,52.744500000000002,22.758199999999999,19.239899999999999,40.3202,-8.8327100000000005,-1.6989399999999999,-26.812200000000001
214817.0,52.886099999999999,23.489899999999999,16.4694,40.966099999999997,-9.1578199999999992,-1.41598,-26.2166
214818.0,52.357700000000001,27.219899999999999,9.8568999999999996,43.646599999999999,-9.9664999999999999,-0.73156399999999999,-22.986899999999999
214819.0,52.0501,28.696200000000001,7.9992799999999997,44.340400000000002,-10.193,-0.61926199999999998,-21.598500000000001
214820.0,51.743499999999997,30.23,6.2418899999999997,44.892299999999999,-10.401199999999999,-0.54781299999999999,-20.081499999999998
214821.0,51.586500000000001,32.267800000000001,5.0081300000000004,45.749299999999998,-10.614000000000001,-0.57157800000000003,-18.528099999999998
214822.0,51.518999999999998,33.496000000000002,2.99559,45.611699999999999,-10.856199999999999,-0.66892200000000002,-16.859200000000001
214823.0,52.318899999999999,39.500300000000003,-0.44531300000000001,46.447899999999997,-11.4993,-1.0178700000000001,-11.7758
214824.0,52.584600000000002,42.047400000000003,-0.95558500000000002,46.585299999999997,-11.6394,-1.39181,-9.7963400000000007
214825.0,53.171300000000002,44.3932,-1.5502899999999999,46.354999999999997,-11.841900000000001,-1.7968,-8.0005199999999999
214826.0,53.9679,46.858800000000002,-2.0555099999999999,45.965899999999998,-12.011900000000001,-2.2665600000000001,-6.1790200000000004
214827.0,55.020499999999998,50.279299999999999,-1.6367799999999999,46.278399999999998,-12.1883,-2.7901699999999998,-4.2686200000000003
214828.0,54.539000000000001,13.0062,30.920100000000001,29.6189,-8.2852399999999999,-2.8454700000000002,-28.548100000000002
214829.0,52.8994,25.355599999999999,15.472799999999999,42.113500000000002,-10.317299999999999,0.25844400000000001,-25.3949
214830.0,52.102699999999999,36.586599999999997,2.9127200000000002,47.036099999999998,-11.5204,-0.017892100000000001,-15.5084
214831.0,52.238799999999998,37.380200000000002,0.54016399999999998,46.226500000000001,-11.650600000000001,-0.51600199999999996,-13.657
214832.0,52.784300000000002,26.173400000000001,12.7438,42.554200000000002,-10.548999999999999,0.402451,-24.380199999999999
214833.0,53.738500000000002,22.648900000000001,33.8322,41.7012,-9.0375599999999991,-1.3993199999999999,-28.059000000000001
214834.0,55.942799999999998,-15.405900000000001,8.1177100000000006,0.90586100000000003,-7.2748200000000001,-3.4445999999999999,-28.864699999999999
214835.0,64.350700000000003,28.7775,45.290799999999997,50.414099999999998,-10.3172,-2.6044999999999998,-33.753
214836.0,52.123399999999997,20.3415,29.559799999999999,37.578699999999998,-8.8000000000000007,-1.3810500000000001,-27.420200000000001
214837.0,52.048499999999997,22.537600000000001,27.278700000000001,40.070700000000002,-9.1387900000000002,-0.75157399999999996,-27.1419
214838.0,52.274099999999997,22.528500000000001,23.880600000000001,39.6173,-9.3940099999999997,-0.52984500000000001,-27.056999999999999
214839.0,52.623399999999997,23.620999999999999,21.052299999999999,40.7395,-9.7374500000000008,-0.18370800000000001,-26.7149
214840.0,52.861499999999999,24.2058,18.013300000000001,41.154899999999998,-10.0456,0.040489400000000002,-26.210799999999999
214841.0,52.554299999999998,27.878499999999999,10.962899999999999,43.745600000000003,-10.735799999999999,0.50972700000000004,-23.159600000000001
214842.0,52.337600000000002,29.308399999999999,8.9852900000000009,44.489899999999999,-10.904,0.55335400000000001,-21.8294
214843.0,52.125799999999998,31.251899999999999,7.5596899999999998,45.560699999999997,-11.055999999999999,0.52360099999999998,-20.3674
214844.0,52.009700000000002,32.380699999999997,5.3353799999999998,45.596400000000003,-11.221299999999999,0.47001799999999999,-18.824300000000001
214845.0,52.013500000000001,35.191400000000002,4.7832800000000004,47.0884,-11.3843,0.37522,-17.206800000000001
214846.0,52.7864,40.028799999999997,0.023179000000000002,47.156799999999997,-11.902799999999999,-0.75616399999999995,-11.877700000000001
214847.0,52.882399999999997,42.268300000000004,-0.58139099999999999,47.1404,-11.944800000000001,-1.09057,-9.9389699999999994
214848.0,53.430900000000001,44.971600000000002,-0.86831199999999997,47.408099999999997,-11.9605,-1.6450499999999999,-8.1375700000000002
214849.0,54.226500000000001,46.837200000000003,-2.0006400000000002,46.583500000000001,-12.0131,-2.30226,-6.2944899999999997
214850.0,55.258600000000001,50.053199999999997,-1.7926800000000001,46.871600000000001,-12.0519,-3.0149900000000001,-4.3715400000000004
214851.0,54.958100000000002,10.0398,30.733000000000001,26.7425,-9.4462899999999994,-1.4920899999999999,-28.192599999999999
214852.0,52.965400000000002,25.869800000000001,16.48,41.626800000000003,-11.1648,1.6429,-25.4222
214853.0,53.045099999999998,35.9283,2.2173699999999998,46.792700000000004,-11.982200000000001,1.1034900000000001,-15.902799999999999
214854.0,53.331600000000002,40.124299999999998,3.1843699999999999,49.091799999999999,-12.322699999999999,0.88773500000000005,-14.2608
214855.0,52.959699999999998,27.3597,14.3742,42.815800000000003,-11.3598,1.74274,-24.496700000000001
214856.0,54.142699999999998,23.490300000000001,35.809899999999999,42.945599999999999,-10.328200000000001,0.47217999999999999,-27.809799999999999
214857.0,56.5809,-28.902000000000001,-2.9142700000000001,-12.293799999999999,-8.4451300000000007,-2.0430000000000001,-28.6084
214858.0,68.814599999999999,32.052500000000002,49.673900000000003,55.526200000000003,-12.8786,-0.67245600000000005,-35.536999999999999
214859.0,51.727600000000002,19.930599999999998,30.680700000000002,36.7515,-9.74465,0.21720200000000001,-26.913699999999999
214860.0,51.612699999999997,23.419899999999998,29.1357,40.334699999999998,-10.0304,0.918076,-26.6922
214861.0,51.860199999999999,22.838999999999999,25.111499999999999,39.0047,-10.241,1.01084,-26.7209
214862.0,52.375,24.072099999999999,22.187799999999999,40.180799999999998,-10.5877,1.3189,-26.5093
214863.0,52.767499999999998,24.631699999999999,19.026700000000002,40.522599999999997,-10.8955,1.4640500000000001,-26.133199999999999
214864.0,52.806100000000001,28.603200000000001,12.0335,43.613100000000003,-11.4903,1.7927,-23.339500000000001
214865.0,52.665300000000002,29.946000000000002,9.8893699999999995,44.341500000000003,-11.589700000000001,1.74125,-22.085799999999999
214866.0,52.640000000000001,31.264099999999999,7.7181100000000002,45.002400000000002,-11.699999999999999,1.6697,-20.698599999999999
214867.0,52.769399999999997,33.099499999999999,6.29711,46.157200000000003,-11.8177,1.4451400000000001,-19.3263
214868.0,52.759999999999998,33.729300000000002,3.74621,45.989600000000003,-11.853,1.1268800000000001,-17.714600000000001
214869.0,53.447699999999998,40.465899999999998,0.65805199999999997,47.952500000000001,-12.3508,0.20300099999999999,-12.385
214870.0,53.335299999999997,42.830100000000002,-0.0090481799999999994,48.287300000000002,-12.0382,-0.59333899999999995,-10.166700000000001
214871.0,53.819299999999998,45.1678,-0.61903200000000003,48.190399999999997,-12.065799999999999,-1.3970899999999999,-8.3655100000000004
214872.0,54.4236,47.588500000000003,-1.1186,48.007300000000001,-11.9732,-2.2535699999999999,-6.4205100000000002
214873.0,55.429000000000002,50.916899999999998,-0.79169400000000001,48.554099999999998,-11.8865,-3.1696499999999999,-4.5160200000000001
214874.0,55.467700000000001,6.5838400000000004,30.621200000000002,23.150200000000002,-10.548500000000001,-0.085682400000000006,-27.621200000000002
214875.0,53.096600000000002,26.967300000000002,17.9223,41.322699999999998,-11.9755,3.0390899999999998,-25.452999999999999
214876.0,54.7117,34.440899999999999,1.1968099999999999,46.262700000000002,-12.7866,2.1154600000000001,-16.8476
214877.0,53.931100000000001,35.808199999999999,0.22064600000000001,46.906199999999998,-12.2278,1.27458,-14.9504
214878.0,53.171599999999998,27.571400000000001,14.845700000000001,41.673000000000002,-12.165900000000001,3.04488,-24.5976
214879.0,54.585299999999997,25.315999999999999,38.5642,44.877200000000002,-11.627800000000001,2.6310699999999998,-27.4114
214880.0,58.305799999999998,-48.619599999999998,-19.2422,-31.2592,-9.8376900000000003,-0.53299099999999999,-28.6005
214881.0,75.172200000000004,36.692700000000002,55.469900000000003,62.362099999999998,-16.259,1.66781,-37.947099999999999
214882.0,51.115000000000002,20.582799999999999,32.884,36.515700000000002,-10.550700000000001,1.89103,-26.197199999999999
214883.0,51.0,24.778300000000002,31.314399999999999,40.600900000000003,-10.8131,2.6709900000000002,-26.0715
214884.0,51.352400000000003,24.196899999999999,27.341799999999999,38.999099999999999,-10.9871,2.5864500000000001,-26.283100000000001
214885.0,52.128,25.522600000000001,24.242799999999999,40.226500000000001,-11.3691,2.8638499999999998,-26.257000000000001
214886.0,52.736699999999999,25.9297,20.8505,40.393500000000003,-11.7018,2.92631,-26.052600000000002
214887.0,53.106499999999997,29.2378,12.8858,43.049700000000001,-12.2826,3.0585800000000001,-23.492100000000001
214888.0,53.0456,30.589500000000001,10.852499999999999,43.972099999999998,-12.344799999999999,2.9826100000000002,-22.3398
214889.0,53.198599999999999,32.545299999999997,9.1359899999999996,45.520099999999999,-12.3941,2.9451299999999998,-21.001300000000001
214890.0,53.596299999999999,32.599800000000002,6.0326000000000004,44.924700000000001,-12.533300000000001,2.56948,-19.9696
214891.0,53.879600000000003,32.600999999999999,2.26498,44.349299999999999,-12.6061,2.5042399999999998,-18.191299999999998
214892.0,54.732399999999998,38.093499999999999,-2.2272400000000001,47.190600000000003,-12.1136,1.0811500000000001,-12.604100000000001
214893.0,54.327199999999998,43.130299999999998,0.108158,49.131799999999998,-12.351699999999999,0.082347600000000007,-10.7797
214894.0,53.931199999999997,44.999200000000002,-0.60526899999999995,48.469799999999999,-12.0547,-1.0148200000000001,-8.5528999999999993
214895.0,54.719799999999999,48.025300000000001,-0.72112200000000004,49.060099999999998,-11.8461,-2.0432000000000001,-6.6585099999999997
214896.0,55.491500000000002,50.452199999999998,-1.0751500000000001,48.808900000000001,-11.645,-3.26397,-4.7411899999999996
214897.0,55.518300000000004,2.5927199999999999,29.789400000000001,18.4937,-11.542999999999999,1.3093900000000001,-26.566700000000001
214898.0,53.1845,27.565000000000001,18.7225,40.039299999999997,-12.7842,4.36327,-25.410399999999999
214899.0,55.693100000000001,33.778300000000002,0.49330800000000002,44.097000000000001,-13.6472,2.9019499999999998,-17.887499999999999
214900.0,53.933,25.093900000000001,-11.639799999999999,33.453600000000002,-12.7933,2.0756299999999999,-15.0388
214901.0,53.4998,28.974399999999999,16.434999999999999,41.368600000000001,-12.9954,4.3715900000000003,-24.711600000000001
214902.0,54.346499999999999,27.706900000000001,41.2622,46.415700000000001,-12.8634,4.8207700000000004,-26.5032
214903.0,60.919800000000002,-71.128200000000007,-37.956099999999999,-52.802599999999998,-11.773199999999999,1.05579,-28.657399999999999
214904.0,81.781000000000006,42.846800000000002,62.695799999999998,70.132000000000005,-20.354800000000001,4.3269900000000003,-39.967199999999998
214905.0,49.7926,20.7376,34.195900000000002,35.002699999999997,-11.1942,3.4371999999999998,-25.001999999999999
214906.0,49.784700000000001,26.613099999999999,33.558799999999998,40.5398,-11.445,4.3017799999999999,-25.063800000000001
214907.0,50.356499999999997,24.784099999999999,28.465199999999999,37.489600000000003,-11.612399999999999,3.99417,-25.5289
214908.0,51.523899999999998,26.305599999999998,25.328700000000001,38.9099,-12.059699999999999,4.2523200000000001,-25.7683
214909.0,52.495899999999999,26.257300000000001,21.451499999999999,38.683700000000002,-12.454599999999999,4.2424799999999996,-25.815000000000001
214910.0,53.544499999999999,30.204899999999999,13.949,42.441000000000003,-13.095599999999999,4.3379300000000001,-23.686800000000002
214911.0,53.4878,31.170300000000001,11.456300000000001,43.093699999999998,-13.158899999999999,4.1772999999999998,-22.5334
214912.0,53.688000000000002,32.437100000000001,9.0921400000000006,44.1068,-13.1914,4.0878199999999998,-21.2653
214913.0,54.168300000000002,33.753399999999999,7.2744400000000002,44.978200000000001,-13.336600000000001,3.8970699999999998,-20.254200000000001
214914.0,55.0991,34.537999999999997,3.8708999999999998,45.666200000000003,-13.407,3.9706899999999998,-18.652799999999999
214915.0,55.937899999999999,36.858800000000002,-5.3684200000000004,44.622300000000003,-12.5784,2.3153800000000002,-12.477600000000001
214916.0,55.024299999999997,46.150399999999998,2.89134,51.957900000000002,-12.5547,0.77959000000000001,-11.4991
214917.0,54.046500000000002,44.1387,-1.6857599999999999,47.474499999999999,-11.808299999999999,-0.56337999999999999,-8.9049700000000005
214918.0,55.0839,49.972999999999999,0.95377100000000004,51.298499999999997,-11.639900000000001,-1.83117,-7.0259900000000002
214919.0,55.655999999999999,50.275399999999998,-1.25841,49.239400000000003,-11.313599999999999,-3.32206,-5.06853
214920.0,54.465800000000002,1.9342600000000001,31.168500000000002,16.547699999999999,-12.505800000000001,2.50285,-24.749199999999998
214921.0,53.072600000000001,29.137499999999999,20.317399999999999,39.110999999999997,-13.5259,5.5775300000000003,-25.227599999999999
214922.0,55.309199999999997,34.194200000000002,-0.047064799999999997,41.8371,-13.850199999999999,4.0420699999999998,-17.720300000000002
214923.0,54.967399999999998,37.362699999999997,-0.78905499999999995,43.418500000000002,-13.4941,3.90761,-15.3413
214924.0,53.657200000000003,29.210799999999999,16.541499999999999,39.231099999999998,-13.7743,5.5126999999999997,-24.704000000000001
214925.0,52.805900000000001,31.961200000000002,45.223599999999998,48.653399999999998,-13.9275,6.7156900000000004,-24.752800000000001
214926.0,63.492199999999997,-87.332599999999999,-50.900799999999997,-68.443299999999994,-14.390499999999999,2.6047600000000002,-28.247299999999999
214927.0,86.231899999999996,48.5548,68.9452,75.7363,-24.489899999999999,6.8419600000000003,-40.397500000000001
214928.0,47.447600000000001,23.5716,37.607399999999998,35.471400000000003,-11.660399999999999,4.7032600000000002,-23.133199999999999
214929.0,47.688400000000001,29.610600000000002,36.638199999999998,40.9223,-11.9247,5.6386900000000004,-23.483000000000001
214930.0,48.730699999999999,27.6721,31.7102,37.736899999999999,-12.124499999999999,5.1952299999999996,-24.3292
214931.0,50.4895,28.809799999999999,28.052800000000001,38.774000000000001,-12.6751,5.4970400000000001,-24.961099999999998
214932.0,51.988900000000001,28.559799999999999,23.958400000000001,38.416699999999999,-13.1564,5.4813099999999997,-25.362300000000001
214933.0,53.903300000000002,30.7257,14.2942,40.768999999999998,-13.905900000000001,5.45174,-23.807500000000001
214934.0,53.996200000000002,32.280500000000004,12.289300000000001,42.223500000000001,-13.9655,5.3184899999999997,-22.7182
214935.0,54.129800000000003,34.113999999999997,10.6028,43.869399999999999,-13.9695,5.0989699999999996,-21.5197
214936.0,54.541600000000003,34.457000000000001,7.30844,44.000100000000003,-14.041399999999999,4.8309199999999999,-20.2163
214937.0,55.447099999999999,36.885599999999997,5.91343,46.086500000000001,-14.062900000000001,4.46678,-19.081600000000002
214938.0,55.953699999999998,41.427599999999998,-0.51300900000000005,47.265900000000002,-13.2189,2.9853299999999998,-13.4399
214939.0,54.971400000000003,44.206699999999998,0.182315,48.75,-12.363,1.08324,-11.561400000000001
214940.0,54.807699999999997,47.012799999999999,0.32809300000000002,49.822699999999998,-11.7623,-0.34307100000000001,-9.4856599999999993
214941.0,55.350000000000001,48.958100000000002,-0.38944200000000001,50.200200000000002,-11.396000000000001,-1.7751999999999999,-7.4507700000000003
214942.0,56.176400000000001,51.704500000000003,-0.202435,51.1995,-11.019399999999999,-3.33005,-5.4730699999999999
214943.0,51.1128,3.5261200000000001,32.865400000000001,16.030799999999999,-13.3408,2.7458999999999998,-21.6463
214944.0,52.005499999999998,30.545200000000001,21.476099999999999,37.317599999999999,-14.1714,6.2512299999999996,-24.463000000000001
214945.0,54.832299999999996,38.708199999999998,3.6510799999999999,44.672899999999998,-13.8613,4.35609,-17.316299999999998
214946.0,55.2211,42.9953,4.6008300000000002,48.988100000000003,-13.361800000000001,3.4680499999999999,-15.679399999999999
214947.0,53.254899999999999,31.6692,18.7378,38.630600000000001,-14.4872,6.3658900000000003,-24.352699999999999
214948.0,48.644500000000001,36.981299999999997,48.545400000000001,50.591500000000003,-14.610900000000001,7.4517800000000003,-21.584599999999998
214949.0,63.627499999999998,-95.853099999999998,-58.351500000000001,-77.586699999999993,-16.9556,3.3302399999999999,-26.443000000000001
214950.0,87.153000000000006,56.134,75.135099999999994,81.081699999999998,-28.141100000000002,8.3617500000000007,-38.732999999999997
214951.0,42.840899999999998,26.763500000000001,40.226700000000001,35.663200000000003,-11.8413,4.9612600000000002,-20.0017
214952.0,43.500100000000003,33.497599999999998,39.765300000000003,41.480200000000004,-12.0977,6.0164900000000001,-20.749500000000001
214953.0,45.235399999999998,29.788499999999999,33.436700000000002,36.500100000000003,-12.369199999999999,5.5000099999999996,-22.080400000000001
214954.0,47.816200000000002,30.773499999999999,29.6465,37.335500000000003,-13.0479,5.9002100000000004,-23.234200000000001
214955.0,50.143700000000003,29.567699999999999,24.694400000000002,36.105200000000004,-13.6692,5.9709700000000003,-24.142299999999999
214956.0,53.918500000000002,32.630099999999999,15.7585,39.725900000000003,-14.6065,6.3475099999999998,-23.7456
214957.0,54.210700000000003,33.2059,12.5846,40.3643,-14.624499999999999,6.1179800000000002,-22.809200000000001
214958.0,54.376399999999997,34.381599999999999,10.1129,41.486600000000003,-14.609999999999999,5.8155200000000002,-21.626300000000001
214959.0,54.671100000000003,36.7804,8.7178799999999992,43.625100000000003,-14.493600000000001,5.4452199999999999,-20.3581
214960.0,54.9666,37.331499999999998,5.6673900000000001,43.5625,-14.31,4.93804,-19.105899999999998
214961.0,55.477800000000002,43.454000000000001,1.83575,48.350200000000001,-12.958,2.3848500000000001,-14.108700000000001
214962.0,54.915599999999998,46.242800000000003,1.64097,49.586199999999998,-12.2264,1.1806000000000001,-11.739800000000001
214963.0,55.407400000000003,47.798400000000001,0.50422699999999998,50.143900000000002,-11.804399999999999,-0.25138199999999999,-9.9763999999999999
214964.0,55.867899999999999,49.8095,-0.027578700000000001,50.973799999999997,-11.249700000000001,-1.74817,-7.9428900000000002
214965.0,56.794499999999999,52.398299999999999,0.076173000000000005,52.3962,-10.7973,-3.3044600000000002,-5.93344
214966.0,45.409199999999998,8.7414500000000004,36.763399999999997,19.420500000000001,-13.929500000000001,1.3885799999999999,-17.069400000000002
214967.0,49.192599999999999,34.620899999999999,24.904499999999999,37.481099999999998,-14.537599999999999,5.9767700000000001,-22.7181
214968.0,54.841500000000003,42.019399999999997,6.12263,45.6571,-14.026,4.3730799999999999,-17.584499999999998
214969.0,54.887999999999998,42.673900000000003,3.3454600000000001,45.571899999999999,-13.5138,3.3456700000000001,-15.9389
214970.0,51.214700000000001,33.4069,19.7667,36.559899999999999,-14.922499999999999,6.1585200000000002,-23.109300000000001
214971.0,41.898699999999998,46.712299999999999,55.261600000000001,57.290799999999997,-14.9567,6.8275399999999999,-16.8324
214972.0,59.560899999999997,-101.68600000000001,-66.205100000000002,-85.007499999999993,-18.883400000000002,2.2284099999999998,-22.491199999999999
214973.0,85.183599999999998,68.291799999999995,83.282399999999996,90.271500000000003,-31.424199999999999,8.0883800000000008,-35.209899999999998
214974.0,35.650199999999998,34.4328,46.396700000000003,40.460799999999999,-11.667199999999999,3.88998,-15.382
214975.0,36.706200000000003,40.729999999999997,45.439399999999999,45.411799999999999,-11.923500000000001,5.1294300000000002,-16.531300000000002
214976.0,39.365600000000001,36.877699999999997,39.630699999999997,40.165500000000002,-12.3195,4.6761400000000002,-18.433700000000002
214977.0,43.012500000000003,36.888100000000001,35.010300000000001,39.751899999999999,-13.1784,5.3085399999999998,-20.2271
214978.0,46.4114,35.343800000000002,29.893699999999999,38.037500000000001,-13.961499999999999,5.5710499999999996,-21.790700000000001
214979.0,52.609200000000001,34.283999999999999,16.696100000000001,37.749400000000001,-15.1129,6.3376299999999999,-22.947299999999998
214980.0,53.538200000000003,35.719799999999999,14.3811,39.385199999999998,-15.143800000000001,6.3618199999999998,-22.4346
214981.0,54.093000000000004,37.5535,12.375500000000001,41.327800000000003,-14.9824,6.1597099999999996,-21.5685
214982.0,54.394199999999998,37.474800000000002,8.6951800000000006,41.322699999999998,-14.7355,5.7220899999999997,-20.455500000000001
214983.0,54.603900000000003,40.680599999999998,8.3705099999999995,44.628799999999998,-14.4148,5.1985000000000001,-19.061800000000002
214984.0,55.489899999999999,44.395600000000002,1.70627,47.039499999999997,-13.0008,2.43601,-14.283099999999999
214985.0,55.381599999999999,46.560000000000002,1.32474,48.881900000000002,-12.2379,1.21478,-12.338900000000001
214986.0,55.868400000000001,48.378300000000003,0.55662999999999996,50.185499999999998,-11.7509,-0.118588,-10.494300000000001
214987.0,56.561799999999998,50.179099999999998,-0.20388100000000001,51.331499999999998,-11.185499999999999,-1.5854200000000001,-8.5346399999999996
214988.0,57.4358,52.277200000000001,-0.46820899999999999,52.710299999999997,-10.578099999999999,-3.2099500000000001,-6.5105899999999997
214989.0,38.503,14.1686,39.743400000000001,24.792300000000001,-13.9726,-1.91869,-11.4091
214990.0,43.263500000000001,39.515999999999998,28.857399999999998,39.125399999999999,-14.3965,3.6732,-19.147600000000001
214991.0,54.523699999999998,41.823599999999999,5.1332800000000001,42.679699999999997,-14.0589,4.2248400000000004,-17.776499999999999
214992.0,54.914099999999998,45.424599999999998,5.7070499999999997,46.582099999999997,-13.5219,3.5246400000000002,-16.380500000000001
214993.0,46.643500000000003,39.720999999999997,25.386600000000001,39.253599999999999,-15.031700000000001,4.4356999999999998,-20.328499999999998
214994.0,32.930300000000003,56.731000000000002,60.606200000000001,65.9666,-14.475300000000001,4.0770999999999997,-10.667899999999999
214995.0,53.879100000000001,-106.703,-74.581199999999995,-90.185199999999995,-20.008199999999999,-0.55657500000000004,-17.578399999999998
214996.0,82.652000000000001,83.778400000000005,93.064499999999995,104.15600000000001,-34.535299999999999,6.1231499999999999,-30.706
214997.0,25.489999999999998,42.0379,51.200200000000002,47.010399999999997,-10.6067,0.61122699999999996,-9.0921299999999992
214998.0,26.380400000000002,49.305500000000002,51.1873,52.095999999999997,-10.809699999999999,1.99532,-10.446
214999.0,29.728200000000001,42.963099999999997,43.647100000000002,44.020400000000002,-11.2879,1.45964,-12.835599999999999
215000.0,34.4345,42.735500000000002,39.093200000000003,42.9373,-12.368600000000001,2.24587,-15.2492
215001.0,39.110399999999998,39.552700000000002,32.813699999999997,39.336599999999997,-13.4665,2.7578100000000001,-17.5001
215002.0,49.168300000000002,39.5214,21.2195,39.155999999999999,-15.290800000000001,4.9916999999999998,-20.920000000000002
215003.0,50.973999999999997,38.600999999999999,16.482900000000001,38.542200000000001,-15.330399999999999,5.2169100000000004,-21.005700000000001
215004.0,52.248100000000001,38.907299999999999,13.038399999999999,39.163400000000003,-15.200100000000001,5.3305999999999996,-20.6203
215005.0,53.208300000000001,41.045000000000002,11.546900000000001,41.527500000000003,-14.9488,5.2063899999999999,-19.956700000000001
215006.0,53.999299999999998,40.990000000000002,7.7320900000000004,41.627899999999997,-14.567,4.7832999999999997,-18.9999
215007.0,55.820999999999998,45.580300000000001,2.4804499999999998,46.8581,-13.130100000000001,2.6650100000000001,-14.868
215008.0,55.941299999999998,48.1601,2.1951900000000002,49.258699999999997,-12.3522,1.4309799999999999,-12.9239
215009.0,56.609200000000001,49.019399999999997,0.42157099999999997,50.067999999999998,-11.758699999999999,0.0710615,-11.195
215010.0,57.315399999999997,50.613999999999997,-0.43381500000000001,51.527200000000001,-11.0909,-1.4325300000000001,-9.2474299999999996
215011.0,58.183799999999998,52.850499999999997,-0.43445400000000001,53.575899999999997,-10.3645,-3.0806499999999999,-7.2145000000000001
215012.0,35.077800000000003,21.678699999999999,45.773800000000001,35.313499999999998,-13.927199999999999,-5.6368799999999997,-6.1989999999999998
215013.0,35.341700000000003,49.534599999999998,37.6128,47.282400000000003,-13.698399999999999,-0.83566399999999996,-13.707100000000001
215014.0,53.322499999999998,46.284500000000001,9.3539200000000005,44.555799999999998,-14.18,3.2654000000000001,-17.369299999999999
215015.0,54.427100000000003,46.026400000000002,5.6443099999999999,44.698599999999999,-13.661300000000001,2.6815899999999999,-16.350200000000001
215016.0,39.453299999999999,45.494199999999999,30.3322,43.2941,-14.4719,0.11554200000000001,-15.5654
215017.0,27.689599999999999,72.404799999999994,71.282200000000003,82.228399999999993,-14.0868,0.81088000000000005,-4.4957399999999996
215018.0,52.094700000000003,-116.04900000000001,-85.8596,-98.148799999999994,-21.2242,-3.2983899999999999,-14.5878
215019.0,84.650999999999996,99.410499999999999,103.61499999999999,120.836,-38.3431,3.94225,-27.820599999999999
215020.0,18.666399999999999,55.736699999999999,61.920900000000003,61.593800000000002,-9.2684499999999996,-3.6885500000000002,-2.1274700000000002
215021.0,17.9589,63.433700000000002,61.843400000000003,66.297700000000006,-9.2010199999999998,-2.5213000000000001,-3.3757799999999998
215022.0,20.895800000000001,57.704099999999997,55.762799999999999,58.3645,-9.9060699999999997,-3.3637000000000001,-5.8541699999999999
215023.0,25.5076,56.388199999999998,50.548499999999997,55.466799999999999,-11.289999999999999,-2.5225300000000002,-8.5554000000000006
215024.0,30.6052,52.796900000000001,44.4024,50.922499999999999,-12.657400000000001,-1.8626799999999999,-11.3636
215025.0,42.888500000000001,44.509,25.867699999999999,42.279400000000003,-14.988,1.2450600000000001,-16.832000000000001
215026.0,45.801000000000002,44.865099999999998,22.726800000000001,42.417400000000001,-15.225,2.2671100000000002,-17.7483
215027.0,48.242899999999999,45.353000000000002,19.4283,42.819099999999999,-15.1511,2.9398599999999999,-18.257100000000001
215028.0,50.255600000000001,43.4955,13.8576,41.162599999999998,-14.943199999999999,3.2619699999999998,-18.340299999999999
215029.0,51.935099999999998,45.913699999999999,12.6006,43.8504,-14.6143,3.4542099999999998,-18.0318
215030.0,55.817599999999999,46.733899999999998,2.8471000000000002,45.906300000000002,-13.191599999999999,2.0751599999999999,-15.168200000000001
215031.0,56.350700000000003,48.126800000000003,1.41713,47.767899999999997,-12.3871,1.10856,-13.493600000000001
215032.0,57.2468,49.692100000000003,0.33418799999999999,49.770099999999999,-11.773,-0.071122299999999999,-11.8506
215033.0,58.115900000000003,51.228299999999997,-0.57223800000000002,51.637500000000003,-11.0161,-1.45418,-10.039899999999999
215034.0,59.0518,52.898600000000002,-1.0698000000000001,53.683799999999998,-10.160399999999999,-3.05749,-8.0370100000000004
215035.0,37.251100000000001,21.643899999999999,47.243299999999998,40.069400000000002,-14.2281,-8.0381800000000005,-4.5949499999999999
215036.0,30.858000000000001,57.674199999999999,45.637799999999999,60.492199999999997,-12.4322,-7.1698300000000001,-7.0138299999999996
215037.0,50.244999999999997,47.494700000000002,11.355499999999999,44.553199999999997,-13.951499999999999,0.41306100000000001,-15.617599999999999
215038.0,52.505699999999997,49.541800000000002,9.6587200000000006,46.825499999999998,-13.5959,0.63053700000000001,-15.399100000000001
215039.0,33.5901,56.912700000000001,42.286000000000001,57.805599999999998,-13.742699999999999,-5.52515,-8.9875299999999996
215040.0,28.5397,80.715800000000002,76.467600000000004,95.151799999999994,-12.992100000000001,-1.7552300000000001,-1.9248099999999999
215041.0,58.188699999999997,-140.768,-106.596,-120.985,-23.404399999999999,-2.5627900000000001,-16.732199999999999
215042.0,96.5274,113.595,114.429,135.577,-44.753100000000003,4.71366,-30.4237
215043.0,20.633800000000001,62.873899999999999,66.518000000000001,74.460599999999999,-6.4448999999999996,-7.8293699999999999,1.99464
215044.0,21.134399999999999,73.743700000000004,69.078000000000003,82.004999999999995,-6.4283000000000001,-7.87493,1.64178
215045.0,22.654699999999998,65.032300000000006,61.131,71.862099999999998,-6.8826700000000001,-9.7056500000000003,-0.063906099999999993
215046.0,25.069800000000001,64.071700000000007,56.510399999999997,69.516000000000005,-8.6307500000000008,-9.2730099999999993,-2.52197
215047.0,28.002400000000002,58.643900000000002,49.536900000000003,63.091799999999999,-10.6152,-8.7426300000000001,-4.9517600000000002
215048.0,36.385899999999999,54.7639,36.928800000000003,54.161000000000001,-14.3011,-4.0101899999999997,-10.869199999999999
215049.0,39.286099999999998,51.035299999999999,29.944900000000001,49.676000000000002,-14.536099999999999,-2.7951299999999999,-12.491199999999999
215050.0,42.0032,49.1965,24.6785,47.177100000000003,-14.550700000000001,-1.59762,-13.7325
215051.0,44.849299999999999,50.236600000000003,22.012599999999999,47.5396,-14.466100000000001,-0.58725099999999997,-14.774699999999999
215052.0,47.622900000000001,47.881100000000004,15.700100000000001,44.903799999999997,-14.2133,0.00064568199999999996,-15.418699999999999
215053.0,54.722099999999998,49.702399999999997,5.9989400000000002,47.424199999999999,-13.1843,0.50162799999999996,-14.794700000000001
215054.0,56.286999999999999,50.816200000000002,3.7532299999999998,49.175400000000003,-12.4808,-0.040215399999999998,-13.668900000000001
215055.0,57.526400000000002,51.423999999999999,1.5763,50.581600000000002,-11.7242,-0.92847199999999996,-12.258699999999999
215056.0,58.7547,51.657800000000002,-0.64722199999999996,51.639299999999999,-10.952199999999999,-2.1021299999999998,-10.710699999999999
215057.0,59.960599999999999,53.840499999999999,-0.74223499999999998,54.676900000000003,-10.0061,-3.4353799999999999,-8.8292000000000002
215058.0,45.283999999999999,20.306799999999999,52.927199999999999,38.919899999999998,-17.686699999999998,-4.0274599999999996,-9.3121299999999998
215059.0,34.552300000000002,68.7761,57.114800000000002,77.019599999999997,-13.3667,-10.463200000000001,-3.12758
215060.0,45.555100000000003,56.049399999999999,22.8368,54.496099999999998,-13.276999999999999,-3.87283,-12.214
215061.0,49.199399999999997,51.945300000000003,14.156700000000001,50.211300000000001,-13.1257,-3.24715,-12.9953
215062.0,35.779699999999998,61.919499999999999,48.411200000000001,70.727599999999995,-13.617800000000001,-9.9001699999999992,-4.1139299999999999
215063.0,33.646500000000003,84.543400000000005,79.9114,96.557299999999998,-16.558700000000002,1.0832599999999999,-5.3089000000000004
215064.0,72.886899999999997,-201.227,-157.441,-178.279,-27.039000000000001,2.7572999999999999,-23.5044
215065.0,120.34699999999999,110.352,113.70999999999999,130.56800000000001,-55.299599999999998,11.4869,-38.992600000000003
215066.0,21.984100000000002,70.421400000000006,74.785700000000006,82.903499999999994,-8.7048900000000007,-6.6542300000000001,0.95967800000000003
215067.0,23.244399999999999,87.261700000000005,83.3977,97.580600000000004,-8.1795000000000009,-7.4803199999999999,1.8656900000000001
215068.0,25.793099999999999,78.717799999999997,75.488799999999998,88.1173,-8.6893899999999995,-10.0769,1.2916799999999999
215069.0,29.1526,79.044700000000006,71.656599999999997,87.188199999999995,-10.7098,-10.401300000000001,-0.21990499999999999
215070.0,32.215699999999998,73.871300000000005,64.666499999999999,81.630799999999994,-12.4114,-10.798299999999999,-1.7840199999999999
215071.0,36.125100000000003,59.955599999999997,44.298699999999997,67.668599999999998,-13.838800000000001,-8.8481799999999993,-4.83812
215072.0,35.990000000000002,60.428400000000003,42.326099999999997,65.485699999999994,-13.7773,-7.6695799999999998,-5.9033100000000003
215073.0,37.001600000000003,59.583799999999997,38.329700000000003,62.099800000000002,-13.575100000000001,-6.6930100000000001,-7.5350799999999998
215074.0,39.212200000000003,55.7545,30.867100000000001,56.560699999999997,-13.424899999999999,-5.7544500000000003,-9.2642000000000007
215075.0,41.972200000000001,56.370100000000001,27.534300000000002,55.680300000000003,-13.2852,-4.7524199999999999,-10.837199999999999
215076.0,52.092199999999998,53.087000000000003,11.269,51.473500000000001,-12.735099999999999,-2.9199099999999998,-13.1351
215077.0,55.2102,50.540900000000001,4.5453599999999996,49.336799999999997,-12.442399999999999,-2.69855,-12.912800000000001
215078.0,56.929000000000002,53.536099999999998,4.3658900000000003,52.948599999999999,-11.5914,-2.9862600000000001,-11.859
215079.0,58.827500000000001,52.808399999999999,0.91751300000000002,53.052599999999998,-10.9137,-3.6406000000000001,-10.9269
215080.0,60.7393,54.7864,0.0416411,56.075400000000002,-9.9344000000000001,-4.4760600000000004,-9.3784100000000006
215081.0,64.632199999999997,-26.1065,15.0609,-8.84999,-22.570499999999999,5.2715399999999999,-20.6844
215082.0,40.8705,61.444699999999997,52.079700000000003,76.672799999999995,-18.0702,-2.8775900000000001,-8.2411999999999992
215083.0,42.1434,58.761400000000002,31.118400000000001,64.234399999999994,-11.8148,-9.4472500000000004,-6.9321700000000002
215084.0,45.700099999999999,56.321100000000001,23.3432,59.709400000000002,-12.2483,-8.2104099999999995,-8.6687100000000008
215085.0,40.8581,67.465100000000007,54.356200000000001,80.394199999999998,-18.039200000000001,-5.39663,-5.6944800000000004
215086.0,56.213999999999999,66.724000000000004,68.484899999999996,75.418099999999995,-23.932099999999998,11.1119,-18.330100000000002
215087.0,92.536600000000007,-262.72399999999999,-209.44399999999999,-246.017,-35.308100000000003,9.2178799999999992,-27.930700000000002
215088.0,145.34,59.177100000000003,71.846100000000007,73.529799999999994,-66.195499999999996,18.804300000000001,-47.373399999999997
215089.0,36.595599999999997,58.987099999999998,73.572000000000003,72.275800000000004,-15.4572,3.3076599999999998,-11.4621
215090.0,31.776900000000001,65.396799999999999,72.131299999999996,79.930199999999999,-13.5313,2.4437199999999999,-9.7274600000000007
215091.0,32.9298,58.845799999999997,64.496200000000002,75.412899999999993,-13.7994,0.36055999999999999,-9.9988700000000001
215092.0,37.729999999999997,59.259599999999999,60.3996,76.690700000000007,-16.226299999999998,-0.36665999999999999,-10.770300000000001
215093.0,39.795999999999999,55.613700000000001,53.263800000000003,73.373199999999997,-17.345199999999998,-1.59477,-10.179500000000001
215094.0,39.589300000000001,68.547799999999995,53.302900000000001,80.952299999999994,-16.168800000000001,-7.6634200000000003,-3.23794
215095.0,38.861600000000003,64.988100000000003,48.877099999999999,78.004900000000006,-14.1586,-9.2332900000000002,-2.18729
215096.0,37.715299999999999,62.747500000000002,45.728299999999997,74.830799999999996,-12.312799999999999,-10.216900000000001,-2.0944199999999999
215097.0,38.084000000000003,64.990600000000001,44.994599999999998,74.535899999999998,-11.7399,-10.399699999999999,-3.1956199999999999
215098.0,39.209899999999998,58.9452,36.066699999999997,66.540400000000005,-11.3856,-10.3447,-4.9192200000000001
215099.0,48.503100000000003,59.377400000000002,22.120200000000001,61.586599999999997,-11.869,-7.4763299999999999,-9.7803100000000001
215100.0,53.380899999999997,54.464799999999997,11.571300000000001,56.136299999999999,-12.288399999999999,-6.4950099999999997,-10.8874
215101.0,55.447000000000003,57.593600000000002,11.0246,59.486699999999999,-11.1729,-6.2633099999999997,-10.356400000000001
215102.0,58.223300000000002,53.003500000000003,3.33941,55.589500000000001,-10.7905,-6.4063800000000004,-10.261200000000001
215103.0,61.146000000000001,56.694499999999998,3.0501999999999998,59.880200000000002,-9.9377399999999998,-6.4625500000000002,-9.2827099999999998
215104.0,86.207499999999996,-84.7346,-41.131300000000003,-81.160600000000002,-33.678800000000003,11.314,-25.078199999999999
215105.0,63.266599999999997,1.8860699999999999,-8.8419600000000003,14.066000000000001,-28.320499999999999,8.6518599999999992,-18.054099999999998
215106.0,42.872999999999998,71.516199999999998,50.329900000000002,85.938199999999995,-10.647399999999999,-13.263299999999999,-1.61774
215107.0,45.742600000000003,59.082799999999999,32.400399999999998,71.994500000000002,-10.7669,-12.6374,-3.7560799999999999
215108.0,58.940899999999999,28.099900000000002,15.2872,42.120100000000001,-26.3032,6.6922199999999998,-15.5321
215109.0,84.128600000000006,-1.7851999999999999,7.4060199999999998,-3.0036700000000001,-35.924199999999999,17.783899999999999,-26.832799999999999
215110.0,113.33799999999999,-257.17399999999998,-195.92699999999999,-255.38800000000001,-45.797899999999998,13.5755,-28.019300000000001
215111.0,160.68899999999999,-6.8294100000000002,15.166700000000001,-10.218400000000001,-76.475499999999997,21.271899999999999,-46.000999999999998
215112.0,66.7941,-7.3483999999999998,13.6988,-1.6288899999999999,-26.680800000000001,12.4658,-22.3931
215113.0,61.251100000000001,-4.6995800000000001,8.3896200000000007,1.9046400000000001,-25.2727,11.8279,-20.715299999999999
215114.0,59.815300000000001,-18.661799999999999,-8.9644499999999994,-9.51525,-25.545100000000001,10.2088,-20.154
215115.0,63.764600000000002,-14.9689,-12.439,-4.78172,-28.274000000000001,9.5595099999999995,-20.889500000000002
215116.0,64.287599999999998,-15.8782,-18.151199999999999,-4.26206,-29.1068,8.4397800000000007,-20.092099999999999
215117.0,48.466200000000001,44.287599999999998,27.255600000000001,57.7224,-20.846900000000002,2.77298,-10.3718
215118.0,44.246600000000001,71.8977,50.071399999999997,83.955200000000005,-17.928999999999998,-2.5174699999999999,-5.4608299999999996
215119.0,40.8247,73.315200000000004,56.0501,88.337100000000007,-14.886200000000001,-8.3927899999999998,-1.5751900000000001
215120.0,40.381799999999998,71.028300000000002,53.848399999999998,87.595100000000002,-11.5617,-11.181100000000001,0.362674
215121.0,41.179299999999998,70.247399999999999,51.714799999999997,85.862499999999997,-10.3698,-12.8637,0.121029
215122.0,47.341799999999999,64.828599999999994,34.971899999999998,76.553799999999995,-10.214399999999999,-12.5375,-5.0891200000000003
215123.0,52.3337,52.665599999999998,16.048500000000001,62.531399999999998,-11.707800000000001,-11.1304,-7.2233499999999999
215124.0,53.906300000000002,61.340800000000002,20.3857,69.920699999999997,-10.379799999999999,-10.400700000000001,-7.2067399999999999
215125.0,57.0914,54.555199999999999,9.8178599999999996,62.564999999999998,-10.5176,-9.9682600000000008,-8.2773299999999992
215126.0,61.200499999999998,58.870699999999999,8.2660400000000003,66.237499999999997,-9.9907000000000004,-9.2291799999999995,-8.2182700000000004
215127.0,107.37,-87.003200000000007,-41.792999999999999,-100.973,-46.3005,13.999499999999999,-23.370200000000001
215128.0,91.308499999999995,-40.385199999999998,-56.5456,-52.849899999999998,-43.760199999999998,14.414999999999999,-24.179400000000001
215129.0,46.482900000000001,70.833799999999997,51.029800000000002,94.325599999999994,-10.347300000000001,-11.9693,0.34861799999999998
215130.0,49.522500000000001,63.504300000000001,41.224800000000002,86.283699999999996,-10.774800000000001,-13.911199999999999,0.52632000000000001
215131.0,83.781400000000005,-37.2547,-58.283799999999999,-42.890700000000002,-39.333500000000001,12.5471,-22.7317
215132.0,106.637,-36.769399999999997,-21.7044,-56.966799999999999,-49.857300000000002,18.925999999999998,-25.169599999999999
215133.0,123.526,-223.73599999999999,-160.328,-231.18899999999999,-51.990499999999997,14.3902,-25.688600000000001
215134.0,168.00399999999999,-17.376999999999999,9.9700299999999995,-36.758299999999998,-82.494900000000001,21.1173,-40.074300000000001
215135.0,91.545900000000003,-49.469900000000003,-29.271100000000001,-65.227400000000003,-41.629300000000001,15.917299999999999,-21.9621
215136.0,89.420500000000004,-39.910600000000002,-29.237500000000001,-57.399999999999999,-41.503300000000003,16.384399999999999,-21.730399999999999
215137.0,89.444800000000001,-46.777799999999999,-39.643099999999997,-64.197999999999993,-42.3264,15.5848,-21.744599999999998
215138.0,92.624300000000005,-43.937199999999997,-46.166899999999998,-62.353999999999999,-44.462600000000002,15.936400000000001,-22.974499999999999
215139.0,94.5929,-39.391500000000001,-48.097900000000003,-56.283499999999997,-45.711100000000002,15.2613,-24.265999999999998
215140.0,71.098699999999994,-19.220199999999998,-45.072600000000001,-19.193300000000001,-31.577100000000002,10.7935,-18.664999999999999
215141.0,62.450299999999999,33.632199999999997,2.3595100000000002,37.383899999999997,-25.4512,8.6472099999999994,-14.411099999999999
215142.0,51.273000000000003,69.938299999999998,44.060000000000002,79.382300000000001,-21.064800000000002,2.0538599999999998,-9.69224
215143.0,43.104900000000001,70.654300000000006,50.353200000000001,86.641900000000007,-15.860900000000001,-4.4693300000000002,-4.1270499999999997
215144.0,42.402799999999999,65.819900000000004,47.942799999999998,87.609499999999997,-11.212400000000001,-8.8566400000000005,-0.73224800000000001
215145.0,48.996299999999998,73.416499999999999,51.295699999999997,95.502099999999999,-8.9285700000000006,-15.2271,0.273868
215146.0,53.110999999999997,58.841700000000003,29.377600000000001,78.172499999999999,-11.088900000000001,-14.355700000000001,-2.7233200000000002
215147.0,54.138300000000001,67.313299999999998,33.987699999999997,85.500100000000003,-9.2722999999999995,-14.1,-3.1175600000000001
215148.0,57.193899999999999,54.357300000000002,16.979399999999998,71.750399999999999,-9.9689300000000003,-13.5288,-4.97227
215149.0,61.388800000000003,61.167299999999997,16.250800000000002,76.174199999999999,-10.029400000000001,-12.2296,-5.8129799999999996
215150.0,111.128,-71.414199999999994,-28.036200000000001,-87.994799999999998,-50.528399999999998,12.4315,-21.2179
215151.0,110.06,-37.148099999999999,-57.8947,-69.769599999999997,-53.526899999999998,15.273199999999999,-25.820900000000002
215152.0,49.548200000000001,75.511799999999994,45.499000000000002,92.438900000000004,-15.060499999999999,-4.4358899999999997,-2.59552
215153.0,50.665799999999997,68.294499999999999,43.456699999999998,92.814300000000003,-12.938599999999999,-8.8836600000000008,-0.54495400000000005
215154.0,106.681,-38.6783,-68.742099999999994,-71.199399999999997,-51.344999999999999,14.0967,-25.1126
215155.0,113.16,-30.352,-13.653700000000001,-56.391300000000001,-54.957500000000003,16.7896,-22.411100000000001
215156.0,119.063,-191.71700000000001,-133.12200000000001,-200.083,-53.312899999999999,11.6036,-20.427299999999999
215157.0,160.22399999999999,-12.908799999999999,13.952199999999999,-34.049700000000001,-81.263099999999994,17.182600000000001,-32.856400000000001
215158.0,101.68000000000001,-41.634,-22.717199999999998,-66.074799999999996,-48.5931,15.3225,-19.4343
215159.0,101.07899999999999,-31.046900000000001,-22.310500000000001,-58.058999999999997,-48.937100000000001,16.523099999999999,-19.7606
215160.0,102.053,-33.983699999999999,-28.9955,-61.410499999999999,-49.650599999999997,16.293900000000001,-20.887699999999999
215161.0,105.297,-33.546900000000001,-37.293399999999998,-62.921799999999998,-51.473100000000002,16.733899999999998,-22.598800000000001
215162.0,109.021,-34.579799999999999,-46.402200000000001,-65.3386,-53.3155,16.376999999999999,-24.705500000000001
215163.0,97.937700000000007,-36.162999999999997,-71.473600000000005,-62.266300000000001,-46.368499999999997,12.8466,-23.381599999999999
215164.0,86.188599999999994,-24.826599999999999,-64.904499999999999,-40.956800000000001,-38.466799999999999,12.4177,-20.871400000000001
215165.0,75.911900000000003,11.4839,-29.070499999999999,5.4488099999999999,-31.498200000000001,10.891500000000001,-18.202500000000001
215166.0,62.559399999999997,39.880800000000001,6.2652200000000002,43.7836,-25.571100000000001,6.0252699999999999,-13.744
215167.0,49.460999999999999,40.962499999999999,11.0867,52.282400000000003,-17.795999999999999,0.14591599999999999,-6.7659099999999999
215168.0,51.694499999999998,74.433700000000002,54.735999999999997,105.369,-8.4104100000000006,-12.865500000000001,1.7523299999999999
215169.0,56.980499999999999,56.836199999999998,33.429200000000002,88.565799999999996,-10.851000000000001,-14.074400000000001,0.80254000000000003
215170.0,56.940600000000003,68.464600000000004,43.218200000000003,99.165199999999999,-8.4727899999999998,-14.890700000000001,1.4923500000000001
215171.0,58.478000000000002,58.218600000000002,28.981999999999999,86.565399999999997,-9.4934700000000003,-14.8505,-0.443359
215172.0,61.794499999999999,62.446399999999997,24.9636,86.833100000000002,-10.1617,-13.9072,-2.2210999999999999
215173.0,101.575,-60.6387,-23.644300000000001,-73.0745,-49.916699999999999,7.0571900000000003,-15.3812
215174.0,108.008,-24.073899999999998,-47.041800000000002,-58.877200000000002,-54.616,11.3408,-21.537700000000001
215175.0,66.233999999999995,37.731999999999999,-6.3799000000000001,38.180199999999999,-25.117000000000001,7.6660700000000004,-10.8354
215176.0,57.695900000000002,47.220500000000001,5.9455999999999998,56.804499999999997,-18.390699999999999,2.1868799999999999,-6.0213700000000001
215177.0,112.083,-22.7925,-54.703400000000002,-60.672400000000003,-55.254300000000001,12.461499999999999,-23.756399999999999
215178.0,103.392,-21.962800000000001,-9.0629799999999996,-43.542900000000003,-53.593200000000003,10.543699999999999,-16.626000000000001
215179.0,109.435,-162.36099999999999,-110.68000000000001,-168.22300000000001,-51.976199999999999,7.5646899999999997,-15.182600000000001
215180.0,144.21799999999999,-8.3753700000000002,14.609999999999999,-26.192799999999998,-76.299400000000006,10.803699999999999,-24.0045
215181.0,93.325400000000002,-30.480899999999998,-15.788,-50.343299999999999,-47.9041,9.6778499999999994,-14.6288
215182.0,92.479200000000006,-22.0716,-16.790199999999999,-44.674100000000003,-48.060499999999998,10.491300000000001,-14.5444
215183.0,93.190399999999997,-25.3476,-24.258500000000002,-49.061,-48.677100000000003,10.1615,-15.021800000000001
215184.0,97.284300000000002,-23.213100000000001,-29.902100000000001,-50.340600000000002,-50.723399999999998,10.2537,-16.643799999999999
215185.0,102.322,-25.256599999999999,-39.464700000000001,-56.132800000000003,-52.792000000000002,10.4148,-18.857800000000001
215186.0,112.681,-25.639399999999998,-65.171899999999994,-64.934100000000001,-54.415599999999998,12.5701,-24.401700000000002
215187.0,108.136,-28.739100000000001,-75.874300000000005,-66.719099999999997,-50.960000000000001,12.1614,-22.985499999999998
215188.0,100.30800000000001,-29.7302,-81.009500000000003,-60.557099999999998,-45.717199999999998,12.1234,-21.225000000000001
215189.0,89.960899999999995,-15.872,-68.101699999999994,-37.413600000000002,-38.7393,11.933999999999999,-19.119299999999999
215190.0,77.187399999999997,8.8120100000000008,-41.293900000000001,-2.8764400000000001,-30.9634,10.815,-14.936
215191.0,52.621099999999998,82.632599999999996,48.568899999999999,101.06699999999999,-13.902699999999999,-4.4446899999999996,-0.76891900000000002
215192.0,55.116700000000002,70.324600000000004,41.940300000000001,96.301699999999997,-13.989800000000001,-8.6731099999999994,1.5509900000000001
215193.0,56.320099999999996,73.905199999999994,47.935299999999998,105.43000000000001,-10.057499999999999,-10.761699999999999,3.3719899999999998
215194.0,59.094999999999999,59.046199999999999,33.334899999999998,93.809399999999997,-9.7425800000000002,-11.811400000000001,2.92014
215195.0,61.940300000000001,63.303400000000003,32.263300000000001,96.020399999999995,-10.166399999999999,-12.508699999999999,1.6021700000000001
215196.0,2041.9100000000001,-1217.6600000000001,-143.126,-542.53899999999999,-971.07600000000002,-51.527099999999997,386.21699999999998
215197.0,2052.7600000000002,525.26300000000003,1621.8,1221.53,-975.29999999999995,-40.444200000000002,379.28699999999998
215198.0,2135.0900000000001,-1051.6199999999999,106.765,-319.76999999999998,-1020.59,-35.466999999999999,365.315
215199.0,2179.9899999999998,307.70800000000003,1502.3800000000001,1059.3800000000001,-1043.9200000000001,-31.819400000000002,358.572
215200.0,2265.0500000000002,-1115.9000000000001,129.31999999999999,-344.32100000000003,-1087.3699999999999,-56.799599999999998,359.87099999999998
215201.0,2355.9099999999999,282.13600000000002,1580.1500000000001,1079.29,-1130.27,-91.7547,368.31700000000001
215202.0,2426.27,-1101.77,240.41,-280.02600000000001,-1163.0799999999999,-103.724,375.267
215203.0,2490.2199999999998,65.626900000000006,1448.3399999999999,909.00699999999995,-1193.47,-104.239,382.30200000000002
215204.0,2542.6599999999999,-1398.7,18.053999999999998,-540.34900000000005,-1218.5999999999999,-97.151799999999994,389.00599999999997
215205.0,2586.7199999999998,57.220399999999998,1505.99,933.61199999999997,-1237.1500000000001,-96.3215,397.66199999999998
215206.0,2632.2399999999998,-1366.97,118.81,-460.02699999999999,-1252.9200000000001,-104.124,409.93299999999999
215207.0,2640.9499999999998,21.843399999999999,1522.1400000000001,937.72400000000005,-1253.04,-102.218,415.262
215208.0,2643.6100000000001,-1536.98,-26.9727,-616.11199999999997,-1250.78,-99.274900000000002,419.56900000000002
215209.0,2628.6500000000001,-120.373,1390.4200000000001,799.65200000000004,-1240.3299999999999,-96.540099999999995,419.358
215210.0,2604.0999999999999,-1911.95,-416.72699999999998,-1025.6400000000001,-1231.0,-85.350399999999993,415.303
215211.0,2562.23,-154.65799999999999,1314.79,683.28200000000004,-1214.95,-75.265799999999999,403.96899999999999
215212.0,2512.8299999999999,-1613.3299999999999,-157.91800000000001,-792.173,-1190.3499999999999,-74.019499999999994,387.149
215213.0,2478.8699999999999,-433.54300000000001,1029.25,411.35500000000002,-1167.79,-75.885199999999998,373.55099999999999
215214.0,2435.2399999999998,-2052.4200000000001,-604.03499999999997,-1229.6400000000001,-1147.3699999999999,-75.624899999999997,356.24400000000003
215215.0,2364.8899999999999,-291.99299999999999,1116.28,461.51100000000002,-1120.55,-80.346500000000006,324.84199999999998
215216.0,2281.6799999999998,-1953.8399999999999,-589.18700000000001,-1271.8499999999999,-1087.6900000000001,-91.021900000000002,280.08100000000002
215217.0,2215.2399999999998,-255.68299999999999,1072.1099999999999,363.04000000000002,-1061.49,-104.625,237.929
215218.0,2174.1599999999999,-2137.5999999999999,-816.99000000000001,-1530.02,-1041.8599999999999,-108.77800000000001,203.51300000000001
215219.0,2126.8200000000002,-437.93200000000002,874.72699999999998,158.19800000000001,-1018.78,-114.31699999999999,157.59200000000001
215220.0,2100.8600000000001,-1704.77,-401.65300000000002,-1129.54,-1006.6,-123.812,127.093
215221.0,2084.6900000000001,202.74299999999999,1496.5799999999999,754.49699999999996,-998.99300000000005,-136.577,102.38200000000001
215222.0,553.48500000000001,-1958.49,-1993.74,-2075.9099999999999,92.964600000000004,-117.506,-275.74400000000003
215223.0,451.02600000000001,1350.03,1455.8099999999999,1295.26,139.88900000000001,-48.084000000000003,-198.155
215224.0,286.33999999999997,9997.3099999999995,10006.4,10038.1,67.557299999999998,-56.527500000000003,-138.24700000000001
215225.0,56.345599999999997,9476.7700000000004,9489.2600000000002,9475.5200000000004,18.620899999999999,-18.975200000000001,-17.139199999999999
215226.0,49.308799999999998,2113.6599999999999,2128.5300000000002,2079.5,13.2568,-0.66359500000000005,1.52437
215227.0,43.685000000000002,1067.1500000000001,1080.45,1038.0599999999999,9.6117799999999995,-2.2780399999999998,-8.2809600000000003
215228.0,70.696299999999994,6937.0200000000004,6963.3400000000001,6905.1400000000003,17.622499999999999,-0.44865500000000003,22.491800000000001
215229.0,237.18100000000001,11035.5,11030.299999999999,11084.9,44.790399999999998,-52.5383,-114.351
215230.0,432.24900000000002,4698.3000000000002,4777.2399999999998,4660.0600000000004,139.22900000000001,-50.224600000000002,-191.83699999999999
215231.0,438.47899999999998,2993.71,3074.02,2938.9299999999998,141.14699999999999,-50.039000000000001,-192.47
215232.0,396.53100000000001,6327.1999999999998,6392.1400000000003,6313.5200000000004,126.40000000000001,-52.615299999999998,-178.61199999999999
215233.0,361.95699999999999,7337.79,7385.5100000000002,7344.2399999999998,110.705,-55.315199999999997,-166.38900000000001
215234.0,333.09899999999999,8392.9400000000005,8425.2999999999993,8414.5599999999995,95.415899999999993,-56.491300000000003,-156.262
215235.0,309.0,9383.8299999999999,9403.3600000000006,9416.3600000000006,80.899500000000003,-56.931100000000001,-147.55699999999999
215236.0,282.99299999999999,-9494.4400000000005,-9484.8099999999995,-9457.6800000000003,69.060699999999997,-56.6205,-135.48500000000001
215237.0,262.99200000000002,10543.6,10544.1,10590.1,55.447200000000002,-55.123399999999997,-127.39700000000001
215238.0,208.84899999999999,11139.9,11131.299999999999,11189.299999999999,35.749499999999998,-48.8489,-99.473100000000002
215239.0,174.17500000000001,11114.799999999999,11107.0,11159.1,28.308700000000002,-43.241599999999998,-81.540499999999994
215240.0,137.40199999999999,10876.4,10871.799999999999,10911.4,22.9605,-36.752499999999998,-62.820900000000002
215241.0,93.384200000000007,10327.799999999999,10330.200000000001,10348.1,19.1707,-28.338799999999999,-40.159399999999998
215242.0,70.884200000000007,-9903.9599999999991,-9901.8299999999999,-9878.7800000000007,13.565300000000001,-24.099699999999999,-26.739899999999999
215243.0,53.406399999999998,8308.1000000000004,8332.5499999999993,8287.9699999999993,18.259399999999999,-7.1660199999999996,8.2308000000000003
215244.0,65.825900000000004,5608.46,5624.1599999999999,5571.8000000000002,18.717600000000001,-1.55355,19.218800000000002
215245.0,58.556399999999996,4520.7299999999996,4530.3699999999999,4483.6000000000004,20.369700000000002,-2.4599799999999998,10.586399999999999
215246.0,57.577599999999997,3617.02,3629.5700000000002,3579.8800000000001,19.174299999999999,-1.1427400000000001,8.2809100000000004
215247.0,54.754600000000003,2810.6700000000001,2825.8800000000001,2774.5100000000002,16.128699999999998,-0.38803599999999999,6.5316299999999998
215248.0,53.966999999999999,-2439.77,-2423.0300000000002,-2475.6500000000001,15.379099999999999,-3.1188600000000002,1.3463499999999999
215249.0,45.214399999999998,1537.7,1551.3800000000001,1505.8299999999999,11.0319,-1.4970399999999999,-3.3607200000000002
215250.0,44.844200000000001,677.83699999999999,692.20799999999997,651.673,8.2547599999999992,-2.2683599999999999,-13.216900000000001
215251.0,43.807099999999998,357.005,370.15899999999999,334.81299999999999,6.1235299999999997,-2.26762,-16.6707
215252.0,43.775399999999998,103.477,113.81100000000001,84.020300000000006,4.9377800000000001,-3.0191300000000001,-19.402699999999999
215253.0,51.979700000000001,47.912500000000001,-4.3106799999999996,35.024799999999999,-11.353,3.746,-4.1952100000000003
215254.0,424.17000000000002,-2279.5799999999999,-2236.3600000000001,-2361.8000000000002,132.006,-55.679000000000002,-188.11500000000001
215255.0,417.79000000000002,-3769.6100000000001,-3701.98,-3819.8800000000001,132.92400000000001,-49.299300000000002,-185.96600000000001
215256.0,383.57600000000002,-5462.3000000000002,-5401.0500000000002,-5484.7799999999997,123.32299999999999,-50.159199999999998,-171.58500000000001
215257.0,349.964,-6717.9399999999996,-6669.4300000000003,-6718.6499999999996,108.642,-52.6584,-159.53999999999999
215258.0,324.50099999999998,-7637.0299999999997,-7603.5699999999997,-7621.8000000000002,95.440399999999997,-54.919199999999996,-150.64699999999999
215259.0,303.03899999999999,-8704.2800000000007,-8683.9599999999991,-8677.2199999999993,81.9101,-56.252699999999997,-143.31399999999999
215260.0,262.55200000000002,-10016.0,-10015.1,-9971.4500000000007,56.992100000000001,-55.982799999999997,-126.282
215261.0,240.364,-10588.799999999999,-10594.9,-10538.6,45.853299999999997,-54.180500000000002,-115.17400000000001
215262.0,215.48400000000001,-10907.299999999999,-10917.6,-10854.0,36.166899999999998,-51.103000000000002,-101.95099999999999
215263.0,187.221,-10936.0,-10948.5,-10882.5,27.725999999999999,-46.798099999999998,-86.588399999999993
215264.0,153.79900000000001,-10865.5,-10875.799999999999,-10817.1,21.2865,-40.6935,-69.236099999999993
215265.0,113.803,-10541.5,-10547.299999999999,-10501.5,16.077500000000001,-33.127800000000001,-48.3643
215266.0,33.981499999999997,-8972.3799999999992,-8958.9599999999991,-8967.1800000000003,13.4131,-12.6153,0.23982300000000001
215267.0,54.273099999999999,-7722.6199999999999,-7696.2399999999998,-7737.8500000000004,14.8216,-2.2873800000000002,17.710899999999999
215268.0,65.860900000000001,-6297.5100000000002,-6271.3800000000001,-6328.3800000000001,18.575600000000001,-0.020854399999999999,16.928999999999998
215269.0,61.472299999999997,-5026.54,-5010.2299999999996,-5061.8999999999996,21.584599999999998,-2.6624099999999999,9.4303399999999993
215270.0,56.972200000000001,-4047.6599999999999,-4032.9200000000001,-4081.3899999999999,20.095600000000001,-2.6909399999999999,7.3089700000000004
215271.0,56.648200000000003,-3204.8699999999999,-3187.75,-3240.0300000000002,17.807500000000001,-2.4319899999999999,6.0231500000000002
215272.0,50.117600000000003,-1803.5699999999999,-1788.04,-1837.79,12.7964,-3.5744099999999999,-3.5708899999999999
215273.0,47.890500000000003,-1274.6199999999999,-1260.51,-1306.3800000000001,11.150600000000001,-4.3782199999999998,-8.3051100000000009
215274.0,47.341200000000001,-840.10599999999999,-826.40899999999999,-868.69200000000001,9.6472599999999993,-4.7423299999999999,-12.886699999999999
215275.0,48.406100000000002,-488.76400000000001,-474.66000000000003,-514.70899999999995,7.9457800000000001,-4.2750000000000004,-16.939800000000002
215276.0,47.700099999999999,-205.98500000000001,-194.196,-228.50999999999999,6.0915999999999997,-4.2115499999999999,-19.9909
215277.0,517.346,-1880.3499999999999,-1889.04,-1976.9000000000001,79.239199999999997,-117.738,-257.33600000000001
215278.0,428.56200000000001,1073.28,1172.4400000000001,1018.5700000000001,138.18899999999999,-43.666400000000003,-184.75800000000001
215279.0,290.73399999999998,9676.9300000000003,9681.9099999999999,9719.75,71.359099999999998,-53.054400000000001,-140.429
215280.0,48.643000000000001,9281.2600000000002,9308.0499999999993,9280.4200000000001,15.940099999999999,-10.996700000000001,-12.9124
215281.0,40.619999999999997,1578.3199999999999,1593.03,1549.3099999999999,7.1805599999999998,-1.86389,-0.37139100000000003
215282.0,36.969000000000001,781.46699999999998,794.38999999999999,758.827,4.8128700000000002,-3.54358,-9.7874099999999995
215283.0,87.037000000000006,6361.1599999999999,6405.0200000000004,6328.1999999999998,10.816599999999999,6.4692699999999999,29.679400000000001
215284.0,244.28399999999999,10689.6,10684.0,10743.5,47.4407,-49.945300000000003,-118.601
215285.0,413.19499999999999,4478.6000000000004,4554.7600000000002,4441.9499999999998,134.38200000000001,-48.084800000000001,-182.285
215286.0,417.40899999999999,2849.9099999999999,2929.1999999999998,2798.7199999999998,137.57400000000001,-49.2378,-180.00999999999999
215287.0,380.78699999999998,5677.6199999999999,5738.6499999999996,5664.0299999999997,122.97199999999999,-48.767099999999999,-171.03399999999999
215288.0,350.43799999999999,7031.9799999999996,7075.79,7039.0,109.681,-50.9876,-160.476
215289.0,327.80799999999999,8015.4700000000003,8043.5200000000004,8038.0299999999997,96.930599999999998,-52.499899999999997,-153.12299999999999
215290.0,309.46499999999997,8792.2900000000009,8807.6200000000008,8826.5900000000001,84.356099999999998,-53.075800000000001,-147.291
215291.0,285.73599999999999,-9007.8899999999994,-9002.7999999999993,-8970.3799999999992,72.772300000000001,-52.8889,-136.77699999999999
215292.0,269.58100000000002,10329.200000000001,10327.700000000001,10379.1,58.693199999999997,-52.261200000000002,-131.114
215293.0,214.52099999999999,11037.799999999999,11030.299999999999,11092.0,37.731099999999998,-46.155700000000003,-103.20699999999999
215294.0,176.78700000000001,11062.6,11057.799999999999,11111.6,29.895499999999998,-40.137700000000002,-83.835599999999999
215295.0,135.83000000000001,10772.1,10772.9,10810.799999999999,23.893599999999999,-32.7806,-63.350099999999998
215296.0,86.367099999999994,10199.9,10211.200000000001,10222.799999999999,18.926300000000001,-22.786200000000001,-38.448799999999999
215297.0,60.934699999999999,-9773.1700000000001,-9764.0900000000001,-9747.0400000000009,13.0036,-19.2864,-22.818200000000001
215298.0,66.537899999999993,7937.7799999999997,7979.3199999999997,7915.5500000000002,12.623900000000001,0.71506099999999995,16.375499999999999
215299.0,76.275099999999995,4957.1400000000003,4991.0500000000002,4921.1599999999999,10.825200000000001,5.5716099999999997,23.860700000000001
215300.0,62.182000000000002,3817.5100000000002,3841.5,3781.0300000000002,11.192500000000001,3.1022799999999999,15.067600000000001
215301.0,53.822099999999999,2898.25,2916.8600000000001,2862.3000000000002,10.591100000000001,1.2428699999999999,9.0904600000000002
215302.0,47.078600000000002,2158.1599999999999,2174.1199999999999,2124.6399999999999,8.8953000000000007,-0.34557399999999999,4.66716
215303.0,47.755000000000003,-1819.9000000000001,-1800.75,-1851.5799999999999,9.6357300000000006,-2.7324000000000002,-0.93972500000000003
215304.0,37.166200000000003,1130.3800000000001,1144.1600000000001,1105.3900000000001,5.8068400000000002,-3.03538,-5.5855399999999999
215305.0,38.8249,501.06599999999997,512.69200000000001,480.08699999999999,4.3904199999999998,-4.2434500000000002,-13.860200000000001
215306.0,39.577599999999997,263.89600000000002,273.31700000000001,246.17400000000001,3.8797299999999999,-5.2342899999999997,-17.022200000000002
215307.0,41.492100000000001,84.948300000000003,92.673599999999993,69.644000000000005,3.3958499999999998,-6.3082399999999996,-19.625499999999999
215308.0,51.948599999999999,47.031799999999997,-4.6258499999999998,36.3217,-11.562200000000001,2.2071900000000002,-4.2042700000000002
215309.0,400.642,-2013.79,-1967.03,-2089.3299999999999,127.746,-55.077500000000001,-174.196
215310.0,399.69499999999999,-3673.7600000000002,-3601.52,-3718.96,128.81299999999999,-47.457099999999997,-175.77799999999999
215311.0,367.55599999999998,-4979.75,-4920.0200000000004,-5000.3999999999996,118.914,-46.098399999999998,-164.392
215312.0,336.935,-6214.6199999999999,-6167.9300000000003,-6214.3100000000004,107.01000000000001,-47.7468,-152.934
215313.0,315.93099999999998,-7418.0600000000004,-7387.8100000000004,-7402.6700000000001,95.614599999999996,-49.9925,-146.28899999999999
215314.0,300.89299999999997,-8198.3600000000006,-8181.5500000000002,-8170.7399999999998,84.780299999999997,-51.857300000000002,-141.803
215315.0,267.803,-9822.8500000000004,-9825.7700000000004,-9776.5799999999999,60.4161,-53.013100000000001,-129.16800000000001
215316.0,247.12200000000001,-10285.5,-10293.4,-10231.9,48.963500000000003,-51.8264,-118.962
215317.0,221.876,-10655.200000000001,-10666.299999999999,-10597.6,38.6661,-48.951700000000002,-105.63
215318.0,191.429,-10913.6,-10925.700000000001,-10855.5,29.7118,-44.443100000000001,-89.154399999999995
215319.0,154.55500000000001,-10812.799999999999,-10821.6,-10760.6,22.928000000000001,-37.947299999999998,-70.061800000000005
215320.0,109.654,-10431.700000000001,-10434.1,-10389.1,16.989899999999999,-29.529699999999998,-46.9542
215321.0,35.1432,-8742.4400000000005,-8715.1100000000006,-8738.4099999999999,9.4608600000000003,-6.1162400000000003,8.1848200000000002
215322.0,73.892099999999999,-7258.3299999999999,-7215.1999999999998,-7278.0200000000004,10.3537,3.3193299999999999,25.876899999999999
215323.0,80.902199999999993,-5677.3999999999996,-5633.4899999999998,-5710.6099999999997,12.6402,5.24308,22.3202
215324.0,69.518900000000002,-4373.4499999999998,-4339.6199999999999,-4409.75,13.329000000000001,3.1269300000000002,13.914
215325.0,59.604500000000002,-3324.29,-3298.6500000000001,-3360.0999999999999,12.8858,0.68426699999999996,8.0617300000000007
215326.0,53.277500000000003,-2488.48,-2466.98,-2523.0900000000001,11.340299999999999,-1.0500400000000001,3.8751500000000001
215327.0,42.883699999999997,-1299.55,-1282.5599999999999,-1326.76,7.8348699999999996,-4.11022,-6.1192799999999998
215328.0,40.369799999999998,-906.00300000000004,-891.41800000000001,-929.90200000000004,6.2808700000000002,-4.8666099999999997,-10.1302
215329.0,41.132100000000001,-598.06500000000005,-585.52499999999998,-620.13099999999997,5.4440799999999996,-5.42164,-14.0701
215330.0,43.390000000000001,-341.46699999999998,-330.39800000000002,-361.99400000000003,5.1389699999999996,-6.0516800000000002,-17.535799999999998
215331.0,44.213900000000002,-127.74299999999999,-118.505,-144.803,4.2698299999999998,-6.8144,-20.222899999999999
215332.0,479.37099999999998,-1815.5899999999999,-1794.0,-1889.24,61.3551,-117.33499999999999,-237.851
215333.0,400.12599999999998,1191.6300000000001,1285.5699999999999,1137.23,127.58499999999999,-39.399799999999999,-172.93100000000001
215334.0,290.31599999999997,8970.9500000000007,8972.3700000000008,9015.7800000000007,72.769800000000004,-48.846899999999998,-140.583
215335.0,52.547899999999998,9125.6399999999994,9160.5400000000009,9136.6299999999992,14.605399999999999,-8.5162099999999992,-17.7805
215336.0,45.794499999999999,1507.3900000000001,1537.6900000000001,1486.73,3.5462199999999999,-3.15028,-4.4062700000000001
215337.0,40.030000000000001,681.00699999999995,700.00900000000001,662.601,4.9051,-6.0865299999999998,-11.097099999999999
215338.0,88.710999999999999,6372.3400000000001,6432.1700000000001,6348.2200000000003,5.81297,7.76938,25.709800000000001
215339.0,250.88999999999999,10356.700000000001,10350.299999999999,10414.299999999999,48.619700000000002,-46.557499999999997,-123.313
215340.0,384.49000000000001,3955.98,4023.5599999999999,3918.9499999999998,126.90300000000001,-44.2667,-168.52199999999999
215341.0,386.80599999999998,2516.2600000000002,2584.96,2464.0300000000002,128.71199999999999,-46.336399999999998,-165.774
215342.0,358.69400000000002,5399.8900000000003,5455.1000000000004,5385.6700000000001,118.194,-44.414200000000001,-159.999
215343.0,332.82499999999999,6276.7200000000003,6316.4300000000003,6283.6000000000004,106.994,-45.304499999999997,-151.56999999999999
215344.0,313.76999999999998,7257.6700000000001,7281.1400000000003,7278.6300000000001,96.2864,-47.367100000000001,-145.38300000000001
215345.0,300.077,8256.4400000000005,8266.8099999999995,8290.2299999999996,84.956500000000005,-48.197400000000002,-142.03999999999999
215346.0,280.84899999999999,-8427.7999999999993,-8424.7700000000004,-8391.1100000000006,74.1511,-47.981000000000002,-134.44999999999999
215347.0,275.803,9681.2900000000009,9676.8400000000001,9734.0400000000009,60.7087,-48.799900000000001,-135.19
215348.0,220.69999999999999,10625.9,10619.5,10685.0,38.0899,-43.139299999999999,-107.80200000000001
215349.0,180.994,10720.5,10718.700000000001,10774.9,30.005400000000002,-36.972000000000001,-87.359899999999996
215350.0,139.489,10547.1,10552.299999999999,10592.200000000001,23.7624,-29.7456,-66.534199999999998
215351.0,89.802199999999999,10012.200000000001,10029.6,10043.0,18.600100000000001,-19.8354,-41.363799999999998
215352.0,65.860699999999994,-9612.6200000000008,-9598.1499999999996,-9579.75,13.864000000000001,-17.7803,-25.8093
215353.0,63.095599999999997,7880.4399999999996,7933.3299999999999,7870.1800000000003,9.5481099999999994,2.1810200000000002,9.0848499999999994
215354.0,83.670299999999997,4887.1300000000001,4941.6199999999999,4859.9200000000001,4.4769100000000002,7.5911299999999997,22.918800000000001
215355.0,66.154600000000002,3697.3699999999999,3742.23,3671.8200000000002,3.73414,4.6987300000000003,12.351900000000001
215356.0,52.916400000000003,2793.23,2830.9899999999998,2771.3699999999999,2.5630299999999999,2.0547200000000001,3.5641500000000002
215357.0,47.3855,2085.73,2119.52,2065.8400000000001,2.3565200000000002,-1.0269900000000001,-2.3259699999999999
215358.0,49.024299999999997,-1788.73,-1754.3599999999999,-1808.3,4.2493699999999999,-2.8099799999999999,-5.4101499999999998
215359.0,42.357100000000003,1041.3299999999999,1066.0999999999999,1021.01,4.6641300000000001,-4.4404199999999996,-6.8226500000000003
215360.0,40.6584,410.50999999999999,425.46699999999998,394.64999999999998,4.3462399999999999,-7.3042100000000003,-15.5342
215361.0,41.103000000000002,212.96600000000001,224.31,200.66399999999999,3.0931199999999999,-8.0909300000000002,-18.6616
215362.0,42.972700000000003,70.610699999999994,79.549000000000007,61.040199999999999,2.0812499999999998,-8.6867400000000004,-21.2151
215363.0,52.289700000000003,46.485399999999998,-5.0933999999999999,37.043900000000001,-11.7516,1.06246,-4.2421899999999999
215364.0,371.25400000000002,-1976.6800000000001,-1933.53,-2047.79,118.0,-53.558399999999999,-160.69200000000001
215365.0,369.85899999999998,-3168.8899999999999,-3103.8099999999999,-3213.3400000000001,120.688,-43.074100000000001,-161.68899999999999
215366.0,343.149,-4648.25,-4590.9799999999996,-4668.2399999999998,112.121,-41.006300000000003,-152.93600000000001
215367.0,318.64299999999997,-5749.3199999999997,-5705.8999999999996,-5749.3599999999997,104.28,-42.106000000000002,-143.416
215368.0,300.983,-6562.1400000000003,-6533.6899999999996,-6546.8100000000004,93.9251,-43.997999999999998,-138.69499999999999
215369.0,288.95600000000002,-7593.8599999999997,-7580.6300000000001,-7567.8100000000004,85.310000000000002,-46.117800000000003,-135.12
215370.0,271.71300000000002,-9075.2000000000007,-9080.1599999999999,-9027.9300000000003,62.7134,-49.612400000000001,-131.84800000000001
215371.0,254.203,-9824.3099999999995,-9834.8299999999999,-9768.2000000000007,51.306100000000001,-49.398699999999998,-123.223
215372.0,228.233,-10319.0,-10330.0,-10257.4,39.901400000000002,-46.558199999999999,-109.867
215373.0,196.76499999999999,-10495.1,-10505.4,-10431.6,30.801100000000002,-42.049799999999998,-92.691100000000006
215374.0,158.49299999999999,-10524.4,-10529.700000000001,-10466.6,23.903300000000002,-35.528399999999998,-72.896900000000002
215375.0,112.908,-10248.6,-10246.700000000001,-10199.799999999999,18.026299999999999,-27.331800000000001,-49.149500000000003
215376.0,34.738999999999997,-8637.75,-8604.0200000000004,-8624.3500000000004,8.4076599999999999,-6.2940800000000001,1.8816299999999999
215377.0,70.068100000000001,-7298.2600000000002,-7246.3400000000001,-7308.2700000000004,6.0015900000000002,2.8519199999999998,22.0688
215378.0,85.534800000000004,-5721.9700000000003,-5663.1700000000001,-5747.4300000000003,6.8235000000000001,5.9370799999999999,22.124700000000001
215379.0,76.243600000000001,-4312.0799999999999,-4258.0699999999997,-4339.9099999999999,6.5672899999999998,4.8312600000000003,11.8147
215380.0,62.981000000000002,-3249.21,-3203.8699999999999,-3274.4699999999998,5.3830200000000001,1.98567,3.1186799999999999
215381.0,53.756799999999998,-2431.9200000000001,-2392.6399999999999,-2452.9699999999998,3.9380799999999998,-0.750448,-3.1145800000000001
215382.0,47.048200000000001,-1263.6099999999999,-1234.3,-1284.0899999999999,5.7004099999999998,-4.0826000000000002,-7.9079800000000002
215383.0,45.140599999999999,-837.81899999999996,-814.53800000000001,-857.471,6.1292099999999996,-5.50061,-12.227
215384.0,44.619399999999999,-510.96899999999999,-493.30500000000001,-528.53999999999996,5.6905599999999996,-7.32592,-16.346499999999999
215385.0,45.317,-273.11900000000003,-259.11799999999999,-288.166,4.5732299999999997,-8.32639,-19.577100000000002
215386.0,45.599200000000003,-101.35299999999999,-90.766199999999998,-112.902,3.1358899999999998,-8.9857200000000006,-21.907499999999999
215387.0,439.56799999999998,-1671.71,-1625.0999999999999,-1724.3399999999999,49.457500000000003,-115.035,-215.08699999999999
215388.0,369.97000000000003,912.38900000000001,1010.48,861.60000000000002,113.91500000000001,-38.029499999999999,-159.60900000000001
215389.0,284.96600000000001,8098.8100000000004,8097.9399999999996,8145.2299999999996,73.110799999999998,-44.7654,-137.79499999999999
215390.0,66.037000000000006,9085.9300000000003,9127.4599999999991,9114.5400000000009,11.061400000000001,-9.7877100000000006,-27.995000000000001
215391.0,64.794300000000007,1805.0699999999999,1854.6800000000001,1784.05,6.8029900000000003,-4.5231399999999997,-4.2060500000000003
215392.0,48.484000000000002,680.29999999999995,710.01900000000001,664.87300000000005,6.2629000000000001,-7.5705099999999996,-12.667400000000001
215393.0,78.576999999999998,6721.4399999999996,6791.54,6713.71,5.9524999999999997,4.1792299999999996,12.919499999999999
215394.0,260.37799999999999,9567.3700000000008,9561.3700000000008,9630.6900000000005,46.7378,-43.109299999999998,-130.69399999999999
215395.0,347.86200000000002,3623.4200000000001,3693.96,3593.52,113.161,-39.419499999999999,-152.69900000000001
215396.0,348.452,2374.9099999999999,2450.5700000000002,2330.04,111.544,-44.753599999999999,-149.39099999999999
215397.0,330.72899999999998,4544.8199999999997,4597.3699999999999,4531.4099999999999,109.706,-38.738599999999998,-147.34100000000001
215398.0,308.77800000000002,5712.7299999999996,5748.3900000000003,5717.29,102.83199999999999,-40.1282,-138.636
215399.0,290.44400000000002,6551.6499999999996,6570.25,6569.46,93.737499999999997,-40.481099999999998,-132.601
215400.0,282.63099999999997,7206.9499999999998,7212.8199999999997,7238.8599999999997,83.444199999999995,-42.2575,-132.626
215401.0,269.584,-7404.2399999999998,-7399.8699999999999,-7369.3900000000003,74.824799999999996,-42.903300000000002,-128.161
215402.0,279.59199999999998,8949.8099999999995,8943.4899999999998,9006.1900000000005,60.281799999999997,-44.645400000000002,-138.702
215403.0,232.20699999999999,10155.299999999999,10153.200000000001,10223.200000000001,34.952199999999998,-39.820799999999998,-116.533
215404.0,190.10499999999999,10384.0,10389.200000000001,10448.6,25.782399999999999,-33.316600000000001,-94.7864
215405.0,149.27699999999999,10254.0,10267.700000000001,10310.9,19.183199999999999,-26.6325,-73.939099999999996
215406.0,101.462,9826.5,9852.7000000000007,9871.2199999999993,14.1578,-18.005800000000001,-49.010399999999997
215407.0,80.427899999999994,-9504.6800000000003,-9480.6599999999999,-9457.8799999999992,10.9361,-17.087199999999999,-34.598500000000001
215408.0,57.329999999999998,8037.3500000000004,8096.2700000000004,8047.2299999999996,8.1121999999999996,-1.55335,-5.6245000000000003
215409.0,82.554000000000002,5332.7600000000002,5401.3500000000004,5319.0500000000002,3.4676300000000002,6.0606400000000002,16.694500000000001
215410.0,66.587800000000001,4111.1499999999996,4171.9700000000003,4101.9799999999996,0.82551300000000005,2.6584599999999998,4.81792
215411.0,59.965499999999999,3175.8200000000002,3231.3699999999999,3169.4899999999998,0.75309199999999998,-2.8397299999999999,-5.5414599999999998
215412.0,63.3371,2461.9299999999998,2515.5100000000002,2449.0500000000002,3.9302999999999999,-5.1256899999999996,-7.2848300000000004
215413.0,60.438800000000001,-2238.8299999999999,-2188.9400000000001,-2253.48,5.7948000000000004,-3.40645,-5.2635899999999998
215414.0,57.030299999999997,1166.5899999999999,1206.97,1145.78,7.3045400000000003,-5.2408999999999999,-5.9366000000000003
215415.0,45.807299999999998,365.99900000000002,387.81200000000001,355.74200000000002,4.7186500000000002,-9.2355199999999993,-17.9894
215416.0,45.293100000000003,165.714,181.56800000000001,160.422,2.9685899999999998,-10.103,-21.256699999999999
215417.0,46.816499999999998,51.801299999999998,63.875399999999999,49.6098,1.5366500000000001,-10.5273,-23.630299999999998
215418.0,52.680199999999999,45.057200000000002,-6.4056800000000003,36.340000000000003,-12.166499999999999,0.21932599999999999,-4.2889299999999997
215419.0,338.41500000000002,-1762.49,-1712.51,-1823.27,105.315,-53.142600000000002,-145.54400000000001
215420.0,332.64600000000002,-3061.9699999999998,-2990.5799999999999,-3098.6100000000001,107.172,-39.115600000000001,-144.39699999999999
215421.0,315.11399999999998,-3998.0999999999999,-3937.4200000000001,-4014.77,103.026,-35.113100000000003,-139.98099999999999
215422.0,293.92000000000002,-5016.96,-4976.2600000000002,-5017.5500000000002,98.104600000000005,-36.192799999999998,-131.536
215423.0,278.81700000000001,-6065.8999999999996,-6040.5100000000002,-6052.5799999999999,91.661699999999996,-37.467700000000001,-126.277
215424.0,267.48099999999999,-6707.8100000000004,-6696.5500000000002,-6684.7600000000002,82.578900000000004,-39.013500000000001,-123.994
215425.0,272.60399999999998,-8312.9300000000003,-8317.0499999999993,-8264.8899999999994,64.6648,-46.0717,-132.762
215426.0,261.56,-9032.5100000000002,-9041.8700000000008,-8972.6100000000006,50.488700000000001,-46.4114,-129.18700000000001
215427.0,238.982,-9653.5799999999999,-9661.3700000000008,-9585.2000000000007,38.677599999999998,-44.566400000000002,-117.46899999999999
215428.0,207.03800000000001,-10145.200000000001,-10150.1,-10071.9,28.207699999999999,-39.773800000000001,-99.956199999999995
215429.0,167.78299999999999,-10232.4,-10229.1,-10163.6,20.674600000000002,-32.896700000000003,-79.799899999999994
215430.0,122.98399999999999,-10005.6,-9994.1499999999996,-9944.5300000000007,14.713800000000001,-25.092199999999998,-56.0413
215431.0,45.198,-8697.2900000000009,-8658.1399999999994,-8667.3099999999995,7.0857400000000004,-8.7549499999999991,-11.6092
215432.0,53.900399999999998,-7578.21,-7523.29,-7569.1000000000004,4.6554700000000002,-1.0650500000000001,8.9001199999999994
215433.0,77.041300000000007,-6213.4700000000003,-6148.4099999999999,-6224.1300000000001,4.95451,2.80558,16.303999999999998
215434.0,76.330399999999997,-4824.1999999999998,-4758.0600000000004,-4840.04,3.8746900000000002,1.66726,5.7870100000000004
215435.0,66.974299999999999,-3690.5300000000002,-3629.79,-3700.1100000000001,2.0205099999999998,-2.0564,-5.69231
215436.0,60.337699999999998,-2875.02,-2821.1900000000001,-2882.25,3.20513,-4.5447199999999999,-8.3491800000000005
215437.0,62.5991,-1577.21,-1531.9100000000001,-1599.3800000000001,7.8544499999999999,-3.3605800000000001,-7.1124499999999999
215438.0,58.247399999999999,-947.80200000000002,-911.625,-968.57500000000005,7.92563,-6.1504599999999998,-14.130100000000001
215439.0,52.976199999999999,-519.34400000000005,-492.75999999999999,-534.41700000000003,6.4474299999999998,-8.7462,-19.301600000000001
215440.0,50.842799999999997,-244.19,-224.37700000000001,-253.94800000000001,4.6797800000000001,-10.1427,-22.580200000000001
215441.0,49.901800000000001,-71.646900000000002,-57.1554,-76.384699999999995,2.7585799999999998,-10.745900000000001,-24.6294
215442.0,398.33999999999997,-1682.6400000000001,-1611.1099999999999,-1714.02,36.255299999999998,-115.78700000000001,-188.12
215443.0,344.01600000000002,1060.01,1160.8299999999999,1013.85,108.428,-33.744300000000003,-144.58099999999999
215444.0,272.089,6991.2700000000004,6988.2700000000004,7036.5200000000004,70.080500000000001,-39.883000000000003,-132.07900000000001
215445.0,87.749600000000001,9217.25,9268.1800000000003,9263.6399999999994,6.1522600000000001,-10.7677,-40.2303
215446.0,84.853099999999998,2106.1300000000001,2172.6999999999998,2079.8200000000002,9.9331899999999997,-3.04257,0.47663
215447.0,56.374400000000001,688.54600000000005,728.84299999999996,677.39099999999996,6.2143199999999998,-8.0533199999999994,-14.943199999999999
215448.0,74.072299999999998,7136.0,7213.9399999999996,7146.0799999999999,5.2049200000000004,1.0171600000000001,1.9074500000000001
215449.0,276.68900000000002,8830.7399999999998,8828.0200000000004,8904.6800000000003,41.9726,-40.4818,-142.22
215450.0,315.76299999999998,2944.9400000000001,3019.79,2923.7399999999998,107.857,-34.825499999999998,-133.57900000000001
215451.0,319.56700000000001,1919.6099999999999,2000.6500000000001,1881.8099999999999,108.34699999999999,-40.867100000000001,-130.17400000000001
215452.0,302.613,4150.5299999999997,4204.46,4139.2200000000003,102.91200000000001,-33.1267,-132.745
215453.0,277.43299999999999,4781.96,4815.4799999999996,4782.5100000000002,97.000799999999998,-33.903500000000001,-121.364
215454.0,258.24799999999999,5475.5799999999999,5493.04,5492.79,88.256,-32.643000000000001,-115.22
215455.0,262.89600000000002,6289.1300000000001,6294.6300000000001,6320.25,79.751999999999995,-36.743299999999998,-122.68600000000001
215456.0,254.78,-6426.8400000000001,-6420.9799999999996,-6394.0600000000004,72.854900000000001,-38.093699999999998,-120.718
215457.0,276.43299999999999,7837.9899999999998,7832.4099999999999,7899.7600000000002,56.0364,-39.640500000000003,-139.15199999999999
215458.0,253.863,9514.2999999999993,9517.9200000000001,9594.9200000000001,29.4298,-37.332099999999997,-130.953
215459.0,208.422,9972.7299999999996,9986.8400000000001,10051.6,19.797000000000001,-30.3704,-106.762
215460.0,168.96100000000001,10091.200000000001,10115.5,10164.299999999999,12.9924,-24.181100000000001,-85.886300000000006
215461.0,122.598,9823.2700000000004,9860.25,9885.3400000000001,8.2804300000000008,-16.669,-60.733899999999998
215462.0,102.631,-9574.3299999999999,-9540.0,-9510.1900000000005,5.6431100000000001,-16.230499999999999,-46.747599999999998
215463.0,67.089500000000001,8311.7999999999993,8378.3400000000001,8338.8899999999994,5.7310999999999996,-5.1592700000000002,-17.926400000000001
215464.0,73.913600000000002,5825.5900000000001,5902.6099999999997,5834.3100000000004,1.85216,2.93031,5.50983
215465.0,67.4876,4763.6999999999998,4834.3000000000002,4776.21,-0.25293199999999999,-3.03383,-9.4701199999999996
215466.0,75.090599999999995,3973.8600000000001,4043.6700000000001,3974.1199999999999,2.87676,-7.2745899999999999,-14.137499999999999
215467.0,85.127399999999994,3103.4299999999998,3175.27,3083.9499999999998,7.9667399999999997,-4.8126499999999997,-3.9556300000000002
215468.0,80.453299999999999,-2845.8899999999999,-2781.0999999999999,-2869.2199999999998,8.4249500000000008,-1.3848,0.250554
215469.0,68.971000000000004,1257.49,1310.97,1237.4000000000001,8.5616400000000006,-5.3514299999999997,-6.14391
215470.0,51.759099999999997,342.58699999999999,372.92599999999999,338.315,4.1149500000000003,-9.6452000000000009,-20.662400000000002
215471.0,50.159399999999998,146.65899999999999,168.863,147.73400000000001,2.31948,-10.4239,-23.829799999999999
215472.0,50.703400000000002,43.762500000000003,60.1982,47.609699999999997,1.0189299999999999,-10.6936,-25.838999999999999
215473.0,53.307600000000001,47.461399999999998,-4.2881299999999998,39.207799999999999,-12.4947,-0.50445499999999999,-4.2256400000000003
215474.0,310.52699999999999,-1647.21,-1590.2,-1696.4200000000001,100.687,-50.441099999999999,-128.976
215475.0,301.67700000000002,-2328.98,-2249.8299999999999,-2356.3099999999999,104.294,-34.615699999999997,-123.298
215476.0,289.892,-3486.73,-3419.8000000000002,-3499.1300000000001,98.024600000000007,-29.6677,-125.30800000000001
215477.0,266.73099999999999,-4418.2299999999996,-4376.21,-4417.71,91.301400000000001,-29.607800000000001,-117.988
215478.0,246.08600000000001,-4968.46,-4944.5299999999997,-4957.5100000000002,87.230599999999995,-29.932500000000001,-107.413
215479.0,242.97,-5710.5500000000002,-5693.2600000000002,-5689.3299999999999,78.250900000000001,-32.418199999999999,-111.249
215480.0,263.101,-7129.7600000000002,-7131.0799999999999,-7081.6999999999998,62.745100000000001,-41.365299999999998,-128.97499999999999
215481.0,269.14400000000001,-8069.9399999999996,-8070.3900000000003,-8004.6499999999996,47.423200000000001,-43.328400000000002,-136.34200000000001
215482.0,259.06900000000002,-8967.5499999999993,-8969.5799999999999,-8887.9799999999996,35.089100000000002,-43.341700000000003,-130.755
215483.0,226.178,-9576.0499999999993,-9574.4599999999991,-9488.2399999999998,23.1755,-37.8093,-112.07599999999999
215484.0,185.85499999999999,-9939.6499999999996,-9927.3400000000001,-9855.9699999999993,15.128299999999999,-30.538599999999999,-91.166499999999999
215485.0,142.34,-9942.6900000000005,-9921.1399999999994,-9865.1800000000003,9.0740800000000004,-23.056799999999999,-67.370099999999994
215486.0,66.326700000000002,-8895.4400000000005,-8847.3500000000004,-8847.4899999999998,3.49716,-9.6080500000000004,-24.360299999999999
215487.0,55.1708,-7940.29,-7877.71,-7913.0799999999999,3.7290000000000001,-3.2941400000000001,-2.2401200000000001
215488.0,71.749099999999999,-6691.6300000000001,-6616.9799999999996,-6683.0699999999997,3.4039600000000001,0.124163,5.9717599999999997
215489.0,72.508300000000006,-5399.8500000000004,-5326.1099999999997,-5393.5900000000001,1.02881,-3.3991600000000002,-8.2592800000000004
215490.0,65.952799999999996,-4499.6599999999999,-4436.3000000000002,-4490.8999999999996,0.33135100000000001,-6.7677199999999997,-15.0144
215491.0,64.497,-3789.5599999999999,-3729.0300000000002,-3794.5900000000001,4.0268699999999997,-4.1982299999999997,-4.6283799999999999
215492.0,81.554699999999997,-1819.76,-1758.8599999999999,-1847.4400000000001,9.9011600000000008,-3.72512,-7.1536099999999996
215493.0,70.399799999999999,-1032.79,-984.24699999999996,-1053.01,8.5853199999999994,-7.7451600000000003,-16.411200000000001
215494.0,61.237099999999998,-536.01900000000001,-499.30000000000001,-546.97500000000002,6.1165900000000004,-9.7592400000000001,-22.221299999999999
215495.0,56.763199999999998,-238.67500000000001,-211.251,-242.88399999999999,4.04488,-10.7148,-25.4513
215496.0,54.314500000000002,-72.366299999999995,-52.721200000000003,-71.408500000000004,2.23922,-11.1099,-27.059799999999999
215497.0,354.04399999999998,-1428.8699999999999,-1333.25,-1436.49,25.835799999999999,-116.063,-155.995
215498.0,318.64100000000002,710.35500000000002,811.40300000000002,669.58000000000004,105.464,-28.376000000000001,-128.78299999999999
215499.0,252.874,5862.2200000000003,5863.4700000000003,5908.8100000000004,63.209400000000002,-33.978200000000001,-124.34
215500.0,112.235,9472.0200000000004,9528.3899999999994,9534.0699999999997,3.71468,-11.642099999999999,-53.597299999999997
215501.0,90.588899999999995,2260.1399999999999,2335.2199999999998,2237.7800000000002,10.9398,-3.2158699999999998,-0.0063568399999999999
215502.0,62.073900000000002,799.14800000000002,847.88599999999997,792.32399999999996,4.6401500000000002,-7.5743299999999998,-16.949999999999999
215503.0,75.908799999999999,7580.9799999999996,7665.2200000000003,7607.8000000000002,4.0497300000000003,-1.65107,-7.0290100000000004
215504.0,294.27100000000002,7751.7200000000003,7753.3299999999999,7836.96,36.840000000000003,-38.244999999999997,-153.84399999999999
215505.0,283.37299999999999,2580.3600000000001,2646.0999999999999,2559.54,106.10599999999999,-29.879100000000001,-112.134
215506.0,294.52699999999999,1785.3099999999999,1858.27,1747.0,108.422,-34.888500000000001,-112.90600000000001
215507.0,273.15899999999999,3179.9899999999998,3230.0100000000002,3168.6300000000001,100.89700000000001,-27.780799999999999,-113.374
215508.0,247.01499999999999,4071.3899999999999,4100.1999999999998,4067.2600000000002,93.322199999999995,-26.3599,-103.01900000000001
215509.0,226.72999999999999,4532.1099999999997,4547.1700000000001,4546.3999999999996,84.104100000000003,-26.100899999999999,-96.482100000000003
215510.0,238.46700000000001,4982.7700000000004,4991.0799999999999,5013.4200000000001,74.494900000000001,-31.1553,-110.381
215511.0,233.798,-5147.79,-5133.4099999999999,-5114.71,67.764399999999995,-32.688699999999997,-110.837
215512.0,271.99799999999999,6767.6800000000003,6766.0900000000001,6836.2700000000004,50.593899999999998,-35.824300000000001,-138.608
215513.0,279.54199999999997,8907.8199999999997,8915.8600000000006,9001.1900000000005,24.6556,-36.007599999999996,-146.51300000000001
215514.0,232.624,9636.1499999999996,9655.5699999999997,9728.7399999999998,16.208400000000001,-28.871600000000001,-120.655
215515.0,194.69399999999999,9921.7900000000009,9951.5900000000001,10010.0,9.6713199999999997,-23.216699999999999,-99.946799999999996
215516.0,148.54900000000001,9870.4599999999991,9912.5300000000007,9948.2399999999998,5.4268099999999997,-16.5701,-74.403300000000002
215517.0,128.18100000000001,-9720.7399999999998,-9682.7900000000009,-9641.0499999999993,2.5837400000000001,-16.225899999999999,-60.1511
215518.0,82.359700000000004,8711.7000000000007,8784.6399999999994,8752.8400000000001,4.1904899999999996,-6.7626499999999998,-29.332100000000001
215519.0,75.511700000000005,6383.1899999999996,6467.0699999999997,6408.7399999999998,2.6896900000000001,-3.9941499999999999,-5.3777600000000003
215520.0,79.288899999999998,5419.5200000000004,5499.4200000000001,5437.5699999999997,4.6739300000000004,-8.9911499999999993,-15.391
215521.0,88.400400000000005,4496.9899999999998,4578.8900000000003,4492.4200000000001,9.7569099999999995,-6.2409999999999997,-10.145300000000001
215522.0,98.323899999999995,3379.6799999999998,3462.6399999999999,3357.8299999999999,12.5463,-2.6314299999999999,0.78895000000000004
215523.0,93.897400000000005,-3052.1300000000001,-2975.6199999999999,-3077.0500000000002,11.5106,-3.5865900000000002,0.15082100000000001
215524.0,73.447800000000001,1387.97,1449.5699999999999,1373.6400000000001,7.3834900000000001,-5.6603000000000003,-9.1621900000000007
215525.0,56.692100000000003,421.392,459.346,420.01400000000001,2.9658799999999998,-8.9033899999999999,-22.0229
215526.0,53.693600000000004,181.56899999999999,210.113,184.86799999999999,1.64154,-9.6111500000000003,-24.942399999999999
215527.0,53.026000000000003,45.5959,67.065299999999993,51.603099999999998,0.69902200000000003,-9.8094699999999992,-26.7928
215528.0,53.8217,47.623399999999997,-4.42279,39.809800000000003,-12.625,-1.1623300000000001,-4.1375900000000003
215529.0,288.31900000000002,-1379.4300000000001,-1320.29,-1420.27,99.650300000000001,-46.926900000000003,-114.235
215530.0,270.45499999999998,-2230.46,-2162.8000000000002,-2257.1300000000001,102.68000000000001,-29.311299999999999,-103.03100000000001
215531.0,260.76299999999998,-2756.04,-2693.1700000000001,-2768.9299999999998,96.446600000000004,-23.688800000000001,-105.64
215532.0,239.89699999999999,-3531.8099999999999,-3491.1799999999998,-3533.1199999999999,88.618499999999997,-22.974599999999999,-101.16200000000001
215533.0,214.00399999999999,-4265.3699999999999,-4242.2200000000003,-4257.21,82.545599999999993,-22.585999999999999,-88.341200000000001
215534.0,218.30000000000001,-4520.5600000000004,-4497.0,-4502.0100000000002,75.911699999999996,-27.127300000000002,-96.085099999999997
215535.0,249.08199999999999,-6063.2399999999998,-6053.9499999999998,-6012.6599999999999,57.465000000000003,-36.494599999999998,-123.78100000000001
215536.0,277.55099999999999,-6895.6199999999999,-6886.3800000000001,-6824.9799999999996,45.157499999999999,-41.2136,-143.06200000000001
215537.0,281.08999999999997,-8059.75,-8055.5500000000002,-7968.6800000000003,30.322800000000001,-41.336799999999997,-145.14099999999999
215538.0,249.905,-9148.5100000000002,-9143.2399999999998,-9046.8099999999995,19.142099999999999,-35.676200000000001,-126.095
215539.0,209.80000000000001,-9695.8400000000001,-9679.3799999999992,-9598.2399999999998,11.6546,-28.998999999999999,-104.715
215540.0,167.31899999999999,-9864.1100000000006,-9839.0200000000004,-9771.6900000000005,5.7876799999999999,-22.081199999999999,-80.789299999999997
215541.0,88.067700000000002,-9231.5100000000002,-9179.2900000000009,-9167.8299999999999,1.0868100000000001,-10.2669,-36.4176
215542.0,63.726300000000002,-8363.7099999999991,-8294.6299999999992,-8321.6399999999994,2.31338,-4.4843099999999998,-10.7895
215543.0,73.970699999999994,-7154.1999999999998,-7071.6700000000001,-7128.0100000000002,1.96973,-3.2802600000000002,-5.5540799999999999
215544.0,76.081800000000001,-6021.2799999999997,-5943.4399999999996,-5999.0699999999997,2.2618200000000002,-7.1466599999999998,-16.291399999999999
215545.0,68.063999999999993,-5185.1199999999999,-5116.4899999999998,-5172.9499999999998,5.4023700000000003,-5.90998,-11.801600000000001
215546.0,79.998800000000003,-4240.1599999999999,-4167.3299999999999,-4250.2299999999996,9.1321499999999993,-1.88371,0.33940799999999999
215547.0,87.694299999999998,-1956.5999999999999,-1887.3499999999999,-1979.99,9.9689700000000006,-7.0865,-9.6298899999999996
215548.0,74.675299999999993,-1169.4100000000001,-1113.01,-1184.22,6.8221600000000002,-8.6693099999999994,-18.038499999999999
215549.0,65.581599999999995,-651.86000000000001,-607.63999999999999,-659.14400000000001,4.4915799999999999,-9.4867699999999999,-23.3796
215550.0,60.6267,-316.33600000000001,-282.21600000000001,-318.19099999999997,3.00576,-10.152200000000001,-26.510400000000001
215551.0,57.286200000000001,-103.931,-78.678799999999995,-101.137,1.8005599999999999,-10.4742,-28.0947
215552.0,305.93299999999999,-1240.6700000000001,-1124.5799999999999,-1224.1700000000001,19.705500000000001,-110.682,-120.893
215553.0,293.28500000000003,732.00099999999998,831.03599999999994,697.25199999999995,103.83199999999999,-24.617799999999999,-111.651
215554.0,232.69999999999999,4557.3299999999999,4560.0200000000004,4603.21,58.1935,-29.7316,-114.527
215555.0,136.19499999999999,9570.3600000000006,9623.3500000000004,9645.2299999999996,3.2855599999999998,-13.058400000000001,-67.228300000000004
215556.0,82.816400000000002,2275.8499999999999,2347.75,2263.25,11.871499999999999,-6.2729999999999997,-5.2507099999999998
215557.0,63.7532,942.80200000000002,994.16800000000001,938.19799999999998,4.5361599999999997,-7.7258599999999999,-17.582999999999998
215558.0,79.657899999999998,8057.3000000000002,8141.0799999999999,8094.0100000000002,5.6607000000000003,-6.7226400000000002,-16.563600000000001
215559.0,300.98599999999999,6826.3100000000004,6826.0699999999997,6915.6499999999996,34.926400000000001,-36.604300000000002,-158.02000000000001
215560.0,247.15600000000001,1965.96,2023.0999999999999,1944.3900000000001,100.8,-25.395700000000001,-88.894300000000001
215561.0,266.846,1362.29,1430.4300000000001,1324.5599999999999,103.163,-31.1297,-96.151399999999995
215562.0,237.255,2678.8800000000001,2721.3800000000001,2665.7199999999998,97.534300000000002,-20.3919,-89.377099999999999
215563.0,217.20400000000001,2958.4499999999998,2985.5100000000002,2953.4200000000001,88.772999999999996,-19.333200000000001,-84.6965
215564.0,200.00999999999999,3366.8299999999999,3382.3400000000001,3377.9299999999998,79.573999999999998,-20.518699999999999,-80.732799999999997
215565.0,210.61099999999999,3959.0300000000002,3965.9299999999998,3985.4499999999998,69.273799999999994,-24.840699999999998,-95.8232
215566.0,209.93799999999999,-3991.0,-3969.9099999999999,-3960.21,63.275700000000001,-27.657299999999999,-98.359999999999999
215567.0,265.47399999999999,5497.5699999999997,5496.1400000000003,5568.1300000000001,46.776499999999999,-34.006,-135.846
215568.0,297.94600000000003,8019.1700000000001,8023.5600000000004,8118.5100000000002,24.944099999999999,-35.039099999999998,-156.81100000000001
215569.0,254.673,8996.9699999999993,9010.7099999999991,9096.1000000000004,17.467500000000001,-28.923500000000001,-132.63999999999999
215570.0,219.14099999999999,9590.0400000000009,9614.8799999999992,9687.5400000000009,10.262700000000001,-23.6493,-113.03
215571.0,174.44300000000001,9769.2999999999993,9807.0100000000002,9858.7199999999993,5.4555400000000001,-17.5154,-88.2714
215572.0,153.78399999999999,-9697.4599999999991,-9663.9099999999999,-9605.5499999999993,2.1023999999999998,-17.130600000000001,-73.635400000000004
215573.0,98.370699999999999,9002.4599999999991,9073.9099999999999,9056.4500000000007,3.7558099999999999,-8.8896599999999992,-41.771999999999998
215574.0,82.547700000000006,6919.5799999999999,7006.1700000000001,6941.3199999999997,9.1822400000000002,-9.3021899999999995,-8.4566300000000005
215575.0,90.306899999999999,5741.04,5826.7799999999997,5743.3000000000002,14.857799999999999,-9.4314300000000006,-4.5818000000000003
215576.0,98.001400000000004,4462.7600000000002,4547.7200000000003,4450.3299999999999,18.5839,-6.2334800000000001,2.7591399999999999
215577.0,94.063400000000001,3261.54,3342.0500000000002,3246.46,16.604199999999999,-5.63157,0.89989300000000005
215578.0,90.956999999999994,-2913.0799999999999,-2836.3800000000001,-2928.8800000000001,14.4024,-8.5164600000000004,-5.45702
215579.0,71.603099999999998,1512.6800000000001,1574.1400000000001,1504.1600000000001,7.5277599999999998,-7.0601700000000003,-12.0213
215580.0,59.347200000000001,531.10000000000002,573.41600000000005,529.80100000000004,2.6086499999999999,-8.3628699999999991,-21.9438
215581.0,55.701799999999999,244.934,278.38200000000001,247.43600000000001,1.1616299999999999,-8.718,-24.693200000000001
215582.0,54.019300000000001,59.030900000000003,85.252300000000005,64.373900000000006,0.23169899999999999,-8.8032000000000004,-26.5168
215583.0,54.171399999999998,48.499099999999999,-3.6785999999999999,41.308399999999999,-12.592700000000001,-1.7542599999999999,-4.1053800000000003
215584.0,269.19400000000002,-1206.1099999999999,-1145.8599999999999,-1239.6199999999999,99.501400000000004,-44.059100000000001,-100.28
215585.0,234.77799999999999,-1653.72,-1597.1400000000001,-1679.0899999999999,95.146000000000001,-25.3096,-83.186700000000002
215586.0,228.20400000000001,-2286.5500000000002,-2232.6900000000001,-2301.5100000000002,94.938800000000001,-16.982199999999999,-82.141199999999998
215587.0,209.35300000000001,-2745.1900000000001,-2707.2199999999998,-2750.5,85.8001,-16.0992,-80.196799999999996
215588.0,189.94499999999999,-2988.21,-2959.1199999999999,-2980.7800000000002,78.8005,-17.395700000000001,-72.703999999999994
215589.0,194.87299999999999,-3441.23,-3415.3600000000001,-3425.7800000000002,73.735200000000006,-22.4163,-80.930499999999995
215590.0,235.40899999999999,-4670.96,-4653.7799999999997,-4620.6300000000001,53.5486,-32.935400000000001,-117.753
215591.0,276.935,-5808.8000000000002,-5798.2200000000003,-5737.75,42.7883,-38.4649,-144.16900000000001
215592.0,293.27300000000002,-7156.6899999999996,-7153.1099999999997,-7062.6800000000003,29.342099999999999,-38.400500000000001,-153.285
215593.0,269.56200000000001,-8327.2800000000007,-8327.5499999999993,-8220.5,19.1663,-33.8078,-137.47900000000001
215594.0,231.886,-9186.9699999999993,-9176.4500000000007,-9082.4699999999993,12.1812,-28.625299999999999,-116.81399999999999
215595.0,192.065,-9641.7999999999993,-9621.6499999999996,-9539.6100000000006,5.9341299999999997,-22.345800000000001,-93.976200000000006
215596.0,110.47199999999999,-9395.2700000000004,-9346.8500000000004,-9318.2999999999993,0.406331,-11.723800000000001,-49.158799999999999
215597.0,72.7791,-8738.4799999999996,-8672.3700000000008,-8683.5499999999993,1.47228,-6.9402699999999999,-21.517800000000001
215598.0,71.527199999999993,-7683.5,-7606.1199999999999,-7649.21,4.5541700000000001,-7.06724,-11.466799999999999
215599.0,74.318399999999997,-6536.6700000000001,-6460.04,-6520.2200000000003,10.251899999999999,-7.5892499999999998,-7.14229
215600.0,84.383200000000002,-5351.5900000000001,-5273.5799999999999,-5354.0200000000004,15.7555,-5.3645899999999997,1.5702799999999999
215601.0,94.840000000000003,-4050.96,-3969.46,-4065.1199999999999,17.156099999999999,-6.1626000000000003,0.62123499999999998
215602.0,81.359399999999994,-2005.9200000000001,-1938.6199999999999,-2019.1300000000001,9.9555500000000006,-9.4161099999999998,-12.4209
215603.0,72.251999999999995,-1307.79,-1250.95,-1316.9400000000001,6.2668400000000002,-9.4454999999999991,-18.251000000000001
215604.0,66.071100000000001,-787.12699999999995,-740.03200000000004,-792.27800000000002,3.8044799999999999,-9.5162099999999992,-22.827300000000001
215605.0,62.304600000000001,-414.68099999999998,-376.10500000000002,-416.46499999999997,2.2913600000000001,-9.7213499999999993,-25.9648
215606.0,58.752600000000001,-159.03299999999999,-128.82400000000001,-156.976,1.1645399999999999,-9.78139,-27.725300000000001
215607.0,258.89299999999997,-947.34299999999996,-812.83699999999999,-907.53499999999997,15.7738,-101.167,-84.167400000000001
215608.0,267.53800000000001,387.16399999999999,480.76600000000002,358.03300000000002,103.38200000000001,-22.249199999999998,-92.540999999999997
215609.0,210.09800000000001,3453.9899999999998,3456.4000000000001,3495.73,50.276299999999999,-26.344000000000001,-104.608
215610.0,157.214,9398.3199999999997,9442.6100000000006,9482.2199999999993,2.9466100000000002,-14.571099999999999,-79.095399999999998
215611.0,75.124499999999998,2201.1900000000001,2266.25,2192.5100000000002,11.9697,-8.1817100000000007,-6.8202400000000001
215612.0,61.421999999999997,973.73400000000004,1022.89,971.01300000000003,4.9017299999999997,-8.3488299999999995,-17.6449
215613.0,82.387900000000002,8243.5400000000009,8320.6900000000005,8281.1399999999994,8.5225000000000009,-10.0395,-24.5151
215614.0,283.61500000000001,5508.54,5504.9899999999998,5593.5100000000002,31.8736,-34.729199999999999,-148.59
215615.0,217.624,1538.3199999999999,1587.4400000000001,1515.4300000000001,99.646299999999997,-21.506499999999999,-63.571599999999997
215616.0,244.36799999999999,1188.27,1255.6300000000001,1153.8,101.39,-26.564399999999999,-78.974800000000002
215617.0,207.30600000000001,1605.6500000000001,1637.8699999999999,1591.28,97.741500000000002,-12.776199999999999,-63.5565
215618.0,198.84399999999999,2098.48,2116.6100000000001,2089.3899999999999,90.1524,-12.689399999999999,-68.549899999999994
215619.0,184.946,2370.0799999999999,2378.4899999999998,2373.75,79.402500000000003,-16.440899999999999,-69.345500000000001
215620.0,185.25399999999999,2678.77,2683.4499999999998,2700.3200000000002,63.987400000000001,-19.592199999999998,-82.662199999999999
215621.0,186.34,-2771.0900000000001,-2747.6500000000001,-2744.9499999999998,56.044499999999999,-23.664899999999999,-87.558700000000002
215622.0,245.614,4397.1999999999998,4395.9099999999999,4463.0799999999999,39.602899999999998,-31.636700000000001,-126.742
215623.0,294.22300000000001,6931.1300000000001,6926.7600000000002,7028.04,24.704699999999999,-32.7438,-154.58000000000001
215624.0,269.67399999999998,8078.8900000000003,8081.6300000000001,8180.4899999999998,16.932200000000002,-27.712299999999999,-140.84200000000001
215625.0,243.04900000000001,8858.0300000000007,8871.9599999999991,8961.3099999999995,9.1353000000000009,-23.672499999999999,-126.12
215626.0,199.17400000000001,9316.2600000000002,9344.0699999999997,9413.6499999999996,4.4182100000000002,-18.343499999999999,-101.73699999999999
215627.0,177.148,-9352.6499999999996,-9328.2000000000007,-9251.4300000000003,1.32812,-17.789200000000001,-85.747799999999998
215628.0,112.455,9053.5900000000001,9115.9799999999996,9115.9699999999993,4.55959,-11.2668,-52.632599999999996
215629.0,87.569800000000001,7083.8100000000004,7170.8100000000004,7095.2399999999998,14.344200000000001,-9.5979700000000001,-4.8175299999999996
215630.0,102.28,5698.6599999999999,5788.79,5690.1300000000001,19.347899999999999,-7.2992100000000004,8.4557000000000002
215631.0,101.098,4298.6899999999996,4383.29,4284.1800000000003,19.769500000000001,-6.6829000000000001,10.326700000000001
215632.0,86.674800000000005,3118.8299999999999,3193.25,3107.0,16.0489,-7.7458200000000001,0.84509299999999998
215633.0,84.390000000000001,-2773.04,-2702.0500000000002,-2785.3200000000002,14.1463,-10.176299999999999,-7.0426000000000002
215634.0,66.516400000000004,1499.54,1556.0899999999999,1494.0899999999999,8.1021699999999992,-8.2156800000000008,-12.7606
215635.0,59.1372,580.27999999999997,623.14599999999996,579.44899999999996,2.6725099999999999,-8.5624000000000002,-21.463100000000001
215636.0,56.126300000000001,278.36799999999999,314.245,280.45999999999998,0.84463900000000003,-8.3209800000000005,-23.971
215637.0,54.462499999999999,65.429500000000004,95.143100000000004,70.311300000000003,-0.47832599999999997,-8.1196099999999998,-25.858699999999999
215638.0,54.488799999999998,48.114800000000002,-4.0996300000000003,41.732199999999999,-12.5123,-2.2492100000000002,-4.0973100000000002
215639.0,251.16499999999999,-933.46900000000005,-875.12300000000005,-960.36199999999997,101.194,-41.455599999999997,-84.677400000000006
215640.0,206.85400000000001,-1491.6600000000001,-1438.25,-1512.29,91.510400000000004,-20.133800000000001,-63.429099999999998
215641.0,201.334,-1477.5699999999999,-1435.01,-1494.4100000000001,97.119299999999996,-11.4802,-54.868200000000002
215642.0,190.858,-1693.3900000000001,-1656.5799999999999,-1703.01,88.697599999999994,-9.7518100000000008,-59.8279
215643.0,178.608,-2139.8400000000001,-2115.77,-2139.0700000000002,80.726500000000001,-14.0549,-61.091299999999997
215644.0,176.11199999999999,-2289.9200000000001,-2268.2399999999998,-2279.27,72.205200000000005,-19.034400000000002,-68.154499999999999
215645.0,214.46100000000001,-3656.98,-3638.8099999999999,-3611.0700000000002,45.372,-29.205500000000001,-109.018
215646.0,255.58500000000001,-4601.3599999999997,-4590.5699999999997,-4534.9200000000001,36.398600000000002,-33.520499999999998,-134.36799999999999
215647.0,280.50900000000001,-5925.5200000000004,-5925.8599999999997,-5839.0200000000004,27.8291,-33.728000000000002,-147.69
215648.0,274.30200000000002,-7345.4300000000003,-7351.4200000000001,-7242.9899999999998,18.5122,-30.8308,-141.679
215649.0,251.71899999999999,-8338.4899999999998,-8336.7199999999993,-8231.2800000000007,11.228400000000001,-28.090499999999999,-128.20500000000001
215650.0,216.71000000000001,-9003.2600000000002,-8992.8299999999999,-8893.9599999999991,5.2682799999999999,-22.944099999999999,-107.06
215651.0,130.76400000000001,-9314.6700000000001,-9275.6800000000003,-9228.5200000000004,0.81281899999999996,-12.929399999999999,-60.588200000000001
215652.0,82.890900000000002,-8830.6499999999996,-8775.2900000000009,-8767.6900000000005,2.9521500000000001,-9.0676699999999997,-31.914899999999999
215653.0,65.578199999999995,-7892.1199999999999,-7823.4099999999999,-7856.9799999999996,8.8912099999999992,-8.1058599999999998,-10.4054
215654.0,81.829099999999997,-6650.3599999999997,-6571.3100000000004,-6642.8800000000001,15.895899999999999,-6.5750000000000002,5.6371900000000004
215655.0,99.381900000000002,-5221.1700000000001,-5135.8800000000001,-5232.4300000000003,19.207599999999999,-6.5085800000000003,9.6775300000000009
215656.0,96.3339,-3850.6999999999998,-3769.7800000000002,-3866.1700000000001,18.0595,-9.3141200000000008,0.80076499999999995
215657.0,74.848500000000001,-1937.29,-1875.3199999999999,-1946.1500000000001,10.032999999999999,-10.1904,-13.176399999999999
215658.0,67.913799999999995,-1300.1099999999999,-1246.5,-1305.53,6.3904800000000002,-10.0588,-18.1876
215659.0,63.803199999999997,-824.01700000000005,-777.70299999999997,-826.69399999999996,3.7170999999999998,-9.9356399999999994,-22.038399999999999
215660.0,61.747599999999998,-462.56900000000002,-422.36000000000001,-463.44499999999999,1.93201,-9.7821200000000008,-24.911300000000001
215661.0,59.109299999999998,-184.90600000000001,-151.33199999999999,-182.77000000000001,0.35979299999999997,-9.3267199999999999,-26.9102
215662.0,219.46000000000001,-727.49099999999999,-576.45100000000002,-666.27499999999998,15.2761,-88.584199999999996,-46.928699999999999
215663.0,240.22200000000001,401.37099999999998,486.68299999999999,377.63900000000001,102.682,-21.017199999999999,-70.4375
215664.0,189.80199999999999,2319.2800000000002,2320.23,2354.8600000000001,42.950299999999999,-23.2775,-95.972399999999993
215665.0,172.94399999999999,8877.5200000000004,8909.7099999999991,8965.3700000000008,0.82734799999999997,-14.8352,-88.170599999999993
215666.0,70.255899999999997,2091.1300000000001,2152.3299999999999,2082.8800000000001,10.4237,-8.3721300000000003,-5.2308399999999997
215667.0,57.651600000000002,938.45600000000002,985.12699999999995,937.76099999999997,3.53945,-8.0039400000000001,-17.1541
215668.0,83.116900000000001,8111.6999999999998,8178.8299999999999,8150.4499999999998,9.2003799999999991,-10.0413,-31.335799999999999
215669.0,242.23599999999999,4413.9200000000001,4409.6000000000004,4486.4200000000001,26.890799999999999,-30.492999999999999,-126.664
215670.0,200.71199999999999,874.56299999999999,904.82299999999998,842.98500000000001,102.548,-14.226699999999999,-41.879800000000003
215671.0,228.523,708.16399999999999,767.34699999999998,675.72299999999996,105.056,-22.1221,-61.017600000000002
215672.0,188.715,987.94100000000003,996.43200000000002,965.303,100.292,-7.6321599999999998,-38.671599999999998
215673.0,177.15799999999999,917.32500000000005,917.51800000000003,901.08600000000001,87.418899999999994,-8.3048800000000007,-51.591099999999997
215674.0,166.28899999999999,1264.9000000000001,1260.1400000000001,1258.77,73.141599999999997,-14.3955,-60.4163
215675.0,165.40600000000001,1755.79,1752.46,1770.1700000000001,58.7697,-17.293299999999999,-72.651399999999995
215676.0,167.048,-1819.55,-1802.8699999999999,-1800.96,49.798999999999999,-22.2089,-78.891599999999997
215677.0,218.482,3246.1999999999998,3245.2199999999998,3301.6999999999998,33.0745,-29.5548,-113.57299999999999
215678.0,264.09899999999999,5467.9700000000003,5460.6199999999999,5558.6099999999997,20.003299999999999,-28.295500000000001,-138.09399999999999
215679.0,271.91800000000001,6643.4099999999999,6639.5600000000004,6747.3299999999999,12.190200000000001,-25.206700000000001,-141.86099999999999
215680.0,262.19999999999999,7784.4300000000003,7788.1700000000001,7892.0299999999997,4.6347800000000001,-22.0657,-136.66999999999999
215681.0,221.32300000000001,8565.2999999999993,8580.9899999999998,8666.8600000000006,1.04318,-18.1768,-114.051
215682.0,196.41499999999999,-8683.0499999999993,-8670.6200000000008,-8576.2399999999998,-1.1051200000000001,-17.207100000000001,-95.657200000000003
215683.0,121.905,8723.7600000000002,8773.3500000000004,8790.1499999999996,3.7788499999999998,-11.5922,-60.1126
215684.0,85.260599999999997,7031.71,7114.21,7040.71,16.401499999999999,-9.3917699999999993,-4.1618899999999996
215685.0,105.173,5614.9899999999998,5702.8800000000001,5603.6899999999996,21.327000000000002,-8.3028899999999997,14.659599999999999
215686.0,101.26600000000001,4172.46,4253.8900000000003,4156.1099999999997,19.9132,-7.9622000000000002,14.655099999999999
215687.0,83.563299999999998,2988.2399999999998,3058.9299999999998,2975.3699999999999,14.8919,-8.3054000000000006,3.59077
215688.0,81.076499999999996,-2646.8200000000002,-2578.6100000000001,-2659.75,12.3955,-10.452199999999999,-5.2642100000000003
215689.0,61.387799999999999,1424.8399999999999,1477.8,1421.1300000000001,6.6013400000000004,-8.1469900000000006,-11.8774
215690.0,57.157400000000003,572.37699999999995,614.62300000000005,572.89499999999998,1.44553,-7.9933899999999998,-20.8643
215691.0,55.3568,282.96300000000002,319.97199999999998,285.73500000000001,-0.23410300000000001,-7.64053,-23.196999999999999
215692.0,54.375,68.823400000000007,100.828,73.962800000000001,-1.4699899999999999,-7.4142099999999997,-25.159700000000001
215693.0,54.781199999999998,48.999499999999998,-3.2148400000000001,43.495100000000001,-12.374000000000001,-2.65591,-4.1329900000000004
215694.0,232.749,-720.22299999999996,-666.11800000000005,-740.13499999999999,104.149,-38.223599999999998,-65.438500000000005
215695.0,194.07499999999999,-822.78700000000003,-778.90899999999999,-842.81299999999999,95.798599999999993,-15.477600000000001,-45.494799999999998
215696.0,184.625,-911.84100000000001,-889.47799999999995,-935.26900000000001,99.4392,-5.5588199999999999,-30.311800000000002
215697.0,178.11099999999999,-808.15999999999997,-786.57799999999997,-827.625,92.729900000000001,-6.2012299999999998,-38.930500000000002
215698.0,158.239,-909.87,-896.94799999999998,-919.92200000000003,74.434399999999997,-11.641500000000001,-50.377600000000001
215699.0,154.33199999999999,-1388.8199999999999,-1381.1099999999999,-1387.02,65.173100000000005,-17.299199999999999,-58.106299999999997
215700.0,191.63,-2513.9899999999998,-2499.8000000000002,-2475.04,35.2986,-26.103000000000002,-99.623400000000004
215701.0,218.96899999999999,-3593.8299999999999,-3586.0999999999999,-3536.6500000000001,29.769400000000001,-28.363900000000001,-115.45099999999999
215702.0,239.84100000000001,-4681.46,-4677.4799999999996,-4607.1400000000003,23.0763,-27.511199999999999,-127.033
215703.0,259.28899999999999,-5749.0900000000001,-5748.1199999999999,-5654.3199999999997,15.4976,-26.749099999999999,-135.982
215704.0,264.49400000000003,-6971.0100000000002,-6970.8400000000001,-6862.3100000000004,7.8786399999999999,-25.773099999999999,-136.602
215705.0,239.00999999999999,-8056.8900000000003,-8055.6300000000001,-7942.9899999999998,1.3225100000000001,-21.408999999999999,-119.602
215706.0,145.18600000000001,-8845.6200000000008,-8818.7000000000007,-8754.7999999999993,0.27805800000000003,-12.7662,-68.4619
215707.0,92.515299999999996,-8566.6200000000008,-8523.7399999999998,-8499.1800000000003,3.9998300000000002,-9.2943700000000007,-39.820300000000003
215708.0,59.690399999999997,-7819.6000000000004,-7760.71,-7781.9300000000003,10.774900000000001,-7.5712200000000003,-11.1633
215709.0,81.759600000000006,-6612.1899999999996,-6537.4700000000003,-6605.9200000000001,18.213100000000001,-7.15543,11.2881
215710.0,101.342,-5119.8000000000002,-5037.1400000000003,-5133.6300000000001,20.5382,-8.8209999999999997,14.1875
215711.0,94.824100000000001,-3724.1300000000001,-3646.0799999999999,-3741.48,17.089200000000002,-10.3965,3.81216
215712.0,70.736500000000007,-1835.46,-1776.24,-1843.23,8.4070999999999998,-10.3292,-12.171799999999999
215713.0,63.860500000000002,-1234.5999999999999,-1183.3900000000001,-1237.6099999999999,4.8894399999999996,-9.8615200000000005,-17.599900000000002
215714.0,60.5152,-795.11000000000001,-750.15099999999995,-795.25800000000004,2.3117200000000002,-9.3579799999999995,-21.255400000000002
215715.0,59.812800000000003,-457.56,-416.899,-456.59199999999998,0.65158099999999997,-9.1061899999999998,-23.892900000000001
215716.0,58.405299999999997,-190.43799999999999,-154.91200000000001,-187.15700000000001,-0.81942000000000004,-8.6482100000000006,-26.0032
215717.0,197.399,-504.20600000000002,-340.18700000000001,-423.32100000000003,20.921900000000001,-75.6935,-9.7799399999999999
215718.0,217.59299999999999,68.576800000000006,139.68899999999999,46.358899999999998,104.349,-17.4389,-47.038800000000002
215719.0,162.66,1397.71,1401.79,1428.23,33.711500000000001,-20.8126,-83.518100000000004
215720.0,190.46899999999999,8064.1199999999999,8083.6099999999997,8155.0799999999999,-5.5984100000000003,-12.8993,-97.987799999999993
215721.0,64.483999999999995,2011.8299999999999,2069.5900000000001,2005.02,7.3375199999999996,-7.9527799999999997,-3.2050999999999998
215722.0,53.919400000000003,920.92700000000002,966.45500000000004,921.40899999999999,0.87189899999999998,-6.88713,-15.4009
215723.0,82.797200000000004,7725.5900000000001,7782.0,7767.9099999999999,6.0511799999999996,-9.0146899999999999,-36.127600000000001
215724.0,200.40700000000001,3099.3899999999999,3097.27,3159.5700000000002,20.510899999999999,-25.008500000000002,-105.31100000000001
215725.0,187.078,401.21800000000002,415.67899999999997,364.59300000000002,101.259,-7.8742799999999997,-25.638500000000001
215726.0,213.78800000000001,414.80399999999997,456.887,381.834,108.569,-17.261600000000001,-41.649700000000003
215727.0,166.351,56.909300000000002,48.770200000000003,24.758700000000001,93.077600000000004,-3.43384,-16.4193
215728.0,144.74600000000001,120.50700000000001,113.648,102.33,77.482399999999998,-4.2580900000000002,-29.628900000000002
215729.0,135.447,292.06700000000001,292.00099999999998,287.077,59.389099999999999,-10.482200000000001,-49.700800000000001
215730.0,139.149,643.745,643.15999999999997,655.37099999999998,45.895800000000001,-16.1205,-63.564100000000003
215731.0,141.56,-840.28999999999996,-826.13599999999997,-825.48500000000001,38.672199999999997,-20.4861,-68.516599999999997
215732.0,186.364,2287.3200000000002,2290.2600000000002,2332.98,25.0212,-24.892600000000002,-98.379099999999994
215733.0,226.66999999999999,4144.7299999999996,4139.1199999999999,4225.9899999999998,14.590199999999999,-24.272300000000001,-118.15600000000001
215734.0,252.30600000000001,5264.5200000000004,5257.9899999999998,5363.3900000000003,6.9257600000000004,-23.1371,-130.95099999999999
215735.0,259.32999999999998,6406.6599999999999,6401.8500000000004,6512.8699999999999,-0.65690199999999999,-19.008700000000001,-134.601
215736.0,237.29900000000001,7423.6800000000003,7427.4300000000003,7527.2299999999996,-5.4363400000000004,-15.4574,-122.688
215737.0,214.70599999999999,-7621.9300000000003,-7618.6800000000003,-7511.9799999999996,-7.0558300000000003,-14.098800000000001,-105.848
215738.0,131.37899999999999,8163.8999999999996,8201.4200000000001,8233.6900000000005,-1.0478799999999999,-10.2296,-66.540999999999997
215739.0,75.939700000000002,6811.4300000000003,6885.1199999999999,6822.3000000000002,14.8466,-9.0207300000000004,-6.1669299999999998
215740.0,99.585499999999996,5493.1999999999998,5573.6099999999997,5480.8500000000004,20.756,-8.6589700000000001,16.206
215741.0,98.131200000000007,4075.9899999999998,4151.4200000000001,4058.04,19.000800000000002,-8.3834999999999997,17.988800000000001
215742.0,78.839100000000002,2888.02,2954.2399999999998,2875.3699999999999,12.776199999999999,-8.4246200000000009,6.5874600000000001
215743.0,76.570400000000006,-2542.4099999999999,-2476.6900000000001,-2553.6799999999998,9.7029099999999993,-11.0481,-3.0292300000000001
215744.0,56.487900000000003,1378.6800000000001,1429.4000000000001,1376.48,3.4148100000000001,-7.3001899999999997,-10.124000000000001
215745.0,54.905900000000003,577.90599999999995,620.22799999999995,579.27099999999996,-0.58225199999999999,-6.98909,-19.423999999999999
215746.0,54.665199999999999,296.71499999999997,335.18099999999998,299.77999999999997,-1.6365000000000001,-6.9005400000000003,-22.107900000000001
215747.0,54.299700000000001,73.903599999999997,108.429,78.537300000000002,-2.3037899999999998,-6.7690900000000003,-24.0943
215748.0,55.045099999999998,48.599200000000003,-3.5514000000000001,43.987099999999998,-12.2486,-2.9883600000000001,-4.1897000000000002
215749.0,219.095,-364.50999999999999,-317.262,-378.596,109.59399999999999,-32.497300000000003,-43.6111
215750.0,185.82300000000001,-536.21500000000003,-508.71600000000001,-559.827,99.623599999999996,-11.6952,-28.178999999999998
215751.0,169.35300000000001,-228.89099999999999,-222.99799999999999,-257.37599999999998,95.025800000000004,-1.9997499999999999,-13.721399999999999
215752.0,152.904,10.2972,14.7799,-17.665500000000002,85.102900000000005,-2.7937799999999999,-15.2897
215753.0,131.703,-106.352,-89.037499999999994,-120.858,65.145200000000003,-8.2395800000000001,-34.875999999999998
215754.0,124.95,-341.49599999999998,-329.464,-341.23500000000001,49.362900000000003,-14.4276,-50.1203
215755.0,164.898,-1682.5599999999999,-1667.1199999999999,-1649.53,26.701599999999999,-23.133099999999999,-86.847999999999999
215756.0,181.136,-2491.25,-2482.9000000000001,-2442.4200000000001,21.586200000000002,-23.7819,-96.037099999999995
215757.0,199.78800000000001,-3332.3000000000002,-3322.3200000000002,-3267.8699999999999,18.253,-23.698699999999999,-105.866
215758.0,230.28999999999999,-4395.2600000000002,-4387.7700000000004,-4310.6000000000004,11.647600000000001,-23.687100000000001,-121.592
215759.0,251.41999999999999,-5529.8599999999997,-5528.3500000000004,-5428.3900000000003,4.3546800000000001,-21.698599999999999,-131.14599999999999
215760.0,247.048,-6671.25,-6672.4799999999996,-6560.1199999999999,-3.9344800000000002,-17.446899999999999,-125.943
215761.0,159.98500000000001,-8121.0500000000002,-8106.04,-8025.4099999999999,-4.3096300000000003,-10.398300000000001,-75.889399999999995
215762.0,100.727,-8048.5799999999999,-8017.5500000000002,-7977.1700000000001,1.01054,-7.3304799999999997,-45.224299999999999
215763.0,54.0839,-7485.6300000000001,-7438.1899999999996,-7444.5200000000004,8.8549100000000003,-5.7318499999999997,-14.1533
215764.0,71.717600000000004,-6444.9799999999996,-6380.8599999999997,-6437.1700000000001,17.3736,-6.6551299999999998,12.026300000000001
215765.0,96.361400000000003,-5026.1800000000003,-4951.1800000000003,-5040.4399999999996,19.749099999999999,-9.7457999999999991,17.634599999999999
215766.0,91.224299999999999,-3624.1199999999999,-3550.1100000000001,-3641.4299999999998,15.3139,-11.584199999999999,7.2341199999999999
215767.0,65.763099999999994,-1758.5,-1701.1300000000001,-1763.9100000000001,5.1880800000000002,-9.8586200000000002,-10.343500000000001
215768.0,59.617400000000004,-1189.47,-1139.3199999999999,-1190.4400000000001,2.0100899999999999,-8.7796099999999999,-15.777100000000001
215769.0,57.461100000000002,-778.57100000000003,-733.80499999999995,-777.04700000000003,-0.0356818,-8.0901099999999992,-19.7254
215770.0,57.999899999999997,-463.02300000000002,-421.51600000000002,-460.745,-1.1163000000000001,-8.0340699999999998,-22.6065
215771.0,57.496099999999998,-200.06100000000001,-162.55600000000001,-196.22900000000001,-1.85162,-7.8428300000000002,-24.7209
215772.0,200.149,-272.08300000000003,-99.217500000000001,-172.333,33.0642,-63.142800000000001,27.262499999999999
215773.0,206.488,78.318700000000007,128.03100000000001,51.866799999999998,109.456,-10.8809,-24.861499999999999
215774.0,139.49199999999999,359.94200000000001,367.75400000000002,385.50999999999999,32.060600000000001,-18.619,-70.2834
215775.0,207.88900000000001,7017.6099999999997,7022.5900000000001,7110.3800000000001,-13.941000000000001,-10.3058,-106.68899999999999
215776.0,56.635599999999997,2059.5900000000001,2112.8099999999999,2055.54,2.0186000000000002,-6.4936600000000002,-1.21204
215777.0,50.758600000000001,1024.73,1069.6700000000001,1025.1700000000001,-2.27298,-5.7458999999999998,-12.4072
215778.0,80.310500000000005,7215.7600000000002,7258.7600000000002,7257.9300000000003,3.9241999999999999,-9.0682700000000001,-38.046700000000001
215779.0,173.55500000000001,2092.8600000000001,2096.5700000000002,2147.2199999999998,14.416499999999999,-21.037299999999998,-92.020399999999995
215780.0,176.71899999999999,-284.75700000000001,-277.65100000000001,-319.51799999999997,99.042599999999993,-4.4942599999999997,-8.84544
215781.0,202.65700000000001,-128.99199999999999,-103.23999999999999,-162.97800000000001,110.223,-11.364699999999999,-22.668800000000001
215782.0,157.27500000000001,-407.15100000000001,-417.476,-440.33199999999999,89.188699999999997,1.3203,0.69630499999999995
215783.0,135.20699999999999,-850.81799999999998,-860.45500000000004,-871.73099999999999,76.329999999999998,-0.73708700000000005,-12.5419
215784.0,121.735,-713.66700000000003,-710.52499999999998,-718.33500000000004,58.394599999999997,-7.5221499999999999,-38.1813
215785.0,123.41500000000001,-164.43100000000001,-156.33799999999999,-153.15899999999999,43.079300000000003,-14.1731,-54.649999999999999
215786.0,123.139,52.751800000000003,74.392700000000005,67.268000000000001,35.490600000000001,-17.3338,-58.075099999999999
215787.0,158.5,1117.0999999999999,1124.23,1156.45,21.953800000000001,-20.070399999999999,-83.963499999999996
215788.0,193.72399999999999,2941.6399999999999,2939.5,3011.54,7.8819600000000003,-21.334199999999999,-101.55
215789.0,217.17400000000001,3937.48,3930.1500000000001,4023.0799999999999,0.43818400000000002,-19.977399999999999,-112.485
215790.0,234.643,5031.1199999999999,5019.79,5128.6700000000001,-5.6244500000000004,-15.751099999999999,-120.371
215791.0,240.29900000000001,6115.4499999999998,6107.6700000000001,6217.5,-12.2967,-12.278600000000001,-123.246
215792.0,226.547,-6329.5699999999997,-6333.6899999999996,-6222.2399999999998,-14.0709,-10.4663,-113.17100000000001
215793.0,143.49299999999999,7425.0,7448.6400000000003,7496.29,-7.0758700000000001,-9.2186199999999996,-73.551299999999998
215794.0,63.497500000000002,6415.79,6475.1999999999998,6426.6599999999999,14.6471,-9.5625,-6.11355
215795.0,85.193600000000004,5198.3299999999999,5264.9200000000001,5188.4799999999996,19.300999999999998,-8.7490799999999993,15.5314
215796.0,83.015900000000002,3906.9299999999998,3971.5500000000002,3893.75,14.775,-7.8820800000000002,16.822900000000001
215797.0,67.028300000000002,2849.73,2908.7199999999998,2841.4299999999998,7.0834000000000001,-7.3071599999999997,6.9272400000000003
215798.0,66.180700000000002,-2521.4000000000001,-2460.8600000000001,-2526.8800000000001,4.3208900000000003,-9.8941700000000008,-1.1061000000000001
215799.0,51.481299999999997,1472.55,1520.76,1471.46,-0.85026500000000005,-5.8914200000000001,-7.4545300000000001
215800.0,53.9754,664.23800000000006,708.37099999999998,664.94600000000003,-2.6574599999999999,-6.4024299999999998,-16.854700000000001
215801.0,55.415399999999998,353.30200000000002,395.42700000000002,354.988,-2.6102699999999999,-6.7786900000000001,-20.0519
215802.0,55.329799999999999,88.546800000000005,127.548,91.0715,-2.3950100000000001,-6.7192400000000001,-22.209299999999999
215803.0,55.270499999999998,49.680500000000002,-2.3768699999999998,45.937100000000001,-12.099399999999999,-3.2583899999999999,-4.2691100000000004
215804.0,215.10499999999999,-97.085899999999995,-61.526400000000002,-109.636,116.83799999999999,-25.0686,-22.825299999999999
215805.0,178.87299999999999,184.76400000000001,200.048,159.286,100.364,-7.3955500000000001,-10.6557
215806.0,161.63800000000001,244.56800000000001,241.494,215.61600000000001,91.935599999999994,0.0158458,1.9730000000000001
215807.0,142.34899999999999,649.34799999999996,649.22699999999998,619.21299999999997,80.313800000000001,0.42514200000000002,1.57389
215808.0,123.96899999999999,990.59900000000005,1005.59,971.51099999999997,66.039299999999997,-6.4985799999999996,-20.6785
215809.0,112.86799999999999,573.23400000000004,595.52999999999997,573.49199999999996,46.942999999999998,-11.9954,-41.653599999999997
215810.0,141.483,-497.19799999999998,-476.791,-468.29199999999997,26.605,-20.229700000000001,-73.038899999999998
215811.0,155.71199999999999,-1397.3900000000001,-1379.99,-1352.7,17.083100000000002,-20.525400000000001,-82.834199999999996
215812.0,173.501,-2280.7199999999998,-2268.3699999999999,-2222.3800000000001,11.541499999999999,-21.412600000000001,-92.182199999999995
215813.0,195.779,-3117.4000000000001,-3109.6599999999999,-3044.4899999999998,5.47614,-21.078099999999999,-103.432
215814.0,217.166,-4147.4499999999998,-4146.3699999999999,-4060.0300000000002,-0.44954,-18.053999999999998,-113.48099999999999
215815.0,235.791,-5241.9899999999998,-5243.96,-5141.4799999999996,-7.7568099999999998,-14.7658,-121.738
215816.0,176.68000000000001,-7154.6000000000004,-7153.4700000000003,-7057.1000000000004,-11.612500000000001,-6.5438900000000002,-84.2316
215817.0,107.66,-7394.6999999999998,-7378.9399999999996,-7321.96,-2.2576700000000001,-4.8119699999999996,-48.692999999999998
215818.0,48.399900000000002,-7002.7700000000004,-6969.5500000000002,-6962.3800000000001,8.7377900000000004,-4.8014599999999996,-14.732200000000001
215819.0,61.276600000000002,-6046.8000000000002,-5994.7600000000002,-6037.96,17.321100000000001,-6.9978199999999999,11.271800000000001
215820.0,83.347899999999996,-4733.2700000000004,-4667.5100000000002,-4742.0100000000002,16.951000000000001,-10.2895,16.2544
215821.0,78.074600000000004,-3477.1599999999999,-3410.2600000000002,-3486.9499999999998,10.349399999999999,-11.4016,7.2732999999999999
215822.0,58.333599999999997,-1810.96,-1756.99,-1812.95,0.50302999999999998,-8.2716200000000004,-7.60175
215823.0,54.4773,-1281.1600000000001,-1232.6600000000001,-1280.6300000000001,-1.6332599999999999,-7.1793699999999996,-12.623699999999999
215824.0,54.505600000000001,-868.79200000000003,-823.65599999999995,-866.86400000000003,-2.67056,-6.7652700000000001,-16.913599999999999
215825.0,57.152099999999997,-533.57600000000002,-489.60500000000002,-531.71000000000004,-2.58073,-7.2307600000000001,-20.286100000000001
215826.0,57.808199999999999,-246.44,-205.03700000000001,-244.053,-2.1716700000000002,-7.4851000000000001,-22.645299999999999
215827.0,222.648,70.435000000000002,242.77099999999999,181.797,52.1708,-48.0715,62.087400000000002
215828.0,205.08600000000001,-310.22199999999998,-281.21899999999999,-339.92000000000002,114.575,-4.51248,-3.2795200000000002
215829.0,126.01900000000001,-567.40999999999997,-562.68299999999999,-548.71000000000004,35.311999999999998,-17.331399999999999,-60.429400000000001
215830.0,212.09200000000001,5894.2600000000002,5885.3800000000001,5983.8800000000001,-21.646699999999999,-7.0183600000000004,-107.274
215831.0,48.2164,2289.8499999999999,2336.5300000000002,2289.3299999999999,-3.6983199999999998,-5.1336599999999999,0.68206500000000003
215832.0,49.683,1273.5699999999999,1319.3900000000001,1274.0799999999999,-5.2392399999999997,-5.0328900000000001,-8.8303999999999991
215833.0,77.501599999999996,6530.2600000000002,6555.8199999999997,6568.6599999999999,-2.0962000000000001,-7.7034200000000004,-39.450899999999997
215834.0,154.33799999999999,896.83699999999999,900.75300000000004,944.49900000000002,12.2826,-19.241099999999999,-81.968800000000002
215835.0,181.191,-722.39999999999998,-727.04200000000003,-759.31399999999996,102.41500000000001,-0.022053,7.0932700000000004
215836.0,201.762,-370.46100000000001,-358.99799999999999,-404.55900000000003,113.753,-6.5812200000000001,-4.9537800000000001
215837.0,166.56299999999999,-1360.24,-1377.45,-1393.95,93.491299999999995,4.4857899999999997,14.247999999999999
215838.0,138.99199999999999,-1476.05,-1491.77,-1500.21,79.303700000000006,0.32041999999999998,0.10965
215839.0,118.51900000000001,-1469.73,-1475.22,-1480.4400000000001,62.501399999999997,-7.41113,-26.310700000000001
215840.0,117.53,-1240.23,-1237.97,-1235.9300000000001,48.467300000000002,-13.222300000000001,-45.561999999999998
215841.0,114.953,1099.03,1118.6199999999999,1108.46,40.261699999999998,-16.742999999999999,-49.064999999999998
215842.0,139.89500000000001,171.185,176.70599999999999,204.601,23.578299999999999,-19.090199999999999,-72.679299999999998
215843.0,168.292,1880.3,1879.5999999999999,1939.8499999999999,3.3274599999999999,-18.7942,-88.772099999999995
215844.0,188.584,2827.73,2820.5300000000002,2901.3200000000002,-6.1744599999999998,-16.792000000000002,-97.648499999999999
215845.0,204.44399999999999,3799.5900000000001,3786.1199999999999,3885.0900000000001,-12.1027,-13.6096,-103.536
215846.0,224.49799999999999,4862.1000000000004,4846.3199999999997,4956.3400000000001,-19.407,-9.78796,-113.087
215847.0,219.49000000000001,-5067.54,-5078.2600000000002,-4971.3100000000004,-20.213899999999999,-7.6898600000000004,-110.099
215848.0,154.84200000000001,6548.9200000000001,6555.6400000000003,6617.5,-14.415900000000001,-7.2668200000000001,-79.384600000000006
215849.0,43.213799999999999,5891.1199999999999,5933.1999999999998,5902.4200000000001,7.54,-7.4007899999999998,-6.0438299999999998
215850.0,59.0107,4870.1400000000003,4919.8999999999996,4867.3800000000001,9.9945199999999996,-6.3068600000000004,12.137499999999999
215851.0,58.145299999999999,3832.0700000000002,3882.77,3828.4099999999999,5.1631400000000003,-5.9295,11.9137
215852.0,51.520800000000001,2974.8099999999999,3023.5700000000002,2973.0700000000002,-0.49292799999999998,-5.5987900000000002,5.5937900000000003
215853.0,52.652999999999999,-2664.9099999999999,-2613.23,-2663.54,-2.2017500000000001,-7.19672,0.37576700000000002
215854.0,47.271900000000002,1732.1099999999999,1777.47,1732.52,-5.2073900000000002,-4.63863,-4.0518200000000002
215855.0,56.4739,873.27300000000002,922.29499999999996,872.447,-3.9317899999999999,-6.9981799999999996,-13.561299999999999
215856.0,59.658299999999997,479.625,529.15599999999995,478.54700000000003,-2.34796,-7.9797099999999999,-16.770399999999999
215857.0,59.420400000000001,114.965,161.84100000000001,114.36499999999999,-1.43791,-7.66357,-19.343499999999999
215858.0,55.4101,49.269199999999998,-2.6185499999999999,46.402799999999999,-11.910500000000001,-3.4469500000000002,-4.3677599999999996
215859.0,217.36799999999999,257.37599999999998,282.327,246.12700000000001,122.768,-17.986000000000001,-3.2982399999999998
215860.0,183.66200000000001,397.95100000000002,400.66699999999997,371.13400000000001,104.55500000000001,-3.42808,5.8294800000000002
215861.0,169.22399999999999,993.05499999999995,979.30999999999995,960.75699999999995,94.781499999999994,3.4775399999999999,16.9467
215862.0,149.52000000000001,1466.71,1460.8199999999999,1435.29,83.681100000000001,0.86497199999999996,13.0373
215863.0,123.235,1539.6300000000001,1546.5,1516.3199999999999,68.440200000000004,-6.9617899999999997,-8.91174
215864.0,111.541,1516.76,1532.7,1510.6199999999999,53.276200000000003,-12.4396,-32.001100000000001
215865.0,125.63200000000001,366.11099999999999,385.58300000000003,389.83600000000001,28.8598,-19.1663,-62.456899999999997
215866.0,139.006,-293.48000000000002,-275.06799999999998,-254.92699999999999,17.988099999999999,-19.764099999999999,-73.176699999999997
215867.0,153.24000000000001,-1122.3800000000001,-1109.01,-1070.6600000000001,7.8643200000000002,-19.323699999999999,-81.679199999999994
215868.0,169.06,-2096.23,-2087.6199999999999,-2032.99,0.217167,-18.7928,-89.427899999999994
215869.0,187.042,-3001.25,-3001.02,-2924.8600000000001,-7.1506499999999997,-15.501099999999999,-97.111599999999996
215870.0,209.84899999999999,-3982.04,-3986.3400000000001,-3895.2399999999998,-13.4543,-13.1015,-108.09399999999999
215871.0,187.62899999999999,-6074.0699999999997,-6086.6800000000003,-5982.04,-18.699999999999999,-3.0370499999999998,-90.071899999999999
215872.0,115.297,-6561.1599999999999,-6563.4799999999996,-6491.2399999999998,-7.7325699999999999,-1.78847,-51.797199999999997
215873.0,43.460000000000001,-6324.8100000000004,-6305.4799999999996,-6285.8199999999997,4.0387199999999996,-2.9976799999999999,-14.9735
215874.0,44.059699999999999,-5513.6899999999996,-5472.3400000000001,-5500.3299999999999,10.343500000000001,-5.5651200000000003,7.9927099999999998
215875.0,59.921300000000002,-4425.2399999999998,-4370.8400000000001,-4423.1499999999996,7.8856999999999999,-8.2662700000000005,10.793100000000001
215876.0,57.552199999999999,-3439.5799999999999,-3384.29,-3438.4699999999998,2.2470300000000001,-8.6001300000000001,5.1064299999999996
215877.0,50.321599999999997,-2036.25,-1987.3699999999999,-2034.54,-4.4794900000000002,-6.0984499999999997,-4.1824399999999997
215878.0,50.076099999999997,-1521.8800000000001,-1474.97,-1519.6600000000001,-5.3196599999999998,-5.3772399999999996,-8.8461499999999997
215879.0,52.6389,-1101.9000000000001,-1055.3800000000001,-1099.9400000000001,-4.87601,-5.72628,-13.224299999999999
215880.0,58.431399999999996,-728.06600000000003,-679.13199999999995,-728.24099999999999,-2.9343499999999998,-7.3990999999999998,-16.542400000000001
215881.0,61.609999999999999,-350.10399999999998,-301.25700000000001,-350.92200000000003,-1.3124,-8.3011999999999997,-19.6403
215882.0,262.065,306.53899999999999,472.05500000000001,424.60500000000002,74.514499999999998,-32.346699999999998,95.023300000000006
215883.0,216.59399999999999,-279.85199999999998,-271.81200000000001,-313.77999999999997,121.95399999999999,2.2498100000000001,16.235199999999999
215884.0,108.19499999999999,-1571.6199999999999,-1567.3199999999999,-1557.8599999999999,33.547199999999997,-16.296700000000001,-49.613500000000002
215885.0,196.21600000000001,4755.5600000000004,4738.1999999999998,4836.46,-26.9009,-4.5267299999999997,-96.640199999999993
215886.0,48.355600000000003,2799.6999999999998,2844.5599999999999,2803.3400000000001,-12.1873,-1.7262999999999999,2.6686700000000001
215887.0,54.410400000000003,1714.72,1766.6400000000001,1715.3399999999999,-7.28688,-4.9038500000000003,-4.64994
215888.0,96.6203,5823.6599999999999,5827.4499999999998,5864.1300000000001,-15.516999999999999,-1.7043900000000001,-48.667400000000001
215889.0,135.364,4.3638300000000001,7.9006999999999996,45.004100000000001,9.3184500000000003,-17.617100000000001,-72.137600000000006
215890.0,193.0,-1395.1900000000001,-1415.5,-1433.99,107.355,2.9436300000000002,22.4907
215891.0,208.733,-900.65800000000002,-903.14999999999998,-936.07799999999997,118.238,-1.8334600000000001,12.191599999999999
215892.0,182.37,-1767.05,-1801.3299999999999,-1805.77,99.317599999999999,5.0460099999999999,27.346900000000002
215893.0,149.63300000000001,-2413.1500000000001,-2440.1999999999998,-2442.0300000000002,84.023700000000005,0.68578700000000004,11.8942
215894.0,115.645,-2434.5599999999999,-2446.73,-2449.8600000000001,64.226600000000005,-7.1270499999999997,-14.722899999999999
215895.0,104.301,-2001.45,-2003.4300000000001,-2002.47,47.683999999999997,-13.0008,-34.387300000000003
215896.0,101.363,1908.49,1925.4000000000001,1913.26,39.721899999999998,-16.880299999999998,-38.5488
215897.0,120.014,-898.76700000000005,-893.07500000000005,-871.33000000000004,21.0838,-17.868200000000002,-61.867800000000003
215898.0,149.45699999999999,805.846,806.75,857.96699999999998,-0.64061299999999999,-16.572700000000001,-79.250500000000002
215899.0,170.40199999999999,1753.46,1748.3699999999999,1818.9000000000001,-12.1867,-14.278700000000001,-88.201300000000003
215900.0,179.995,2785.0100000000002,2772.9699999999998,2858.6599999999999,-19.165500000000002,-10.839399999999999,-90.347700000000003
215901.0,200.137,3777.3699999999999,3761.0700000000002,3860.5100000000002,-26.254300000000001,-7.9973700000000001,-98.760499999999993
215902.0,195.94,-3932.77,-3945.5999999999999,-3849.73,-24.320399999999999,-5.4387299999999996,-97.302700000000002
215903.0,159.31899999999999,5537.3500000000004,5526.1700000000001,5600.6499999999996,-23.0779,-1.9290099999999999,-79.442899999999995
215904.0,39.401000000000003,5528.0,5548.9300000000003,5548.4499999999998,-8.5473599999999994,-2.1842600000000001,-17.2332
215905.0,31.324100000000001,4861.6899999999996,4893.6400000000003,4870.4300000000003,-6.59734,-1.9107099999999999,2.6899500000000001
215906.0,40.926299999999998,4113.4399999999996,4150.8800000000001,4118.6099999999997,-10.0884,-1.6835899999999999,6.4769100000000002
215907.0,45.970599999999997,3421.2199999999998,3462.5700000000002,3425.4699999999998,-12.646699999999999,-1.4540299999999999,4.9929500000000004
215908.0,48.250700000000002,-3106.5300000000002,-3060.1500000000001,-3099.1700000000001,-12.1698,-1.56023,2.0710899999999999
215909.0,49.812899999999999,2236.77,2284.4000000000001,2239.23,-9.9834800000000001,-2.8250299999999999,-0.39398699999999998
215910.0,65.189599999999999,1202.5899999999999,1262.1800000000001,1199.77,-3.9096899999999999,-8.3458000000000006,-9.4614200000000004
215911.0,70.078800000000001,660.41600000000005,722.43600000000004,656.38099999999997,-0.84672499999999995,-10.110200000000001,-12.7707
215912.0,68.402699999999996,149.012,207.59299999999999,145.51300000000001,0.44581100000000001,-9.5358099999999997,-15.880000000000001
215913.0,55.4251,50.554499999999997,-1.1211500000000001,48.441099999999999,-11.6289,-3.58602,-4.5474100000000002
215914.0,228.52799999999999,497.35300000000001,512.02200000000005,486.14800000000002,130.114,-10.703200000000001,13.9945
215915.0,195.405,1119.0,1107.98,1090.1300000000001,109.601,0.75537200000000004,22.419799999999999
215916.0,183.50999999999999,1452.8900000000001,1424.5899999999999,1416.5599999999999,99.621399999999994,4.8447800000000001,30.2195
215917.0,163.12700000000001,2076.0300000000002,2056.48,2040.01,89.037000000000006,0.17100199999999999,24.849799999999998
215918.0,128.85400000000001,2591.5900000000001,2592.4000000000001,2565.54,72.373699999999999,-7.7038700000000002,1.9383900000000001
215919.0,105.256,2326.6100000000001,2337.23,2316.1300000000001,54.228400000000001,-13.279400000000001,-21.555700000000002
215920.0,108.58499999999999,1437.47,1456.6199999999999,1456.49,27.125800000000002,-18.694700000000001,-52.1877
215921.0,121.056,636.20500000000004,653.79700000000003,668.42100000000005,16.078800000000001,-19.1739,-63.233499999999999
215922.0,136.00299999999999,-182.453,-168.34800000000001,-137.227,5.3439100000000002,-18.0625,-72.631500000000003
215923.0,151.60499999999999,-988.91999999999996,-977.93499999999995,-932.72400000000005,-4.4715100000000003,-17.0105,-80.404399999999995
215924.0,167.029,-1963.9000000000001,-1963.0999999999999,-1895.53,-13.3354,-12.936500000000001,-86.104900000000001
215925.0,184.44200000000001,-2965.5100000000002,-2968.6199999999999,-2889.9499999999998,-20.808499999999999,-10.534700000000001,-93.867900000000006
215926.0,180.422,-4911.5799999999999,-4931.3400000000001,-4831.6800000000003,-23.156400000000001,-0.362931,-86.774000000000001
215927.0,130.42699999999999,-5589.8500000000004,-5605.0900000000001,-5523.8900000000003,-17.656600000000001,2.3817200000000001,-59.078200000000002
215928.0,66.355000000000004,-5681.3500000000004,-5678.9499999999998,-5634.7200000000003,-8.9936900000000009,1.08392,-26.385100000000001
215929.0,27.300599999999999,-5224.6800000000003,-5200.8999999999996,-5197.5500000000002,-4.5351400000000002,-1.24044,-2.7380200000000001
215930.0,36.963299999999997,-4485.3699999999999,-4446.7299999999996,-4470.3999999999996,-7.2480099999999998,-2.8039800000000001,3.9251
215931.0,44.975000000000001,-3760.6199999999999,-3716.6500000000001,-3750.75,-11.063599999999999,-2.3479000000000001,3.7537799999999999
215932.0,49.127299999999998,-2526.8000000000002,-2479.1300000000001,-2521.5300000000002,-10.855600000000001,-1.75414,-0.67091299999999998
215933.0,50.7179,-2004.3299999999999,-1955.3099999999999,-2001.1199999999999,-8.7580100000000005,-2.8560699999999999,-4.5313499999999998
215934.0,55.756999999999998,-1514.3299999999999,-1461.98,-1513.6300000000001,-5.95608,-4.8232799999999996,-8.7369500000000002
215935.0,66.032399999999996,-1023.17,-964.16200000000003,-1026.5999999999999,-2.1133500000000001,-8.1944700000000008,-12.2393
215936.0,71.409800000000004,-502.291,-441.43099999999998,-506.79399999999998,0.49464000000000002,-10.1995,-16.2103
215937.0,312.12900000000002,640.33199999999999,793.12900000000002,760.18600000000004,100.43600000000001,-16.466999999999999,125.09999999999999
215938.0,236.09,-660.66399999999999,-673.42100000000005,-700.15599999999995,130.196,9.3992900000000006,33.673400000000001
215939.0,96.109700000000004,-2435.25,-2429.8600000000001,-2424.71,34.381700000000002,-15.626899999999999,-40.3108
215940.0,174.75,3847.5799999999999,3826.3899999999999,3915.75,-33.549700000000001,-0.49971199999999999,-82.902500000000003
215941.0,61.323099999999997,3790.7800000000002,3845.0799999999999,3800.48,-20.036200000000001,1.30921,3.4064000000000001
215942.0,69.063699999999997,2372.1300000000001,2439.8299999999999,2372.46,-6.2104400000000002,-5.5823099999999997,0.00499725
215943.0,137.43299999999999,5158.1599999999999,5144.9099999999999,5209.1800000000003,-36.623899999999999,8.2443000000000008,-61.115499999999997
215944.0,120.13200000000001,-1062.97,-1055.4300000000001,-1026.3499999999999,6.7136899999999997,-15.9255,-64.325900000000004
215945.0,211.23599999999999,-1806.21,-1839.6500000000001,-1845.24,113.119,6.1673600000000004,39.9268
215946.0,224.27799999999999,-1105.5699999999999,-1121.76,-1143.1199999999999,125.026,2.1571099999999999,27.8566
215947.0,197.11699999999999,-2715.1799999999998,-2759.3200000000002,-2755.0599999999999,102.86199999999999,7.6023100000000001,41.4803
215948.0,158.98500000000001,-3022.9099999999999,-3057.23,-3054.8299999999999,86.939700000000002,1.2599899999999999,22.319800000000001
215949.0,117.604,-3154.71,-3170.3200000000002,-3172.96,66.689700000000002,-6.9857899999999997,-4.0756500000000004
215950.0,98.042000000000002,-3027.3899999999999,-3029.2800000000002,-3030.5599999999999,49.536900000000003,-12.6861,-24.221800000000002
215951.0,94.239400000000003,2868.8099999999999,2886.29,2871.0900000000001,41.463900000000002,-16.9742,-29.372800000000002
215952.0,104.77500000000001,-1757.46,-1749.02,-1733.75,20.195499999999999,-16.589700000000001,-53.213799999999999
215953.0,134.90000000000001,-76.743899999999996,-71.593400000000003,-29.729700000000001,-4.1406599999999996,-14.593299999999999,-71.909499999999994
215954.0,157.489,885.41800000000001,883.93899999999996,944.22699999999998,-16.811299999999999,-11.525600000000001,-81.667500000000004
215955.0,166.80500000000001,1863.8800000000001,1855.2,1929.9200000000001,-24.3764,-7.62066,-83.380499999999998
215956.0,182.72900000000001,2899.6300000000001,2886.3400000000001,2971.23,-32.378700000000002,-5.35832,-89.2624
215957.0,172.804,-3073.46,-3086.73,-3001.9499999999998,-28.512899999999998,-2.2693099999999999,-84.000699999999995
215958.0,162.06399999999999,4587.3199999999997,4565.6999999999998,4649.1800000000003,-35.308799999999998,4.8677900000000003,-74.882999999999996
215959.0,96.367500000000007,5454.4499999999998,5455.4499999999998,5490.6199999999999,-33.974899999999998,8.6081400000000006,-37.984099999999998
215960.0,64.218199999999996,5318.5500000000002,5332.9099999999999,5342.4300000000003,-30.223099999999999,8.5096299999999996,-15.6267
215961.0,59.921100000000003,4908.6199999999999,4934.1800000000003,4926.1199999999999,-30.4101,8.4063700000000008,-5.53796
215962.0,61.372900000000001,4394.75,4435.1300000000001,4409.6999999999998,-28.397200000000002,5.4556300000000002,-1.6071299999999999
215963.0,56.225099999999998,-4104.4399999999996,-4060.3899999999999,-4086.8299999999999,-22.7578,6.3705699999999998,1.94265
215964.0,63.3675,3092.52,3153.5999999999999,3096.0,-11.5388,-1.5165299999999999,5.1200200000000002
215965.0,82.573300000000003,1642.0599999999999,1719.7,1638.1099999999999,-0.60841400000000001,-11.3605,-5.1704499999999998
215966.0,86.241399999999999,879.84100000000001,958.30700000000002,873.87699999999995,2.9293200000000001,-13.3698,-8.4675600000000006
215967.0,80.606200000000001,186.881,259.10199999999998,182.33600000000001,2.7615500000000002,-11.974399999999999,-12.6435
215968.0,55.560600000000001,51.1111,-0.55567100000000003,49.618699999999997,-11.271599999999999,-3.6711499999999999,-4.8589700000000002
215969.0,244.494,826.125,830.16899999999998,813.00800000000004,137.876,-3.58094,28.682300000000001
215970.0,215.822,1300.6199999999999,1275.29,1269.8299999999999,117.215,5.0576499999999998,38.618400000000001
215971.0,202.96600000000001,2209.8400000000001,2173.25,2172.1799999999998,105.41200000000001,7.3272599999999999,45.8977
215972.0,175.37700000000001,2904.46,2880.4099999999999,2867.0599999999999,92.875299999999996,0.69307099999999999,35.593200000000003
215973.0,136.102,3118.5300000000002,3114.27,3091.25,75.9255,-8.4785900000000005,11.0722
215974.0,104.321,3202.5799999999999,3212.2199999999998,3190.6300000000001,56.483499999999999,-13.7279,-11.4801
215975.0,96.858999999999995,2208.5900000000001,2229.4499999999998,2224.5100000000002,27.629799999999999,-18.484999999999999,-43.626600000000003
215976.0,107.443,1599.9000000000001,1620.97,1628.6800000000001,14.755100000000001,-18.441800000000001,-55.391599999999997
215977.0,122.59,795.31700000000001,812.63099999999997,836.37099999999998,2.65665,-16.953499999999998,-65.499399999999994
215978.0,139.03,-185.56899999999999,-170.74000000000001,-134.495,-7.6975199999999999,-15.4856,-73.849599999999995
215979.0,154.51400000000001,-1096.26,-1092.6900000000001,-1034.0,-17.562100000000001,-10.6166,-79.466399999999993
215980.0,171.767,-2066.3600000000001,-2067.0300000000002,-1997.71,-26.139900000000001,-7.9866099999999998,-86.608199999999997
215981.0,164.84999999999999,-3928.7399999999998,-3946.46,-3859.79,-30.392700000000001,2.9601199999999999,-77.649000000000001
215982.0,150.28999999999999,-4595.3400000000001,-4611.3999999999996,-4529.1400000000003,-32.455599999999997,7.6674199999999999,-67.198899999999995
215983.0,117.702,-5143.8000000000002,-5154.3999999999996,-5085.7299999999996,-31.793199999999999,10.4476,-46.165500000000002
215984.0,76.916200000000003,-5324.9799999999996,-5321.4499999999998,-5280.54,-27.9666,9.8386700000000005,-21.978999999999999
215985.0,59.487900000000003,-5056.1700000000001,-5035.2700000000004,-5023.6000000000004,-27.485700000000001,8.0888600000000004,-9.3006700000000002
215986.0,60.139899999999997,-4603.0600000000004,-4569.6199999999999,-4577.9300000000003,-28.694400000000002,7.9289899999999998,-4.0207800000000002
215987.0,57.5276,-3501.3899999999999,-3447.1300000000001,-3494.02,-14.3497,2.9070100000000001,4.7500400000000003
215988.0,62.262599999999999,-2801.27,-2740.8400000000001,-2800.3899999999999,-9.5813100000000002,-0.67558399999999996,0.38377600000000001
215989.0,68.259600000000006,-2118.0700000000002,-2052.3000000000002,-2120.29,-4.0858600000000003,-5.1473000000000004,-4.1915699999999996
215990.0,82.064999999999998,-1421.5999999999999,-1346.71,-1428.5899999999999,1.3913899999999999,-10.922700000000001,-7.9807499999999996
215991.0,86.9328,-684.36900000000003,-608.0,-692.05700000000002,2.8209300000000002,-13.242000000000001,-13.277900000000001
215992.0,364.76299999999998,963.74599999999998,1099.5999999999999,1075.5999999999999,125.807,1.3750599999999999,152.52600000000001
215993.0,260.834,-648.58299999999997,-679.33299999999997,-687.23500000000001,139.625,13.803800000000001,50.747900000000001
215994.0,87.177300000000002,-3365.3400000000001,-3358.0300000000002,-3356.6199999999999,35.631900000000002,-15.240399999999999,-31.771799999999999
215995.0,176.10900000000001,3149.21,3128.5300000000002,3211.4299999999998,-45.384999999999998,7.1288999999999998,-79.784999999999997
215996.0,70.328900000000004,5214.8800000000001,5279.6300000000001,5230.5600000000004,-22.3673,2.4664199999999998,-1.04053
215997.0,92.306700000000006,3159.8600000000001,3249.9699999999998,3160.9400000000001,2.0195599999999998,-11.140000000000001,6.1216200000000001
215998.0,179.45599999999999,4926.9300000000003,4903.5,4987.0500000000002,-58.865000000000002,18.535299999999999,-71.198999999999998
215999.0,108.044,-1838.0899999999999,-1825.5599999999999,-1804.22,6.2045500000000002,-14.700799999999999,-57.820799999999998
216000.0,241.11199999999999,-2460.8899999999999,-2512.9400000000001,-2506.75,125.64400000000001,9.9291999999999998,51.816000000000003
216001.0,246.24600000000001,-1556.8299999999999,-1590.04,-1598.6500000000001,134.017,6.0152400000000004,41.569699999999997
216002.0,222.566,-3156.48,-3212.6300000000001,-3198.9299999999998,114.205,9.6667299999999994,50.186599999999999
216003.0,174.691,-3915.0599999999999,-3956.4699999999998,-3948.3299999999999,93.685500000000005,0.91409499999999999,30.2197
216004.0,126.34,-4031.0599999999999,-4050.4200000000001,-4050.8099999999999,71.469899999999996,-7.7387300000000003,5.02041
216005.0,97.332599999999999,-3714.9000000000001,-3717.5500000000002,-3720.0300000000002,52.603000000000002,-12.5786,-15.032999999999999
216006.0,91.074200000000005,3608.2600000000002,3626.6500000000001,3609.3699999999999,43.779200000000003,-17.4861,-20.883600000000001
216007.0,92.797700000000006,-2733.5300000000002,-2721.2600000000002,-2711.8899999999999,20.5214,-15.8527,-45.609699999999997
216008.0,123.846,-1018.08,-1007.15,-974.38400000000001,-5.6169099999999998,-12.782400000000001,-66.336500000000001
216009.0,148.92099999999999,-28.3126,-23.917400000000001,26.5685,-20.067299999999999,-8.7637300000000007,-77.349900000000005
216010.0,160.40700000000001,1078.73,1074.8199999999999,1139.78,-28.976800000000001,-4.3984199999999998,-79.9422
216011.0,176.97900000000001,2150.54,2139.6500000000001,2213.6999999999998,-40.099600000000002,0.13189600000000001,-85.054599999999994
216012.0,167.55099999999999,-2339.8899999999999,-2349.0900000000001,-2274.0799999999999,-36.638399999999997,2.5137200000000002,-79.596199999999996
216013.0,181.101,4088.6399999999999,4063.8800000000001,4151.3900000000003,-52.7605,12.950699999999999,-77.111500000000007
216014.0,160.94,5563.54,5550.3500000000004,5616.4700000000003,-59.735599999999998,21.871600000000001,-57.988999999999997
216015.0,131.624,5927.7600000000002,5928.4700000000003,5972.3199999999997,-55.114100000000001,22.5916,-39.696199999999997
216016.0,108.375,5996.1999999999998,6013.1999999999998,6034.4700000000003,-49.325200000000002,20.321999999999999,-26.4834
216017.0,85.376999999999995,5803.3100000000004,5843.0100000000002,5832.04,-39.790900000000001,12.856400000000001,-16.150300000000001
216018.0,64.193600000000004,-5626.9700000000003,-5592.5200000000004,-5599.4300000000003,-28.8565,14.0671,-3.3084199999999999
216019.0,80.245900000000006,4235.3000000000002,4315.8999999999996,4241.9200000000001,-5.8965899999999998,-5.1524099999999997,9.1242599999999996
216020.0,105.681,2110.79,2209.1500000000001,2105.79,6.6513499999999999,-16.765599999999999,0.72953000000000001
216021.0,103.08799999999999,1072.8299999999999,1167.45,1067.0,7.4626099999999997,-17.0746,-3.9645800000000002
216022.0,91.043899999999994,211.52199999999999,295.70100000000002,208.48699999999999,4.1274800000000003,-13.9815,-10.0101
216023.0,56.105400000000003,51.121200000000002,-0.91621699999999995,50.224299999999999,-10.9724,-3.6856300000000002,-5.2870799999999996
216024.0,266.30500000000001,1022.65,1016.09,1010.1799999999999,147.57400000000001,2.21102,42.634900000000002
216025.0,242.74000000000001,1967.53,1924.8199999999999,1931.49,127.884,9.1322799999999997,51.721299999999999
216026.0,232.57599999999999,2738.9200000000001,2691.27,2697.4400000000001,118.81399999999999,9.5929599999999997,56.127899999999997
216027.0,194.52600000000001,3555.5900000000001,3526.6900000000001,3517.4699999999998,102.021,0.74299499999999996,42.532400000000003
216028.0,146.21600000000001,4091.6399999999999,4083.3099999999999,4063.9400000000001,80.464100000000002,-9.2336399999999994,19.095600000000001
216029.0,109.96599999999999,3926.6700000000001,3934.6700000000001,3913.6599999999999,60.8474,-14.4384,-2.7498499999999999
216030.0,88.473600000000005,3197.3899999999999,3221.5300000000002,3211.8699999999999,28.722200000000001,-18.451000000000001,-36.003300000000003
216031.0,97.385300000000001,2421.02,2446.6900000000001,2447.79,15.100099999999999,-18.0093,-48.780200000000001
216032.0,112.453,1598.78,1621.9000000000001,1637.29,2.2180599999999999,-15.923299999999999,-59.841900000000003
216033.0,130.017,768.99099999999999,789.99300000000005,816.92700000000002,-9.3396799999999995,-14.004799999999999,-69.094399999999993
216034.0,147.60300000000001,-252.50999999999999,-243.428,-194.20699999999999,-20.7864,-8.2703199999999999,-76.010900000000007
216035.0,165.131,-1333.4100000000001,-1330.5699999999999,-1269.74,-30.523099999999999,-4.8676399999999997,-82.706000000000003
216036.0,172.93899999999999,-3277.4400000000001,-3290.4699999999998,-3209.5700000000002,-43.849400000000003,8.2770700000000001,-78.047200000000004
216037.0,176.179,-4169.04,-4184.7200000000003,-4099.4499999999998,-50.533000000000001,14.479799999999999,-74.3155
216038.0,168.14099999999999,-4943.9499999999998,-4958.4799999999996,-4876.1300000000001,-54.720199999999998,21.118099999999998,-63.651899999999998
216039.0,143.672,-5529.4099999999999,-5536.3299999999999,-5468.1400000000003,-52.814100000000003,24.416599999999999,-45.677199999999999
216040.0,119.364,-5826.1099999999997,-5820.1000000000004,-5773.21,-49.043900000000001,23.4254,-30.925899999999999
216041.0,97.306799999999996,-5854.9899999999998,-5836.4700000000003,-5811.6099999999997,-43.1952,20.395900000000001,-20.0184
216042.0,59.741900000000001,-4937.5100000000002,-4879.4700000000003,-4927.0500000000002,-11.483700000000001,3.9738799999999999,9.2345000000000006
216043.0,76.609899999999996,-3896.8099999999999,-3821.3899999999999,-3896.2399999999998,-2.2033399999999999,-4.4963600000000001,7.0198999999999998
216044.0,89.662999999999997,-2860.0700000000002,-2775.6100000000001,-2866.0,3.1754199999999999,-10.463200000000001,1.88801
216045.0,104.26900000000001,-1837.54,-1743.48,-1847.8099999999999,6.3055199999999996,-16.273299999999999,-3.6674899999999999
216046.0,103.154,-836.53899999999999,-744.06700000000001,-844.37199999999996,4.5249899999999998,-17.0518,-11.1075
216047.0,418.24700000000001,1183.8800000000001,1299.8699999999999,1281.3599999999999,154.01499999999999,18.433199999999999,174.25999999999999
216048.0,290.87900000000002,-995.16399999999999,-1046.0,-1034.1800000000001,150.345,17.224799999999998,67.790700000000001
216049.0,81.902500000000003,-4141.46,-4130.8699999999999,-4133.1000000000004,37.619199999999999,-15.0082,-23.756599999999999
216050.0,200.06899999999999,2659.5799999999999,2637.6599999999999,2722.3499999999999,-60.8583,15.6134,-86.385599999999997
216051.0,75.494399999999999,6404.1199999999999,6475.4700000000003,6424.8100000000004,-22.222899999999999,3.6477499999999998,-6.7153600000000004
216052.0,117.822,3893.8000000000002,4002.6799999999998,3892.0100000000002,10.462300000000001,-17.4543,13.9777
216053.0,234.78399999999999,5079.7700000000004,5047.5299999999997,5145.8800000000001,-86.130799999999994,30.716000000000001,-86.596900000000005
216054.0,96.690399999999997,-2823.79,-2804.8899999999999,-2791.5999999999999,6.4123099999999997,-13.5778,-51.275500000000001
216055.0,265.32400000000001,-2818.9200000000001,-2896.9699999999998,-2873.3400000000001,135.185,10.0471,59.0578
216056.0,271.077,-1804.0999999999999,-1859.3099999999999,-1850.1700000000001,143.49700000000001,9.6562099999999997,54.165900000000001
216057.0,245.136,-3969.1500000000001,-4044.9899999999998,-4017.0100000000002,123.235,7.3665399999999996,57.6053
216058.0,192.703,-4449.2299999999996,-4500.8800000000001,-4483.9899999999998,100.491,-0.091462100000000005,39.825800000000001
216059.0,135.70699999999999,-4705.6999999999998,-4728.1999999999998,-4724.7399999999998,75.736900000000006,-8.3443400000000008,13.648999999999999
216060.0,99.492099999999994,-4668.1800000000003,-4670.3800000000001,-4673.4099999999999,55.496400000000001,-12.849600000000001,-6.9073799999999999
216061.0,91.519400000000005,4484.9899999999998,4506.7600000000002,4486.8699999999999,46.468299999999999,-17.6251,-13.2813
216062.0,82.713200000000001,-3504.0799999999999,-3486.7800000000002,-3483.4400000000001,21.683399999999999,-15.210000000000001,-38.161099999999998
216063.0,113.958,-1822.1600000000001,-1804.0599999999999,-1780.5599999999999,-6.70451,-11.0678,-61.043700000000001
216064.0,141.26400000000001,-807.94399999999996,-796.76499999999999,-756.24000000000001,-22.381799999999998,-6.3365600000000004,-73.284499999999994
216065.0,157.18600000000001,265.58800000000002,266.53399999999999,322.18200000000002,-33.607399999999998,-0.33662999999999998,-77.820999999999998
216066.0,183.86199999999999,1438.48,1429.97,1499.45,-49.128100000000003,6.7026700000000003,-85.870900000000006
216067.0,180.898,-1710.74,-1713.4300000000001,-1644.6400000000001,-47.5244,7.8505599999999998,-84.081900000000005
216068.0,222.15299999999999,3880.2600000000002,3848.73,3943.9499999999998,-75.756100000000004,24.187799999999999,-88.168800000000005
216069.0,221.46600000000001,6154.4799999999996,6131.21,6219.3999999999996,-85.549199999999999,33.576900000000002,-76.251400000000004
216070.0,186.00399999999999,6885.6999999999998,6877.8800000000001,6944.7700000000004,-75.497100000000003,32.315800000000003,-58.744300000000003
216071.0,143.93700000000001,7193.9399999999996,7207.0699999999997,7244.96,-61.218200000000003,26.464200000000002,-41.903500000000001
216072.0,99.596599999999995,7039.0200000000004,7078.3900000000003,7075.8900000000003,-43.573700000000002,16.9739,-25.173300000000001
216073.0,71.219399999999993,-6898.1300000000001,-6869.6199999999999,-6868.1300000000001,-30.944900000000001,18.996700000000001,-9.2954799999999995
216074.0,95.446399999999997,5296.7600000000002,5392.75,5304.0100000000002,-1.0163800000000001,-9.0317000000000007,9.8629499999999997
216075.0,127.235,2470.9200000000001,2586.0999999999999,2465.0900000000001,13.0776,-22.200900000000001,8.6591000000000005
216076.0,115.93600000000001,1205.22,1312.1300000000001,1201.3599999999999,10.098100000000001,-20.608799999999999,1.0071399999999999
216077.0,98.102000000000004,230.65000000000001,323.30500000000001,229.995,4.6607700000000003,-16.146599999999999,-6.5988300000000004
216078.0,56.750900000000001,50.976700000000001,-1.4485699999999999,50.671599999999998,-10.7562,-3.6733899999999999,-5.79061
216079.0,294.39999999999998,1374.8800000000001,1355.2,1362.0899999999999,159.13999999999999,8.7643000000000004,58.209000000000003
216080.0,267.12400000000002,2162.3299999999999,2100.23,2119.9400000000001,137.36199999999999,10.8405,61.582299999999996
216081.0,253.09200000000001,3335.29,3266.2399999999998,3288.5599999999999,127.30200000000001,7.3655999999999997,62.0488
216082.0,214.35300000000001,4219.1400000000003,4175.8900000000003,4179.3199999999997,110.206,-1.4210199999999999,50.896900000000002
216083.0,158.82499999999999,4565.9200000000001,4554.0600000000004,4538.46,85.422700000000006,-10.3142,28.556799999999999
216084.0,116.779,4747.7600000000002,4756.0,4735.6899999999996,64.716399999999993,-15.1684,4.8091499999999998
216085.0,83.119100000000003,3875.4299999999998,3904.4499999999998,3889.8400000000001,30.540299999999998,-18.297699999999999,-28.721599999999999
216086.0,88.893900000000002,3294.9099999999999,3327.0,3320.8400000000001,16.085599999999999,-17.470700000000001,-42.1905
216087.0,103.30800000000001,2493.6399999999999,2524.1300000000001,2530.5700000000002,2.1943700000000002,-14.9878,-54.211799999999997
216088.0,122.245,1485.0699999999999,1514.0899999999999,1530.97,-10.5389,-12.3687,-64.640100000000004
216089.0,141.655,512.13999999999999,528.798,567.21400000000006,-22.8627,-5.8633899999999999,-73.033600000000007
216090.0,163.94499999999999,-556.62900000000002,-546.07899999999995,-495.63200000000001,-35.864100000000001,-0.92290300000000003,-81.298100000000005
216091.0,202.72399999999999,-2893.3000000000002,-2904.9899999999998,-2822.6799999999998,-61.675800000000002,15.621,-87.565200000000004
216092.0,222.726,-4072.0799999999999,-4091.3600000000001,-3997.6599999999999,-75.737499999999997,24.535900000000002,-88.028300000000002
216093.0,224.661,-5262.6199999999999,-5286.6800000000003,-5186.3999999999996,-80.780799999999999,32.4773,-80.6434
216094.0,201.68600000000001,-6279.1000000000004,-6300.6599999999999,-6208.5200000000004,-76.001199999999997,36.471499999999999,-64.267200000000003
216095.0,165.864,-6914.8199999999997,-6925.2700000000004,-6854.6300000000001,-65.834000000000003,34.7639,-46.627099999999999
216096.0,120.842,-7134.1000000000004,-7128.3999999999996,-7086.9399999999996,-50.3309,28.646999999999998,-29.1736
216097.0,58.280999999999999,-6180.5500000000002,-6122.1199999999999,-6168.0200000000004,-8.5466300000000004,4.8035100000000002,9.4770500000000002
216098.0,91.760800000000003,-4967.3199999999997,-4881.5500000000002,-4967.6300000000001,6.0690600000000003,-9.1622800000000009,15.0054
216099.0,113.968,-3521.3299999999999,-3418.52,-3528.8099999999999,10.601000000000001,-17.880500000000001,9.9514600000000009
216100.0,124.361,-2138.5599999999999,-2026.4200000000001,-2147.3400000000001,9.7901600000000002,-22.6388,1.0681499999999999
216101.0,115.065,-947.76199999999994,-842.399,-952.68299999999999,5.31487,-21.000599999999999,-7.9198300000000001
216102.0,473.18200000000002,1344.0799999999999,1438.52,1430.28,187.74100000000001,31.918399999999998,188.76300000000001
216103.0,324.41800000000001,-914.98800000000006,-992.58299999999997,-967.82299999999998,162.80600000000001,21.7102,80.834100000000007
216104.0,79.117999999999995,-4963.8299999999999,-4949.2299999999996,-4954.4300000000003,39.650199999999998,-14.8089,-15.504300000000001
216105.0,231.62200000000001,2275.1700000000001,2250.6700000000001,2337.9899999999998,-79.038399999999996,24.968900000000001,-94.783699999999996
216106.0,77.622,7204.3299999999999,7282.5200000000004,7226.7600000000002,-18.355599999999999,1.7375,-6.9059200000000001
216107.0,131.35900000000001,4295.0200000000004,4412.9499999999998,4293.4700000000003,16.141999999999999,-20.929099999999998,18.8476
216108.0,297.0,5533.2399999999998,5493.4799999999996,5605.1199999999999,-114.059,42.7455,-106.604
216109.0,85.5809,-3510.6500000000001,-3484.6100000000001,-3479.4200000000001,6.6477599999999999,-12.5456,-44.268300000000004
216110.0,278.33100000000002,-3425.6100000000001,-3514.1300000000001,-3477.6900000000001,135.917,12.3072,72.239500000000007
216111.0,294.012,-2314.6199999999999,-2384.4099999999999,-2361.1500000000001,149.90799999999999,14.3413,69.811999999999998
216112.0,256.80099999999999,-4250.1599999999999,-4336.4200000000001,-4299.54,124.247,6.0207300000000004,68.086600000000004
216113.0,206.983,-5221.1000000000004,-5279.2600000000002,-5256.2799999999997,104.307,-0.80002600000000001,50.418399999999998
216114.0,143.88399999999999,-5488.9899999999998,-5512.79,-5506.2799999999997,78.356499999999997,-8.5319099999999999,23.175799999999999
216115.0,102.496,-5251.2299999999996,-5252.0200000000004,-5254.4799999999996,57.6053,-13.3055,1.88565
216116.0,93.360799999999998,5117.1999999999998,5142.6499999999996,5120.8900000000003,48.731900000000003,-17.731100000000001,-5.1976500000000003
216117.0,74.171599999999998,-4379.8000000000002,-4356.54,-4359.1099999999997,22.984200000000001,-14.5543,-30.513200000000001
216118.0,104.23399999999999,-2686.29,-2660.8600000000001,-2646.46,-8.0363699999999998,-9.4121000000000006,-55.332500000000003
216119.0,134.14099999999999,-1650.6500000000001,-1632.5699999999999,-1602.25,-26.0151,-3.58792,-68.629800000000003
216120.0,158.29900000000001,-446.23500000000001,-439.45100000000002,-391.95699999999999,-40.803899999999999,4.1472199999999999,-76.131900000000002
216121.0,197.613,849.44500000000005,843.68399999999997,909.48199999999997,-61.135300000000001,13.2364,-88.184100000000001
216122.0,199.98599999999999,-1202.27,-1200.0699999999999,-1136.95,-61.555300000000003,13.6927,-89.325599999999994
216123.0,273.84899999999999,3850.04,3811.6500000000001,3918.1399999999999,-100.11199999999999,36.2498,-103.696
216124.0,273.08699999999999,7004.21,6974.0100000000002,7072.0100000000002,-109.05,43.132599999999996,-92.670599999999993
216125.0,219.001,7952.4700000000003,7939.2200000000003,8010.46,-90.689099999999996,38.5306,-69.587800000000001
216126.0,159.874,8289.3799999999992,8301.0900000000001,8336.5699999999997,-68.927000000000007,29.441099999999999,-47.939300000000003
216127.0,102.23,8025.3000000000002,8068.25,8061.5799999999999,-44.060299999999998,17.0014,-26.8169
216128.0,68.173400000000001,-7830.7299999999996,-7800.5,-7802.6599999999999,-28.250800000000002,19.148299999999999,-10.007999999999999
216129.0,105.623,5885.4700000000003,5990.1199999999999,5892.6899999999996,4.9326299999999996,-11.939399999999999,11.6746
216130.0,138.84800000000001,2733.3099999999999,2857.4400000000001,2729.9499999999998,16.112300000000001,-26.151700000000002,14.287000000000001
216131.0,124.866,1338.5,1453.1400000000001,1337.4400000000001,11.3523,-24.582599999999999,6.5086700000000004
216132.0,104.752,258.23700000000002,357.12900000000002,259.55700000000002,5.83385,-20.138000000000002,-1.07433
216133.0,57.408099999999997,51.552500000000002,-1.25197,51.759,-10.5562,-3.6044900000000002,-6.4070099999999996
216134.0,324.32299999999998,1599.3199999999999,1562.75,1577.6099999999999,171.13399999999999,16.456900000000001,71.8733
216135.0,288.52100000000002,2868.4299999999998,2797.7800000000002,2826.1900000000001,143.57400000000001,14.0547,75.320300000000003
216136.0,262.089,3692.5799999999999,3615.46,3646.0999999999999,127.413,6.9298500000000001,71.466300000000004
216137.0,226.90700000000001,4658.1800000000003,4605.8299999999999,4619.5200000000004,112.869,-2.8285800000000001,60.644500000000001
216138.0,171.53999999999999,5433.8999999999996,5421.25,5409.6000000000004,89.912300000000002,-11.219099999999999,38.090499999999999
216139.0,122.479,5372.4899999999998,5382.4799999999996,5363.2700000000004,66.937700000000007,-15.720499999999999,13.4252
216140.0,79.975300000000004,4758.8400000000001,4793.79,4774.1899999999996,32.393300000000004,-17.997900000000001,-21.258199999999999
216141.0,81.6066,4019.1700000000001,4058.6399999999999,4045.1900000000001,17.006399999999999,-16.867899999999999,-35.264699999999998
216142.0,94.599800000000002,3210.7800000000002,3249.9699999999998,3246.8200000000002,2.0569899999999999,-13.980600000000001,-48.055799999999998
216143.0,114.779,2364.2399999999998,2402.0900000000001,2408.5900000000001,-12.290100000000001,-10.6715,-59.605800000000002
216144.0,137.25700000000001,1285.25,1311.3099999999999,1337.8699999999999,-27.3794,-3.2316500000000001,-69.480699999999999
216145.0,168.92699999999999,82.341999999999999,101.48999999999999,142.02699999999999,-44.639699999999998,3.2302599999999999,-81.119
216146.0,240.93299999999999,-2629.8099999999999,-2641.4899999999998,-2558.3499999999999,-82.980900000000005,24.133500000000002,-99.273099999999999
216147.0,280.85700000000003,-4234.8299999999999,-4261.9399999999996,-4156.79,-103.313,35.483699999999999,-106.68000000000001
216148.0,282.84800000000001,-5921.9799999999996,-5962.8500000000004,-5844.71,-107.542,44.527900000000002,-97.572199999999995
216149.0,244.38900000000001,-7279.1099999999997,-7319.1700000000001,-7211.5900000000001,-95.278999999999996,46.2746,-75.715299999999999
216150.0,190.21100000000001,-8045.0100000000002,-8069.2200000000003,-7990.2200000000003,-76.711600000000004,41.168399999999998,-53.313600000000001
216151.0,127.782,-8228.1299999999992,-8228.25,-8186.5200000000004,-53.749600000000001,31.934799999999999,-30.904599999999999
216152.0,62.202399999999997,-6902.4300000000003,-6838.0799999999999,-6890.3100000000004,-2.48861,3.3361299999999998,10.1676
216153.0,104.895,-5489.5299999999997,-5394.1199999999999,-5489.0500000000002,12.3185,-12.0329,18.745799999999999
216154.0,127.13,-3878.25,-3764.02,-3881.4299999999998,14.503399999999999,-22.121500000000001,14.620200000000001
216155.0,134.90600000000001,-2361.6599999999999,-2238.9299999999998,-2364.79,11.5907,-27.249700000000001,6.1513
216156.0,122.913,-1047.0899999999999,-933.28099999999995,-1047.9200000000001,6.4187000000000003,-25.291499999999999,-2.4109600000000002
216157.0,528.85400000000004,1597.9200000000001,1670.8199999999999,1675.2,221.42599999999999,44.095799999999997,200.92500000000001
216158.0,355.76400000000001,-1207.46,-1311.52,-1276.47,175.25,25.7879,89.492400000000004
216159.0,79.286799999999999,-5586.3800000000001,-5566.0799999999999,-5575.0,41.834899999999998,-14.0457,-6.6690399999999999
216160.0,254.619,1966.6800000000001,1945.26,2032.2,-90.698499999999996,31.4787,-101.693
216161.0,76.482600000000005,7778.8299999999999,7856.8699999999999,7797.9200000000001,-16.049600000000002,-1.63954,-5.8838800000000004
216162.0,136.91300000000001,4562.1899999999996,4682.2399999999998,4565.04,20.677800000000001,-24.651399999999999,22.815100000000001
216163.0,333.25599999999997,5737.0299999999997,5689.5500000000002,5808.5299999999997,-125.789,49.518999999999998,-123.11799999999999
216164.0,75.890199999999993,-4371.5200000000004,-4338.3299999999999,-4340.3900000000003,6.9108299999999998,-11.4923,-37.337600000000002
216165.0,303.30000000000001,-3787.1700000000001,-3883.4200000000001,-3839.6399999999999,146.46700000000001,16.660499999999999,81.310299999999998
216166.0,322.19,-2446.1700000000001,-2532.3699999999999,-2502.21,162.36500000000001,17.970800000000001,77.484200000000001
216167.0,269.70699999999999,-5036.1000000000004,-5123.6300000000001,-5083.8599999999997,129.36000000000001,8.7877700000000001,74.266400000000004
216168.0,215.869,-5600.1000000000004,-5658.0900000000001,-5634.0699999999997,107.381,-0.93936200000000003,56.149500000000003
216169.0,152.124,-5969.0900000000001,-5989.6000000000004,-5983.75,80.652500000000003,-8.4336000000000002,32.036900000000003
216170.0,107.453,-6029.0200000000004,-6023.4499999999998,-6028.46,59.627600000000001,-12.0504,11.774800000000001
216171.0,97.7119,5832.6800000000003,5864.6899999999996,5839.1300000000001,51.0137,-16.805599999999998,3.3369900000000001
216172.0,68.168499999999995,-5014.2399999999998,-4984.7399999999998,-4992.5500000000002,24.695399999999999,-13.9681,-22.592500000000001
216173.0,96.036699999999996,-3371.1700000000001,-3338.25,-3332.3099999999999,-10.158200000000001,-7.6619799999999998,-49.7425
216174.0,130.12200000000001,-2300.4099999999999,-2274.3899999999999,-2253.4899999999998,-30.888999999999999,-0.79715199999999997,-64.315299999999993
216175.0,161.77500000000001,-1088.51,-1074.5599999999999,-1035.51,-48.433500000000002,7.9094600000000002,-74.5702
216176.0,209.60900000000001,339.416,338.85199999999998,399.16399999999999,-71.157700000000006,18.305,-89.697100000000006
216177.0,215.07900000000001,-783.822,-776.66800000000001,-720.18799999999999,-73.231899999999996,18.2881,-92.234899999999996
216178.0,306.24900000000002,3797.1900000000001,3756.9699999999998,3867.98,-112.545,43.410899999999998,-116.42
216179.0,305.62,7446.1700000000001,7406.5200000000004,7511.8400000000001,-118.08499999999999,48.710700000000003,-109.491
216180.0,241.709,8546.6800000000003,8524.8400000000001,8601.5699999999997,-95.918199999999999,42.737900000000003,-82.9739
216181.0,172.47300000000001,8961.9200000000001,8966.5300000000007,9004.7900000000009,-71.456699999999998,31.895900000000001,-56.907299999999999
216182.0,104.742,8701.5499999999993,8740.0100000000002,8732.1800000000003,-44.779299999999999,16.5185,-31.076499999999999
216183.0,63.512500000000003,-8463.4099999999999,-8438.6200000000008,-8437.8700000000008,-25.8734,18.3704,-11.2486
216184.0,111.80800000000001,6293.8900000000003,6401.4399999999996,6302.75,9.8649299999999993,-16.213999999999999,15.5871
216185.0,143.43899999999999,2911.6700000000001,3038.6100000000001,2914.0599999999999,18.7818,-30.386199999999999,17.610700000000001
216186.0,131.59899999999999,1455.4100000000001,1574.76,1459.99,13.6488,-29.954000000000001,10.8028
216187.0,113.331,292.803,397.87700000000001,298.54199999999997,8.7110699999999994,-26.2883,4.9243699999999997
216188.0,58.1691,51.367699999999999,-1.93354,51.950499999999998,-10.3558,-3.4721099999999998,-7.1490799999999997
216189.0,350.39999999999998,1838.6300000000001,1785.1099999999999,1805.4200000000001,182.917,21.914000000000001,79.108099999999993
216190.0,317.572,3041.54,2960.3800000000001,2994.2800000000002,156.81800000000001,18.665600000000001,83.757499999999993
216191.0,280.72199999999998,4390.3999999999996,4314.6300000000001,4345.0200000000004,135.77000000000001,9.9236699999999995,79.260300000000001
216192.0,234.166,5288.9399999999996,5240.3999999999996,5253.3000000000002,115.67400000000001,-1.7686599999999999,65.286900000000003
216193.0,180.119,5725.4399999999996,5714.4300000000003,5706.0900000000001,93.025199999999998,-11.438599999999999,43.994599999999998
216194.0,130.58099999999999,6009.1899999999996,6025.0200000000004,6004.7799999999997,69.469399999999993,-14.840999999999999,22.897300000000001
216195.0,79.090500000000006,5291.8599999999997,5333.0600000000004,5308.7799999999997,34.201599999999999,-17.589300000000001,-13.307399999999999
216196.0,76.336299999999994,4762.79,4809.8400000000001,4789.6400000000003,18.162800000000001,-16.396000000000001,-28.0444
216197.0,87.234300000000005,3985.5900000000001,4033.1399999999999,4021.4699999999998,1.3864300000000001,-13.171900000000001,-41.799300000000002
216198.0,109.102,2960.3699999999999,3007.21,3004.0900000000001,-15.6128,-9.0585799999999992,-54.369799999999998
216199.0,136.30000000000001,1904.6600000000001,1939.9400000000001,1955.73,-33.645600000000002,-0.78966499999999995,-66.154899999999998
216200.0,174.78,666.678,693.14400000000001,724.596,-53.630899999999997,6.6953899999999997,-80.130099999999999
216201.0,267.46699999999998,-2428.73,-2440.3299999999999,-2358.6799999999998,-96.225999999999999,29.9053,-108.357
216202.0,315.18099999999998,-4273.6000000000004,-4308.5600000000004,-4199.0200000000004,-116.601,41.951599999999999,-120.94
216203.0,317.88400000000001,-6204.0600000000004,-6258.04,-6131.4399999999996,-118.598,51.1616,-113.861
216204.0,271.94799999999998,-7766.9300000000003,-7820.3599999999997,-7702.7700000000004,-101.59699999999999,52.185200000000002,-90.220399999999998
216205.0,208.06899999999999,-8650.6299999999992,-8685.9400000000005,-8598.2700000000004,-79.221999999999994,45.457099999999997,-64.363699999999994
216206.0,136.22800000000001,-8881.7199999999993,-8890.8500000000004,-8842.6599999999999,-54.1295,34.022399999999998,-37.990299999999998
216207.0,64.648399999999995,-7401.5,-7335.6400000000003,-7388.8599999999997,2.9266800000000002,-0.047548899999999998,12.7706
216208.0,113.63500000000001,-5805.2700000000004,-5704.1199999999999,-5800.6499999999996,17.68,-16.182400000000001,21.637799999999999
216209.0,132.32900000000001,-4066.9200000000001,-3948.46,-4064.5100000000002,17.2364,-25.752600000000001,17.088899999999999
216210.0,139.434,-2502.02,-2375.3099999999999,-2498.5700000000002,13.642899999999999,-31.361000000000001,10.0442
216211.0,129.35400000000001,-1138.8599999999999,-1019.49,-1133.6099999999999,9.1937800000000003,-30.5092,3.4897800000000001
216212.0,581.51300000000003,1943.99,1991.9100000000001,2000.74,253.06800000000001,56.509099999999997,211.06899999999999
216213.0,383.86099999999999,-1219.9100000000001,-1345.1099999999999,-1293.9200000000001,186.74000000000001,28.600200000000001,97.283100000000005
216214.0,87.621499999999997,-6213.71,-6190.54,-6199.4700000000003,47.139899999999997,-14.025399999999999,1.93502
216215.0,251.53899999999999,1449.4200000000001,1433.5,1514.6300000000001,-88.046499999999995,30.680900000000001,-102.70999999999999
216216.0,70.201599999999999,8112.3900000000003,8173.8400000000001,8128.21,-20.722300000000001,0.94132700000000002,-13.942600000000001
216217.0,140.75399999999999,4950.0500000000002,5073.3900000000003,4957.8000000000002,20.663399999999999,-27.9329,24.988399999999999
216218.0,334.14100000000002,5209.4700000000003,5154.21,5275.4399999999996,-119.752,50.084499999999998,-129.16900000000001
216219.0,68.231399999999994,-4904.5699999999997,-4864.7200000000003,-4872.4700000000003,6.8381999999999996,-10.626200000000001,-30.756
216220.0,329.23000000000002,-4220.6899999999996,-4339.6499999999996,-4282.5799999999999,159.21100000000001,14.9674,83.777299999999997
216221.0,344.50700000000001,-2794.6399999999999,-2902.4299999999998,-2861.3899999999999,173.13499999999999,18.174700000000001,79.346000000000004
216222.0,289.47300000000001,-5275.7600000000002,-5374.8999999999996,-5321.75,139.83799999999999,8.1526300000000003,76.474199999999996
216223.0,223.84299999999999,-6244.8400000000001,-6306.3800000000001,-6275.1599999999999,111.77200000000001,-1.4433400000000001,57.0961
216224.0,158.63300000000001,-6521.8599999999997,-6541.0100000000002,-6533.6599999999999,84.237099999999998,-9.9470200000000002,33.165900000000001
216225.0,119.756,-6386.2200000000003,-6378.5,-6382.4499999999998,65.688400000000001,-13.1622,16.6539
216226.0,108.086,6235.6700000000001,6268.1000000000004,6245.9399999999996,56.697200000000002,-17.257999999999999,10.3508
216227.0,65.888499999999993,-5723.96,-5689.2200000000003,-5699.71,26.9101,-13.386100000000001,-15.0419
216228.0,89.398600000000002,-4073.5599999999999,-4032.8200000000002,-4034.0700000000002,-11.484,-6.4335899999999997,-44.202800000000003
216229.0,125.907,-2975.1500000000001,-2940.9099999999999,-2928.0999999999999,-32.694600000000001,0.58704800000000001,-60.192599999999999
216230.0,159.94399999999999,-1655.1400000000001,-1633.2,-1602.24,-49.890999999999998,9.2286300000000008,-72.434200000000004
216231.0,208.715,-191.822,-185.16999999999999,-132.018,-71.421599999999998,19.089099999999998,-89.335599999999999
216232.0,214.10300000000001,-273.39800000000002,-262.14100000000002,-212.49700000000001,-73.724000000000004,18.661899999999999,-91.904700000000005
216233.0,299.90899999999999,3257.9899999999998,3219.0599999999999,3326.6399999999999,-105.83,42.059800000000003,-118.515
216234.0,323.04300000000001,7041.6099999999997,6988.04,7101.8100000000004,-117.92400000000001,50.747500000000002,-122.739
216235.0,263.77600000000001,8361.6100000000006,8324.2399999999998,8413.1200000000008,-97.536199999999994,44.831499999999998,-98.375799999999998
216236.0,189.13,8968.4099999999999,8955.8999999999996,9008.0300000000007,-71.942400000000006,34.064900000000002,-69.619299999999996
216237.0,116.255,8870.7700000000004,8891.0400000000009,8897.9200000000001,-46.657299999999999,19.4086,-41.859900000000003
216238.0,75.408100000000005,-8652.8799999999992,-8644.8500000000004,-8626.7000000000007,-27.7742,21.145499999999998,-22.292899999999999
216239.0,102.851,6725.8199999999997,6826.3699999999999,6735.5299999999997,5.24444,-16.675899999999999,12.0168
216240.0,153.78399999999999,3189.9299999999998,3325.1900000000001,3198.3699999999999,21.161999999999999,-34.785899999999998,21.985099999999999
216241.0,143.023,1614.03,1743.45,1625.0999999999999,15.786,-34.875700000000002,14.3917
216242.0,126.67700000000001,331.49700000000001,447.60300000000001,343.69999999999999,12.0603,-32.395400000000002,9.1251899999999999
216243.0,59.058799999999998,51.729799999999997,-2.2041200000000001,52.474499999999999,-10.1678,-3.4540799999999998,-8.00868
216244.0,372.43700000000001,2018.95,1951.5999999999999,1980.1700000000001,193.52500000000001,25.1599,83.719399999999993
216245.0,338.983,3501.5300000000002,3399.2600000000002,3446.04,167.80199999999999,18.171199999999999,84.818100000000001
216246.0,303.416,4668.0,4578.7799999999997,4620.3000000000002,147.31700000000001,8.9381799999999991,83.133600000000001
216247.0,247.42599999999999,5714.0799999999999,5664.71,5682.8599999999997,123.274,-2.47323,67.679400000000001
216248.0,183.11199999999999,6409.3000000000002,6400.0299999999997,6394.9300000000003,94.575800000000001,-12.489800000000001,44.978099999999998
216249.0,138.583,6382.9700000000003,6398.4200000000001,6383.2200000000003,73.825500000000005,-15.5762,25.112100000000002
216250.0,82.769199999999998,5994.1599999999999,6040.7799999999997,6013.3699999999999,37.360999999999997,-17.8398,-4.5483500000000001
216251.0,73.606999999999999,5330.3800000000001,5384.3599999999997,5359.1300000000001,19.1205,-16.169599999999999,-21.198899999999998
216252.0,81.397800000000004,4550.1899999999996,4605.6000000000004,4586.96,0.27225199999999999,-12.458600000000001,-35.473700000000001
216253.0,104.578,3676.0999999999999,3731.0,3719.9000000000001,-17.753900000000002,-8.0667399999999994,-49.2179
216254.0,133.51599999999999,2518.3400000000001,2560.79,2568.25,-36.060000000000002,0.18432699999999999,-62.588099999999997
216255.0,173.774,1186.4400000000001,1219.01,1242.54,-55.829099999999997,7.5941099999999997,-78.087199999999996
216256.0,261.65899999999999,-1908.0799999999999,-1918.3499999999999,-1842.73,-92.177599999999998,29.341799999999999,-108.544
216257.0,309.09500000000003,-3718.0700000000002,-3752.9899999999998,-3650.54,-109.619,40.837000000000003,-124.297
216258.0,327.13900000000001,-5657.7600000000002,-5716.3800000000001,-5592.5500000000002,-116.447,50.934699999999999,-125.229
216259.0,292.75700000000001,-7393.5799999999999,-7459.8100000000004,-7334.1000000000004,-102.374,53.947899999999997,-105.94
216260.0,227.429,-8511.2800000000007,-8563.3299999999999,-8461.0499999999993,-78.306799999999996,47.844999999999999,-78.767899999999997
216261.0,152.80099999999999,-8915.0599999999995,-8941.1299999999992,-8877.0699999999997,-53.500799999999998,36.231699999999996,-50.694200000000002
216262.0,46.624899999999997,-7753.9899999999998,-7703.1300000000001,-7738.2299999999996,-0.77541000000000004,2.4092799999999999,6.3619300000000001
216263.0,106.72,-6237.5799999999999,-6142.4300000000003,-6227.0600000000004,17.7088,-16.270800000000001,22.3019
216264.0,137.98400000000001,-4419.46,-4296.4499999999998,-4410.6199999999999,19.685199999999998,-28.616700000000002,20.809999999999999
216265.0,149.61199999999999,-2725.5700000000002,-2589.4099999999999,-2716.0799999999999,15.3939,-35.526299999999999,13.514099999999999
216266.0,140.68700000000001,-1253.55,-1123.79,-1241.6500000000001,12.107699999999999,-35.356999999999999,7.4624499999999996
216267.0,629.29999999999995,2119.8600000000001,2140.0700000000002,2147.27,286.13499999999999,66.512,213.32400000000001
216268.0,411.11099999999999,-1527.5999999999999,-1674.98,-1607.1900000000001,197.91499999999999,29.9543,104.057
216269.0,94.260199999999998,-6606.8299999999999,-6580.0100000000002,-6589.0299999999997,49.388199999999998,-13.659000000000001,12.232799999999999
216270.0,226.482,573.13499999999999,562.27599999999995,632.73900000000003,-75.966899999999995,25.169899999999998,-96.199399999999997
216271.0,79.314700000000002,7916.7200000000003,7954.6199999999999,7934.46,-26.925699999999999,9.6313399999999998,-30.3249
216272.0,127.604,5395.5,5517.8999999999996,5410.7600000000002,14.7028,-24.483499999999999,12.769399999999999
216273.0,306.51900000000001,4009.0,3952.1199999999999,4067.9299999999998,-105.255,44.741,-122.0
216274.0,61.734999999999999,-5579.8400000000001,-5533.1400000000003,-5545.1899999999996,7.6391400000000003,-10.2006,-22.805499999999999
216275.0,340.65499999999997,-4384.7799999999997,-4516.3800000000001,-4450.3100000000004,161.446,13.683199999999999,90.001900000000006
216276.0,358.04300000000001,-2932.29,-3054.1999999999998,-3000.1900000000001,177.02099999999999,19.518599999999999,85.341300000000004
216277.0,300.47800000000001,-5828.79,-5936.0299999999997,-5875.2399999999998,141.43199999999999,6.4874799999999997,84.606899999999996
216278.0,228.72399999999999,-6517.4499999999998,-6578.4399999999996,-6541.6000000000004,111.571,-0.47072599999999998,63.610700000000001
216279.0,158.96199999999999,-6831.54,-6846.1800000000003,-6836.04,82.132400000000004,-10.2728,38.928699999999999
216280.0,124.739,-6876.1099999999997,-6865.9200000000001,-6867.4499999999998,65.509699999999995,-14.6839,25.482199999999999
216281.0,114.193,6636.8199999999997,6669.7399999999998,6652.2399999999998,57.800400000000003,-17.565999999999999,20.639199999999999
216282.0,64.301699999999997,-6175.8199999999997,-6135.3299999999999,-6148.8900000000003,27.579599999999999,-12.462300000000001,-6.1225899999999998
216283.0,80.996799999999993,-4601.1599999999999,-4553.0,-4560.0900000000001,-8.9188600000000005,-6.5210699999999999,-37.264699999999998
216284.0,114.693,-3547.0799999999999,-3505.4299999999998,-3499.52,-28.445,-0.38538800000000001,-53.887700000000002
216285.0,145.124,-2356.77,-2328.0500000000002,-2304.5799999999999,-42.9358,6.9011300000000002,-66.678799999999995
216286.0,189.471,-969.40800000000002,-956.62099999999998,-911.976,-61.797499999999999,15.1312,-83.722300000000004
216287.0,193.61600000000001,520.30700000000002,535.92899999999997,576.827,-63.548099999999998,14.680999999999999,-85.965000000000003
216288.0,268.80500000000001,2239.8600000000001,2205.3200000000002,2301.1799999999998,-91.415000000000006,35.208500000000001,-110.145
216289.0,316.80200000000002,5817.3999999999996,5753.7299999999996,5870.2399999999998,-110.864,48.377400000000002,-124.17700000000001
216290.0,277.01400000000001,7315.9899999999998,7262.5600000000004,7360.6199999999999,-97.751999999999995,44.898899999999998,-107.68899999999999
216291.0,209.03299999999999,8176.8800000000001,8145.8299999999999,8212.2299999999996,-74.150099999999995,36.675899999999999,-81.349699999999999
216292.0,138.935,8356.9300000000003,8356.8899999999994,8383.3999999999996,-50.1252,24.8825,-55.396599999999999
216293.0,104.404,-8212.2800000000007,-8221.9099999999999,-8184.1099999999997,-31.413,27.0276,-39.117100000000001
216294.0,79.308999999999997,6911.8699999999999,6994.5900000000001,6925.3400000000001,-4.2323899999999997,-8.48353,-6.0377099999999997
216295.0,163.44399999999999,3597.23,3749.4200000000001,3617.8499999999999,22.0611,-35.839199999999998,17.810500000000001
216296.0,162.46000000000001,1842.51,1996.03,1866.23,19.2864,-37.615299999999998,13.4702
216297.0,147.28200000000001,374.32799999999997,513.83600000000001,396.51799999999997,16.032399999999999,-35.601300000000002,9.2946500000000007
216298.0,60.005099999999999,52.083599999999997,-2.4190299999999998,53.003900000000002,-10.022500000000001,-3.79013,-8.8435100000000002
216299.0,393.12299999999999,2290.1300000000001,2208.25,2245.7600000000002,202.27099999999999,28.009599999999999,90.205200000000005
216300.0,349.47199999999998,3522.0799999999999,3408.0999999999999,3464.8800000000001,171.476,17.674399999999999,88.013099999999994
216301.0,312.85599999999999,5038.5500000000002,4941.2299999999996,4992.3000000000002,149.727,7.5232700000000001,88.215100000000007
216302.0,257.80700000000002,6152.1700000000001,6101.0500000000002,6125.3100000000004,125.736,-2.8719100000000002,75.385900000000007
216303.0,184.44900000000001,6596.6999999999998,6593.6300000000001,6588.9200000000001,93.416300000000007,-12.1616,49.503999999999998
216304.0,138.035,6740.8999999999996,6756.2200000000003,6746.96,70.758799999999994,-16.4619,31.841699999999999
216305.0,88.508300000000006,6333.04,6386.1599999999999,6357.1099999999997,39.677399999999999,-17.610399999999998,4.3992899999999997
216306.0,71.501400000000004,5898.8599999999997,5959.6800000000003,5930.5900000000001,19.184899999999999,-15.610799999999999,-12.926500000000001
216307.0,75.831900000000005,5154.5299999999997,5216.5100000000002,5192.3699999999999,1.2087699999999999,-12.1243,-28.148199999999999
216308.0,96.687799999999996,4148.6199999999999,4209.79,4192.4700000000003,-15.363300000000001,-8.4648500000000002,-42.595700000000001
216309.0,122.08199999999999,3113.73,3161.5700000000002,3162.0700000000002,-31.617899999999999,-1.1079699999999999,-56.533299999999997
216310.0,158.71100000000001,1908.1400000000001,1945.77,1961.5999999999999,-48.787799999999997,5.0144000000000002,-72.366299999999995
216311.0,234.53200000000001,-1001.5599999999999,-1007.58,-942.90599999999995,-79.556100000000001,24.184000000000001,-100.71899999999999
216312.0,276.36000000000001,-2628.8099999999999,-2659.0700000000002,-2569.6799999999998,-94.503100000000003,34.433500000000002,-115.21599999999999
216313.0,308.46100000000001,-4387.54,-4442.6800000000003,-4331.25,-106.04000000000001,44.849600000000002,-123.919
216314.0,296.428,-6167.5699999999997,-6239.25,-6117.4799999999996,-100.051,50.971499999999999,-113.736
216315.0,243.214,-7521.04,-7586.6099999999997,-7477.7200000000003,-78.965100000000007,48.537199999999999,-90.114500000000007
216316.0,175.40600000000001,-8182.8199999999997,-8224.3500000000004,-8147.0,-55.115900000000003,39.686900000000001,-64.376499999999993
216317.0,43.210299999999997,-7658.04,-7628.3900000000003,-7636.2200000000003,-8.5212699999999995,11.1792,-13.7355
216318.0,74.682500000000005,-6553.4899999999998,-6476.4200000000001,-6533.54,11.866199999999999,-7.61686,7.7725200000000001
216319.0,128.185,-4937.1800000000003,-4815.3800000000001,-4915.1099999999997,20.664899999999999,-24.480699999999999,15.4764
216320.0,161.23400000000001,-3135.2399999999998,-2981.3299999999999,-3110.3099999999999,19.694299999999998,-36.211500000000001,11.913500000000001
216321.0,160.607,-1468.8499999999999,-1314.95,-1443.72,16.933599999999998,-38.084000000000003,6.7078600000000002
216322.0,671.26099999999997,2338.8800000000001,2330.73,2336.0100000000002,319.74000000000001,72.538899999999998,206.601
216323.0,434.55099999999999,-1447.4300000000001,-1614.1900000000001,-1536.1099999999999,207.08600000000001,30.545300000000001,110.298
216324.0,97.143799999999999,-6993.8699999999999,-6958.8500000000004,-6971.21,48.167099999999998,-12.254099999999999,18.9693
216325.0,190.25800000000001,-579.94100000000003,-584.09199999999998,-526.84400000000005,-62.031700000000001,18.113900000000001,-82.8917
216326.0,99.572999999999993,7076.0799999999999,7100.1400000000003,7097.3599999999997,-30.969899999999999,17.077300000000001,-43.3705
216327.0,106.76000000000001,5273.4399999999996,5385.4099999999999,5294.4399999999996,3.9854400000000001,-13.4406,-7.7748299999999997
216328.0,263.995,2525.3000000000002,2474.73,2574.3499999999999,-90.089100000000002,35.956099999999999,-106.49299999999999
216329.0,59.6126,-5881.4200000000001,-5828.0,-5844.46,12.258900000000001,-10.1333,-13.526
216330.0,348.863,-4781.1499999999996,-4923.1700000000001,-4848.75,165.31100000000001,13.811199999999999,89.4636
216331.0,374.483,-3268.27,-3404.4099999999999,-3335.6300000000001,182.816,20.6463,90.908500000000004
216332.0,297.67200000000003,-5849.9700000000003,-5956.1400000000003,-5898.1300000000001,141.59700000000001,5.6718299999999999,81.414100000000005
216333.0,232.821,-6844.46,-6900.7399999999998,-6862.8299999999999,113.875,-2.0377999999999998,65.369500000000002
216334.0,170.476,-7165.6800000000003,-7176.5299999999997,-7163.6700000000001,85.155600000000007,-9.0362500000000008,48.025500000000001
216335.0,129.214,-7089.21,-7071.3400000000001,-7075.4099999999999,64.795199999999994,-11.651199999999999,33.8157
216336.0,117.798,6927.8699999999999,6972.3199999999997,6948.8199999999997,56.153500000000001,-15.0307,27.420200000000001
216337.0,69.220100000000002,-6593.1599999999999,-6545.6800000000003,-6562.8800000000001,29.496500000000001,-11.923400000000001,2.67259
216338.0,70.547300000000007,-5182.8599999999997,-5128.5200000000004,-5140.7600000000002,-1.81413,-7.87479,-27.953499999999998
216339.0,96.047300000000007,-4249.5100000000002,-4202.0900000000001,-4202.6999999999998,-19.4346,-3.2477200000000002,-44.122500000000002
216340.0,119.58499999999999,-3135.4499999999998,-3101.0700000000002,-3085.98,-31.487300000000001,2.3671899999999999,-55.919400000000003
216341.0,158.215,-1926.54,-1907.3299999999999,-1873.7,-49.160299999999999,9.07653,-71.620500000000007
216342.0,161.554,1532.53,1554.8599999999999,1583.76,-50.7074,8.8637499999999996,-73.419700000000006
216343.0,228.495,912.10599999999999,885.36300000000006,964.32799999999997,-76.9636,26.980799999999999,-95.598299999999995
216344.0,286.50200000000001,4167.6499999999996,4102.2399999999998,4209.9700000000003,-99.914599999999993,42.1081,-112.514
216345.0,272.89299999999997,5669.8299999999999,5608.2200000000003,5705.29,-96.625600000000006,43.064,-105.92400000000001
216346.0,221.72999999999999,6749.3500000000004,6708.3900000000003,6779.7299999999996,-77.768900000000002,38.173299999999998,-87.184200000000004
216347.0,156.559,7221.8000000000002,7210.6899999999996,7246.96,-53.3401,28.813400000000001,-64.416200000000003
216348.0,126.59,-7164.6199999999999,-7182.6899999999996,-7138.7700000000004,-35.033099999999997,31.792300000000001,-51.150100000000002
216349.0,74.8977,6399.5799999999999,6464.8100000000004,6417.9799999999996,-11.927099999999999,2.6579000000000002,-24.2835
216350.0,159.32900000000001,3776.9200000000001,3938.1599999999999,3807.4499999999998,15.3842,-29.726900000000001,2.2551999999999999
216351.0,177.18000000000001,2024.23,2201.7800000000002,2060.52,18.9026,-35.814100000000003,4.9817900000000002
216352.0,168.816,375.81400000000002,544.94299999999998,411.31299999999999,18.297999999999998,-34.563400000000001,4.0672300000000003
216353.0,60.834400000000002,52.724699999999999,-1.8708,54.3185,-9.9399300000000004,-4.7804599999999997,-9.4099299999999992
216354.0,411.916,2415.4499999999998,2321.1199999999999,2363.3400000000001,209.053,31.405100000000001,98.162999999999997
216355.0,363.09100000000001,4002.5100000000002,3878.6399999999999,3945.1799999999998,177.45400000000001,17.805900000000001,91.078299999999999
216356.0,312.25599999999997,5199.1700000000001,5101.8299999999999,5155.5100000000002,150.494,6.0844899999999997,86.245699999999999
216357.0,253.422,6251.6800000000003,6202.6999999999998,6229.9899999999998,124.208,-3.62459,73.242999999999995
216358.0,193.38,6978.04,6974.2799999999997,6976.7799999999997,96.426699999999997,-11.640700000000001,55.027299999999997
216359.0,148.71000000000001,7012.6999999999998,7038.0500000000002,7023.5900000000001,72.1798,-14.0745,42.4482
216360.0,92.118700000000004,6767.4200000000001,6826.4899999999998,6796.8900000000003,39.771000000000001,-15.8932,11.0444
216361.0,73.788200000000003,6199.9099999999999,6266.1499999999996,6234.3500000000004,21.894300000000001,-14.8995,-4.0168999999999997
216362.0,71.126999999999995,5537.21,5603.6999999999998,5575.9700000000003,6.1404500000000004,-12.6319,-19.331299999999999
216363.0,85.385099999999994,4807.1300000000001,4873.3299999999999,4850.75,-8.1848399999999994,-10.188700000000001,-33.57
216364.0,102.895,3831.1799999999998,3883.6100000000001,3877.4099999999999,-22.1434,-4.1441600000000003,-46.914099999999998
216365.0,133.41900000000001,2722.8200000000002,2766.3699999999999,2772.9000000000001,-37.600900000000003,0.44741900000000001,-61.467599999999997
216366.0,198.30500000000001,199.86600000000001,201.446,251.60900000000001,-65.872,17.256900000000002,-87.208299999999994
216367.0,234.93899999999999,-1280.6500000000001,-1302.6800000000001,-1230.6099999999999,-79.861699999999999,26.457599999999999,-99.784499999999994
216368.0,269.06099999999998,-2854.7800000000002,-2900.5500000000002,-2808.2800000000002,-92.397499999999994,35.966200000000001,-110.327
216369.0,277.95800000000003,-4457.6800000000003,-4522.3000000000002,-4417.9099999999999,-95.264099999999999,44.411299999999997,-109.224
216370.0,247.28700000000001,-5888.2399999999998,-5955.0699999999997,-5854.4099999999999,-81.493499999999997,47.274099999999997,-94.253
216371.0,189.97300000000001,-6839.1599999999999,-6888.0,-6809.5100000000002,-58.079799999999999,42.170400000000001,-72.852500000000006
216372.0,72.631600000000006,-6906.3699999999999,-6887.8000000000002,-6882.04,-14.759499999999999,19.170100000000001,-31.8033
216373.0,59.376199999999997,-6164.8699999999999,-6103.25,-6139.6099999999997,1.9024000000000001,4.1833900000000002,-13.9513
216374.0,104.017,-4998.9099999999999,-4888.2200000000003,-4967.5299999999997,13.867000000000001,-12.5472,-1.63175
216375.0,158.30099999999999,-3470.8699999999999,-3309.29,-3430.48,20.223099999999999,-29.446000000000002,2.5303599999999999
216376.0,176.471,-1729.1700000000001,-1550.74,-1686.25,20.618200000000002,-35.786999999999999,1.23237
216377.0,706.65899999999999,2402.8099999999999,2367.9299999999998,2370.9499999999998,349.25999999999999,75.063000000000002,196.125
216378.0,454.197,-1677.4200000000001,-1858.8499999999999,-1774.75,217.05199999999999,30.462900000000001,111.71899999999999
216379.0,103.622,-7113.1099999999997,-7069.1300000000001,-7083.96,48.6175,-10.2745,24.682600000000001
216380.0,151.36000000000001,-1722.3800000000001,-1717.79,-1676.77,-50.875399999999999,10.976599999999999,-65.553700000000006
216381.0,109.224,5858.0299999999997,5878.5200000000004,5876.6599999999999,-35.398800000000001,20.1233,-46.7986
216382.0,100.797,4572.7299999999996,4675.8299999999999,4595.8800000000001,-6.6155999999999997,-2.8085200000000001,-20.2194
216383.0,219.11799999999999,973.48400000000004,932.71600000000001,1010.35,-79.466300000000004,27.982399999999998,-86.0124
216384.0,65.570800000000006,-6346.7399999999998,-6288.5600000000004,-6308.2600000000002,20.491499999999998,-10.7433,-4.7373500000000002
216385.0,351.74200000000002,-4897.8500000000004,-5045.2600000000002,-4963.2299999999996,162.58000000000001,15.716100000000001,95.421999999999997
216386.0,389.52100000000002,-3311.5500000000002,-3459.3000000000002,-3382.9099999999999,185.798,22.190899999999999,100.51300000000001
216387.0,287.95800000000003,-6205.6800000000003,-6306.4399999999996,-6244.8500000000004,135.60599999999999,4.9789599999999998,81.522900000000007
216388.0,231.37,-6727.1700000000001,-6778.8699999999999,-6740.3699999999999,111.254,-4.2087300000000001,68.753900000000002
216389.0,179.00700000000001,-7188.6300000000001,-7197.71,-7183.6099999999997,87.5946,-8.6840600000000006,53.681899999999999
216390.0,134.31700000000001,-7397.1999999999998,-7373.0799999999999,-7377.4700000000003,65.593400000000003,-9.6735199999999999,38.112000000000002
216391.0,123.59099999999999,7195.3599999999997,7249.6099999999997,7222.3999999999996,56.502499999999998,-12.411300000000001,31.769100000000002
216392.0,81.005600000000001,-6747.5600000000004,-6693.3699999999999,-6713.4099999999999,34.7761,-11.026199999999999,10.2774
216393.0,64.955699999999993,-5613.2200000000003,-5554.1899999999996,-5570.7200000000003,8.0387599999999999,-9.7629000000000001,-17.867699999999999
216394.0,77.408600000000007,-4839.0600000000004,-4787.0,-4793.8299999999999,-9.3641699999999997,-6.4412799999999999,-32.6768
216395.0,92.809100000000001,-3956.52,-3916.6799999999998,-3910.6999999999998,-20.785499999999999,-2.1316700000000002,-42.594700000000003
216396.0,125.395,-2904.2199999999998,-2877.6300000000001,-2857.0799999999999,-38.645200000000003,3.2435,-56.380499999999998
216397.0,128.809,2544.04,2574.9200000000001,2589.9899999999998,-40.231699999999996,3.3616000000000001,-57.895699999999998
216398.0,185.25299999999999,-429.64999999999998,-445.97699999999998,-386.31999999999999,-65.577200000000005,18.982900000000001,-76.343199999999996
216399.0,251.07900000000001,2499.1399999999999,2439.1100000000001,2528.5900000000001,-93.224999999999994,36.049500000000002,-94.569299999999998
216400.0,256.30099999999999,4016.6799999999998,3957.3000000000002,4042.2399999999998,-96.662899999999993,39.143799999999999,-95.507400000000004
216401.0,216.483,5212.8400000000001,5172.3800000000001,5235.4399999999996,-80.495199999999997,35.919400000000003,-82.652699999999996
216402.0,157.40299999999999,5823.29,5810.9099999999999,5843.0299999999997,-55.836399999999998,28.8752,-63.596899999999998
216403.0,131.20500000000001,-5823.2600000000002,-5840.3299999999999,-5805.0299999999997,-39.226900000000001,32.169400000000003,-53.413499999999999
216404.0,84.209299999999999,5413.8000000000002,5472.0600000000004,5433.5200000000004,-18.771599999999999,9.8999000000000006,-32.175199999999997
216405.0,148.995,3373.1399999999999,3529.9299999999998,3403.04,2.6308199999999999,-18.820599999999999,-10.4312
216406.0,176.178,1862.8199999999999,2046.5,1897.4300000000001,7.2367400000000002,-27.363099999999999,-4.3613400000000002
216407.0,176.018,312.39400000000001,496.07900000000001,348.43900000000002,9.4286499999999993,-27.6221,-1.65716
216408.0,61.272100000000002,54.180700000000002,0.75021800000000005,57.9726,-9.8690800000000003,-6.62094,-9.2874400000000001
216409.0,429.483,2594.0700000000002,2489.5,2533.3299999999999,216.89400000000001,34.673499999999997,102.384
216410.0,374.81999999999999,4009.9899999999998,3880.6300000000001,3950.6599999999999,179.60300000000001,19.232500000000002,100.05200000000001
216411.0,304.92399999999998,5491.8999999999996,5399.5699999999997,5454.3800000000001,145.149,5.1231799999999996,87.990300000000005
216412.0,243.578,6326.1400000000003,6279.1999999999998,6314.6300000000001,117.78100000000001,-4.8697800000000004,72.677000000000007
216413.0,198.03800000000001,6764.9799999999996,6761.1400000000003,6770.6300000000001,96.177899999999994,-11.0289,60.649799999999999
216414.0,157.73400000000001,7228.1000000000004,7261.3999999999996,7245.8900000000003,75.512,-12.438599999999999,46.464700000000001
216415.0,98.892200000000003,6827.3299999999999,6891.9300000000003,6859.1899999999996,41.515700000000002,-13.4848,17.6419
216416.0,81.641000000000005,6513.1499999999996,6582.8999999999996,6549.1499999999996,28.026199999999999,-14.4053,3.49553
216417.0,72.121899999999997,5982.7399999999998,6052.7200000000003,6022.5600000000004,14.4496,-13.571999999999999,-10.4373
216418.0,77.196200000000005,5232.1000000000004,5302.75,5276.0500000000002,1.3577300000000001,-12.453099999999999,-23.603999999999999
216419.0,84.085300000000004,4486.0699999999997,4543.2399999999998,4530.6499999999996,-12.1828,-7.4291400000000003,-35.364400000000003
216420.0,107.99299999999999,3592.5900000000001,3643.23,3639.5599999999999,-27.6434,-3.9804499999999998,-48.065300000000001
216421.0,159.47399999999999,1383.76,1396.1199999999999,1428.5999999999999,-54.956400000000002,10.694800000000001,-69.328100000000006
216422.0,191.36000000000001,124.904,115.92100000000001,166.12299999999999,-68.498699999999999,19.236000000000001,-80.171599999999998
216423.0,227.386,-1262.26,-1293.6400000000001,-1226.79,-83.816000000000003,28.428899999999999,-91.009399999999999
216424.0,252.62200000000001,-2784.0900000000001,-2837.02,-2755.25,-93.749300000000005,37.850700000000003,-96.598699999999994
216425.0,236.12299999999999,-4279.5100000000002,-4341.5699999999997,-4256.96,-83.844099999999997,42.9863,-88.246700000000004
216426.0,185.22999999999999,-5359.5699999999997,-5407.21,-5340.9899999999998,-60.802199999999999,40.065899999999999,-70.481999999999999
216427.0,87.913899999999998,-5760.5299999999997,-5742.5799999999999,-5740.6499999999996,-21.409600000000001,22.8672,-38.403399999999998
216428.0,72.118899999999996,-5259.4399999999996,-5201.8699999999999,-5235.9200000000001,-8.2660599999999995,12.046099999999999,-26.125399999999999
216429.0,95.747200000000007,-4399.3599999999997,-4296.5200000000004,-4370.25,1.72556,-1.2194799999999999,-15.5426
216430.0,146.53200000000001,-3205.6300000000001,-3048.5500000000002,-3167.23,8.9282500000000002,-17.6082,-7.8869600000000002
216431.0,174.47999999999999,-1717.1500000000001,-1532.53,-1672.99,11.988799999999999,-26.321300000000001,-4.1718099999999998
216432.0,737.69000000000005,2491.6700000000001,2436.3699999999999,2438.96,375.33499999999998,77.000799999999998,183.346
216433.0,469.57999999999998,-1496.71,-1691.4200000000001,-1604.46,225.92699999999999,28.8916,110.04600000000001
216434.0,115.90900000000001,-7160.1700000000001,-7110.4899999999998,-7124.7799999999997,53.2316,-9.8215199999999996,29.900500000000001
216435.0,120.86799999999999,-2645.2800000000002,-2633.6399999999999,-2609.5900000000001,-47.228900000000003,5.9159199999999998,-47.6736
216436.0,110.69799999999999,4678.8199999999997,4700.0200000000004,4691.6000000000004,-41.201599999999999,20.564,-43.015300000000003
216437.0,100.973,3780.3600000000001,3877.1199999999999,3800.0900000000001,-16.508900000000001,3.2243900000000001,-22.3871
216438.0,183.40000000000001,-156.16,-182.58199999999999,-129.48500000000001,-76.502399999999994,22.292400000000001,-64.4786
216439.0,77.698300000000003,-6505.96,-6446.5299999999997,-6464.6599999999999,30.600000000000001,-11.632999999999999,3.5968200000000001
216440.0,353.97000000000003,-5137.2299999999996,-5277.46,-5202.0799999999999,163.24600000000001,20.296600000000002,98.885400000000004
216441.0,399.33699999999999,-3547.4400000000001,-3700.0799999999999,-3627.46,190.197,24.262499999999999,102.779
216442.0,284.17500000000001,-6068.3800000000001,-6158.54,-6104.1000000000004,131.89699999999999,7.9527200000000002,86.004800000000003
216443.0,225.43799999999999,-6958.2299999999996,-6999.1999999999998,-6968.6999999999998,106.541,-1.67292,71.652100000000004
216444.0,173.71100000000001,-7243.8199999999997,-7244.7200000000003,-7234.6999999999998,82.257499999999993,-7.4448600000000003,56.621400000000001
216445.0,134.78999999999999,-7165.1599999999999,-7132.9700000000003,-7138.5100000000002,62.330399999999997,-9.7617399999999996,42.1858
216446.0,127.3,7016.6000000000004,7072.21,7049.6899999999996,56.854700000000001,-11.2178,35.513300000000001
216447.0,99.265000000000001,-6954.4300000000003,-6898.6800000000003,-6916.3000000000002,45.061900000000001,-11.0764,17.863700000000001
216448.0,66.558999999999997,-6099.29,-6037.8599999999997,-6056.0200000000004,16.747599999999998,-11.4611,-8.3132400000000004
216449.0,64.347399999999993,-5455.9700000000003,-5400.6700000000001,-5412.3400000000001,-2.2829700000000002,-8.9368700000000008,-21.105499999999999
216450.0,71.726100000000002,-4624.2799999999997,-4579.7299999999996,-4582.0200000000004,-14.3774,-5.4285100000000002,-29.142299999999999
216451.0,98.918800000000005,-3700.1399999999999,-3666.96,-3659.1300000000001,-33.659399999999998,-0.90684500000000001,-40.669800000000002
216452.0,103.84,3370.7399999999998,3410.3800000000001,3411.3099999999999,-35.6357,-0.30124800000000002,-42.282499999999999
216453.0,153.25399999999999,-1454.8599999999999,-1461.48,-1423.0799999999999,-63.727600000000002,13.162599999999999,-56.329700000000003
216454.0,214.505,1233.74,1187.3099999999999,1252.0999999999999,-88.949799999999996,30.4831,-73.3566
216455.0,228.786,2676.8699999999999,2627.4699999999998,2689.9699999999998,-95.523600000000002,33.371299999999998,-78.248699999999999
216456.0,199.39599999999999,3862.04,3829.02,3873.98,-82.130700000000004,31.2559,-70.626800000000003
216457.0,148.98500000000001,4525.5299999999997,4517.5500000000002,4537.3199999999997,-58.948999999999998,26.503699999999998,-55.878799999999998
216458.0,125.914,-4574.2200000000003,-4585.6000000000004,-4564.9200000000001,-44.556100000000001,29.5716,-48.1432
216459.0,90.292299999999997,4413.3299999999999,4468.8699999999999,4428.4899999999998,-26.978000000000002,12.8843,-31.615400000000001
216460.0,140.11199999999999,2816.3499999999999,2963.6700000000001,2843.4000000000001,-9.1165500000000002,-9.0671700000000008,-15.097200000000001
216461.0,167.346,1560.3399999999999,1736.52,1589.51,-6.6113200000000001,-16.427700000000002,-10.2486
216462.0,169.279,234.71299999999999,413.14600000000002,262.755,-5.4269699999999998,-16.435500000000001,-6.7271599999999996
216463.0,61.314799999999998,55.682099999999998,5.3789499999999997,64.117400000000004,-9.7194900000000004,-9.2015200000000004,-8.0870800000000003
216464.0,442.399,2603.79,2487.8899999999999,2533.1799999999998,223.56700000000001,35.521099999999997,102.878
216465.0,381.03500000000003,4411.8900000000003,4286.2200000000003,4347.5699999999997,182.68899999999999,22.217099999999999,102.848
216466.0,302.755,5553.1599999999999,5475.0500000000002,5517.6099999999997,144.24600000000001,9.1726500000000009,90.183700000000002
216467.0,239.27799999999999,6409.2299999999996,6376.0299999999997,6400.75,113.8,-1.3996,76.386899999999997
216468.0,192.452,7051.9899999999998,7061.2299999999996,7063.8000000000002,91.775300000000001,-7.7239500000000003,61.846600000000002
216469.0,152.56999999999999,7078.1000000000004,7118.4099999999999,7105.21,69.763599999999997,-11.234,48.412399999999998
216470.0,111.20699999999999,6975.5200000000004,7038.8000000000002,7010.3400000000001,49.063099999999999,-12.747,23.409700000000001
216471.0,95.340100000000007,6637.8100000000004,6708.5299999999997,6676.1000000000004,37.513300000000001,-15.2059,11.755100000000001
216472.0,79.722999999999999,6248.6099999999997,6321.5600000000004,6290.4499999999998,23.523900000000001,-14.862,-2.0620699999999998
216473.0,75.479799999999997,5805.5,5880.54,5850.6899999999996,9.1112099999999998,-14.1107,-13.768800000000001
216474.0,71.668999999999997,5112.7399999999998,5175.0600000000004,5156.3800000000001,-5.5832699999999997,-9.6516400000000004,-23.7685
216475.0,89.055099999999996,4279.21,4337.1300000000001,4323.6800000000003,-22.168199999999999,-6.8883000000000001,-34.436500000000002
216476.0,131.85499999999999,2327.8899999999999,2350.8400000000001,2364.9299999999998,-52.713500000000003,6.3627900000000004,-51.249200000000002
216477.0,159.27699999999999,1145.48,1148.6900000000001,1177.1500000000001,-66.478999999999999,14.6358,-59.319200000000002
216478.0,190.977,-126.10899999999999,-142.95500000000001,-101.496,-79.819800000000001,23.070699999999999,-69.4208
216479.0,221.17099999999999,-1516.49,-1555.46,-1501.1400000000001,-92.390699999999995,30.787500000000001,-77.701300000000003
216480.0,213.054,-2956.4400000000001,-3008.1100000000001,-2948.4099999999999,-85.625799999999998,35.914200000000001,-73.888199999999998
216481.0,169.965,-4046.5300000000002,-4086.1100000000001,-4039.6399999999999,-63.681100000000001,34.975099999999998,-61.006300000000003
216482.0,92.472700000000003,-4640.1199999999999,-4620.46,-4627.9700000000003,-29.443899999999999,23.1616,-36.723799999999997
216483.0,79.645499999999998,-4324.2799999999997,-4268.6400000000003,-4307.8599999999997,-18.157599999999999,15.0822,-27.207599999999999
216484.0,97.021100000000004,-3667.5,-3569.5500000000002,-3644.98,-9.9075900000000008,5.1855000000000002,-19.515799999999999
216485.0,138.89400000000001,-2705.3899999999999,-2556.5799999999999,-2674.29,-4.7932199999999998,-7.4878299999999998,-13.7767
216486.0,165.667,-1485.2,-1307.8499999999999,-1450.51,-3.1150799999999998,-15.0296,-8.8285699999999991
216487.0,764.98900000000003,2581.8499999999999,2506.8699999999999,2507.6700000000001,399.77800000000002,76.8202,165.80500000000001
216488.0,480.08699999999999,-1746.28,-1945.47,-1859.4300000000001,231.33699999999999,29.994499999999999,111.491
216489.0,126.821,-6866.21,-6812.8699999999999,-6824.9499999999998,55.1447,-11.042999999999999,37.629899999999999
216490.0,109.008,-3151.1999999999998,-3134.6900000000001,-3124.98,-51.926600000000001,4.2560000000000002,-32.720999999999997
216491.0,109.715,3728.7600000000002,3751.96,3735.4899999999998,-46.683999999999997,19.025700000000001,-36.4499
216492.0,99.660300000000007,3113.9699999999998,3203.3600000000001,3130.6999999999998,-24.558199999999999,6.1833900000000002,-20.268699999999999
216493.0,163.15000000000001,-678.44100000000003,-689.14599999999996,-660.673,-78.727599999999995,16.730399999999999,-46.774099999999997
216494.0,89.670400000000001,-6791.3999999999996,-6732.54,-6747.9399999999996,36.450699999999998,-12.221299999999999,16.442699999999999
216495.0,353.47899999999998,-5051.8900000000003,-5192.79,-5122.3299999999999,168.16200000000001,19.195499999999999,89.660399999999996
216496.0,403.81200000000001,-3441.5799999999999,-3595.4499999999998,-3527.6300000000001,193.678,26.144200000000001,101.062
216497.0,278.827,-6335.5600000000004,-6423.4499999999998,-6374.4300000000003,135.15100000000001,7.19773,75.216999999999999
216498.0,216.00200000000001,-6740.2399999999998,-6774.5900000000001,-6747.1599999999999,105.508,-1.1657999999999999,63.944600000000001
216499.0,162.684,-7035.8400000000001,-7029.3599999999997,-7021.6199999999999,76.376099999999994,-6.2637999999999998,53.840499999999999
216500.0,129.41499999999999,-7112.2399999999998,-7069.9399999999996,-7078.6400000000003,55.9084,-9.4370999999999992,43.230499999999999
216501.0,124.509,6807.3599999999997,6861.0799999999999,6845.8299999999999,52.8977,-10.545400000000001,38.620800000000003
216502.0,119.526,-6817.9700000000003,-6764.04,-6776.6300000000001,53.566899999999997,-11.947699999999999,30.8841
216503.0,69.542500000000004,-6334.7600000000002,-6272.3199999999997,-6290.1400000000003,20.104800000000001,-12.460900000000001,4.2691699999999999
216504.0,56.4026,-5778.0100000000002,-5720.6300000000001,-5735.1800000000003,-0.14641899999999999,-10.275700000000001,-8.0730500000000003
216505.0,58.167499999999997,-5083.0500000000002,-5035.5900000000001,-5044.3000000000002,-13.9505,-7.1005799999999999,-15.6355
216506.0,84.875100000000003,-4194.4399999999996,-4157.6000000000004,-4159.9399999999996,-35.954700000000003,-2.8480099999999999,-25.9817
216507.0,93.054000000000002,3853.2399999999998,3899.54,3888.3000000000002,-38.881399999999999,-1.6727399999999999,-28.0825
216508.0,142.84200000000001,-1956.0699999999999,-1954.72,-1935.6300000000001,-69.903499999999994,10.647600000000001,-40.874099999999999
216509.0,176.702,557.79399999999998,531.35599999999999,569.178,-82.051299999999998,23.3902,-52.457799999999999
216510.0,192.40000000000001,1755.03,1721.22,1758.8599999999999,-87.744699999999995,26.945699999999999,-59.032800000000002
216511.0,180.61199999999999,2827.21,2803.8099999999999,2829.23,-81.932699999999997,26.232500000000002,-57.209000000000003
216512.0,141.941,3502.1500000000001,3500.0300000000002,3505.98,-63.128500000000003,23.226900000000001,-46.711399999999998
216513.0,120.066,-3581.8299999999999,-3587.3400000000001,-3581.2800000000002,-50.045200000000001,25.8249,-40.281799999999997
216514.0,92.623699999999999,3578.75,3631.8099999999999,3589.6799999999998,-33.681100000000001,13.5121,-27.529900000000001
216515.0,130.52000000000001,2354.04,2488.6500000000001,2378.9200000000001,-18.126000000000001,-3.7178300000000002,-14.3546
216516.0,154.934,1316.6600000000001,1478.8900000000001,1344.25,-16.0259,-9.5624500000000001,-10.8895
216517.0,156.98500000000001,194.36600000000001,358.18700000000001,218.96000000000001,-15.8912,-8.7064199999999996,-9.0574999999999992
216518.0,61.409799999999997,58.396599999999999,13.836399999999999,74.963700000000003,-9.3508800000000001,-11.8668,-5.4183500000000002
216519.0,450.81700000000001,2722.8600000000001,2603.5900000000001,2644.2600000000002,227.55799999999999,37.461500000000001,104.31999999999999
216520.0,381.15800000000002,4229.1800000000003,4106.7200000000003,4161.3800000000001,186.464,23.242000000000001,96.720200000000006
216521.0,299.85199999999998,5756.5900000000001,5683.1400000000003,5718.6000000000004,148.738,9.2871699999999997,80.075599999999994
216522.0,231.89099999999999,6523.3299999999999,6500.8000000000002,6515.8500000000004,114.52,-0.0058054200000000004,68.396299999999997
216523.0,183.553,6750.0900000000001,6768.3699999999999,6766.75,88.322400000000002,-6.3128000000000002,57.336199999999998
216524.0,142.464,6988.5100000000002,7037.8900000000003,7021.9799999999996,61.350299999999997,-10.092700000000001,47.583399999999997
216525.0,124.044,6593.1800000000003,6649.8400000000001,6632.25,54.597700000000003,-12.8482,33.793300000000002
216526.0,112.45399999999999,6711.3900000000003,6783.5,6754.1999999999998,45.245100000000001,-15.9945,24.4391
216527.0,88.530000000000001,6526.3100000000004,6602.8299999999999,6571.5200000000004,28.2517,-15.4474,9.7802199999999999
216528.0,76.426199999999994,6018.5,6097.6599999999999,6065.0799999999999,12.0412,-14.705500000000001,-1.6364000000000001
216529.0,65.228499999999997,5472.1199999999999,5539.3800000000001,5514.9899999999998,-4.0356399999999999,-10.691599999999999,-11.3249
216530.0,79.258300000000006,4751.6400000000003,4815.7399999999998,4793.4899999999998,-23.0017,-8.0844799999999992,-20.9816
216531.0,124.065,2810.52,2840.4299999999998,2839.1399999999999,-58.749000000000002,4.8354999999999997,-37.014299999999999
216532.0,148.58600000000001,1608.8499999999999,1617.8199999999999,1629.8399999999999,-72.394099999999995,11.8193,-43.216700000000003
216533.0,161.15299999999999,352.23099999999999,344.21499999999997,366.56299999999999,-76.582400000000007,17.7135,-48.475900000000003
216534.0,181.999,-812.36599999999999,-833.51300000000003,-805.99699999999996,-84.156300000000002,22.889900000000001,-56.8108
216535.0,186.08099999999999,-1998.48,-2032.01,-2000.48,-83.879000000000005,27.581199999999999,-58.240400000000001
216536.0,156.172,-3021.75,-3050.4899999999998,-3025.2600000000002,-67.427999999999997,28.8614,-50.044800000000002
216537.0,92.646600000000007,-3726.5500000000002,-3705.1500000000001,-3721.6399999999999,-36.247199999999999,21.137799999999999,-31.221499999999999
216538.0,82.740499999999997,-3530.1100000000001,-3477.2600000000002,-3519.7399999999998,-26.364699999999999,15.2255,-23.896799999999999
216539.0,95.114999999999995,-3046.8699999999999,-2957.0599999999999,-3029.75,-19.177,7.5761399999999997,-17.801400000000001
216540.0,129.452,-2285.8099999999999,-2150.0900000000001,-2259.5900000000001,-14.7706,-2.4858899999999999,-13.369199999999999
216541.0,154.49100000000001,-1266.25,-1102.7,-1236.3599999999999,-14.003299999999999,-8.3730399999999996,-10.274100000000001
216542.0,787.63199999999995,2593.1700000000001,2500.48,2497.8000000000002,419.99700000000001,74.579099999999997,147.916
216543.0,488.48000000000002,-1588.98,-1790.6300000000001,-1711.4000000000001,239.684,30.1328,104.215
216544.0,133.953,-6605.96,-6548.1099999999997,-6562.8500000000004,53.234699999999997,-10.547800000000001,46.175199999999997
216545.0,110.679,-3180.3699999999999,-3157.7800000000002,-3158.0,-59.000900000000001,3.5628700000000002,-20.520299999999999
216546.0,108.377,3075.1199999999999,3100.9400000000001,3076.5999999999999,-50.7271,16.001799999999999,-29.593699999999998
216547.0,97.002499999999998,2613.8200000000002,2696.5300000000002,2628.6500000000001,-29.517299999999999,6.3650599999999997,-16.738099999999999
216548.0,152.27199999999999,-766.39700000000005,-768.71500000000003,-758.98500000000001,-80.150599999999997,11.725899999999999,-33.786299999999997
216549.0,98.760099999999994,-6518.4499999999998,-6458.0500000000002,-6474.3299999999999,34.851599999999998,-12.1069,30.222899999999999
216550.0,345.39299999999997,-5165.6499999999996,-5307.1499999999996,-5236.5900000000001,165.15299999999999,16.909700000000001,84.840500000000006
216551.0,404.57299999999998,-3665.0500000000002,-3820.1300000000001,-3759.0700000000002,196.732,26.485800000000001,95.145399999999995
216552.0,268.262,-5970.5200000000004,-6055.1300000000001,-6005.1800000000003,129.59899999999999,5.4412900000000004,73.169200000000004
216553.0,204.15799999999999,-6724.04,-6751.6099999999997,-6726.6300000000001,98.064300000000003,-1.42665,63.584000000000003
216554.0,151.273,-6868.46,-6853.0299999999997,-6848.4899999999998,67.895399999999995,-4.92842,53.705100000000002
216555.0,125.631,-6617.3500000000004,-6565.4399999999996,-6578.29,48.408799999999999,-8.7094799999999992,45.944000000000003
216556.0,123.929,6366.8999999999996,6422.21,6407.1700000000001,48.0396,-8.8145500000000006,43.771900000000002
216557.0,131.345,-6675.6099999999997,-6620.2600000000002,-6633.7700000000004,54.428699999999999,-11.123699999999999,42.795400000000001
216558.0,76.079499999999996,-6319.5200000000004,-6255.5500000000002,-6274.3999999999996,17.482099999999999,-12.6128,19.593599999999999
216559.0,57.339300000000001,-5836.3199999999997,-5778.0699999999997,-5794.6800000000003,-3.72377,-10.784800000000001,8.0743399999999994
216560.0,56.488999999999997,-5118.9099999999999,-5070.71,-5083.1700000000001,-19.523199999999999,-7.5240999999999998,-0.38577299999999998
216561.0,86.0458,-4242.5699999999997,-4204.3400000000001,-4213.1099999999997,-43.8003,-3.1569500000000001,-11.7652
216562.0,96.4221,3876.25,3924.6799999999998,3906.3400000000001,-47.740200000000002,-2.4107500000000002,-14.7012
216563.0,136.23699999999999,-1990.4200000000001,-1982.1199999999999,-1976.1099999999999,-72.220299999999995,8.6659600000000001,-29.057600000000001
216564.0,155.47200000000001,335.33699999999999,325.99599999999998,340.13600000000002,-80.212699999999998,16.249400000000001,-36.157299999999999
216565.0,158.18199999999999,1302.52,1285.78,1300.73,-79.440399999999997,19.9816,-39.318300000000001
216566.0,158.43199999999999,2172.8600000000001,2159.7399999999998,2166.8400000000001,-78.624600000000001,20.513100000000001,-41.487499999999997
216567.0,136.25999999999999,2810.5900000000001,2814.46,2807.4899999999998,-66.568100000000001,18.9572,-37.229599999999998
216568.0,114.988,-2915.6599999999999,-2916.1500000000001,-2922.6300000000001,-54.229799999999997,20.719000000000001,-31.970600000000001
216569.0,93.100399999999993,2992.3200000000002,3043.9299999999998,2999.6700000000001,-38.231999999999999,11.9329,-22.4862
216570.0,120.49299999999999,1975.27,2097.0700000000002,1999.73,-23.346399999999999,-1.3039499999999999,-11.901400000000001
216571.0,140.39599999999999,1106.03,1251.9300000000001,1134.23,-21.5107,-6.3519199999999998,-8.8418799999999997
216572.0,141.952,160.04300000000001,306.75400000000002,184.84299999999999,-21.439699999999998,-6.0261100000000001,-7.34537
216573.0,61.792299999999997,61.912300000000002,24.8277,88.368200000000002,-8.7721699999999991,-13.2339,-1.3828400000000001
216574.0,457.98500000000001,2802.48,2684.0900000000001,2712.4200000000001,234.34399999999999,39.097799999999999,98.231300000000005
216575.0,375.56,4571.4399999999996,4452.8000000000002,4500.6999999999998,187.05000000000001,22.52,89.206100000000006
216576.0,288.25900000000001,5554.0799999999999,5484.0699999999997,5519.9899999999998,144.101,7.9210099999999999,75.127200000000002
216577.0,220.75299999999999,6274.0100000000002,6256.9099999999999,6272.29,108.551,-0.58314600000000005,66.118200000000002
216578.0,172.87700000000001,6763.7200000000003,6789.1599999999999,6785.6899999999996,80.286500000000004,-5.9283299999999999,57.3645
216579.0,133.5,6621.46,6678.6000000000004,6659.79,52.559800000000003,-9.0486699999999995,47.416400000000003
216580.0,133.31399999999999,6450.6999999999998,6509.0699999999997,6491.3299999999999,54.698799999999999,-10.716900000000001,43.840000000000003
216581.0,122.852,6480.5,6557.1999999999998,6527.25,45.386299999999999,-14.4009,35.628100000000003
216582.0,96.131500000000003,6341.6199999999999,6421.54,6389.3699999999999,26.430199999999999,-14.530099999999999,23.525400000000001
216583.0,80.9148,6083.5299999999997,6165.75,6130.9799999999996,9.3809799999999992,-14.3726,13.5785
216584.0,66.464399999999998,5529.29,5600.0100000000002,5571.0799999999999,-8.3389500000000005,-11.0016,4.1966599999999996
216585.0,80.256,4780.7700000000004,4848.25,4819.75,-29.814699999999998,-8.4330599999999993,-6.2708300000000001
216586.0,120.54300000000001,2784.8600000000001,2815.6500000000001,2806.8699999999999,-63.072699999999998,3.2624499999999999,-24.5581
216587.0,141.43799999999999,1598.54,1610.95,1611.01,-74.597700000000003,8.0162399999999998,-31.4255
216588.0,148.34800000000001,424.964,422.79700000000003,430.05799999999999,-77.885499999999993,12.4602,-33.172499999999999
216589.0,151.00999999999999,-594.30100000000004,-603.09799999999996,-593.81899999999996,-76.864800000000002,16.687899999999999,-37.2468
216590.0,157.78,-1494.5999999999999,-1509.3800000000001,-1501.76,-78.662800000000004,19.523099999999999,-40.921199999999999
216591.0,144.08500000000001,-2342.7399999999998,-2358.75,-2353.9499999999998,-70.1845,21.506499999999999,-38.265700000000002
216592.0,91.510300000000001,-3099.02,-3075.96,-3100.1100000000001,-41.0349,17.398700000000002,-24.875800000000002
216593.0,82.927999999999997,-2966.5500000000002,-2916.21,-2960.6500000000001,-31.639500000000002,12.9278,-19.1494
216594.0,91.806899999999999,-2562.9499999999998,-2480.6700000000001,-2548.9400000000001,-24.785599999999999,7.1422400000000001,-14.360300000000001
216595.0,119.08,-1923.6199999999999,-1801.6099999999999,-1899.4200000000001,-20.921099999999999,-0.77030799999999999,-10.719200000000001
216596.0,139.80799999999999,-1075.0599999999999,-928.84199999999998,-1046.6700000000001,-20.130400000000002,-5.9177499999999998,-7.9783299999999997
216597.0,806.20100000000002,2603.77,2496.6999999999998,2489.5300000000002,437.65699999999998,70.774100000000004,126.518
216598.0,493.14699999999999,-1812.05,-2019.3699999999999,-1947.3599999999999,247.86600000000001,25.409500000000001,88.888999999999996
216599.0,130.05199999999999,-6098.2399999999998,-6036.7600000000002,-6055.3999999999996,48.257100000000001,-9.3751499999999997,47.192900000000002
216600.0,112.21599999999999,-2743.8000000000002,-2712.9099999999999,-2724.71,-62.740900000000003,1.13391,-4.1016300000000001
216601.0,106.187,2659.21,2687.9699999999998,2657.1399999999999,-52.700200000000002,12.2494,-23.114000000000001
216602.0,94.631799999999998,2266.5999999999999,2344.7800000000002,2279.8299999999999,-31.957100000000001,5.0399500000000002,-13.7029
216603.0,139.31899999999999,-714.38499999999999,-711.71799999999996,-714.37599999999998,-77.077200000000005,8.9184199999999993,-21.145600000000002
216604.0,100.91200000000001,-6161.5799999999999,-6098.8900000000003,-6117.8400000000001,26.206800000000001,-11.19,39.350900000000003
216605.0,332.67599999999999,-4971.0900000000001,-5108.0699999999997,-5041.5,160.73400000000001,15.771599999999999,78.198999999999998
216606.0,399.58300000000003,-3523.1399999999999,-3679.46,-3623.04,198.04900000000001,24.358699999999999,84.490300000000005
216607.0,253.11000000000001,-6070.0100000000002,-6145.1199999999999,-6102.2200000000003,123.05200000000001,5.4222099999999998,69.020899999999997
216608.0,188.708,-6295.6800000000003,-6311.3000000000002,-6295.3299999999999,89.970399999999998,-0.35416700000000001,60.764200000000002
216609.0,139.87,-6401.5500000000002,-6375.6899999999996,-6377.7700000000004,60.171500000000002,-3.9912800000000002,51.752000000000002
216610.0,120.078,-6344.29,-6285.75,-6303.6499999999996,42.180199999999999,-8.4375699999999991,45.345199999999998
216611.0,119.952,6030.75,6090.3500000000004,6071.3500000000004,43.463799999999999,-7.1581799999999998,43.922199999999997
216612.0,128.42699999999999,-6124.4799999999996,-6066.4200000000001,-6082.5699999999997,47.881599999999999,-9.6903900000000007,47.047199999999997
216613.0,84.261399999999995,-5773.9300000000003,-5708.5200000000004,-5730.2700000000004,7.8671600000000002,-11.862500000000001,32.469999999999999
216614.0,72.641199999999998,-5288.21,-5228.8999999999996,-5249.4200000000001,-13.868499999999999,-10.2379,23.551400000000001
216615.0,74.929699999999997,-4639.8500000000004,-4589.1300000000001,-4607.0900000000001,-30.190799999999999,-6.8734900000000003,15.8552
216616.0,98.080399999999997,-3764.46,-3722.3299999999999,-3738.3499999999999,-52.180100000000003,-3.00203,4.7598399999999996
216617.0,104.889,3398.0,3447.4699999999998,3421.8800000000001,-55.125399999999999,-3.69489,1.60558
216618.0,121.879,-1729.52,-1712.5799999999999,-1718.9000000000001,-68.493700000000004,5.2653999999999996,-12.613099999999999
216619.0,150.50299999999999,352.75400000000002,352.697,349.43000000000001,-81.804100000000005,11.320499999999999,-26.9573
216620.0,140.32900000000001,1231.76,1228.8,1226.9300000000001,-74.630099999999999,13.866099999999999,-28.216999999999999
216621.0,137.31299999999999,1906.4200000000001,1904.1500000000001,1898.76,-71.908100000000005,14.989599999999999,-29.563199999999998
216622.0,127.762,2422.9000000000001,2432.8000000000002,2416.1900000000001,-66.191599999999994,14.148300000000001,-28.101400000000002
216623.0,109.496,-2520.5100000000002,-2514.98,-2531.5,-55.9373,14.8507,-24.004999999999999
216624.0,92.606800000000007,2589.8499999999999,2641.3099999999999,2594.5100000000002,-40.463200000000001,9.2774000000000001,-18.033200000000001
216625.0,112.014,1714.3099999999999,1825.4100000000001,1738.28,-25.8629,-0.949604,-9.7035499999999999
216626.0,126.66,956.29100000000005,1086.75,985.03099999999995,-23.964400000000001,-4.9635400000000001,-7.0775399999999999
216627.0,126.73699999999999,137.292,267.39400000000001,163.61099999999999,-23.802700000000002,-4.9888700000000004,-5.5591799999999996
216628.0,62.077100000000002,63.7376,33.101900000000001,98.748599999999996,-7.9035500000000001,-11.5875,2.9702099999999998
216629.0,458.86799999999999,2898.4099999999999,2777.8499999999999,2797.73,239.53399999999999,36.323700000000002,85.517300000000006
216630.0,365.709,4299.2799999999997,4184.7299999999996,4228.1499999999996,185.34200000000001,21.154399999999999,80.232699999999994
216631.0,273.42500000000001,5570.7200000000003,5508.7700000000004,5539.2600000000002,137.60300000000001,7.6057100000000002,70.485799999999998
216632.0,205.94999999999999,6153.1800000000003,6146.1899999999996,6154.8299999999999,100.746,-0.20524800000000001,62.989199999999997
216633.0,159.904,6200.6700000000001,6236.3599999999997,6226.4399999999996,71.630399999999995,-4.5843800000000003,55.0627
216634.0,125.685,6285.1899999999996,6348.7799999999997,6326.3000000000002,45.725700000000003,-7.8988899999999997,45.524900000000002
216635.0,130.05699999999999,5875.6700000000001,5938.5500000000002,5917.6400000000003,49.573500000000003,-8.3697099999999995,45.664900000000003
216636.0,121.758,6069.46,6149.7299999999996,6118.3299999999999,37.995800000000003,-12.0473,41.429900000000004
216637.0,100.167,5931.5,6013.5,5979.9899999999998,17.6494,-12.729799999999999,34.227200000000003
216638.0,89.505200000000002,5496.5699999999997,5579.9399999999996,5543.3699999999999,-0.172657,-12.9618,27.496400000000001
216639.0,80.962599999999995,5012.6700000000001,5085.0299999999997,5052.21,-19.0274,-10.250999999999999,20.125
216640.0,93.565100000000001,4313.4399999999996,4381.4899999999998,4348.25,-39.748199999999997,-8.1148199999999999,10.6915
216641.0,112.608,2378.3600000000001,2411.6100000000001,2393.1700000000001,-62.481400000000001,0.164217,-6.7334899999999998
216642.0,126.71899999999999,1420.5999999999999,1441.54,1427.46,-70.480400000000003,3.6936599999999999,-16.049199999999999
216643.0,144.875,406.33699999999999,412.75,404.654,-79.726100000000002,8.0291800000000002,-23.6068
216644.0,138.97499999999999,-643.399,-647.95799999999997,-649.64499999999998,-74.822900000000004,11.939299999999999,-26.201499999999999
216645.0,135.81399999999999,-1420.45,-1424.71,-1428.21,-71.606499999999997,13.563700000000001,-28.668500000000002
216646.0,130.709,-2040.4200000000001,-2044.04,-2052.0700000000002,-68.157700000000006,14.719099999999999,-28.235299999999999
216647.0,89.6524,-2688.6999999999998,-2663.48,-2693.6199999999999,-43.316899999999997,12.9838,-19.310300000000002
216648.0,82.1738,-2578.4000000000001,-2529.21,-2575.3499999999999,-34.201599999999999,9.6238799999999998,-15.1258
216649.0,88.249499999999998,-2236.5999999999999,-2160.1500000000001,-2224.3400000000001,-27.4878,5.1040999999999999,-11.3306
216650.0,109.61799999999999,-1678.8499999999999,-1568.6600000000001,-1655.3900000000001,-23.8033,-1.07663,-8.2920599999999993
216651.0,125.508,-930.54899999999998,-800.64599999999996,-902.05700000000002,-23.002600000000001,-5.1000500000000004,-5.8203199999999997
216652.0,90.972499999999997,-47.1053,-15.880000000000001,-53.771599999999999,-46.939599999999999,2.6857600000000001,-11.7864
216653.0,97.412000000000006,-15.7981,-37.7239,-41.8416,-52.112299999999998,6.9096399999999996,-14.2691
216654.0,93.2273,-12.277900000000001,-76.151899999999998,-44.1327,-38.304699999999997,13.5222,-15.067600000000001
216655.0,83.370900000000006,19.727699999999999,-45.754899999999999,-4.1659600000000001,-29.977900000000002,13.258800000000001,-12.0144
216656.0,104.29000000000001,-19.238199999999999,-49.997900000000001,-51.005899999999997,-54.592799999999997,7.7796099999999999,-16.077500000000001
216657.0,91.683899999999994,-14.4741,-4.6912500000000001,-28.6098,-49.775199999999998,4.9653600000000004,-12.456
216658.0,98.668700000000001,-138.928,-94.616200000000006,-141.553,-49.062399999999997,3.15218,-11.5124
216659.0,127.36799999999999,-4.1991300000000003,15.0654,-17.142499999999998,-69.311599999999999,5.1722099999999998,-17.7196
216660.0,82.465100000000007,-21.3231,-10.470700000000001,-33.133099999999999,-44.780999999999999,4.3193999999999999,-10.694100000000001
216661.0,81.406800000000004,-11.339,-8.9053400000000007,-25.617799999999999,-44.635899999999999,5.1014400000000002,-10.4458
216662.0,81.947100000000006,-12.452199999999999,-13.4831,-27.545300000000001,-45.020000000000003,5.1680900000000003,-10.6693
216663.0,85.608000000000004,-12.273,-19.891500000000001,-30.124700000000001,-46.8658,5.7191099999999997,-11.556900000000001
216664.0,90.833299999999994,-13.2181,-27.058499999999999,-34.448900000000002,-49.307400000000001,6.2646100000000002,-12.791
216665.0,110.742,-19.571000000000002,-59.790999999999997,-57.539999999999999,-56.256900000000002,9.5283099999999994,-17.931699999999999
216666.0,115.52200000000001,-17.9452,-67.227400000000003,-61.577300000000001,-56.676900000000003,11.6303,-19.326599999999999
216667.0,116.31699999999999,-19.9025,-76.401300000000006,-67.208399999999997,-55.334299999999999,12.687099999999999,-19.1831
216668.0,112.532,-23.905200000000001,-87.632999999999996,-71.035200000000003,-51.246000000000002,13.6036,-17.802099999999999
216669.0,105.572,-18.365100000000002,-84.634399999999999,-59.290300000000002,-45.916400000000003,14.2788,-16.875499999999999
216670.0,74.129199999999997,57.532800000000002,0.22850999999999999,47.356900000000003,-26.075800000000001,11.595000000000001,-9.0875699999999995
216671.0,59.603400000000001,54.943100000000001,10.7194,60.375500000000002,-19.382999999999999,6.6607700000000003,-4.7217799999999999
216672.0,56.4011,66.316500000000005,24.601800000000001,81.604200000000006,-13.743,0.85833499999999996,-0.48906699999999997
216673.0,58.102899999999998,68.612799999999993,32.743899999999996,94.106399999999994,-12.2074,-4.2539400000000001,2.8082699999999998
216674.0,59.795400000000001,63.710500000000003,32.860799999999998,95.819599999999994,-10.966699999999999,-8.0277700000000003,4.0038999999999998
216675.0,82.348500000000001,-38.576599999999999,-13.590999999999999,-41.017099999999999,-44.031500000000001,-1.34392,-9.4574999999999996
216676.0,90.616900000000001,-10.029299999999999,-31.077000000000002,-27.037299999999998,-50.191099999999999,5.1026899999999999,-8.1969899999999996
216677.0,104.483,-36.010800000000003,-107.98099999999999,-84.045299999999997,-44.399900000000002,12.2455,-13.199999999999999
216678.0,98.492099999999994,-23.448399999999999,-97.368600000000001,-63.648400000000002,-38.912500000000001,12.9617,-13.484500000000001
216679.0,97.768500000000003,-10.698499999999999,-39.746099999999998,-33.482100000000003,-53.2502,6.6777899999999999,-8.5072899999999994
216680.0,82.834800000000001,-11.446099999999999,-3.2738800000000001,-19.720099999999999,-46.103000000000002,0.29952499999999999,-9.6955600000000004
216681.0,87.8626,-105.247,-67.939999999999998,-104.131,-45.344700000000003,-0.80188700000000002,-8.1248299999999993
216682.0,109.129,-6.2067899999999998,11.2713,-13.6387,-60.492899999999999,-0.156916,-12.114100000000001
216683.0,75.614699999999999,-15.6698,-7.5860900000000004,-21.7349,-42.218899999999998,0.53092099999999998,-8.52989
216684.0,74.447400000000002,-9.8480399999999992,-8.8139000000000003,-16.934100000000001,-41.961799999999997,1.5337400000000001,-8.0489300000000004
216685.0,74.958699999999993,-11.034800000000001,-13.353,-18.231100000000001,-42.397100000000002,2.13232,-7.5750999999999999
216686.0,78.535200000000003,-8.5164899999999992,-16.534199999999998,-17.93,-44.331699999999998,2.9367399999999999,-7.4961799999999998
216687.0,83.780799999999999,-10.2265,-23.949999999999999,-22.597899999999999,-46.991100000000003,3.79338,-7.74465
216688.0,104.497,-13.441800000000001,-51.675600000000003,-42.934600000000003,-55.636699999999998,8.1212900000000001,-8.7809799999999996
216689.0,109.28100000000001,-19.222999999999999,-66.6126,-55.618899999999996,-56.504399999999997,9.3836999999999993,-9.2068300000000001
216690.0,112.565,-20.5015,-76.707099999999997,-63.738599999999998,-55.989699999999999,11.0983,-9.9746500000000005
216691.0,112.26000000000001,-21.3124,-83.702100000000002,-69.737200000000001,-53.405700000000003,12.212,-11.286300000000001
216692.0,110.712,-26.232299999999999,-94.604299999999995,-77.223699999999994,-50.099699999999999,12.258599999999999,-12.753399999999999
216693.0,95.8048,-33.551000000000002,-107.64400000000001,-63.138599999999997,-36.256300000000003,13.234400000000001,-13.3742
216694.0,76.686499999999995,-20.709399999999999,-84.615799999999993,-35.354599999999998,-25.142399999999999,10.9451,-9.3528900000000004
216695.0,70.842399999999998,16.366199999999999,-47.752200000000002,10.94,-17.777200000000001,8.0088500000000007,-5.3364000000000003
216696.0,65.802999999999997,65.641000000000005,9.0037400000000005,72.843599999999995,-14.467599999999999,3.3155999999999999,-0.71346900000000002
216697.0,59.412700000000001,67.967100000000002,28.729700000000001,91.450400000000002,-12.5555,-2.6783899999999998,2.7670499999999998
216698.0,77.048500000000004,-26.154900000000001,-7.2110500000000002,-25.735900000000001,-42.1312,-4.1718599999999997,-8.3277400000000004
216699.0,91.015799999999999,-12.362399999999999,-34.055100000000003,-24.2257,-51.0456,5.1054399999999998,-3.4041999999999999
216700.0,81.056700000000006,-4.8177899999999996,-63.557499999999997,-36.337800000000001,-36.250900000000001,-2.9220899999999999,-1.8067
216701.0,82.811300000000003,-0.46222600000000003,-64.772499999999994,-33.586199999999998,-34.652200000000001,-5.1352500000000001,-4.9489999999999998
216702.0,97.411699999999996,-15.1859,-44.988199999999999,-30.933599999999998,-53.7928,6.5262599999999997,-2.1130499999999999
216703.0,77.516000000000005,-15.3413,-5.93093,-18.102399999999999,-43.415199999999999,-2.7118899999999999,-8.3638100000000009
216704.0,75.5608,-59.414499999999997,-29.135400000000001,-53.082099999999997,-40.035800000000002,-3.9181699999999999,-5.4649799999999997
216705.0,88.397900000000007,-18.113700000000001,0.29683999999999999,-18.283799999999999,-49.106299999999997,-4.36463,-7.7599999999999998
216706.0,73.703900000000004,-14.253399999999999,-8.0861199999999993,-16.959199999999999,-41.6038,-1.4448000000000001,-7.5570700000000004
216707.0,73.645799999999994,-7.9341299999999997,-7.1905000000000001,-12.0754,-41.9377,-0.238263,-6.4920900000000001
216708.0,75.008799999999994,-7.38978,-10.5602,-12.3062,-42.845500000000001,0.950237,-5.7088700000000001
216709.0,78.873800000000003,-8.9520999999999997,-17.540199999999999,-15.43,-44.966799999999999,2.2869100000000002,-5.1399499999999998
216710.0,84.330500000000001,-9.8566099999999999,-24.276,-18.533999999999999,-47.803600000000003,3.6760799999999998,-4.3760199999999996
216711.0,101.89700000000001,-14.268000000000001,-52.963099999999997,-35.213900000000002,-54.988300000000002,7.8733700000000004,-0.37123800000000001
216712.0,101.55800000000001,-11.4777,-56.935699999999997,-37.208599999999997,-53.388800000000003,8.1580100000000009,1.22875
216713.0,96.240200000000002,-8.4800799999999992,-59.510100000000001,-37.262599999999999,-48.841900000000003,6.6255899999999999,1.83969
216714.0,89.082999999999998,-11.009399999999999,-67.523399999999995,-41.590800000000002,-42.7727,3.6191499999999999,1.5501100000000001
216715.0,85.891499999999994,4.0604800000000001,-54.355899999999998,-27.1996,-40.0563,0.037674300000000001,0.29691499999999998
216716.0,93.756699999999995,-19.597300000000001,-96.115200000000002,-54.813200000000002,-37.045299999999997,-5.3580399999999999,-7.8875200000000003
216717.0,87.034599999999998,-26.895,-101.964,-53.741300000000003,-31.928000000000001,-2.9994700000000001,-7.0497500000000004
216718.0,81.184600000000003,-26.875699999999998,-102.777,-44.443300000000001,-24.286999999999999,1.15072,-5.2007899999999996
216719.0,76.665700000000001,37.393500000000003,-37.768799999999999,29.695,-15.343,2.7168199999999998,-2.5344099999999998
216720.0,68.110799999999998,75.363100000000003,16.9758,84.553200000000004,-14.2423,-0.29707699999999998,0.228601
216721.0,74.723200000000006,-16.736899999999999,-3.8165900000000001,-14.5665,-41.561599999999999,-6.1688700000000001,-6.9210700000000003
216722.0,98.465500000000006,-13.395200000000001,-38.337200000000003,-28.900500000000001,-55.177399999999999,5.35168,0.19306599999999999
216723.0,49.058300000000003,77.208100000000002,47.158099999999997,81.031000000000006,-19.7364,-6.3658900000000003,5.2940800000000001
216724.0,54.448599999999999,83.0291,45.413699999999999,81.984300000000005,-21.767900000000001,-7.36069,1.1375299999999999
216725.0,103.309,-14.235200000000001,-47.333300000000001,-31.6205,-56.878999999999998,6.6752099999999999,1.9195899999999999
216726.0,75.758499999999998,-18.814900000000002,-7.6491100000000003,-17.775200000000002,-42.578600000000002,-5.2196600000000002,-5.9065500000000002
216727.0,63.769199999999998,-3.4548299999999998,20.5763,8.3275400000000008,-34.144300000000001,-5.8853099999999996,-3.2618999999999998
216728.0,68.323499999999996,-31.974299999999999,-10.0738,-24.048500000000001,-37.001800000000003,-6.7527600000000003,-4.28355
216729.0,76.337199999999996,-13.3752,-7.8325699999999996,-15.3756,-43.480600000000003,-3.0735199999999998,-5.2125700000000004
216730.0,76.871099999999998,-15.3276,-13.553900000000001,-19.4146,-44.040799999999997,-0.82765699999999998,-4.5175000000000001
216731.0,80.225300000000004,-13.652200000000001,-17.9452,-20.898,-46.009900000000002,0.97872300000000001,-3.77081
216732.0,85.541399999999996,-11.9481,-21.765599999999999,-21.837900000000001,-48.933300000000003,2.3915199999999999,-2.5619299999999998
216733.0,91.7898,-12.9253,-29.683499999999999,-25.595400000000001,-52.109099999999998,3.88191,-1.29467
216734.0,103.246,-15.353899999999999,-57.715899999999998,-33.173499999999997,-55.028300000000002,7.5632400000000004,3.9391699999999998
216735.0,94.738799999999998,-20.6557,-63.377099999999999,-33.226700000000001,-49.166400000000003,7.5967099999999999,5.8939599999999999
216736.0,77.146699999999996,-12.211,-57.809199999999997,-21.8063,-36.235999999999997,5.8481199999999998,7.6620900000000001
216737.0,68.465199999999996,50.334200000000003,-0.84862300000000002,40.924900000000001,-27.132999999999999,1.2315199999999999,9.0869199999999992
216738.0,57.825000000000003,89.916899999999998,52.914000000000001,89.591999999999999,-23.9709,-3.90591,8.5018600000000006
216739.0,73.909099999999995,77.228499999999997,19.897300000000001,64.503100000000003,-29.0824,-7.6861100000000002,-3.0944099999999999
216740.0,89.891499999999994,55.335099999999997,-14.6472,36.313600000000001,-36.324300000000001,-6.4204600000000003,-4.8395000000000001
216741.0,86.026300000000006,-14.0207,-86.207899999999995,-30.0486,-31.719799999999999,-2.3747699999999998,-4.2541000000000002
216742.0,82.256200000000007,2.4298199999999999,-79.366,-9.8963999999999999,-17.2926,1.7119599999999999,-2.9399999999999999
216743.0,82.778199999999998,69.004599999999996,-9.86219,68.177700000000002,-15.045500000000001,2.1425399999999999,-1.1435299999999999
216744.0,75.988200000000006,-7.2518900000000004,0.97574300000000003,-5.8831499999999997,-43.073300000000003,-5.43438,-4.52332
216745.0,108.85299999999999,-23.165500000000002,-52.256999999999998,-48.032800000000002,-60.528599999999997,5.3622399999999999,3.1830799999999999
216746.0,46.9148,92.688999999999993,87.732100000000003,134.99199999999999,-4.7420900000000001,3.95363,4.57829
216747.0,50.014400000000002,86.1965,75.7423,125.753,-10.6153,3.42841,3.6779099999999998
216748.0,111.217,-24.1098,-62.575200000000002,-49.818300000000001,-60.654299999999999,6.0439699999999998,4.8744399999999999
216749.0,79.437700000000007,-14.992699999999999,-1.1192899999999999,-15.255800000000001,-44.840299999999999,-4.4093499999999999,-2.82104
216750.0,57.596899999999998,40.694099999999999,62.747700000000002,59.5871,-30.235499999999998,-6.3014900000000003,-3.11239
216751.0,54.421999999999997,-52.881900000000002,-25.981300000000001,-36.941400000000002,-27.665500000000002,-5.4408099999999999,-3.0485199999999999
216752.0,85.031499999999994,-4.5187600000000003,1.98916,-11.7652,-48.501600000000003,-2.49735,-2.0340500000000001
216753.0,85.605000000000004,-18.118500000000001,-15.1906,-29.164999999999999,-48.8583,-0.70707500000000001,-0.88978699999999999
216754.0,91.053100000000001,-15.100300000000001,-21.164899999999999,-31.622299999999999,-51.890300000000003,1.00071,-0.31355699999999997
216755.0,96.851900000000001,-19.954999999999998,-31.732199999999999,-39.319299999999998,-54.991900000000001,2.6639900000000001,0.58868699999999996
216756.0,103.193,-20.5959,-40.935299999999998,-43.335700000000003,-58.078000000000003,4.1624999999999996,1.7749600000000001
216757.0,105.69,-19.749300000000002,-65.775800000000004,-43.709600000000002,-55.849200000000003,5.9349800000000004,6.2595599999999996
216758.0,88.244299999999996,-13.6401,-57.910400000000003,-28.345600000000001,-44.872300000000003,4.3504899999999997,7.4077200000000003
216759.0,65.526399999999995,5.3907400000000001,-38.949199999999998,2.3161499999999999,-27.142499999999998,3.73935,8.2149199999999993
216760.0,55.487900000000003,72.884799999999998,33.295999999999999,84.144800000000004,-15.331200000000001,5.2637400000000003,7.0903299999999998
216761.0,46.179200000000002,101.756,88.125100000000003,134.852,-8.7581500000000005,5.2705000000000002,5.3801600000000001
216762.0,58.785800000000002,72.248800000000003,43.1753,97.5608,-19.813099999999999,4.2719100000000001,0.70178700000000005
216763.0,82.294499999999999,49.129100000000001,-6.7602599999999997,54.833500000000001,-32.802100000000003,3.8526099999999999,-2.88354
216764.0,88.189400000000006,-16.218599999999999,-85.394099999999995,-20.4269,-32.844000000000001,2.12588,-2.2925300000000002
216765.0,86.924499999999995,-23.1004,-104.605,-33.281700000000001,-23.244499999999999,2.3458899999999998,0.71616100000000005
216766.0,88.923100000000005,42.684600000000003,-47.250399999999999,31.883099999999999,-14.5038,3.4492600000000002,1.52694
216767.0,81.112499999999997,-8.2990399999999998,1.5798300000000001,-11.7979,-46.203400000000002,-3.1606299999999998,0.45097900000000002
216768.0,117.771,-24.6113,-58.012300000000003,-64.128900000000002,-64.032899999999998,1.3248,8.3033400000000004
216769.0,50.0533,82.8095,81.447599999999994,129.65799999999999,-1.19007,4.99709,7.4325900000000003
216770.0,54.437800000000003,64.830299999999994,60.046300000000002,112.51300000000001,-7.0508800000000003,4.9617899999999997,8.4813600000000005
216771.0,115.52500000000001,-23.374700000000001,-66.184799999999996,-61.819600000000001,-61.909700000000001,1.55219,7.6500899999999996
216772.0,88.372500000000002,-27.172000000000001,-11.473800000000001,-33.783900000000003,-49.692100000000003,-1.52373,0.53601299999999996
216773.0,61.498899999999999,72.4529,97.891900000000007,89.535600000000002,-32.160699999999999,-7.6314500000000001,0.15748200000000001
216774.0,57.8369,-53.595500000000001,-21.604299999999999,-39.270600000000002,-28.916399999999999,-4.60372,0.94524600000000003
216775.0,95.823300000000003,-17.3004,-10.919,-32.759300000000003,-54.148899999999998,-0.44518999999999997,1.5107699999999999
216776.0,97.935000000000002,-31.622399999999999,-29.869199999999999,-52.561100000000003,-55.0139,0.86757700000000004,3.2254499999999999
216777.0,104.089,-25.406099999999999,-33.807600000000001,-53.759900000000002,-58.042700000000004,1.542,5.2970899999999999
216778.0,109.7,-25.623000000000001,-40.665599999999998,-58.871099999999998,-60.659999999999997,1.6327799999999999,7.2035900000000002
216779.0,114.988,-23.540800000000001,-48.1663,-61.421500000000002,-63.006500000000003,1.4926699999999999,8.1132799999999996
216780.0,103.95699999999999,-27.520199999999999,-73.058099999999996,-58.819600000000001,-54.906500000000001,2.7531699999999999,6.1154000000000002
216781.0,81.131799999999998,-23.644300000000001,-69.553200000000004,-44.754100000000001,-40.325899999999997,4.2980400000000003,4.6294000000000004
216782.0,59.737699999999997,23.551600000000001,-20.744800000000001,16.2166,-24.211500000000001,4.6992799999999999,4.1910100000000003
216783.0,46.3812,69.505899999999997,38.694800000000001,83.985600000000005,-11.797599999999999,4.25624,4.9731699999999996
216784.0,44.876800000000003,78.633600000000001,69.9221,116.002,-3.3528899999999999,4.3552400000000002,6.4678699999999996
216785.0,60.061,31.6374,15.609299999999999,73.655500000000004,-14.5105,4.0556700000000001,8.7640100000000007
216786.0,74.615399999999994,0.24271400000000001,-46.070999999999998,23.0137,-23.758299999999998,1.16279,7.1168100000000001
216787.0,87.328699999999998,8.5703899999999997,-62.231099999999998,12.4512,-27.1082,-1.42422,6.1363899999999996
216788.0,89.656499999999994,-21.7742,-95.528599999999997,-23.464200000000002,-29.546500000000002,-0.22027099999999999,5.80905
216789.0,84.263499999999993,-14.9336,-97.157300000000006,-19.933,-13.9696,5.7402699999999998,3.71326
216790.0,93.058700000000002,-31.548400000000001,-15.0344,-45.383200000000002,-51.093800000000002,-1.5508599999999999,6.5419200000000002
216791.0,110.26000000000001,-36.945999999999998,-70.185199999999995,-76.942099999999996,-59.0428,-0.802176,10.361599999999999
216792.0,45.605800000000002,78.982900000000001,68.975300000000004,111.77500000000001,-7.3892300000000004,9.2273999999999994,7.2336799999999997
216793.0,51.345799999999997,53.637900000000002,40.881,88.686599999999999,-8.4061199999999996,8.9116700000000009,10.7685
216794.0,101.78,-34.848999999999997,-75.032499999999999,-70.284599999999998,-53.832999999999998,-2.0801599999999998,8.2811199999999996
216795.0,103.26600000000001,-42.737299999999998,-28.314299999999999,-61.311900000000001,-56.653399999999998,-1.0011099999999999,8.3875200000000003
216796.0,75.158500000000004,45.785899999999998,76.229600000000005,46.604999999999997,-39.639899999999997,-3.24858,-0.45680199999999999
216797.0,82.259200000000007,-27.050000000000001,7.0694600000000003,-29.5001,-42.7393,-1.8590899999999999,2.7405499999999998
216798.0,107.867,-33.829900000000002,-30.2592,-61.490699999999997,-58.933399999999999,-1.50013,10.5283
216799.0,111.04900000000001,-30.061599999999999,-32.815199999999997,-63.226500000000001,-60.090800000000002,-1.9739,12.5342
216800.0,112.748,-29.452500000000001,-38.9876,-67.212999999999994,-60.621299999999998,-1.3158099999999999,13.234
216801.0,113.09999999999999,-34.862299999999998,-52.384099999999997,-75.888199999999998,-60.741300000000003,-0.40024599999999999,12.2666
216802.0,113.569,-35.573300000000003,-62.011400000000002,-77.671400000000006,-60.972299999999997,-0.35481600000000002,11.3498
216803.0,87.802099999999996,-27.5867,-70.472999999999999,-53.111800000000002,-45.223199999999999,-4.0229400000000002,6.5610400000000002
216804.0,69.115499999999997,-14.229799999999999,-54.8489,-26.1417,-33.369599999999998,-3.6576300000000002,5.4242699999999999
216805.0,50.9893,11.984400000000001,-23.665900000000001,12.116899999999999,-20.731400000000001,0.0850495,3.4073199999999999
216806.0,40.035699999999999,56.472499999999997,30.461500000000001,67.484200000000001,-12.2501,4.3692900000000003,1.9261699999999999
216807.0,38.194499999999998,78.239800000000002,62.341299999999997,101.071,-6.3164300000000004,7.4862099999999998,3.3646400000000001
216808.0,56.999200000000002,64.767499999999998,39.437100000000001,94.837500000000006,-10.305099999999999,4.5814500000000002,13.660500000000001
216809.0,70.0655,58.631399999999999,15.6212,79.834100000000007,-18.284300000000002,0.40405000000000002,15.213800000000001
216810.0,77.888900000000007,62.361699999999999,3.3006500000000001,75.325199999999995,-19.919599999999999,-0.48660799999999998,12.297800000000001
216811.0,81.258899999999997,10.947800000000001,-45.788400000000003,27.5687,-25.306899999999999,-3.1519499999999998,8.4385999999999992
216812.0,77.899199999999993,-26.917999999999999,-90.058400000000006,-8.4977,-12.3873,-2.8090799999999998,5.6332300000000002
216813.0,107.455,-47.527000000000001,-27.354800000000001,-73.165400000000005,-55.868400000000001,-3.48393,13.722300000000001
216814.0,80.793899999999994,-27.068000000000001,-52.959899999999998,-42.2697,-41.953600000000002,-7.7447100000000004,13.656599999999999
216815.0,49.923999999999999,58.6449,38.914900000000003,85.854399999999998,-12.6571,8.2952899999999996,6.8041799999999997
216816.0,53.974400000000003,22.465800000000002,1.32887,51.651400000000002,-10.7386,10.9023,9.9202999999999992
216817.0,71.919200000000004,-13.287699999999999,-43.838900000000002,-23.665500000000002,-35.991300000000003,-8.6629500000000004,10.600199999999999
216818.0,117.893,-48.1145,-36.240000000000002,-78.459800000000001,-62.210500000000003,-3.9874499999999999,16.5167
216819.0,90.744399999999999,-44.047600000000003,-10.288,-55.527299999999997,-46.384799999999998,-3.3975599999999999,5.3608399999999996
216820.0,110.081,-49.7483,-21.3261,-68.3215,-58.170900000000003,-3.3565200000000002,9.1619700000000002
216821.0,114.238,-43.893000000000001,-42.650399999999998,-79.298500000000004,-60.0914,-3.1046200000000002,17.218900000000001
216822.0,111.56,-31.367599999999999,-37.669800000000002,-68.833699999999993,-58.811500000000002,-2.64873,16.741499999999998
216823.0,102.64,-34.4604,-45.861499999999999,-68.578100000000006,-54.213500000000003,-3.37513,16.109100000000002
216824.0,95.305700000000002,-34.1648,-54.020400000000002,-63.325099999999999,-50.161499999999997,-5.41655,16.1355
216825.0,89.9649,-26.429400000000001,-49.679600000000001,-48.3551,-47.214500000000001,-6.8712900000000001,15.8416
216826.0,63.242199999999997,20.604700000000001,-13.516400000000001,13.8673,-29.545999999999999,-8.7332900000000002,7.5742599999999998
216827.0,54.597900000000003,57.106299999999997,26.547899999999998,57.389000000000003,-24.367000000000001,-7.5511900000000001,5.3564600000000002
216828.0,42.915599999999998,53.832599999999999,32.601900000000001,65.636200000000002,-17.478899999999999,-3.6382400000000001,3.86585
216829.0,39.697800000000001,39.5563,22.4496,60.454999999999998,-12.293100000000001,1.9364300000000001,2.8521800000000002
216830.0,43.157899999999998,39.145699999999998,18.038699999999999,62.606999999999999,-8.7229799999999997,6.1086600000000004,3.2275900000000002
216831.0,61.022599999999997,62.348599999999998,28.235700000000001,87.735100000000003,-7.5760800000000001,12.8453,11.289999999999999
216832.0,68.179900000000004,73.673299999999998,35.491599999999998,100.991,-13.645099999999999,11.467499999999999,12.224399999999999
216833.0,67.5488,70.236199999999997,31.482500000000002,101.429,-11.441800000000001,7.8769099999999996,10.0044
216834.0,68.391300000000001,56.705300000000001,17.609999999999999,90.155199999999994,-13.458,2.46719,7.3184500000000003
216835.0,71.170400000000001,59.627899999999997,11.0664,89.666499999999999,-9.6022400000000001,-1.5523,4.5510200000000003
216836.0,112.605,-65.668599999999998,-43.429900000000004,-91.933000000000007,-56.244900000000001,-7.2208500000000004,20.529800000000002
216837.0,49.930399999999999,47.409999999999997,31.9696,53.899099999999997,-23.949400000000001,-6.6143200000000002,9.3161699999999996
216838.0,53.835500000000003,48.810200000000002,21.7331,72.353700000000003,-14.424200000000001,7.01485,8.1956299999999995
216839.0,58.750399999999999,29.196400000000001,-1.91096,54.232799999999997,-13.729900000000001,7.9350399999999999,10.3904
216840.0,45.6218,61.596499999999999,43.433500000000002,72.764700000000005,-20.433599999999998,-4.5491799999999998,6.0331000000000001
216841.0,116.837,-48.532699999999998,-40.245199999999997,-78.102900000000005,-60.306399999999996,-7.6869300000000003,21.408100000000001
216842.0,106.14100000000001,-101.328,-62.964799999999997,-120.392,-49.812399999999997,-10.363200000000001,17.638300000000001
216843.0,131.917,-49.043399999999998,-26.769100000000002,-75.490300000000005,-68.109200000000001,-11.1929,21.015799999999999
216844.0,102.018,-45.532600000000002,-46.556100000000001,-72.508799999999994,-52.710299999999997,-7.5610099999999996,19.999099999999999
216845.0,90.6721,-31.983499999999999,-40.728299999999997,-51.991999999999997,-47.283799999999999,-7.8011299999999997,18.526900000000001
216846.0,75.4011,-14.5869,-27.557700000000001,-27.570900000000002,-38.582799999999999,-7.7170300000000003,17.052299999999999
216847.0,67.130700000000004,25.7759,7.10243,16.951599999999999,-33.387300000000003,-8.3207699999999996,15.1975
216848.0,59.553199999999997,45.703099999999999,30.516500000000001,45.5274,-29.678899999999999,-7.7867600000000001,12.8346
216849.0,42.161499999999997,69.602999999999994,51.534700000000001,85.472399999999993,-17.2271,-0.58545899999999995,2.6597400000000002
216850.0,42.089500000000001,76.724999999999994,58.5413,95.720600000000005,-15.3369,3.1075200000000001,-0.0121263
216851.0,41.180700000000002,72.022999999999996,57.625300000000003,95.073899999999995,-13.691000000000001,4.5804900000000002,0.143785
216852.0,42.422800000000002,62.277000000000001,45.989199999999997,86.812600000000003,-12.3011,4.0275600000000003,3.1703100000000002
216853.0,47.164900000000003,54.374099999999999,32.456899999999997,78.338800000000006,-12.326599999999999,5.1628699999999998,6.0226600000000001
216854.0,60.6524,33.799799999999998,1.6486000000000001,63.0274,-8.4609199999999998,9.9106799999999993,10.6713
216855.0,63.954599999999999,39.273899999999998,4.5337300000000003,71.795100000000005,-6.8976600000000001,10.4148,8.7132000000000005
216856.0,62.582000000000001,72.756699999999995,44.611899999999999,111.202,-5.8163999999999998,10.7963,6.1416300000000001
216857.0,63.315100000000001,69.900300000000001,42.549399999999999,110.244,-6.3855500000000003,10.966900000000001,3.93872
216858.0,67.168000000000006,83.001000000000005,44.8324,116.536,-9.4266699999999997,11.2544,1.0946899999999999
216859.0,104.91,-44.2256,-18.387,-55.061,-50.845199999999998,-10.8766,24.7013
216860.0,35.457299999999996,76.436800000000005,68.597899999999996,97.938400000000001,-12.521699999999999,5.4227600000000002,-1.4502200000000001
216861.0,56.149700000000003,58.537700000000001,25.582699999999999,78.700100000000006,-13.9033,8.1580300000000001,8.4896600000000007
216862.0,60.7331,45.930599999999998,9.8585600000000007,65.579599999999999,-16.191099999999999,8.1260999999999992,10.130800000000001
216863.0,39.534599999999998,77.233900000000006,67.4178,102.227,-11.7554,7.5109000000000004,-2.0688900000000001
216864.0,95.674099999999996,-46.516599999999997,-37.746400000000001,-60.137799999999999,-48.440199999999997,-10.113200000000001,21.797699999999999
216865.0,104.748,-119.758,-82.272300000000001,-138.572,-47.738,-12.4298,20.062899999999999
216866.0,133.31399999999999,-25.279699999999998,-12.479100000000001,-47.361499999999999,-68.429299999999998,-16.869199999999999,25.410799999999998
216867.0,76.678399999999996,-21.008099999999999,-28.000800000000002,-34.1753,-39.091500000000003,-11.127599999999999,16.263100000000001
216868.0,68.478300000000004,37.254399999999997,27.149999999999999,32.434600000000003,-34.575299999999999,-10.9597,14.8992
216869.0,49.023499999999999,55.8354,48.8187,59.670699999999997,-24.7529,-6.2748400000000002,10.896699999999999
216870.0,37.498199999999997,70.896600000000007,60.213799999999999,79.667100000000005,-18.634599999999999,-1.63144,4.8867700000000003
216871.0,34.725000000000001,79.159999999999997,71.407899999999998,95.605599999999995,-15.58,2.3994300000000002,0.87628399999999995
216872.0,42.407200000000003,69.333399999999997,59.599699999999999,98.237099999999998,-10.9132,8.6409099999999999,-1.36324
216873.0,44.770899999999997,63.513199999999998,51.062899999999999,93.730800000000002,-10.478400000000001,8.7672299999999996,0.19813800000000001
216874.0,46.207000000000001,59.421900000000001,44.189799999999998,88.170100000000005,-10.880800000000001,9.5137999999999998,1.99969
216875.0,48.863500000000002,68.315399999999997,46.200499999999998,92.078599999999994,-12.3894,10.0838,3.7778999999999998
216876.0,51.350900000000003,59.586100000000002,35.560000000000002,82.244399999999999,-14.0562,9.8009699999999995,6.3499299999999996
216877.0,53.242400000000004,34.544600000000003,5.2863199999999999,57.379300000000001,-9.3125800000000005,10.446899999999999,8.1975200000000008
216878.0,56.075099999999999,47.990699999999997,11.462199999999999,70.776499999999999,-4.0943500000000004,10.393800000000001,5.2971000000000004
216879.0,55.724299999999999,79.719099999999997,53.714700000000001,111.458,-5.6632800000000003,12.0101,4.7366999999999999
216880.0,56.4621,67.891199999999998,41.593200000000003,101.196,-4.8100100000000001,11.754,3.0238399999999999
216881.0,62.456499999999998,75.525000000000006,39.416800000000002,102.824,-12.9131,10.6852,2.78715
216882.0,89.3416,15.0138,42.688099999999999,18.344000000000001,-42.7134,-12.539300000000001,21.229800000000001
216883.0,36.816699999999997,64.851900000000001,59.225499999999997,91.229399999999998,-9.0938599999999994,8.3671699999999998,-2.6770299999999998
216884.0,57.482199999999999,69.784099999999995,32.471400000000003,86.467500000000001,-12.9497,10.1418,8.1542200000000005
216885.0,59.710500000000003,51.128300000000003,16.777899999999999,71.566800000000001,-15.2028,10.276999999999999,9.2261100000000003
216886.0,39.633499999999998,61.116199999999999,52.457700000000003,87.388800000000003,-10.185,9.33432,-1.35765
216887.0,69.346199999999996,-14.5046,-3.7803900000000001,-11.3376,-34.679600000000001,-11.245100000000001,15.603999999999999
216888.0,88.247200000000007,-118.82299999999999,-87.7029,-124.666,-39.220700000000001,-13.994,21.609100000000002
216889.0,118.917,18.485800000000001,22.995699999999999,8.2486800000000002,-59.780700000000003,-20.080100000000002,26.071000000000002
216890.0,50.8934,20.993300000000001,12.9466,22.120799999999999,-26.107800000000001,-8.9517199999999999,8.7519399999999994
216891.0,44.692999999999998,75.619600000000005,68.380399999999995,81.724500000000006,-24.201000000000001,-4.0255299999999998,4.3935399999999998
216892.0,30.998899999999999,72.420299999999997,71.031599999999997,86.335099999999997,-15.7081,1.2735099999999999,-0.56439499999999998
216893.0,29.676300000000001,72.677099999999996,68.587299999999999,91.923000000000002,-10.670400000000001,4.0067700000000004,-2.8925100000000001
216894.0,33.189300000000003,68.051500000000004,64.253600000000006,92.342200000000005,-8.9571100000000001,6.6943299999999999,-3.1452900000000001
216895.0,41.847200000000001,61.2393,48.649700000000003,85.401600000000002,-11.4998,10.124599999999999,0.37593799999999999
216896.0,44.639699999999998,63.903100000000002,46.060499999999998,85.002399999999994,-12.7064,10.761200000000001,2.6411899999999999
216897.0,47.938499999999998,61.771500000000003,40.224899999999998,82.075800000000001,-13.147,11.313599999999999,5.2140000000000004
216898.0,52.240900000000003,58.9923,31.5426,78.776200000000003,-13.3499,10.9087,7.0592199999999998
216899.0,54.042700000000004,54.797199999999997,25.811199999999999,74.838399999999993,-13.2722,10.995699999999999,8.3003699999999991
216900.0,51.577500000000001,26.447399999999998,1.4594199999999999,52.479900000000001,-5.9069000000000003,12.536199999999999,6.6207900000000004
216901.0,53.491900000000001,49.818300000000001,15.840199999999999,72.350800000000007,-2.5933099999999998,11.129899999999999,3.73034
216902.0,49.6496,83.507800000000003,59.782800000000002,110.05500000000001,-5.60283,11.8522,4.1647999999999996
216903.0,50.281399999999998,69.024799999999999,37.951999999999998,90.331599999999995,-5.8131599999999999,10.264200000000001,3.121
216904.0,61.331699999999998,63.863300000000002,20.847000000000001,76.698099999999997,-17.580200000000001,7.2636799999999999,6.0238500000000004
216905.0,65.059299999999993,20.483499999999999,38.2607,28.099599999999999,-33.965200000000003,-9.0813000000000006,9.7597799999999992
216906.0,32.8934,62.313899999999997,53.086399999999998,76.887900000000002,-12.924300000000001,7.0349700000000004,0.34679599999999999
216907.0,56.677300000000002,63.900300000000001,26.550799999999999,79.323899999999995,-12.3893,10.6928,8.1627500000000008
216908.0,56.2898,51.252600000000001,16.166899999999998,70.379800000000003,-11.434100000000001,10.4521,7.7598200000000004
216909.0,37.186,59.782499999999999,45.897599999999997,72.999899999999997,-14.5161,7.7253100000000003,2.62012
216910.0,52.587000000000003,42.660299999999999,49.885399999999997,53.237299999999998,-27.479600000000001,-8.8971599999999995,7.6349499999999999
216911.0,72.151799999999994,-77.078199999999995,-49.868000000000002,-72.977099999999993,-32.942900000000002,-10.9697,17.7347
216912.0,90.325100000000006,31.073899999999998,37.151499999999999,29.690899999999999,-47.069699999999997,-13.7242,17.3171
216913.0,35.850499999999997,48.804400000000001,49.016500000000001,60.102600000000002,-18.691700000000001,-5.0138400000000001,3.4833799999999999
216914.0,32.108699999999999,66.060100000000006,64.640100000000004,80.943600000000004,-16.133099999999999,-1.34711,0.095571600000000007
216915.0,27.380400000000002,59.091099999999997,59.671799999999998,77.142899999999997,-11.5075,2.06969,-2.8193899999999998
216916.0,27.750699999999998,66.394099999999995,63.422800000000002,83.329300000000003,-10.745699999999999,4.0057099999999997,-3.1415099999999998
216917.0,29.331900000000001,62.947299999999998,58.233899999999998,79.123000000000005,-11.304500000000001,5.9975399999999999,-1.7281299999999999
216918.0,41.975200000000001,56.705300000000001,37.647100000000002,69.173900000000003,-15.6876,8.1205599999999993,4.8121900000000002
216919.0,46.786900000000003,54.886299999999999,30.404,67.103499999999997,-16.397200000000002,8.3233300000000003,6.5020600000000002
216920.0,49.868699999999997,52.305700000000002,24.092199999999998,64.494900000000001,-16.214200000000002,8.8652499999999996,7.6140800000000004
216921.0,53.203499999999998,61.263399999999997,27.755600000000001,72.594700000000003,-15.623100000000001,9.2557299999999998,8.3767399999999999
216922.0,54.322299999999998,55.7652,21.762899999999998,69.503100000000003,-13.791700000000001,10.5039,8.8934700000000007
216923.0,49.141599999999997,61.136299999999999,36.4086,85.521699999999996,-3.75576,12.358599999999999,5.9237599999999997
216924.0,49.919400000000003,60.190800000000003,32.214799999999997,82.888300000000001,-2.8391700000000002,12.5327,4.6094299999999997
216925.0,47.271599999999999,83.549999999999997,61.027299999999997,107.345,-3.5337100000000001,13.3474,4.2153200000000002
216926.0,50.085299999999997,71.837800000000001,37.610300000000002,89.679199999999994,-6.0732600000000003,8.9920899999999993,4.2739200000000004
216927.0,64.318200000000004,55.490200000000002,9.4714100000000006,66.811199999999999,-19.0304,3.30246,9.1427899999999998
216928.0,48.389600000000002,18.810700000000001,25.925699999999999,32.434600000000003,-25.240200000000002,-7.5497100000000001,6.3260300000000003
216929.0,35.9251,51.271799999999999,38.310000000000002,58.420999999999999,-16.933900000000001,3.1974800000000001,5.4124499999999998
216930.0,54.005499999999998,65.993600000000001,28.894400000000001,78.470200000000006,-12.8118,9.8842400000000001,6.7377399999999996
216931.0,53.982100000000003,56.961300000000001,19.6875,71.175600000000003,-9.6807499999999997,11.9237,5.3288700000000002
216932.0,41.155700000000003,49.468499999999999,31.1998,55.764499999999998,-18.427099999999999,3.3748900000000002,7.1307799999999997
216933.0,44.651000000000003,61.219000000000001,66.775899999999993,74.3596,-23.780799999999999,-6.0556400000000004,4.3430400000000002
216934.0,60.076799999999999,-24.495100000000001,3.2366199999999998,-6.8468499999999999,-27.369199999999999,-7.6177900000000003,14.1045
216935.0,61.024700000000003,-8.9208099999999995,3.23299,6.2913899999999998,-31.003299999999999,-8.7901500000000006,11.7524
216936.0,31.476800000000001,51.906599999999997,57.850499999999997,64.253799999999998,-16.848700000000001,-2.8470200000000001,0.38400099999999998
216937.0,27.870999999999999,63.260599999999997,63.757199999999997,73.786699999999996,-14.8787,-1.3980399999999999,-0.57301299999999999
216938.0,25.741199999999999,58.658099999999997,58.523400000000002,68.986999999999995,-13.565200000000001,0.90534300000000001,-0.071944099999999997
216939.0,27.518000000000001,56.605699999999999,52.078899999999997,65.708600000000004,-14.0844,1.9942800000000001,1.37019
216940.0,31.054200000000002,53.170000000000002,45.167000000000002,61.430799999999998,-15.352499999999999,2.8709899999999999,3.3732600000000001
216941.0,45.7682,50.077599999999997,26.535699999999999,55.623399999999997,-19.4314,3.61368,8.3121899999999993
216942.0,49.8703,53.142499999999998,23.941199999999998,58.062600000000003,-19.802499999999998,3.9542999999999999,9.0020900000000008
216943.0,52.168399999999998,53.076500000000003,20.3233,59.034799999999997,-19.008299999999998,5.0642100000000001,9.2599400000000003
216944.0,54.632599999999996,54.499400000000001,17.431799999999999,61.961100000000002,-17.645499999999998,6.1538599999999999,8.7701700000000002
216945.0,53.6327,52.788200000000003,15.922800000000001,62.9495,-14.821899999999999,8.2413000000000007,7.6752599999999997
216946.0,49.6053,77.023300000000006,50.203299999999999,95.924999999999997,-3.9130199999999999,16.266100000000002,3.5337299999999998
216947.0,50.021700000000003,60.044400000000003,35.324199999999998,81.543700000000001,-3.1745899999999998,16.643999999999998,3.4686400000000002
216948.0,48.189500000000002,80.8078,59.942999999999998,103.95099999999999,-1.49718,16.568300000000001,3.5672199999999998
216949.0,50.127200000000002,75.953699999999998,42.4923,93.170599999999993,-4.6737099999999998,11.763199999999999,3.6466599999999998
216950.0,63.910400000000003,58.754800000000003,13.831899999999999,72.212800000000001,-17.9617,4.9535400000000003,8.9313599999999997
216951.0,42.999400000000001,33.190399999999997,42.7956,47.152700000000003,-21.1981,-6.82951,8.3235899999999994
216952.0,42.384700000000002,47.969900000000003,32.394300000000001,50.237299999999998,-20.288699999999999,-1.20387,9.5596099999999993
216953.0,53.0595,62.175899999999999,24.260100000000001,72.744900000000001,-13.826499999999999,8.5548699999999993,4.9054599999999997
216954.0,53.039400000000001,53.546999999999997,16.172999999999998,67.0488,-10.2639,11.347200000000001,3.0071599999999998
216955.0,46.805300000000003,48.2044,27.235800000000001,50.091900000000003,-21.4512,-1.0958699999999999,10.389900000000001
216956.0,39.214199999999998,52.061,58.074599999999997,63.411900000000003,-20.6143,-5.2831999999999999,5.2417699999999998
216957.0,51.788200000000003,7.82714,33.748699999999999,27.899699999999999,-23.212,-6.6567100000000003,11.227399999999999
216958.0,52.273699999999998,29.729199999999999,44.429000000000002,47.631700000000002,-24.624099999999999,-9.0342599999999997,11.4778
216959.0,31.7559,46.633699999999997,52.540300000000002,56.975099999999998,-16.929200000000002,-3.4803500000000001,3.2433100000000001
216960.0,29.709,50.332999999999998,51.262500000000003,58.076700000000002,-15.996499999999999,-2.8456899999999998,3.5134400000000001
216961.0,30.368600000000001,47.948700000000002,46.500900000000001,54.069600000000001,-16.273900000000001,-1.79569,4.8178900000000002
216962.0,33.476799999999997,49.652999999999999,43.653100000000002,53.888500000000001,-17.386199999999999,-1.5287599999999999,6.5191499999999998
216963.0,37.823999999999998,48.391500000000001,37.9011,51.447200000000002,-18.8827,-1.2960400000000001,8.2563499999999994
216964.0,50.198999999999998,46.7639,20.945699999999999,49.0458,-21.969899999999999,-0.61991499999999999,10.646800000000001
216965.0,53.132899999999999,47.378,16.3094,50.361800000000002,-21.9331,0.0047558100000000001,10.215400000000001
216966.0,54.056199999999997,46.366900000000001,12.188700000000001,50.648299999999999,-21.015799999999999,1.37175,9.2848900000000008
216967.0,55.163800000000002,54.963900000000002,16.711400000000001,60.136600000000001,-19.5185,2.7732399999999999,7.9410100000000003
216968.0,52.974600000000002,51.699300000000001,13.7879,59.3904,-16.3476,5.7262199999999996,6.2770000000000001
216969.0,49.449399999999997,72.647800000000004,46.165900000000001,91.740200000000002,-4.1744500000000002,16.4907,1.37978
216970.0,51.0458,59.834000000000003,35.191699999999997,80.967500000000001,-2.7469399999999999,18.273399999999999,1.4870699999999999
216971.0,50.759999999999998,83.035300000000007,64.049400000000006,106.37,-0.59266099999999999,20.142900000000001,1.85192
216972.0,51.215000000000003,69.881399999999999,43.262700000000002,91.205600000000004,-2.0854900000000001,17.052,1.49638
216973.0,59.737699999999997,69.299300000000002,32.099499999999999,91.863,-12.682700000000001,9.5395099999999999,5.18729
216974.0,41.132599999999996,35.295900000000003,48.9495,45.657499999999999,-20.1008,-5.4090100000000003,8.9384999999999994
216975.0,47.401200000000003,41.289200000000001,25.0685,43.360100000000003,-21.866299999999999,-4.65801,12.1981
216976.0,52.698900000000002,61.476700000000001,23.418900000000001,70.671899999999994,-15.883100000000001,6.1897000000000002,2.7397999999999998
216977.0,51.962400000000002,53.189,15.3085,63.827500000000001,-12.4794,9.6768599999999996,0.53538399999999997
216978.0,50.584800000000001,41.1663,19.989000000000001,43.549100000000003,-22.765699999999999,-4.4918699999999996,12.0946
216979.0,38.258899999999997,45.106699999999996,51.033099999999997,52.959200000000003,-19.1142,-6.4208800000000004,8.0365699999999993
216980.0,43.2515,10.168799999999999,29.734500000000001,23.277699999999999,-20.458300000000001,-4.5745699999999996,9.2035499999999999
216981.0,49.706099999999999,53.451599999999999,64.601699999999994,64.407499999999999,-24.8825,-7.2543699999999998,10.5388
216982.0,36.055700000000002,43.411000000000001,48.6477,50.039999999999999,-18.090399999999999,-5.4157099999999998,8.0328999999999997
216983.0,36.067,45.6952,46.499400000000001,50.0533,-18.035799999999998,-5.4156300000000002,8.5796200000000002
216984.0,37.8645,44.646799999999999,42.093299999999999,47.818100000000001,-18.641999999999999,-5.0229999999999997,9.8450900000000008
216985.0,40.663400000000003,42.732999999999997,35.7089,45.0809,-19.611000000000001,-4.8750999999999998,10.910299999999999
216986.0,44.097000000000001,41.758800000000001,30.2517,43.801900000000003,-20.812899999999999,-4.7737400000000001,11.7835
216987.0,52.8583,42.347499999999997,16.758800000000001,45.271900000000002,-23.191500000000001,-4.0042799999999996,11.462999999999999
216988.0,54.880800000000001,45.458199999999998,14.967000000000001,48.844099999999997,-23.1922,-3.3735200000000001,10.3232
216989.0,55.056800000000003,46.2226,12.720000000000001,50.785899999999998,-22.3062,-1.7661899999999999,8.8140400000000003
216990.0,55.717199999999998,49.403399999999998,11.9313,55.051200000000001,-20.962800000000001,-0.027615600000000001,6.7920400000000001
216991.0,53.018099999999997,48.468499999999999,11.058299999999999,55.879899999999999,-18.147500000000001,3.15903,4.5194700000000001
216992.0,48.283700000000003,76.769599999999997,47.261200000000002,90.485799999999998,-6.4782099999999998,15.6708,-1.29924
216993.0,50.992100000000001,62.268300000000004,35.888199999999998,79.200900000000004,-4.3514799999999996,19.238299999999999,-1.1171500000000001
216994.0,52.792999999999999,83.366100000000003,64.743700000000004,104.31999999999999,-0.54828100000000002,23.122299999999999,-1.43913
216995.0,53.316000000000003,74.452399999999997,54.597900000000003,96.091800000000006,-1.04257,22.661100000000001,-1.4895499999999999
216996.0,54.778700000000001,85.393199999999993,55.620600000000003,107.842,-6.66031,16.420100000000001,-0.170344
216997.0,42.377200000000002,28.729800000000001,42.655299999999997,37.849299999999999,-18.747,-6.4655899999999997,12.462999999999999
216998.0,50.337299999999999,39.412100000000002,24.2182,43.222499999999997,-22.397300000000001,-7.5522999999999998,13.596
216999.0,53.0777,56.392499999999998,19.0488,65.162800000000004,-18.0091,3.7808000000000002,0.89091100000000001
217000.0,52.165599999999998,49.728900000000003,12.283099999999999,59.502200000000002,-14.9893,7.6696799999999996,-1.53505
217001.0,52.442399999999999,40.440300000000001,20.749500000000001,44.777500000000003,-23.153500000000001,-7.2623300000000004,12.8035
217002.0,41.776600000000002,40.789499999999997,47.2012,47.083500000000001,-18.872499999999999,-8.2963699999999996,11.971
217003.0,41.368499999999997,4.7627699999999997,22.424099999999999,15.116,-17.6295,-5.3173500000000002,12.354100000000001
217004.0,49.302300000000002,46.113300000000002,56.231499999999997,56.483699999999999,-22.4861,-8.0219400000000007,14.327
217005.0,41.273899999999998,35.743299999999998,41.152700000000003,41.102200000000003,-18.542400000000001,-7.5804400000000003,12.5258
217006.0,42.013500000000001,38.113799999999998,38.878100000000003,42.231099999999998,-18.877199999999998,-7.8511499999999996,12.8682
217007.0,43.714700000000001,36.7866,34.314700000000002,40.434399999999997,-19.637499999999999,-7.7100600000000004,13.507
217008.0,45.827599999999997,38.787300000000002,32.080100000000002,42.087400000000002,-20.5182,-7.7892900000000003,13.870200000000001
217009.0,48.229900000000001,38.764699999999998,27.8826,42.207599999999999,-21.542999999999999,-7.72851,13.986800000000001
217010.0,53.806800000000003,40.279800000000002,16.5473,45.353499999999997,-23.5015,-6.5514400000000004,11.5479
217011.0,55.246200000000002,41.625700000000002,13.4046,47.401600000000002,-23.602900000000002,-5.7015799999999999,9.8408499999999997
217012.0,55.220199999999998,41.334299999999999,10.1816,47.925800000000002,-23.054400000000001,-4.1186699999999998,7.8440200000000004
217013.0,55.844000000000001,48.400799999999997,13.222300000000001,55.3733,-22.174900000000001,-2.5486200000000001,5.5518599999999996
217014.0,53.3521,46.2746,10.4201,54.102600000000002,-19.916,0.61724800000000002,3.0478100000000001
217015.0,48.721299999999999,69.968299999999999,38.726700000000001,81.442800000000005,-9.5879999999999992,13.945,-4.0167200000000003
217016.0,50.745600000000003,60.565300000000001,32.8217,73.864900000000006,-6.9888899999999996,18.734000000000002,-4.4767200000000003
217017.0,53.251199999999997,85.534300000000002,65.7958,100.989,-2.3204099999999999,24.513500000000001,-5.2685199999999996
217018.0,56.304299999999998,74.784000000000006,58.011499999999998,91.949399999999997,-1.5487,27.2681,-4.7767299999999997
217019.0,56.7164,92.754999999999995,69.642700000000005,110.48099999999999,-4.0677700000000003,24.8291,-4.4561799999999998
217020.0,46.609299999999998,26.313199999999998,40.517400000000002,33.881,-17.928000000000001,-8.9040999999999997,16.520700000000001
217021.0,50.951099999999997,34.6173,21.727900000000002,41.6967,-21.948599999999999,-9.3577999999999992,13.9114
217022.0,53.720300000000002,53.2361,17.8306,62.4666,-20.128799999999998,1.1362300000000001,-0.554844
217023.0,52.700600000000001,48.1509,11.8149,57.097099999999998,-17.782800000000002,4.8572499999999996,-3.2906399999999998
217024.0,52.323500000000003,35.049999999999997,18.1463,42.756500000000003,-22.692900000000002,-8.9321199999999994,12.6242
217025.0,46.5871,34.254300000000001,41.738999999999997,40.875599999999999,-18.4758,-10.4375,16.0122
217026.0,44.834299999999999,3.8456999999999999,22.599699999999999,11.8986,-16.342199999999998,-8.1114999999999995,15.769
217027.0,52.639499999999998,41.410899999999998,53.016199999999998,49.890300000000003,-20.9771,-10.6386,18.285499999999999
217028.0,46.232900000000001,32.651800000000001,38.9268,38.924500000000002,-18.431999999999999,-9.9841200000000008,16.123000000000001
217029.0,46.755000000000003,34.597700000000003,36.523299999999999,40.314900000000002,-18.910799999999998,-10.333,15.9945
217030.0,47.6053,34.444099999999999,33.1648,40.235999999999997,-19.5947,-10.1129,15.9688
217031.0,48.563099999999999,33.972700000000003,28.747699999999998,40.000500000000002,-20.3413,-9.9718300000000006,15.530900000000001
217032.0,49.7988,33.998600000000003,24.989000000000001,40.514200000000002,-21.201699999999999,-9.7062600000000003,14.904299999999999
217033.0,53.3215,36.628599999999999,16.040400000000002,44.9163,-23.177900000000001,-8.2538,11.014799999999999
217034.0,54.6128,39.058500000000002,14.3215,47.740900000000003,-23.534700000000001,-7.5216399999999997,9.1122800000000002
217035.0,54.752200000000002,40.3217,12.5184,49.4024,-23.3416,-6.0492800000000004,6.9662499999999996
217036.0,55.588900000000002,42.945099999999996,11.1425,52.161999999999999,-22.944700000000001,-4.5064099999999998,4.4852100000000004
217037.0,53.782200000000003,43.155500000000004,9.9293300000000002,52.386299999999999,-21.431799999999999,-1.7127399999999999,1.81412
217038.0,48.8919,67.292599999999993,35.0334,76.008399999999995,-13.351599999999999,10.8041,-5.9901900000000001
217039.0,50.032499999999999,59.0169,29.6663,68.344999999999999,-10.334899999999999,16.421399999999998,-7.1082400000000003
217040.0,52.532200000000003,79.831199999999995,58.200400000000002,90.308700000000002,-5.6909000000000001,23.433299999999999,-8.3826300000000007
217041.0,57.417999999999999,74.427000000000007,57.410299999999999,86.1541,-3.5981700000000001,28.463699999999999,-8.1810899999999993
217042.0,60.153399999999998,90.049800000000005,72.697900000000004,104.63,-4.6806299999999998,29.5242,-7.54976
217043.0,49.627600000000001,21.689699999999998,36.837299999999999,31.133199999999999,-16.512499999999999,-10.870699999999999,19.277000000000001
217044.0,50.433399999999999,33.207299999999996,23.6831,44.114600000000003,-20.9359,-10.774100000000001,13.745200000000001
217045.0,54.238599999999998,47.119700000000002,14.747299999999999,57.650700000000001,-21.827999999999999,-1.2641800000000001,-1.61802
217046.0,53.417099999999998,44.722099999999998,10.8545,54.186700000000002,-20.183700000000002,2.1573699999999998,-4.4771700000000001
217047.0,51.341799999999999,34.446100000000001,21.3156,45.872799999999998,-21.748999999999999,-10.2974,12.19
217048.0,49.818199999999997,29.802499999999998,39.077199999999998,38.866900000000001,-17.328099999999999,-12.1508,18.744
217049.0,47.744700000000002,5.62967,25.4755,14.6852,-14.387700000000001,-10.0739,18.7789
217050.0,54.677999999999997,32.831200000000003,46.362200000000001,43.358199999999997,-18.712800000000001,-12.2332,21.124700000000001
217051.0,48.929099999999998,26.611000000000001,34.179400000000001,35.591200000000001,-17.417200000000001,-11.6372,18.328099999999999
217052.0,48.737099999999998,29.235299999999999,32.930300000000003,38.262300000000003,-17.905999999999999,-11.7981,17.645199999999999
217053.0,48.909999999999997,28.938700000000001,29.713200000000001,38.326999999999998,-18.595700000000001,-11.576000000000001,17.042200000000001
217054.0,49.254600000000003,31.288900000000002,28.591899999999999,41.088200000000001,-19.322700000000001,-11.4497,16.154499999999999
217055.0,49.859900000000003,32.066699999999997,26.003900000000002,42.433,-20.162600000000001,-11.168699999999999,15.1122
217056.0,52.057000000000002,34.8172,18.2362,46.647199999999998,-22.385300000000001,-9.5505399999999998,10.359500000000001
217057.0,53.223199999999999,35.8994,15.4657,47.996499999999997,-22.989899999999999,-8.7384000000000004,8.3057200000000009
217058.0,53.698500000000003,36.161999999999999,12.616400000000001,48.293799999999997,-23.230399999999999,-7.4605699999999997,6.0651400000000004
217059.0,54.865299999999998,40.907699999999998,13.4298,52.754199999999997,-23.339600000000001,-6.2124499999999996,3.62032
217060.0,53.916499999999999,40.309699999999999,10.6897,51.536999999999999,-22.544599999999999,-3.81488,0.930809
217061.0,50.267800000000001,59.113900000000001,27.2364,67.077600000000004,-16.9407,7.4393099999999999,-7.4478499999999999
217062.0,50.012999999999998,55.851999999999997,26.111000000000001,62.638599999999997,-14.1793,12.9909,-9.2993199999999998
217063.0,51.0623,76.272999999999996,52.744799999999998,82.034499999999994,-10.0549,20.172499999999999,-10.9687
217064.0,56.137900000000002,72.065799999999996,53.648600000000002,77.470299999999995,-7.5793299999999997,26.586600000000001,-11.411300000000001
217065.0,60.843400000000003,89.398200000000003,73.681700000000006,96.515000000000001,-7.3253399999999997,30.339099999999998,-11.106199999999999
217066.0,50.489400000000003,20.8279,36.705300000000001,33.011400000000002,-14.5283,-11.668100000000001,20.8202
217067.0,48.030200000000001,29.0076,23.211099999999998,43.827599999999997,-19.325199999999999,-10.9069,12.7866
217068.0,54.333300000000001,43.654299999999999,15.4869,56.319600000000001,-23.0425,-3.24268,-2.3893499999999999
217069.0,53.982999999999997,41.794600000000003,11.6122,52.647799999999997,-22.163699999999999,-0.33638699999999999,-5.2850099999999998
217070.0,48.760399999999997,29.436900000000001,20.455300000000001,44.652700000000003,-20.2743,-10.4054,11.117000000000001
217071.0,50.475000000000001,25.901700000000002,36.755400000000002,38.498199999999997,-15.381399999999999,-12.759499999999999,20.081499999999998
217072.0,48.302399999999999,5.2673500000000004,25.561499999999999,16.277699999999999,-12.3436,-10.703799999999999,20.188099999999999
217073.0,54.886299999999999,29.7318,44.506399999999999,42.781799999999997,-16.252099999999999,-12.786199999999999,22.611799999999999
217074.0,49.359499999999997,25.952000000000002,35.276800000000001,38.708399999999997,-15.6004,-12.4148,19.262499999999999
217075.0,48.698500000000003,27.428999999999998,33.380400000000002,40.456099999999999,-16.181799999999999,-12.514900000000001,18.1524
217076.0,48.159999999999997,27.909600000000001,31.214700000000001,41.374000000000002,-16.850899999999999,-12.1534,17.094799999999999
217077.0,47.772799999999997,27.8735,28.1037,41.780700000000003,-17.5928,-11.819100000000001,15.7521
217078.0,47.804600000000001,28.093299999999999,25.354199999999999,42.489800000000002,-18.470700000000001,-11.3813,14.364100000000001
217079.0,49.574599999999997,31.068200000000001,18.981100000000001,46.528700000000001,-21.131599999999999,-9.7913899999999998,9.2806599999999992
217080.0,50.947600000000001,32.810600000000001,17.235600000000002,48.3596,-22.025099999999998,-9.1901899999999994,7.3129200000000001
217081.0,51.861600000000003,34.264200000000002,15.586600000000001,49.606699999999996,-22.650300000000001,-8.1644299999999994,5.1553699999999996
217082.0,53.425199999999997,35.815899999999999,13.3329,50.700600000000001,-23.226600000000001,-7.09598,2.7729200000000001
217083.0,53.429400000000001,36.9724,11.9383,50.843699999999998,-23.135200000000001,-5.2447800000000004,0.17255699999999999
217084.0,51.714700000000001,54.857799999999997,24.910299999999999,63.123100000000001,-20.059899999999999,3.97763,-8.3076600000000003
217085.0,50.621299999999998,52.165900000000001,23.482800000000001,57.870399999999997,-17.774699999999999,9.1938499999999994,-10.6806
217086.0,50.490900000000003,69.349599999999995,45.245699999999999,72.242500000000007,-14.523,15.949199999999999,-12.8368
217087.0,53.988500000000002,68.246799999999993,49.037999999999997,68.665999999999997,-12.040100000000001,22.6694,-13.674300000000001
217088.0,59.311599999999999,86.452600000000004,70.666499999999999,85.987700000000004,-10.8316,27.933199999999999,-13.9406
217089.0,47.567100000000003,19.7912,35.203699999999998,34.234099999999998,-12.0084,-10.4909,20.626100000000001
217090.0,43.956400000000002,30.180499999999999,28.1401,48.648899999999998,-17.158899999999999,-9.8091500000000007,11.214499999999999
217091.0,53.553600000000003,38.510199999999998,15.287599999999999,53.5381,-23.648900000000001,-3.9326400000000001,-3.14499
217092.0,53.9559,38.779899999999998,13.222,51.604900000000001,-23.474499999999999,-1.6954499999999999,-5.8877300000000004
217093.0,44.753599999999999,31.1785,26.4739,49.960900000000002,-18.273099999999999,-9.3599099999999993,9.5753299999999992
217094.0,47.081099999999999,25.6096,36.650500000000001,40.660299999999999,-12.7883,-11.6404,19.470199999999998
217095.0,45.591200000000001,8.2979800000000008,27.3048,21.029299999999999,-9.7910000000000004,-9.5787800000000001,20.284199999999998
217096.0,51.847700000000003,29.507999999999999,43.452199999999998,45.011699999999998,-13.5298,-11.5631,22.504000000000001
217097.0,45.645600000000002,22.889700000000001,32.659799999999997,38.472200000000001,-13.129300000000001,-11.2675,18.252700000000001
217098.0,44.779000000000003,25.9771,33.1419,42.264699999999998,-13.720700000000001,-11.191700000000001,16.977399999999999
217099.0,43.936900000000001,25.770700000000001,31.001000000000001,42.594999999999999,-14.372299999999999,-10.8284,15.6693
217100.0,43.622799999999998,28.207999999999998,30.9895,45.652299999999997,-15.2067,-10.605600000000001,14.2392
217101.0,43.655299999999997,29.151199999999999,29.642900000000001,47.186700000000002,-16.158200000000001,-10.2171,12.8154
217102.0,45.747700000000002,31.373999999999999,23.9055,50.232300000000002,-19.378499999999999,-8.8034599999999994,7.7784599999999999
217103.0,47.334600000000002,31.7928,21.194800000000001,50.579300000000003,-20.561199999999999,-8.2409099999999995,5.8931500000000003
217104.0,48.825800000000001,32.008600000000001,18.461099999999998,50.403300000000002,-21.5975,-7.4862599999999997,3.88876
217105.0,50.9255,34.808100000000003,17.731300000000001,52.5717,-22.623999999999999,-6.79183,1.72933
217106.0,51.950099999999999,34.751800000000003,14.8461,51.285299999999999,-23.166399999999999,-5.4363000000000001,-0.683647
217107.0,53.069400000000002,47.705300000000001,21.109100000000002,57.432899999999997,-22.462599999999998,1.5873699999999999,-8.8391099999999998
217108.0,51.831699999999998,48.261200000000002,22.0031,54.284199999999998,-20.859400000000001,5.88347,-11.451599999999999
217109.0,50.686599999999999,63.9251,40.528300000000002,65.663300000000007,-18.464099999999998,11.507,-13.638500000000001
217110.0,52.162700000000001,63.744900000000001,43.976199999999999,61.300699999999999,-16.268599999999999,17.624500000000001,-14.6813
217111.0,55.911799999999999,81.445999999999998,64.826700000000002,75.782399999999996,-14.6309,22.9467,-15.167299999999999
217112.0,40.6447,25.107800000000001,37.819499999999998,39.752699999999997,-9.0134100000000004,-7.3253700000000004,18.774000000000001
217113.0,36.327800000000003,31.1234,30.7867,50.126199999999997,-14.884499999999999,-5.7809299999999997,7.8990799999999997
217114.0,51.495199999999997,38.538899999999998,20.271999999999998,55.049999999999997,-23.608499999999999,-2.8051599999999999,-4.0065400000000002
217115.0,53.052500000000002,37.669400000000003,16.857800000000001,51.955300000000001,-24.152200000000001,-1.40154,-6.4333600000000004
217116.0,37.596800000000002,30.995200000000001,28.5136,50.182600000000001,-16.122299999999999,-5.34016,6.4873599999999998
217117.0,39.1798,28.386399999999998,37.2117,44.279499999999999,-9.44801,-8.4168800000000008,16.9756
217118.0,38.838700000000003,8.2483500000000003,22.7102,20.011700000000001,-7.3939599999999999,-6.4745400000000002,18.630400000000002
217119.0,45.259500000000003,36.103099999999998,46.002800000000001,51.5486,-10.657999999999999,-8.5935299999999994,20.836099999999998
217120.0,37.847900000000003,29.287500000000001,37.885899999999999,46.078899999999997,-9.8820399999999999,-8.0752600000000001,15.6244
217121.0,37.092300000000002,31.881799999999998,38.866500000000002,49.650199999999998,-10.739800000000001,-7.9950700000000001,14.1144
217122.0,35.9846,30.8933,36.668799999999997,49.161999999999999,-11.5566,-7.3821300000000001,12.5054
217123.0,35.593000000000004,30.976099999999999,34.661299999999997,49.6282,-12.611000000000001,-6.8937200000000001,10.869400000000001
217124.0,35.6843,30.406400000000001,32.212600000000002,49.253300000000003,-13.737399999999999,-6.26973,9.3962199999999996
217125.0,39.270000000000003,32.159799999999997,27.489100000000001,51.501300000000001,-17.3672,-4.9964599999999999,5.0377599999999996
217126.0,41.570500000000003,33.000399999999999,25.920999999999999,52.456699999999998,-18.7514,-4.7844300000000004,3.5679500000000002
217127.0,43.921300000000002,33.788200000000003,24.2517,53.072200000000002,-20.1008,-4.4440400000000002,1.91388
217128.0,46.817399999999999,33.970100000000002,21.360499999999998,52.879300000000001,-21.4909,-4.1328500000000004,0.147984
217129.0,48.912100000000002,34.841900000000003,19.677800000000001,52.710000000000001,-22.5487,-3.5020899999999999,-1.8347
217130.0,53.531399999999998,45.5458,22.9117,56.639800000000001,-24.023199999999999,0.71274499999999996,-9.0600799999999992
217131.0,53.039499999999997,45.374699999999997,22.0703,52.343400000000003,-23.193000000000001,3.83386,-11.5656
217132.0,51.942799999999998,57.539400000000001,35.390700000000002,59.511800000000001,-21.631599999999999,8.1260899999999996,-13.638500000000001
217133.0,51.824800000000003,58.660400000000003,38.432400000000001,55.467300000000002,-19.844999999999999,12.937099999999999,-14.690799999999999
217134.0,53.391199999999998,74.223699999999994,55.511800000000001,66.527699999999996,-18.102599999999999,17.489100000000001,-15.105600000000001
217135.0,29.948,33.277299999999997,39.938499999999998,44.270499999999998,-6.2635800000000001,-2.5295700000000001,14.922000000000001
217136.0,28.744700000000002,43.7455,42.853099999999998,60.767099999999999,-12.649900000000001,0.65361499999999995,3.6149399999999998
217137.0,48.326000000000001,40.621099999999998,25.359500000000001,55.370899999999999,-22.950099999999999,1.03728,-5.0484900000000001
217138.0,50.855200000000004,39.994500000000002,22.465699999999998,53.070300000000003,-23.996200000000002,1.36138,-6.9710900000000002
217139.0,30.8279,44.294899999999998,41.732700000000001,61.3857,-13.9611,1.06572,2.5670700000000002
217140.0,27.062899999999999,41.941499999999998,45.408700000000003,54.516800000000003,-6.3965300000000003,-3.5444399999999998,12.184799999999999
217141.0,30.661100000000001,17.601800000000001,24.807400000000001,25.9665,-5.0094099999999999,-2.1630600000000002,16.219000000000001
217142.0,35.909399999999998,48.710299999999997,51.514200000000002,61.008499999999998,-7.9557500000000001,-4.0523400000000001,17.566199999999998
217143.0,25.192799999999998,37.030900000000003,41.570999999999998,50.199199999999998,-7.0735200000000003,-2.5187400000000002,10.508900000000001
217144.0,24.329899999999999,39.871200000000002,43.223700000000001,54.013199999999998,-8.0758799999999997,-2.12459,8.5424100000000003
217145.0,24.516200000000001,39.572699999999998,42.595199999999998,54.6526,-9.1588600000000007,-1.2631399999999999,7.1563600000000003
217146.0,25.453199999999999,41.935400000000001,43.776000000000003,57.909100000000002,-10.252000000000001,-0.62501200000000001,5.8376700000000001
217147.0,26.979399999999998,43.060000000000002,43.714199999999998,59.727400000000003,-11.450200000000001,0.075536800000000001,4.7338699999999996
217148.0,33.143799999999999,43.5807,39.2166,60.484299999999998,-15.3607,1.3482799999999999,1.49007
217149.0,35.858800000000002,42.642800000000001,36.1282,59.3658,-16.8155,1.4092100000000001,0.43641099999999999
217150.0,38.575400000000002,41.379600000000003,33.083100000000002,57.8902,-18.287299999999998,1.34162,-0.56804200000000005
217151.0,41.766300000000001,41.729599999999998,31.3202,58.018999999999998,-19.893699999999999,1.0063899999999999,-1.9007099999999999
217152.0,44.953299999999999,39.945599999999999,27.3278,55.615499999999997,-21.4328,0.97427600000000003,-3.5300099999999999
217153.0,52.786900000000003,44.433700000000002,25.0105,54.987499999999997,-24.6755,2.2501099999999998,-9.1469900000000006
217154.0,53.753,44.300600000000003,23.366900000000001,51.2087,-24.7331,3.85331,-11.241400000000001
217155.0,53.331000000000003,54.753799999999998,33.634900000000002,56.854100000000003,-23.871400000000001,6.5062100000000003,-13.0753
217156.0,53.0961,55.358800000000002,34.386499999999998,52.214700000000001,-22.758400000000002,9.8130400000000009,-14.0557
217157.0,53.726599999999998,67.943399999999997,46.3872,59.906399999999998,-21.411300000000001,13.106999999999999,-14.603899999999999
217158.0,20.446000000000002,49.720700000000001,47.970999999999997,53.319299999999998,-4.4190399999999999,2.5056400000000001,10.300700000000001
217159.0,29.465399999999999,56.3459,49.253100000000003,62.046999999999997,-13.4717,7.9946799999999998,-1.70875
217160.0,45.203699999999998,53.818600000000004,37.688699999999997,61.386200000000002,-21.379100000000001,6.6575199999999999,-5.7650800000000002
217161.0,48.152900000000002,47.396299999999997,29.956199999999999,54.679900000000004,-22.870899999999999,6.0252800000000004,-7.2186300000000001
217162.0,31.931699999999999,56.151200000000003,46.845700000000001,61.314,-14.5205,8.42516,-2.0703399999999998
217163.0,15.539099999999999,59.032299999999999,54.761200000000002,64.329700000000003,-4.0820999999999996,1.9142600000000001,6.09781
217164.0,24.518699999999999,23.807300000000001,21.0625,24.173300000000001,-4.7400700000000002,1.8884799999999999,13.0944
217165.0,27.753399999999999,64.723600000000005,57.872599999999998,69.661299999999997,-6.3888600000000002,0.38747500000000001,13.4437
217166.0,14.632300000000001,58.150100000000002,56.980600000000003,64.653999999999996,-4.78308,3.6345000000000001,4.2648000000000001
217167.0,16.152000000000001,58.6066,57.413899999999998,66.602400000000003,-6.2045500000000002,4.4296100000000003,1.9698100000000001
217168.0,19.584499999999998,57.711199999999998,56.558199999999999,66.022300000000001,-8.2685300000000002,5.6942300000000001,0.62884600000000002
217169.0,23.303699999999999,56.646599999999999,53.870100000000001,64.454899999999995,-10.318099999999999,6.6452200000000001,-0.52729099999999995
217170.0,26.6599,55.846400000000003,51.012900000000002,62.565100000000001,-12.098100000000001,7.4564000000000004,-1.1373800000000001
217171.0,33.7806,56.852800000000002,46.018000000000001,61.906799999999997,-15.2776,8.6908700000000003,-2.35392
217172.0,35.684399999999997,57.100700000000003,44.8947,62.5501,-16.168700000000001,8.5511099999999995,-2.8597399999999999
217173.0,37.842100000000002,55.845399999999998,42.808799999999998,61.499600000000001,-17.394300000000001,8.5157600000000002,-3.22254
217174.0,40.032200000000003,51.622100000000003,37.221499999999999,57.499400000000001,-18.526800000000001,8.0932700000000004,-4.0738899999999996
217175.0,42.264499999999998,51.634300000000003,36.265000000000001,58.280200000000001,-19.690300000000001,7.37256,-5.0853000000000002
217176.0,50.668300000000002,52.341999999999999,33.853200000000001,58.321399999999997,-24.091100000000001,5.8086500000000001,-8.8839900000000007
217177.0,53.248100000000001,47.278799999999997,27.0441,51.261899999999997,-25.173100000000002,5.8789800000000003,-10.4038
217178.0,54.033000000000001,55.186799999999998,34.089500000000001,55.286799999999999,-25.029399999999999,7.04603,-12.1654
217179.0,54.825400000000002,53.563800000000001,31.499300000000002,49.383600000000001,-24.901299999999999,8.7329399999999993,-12.970700000000001
217180.0,55.953600000000002,63.754600000000003,39.448399999999999,55.2575,-24.258299999999998,10.574999999999999,-13.825900000000001
217181.0,18.0794,61.072899999999997,53.377800000000001,57.509999999999998,-4.7271400000000003,5.5082100000000001,6.4371900000000002
217182.0,33.674999999999997,72.602500000000006,62.964700000000001,78.208200000000005,-14.358700000000001,10.562799999999999,-0.89917000000000002
217183.0,44.511499999999998,66.885099999999994,44.9983,63.210999999999999,-19.326000000000001,10.9842,-5.3760700000000003
217184.0,46.262599999999999,59.9726,38.143900000000002,56.792700000000004,-20.690899999999999,10.132,-6.60107
217185.0,35.5867,73.091999999999999,61.1599,78.263999999999996,-15.2796,10.538399999999999,-0.81794
217186.0,15.7121,76.269300000000001,65.293899999999994,72.537899999999993,-4.6872600000000002,5.4013299999999997,0.052900200000000001
217187.0,26.330100000000002,30.2194,25.238099999999999,30.886099999999999,-4.55769,3.8100999999999998,13.648300000000001
217188.0,27.587199999999999,79.232699999999994,66.752099999999999,81.303799999999995,-6.8441900000000002,2.5569700000000002,11.7616
217189.0,18.779399999999999,71.119,63.058199999999999,65.801199999999994,-5.8508100000000001,7.8722899999999996,-2.1338499999999998
217190.0,22.039899999999999,74.019000000000005,65.902600000000007,69.772000000000006,-7.46516,8.6850299999999994,-3.7789199999999998
217191.0,24.746600000000001,72.310100000000006,65.565200000000004,70.481399999999994,-9.3308099999999996,9.7081599999999995,-3.2635999999999998
217192.0,27.473500000000001,73.080799999999996,66.569699999999997,74.5,-11.135400000000001,10.1555,-2.56568
217193.0,30.711500000000001,72.940600000000003,65.309100000000001,77.235600000000005,-12.9168,10.400700000000001,-1.7009000000000001
217194.0,37.294199999999996,72.271000000000001,57.668799999999997,75.859899999999996,-16.0869,10.4909,-1.39093
217195.0,39.121899999999997,71.928399999999996,54.576900000000002,73.452600000000004,-16.787500000000001,10.659000000000001,-2.18886
217196.0,40.595799999999997,70.803399999999996,51.923099999999998,70.649500000000003,-17.194199999999999,11.265000000000001,-2.9897200000000002
217197.0,42.0899,71.629199999999997,51.179099999999998,70.441299999999998,-17.5761,11.599500000000001,-3.9087999999999998
217198.0,43.128599999999999,67.420599999999993,46.124000000000002,64.397400000000005,-18.142900000000001,11.629899999999999,-4.7787699999999997
217199.0,48.109999999999999,63.212600000000002,42.450000000000003,59.751100000000001,-22.0503,9.8404100000000003,-8.0462199999999999
217200.0,51.496499999999997,54.057899999999997,31.9909,50.867699999999999,-24.128900000000002,8.9401799999999998,-8.92117
217201.0,53.013800000000003,61.745800000000003,39.414499999999997,56.353000000000002,-24.606999999999999,8.9378600000000006,-10.754200000000001
217202.0,55.369999999999997,56.1967,32.738199999999999,48.493699999999997,-25.755500000000001,9.2676499999999997,-11.390000000000001
217203.0,57.911000000000001,63.494799999999998,36.949599999999997,53.043500000000002,-26.219899999999999,9.6516900000000003,-12.587400000000001
217204.0,19.6433,63.729900000000001,59.735199999999999,63.5411,-6.2582800000000001,4.3968699999999998,8.0648300000000006
217205.0,42.046999999999997,52.8337,44.891399999999997,63.075499999999998,-20.406199999999998,-2.0595599999999998,9.2495700000000003
217206.0,42.605899999999998,76.819900000000004,48.999099999999999,70.525599999999997,-18.055599999999998,7.6098100000000004,-2.8877100000000002
217207.0,44.027900000000002,69.153700000000001,41.095399999999998,59.194899999999997,-18.290199999999999,9.44604,-4.47811
217208.0,44.589100000000002,44.285800000000002,33.774999999999999,54.3992,-21.414300000000001,-3.1124800000000001,9.3871699999999993
217209.0,15.781599999999999,84.656099999999995,75.015000000000001,83.635400000000004,-5.5996199999999998,4.8289999999999997,0.54228399999999999
217210.0,35.486899999999999,-1.3918299999999999,2.4731399999999999,4.6792400000000001,-8.9154800000000005,-2.1408200000000002,18.0627
217211.0,38.012300000000003,78.014499999999998,69.287199999999999,89.098600000000005,-11.229799999999999,-1.62443,15.9472
217212.0,17.3172,86.323400000000007,80.351100000000002,83.603399999999993,-5.2703100000000003,7.8716699999999999,-1.1320699999999999
217213.0,19.4617,85.378200000000007,80.163700000000006,84.9636,-7.3907800000000003,7.8446699999999998,-1.29993
217214.0,22.750399999999999,77.322500000000005,74.074100000000001,78.572999999999993,-10.810600000000001,6.8659699999999999,1.7671699999999999
217215.0,27.4193,62.096699999999998,59.158700000000003,65.277900000000002,-14.354799999999999,3.8849499999999999,4.4818699999999998
217216.0,34.573399999999999,53.469999999999999,48.174100000000003,60.529899999999998,-17.785499999999999,0.215891,6.6062000000000003
217217.0,45.537700000000001,45.823999999999998,30.420000000000002,55.717700000000001,-21.578399999999998,-3.3081999999999998,7.2202900000000003
217218.0,46.165199999999999,56.185899999999997,36.247500000000002,65.302300000000002,-21.2364,-1.8402799999999999,5.9356
217219.0,43.866,61.802100000000003,39.466299999999997,67.109899999999996,-20.1051,0.32081599999999999,4.6780900000000001
217220.0,42.160200000000003,66.3185,41.405299999999997,67.516099999999994,-19.150300000000001,2.0072899999999998,2.1024500000000002
217221.0,41.134300000000003,68.479600000000005,42.3934,65.635400000000004,-18.316800000000001,4.7814300000000003,-0.92081500000000005
217222.0,44.589700000000001,78.322199999999995,53.475900000000003,65.070999999999998,-18.699300000000001,10.93,-6.2495900000000004
217223.0,48.059100000000001,64.277900000000002,39.296100000000003,52.100999999999999,-21.311499999999999,10.640700000000001,-6.8140499999999999
217224.0,50.430100000000003,70.926699999999997,46.680999999999997,57.2331,-22.5578,10.6418,-8.8229100000000003
217225.0,53.9358,61.200000000000003,36.147199999999998,46.996200000000002,-24.865600000000001,10.3187,-9.3311299999999999
217226.0,57.830100000000002,66.116,37.915799999999997,51.578800000000001,-26.6524,9.6618999999999993,-10.5921
217227.0,35.720199999999998,42.713200000000001,51.382399999999997,58.122999999999998,-10.218400000000001,-1.55169,16.087700000000002
217228.0,63.284100000000002,-41.9054,-45.081400000000002,-10.2841,-20.769100000000002,-9.4193999999999996,21.088799999999999
217229.0,47.452500000000001,43.436999999999998,13.107100000000001,49.906300000000002,-18.479299999999999,-4.6956600000000002,1.02857
217230.0,42.660800000000002,63.504100000000001,32.562199999999997,61.737000000000002,-17.2881,1.11083,-2.1421600000000001
217231.0,68.378600000000006,-51.904899999999998,-57.626399999999997,-16.3492,-22.537600000000001,-10.587300000000001,20.9375
217232.0,28.060500000000001,69.382000000000005,73.8874,82.334100000000007,-9.18675,-2.6587000000000001,11.3033
217233.0,50.511800000000001,-88.765699999999995,-72.922499999999999,-68.625699999999995,-11.176600000000001,-5.5327099999999998,24.133800000000001
217234.0,58.710599999999999,36.438899999999997,36.787199999999999,65.834299999999999,-16.1554,-7.1917799999999996,23.4862
217235.0,24.2486,57.946399999999997,65.038799999999995,66.563000000000002,-9.1084700000000005,-3.6387399999999999,8.8683800000000002
217236.0,30.828299999999999,58.9268,64.1661,71.229699999999994,-11.7318,-4.8504500000000004,10.8405
217237.0,37.599800000000002,35.389800000000001,41.522799999999997,50.181699999999999,-13.383100000000001,-4.4212100000000003,14.7432
217238.0,45.381700000000002,3.0377299999999998,6.8544099999999997,23.1892,-15.457700000000001,-5.1916099999999998,17.4937
217239.0,54.3354,-25.520499999999998,-25.0718,0.23644299999999999,-17.907900000000001,-7.0391000000000004,19.912600000000001
217240.0,70.054299999999998,-48.215899999999998,-58.664900000000003,-11.0124,-23.0242,-12.2456,18.1233
217241.0,72.894999999999996,-23.463100000000001,-39.372100000000003,13.5198,-24.0913,-13.263500000000001,16.6889
217242.0,69.123199999999997,-13.9678,-33.075299999999999,17.114699999999999,-23.965499999999999,-12.0345,15.224600000000001
217243.0,62.746200000000002,-7.3543000000000003,-31.809899999999999,15.810700000000001,-22.545200000000001,-10.7287,11.041
217244.0,54.095100000000002,7.8493300000000001,-20.0471,21.847000000000001,-20.272600000000001,-8.5122199999999992,6.0918299999999999
217245.0,38.703699999999998,81.341200000000001,54.267899999999997,67.867400000000004,-15.9895,6.8688200000000004,-3.6384300000000001
217246.0,42.322299999999998,70.370599999999996,43.857599999999998,52.349800000000002,-17.657699999999998,8.9852500000000006,-4.6073399999999998
217247.0,45.8551,80.328500000000005,55.249400000000001,59.388300000000001,-19.299700000000001,10.2545,-6.5190900000000003
217248.0,50.506399999999999,68.921700000000001,43.263800000000003,47.5518,-22.4163,10.391299999999999,-7.1366500000000004
217249.0,55.611199999999997,71.517799999999994,42.6126,51.487000000000002,-25.5533,9.7231199999999998,-8.0066500000000005
217250.0,2070.5599999999999,-1846.1199999999999,-560.75,-1316.9100000000001,-991.58900000000006,-152.24199999999999,72.867199999999997
217251.0,2061.73,120.438,1400.54,632.87400000000002,-985.88800000000003,-167.578,42.007100000000001
217252.0,2062.25,-2231.5700000000002,-953.75099999999998,-1731.28,-984.47900000000004,-182.512,22.5731
217253.0,2068.3099999999999,-408.53399999999999,864.92100000000005,65.352599999999995,-980.42399999999998,-223.88499999999999,-18.824300000000001
217254.0,2086.1999999999998,-2348.8099999999999,-1070.75,-1890.5899999999999,-978.82899999999995,-260.69499999999999,-73.618600000000001
217255.0,2100.8000000000002,-430.33999999999997,856.79700000000003,27.650300000000001,-983.87900000000002,-256.06900000000002,-108.93300000000001
217256.0,2115.0799999999999,-2300.7199999999998,-1006.58,-1844.8199999999999,-990.60299999999995,-245.90199999999999,-136.17599999999999
217257.0,2144.0900000000001,-304.72399999999999,1003.0700000000001,159.13200000000001,-995.53800000000001,-272.59399999999999,-165.36099999999999
217258.0,2171.1799999999998,-2347.3299999999999,-1024.6300000000001,-1868.78,-1000.97,-296.12700000000001,-182.16900000000001
217259.0,2188.3400000000001,159.05799999999999,1488.5,638.07799999999997,-1009.0700000000001,-295.94600000000003,-192.69
217260.0,2204.0300000000002,-2178.8499999999999,-841.13999999999999,-1691.51,-1015.29,-301.233,-198.36199999999999
217261.0,2209.96,394.33999999999997,1736.0,891.12,-1018.72,-303.61000000000001,-194.64599999999999
217262.0,2208.8899999999999,-1947.3499999999999,-604.75400000000002,-1440.04,-1019.61,-304.36399999999998,-185.89699999999999
217263.0,2197.23,635.14400000000001,1973.8499999999999,1153.9000000000001,-1016.33,-302.88299999999998,-170.357
217264.0,2172.5100000000002,-1761.78,-433.34800000000001,-1232.0,-1007.52,-298.637,-147.578
217265.0,2141.6500000000001,1015.01,2326.48,1547.8499999999999,-996.71400000000006,-291.53800000000001,-124.242
217266.0,2089.1599999999999,-1445.1099999999999,-175.18100000000001,-940.06399999999996,-980.21500000000003,-276.98500000000001,-92.253799999999998
217267.0,2034.1500000000001,1069.97,2306.8600000000001,1571.0,-957.85500000000002,-265.97500000000002,-62.932499999999997
217268.0,1961.1099999999999,-1452.3199999999999,-253.297,-947.70000000000005,-924.55999999999995,-252.922,-28.123999999999999
217269.0,1889.8,1540.1900000000001,2693.98,2029.6800000000001,-892.72699999999998,-241.07499999999999,2.3691499999999999
217270.0,1796.75,-1410.0,-332.01999999999998,-978.24699999999996,-852.49000000000001,-231.10300000000001,40.200499999999998
217271.0,1686.1600000000001,1393.24,2380.6700000000001,1752.5799999999999,-800.57500000000005,-224.43299999999999,81.579300000000003
217272.0,1592.8199999999999,-992.77499999999998,-69.668300000000002,-674.08299999999997,-752.48400000000004,-218.53999999999999,108.925
217273.0,1543.8599999999999,1868.55,2769.4000000000001,2185.5,-726.67899999999997,-211.45400000000001,113.59
217274.0,1472.02,-1041.96,-166.57400000000001,-713.42100000000005,-689.31299999999999,-193.87700000000001,118.288
217275.0,1435.5,1614.1700000000001,2492.3299999999999,1975.0999999999999,-671.40899999999999,-170.762,110.02800000000001
217276.0,820.31799999999998,2691.0599999999999,2572.1700000000001,2560.1700000000001,452.07499999999999,64.616600000000005,102.593
217277.0,492.358,-1612.27,-1822.4400000000001,-1754.4300000000001,251.392,20.874099999999999,75.302599999999998
217278.0,120.816,-5568.4200000000001,-5502.8100000000004,-5524.9300000000003,36.837400000000002,-8.3523399999999999,48.2102
217279.0,108.887,-1981.23,-1941.21,-1964.6500000000001,-59.081000000000003,-0.94644200000000001,7.5051399999999999
217280.0,102.565,2368.4000000000001,2401.9000000000001,2365.1799999999998,-51.291499999999999,9.4478600000000004,-19.313199999999998
217281.0,91.450000000000003,1977.1500000000001,2051.4400000000001,1988.3599999999999,-32.142299999999999,3.09022,-11.889699999999999
217282.0,119.108,-396.82400000000001,-380.38200000000001,-393.964,-66.991900000000001,6.5035400000000001,-11.025600000000001
217283.0,98.915899999999993,-5256.1199999999999,-5191.6800000000003,-5213.9700000000003,11.315099999999999,-9.5668900000000008,44.395899999999997
217284.0,317.75700000000001,-4974.5100000000002,-5104.75,-5045.1000000000004,154.25200000000001,14.2142,73.553200000000004
217285.0,388.99900000000002,-3610.3699999999999,-3764.8499999999999,-3713.6700000000001,195.12200000000001,20.799099999999999,75.780299999999997
217286.0,236.59,-5578.0600000000004,-5642.9700000000003,-5607.1199999999999,115.249,5.6011899999999999,65.476699999999994
217287.0,173.09399999999999,-6113.3999999999996,-6118.8500000000004,-6109.0200000000004,81.849100000000007,0.081489099999999995,57.128599999999999
217288.0,127.61799999999999,-6076.6999999999998,-6043.0600000000004,-6051.0200000000004,51.674900000000001,-3.8961700000000001,49.338099999999997
217289.0,112.169,-5690.5900000000001,-5626.3500000000004,-5649.2600000000002,32.344099999999997,-7.9752700000000001,44.990099999999998
217290.0,111.646,5413.6400000000003,5478.04,5455.6999999999998,33.561799999999998,-6.1369300000000004,43.834899999999998
217291.0,118.75,-5528.3100000000004,-5467.6199999999999,-5486.4099999999999,34.665599999999998,-8.3463999999999992,49.637599999999999
217292.0,93.285300000000007,-4948.4099999999999,-4882.2399999999998,-4907.8699999999999,-8.4328800000000008,-10.2149,40.150199999999998
217293.0,94.674099999999996,-4378.3900000000003,-4317.5600000000004,-4342.8699999999999,-28.933700000000002,-8.7970600000000001,33.755200000000002
217294.0,99.290199999999999,-3622.6199999999999,-3567.7800000000002,-3592.75,-42.003500000000003,-5.8813700000000004,27.083100000000002
217295.0,109.134,-2816.23,-2767.9299999999998,-2792.8600000000001,-55.614800000000002,-3.24471,16.8292
217296.0,108.137,2523.4200000000001,2574.52,2542.0100000000002,-55.070900000000002,-4.6759700000000004,13.196899999999999
217297.0,107.748,-1177.9000000000001,-1149.1300000000001,-1168.28,-60.410899999999998,2.2141799999999998,-0.99879499999999999
217298.0,131.55099999999999,406.23500000000001,418.125,404.08199999999999,-72.7072,8.1871200000000002,-18.920200000000001
217299.0,126.20099999999999,1148.6600000000001,1154.77,1140.99,-68.825999999999993,9.2361900000000006,-20.949100000000001
217300.0,127.236,1740.5,1745.98,1730.4000000000001,-68.515699999999995,10.9101,-22.812899999999999
217301.0,121.226,2173.6100000000001,2190.2600000000002,2165.6300000000001,-64.030500000000004,11.032299999999999,-22.782599999999999
217302.0,103.621,-2263.5,-2251.96,-2274.6799999999998,-54.112200000000001,11.3413,-19.830200000000001
217303.0,90.477400000000003,2292.1900000000001,2344.8299999999999,2295.3800000000001,-39.713999999999999,6.72689,-15.3324
217304.0,103.82899999999999,1470.8299999999999,1571.46,1492.6600000000001,-26.7319,-1.80915,-8.5775600000000001
217305.0,113.259,809.86900000000003,924.50599999999997,837.322,-25.072700000000001,-5.1722000000000001,-6.1435899999999997
217306.0,111.315,114.0,226.50999999999999,140.51400000000001,-24.937000000000001,-5.3801500000000004,-4.4793200000000004
217307.0,59.802900000000001,66.435699999999997,35.990699999999997,100.78400000000001,-7.3878599999999999,-7.1902900000000001,5.9187000000000003
217308.0,452.36099999999999,2804.6900000000001,2683.3499999999999,2699.6799999999998,239.96299999999999,32.218200000000003,72.479200000000006
217309.0,352.18599999999998,4458.3900000000003,4348.1300000000001,4387.6199999999999,180.649,18.9312,72.332099999999997
217310.0,256.94799999999998,5264.2200000000003,5211.1700000000001,5235.1499999999996,129.68000000000001,7.093,66.591700000000003
217311.0,190.14400000000001,5772.5900000000001,5775.5699999999997,5778.0600000000004,92.251000000000005,0.25580799999999998,59.445099999999996
217312.0,147.40000000000001,6066.21,6110.3100000000004,6094.8400000000001,63.8123,-3.8577599999999999,51.5242
217313.0,117.82599999999999,5777.8599999999997,5848.0900000000001,5820.79,37.3352,-7.0282600000000004,43.9437
217314.0,120.253,5395.29,5461.3999999999996,5439.1300000000001,38.050600000000003,-6.7838599999999998,46.850900000000003
217315.0,115.456,5312.8500000000004,5395.1599999999999,5362.9899999999998,24.643699999999999,-9.8247499999999999,44.930100000000003
217316.0,102.01300000000001,5061.9700000000003,5145.0900000000001,5109.9099999999999,2.65761,-10.3872,40.165900000000001
217317.0,101.008,4705.9399999999996,4788.46,4750.4099999999999,-16.088100000000001,-10.608499999999999,36.381300000000003
217318.0,101.20999999999999,4076.7399999999998,4148.6499999999996,4112.8400000000001,-33.100499999999997,-8.45303,30.8994
217319.0,108.38500000000001,3312.4499999999998,3378.9400000000001,3341.7600000000002,-47.406399999999998,-6.9740799999999998,22.569900000000001
217320.0,105.184,1701.5799999999999,1741.4000000000001,1712.6400000000001,-56.849499999999999,-2.4905200000000001,5.2357100000000001
217321.0,111.699,943.53599999999994,975.178,949.51900000000001,-62.1417,0.0171509,-3.8351799999999998
217322.0,125.96899999999999,188.00299999999999,207.49600000000001,187.33000000000001,-70.329899999999995,3.5030999999999999,-14.128
217323.0,123.172,-632.31799999999998,-624.74000000000001,-639.90999999999997,-68.118600000000001,6.2069900000000002,-17.913599999999999
217324.0,124.351,-1313.0899999999999,-1308.0599999999999,-1322.76,-67.9315,8.2642199999999999,-20.384899999999998
217325.0,122.29300000000001,-1854.98,-1850.75,-1866.6500000000001,-65.565200000000004,11.009600000000001,-22.3005
217326.0,86.105900000000005,-2407.6500000000001,-2378.9200000000001,-2413.54,-42.222799999999999,9.2600499999999997,-16.121500000000001
217327.0,80.386499999999998,-2285.46,-2236.02,-2283.71,-34.073099999999997,6.2797700000000001,-12.9139
217328.0,84.891099999999994,-1946.6500000000001,-1874.8900000000001,-1935.9200000000001,-28.257899999999999,2.63049,-9.9372600000000002
217329.0,100.71599999999999,-1440.52,-1341.71,-1418.3800000000001,-25.229199999999999,-2.29657,-7.1217300000000003
217330.0,111.384,-794.64700000000005,-681.36500000000001,-766.63599999999997,-24.566600000000001,-5.5372899999999996,-4.4593100000000003
217331.0,829.67600000000004,2657.5100000000002,2530.3099999999999,2514.6399999999999,462.57600000000002,57.5276,77.646699999999996
217332.0,486.87599999999998,-1827.95,-2038.3499999999999,-1975.3099999999999,251.851,15.176500000000001,60.816200000000002
217333.0,109.998,-4816.0200000000004,-4746.21,-4772.0100000000002,22.3916,-7.7237299999999998,47.183599999999998
217334.0,98.778700000000001,-963.89999999999998,-915.80700000000002,-944.69100000000003,-49.2742,-2.8797299999999999,15.170299999999999
217335.0,91.201700000000002,1886.23,1927.71,1890.0999999999999,-41.612499999999997,8.1111000000000004,-21.219799999999999
217336.0,83.024100000000004,1488.04,1555.4200000000001,1503.1800000000001,-27.248699999999999,2.4872700000000001,-17.296299999999999
217337.0,94.341300000000004,25.142700000000001,57.776000000000003,36.503399999999999,-51.6751,1.6002799999999999,-4.4109400000000001
217338.0,99.877200000000002,-4408.6700000000001,-4343.25,-4368.3299999999999,-7.0998799999999997,-7.9464600000000001,46.067900000000002
217339.0,299.48099999999999,-4658.0799999999999,-4777.4099999999999,-4730.04,147.62899999999999,13.0573,65.738699999999994
217340.0,373.12799999999999,-3418.4499999999998,-3564.71,-3524.73,190.191,17.537700000000001,64.912800000000004
217341.0,218.54900000000001,-5540.1400000000003,-5594.3500000000004,-5567.9499999999998,107.357,4.8574900000000003,60.311799999999998
217342.0,157.86099999999999,-5571.9799999999996,-5567.6700000000001,-5564.9700000000003,72.836200000000005,-0.031952700000000001,54.672699999999999
217343.0,116.614,-5499.5200000000004,-5457.8299999999999,-5472.3100000000004,41.456600000000002,-3.2101000000000002,48.539200000000001
217344.0,105.398,-5261.8299999999999,-5192.1499999999996,-5220.0900000000001,20.591000000000001,-7.4099500000000003,44.657600000000002
217345.0,103.876,4879.4300000000003,4949.0699999999997,4922.9499999999998,20.922899999999998,-5.87887,43.437899999999999
217346.0,107.13500000000001,-4615.8500000000004,-4552.0900000000001,-4574.5500000000002,17.663499999999999,-6.9923500000000001,49.185600000000001
217347.0,106.52,-3776.5999999999999,-3711.4699999999998,-3739.6900000000001,-28.0108,-8.3849300000000007,43.1325
217348.0,117.89700000000001,-3075.6500000000001,-3015.0599999999999,-3044.9400000000001,-46.9953,-7.5794499999999996,38.072400000000002
217349.0,119.84999999999999,-2334.0500000000002,-2276.04,-2306.6399999999999,-53.627200000000002,-5.6892300000000002,32.209499999999998
217350.0,113.346,-1598.48,-1543.95,-1574.5,-54.298099999999998,-4.0745300000000002,23.887699999999999
217351.0,102.753,1337.2,1387.1600000000001,1354.6600000000001,-49.0518,-6.3563299999999998,20.7334
217352.0,91.546999999999997,-452.30599999999998,-411.23099999999999,-436.99799999999999,-48.3093,-0.57117899999999999,5.3471700000000002
217353.0,100.913,506.88299999999998,533.245,514.26199999999994,-55.254199999999997,3.5548099999999998,-11.9939
217354.0,104.629,912.89700000000005,930.55499999999995,913.39800000000002,-56.659100000000002,7.1523899999999996,-16.9283
217355.0,114.27500000000001,1359.77,1376.79,1356.8800000000001,-60.8628,9.5293600000000005,-21.025400000000001
217356.0,108.006,1756.8900000000001,1784.9200000000001,1756.5999999999999,-55.106900000000003,9.5263100000000005,-22.2759
217357.0,88.777199999999993,-1863.27,-1841.9100000000001,-1867.9400000000001,-44.446599999999997,8.04589,-19.859500000000001
217358.0,83.438699999999997,1765.8599999999999,1820.5599999999999,1775.01,-32.144799999999996,5.8636200000000001,-19.8584
217359.0,89.108599999999996,1091.29,1173.97,1113.46,-25.463799999999999,-1.9186099999999999,-12.7691
217360.0,94.338700000000003,594.47299999999996,684.77300000000002,619.64499999999998,-26.5121,-5.16113,-8.0936800000000009
217361.0,92.6982,77.674800000000005,165.57599999999999,101.601,-27.375900000000001,-5.4412500000000001,-4.4666300000000003
217362.0,58.259099999999997,58.275599999999997,19.398,83.673699999999997,-7.3846999999999996,-2.0709499999999998,4.95662
217363.0,440.45699999999999,2841.27,2722.4899999999998,2734.0100000000002,237.077,27.0078,58.660899999999998
217364.0,334.63299999999998,4076.3200000000002,3974.3000000000002,4005.23,174.49299999999999,17.279499999999999,61.996499999999997
217365.0,237.898,5138.1199999999999,5095.3100000000004,5110.3000000000002,121.577,6.4904400000000004,59.750700000000002
217366.0,174.27199999999999,5526.9799999999996,5540.1499999999996,5534.6999999999998,83.4666,0.28048600000000001,55.794400000000003
217367.0,136.74199999999999,5401.8900000000003,5454.6700000000001,5432.6499999999996,54.8902,-3.0580699999999998,50.075299999999999
217368.0,111.672,5315.9499999999998,5393.04,5359.8999999999996,27.182400000000001,-6.2196499999999997,43.401800000000001
217369.0,109.215,4521.75,4591.9200000000001,4566.96,23.149999999999999,-5.5580699999999998,46.307099999999998
217370.0,109.42,4494.2600000000002,4578.7799999999997,4544.4799999999996,7.6687000000000003,-7.4483699999999997,45.491100000000003
217371.0,107.633,4120.7200000000003,4203.8000000000002,4167.3100000000004,-15.5764,-7.9366500000000002,42.682899999999997
217372.0,115.884,3459.3699999999999,3539.8899999999999,3499.9400000000001,-34.985900000000001,-8.0573300000000003,39.579900000000002
217373.0,120.3,2782.7199999999998,2850.48,2813.4299999999998,-49.008499999999998,-6.8690600000000002,34.982900000000001
217374.0,116.277,2036.79,2096.52,2061.0799999999999,-52.488399999999999,-6.4785599999999999,28.419499999999999
217375.0,93.837900000000005,763.226,808.67600000000004,777.73299999999995,-46.9054,-5.99735,12.656000000000001
217376.0,92.998800000000003,305.065,346.11500000000001,317.45699999999999,-49.159799999999997,-4.03064,2.5803799999999999
217377.0,97.705799999999996,-161.01499999999999,-127.626,-152.58699999999999,-53.3018,-1.62788,-6.0764300000000002
217378.0,99.268600000000006,-598.45299999999997,-571.90999999999997,-595.41899999999998,-54.199199999999998,1.7089000000000001,-11.5413
217379.0,110.517,-985.08799999999997,-964.06399999999996,-987.43499999999995,-59.894100000000002,5.3634700000000004,-17.0185
217380.0,107.884,-1481.3199999999999,-1466.3800000000001,-1488.01,-57.459800000000001,7.8665099999999999,-19.8367
217381.0,77.073499999999996,-1928.8199999999999,-1893.02,-1927.02,-34.044800000000002,6.4906899999999998,-19.2895
217382.0,74.727500000000006,-1784.4400000000001,-1734.21,-1775.26,-28.2743,4.3559000000000001,-18.101700000000001
217383.0,77.423299999999998,-1499.5999999999999,-1435.5699999999999,-1483.3099999999999,-25.861699999999999,1.4218,-14.8361
217384.0,86.767799999999994,-1096.1199999999999,-1015.3099999999999,-1072.47,-26.005800000000001,-2.3546100000000001,-10.0929
217385.0,92.765699999999995,-597.71199999999999,-508.49200000000002,-571.30399999999997,-26.811699999999998,-5.0688599999999999,-4.8428699999999996
217386.0,833.91499999999996,2782.73,2651.8200000000002,2631.2800000000002,468.37700000000001,49.958500000000001,56.423099999999998
217387.0,477.13099999999997,-1624.8699999999999,-1834.5,-1772.4300000000001,249.49799999999999,9.2417400000000001,44.216299999999997
217388.0,109.59099999999999,-4119.75,-4046.1799999999998,-4077.29,4.7610000000000001,-7.5841500000000002,50.591200000000001
217389.0,86.669899999999998,63.279299999999999,117.78,88.242999999999995,-37.129899999999999,-5.50875,18.7242
217390.0,72.585400000000007,1070.21,1132.27,1096.8699999999999,-20.758700000000001,5.1963999999999997,-18.1404
217391.0,63.569000000000003,533.88699999999994,587.36099999999999,555.22900000000004,-16.8752,-0.50434800000000002,-18.369199999999999
217392.0,76.947299999999998,439.137,481.21199999999999,458.36799999999999,-38.619399999999999,-3.24234,5.2909600000000001
217393.0,112.595,-3175.3200000000002,-3111.3000000000002,-3137.5,-27.684200000000001,-7.82219,48.603900000000003
217394.0,278.85000000000002,-4590.1499999999996,-4698.3500000000004,-4661.4499999999998,141.48599999999999,10.6416,52.558399999999999
217395.0,351.26799999999997,-3439.4899999999998,-3578.5799999999999,-3544.3600000000001,183.03200000000001,11.5372,47.358899999999998
217396.0,198.82900000000001,-4970.6899999999996,-5013.6999999999998,-4999.8000000000002,99.294300000000007,4.7535999999999996,53.046900000000001
217397.0,139.596,-5282.3999999999996,-5266.3999999999996,-5275.5799999999999,61.456699999999998,-0.88190299999999999,51.513199999999998
217398.0,109.271,-5043.5699999999997,-4990.6300000000001,-5015.3100000000004,30.0853,-2.7510400000000002,48.637599999999999
217399.0,107.27500000000001,-4474.4499999999998,-4399.6700000000001,-4434.6499999999996,9.0450999999999997,-6.6054199999999996,48.065800000000003
217400.0,107.684,4157.8699999999999,4236.3900000000003,4200.5299999999997,7.3507499999999997,-5.7069599999999996,47.2575
217401.0,106.70099999999999,-3769.0500000000002,-3701.8400000000001,-3728.2600000000002,-3.5802,-6.4559499999999996,50.930900000000001
217402.0,128.155,-2565.8299999999999,-2503.0700000000002,-2531.0599999999999,-49.380200000000002,-7.2195799999999997,44.6706
217403.0,137.995,-1730.0599999999999,-1670.1500000000001,-1701.1300000000001,-63.112400000000001,-6.0219699999999996,37.823300000000003
217404.0,128.636,-859.49099999999999,-800.19200000000001,-833.05100000000004,-59.921500000000002,-6.04216,31.718900000000001
217405.0,108.78400000000001,-256.07299999999998,-197.36699999999999,-229.53399999999999,-49.189300000000003,-6.0018599999999998,24.9968
217406.0,90.905500000000004,53.843699999999998,100.51600000000001,74.706500000000005,-40.084499999999998,-8.6223700000000001,22.954000000000001
217407.0,78.150899999999993,264.83800000000002,314.64999999999998,288.34199999999998,-35.345300000000002,-4.73163,11.967599999999999
217408.0,82.212299999999999,648.46900000000005,684.82100000000003,663.57299999999998,-43.780299999999997,-1.3818999999999999,-0.902362
217409.0,85.316599999999994,923.83600000000001,955.45899999999995,937.11400000000003,-46.101700000000001,1.73969,-6.7653499999999998
217410.0,87.828699999999998,1140.4200000000001,1176.3900000000001,1155.72,-45.590299999999999,4.0903999999999998,-12.254799999999999
217411.0,80.735100000000003,1203.9100000000001,1254.1800000000001,1225.3099999999999,-35.470199999999998,5.12662,-15.870699999999999
217412.0,61.152000000000001,-1247.6600000000001,-1204.6500000000001,-1231.8699999999999,-23.956199999999999,1.5550999999999999,-14.0326
217413.0,69.383700000000005,812.15099999999995,875.91099999999994,839.24699999999996,-13.8133,3.0707499999999999,-19.506699999999999
217414.0,65.925299999999993,331.09500000000003,377.06099999999998,347.67099999999999,-26.239999999999998,-4.0996499999999996,-14.1943
217415.0,73.705799999999996,184.49799999999999,232.49799999999999,200.62899999999999,-33.160899999999998,-6.29101,-8.6587800000000001
217416.0,74.447100000000006,14.145200000000001,66.780900000000003,31.560600000000001,-32.8003,-5.8188500000000003,-4.3236100000000004
217417.0,65.909199999999998,60.2074,2.07091,70.250600000000006,-9.4396599999999999,-0.58091300000000001,1.9225399999999999
217418.0,422.55599999999998,2669.46,2553.0500000000002,2566.5799999999999,230.614,20.855599999999999,42.982900000000001
217419.0,312.09800000000001,4121.8999999999996,4025.1999999999998,4053.5999999999999,166.36799999999999,13.1638,46.326799999999999
217420.0,219.32499999999999,4747.8299999999999,4713.4799999999996,4721.7700000000004,114.91200000000001,6.1851000000000003,49.701900000000002
217421.0,155.93700000000001,5059.2600000000002,5084.5699999999997,5067.9899999999998,73.583699999999993,0.073927699999999999,50.255600000000001
217422.0,125.06100000000001,5148.8900000000003,5211.7799999999997,5180.6099999999997,42.941200000000002,-2.8574799999999998,48.7087
217423.0,110.63800000000001,4684.1000000000004,4767.9700000000003,4726.4700000000003,17.589600000000001,-5.0739999999999998,44.569200000000002
217424.0,109.242,3881.8000000000002,3958.8400000000001,3926.7800000000002,3.8945099999999999,-4.8728699999999998,49.409799999999997
217425.0,112.46599999999999,3470.1799999999998,3555.9099999999999,3518.4299999999998,-11.9854,-5.6576399999999998,46.8367
217426.0,124.346,2917.54,2999.3899999999999,2962.1599999999999,-36.509500000000003,-6.7544399999999998,45.783000000000001
217427.0,133.75800000000001,2251.6599999999999,2325.4400000000001,2288.7800000000002,-54.107199999999999,-6.7251700000000003,40.374400000000001
217428.0,130.52799999999999,1348.26,1405.9400000000001,1374.6500000000001,-60.461199999999998,-6.8333700000000004,33.809100000000001
217429.0,114.21599999999999,525.61599999999999,575.13900000000001,547.827,-53.247300000000003,-8.2232299999999992,28.8142
217430.0,82.175600000000003,-170.74299999999999,-119.744,-148.46299999999999,-35.034100000000002,-8.7583000000000002,17.122499999999999
217431.0,79.576499999999996,-331.27199999999999,-281.12599999999998,-309.887,-36.059100000000001,-7.7199600000000004,10.8527
217432.0,82.936899999999994,-474.05900000000003,-428.92599999999999,-456.66000000000003,-41.494300000000003,-5.7606900000000003,4.4416200000000003
217433.0,84.953199999999995,-715.01199999999994,-677.46799999999996,-701.55700000000002,-45.079700000000003,-3.2598600000000002,-1.02969
217434.0,86.628699999999995,-988.47199999999998,-956.51999999999998,-977.21500000000003,-46.776800000000001,-0.57948500000000003,-7.1023500000000004
217435.0,76.189700000000002,-1190.3599999999999,-1158.3800000000001,-1179.8399999999999,-39.226100000000002,1.19265,-11.3729
217436.0,62.7532,-1089.5899999999999,-1032.95,-1066.4200000000001,-14.702400000000001,0.652555,-16.892900000000001
217437.0,67.336600000000004,-814.48099999999999,-753.38099999999997,-788.03499999999997,-15.706,-1.0594600000000001,-18.019300000000001
217438.0,69.616600000000005,-523.34500000000003,-469.59699999999998,-500.15199999999999,-24.953700000000001,-2.1238600000000001,-16.1724
217439.0,72.351200000000006,-344.01999999999998,-296.84899999999999,-324.911,-32.318300000000001,-2.75563,-11.397
217440.0,71.204599999999999,-223.19300000000001,-174.57900000000001,-205.41499999999999,-32.338999999999999,-3.72946,-5.0279100000000003
217441.0,831.78999999999996,2813.6100000000001,2684.0900000000001,2653.9499999999998,470.07999999999998,36.956600000000002,32.984299999999998
217442.0,465.05599999999998,-1870.5999999999999,-2077.04,-2009.4400000000001,244.096,9.4347399999999997,36.645800000000001
217443.0,115.452,-3255.3299999999999,-3176.8699999999999,-3217.9899999999998,-14.7201,-8.1177700000000002,51.189900000000002
217444.0,80.879099999999994,984.99599999999998,1040.1900000000001,1009.48,-31.053999999999998,-8.6597399999999993,19.399899999999999
217445.0,82.690799999999996,309.37099999999998,400.24000000000001,366.46699999999998,5.4024000000000001,-0.30585899999999999,-11.847099999999999
217446.0,44.883299999999998,-710.50300000000004,-669.57000000000005,-680.13999999999999,-4.7297500000000001,-1.93292,-13.923500000000001
217447.0,77.588499999999996,1042.76,1092.3199999999999,1067.29,-35.127699999999997,-6.0546899999999999,11.0442
217448.0,139.77799999999999,-2049.02,-1984.0999999999999,-2014.74,-50.267899999999997,-7.9573999999999998,53.550800000000002
217449.0,254.88999999999999,-4176.1899999999996,-4277.21,-4240.0799999999999,132.29499999999999,6.1291200000000003,38.808300000000003
217450.0,329.08199999999999,-3157.77,-3294.8899999999999,-3252.0,172.221,9.0630000000000006,37.894599999999997
217451.0,176.99799999999999,-4908.75,-4942.1499999999996,-4937.2700000000004,91.458600000000004,3.6737099999999998,41.701799999999999
217452.0,119.277,-4695.6700000000001,-4668.5600000000004,-4691.3400000000001,49.845500000000001,-1.1000300000000001,45.215600000000002
217453.0,101.29000000000001,-4343.4399999999996,-4277.9799999999996,-4315.2399999999998,16.815300000000001,-3.7755000000000001,45.217199999999998
217454.0,107.637,-3933.6199999999999,-3853.75,-3896.9099999999999,-2.6788099999999999,-7.16228,46.956400000000002
217455.0,113.164,3571.48,3660.6900000000001,3611.8099999999999,-6.2662699999999996,-5.6304499999999997,46.923999999999999
217456.0,123.499,-2638.3800000000001,-2565.75,-2600.5599999999999,-28.914899999999999,-7.5888299999999997,53.5794
217457.0,158.971,-1081.8099999999999,-1016.89,-1049.3099999999999,-69.453500000000005,-6.8822599999999996,49.991
217458.0,152.69800000000001,-178.524,-114.55200000000001,-148.08199999999999,-70.386099999999999,-5.5911799999999996,41.986699999999999
217459.0,123.38200000000001,437.38,498.30900000000003,464.09699999999998,-54.498899999999999,-6.0021300000000002,33.696199999999997
217460.0,99.067300000000003,819.84000000000003,879.18399999999997,844.82399999999996,-40.913499999999999,-7.6875,25.508600000000001
217461.0,83.716099999999997,-964.00599999999997,-915.75900000000001,-941.93200000000002,-33.506900000000002,-10.5121,22.7943
217462.0,77.086100000000002,1011.02,1061.72,1034.6700000000001,-31.997199999999999,-8.6850900000000006,15.418100000000001
217463.0,72.792000000000002,1091.99,1140.1700000000001,1117.1600000000001,-33.684699999999999,-3.8870900000000002,5.9816399999999996
217464.0,70.057500000000005,1080.8599999999999,1130.75,1108.3399999999999,-31.700600000000001,-2.5871599999999999,0.210927
217465.0,70.593199999999996,1028.1800000000001,1089.1900000000001,1063.9000000000001,-26.209800000000001,-1.3934200000000001,-5.7208399999999999
217466.0,74.615300000000005,808.67899999999997,888.91399999999999,857.46299999999997,-11.312200000000001,-0.678504,-9.6393000000000004
217467.0,64.877300000000005,-784.48099999999999,-712.61400000000003,-739.41600000000005,1.7771999999999999,-3.9812799999999999,-8.0615600000000001
217468.0,73.363900000000001,-313.16699999999997,-236.12899999999999,-262.488,9.4780200000000008,-1.13385,-13.036899999999999
217469.0,51.670200000000001,-670.49000000000001,-665.404,-661.35900000000004,-26.140000000000001,-4.5106299999999999,-12.8591
217470.0,74.453900000000004,-333.20600000000002,-335.303,-330.04199999999997,-41.302100000000003,-7.2888299999999999,-9.0438299999999998
217471.0,72.745900000000006,-57.4754,-44.246000000000002,-48.388100000000001,-40.674599999999998,-6.4480199999999996,-4.7114399999999996
217472.0,81.269199999999998,46.648899999999998,-30.597300000000001,47.337899999999998,-13.895099999999999,1.0522400000000001,-0.70130899999999996
217473.0,405.34399999999999,2625.5799999999999,2509.8200000000002,2533.5799999999999,222.114,18.7807,36.642200000000003
217474.0,286.63600000000002,3522.8600000000001,3427.1199999999999,3466.9000000000001,154.143,9.1328099999999992,35.068800000000003
217475.0,197.756,4487.1899999999996,4456.04,4467.0600000000004,106.669,4.3737300000000001,37.266800000000003
217476.0,136.73400000000001,4771.0900000000001,4806.1000000000004,4781.4300000000003,65.107500000000002,0.39401599999999998,40.8566
217477.0,113.05800000000001,4397.8699999999999,4473.1400000000003,4430.04,29.3263,-2.9735399999999998,44.332700000000003
217478.0,107.20099999999999,4090.0500000000002,4179.4499999999998,4130.1499999999996,6.7045300000000001,-4.8075200000000002,41.923200000000001
217479.0,121.319,2914.9299999999998,3002.6300000000001,2956.6199999999999,-18.696200000000001,-5.3053299999999997,51.031100000000002
217480.0,131.40600000000001,2413.52,2499.29,2457.1399999999999,-35.2973,-5.7656700000000001,51.3566
217481.0,152.84999999999999,1693.78,1774.26,1734.28,-58.700899999999997,-7.1360400000000004,51.688400000000001
217482.0,154.75,664.01900000000001,728.91200000000003,696.0,-69.001499999999993,-7.7155300000000002,45.923099999999998
217483.0,129.83799999999999,-153.49299999999999,-104.488,-130.518,-59.639400000000002,-8.2821300000000004,37.318800000000003
217484.0,104.45099999999999,-663.33100000000002,-615.51800000000003,-642.14400000000001,-45.459200000000003,-10.0618,29.9146
217485.0,78.699799999999996,-1030.8399999999999,-977.99800000000005,-1005.3200000000001,-30.7851,-10.104900000000001,17.786100000000001
217486.0,80.334299999999999,-1010.15,-958.13599999999997,-984.99199999999996,-34.245399999999997,-9.1064799999999995,14.7988
217487.0,75.315799999999996,-1059.95,-1011.64,-1036.27,-33.958199999999998,-7.27461,10.055199999999999
217488.0,71.679000000000002,-1087.26,-1040.53,-1063.4200000000001,-32.963700000000003,-7.0682,5.4839599999999997
217489.0,66.847499999999997,-1084.5,-1037.52,-1058.3,-29.910299999999999,-6.37418,-0.13925000000000001
217490.0,56.535899999999998,-1054.2,-1000.75,-1021.17,-16.9252,-4.8085699999999996,-5.3161399999999999
217491.0,81.302300000000002,-194.88300000000001,-106.675,-140.80000000000001,10.2525,-3.9665499999999998,-10.2066
217492.0,74.790700000000001,472.334,554.43100000000004,521.61500000000001,-1.35432,-4.4412000000000003,-11.6365
217493.0,63.829900000000002,818.32399999999996,867.04499999999996,848.322,-23.802,-3.9136500000000001,-13.1228
217494.0,74.825100000000006,678.91800000000001,689.55899999999997,688.27800000000002,-41.161200000000001,-4.2567199999999996,-10.961600000000001
217495.0,71.701499999999996,271.76999999999998,271.58600000000001,274.68700000000001,-40.795000000000002,-4.3557699999999997,-5.2410899999999998
217496.0,821.68799999999999,2698.77,2577.2399999999998,2538.1500000000001,466.26799999999997,24.6845,5.0062199999999999
217497.0,452.65199999999999,-1576.01,-1774.3099999999999,-1708.02,238.46700000000001,8.6042400000000008,34.147100000000002
217498.0,133.584,-2413.5100000000002,-2328.3400000000001,-2379.8400000000001,-37.181100000000001,-9.7929899999999996,51.281500000000001
217499.0,71.373099999999994,1538.1500000000001,1593.22,1556.1099999999999,-25.873200000000001,-7.7736900000000002,13.4031
217500.0,92.681799999999996,-345.26999999999998,-248.215,-276.44299999999998,17.4727,-6.8574099999999998,-4.3260399999999999
217501.0,38.868600000000001,-1284.6600000000001,-1250.7,-1244.73,-0.18509,-3.9005000000000001,-4.9452400000000001
217502.0,82.431899999999999,1654.6600000000001,1708.8099999999999,1679.53,-37.5182,-8.5375700000000005,7.0488900000000001
217503.0,169.59800000000001,-548.27300000000002,-475.92200000000003,-518.67999999999995,-71.558099999999996,-8.0175800000000006,55.496600000000001
217504.0,234.50299999999999,-4127.6599999999999,-4220.8599999999997,-4187.2299999999996,120.652,6.5007200000000003,38.775799999999997
217505.0,317.03399999999999,-3254.1700000000001,-3386.6399999999999,-3342.4699999999998,164.16999999999999,12.847300000000001,42.862200000000001
217506.0,154.11000000000001,-4285.9799999999996,-4309.4799999999996,-4309.6899999999996,80.644499999999994,1.46231,35.001399999999997
217507.0,101.384,-4430.3199999999997,-4395.3800000000001,-4425.1099999999997,40.610399999999998,-1.6179600000000001,37.670299999999997
217508.0,98.170699999999997,-3915.4000000000001,-3841.3899999999999,-3889.2800000000002,3.1500699999999999,-4.5042299999999997,42.109999999999999
217509.0,116.721,-3074.6100000000001,-2988.3600000000001,-3041.9000000000001,-19.898900000000001,-8.4856200000000008,46.664900000000003
217510.0,125.267,2717.8200000000002,2816.02,2756.6500000000001,-25.556100000000001,-6.5528199999999996,45.703800000000001
217511.0,152.92400000000001,-1580.6600000000001,-1500.77,-1547.0699999999999,-54.685899999999997,-9.4578299999999995,55.733199999999997
217512.0,176.59100000000001,324.39699999999999,397.63099999999997,353.39400000000001,-80.708399999999997,-7.2666700000000004,49.679299999999998
217513.0,150.15199999999999,1127.6900000000001,1200.95,1156.8399999999999,-66.685199999999995,-6.4049800000000001,40.831400000000002
217514.0,107.254,1559.71,1628.3599999999999,1585.8499999999999,-41.148800000000001,-4.8622100000000001,30.285699999999999
217515.0,81.047499999999999,1604.6600000000001,1667.8599999999999,1626.54,-26.879000000000001,-5.6988799999999999,20.115200000000002
217516.0,74.373699999999999,-1571.3299999999999,-1512.75,-1550.6199999999999,-23.898199999999999,-9.7062299999999997,17.2087
217517.0,77.596800000000002,1564.4200000000001,1614.01,1582.3399999999999,-34.8902,-8.7490000000000006,9.0939999999999994
217518.0,72.095699999999994,1579.71,1642.6700000000001,1613.23,-26.182500000000001,-5.90259,4.4636800000000001
217519.0,68.0351,1317.51,1390.28,1359.6400000000001,-13.8309,-4.0531300000000003,-0.43017300000000003
217520.0,74.501000000000005,904.875,988.45699999999999,957.21600000000001,-4.6458399999999997,-4.94069,-4.5326899999999997
217521.0,87.120400000000004,336.90899999999999,433.471,401.00200000000001,6.66716,-6.2127400000000002,-5.7048399999999999
217522.0,86.761600000000001,-189.26900000000001,-96.809899999999999,-127.386,15.1134,-6.78674,-3.9838900000000002
217523.0,74.465999999999994,-971.85400000000004,-897.46699999999998,-911.79899999999998,15.7903,-5.4842700000000004,-3.37418
217524.0,45.085799999999999,-1178.6600000000001,-1192.3,-1165.3800000000001,-20.503499999999999,-4.4387499999999998,-7.5028699999999997
217525.0,80.225800000000007,-682.90200000000004,-716.37300000000005,-684.16300000000001,-40.817599999999999,-7.32165,-8.1121099999999995
217526.0,83.951800000000006,-113.235,-130.97499999999999,-109.81100000000001,-46.1374,-7.4215600000000004,-6.0416699999999999
217527.0,88.819199999999995,35.749899999999997,-50.814599999999999,26.648599999999998,-19.1172,-0.18731999999999999,1.1456500000000001
217528.0,394.48399999999998,2475.4899999999998,2361.8499999999999,2388.3400000000001,215.93100000000001,17.156600000000001,37.642499999999998
217529.0,271.32299999999998,3680.5900000000001,3592.3099999999999,3630.5700000000002,145.19900000000001,10.7448,37.152500000000003
217530.0,173.40100000000001,4031.1100000000001,4007.1900000000001,4017.5999999999999,93.754900000000006,3.6421000000000001,32.795400000000001
217531.0,115.902,4217.1199999999999,4256.4200000000001,4231.3000000000002,55.472200000000001,0.185526,31.696300000000001
217532.0,104.20699999999999,4175.0900000000001,4259.2200000000003,4208.9700000000003,19.325800000000001,-2.2558600000000002,38.068199999999997
217533.0,111.086,3430.3499999999999,3527.4899999999998,3469.02,-7.3782300000000003,-4.9242100000000004,40.532800000000002
217534.0,142.50899999999999,2087.52,2182.6599999999999,2127.1300000000001,-42.674799999999998,-6.8007900000000001,51.167400000000001
217535.0,160.38800000000001,1150.0899999999999,1238.3299999999999,1187.8199999999999,-59.286000000000001,-7.2099200000000003,55.208100000000002
217536.0,174.67599999999999,232.50899999999999,312.32499999999999,265.22500000000002,-75.885999999999996,-8.3699600000000007,52.268000000000001
217537.0,159.20500000000001,-643.19399999999996,-581.23400000000004,-619.43899999999996,-73.156099999999995,-9.2219800000000003,45.1083
217538.0,116.788,-1372.9400000000001,-1322.1099999999999,-1354.6800000000001,-49.935000000000002,-9.0078999999999994,36.177799999999998
217539.0,85.1096,-1621.8599999999999,-1566.6199999999999,-1602.8299999999999,-30.023900000000001,-8.9123000000000001,25.422499999999999
217540.0,79.023499999999999,-1509.3199999999999,-1451.72,-1486.5899999999999,-31.4758,-10.3002,11.970499999999999
217541.0,82.787000000000006,-1590.6900000000001,-1541.3099999999999,-1567.8299999999999,-38.9208,-9.5386399999999991,8.2572700000000001
217542.0,69.159899999999993,-1678.1900000000001,-1632.5899999999999,-1652.8499999999999,-30.951000000000001,-8.3532100000000007,6.68405
217543.0,59.3217,-1544.0899999999999,-1488.8399999999999,-1511.52,-18.468900000000001,-7.2564500000000001,2.8143600000000002
217544.0,62.589199999999998,-1232.3399999999999,-1164.72,-1190.5999999999999,-9.0201700000000002,-7.5557400000000001,-1.76071
217545.0,70.717399999999998,-785.85199999999998,-707.41399999999999,-734.73099999999999,1.9463200000000001,-7.8990900000000002,-3.9339900000000001
217546.0,92.936099999999996,528.82399999999996,627.46600000000001,596.50999999999999,17.1873,-5.8331799999999996,-2.15517
217547.0,74.067899999999995,1160.9400000000001,1242.6900000000001,1220.6400000000001,2.7622499999999999,-5.1038199999999998,-2.4833500000000002
217548.0,52.956200000000003,1425.1700000000001,1467.77,1463.8199999999999,-18.035599999999999,-5.6011699999999998,-4.9014499999999996
217549.0,73.856800000000007,1255.3199999999999,1250.02,1266.55,-40.539900000000003,-7.3133100000000004,-7.0760199999999998
217550.0,86.986900000000006,658.22400000000005,628.64499999999998,654.50300000000004,-46.605400000000003,-7.8673200000000003,-5.3582400000000003
217551.0,805.51999999999998,2494.3200000000002,2384.1900000000001,2339.0999999999999,457.37,19.0031,-19.056699999999999
217552.0,437.005,-1688.1300000000001,-1872.6500000000001,-1817.4200000000001,232.209,3.08596,27.535
217553.0,155.78100000000001,-1482.2,-1391.25,-1451.21,-58.369300000000003,-12.0929,48.969999999999999
217554.0,57.109699999999997,1794.8499999999999,1857.0,1815.73,-9.1094899999999992,-1.9319500000000001,0.20832800000000001
217555.0,73.050799999999995,-486.46199999999999,-407.15899999999999,-434.01600000000002,7.1228199999999999,-10.0603,-0.21071400000000001
217556.0,39.941099999999999,-1024.3800000000001,-991.26499999999999,-988.84199999999998,-7.2619999999999996,-8.2057099999999998,4.1884499999999996
217557.0,81.492099999999994,1603.51,1659.26,1624.1400000000001,-36.2316,-7.52067,-7.0419299999999998
217558.0,192.62899999999999,582.09400000000005,663.55200000000002,610.38499999999999,-89.131299999999996,-10.2385,51.078899999999997
217559.0,217.51499999999999,-3864.02,-3947.8400000000001,-3926.3800000000001,113.072,7.5067599999999999,32.148099999999999
217560.0,303.94799999999998,-2988.7399999999998,-3110.1500000000001,-3078.6199999999999,159.61099999999999,9.8127300000000002,35.405700000000003
217561.0,135.46199999999999,-4271.75,-4287.5699999999997,-4291.6700000000001,71.3262,3.3033899999999998,30.127099999999999
217562.0,87.319400000000002,-3855.7600000000002,-3816.1500000000001,-3848.5900000000001,31.452999999999999,-2.09388,33.201599999999999
217563.0,100.241,-3331.25,-3250.5500000000002,-3307.5900000000001,-10.9765,-6.3370300000000004,38.314
217564.0,130.55699999999999,-2603.9899999999998,-2510.2399999999998,-2574.4400000000001,-38.250700000000002,-9.2005999999999997,42.857399999999998
217565.0,141.11600000000001,2071.0,2175.7600000000002,2108.5999999999999,-44.990200000000002,-7.6937800000000003,41.691699999999997
217566.0,182.44499999999999,-397.12799999999999,-310.41300000000001,-366.637,-78.748800000000003,-12.1602,53.020499999999998
217567.0,176.285,1662.0599999999999,1742.0699999999999,1691.8,-82.214500000000001,-9.0968699999999991,43.377800000000001
217568.0,135.178,2285.5100000000002,2363.9899999999998,2315.9699999999998,-58.033900000000003,-7.1031700000000004,33.273600000000002
217569.0,91.471599999999995,2379.2800000000002,2456.3499999999999,2409.1399999999999,-27.983699999999999,-3.6206100000000001,21.9742
217570.0,67.584999999999994,2144.5300000000002,2217.0799999999999,2171.4400000000001,-8.5355600000000003,-1.5167600000000001,10.1144
217571.0,62.639499999999998,-2019.03,-1950.46,-1992.79,-5.3611399999999998,-6.0842000000000001,6.7159500000000003
217572.0,66.743200000000002,1603.3,1656.74,1620.3399999999999,-26.070799999999998,-5.0822700000000003,-5.8352500000000003
217573.0,78.855400000000003,1575.4300000000001,1648.1900000000001,1608.8,-25.823499999999999,-6.1380499999999998,-6.4476699999999996
217574.0,76.608000000000004,1225.8599999999999,1312.3599999999999,1270.98,-4.3114600000000003,-5.5381799999999997,-5.9360499999999998
217575.0,82.266599999999997,638.12699999999995,730.59900000000005,689.50599999999997,5.6515300000000002,-6.71753,-5.6821299999999999
217576.0,82.474000000000004,43.976199999999999,135.41399999999999,98.141199999999998,7.6180700000000003,-8.8767499999999995,-4.05938
217577.0,81.777100000000004,115.508,207.078,169.59399999999999,7.35379,-6.9743000000000004,-2.69075
217578.0,56.788800000000002,-859.74400000000003,-800.30799999999999,-813.21900000000005,0.73391799999999996,-9.2610600000000005,3.37242
217579.0,39.023299999999999,-948.44000000000005,-953.02800000000002,-932.61800000000005,-18.488499999999998,-6.9944600000000001,1.4867300000000001
217580.0,69.569599999999994,-581.79399999999998,-609.30399999999997,-581.82600000000002,-36.145899999999997,-7.1699000000000002,-1.8441399999999999
217581.0,84.362099999999998,-81.133399999999995,-102.783,-82.735900000000001,-46.306199999999997,-8.7226499999999998,-2.5380500000000001
217582.0,86.924800000000005,-47.286099999999998,-125.449,-51.301299999999998,-23.839300000000001,2.2910599999999999,2.7996099999999999
217583.0,380.94999999999999,2404.3400000000001,2298.1399999999999,2318.4499999999998,209.553,12.7784,33.472299999999997
217584.0,259.81200000000001,3344.0599999999999,3266.7199999999998,3290.5900000000001,140.892,9.5368200000000005,31.4801
217585.0,155.465,3979.3800000000001,3965.8099999999999,3966.5599999999999,84.310500000000005,4.7773700000000003,29.4483
217586.0,101.39100000000001,3911.1500000000001,3953.52,3929.04,46.5428,1.5136700000000001,28.383800000000001
217587.0,99.341800000000006,3455.73,3546.54,3491.52,9.47227,-2.00285,33.217199999999998
217588.0,118.73999999999999,2948.6500000000001,3053.3600000000001,2986.9400000000001,-23.0032,-5.16092,36.564599999999999
217589.0,168.44300000000001,982.53999999999996,1084.0599999999999,1021.24,-65.453000000000003,-9.2310499999999998,49.629600000000003
217590.0,186.05000000000001,45.542999999999999,136.672,78.591899999999995,-81.822599999999994,-9.5171399999999995,51.2286
217591.0,182.28,-999.59500000000003,-924.13199999999995,-973.32399999999996,-85.915899999999993,-10.6273,45.972200000000001
217592.0,147.74700000000001,-1990.6700000000001,-1930.3399999999999,-1969.5599999999999,-68.9559,-11.0961,38.2226
217593.0,98.588200000000001,-2401.3800000000001,-2347.1199999999999,-2382.1799999999998,-39.656199999999998,-9.1589500000000008,28.748100000000001
217594.0,65.624099999999999,-2344.02,-2284.02,-2321.96,-13.714600000000001,-6.6818900000000001,16.7822
217595.0,70.753,-1661.49,-1591.24,-1634.1700000000001,-18.9269,-7.3892699999999998,-1.3110599999999999
217596.0,80.874399999999994,-1544.75,-1486.26,-1521.4100000000001,-34.762300000000003,-8.5209600000000005,-5.6755800000000001
217597.0,72.963999999999999,-1618.3499999999999,-1568.5699999999999,-1596.4100000000001,-32.456000000000003,-7.5052700000000003,-6.5050400000000002
217598.0,58.088900000000002,-1557.21,-1496.9000000000001,-1526.52,-11.472799999999999,-5.1030300000000004,-7.57782
217599.0,72.320400000000006,-1096.0,-1014.61,-1052.0599999999999,2.49071,-5.5332400000000002,-6.8358499999999998
217600.0,82.189499999999995,-466.48200000000003,-374.26100000000002,-415.48599999999999,6.4157000000000002,-6.3770699999999998,-5.9789899999999996
217601.0,72.950100000000006,639.28099999999995,720.81299999999999,692.45399999999995,1.8554600000000001,-7.2719300000000002,2.09761
217602.0,59.1038,981.89400000000001,1044.3499999999999,1028.5999999999999,-5.84422,-7.3891299999999998,4.5460900000000004
217603.0,49.389699999999998,1131.0,1168.71,1165.8800000000001,-16.681899999999999,-8.5362399999999994,4.5743900000000002
217604.0,65.023200000000003,1047.28,1049.8099999999999,1061.77,-35.402700000000003,-9.6994100000000003,1.42408
217605.0,85.226900000000001,629.70399999999995,607.80600000000004,626.91600000000005,-46.618499999999997,-10.1577,-1.63232
217606.0,786.774,2468.27,2371.0100000000002,2319.1199999999999,445.83600000000001,14.688599999999999,-40.243200000000002
217607.0,417.78899999999999,-1450.9300000000001,-1619.4300000000001,-1577.8099999999999,223.70699999999999,-2.8491399999999998,20.621500000000001
217608.0,178.291,-845.11199999999997,-753.28700000000003,-816.88300000000004,-76.417599999999993,-14.8376,48.207299999999996
217609.0,72.422300000000007,1823.1199999999999,1899.3299999999999,1857.4300000000001,16.9041,1.5370900000000001,1.84735
217610.0,58.124899999999997,-433.58300000000003,-372.38299999999998,-405.20699999999999,-8.5441400000000005,-9.5366800000000005,-4.9205699999999997
217611.0,51.090899999999998,-526.46100000000001,-492.94299999999998,-508.54599999999999,-22.9864,-7.7193800000000001,-0.90510800000000002
217612.0,70.721500000000006,1019.61,1080.29,1041.72,-22.587499999999999,-4.3750900000000001,-13.9535
217613.0,216.398,1862.4400000000001,1950.6900000000001,1894.1800000000001,-103.879,-14.762499999999999,51.015799999999999
217614.0,207.321,-3711.4699999999998,-3788.9899999999998,-3770.46,109.27200000000001,8.4443599999999996,26.0107
217615.0,284.584,-2962.0300000000002,-3071.3099999999999,-3046.71,151.46000000000001,5.64133,27.1663
217616.0,130.815,-3769.1100000000001,-3782.25,-3792.4699999999998,68.437799999999996,4.8858600000000001,29.317
217617.0,81.078299999999999,-3787.1999999999998,-3742.3499999999999,-3785.1100000000001,21.726500000000001,-1.16933,32.821199999999997
217618.0,112.194,-3008.8200000000002,-2921.04,-2985.6999999999998,-24.7852,-7.1595800000000001,38.213799999999999
217619.0,146.28299999999999,-1830.5899999999999,-1733.1700000000001,-1799.71,-52.215499999999999,-10.4498,42.647799999999997
217620.0,156.607,1314.3,1421.3699999999999,1352.9200000000001,-58.874699999999997,-8.9650099999999995,41.0931
217621.0,217.114,431.20100000000002,522.83600000000001,460.82100000000003,-102.357,-16.343699999999998,52.7455
217622.0,177.49299999999999,2720.9499999999998,2804.3099999999999,2753.4299999999998,-80.937899999999999,-13.114000000000001,44.865600000000001
217623.0,130.65000000000001,3156.6300000000001,3237.7800000000002,3190.8299999999999,-51.4253,-9.9224200000000007,35.875700000000002
217624.0,91.219700000000003,3129.1500000000001,3213.98,3167.6599999999999,-17.481100000000001,-4.3101000000000003,25.4008
217625.0,79.509399999999999,2588.5,2673.04,2627.6799999999998,11.413399999999999,0.33722200000000002,13.676
217626.0,76.986599999999996,-2348.3099999999999,-2269.8099999999999,-2312.0500000000002,18.153199999999998,-3.4987200000000001,9.4895800000000001
217627.0,58.467500000000001,1241.3399999999999,1306.3299999999999,1267.55,-2.4673799999999999,-0.65968400000000005,-7.99512
217628.0,80.000500000000002,949.13199999999995,1020.27,977.70500000000004,-24.351199999999999,-6.9122000000000003,-14.5265
217629.0,75.724800000000002,714.12099999999998,794.75800000000004,749.00699999999995,-9.7040600000000001,-6.0507799999999996,-12.0509
217630.0,77.091099999999997,303.64400000000001,389.99200000000002,342.05200000000002,-1.53104,-5.1313500000000003,-8.9873499999999993
217631.0,71.031099999999995,-129.56100000000001,-50.033700000000003,-93.720799999999997,-0.48899900000000002,-6.9409799999999997,-6.8631200000000003
217632.0,72.810699999999997,195.238,276.44999999999999,232.517,-5.9489400000000003,-5.8326399999999996,-6.7240900000000003
217633.0,55.338500000000003,-528.43299999999999,-482.73000000000002,-505.51299999999998,-19.795300000000001,-10.0101,-2.5547300000000002
217634.0,48.771900000000002,-465.02100000000002,-450.97800000000001,-458.26400000000001,-26.814800000000002,-4.8316800000000004,-1.08979
217635.0,64.983800000000002,-275.82799999999997,-273.36200000000002,-278.60700000000003,-37.244599999999998,-2.7946499999999999,-2.4035700000000002
217636.0,78.912300000000002,-32.512099999999997,-29.9832,-40.230400000000003,-44.9741,-4.1083800000000004,-2.7697600000000002
217637.0,81.141599999999997,-18.0943,-78.151200000000003,1.7459,-20.785699999999999,-3.4994100000000001,4.4379200000000001
217638.0,359.61599999999999,2232.6100000000001,2138.1999999999998,2152.1300000000001,199.22200000000001,7.7865200000000003,27.5716
217639.0,243.74299999999999,3327.0799999999999,3254.3099999999999,3277.5900000000001,133.29900000000001,7.8512199999999996,24.332000000000001
217640.0,152.42099999999999,3577.3600000000001,3566.8099999999999,3562.1900000000001,83.299599999999998,6.4181900000000001,26.525200000000002
217641.0,102.327,3655.2600000000002,3706.3600000000001,3669.6300000000001,42.915599999999998,2.8636499999999998,30.756499999999999
217642.0,104.797,3425.1399999999999,3526.02,3458.71,-2.7160099999999998,-1.6799999999999999,31.805700000000002
217643.0,131.423,2340.5900000000001,2448.8800000000001,2379.6199999999999,-37.046399999999998,-5.7282900000000003,36.663899999999998
217644.0,198.613,372.88099999999997,481.41899999999998,411.488,-87.172799999999995,-12.0433,48.764600000000002
217645.0,214.99000000000001,-1065.53,-976.58699999999999,-1033.74,-103.486,-13.896800000000001,49.728499999999997
217646.0,188.77199999999999,-2296.8099999999999,-2229.7600000000002,-2272.7600000000002,-92.079400000000007,-14.832700000000001,45.006799999999998
217647.0,143.48599999999999,-2957.1500000000001,-2898.5700000000002,-2934.04,-64.911199999999994,-14.4003,39.639499999999998
217648.0,94.052400000000006,-3244.3800000000001,-3188.6100000000001,-3220.3000000000002,-33.022199999999998,-10.9209,30.925699999999999
217649.0,65.387600000000006,-3046.1599999999999,-2983.5999999999999,-3017.3800000000001,1.17296,-6.1093500000000001,20.1464
217650.0,77.564499999999995,-1553.1199999999999,-1465.0799999999999,-1513.8299999999999,6.76675,-3.7603300000000002,-0.54455100000000001
217651.0,76.818600000000004,-1086.1199999999999,-1007.02,-1054.1600000000001,-16.247399999999999,-5.6825799999999997,-9.3474599999999999
217652.0,78.086500000000001,-985.28099999999995,-920.81200000000001,-961.20899999999995,-26.7225,-6.7313900000000002,-14.5534
217653.0,66.525499999999994,-955.71299999999997,-892.02300000000002,-930.55100000000004,-14.4322,-4.9709300000000001,-14.601599999999999
217654.0,70.526300000000006,-657.298,-580.51099999999997,-625.00699999999995,-4.0799000000000003,-2.8153999999999999,-12.122400000000001
217655.0,76.119699999999995,-229.34700000000001,-144.11600000000001,-191.982,0.073639499999999997,-3.1708500000000002,-9.8001299999999993
217656.0,64.566299999999998,461.10599999999999,524.19200000000001,492.02499999999998,-17.990400000000001,-7.4282000000000004,-3.9577100000000001
217657.0,55.604799999999997,509.78899999999999,554.49599999999998,533.31200000000001,-22.0031,-6.5730199999999996,-1.78104
217658.0,53.398299999999999,525.43600000000004,559.05799999999999,543.13,-25.3001,-5.2439600000000004,-0.045296599999999999
217659.0,65.0625,494.20800000000003,511.452,500.66000000000003,-36.201599999999999,-4.9521800000000002,-0.23794199999999999
217660.0,78.297399999999996,297.69499999999999,304.23099999999999,293.27800000000002,-44.522399999999998,-4.7956799999999999,-2.8078799999999999
217661.0,764.16200000000003,2377.1700000000001,2296.4000000000001,2237.9099999999999,431.62700000000001,4.8020300000000002,-58.593699999999998
217662.0,396.85899999999998,-1637.77,-1790.1199999999999,-1762.5,213.69,-3.26126,15.387
217663.0,206.83000000000001,-204.41800000000001,-107.123,-180.32300000000001,-94.003299999999996,-17.697299999999998,50.420400000000001
217664.0,103.517,2163.6500000000001,2256.4099999999999,2209.2800000000002,35.119300000000003,2.35589,13.4787
217665.0,57.936199999999999,-534.995,-480.94900000000001,-520.27999999999997,-15.224299999999999,-10.198,-1.53477
217666.0,80.122399999999999,-318.70999999999998,-294.07299999999998,-319.65800000000002,-40.570099999999996,-15.507400000000001,6.5605399999999996
217667.0,65.017799999999994,576.09299999999996,650.37300000000005,608.84199999999998,3.6112299999999999,-1.3517999999999999,-2.90272
217668.0,237.46799999999999,2628.9099999999999,2724.1199999999999,2658.8000000000002,-114.441,-20.6296,53.890599999999999
217669.0,198.73099999999999,-3339.6599999999999,-3408.4099999999999,-3396.8000000000002,106.518,6.7639199999999997,20.459399999999999
217670.0,266.25599999999997,-2576.5500000000002,-2673.0100000000002,-2656.54,142.66200000000001,5.6533199999999999,24.168099999999999
217671.0,124.328,-3846.6500000000001,-3854.29,-3877.3299999999999,66.294200000000004,3.29345,22.171700000000001
217672.0,75.352199999999996,-3342.8400000000001,-3291.3600000000001,-3346.1999999999998,15.4445,0.094515600000000005,26.629899999999999
217673.0,118.642,-2583.6900000000001,-2491.5100000000002,-2565.9200000000001,-32.154499999999999,-6.8400600000000003,34.918799999999997
217674.0,164.721,-1618.1099999999999,-1515.76,-1593.24,-64.0471,-13.710800000000001,43.646500000000003
217675.0,181.417,994.15999999999997,1109.8499999999999,1029.5599999999999,-73.355000000000004,-11.4466,44.096699999999998
217676.0,247.322,1305.0599999999999,1403.45,1332.3699999999999,-119.416,-20.716200000000001,55.859699999999997
217677.0,187.161,3689.73,3777.54,3719.3099999999999,-84.642200000000003,-18.4512,46.646500000000003
217678.0,137.15700000000001,4081.5500000000002,4168.0900000000001,4114.2399999999998,-51.604999999999997,-15.06,38.353999999999999
217679.0,101.53100000000001,3882.0999999999999,3974.1999999999998,3923.2600000000002,-15.8718,-9.5370000000000008,31.056000000000001
217680.0,98.087199999999996,3185.5100000000002,3280.7800000000002,3232.1700000000001,20.439,-2.4083600000000001,22.677199999999999
217681.0,97.105999999999995,-2877.0900000000001,-2791.6700000000001,-2837.1500000000001,30.9133,-2.5035099999999999,18.831199999999999
217682.0,84.822000000000003,1219.46,1303.8099999999999,1259.6099999999999,24.301600000000001,2.3349600000000001,4.6758699999999997
217683.0,65.403000000000006,267.31400000000002,335.87900000000002,294.32400000000001,-12.5883,-6.4269699999999998,-5.7590700000000004
217684.0,69.989800000000002,140.71299999999999,210.65199999999999,166.19,-17.075299999999999,-7.8587899999999999,-5.1581299999999999
217685.0,71.893500000000003,-12.641500000000001,64.402199999999993,15.700900000000001,-11.774900000000001,-7.2362000000000002,-3.6617099999999998
217686.0,67.267600000000002,-293.916,-219.994,-268.12900000000002,-6.5250500000000002,-7.0468299999999999,-2.8860199999999998
217687.0,70.188299999999998,286.76999999999998,362.21199999999999,313.85199999999998,-11.409599999999999,-6.6900500000000003,-2.5706500000000001
217688.0,68.599000000000004,-515.82500000000005,-482.64699999999999,-511.435,-31.734100000000002,-15.212899999999999,2.30789
217689.0,79.756699999999995,-138.59299999999999,-112.38,-142.42099999999999,-40.9861,-10.6776,7.6891800000000003
217690.0,82.394400000000005,-43.366900000000001,-9.3214400000000008,-48.154200000000003,-41.765799999999999,-5.4540100000000002,6.3628099999999996
217691.0,85.819599999999994,-33.225200000000001,3.0318499999999999,-41.007199999999997,-43.160699999999999,-4.1747899999999998,4.7222
217692.0,72.036799999999999,59.098799999999997,12.658200000000001,92.112300000000005,-11.2567,-1.1165799999999999,2.9233899999999999
217693.0,337.25099999999998,2132.1700000000001,2049.75,2058.1399999999999,187.774,6.2356699999999998,23.613399999999999
217694.0,229.184,2775.4499999999998,2708.4299999999998,2728.0100000000002,125.82899999999999,7.7563899999999997,20.682300000000001
217695.0,150.05500000000001,3526.8400000000001,3520.4200000000001,3506.8800000000001,83.371600000000001,6.0302100000000003,20.360199999999999
217696.0,100.16,3572.3000000000002,3634.21,3580.1599999999999,39.368600000000001,3.0037400000000001,25.478999999999999
217697.0,107.468,2880.3000000000002,2986.1199999999999,2909.2800000000002,-8.5317000000000007,-1.2289399999999999,28.0152
217698.0,144.43799999999999,2113.1700000000001,2229.9099999999999,2147.1599999999999,-44.729300000000002,-7.29955,35.989600000000003
217699.0,227.25299999999999,-435.94099999999997,-322.53100000000001,-400.58100000000002,-105.477,-15.505000000000001,49.814700000000002
217700.0,239.262,-1862.6600000000001,-1772.8399999999999,-1834.5799999999999,-117.777,-19.778700000000001,52.039099999999998
217701.0,200.81399999999999,-3158.54,-3092.8400000000001,-3138.4699999999998,-98.626800000000003,-20.424700000000001,46.5199
217702.0,148.96199999999999,-3970.46,-3910.6300000000001,-3950.8600000000001,-67.491900000000001,-18.4068,39.651800000000001
217703.0,100.401,-4115.04,-4054.6999999999998,-4091.7800000000002,-33.924900000000001,-14.2807,32.8461
217704.0,74.944000000000003,-3736.3099999999999,-3670.4499999999998,-3706.8800000000001,5.1226200000000004,-8.1766100000000002,26.282800000000002
217705.0,103.96599999999999,-1801.8099999999999,-1700.3299999999999,-1754.8900000000001,29.815300000000001,-0.889208,11.561199999999999
217706.0,89.492400000000004,-931.62800000000004,-831.65999999999997,-886.673,11.762499999999999,-3.38313,3.6036100000000002
217707.0,77.977400000000003,-425.40600000000001,-338.09899999999999,-389.178,-7.2158499999999997,-6.5887500000000001,-2.7141700000000002
217708.0,71.643799999999999,-247.43299999999999,-174.27199999999999,-219.96299999999999,-16.127400000000002,-8.1040899999999993,-4.4018199999999998
217709.0,65.567700000000002,-194.79499999999999,-127.253,-170.91,-13.696,-6.5520800000000001,-5.4298500000000001
217710.0,66.1113,-36.003599999999999,37.065899999999999,-9.3834300000000006,-6.20573,-5.4036400000000002,-4.6516700000000002
217711.0,73.865499999999997,506.49299999999999,564.91899999999998,524.35699999999997,-28.430099999999999,-10.654999999999999,0.76706200000000002
217712.0,78.888900000000007,418.25999999999999,452.31400000000002,423.70800000000003,-39.177300000000002,-13.317,5.2603400000000002
217713.0,77.462800000000001,202.821,225.74700000000001,200.268,-40.206699999999998,-11.3573,7.5963700000000003
217714.0,78.140000000000001,42.744599999999998,68.013400000000004,37.488999999999997,-40.701799999999999,-7.7343900000000003,7.2469900000000003
217715.0,82.789900000000003,-39.170999999999999,-4.7961400000000003,-44.630200000000002,-42.074199999999998,-5.0058600000000002,4.8021799999999999
217716.0,735.44600000000003,2205.9200000000001,2145.9499999999998,2080.5300000000002,413.68299999999999,-4.2619800000000003,-72.171499999999995
217717.0,377.28800000000001,-1291.1099999999999,-1427.76,-1412.8299999999999,204.22200000000001,-1.80809,10.9572
217718.0,227.13,110.557,215.14099999999999,130.89400000000001,-108.889,-20.939299999999999,42.731000000000002
217719.0,115.955,3170.8200000000002,3273.4699999999998,3222.0999999999999,31.2288,-2.52868,29.4239
217720.0,63.551200000000001,-615.07299999999998,-565.10000000000002,-610.88699999999994,-19.217300000000002,-13.3711,5.4417499999999999
217721.0,110.09,-179.06100000000001,-165.506,-199.24000000000001,-55.498699999999999,-21.5382,14.4148
217722.0,99.7804,1019.27,1113.6300000000001,1063.79,28.6892,1.0219800000000001,16.318100000000001
217723.0,247.554,3299.9299999999998,3399.1999999999998,3325.1599999999999,-121.977,-26.169799999999999,46.925699999999999
217724.0,182.428,-3265.9299999999998,-3325.0999999999999,-3320.6799999999998,99.320999999999998,3.6645400000000001,11.354699999999999
217725.0,249.50200000000001,-2608.0700000000002,-2692.9699999999998,-2685.8600000000001,135.02199999999999,3.3649,17.020199999999999
217726.0,114.161,-3290.3699999999999,-3294.6300000000001,-3320.02,62.367899999999999,4.7299699999999998,13.2334
217727.0,69.769300000000001,-3280.3000000000002,-3228.9899999999998,-3284.8299999999999,15.2966,1.4446699999999999,20.6008
217728.0,113.997,-2518.4400000000001,-2428.7800000000002,-2506.04,-34.2866,-6.4235600000000002,27.475300000000001
217729.0,173.631,-1232.3399999999999,-1128.77,-1214.5999999999999,-74.233400000000003,-15.3599,35.137599999999999
217730.0,199.52500000000001,641.81299999999999,766.04100000000005,673.80399999999997,-86.577200000000005,-14.1302,37.604799999999997
217731.0,260.87900000000002,1706.5699999999999,1811.24,1731.01,-129.80500000000001,-24.907499999999999,47.095300000000002
217732.0,201.392,4234.6099999999997,4324.0200000000004,4258.9700000000003,-94.398099999999999,-24.52,43.2517
217733.0,151.09399999999999,4692.1400000000003,4779.0100000000002,4720.3000000000002,-60.8155,-21.714600000000001,38.415700000000001
217734.0,116.179,4660.79,4750.4799999999996,4696.0299999999997,-29.0122,-17.711600000000001,36.079799999999999
217735.0,103.654,4118.29,4213.6499999999996,4162.3000000000002,6.9010699999999998,-10.867800000000001,33.735700000000001
217736.0,93.246799999999993,-3885.9200000000001,-3807.6999999999998,-3849.5599999999999,19.452000000000002,-7.0632000000000001,30.6204
217737.0,118.84699999999999,2030.53,2132.4499999999998,2081.7199999999998,39.711399999999998,1.7347600000000001,23.050699999999999
217738.0,75.578900000000004,313.80599999999998,396.28300000000002,347.08600000000001,8.4035100000000007,-2.20689,10.3362
217739.0,71.017200000000003,-58.369300000000003,19.071300000000001,-32.636800000000001,-7.3809300000000002,-5.5994799999999998,6.3108700000000004
217740.0,72.929699999999997,-274.47399999999999,-196.971,-252.34299999999999,-10.192,-7.6592000000000002,4.0729100000000003
217741.0,69.697800000000001,-476.83100000000002,-404.82299999999998,-459.863,-9.9398700000000009,-9.3986699999999992,3.879
217742.0,74.541200000000003,463.57299999999998,537.93899999999996,481.57499999999999,-14.856299999999999,-9.6291100000000007,5.7880200000000004
217743.0,82.183099999999996,-536.19600000000003,-515.36099999999999,-548.94100000000003,-38.659700000000001,-19.546199999999999,9.3465900000000008
217744.0,111.441,174.059,209.23099999999999,159.86500000000001,-54.151600000000002,-16.638500000000001,16.867999999999999
217745.0,107.51600000000001,223.74700000000001,284.58499999999998,217.87200000000001,-45.719799999999999,-10.087,17.227599999999999
217746.0,105.541,4.4176599999999997,72.985799999999998,-0.86294999999999999,-40.978999999999999,-7.5937700000000001,16.697500000000002
217747.0,67.061400000000006,112.67100000000001,75.966200000000001,149.71299999999999,-6.2668499999999998,9.9260099999999998,-1.2766500000000001
217748.0,320.13499999999999,1936.6099999999999,1863.47,1866.3499999999999,179.05000000000001,5.72553,18.837399999999999
217749.0,213.45400000000001,2903.8200000000002,2846.3899999999999,2857.8200000000002,118.437,5.8818000000000001,14.2011
217750.0,136.858,3112.5700000000002,3109.0700000000002,3093.4299999999998,76.951400000000007,6.0099900000000002,13.4877
217751.0,92.765500000000003,3185.9699999999998,3246.4499999999998,3192.25,37.568899999999999,4.9648899999999996,18.0655
217752.0,104.491,2953.5799999999999,3058.6799999999998,2979.1700000000001,-6.6293600000000001,-0.50625299999999995,24.312799999999999
217753.0,147.773,1899.78,2021.47,1929.9400000000001,-48.709699999999998,-7.9166999999999996,28.7682
217754.0,243.453,-733.71400000000006,-618.11599999999999,-702.16300000000001,-118.29600000000001,-20.036000000000001,42.316600000000001
217755.0,248.80799999999999,-2424.9499999999998,-2332.2600000000002,-2401.4200000000001,-125.625,-24.895600000000002,43.732300000000002
217756.0,212.976,-3771.79,-3700.98,-3756.3000000000002,-106.51600000000001,-25.668500000000002,41.581299999999999
217757.0,162.97,-4473.4899999999998,-4412.8000000000002,-4459.9200000000001,-77.033900000000003,-23.573699999999999,36.723500000000001
217758.0,116.869,-4768.1700000000001,-4705.9499999999998,-4749.6700000000001,-44.898800000000001,-19.41,33.754199999999997
217759.0,84.076300000000003,-4569.3800000000001,-4506.0799999999999,-4545.4499999999998,-10.152900000000001,-13.9535,32.200800000000001
217760.0,115.13,-2831.52,-2734.6700000000001,-2784.1100000000001,37.048299999999998,-1.7224999999999999,26.4057
217761.0,118.94799999999999,-1683.9100000000001,-1573.4100000000001,-1630.49,34.125700000000002,-1.6679900000000001,22.256
217762.0,103.68600000000001,-744.30600000000004,-635.24699999999996,-695.01800000000003,16.9465,-4.4873000000000003,17.137
217763.0,86.424099999999996,-160.42599999999999,-65.338099999999997,-122.985,-2.0214500000000002,-7.8224099999999996,11.400600000000001
217764.0,76.066800000000001,87.270300000000006,168.846,114.297,-8.3629800000000003,-9.3896999999999995,6.6217199999999998
217765.0,72.900999999999996,253.63200000000001,331.35899999999998,275.80200000000002,-8.0498600000000007,-9.0640999999999998,4.6162299999999998
217766.0,84.1053,608.58100000000002,664.423,614.928,-33.797600000000003,-13.821300000000001,9.4805600000000005
217767.0,106.78400000000001,474.17599999999999,499.75599999999997,462.74799999999999,-53.478099999999998,-19.421600000000002,14.308299999999999
217768.0,107.548,17.250399999999999,29.397600000000001,-4.2289099999999999,-54.116399999999999,-19.492100000000001,16.032
217769.0,96.058099999999996,-341.69499999999999,-309.98599999999999,-356.928,-44.8521,-14.5039,16.737400000000001
217770.0,97.7928,-338.34100000000001,-279.52499999999998,-343.74299999999999,-39.409100000000002,-9.4997199999999999,16.606300000000001
217771.0,702.32000000000005,1923.22,1886.1400000000001,1809.6199999999999,391.92899999999997,-8.4000400000000006,-85.9251
217772.0,357.12099999999998,-1424.5699999999999,-1542.8199999999999,-1538.3499999999999,194.84,-5.7665600000000001,4.9139699999999999
217773.0,228.40799999999999,249.11099999999999,350.95400000000001,268.93900000000002,-111.489,-21.793700000000001,39.624499999999998
217774.0,115.468,4485.1099999999997,4586.0100000000002,4529.3400000000001,7.34964,-13.0228,40.775700000000001
217775.0,64.211200000000005,-720.75599999999997,-677.07500000000005,-724.15300000000002,-21.2638,-12.5152,8.7329799999999995
217776.0,114.53400000000001,-34.412799999999997,-25.872599999999998,-58.801400000000001,-58.209899999999998,-21.741900000000001,14.819100000000001
217777.0,126.953,2319.8699999999999,2430.4699999999998,2369.79,36.520299999999999,0.39511200000000002,31.156199999999998
217778.0,256.93000000000001,3335.9499999999998,3432.0999999999999,3361.3099999999999,-128.92500000000001,-31.323399999999999,43.801000000000002
217779.0,170.67699999999999,-2895.1399999999999,-2948.0999999999999,-2947.9200000000001,92.9024,4.9247399999999999,11.103300000000001
217780.0,234.79400000000001,-2310.0900000000001,-2385.8299999999999,-2384.5599999999999,127.78100000000001,1.5028900000000001,12.8528
217781.0,111.331,-3307.1700000000001,-3310.1999999999998,-3334.2800000000002,60.881599999999999,6.5935100000000002,12.6783
217782.0,67.645099999999999,-2935.2399999999998,-2887.3299999999999,-2940.3899999999999,17.525600000000001,2.2769499999999998,18.886500000000002
217783.0,108.07599999999999,-2290.3000000000002,-2206.6900000000001,-2279.3899999999999,-32.181899999999999,-4.8849200000000002,27.709499999999998
217784.0,170.011,-1311.25,-1214.03,-1294.8399999999999,-74.697199999999995,-13.202500000000001,34.231000000000002
217785.0,198.905,663.23699999999997,786.01599999999996,695.72699999999998,-87.429000000000002,-14.9688,35.6753
217786.0,263.60199999999998,1920.6600000000001,2022.45,1945.5699999999999,-132.91399999999999,-28.621400000000001,43.142099999999999
217787.0,222.30500000000001,4555.75,4641.1300000000001,4577.9899999999998,-107.81699999999999,-31.299299999999999,43.6738
217788.0,175.74199999999999,5211.3699999999999,5292.5699999999997,5234.2299999999996,-76.875,-29.016500000000001,42.306899999999999
217789.0,142.55500000000001,5347.5,5428.6400000000003,5373.3699999999999,-50.893300000000004,-25.665700000000001,42.511299999999999
217790.0,114.836,5104.6300000000001,5190.46,5136.8800000000001,-18.827100000000002,-20.5932,41.685299999999998
217791.0,94.415099999999995,-4997.04,-4929.7299999999996,-4971.1800000000003,-7.5691199999999998,-16.3187,38.662199999999999
217792.0,125.61799999999999,3499.27,3608.1799999999998,3549.4099999999999,30.796299999999999,-4.5921200000000004,36.319200000000002
217793.0,113.67100000000001,1261.9200000000001,1369.7,1306.1600000000001,27.669,2.1300300000000001,24.525300000000001
217794.0,98.369699999999995,421.04399999999998,523.20000000000005,457.08100000000002,16.559200000000001,0.60941400000000001,16.326599999999999
217795.0,83.774299999999997,-205.41999999999999,-114.511,-179.55099999999999,6.2721799999999996,-2.6804700000000001,9.9418900000000008
217796.0,69.578400000000002,-604.97799999999995,-532.80700000000002,-591.77999999999997,-5.5617599999999996,-6.8713100000000003,7.6674899999999999
217797.0,81.577399999999997,683.11300000000006,762.34400000000005,699.52200000000005,-15.0791,-9.7037300000000002,12.159599999999999
217798.0,86.479600000000005,-496.404,-482.42500000000001,-516.649,-41.700499999999998,-18.2803,11.123100000000001
217799.0,118.64,327.899,364.55399999999997,313.25400000000002,-57.815199999999997,-17.978100000000001,18.102699999999999
217800.0,116.376,330.06200000000001,399.88799999999998,325.99200000000002,-47.7363,-10.8828,19.793299999999999
217801.0,114.723,27.033300000000001,113.68899999999999,27.2195,-38.375999999999998,-6.1057699999999997,19.4802
217802.0,59.614400000000003,69.694000000000003,32.851199999999999,98.475200000000001,-6.9370399999999997,7.3798500000000002,0.034809399999999997
217803.0,304.06599999999997,1882.25,1818.77,1818.3699999999999,171.11699999999999,2.3868,13.4236
217804.0,199.483,2438.2600000000002,2388.4000000000001,2394.96,111.151,5.7483199999999997,11.9526
217805.0,128.721,2966.77,2963.4699999999998,2948.04,71.829599999999999,8.0883299999999991,14.074999999999999
217806.0,90.686499999999995,3041.9299999999998,3097.23,3047.3699999999999,38.642099999999999,6.6905700000000001,16.564399999999999
217807.0,101.235,2552.9499999999998,2654.5799999999999,2575.8400000000001,-3.4497399999999998,1.3124199999999999,23.6693
217808.0,143.98099999999999,1861.01,1978.79,1891.0,-46.834800000000001,-6.6019600000000001,30.4434
217809.0,244.50899999999999,-993.64499999999998,-879.84900000000005,-961.46199999999999,-120.001,-23.1206,39.403300000000002
217810.0,254.45699999999999,-2536.0500000000002,-2444.04,-2510.7199999999998,-129.77799999999999,-28.826499999999999,40.628100000000003
217811.0,228.09800000000001,-3894.75,-3822.5100000000002,-3879.0999999999999,-115.91200000000001,-30.117000000000001,39.443800000000003
217812.0,186.32900000000001,-4910.1300000000001,-4852.1700000000001,-4900.3000000000002,-90.977599999999995,-29.4862,38.267200000000003
217813.0,146.34999999999999,-5341.8299999999999,-5282.5699999999997,-5328.71,-63.060899999999997,-26.186900000000001,38.833100000000002
217814.0,108.45699999999999,-5334.3199999999997,-5278.3000000000002,-5319.2299999999996,-33.744799999999998,-22.1586,38.094799999999999
217815.0,102.95099999999999,-4279.4499999999998,-4197.3100000000004,-4242.5299999999997,20.600899999999999,-8.6446699999999996,36.620899999999999
217816.0,122.59399999999999,-3174.9499999999998,-3071.8099999999999,-3127.0700000000002,34.470399999999998,-2.7661099999999998,33.9101
217817.0,126.244,-1982.4100000000001,-1866.1199999999999,-1929.99,31.320399999999999,-1.45573,30.620799999999999
217818.0,115.964,-992.5,-875.49000000000001,-944.55799999999999,21.7272,-2.7965399999999998,23.2928
217819.0,103.902,-220.15799999999999,-109.09699999999999,-180.374,11.8667,-5.0743299999999998,16.300000000000001
217820.0,91.177199999999999,347.32299999999998,445.99099999999999,376.55599999999998,0.24271300000000001,-6.97323,12.404999999999999
217821.0,87.912499999999994,725.70899999999995,776.23500000000001,726.75400000000002,-36.159500000000001,-14.967000000000001,14.5243
217822.0,111.16800000000001,419.87700000000001,438.726,404.61700000000002,-55.886299999999999,-20.912500000000001,16.337599999999998
217823.0,114.56,-103.68300000000001,-95.512799999999999,-126.11199999999999,-57.453400000000002,-22.627400000000002,17.628900000000002
217824.0,101.63800000000001,-459.35300000000001,-425.68400000000003,-474.745,-46.667099999999998,-16.789999999999999,18.817900000000002
217825.0,101.45,-424.55200000000002,-357.24099999999999,-428.79199999999997,-36.6648,-9.8206600000000002,19.456600000000002
217826.0,666.98199999999997,1890.1700000000001,1877.45,1790.98,368.41199999999998,-12.9109,-97.373800000000003
217827.0,336.09699999999998,-1123.9200000000001,-1223.96,-1230.8399999999999,184.41399999999999,-7.8890000000000002,1.1988099999999999
217828.0,210.84200000000001,105.541,201.96100000000001,123.423,-101.765,-20.827000000000002,37.382599999999996
217829.0,120.79600000000001,5568.1300000000001,5657.1599999999999,5596.3999999999996,-21.126200000000001,-22.7776,42.770099999999999
217830.0,60.268599999999999,-495.827,-442.60199999999998,-490.48599999999999,-12.074199999999999,-6.6145800000000001,12.7349
217831.0,94.673699999999997,-213.43199999999999,-203.06299999999999,-229.54900000000001,-47.384099999999997,-19.0151,14.238899999999999
217832.0,122.958,3941.5999999999999,4053.4899999999998,3985.0799999999999,20.664300000000001,-6.6873399999999998,37.228499999999997
217833.0,267.25900000000001,3279.5300000000002,3370.1199999999999,3303.0300000000002,-134.41399999999999,-36.696199999999997,46.747799999999998
217834.0,160.66200000000001,-2821.7800000000002,-2865.1300000000001,-2874.3699999999999,88.040199999999999,3.5668199999999999,7.2028699999999999
217835.0,220.06200000000001,-2256.4000000000001,-2321.2199999999998,-2327.2399999999998,120.517,0.026821600000000001,8.6682799999999993
217836.0,109.17100000000001,-2839.5799999999999,-2838.75,-2868.54,59.3324,6.40571,11.117900000000001
217837.0,68.415400000000005,-2890.23,-2845.1500000000001,-2897.1100000000001,19.301500000000001,4.1229899999999997,19.338000000000001
217838.0,102.15000000000001,-2256.0,-2177.1599999999999,-2247.1999999999998,-27.584299999999999,-3.1528800000000001,28.994599999999998
217839.0,158.14099999999999,-1104.3900000000001,-1011.47,-1089.3599999999999,-67.559299999999993,-11.3416,33.997500000000002
217840.0,183.30199999999999,581.47000000000003,698.41300000000001,612.34500000000003,-77.944800000000001,-14.629099999999999,35.180700000000002
217841.0,252.815,1600.97,1695.8800000000001,1622.01,-126.77500000000001,-31.0259,42.259999999999998
217842.0,249.517,4535.0799999999999,4615.2200000000003,4555.9200000000001,-123.182,-38.110300000000002,48.965000000000003
217843.0,205.506,5438.4799999999996,5513.5900000000001,5456.3999999999996,-95.033600000000007,-35.924900000000001,47.081099999999999
217844.0,173.148,5913.0299999999997,5986.5699999999997,5930.8900000000003,-72.526499999999999,-33.185099999999998,46.486400000000003
217845.0,134.88399999999999,5927.3999999999996,6002.2299999999996,5946.75,-43.224400000000003,-28.497699999999998,43.3035
217846.0,113.824,-5879.3699999999999,-5820.7600000000002,-5865.7799999999997,-33.617100000000001,-25.188199999999998,40.160299999999999
217847.0,116.27500000000001,4888.04,4989.2299999999996,4924.4499999999998,3.7286299999999999,-15.0427,40.488100000000003
217848.0,130.458,2813.0100000000002,2934.9899999999998,2861.4200000000001,29.114100000000001,0.57827300000000004,32.447299999999998
217849.0,129.59899999999999,1626.8800000000001,1750.1500000000001,1672.8800000000001,32.7468,4.8230000000000004,24.945699999999999
217850.0,111.29600000000001,565.27599999999995,675.00300000000004,601.53300000000002,25.658300000000001,3.46434,18.253299999999999
217851.0,81.096100000000007,-159.589,-75.301100000000005,-137.58799999999999,7.9954299999999998,-1.2138899999999999,14.677099999999999
217852.0,89.4054,302.59100000000001,395.25700000000001,332.84500000000003,-4.3140700000000001,-5.7263700000000002,19.496600000000001
217853.0,69.2102,-484.91500000000002,-460.59199999999998,-494.09300000000002,-31.195399999999999,-13.1927,12.2393
217854.0,108.687,144.19200000000001,171.517,134.99700000000001,-53.797699999999999,-18.4815,18.468
217855.0,109.337,271.34800000000001,331.392,274.75900000000001,-47.499899999999997,-11.430400000000001,21.460699999999999
217856.0,106.255,29.982399999999998,117.45099999999999,43.799399999999999,-32.7866,-4.3110999999999997,21.4191
217857.0,56.564900000000002,70.3352,23.695900000000002,80.731700000000004,-10.645200000000001,4.5858100000000004,3.0733299999999999
217858.0,286.39699999999999,1654.5899999999999,1601.29,1597.53,161.94399999999999,0.55689900000000003,9.8188999999999993
217859.0,187.16300000000001,2495.7800000000002,2453.6999999999998,2453.5799999999999,104.822,5.0588699999999998,8.4615500000000008
217860.0,123.789,2657.79,2658.6300000000001,2636.5300000000002,68.903800000000004,7.7119499999999999,11.989599999999999
217861.0,90.975099999999998,2750.6700000000001,2803.3200000000002,2752.7199999999998,38.760800000000003,8.3924099999999999,17.218399999999999
217862.0,96.941100000000006,2623.4099999999999,2718.3499999999999,2643.6500000000001,-0.11128200000000001,3.7421899999999999,24.8659
217863.0,136.09800000000001,1708.23,1820.6300000000001,1736.0899999999999,-41.1252,-5.2559500000000003,32.071800000000003
217864.0,228.137,-659.23900000000003,-546.38,-628.90700000000004,-108.964,-24.395700000000001,38.329099999999997
217865.0,255.91900000000001,-2289.9099999999999,-2193.0599999999999,-2263.77,-128.126,-32.204799999999999,43.212899999999998
217866.0,248.91499999999999,-3824.46,-3750.25,-3807.23,-126.119,-35.346400000000003,44.599899999999998
217867.0,215.36699999999999,-4919.29,-4865.96,-4911.8900000000003,-107.017,-36.028100000000002,43.3065
217868.0,178.15199999999999,-5677.54,-5623.5200000000004,-5669.5699999999997,-82.317599999999999,-33.180300000000003,43.033499999999997
217869.0,137.78800000000001,-5988.0,-5939.71,-5981.4399999999996,-55.335000000000001,-30.301500000000001,40.7697
217870.0,97.620000000000005,-5443.2600000000002,-5374.04,-5422.1499999999996,-8.0130499999999998,-18.470800000000001,38.889000000000003
217871.0,102.774,-4703.7799999999997,-4618.1300000000001,-4671.8999999999996,12.4199,-10.418100000000001,37.202199999999998
217872.0,116.01600000000001,-3689.8099999999999,-3586.6700000000001,-3647.8200000000002,24.484000000000002,-3.7313700000000001,34.398400000000002
217873.0,127.90900000000001,-2535.5700000000002,-2417.5900000000001,-2487.21,32.919400000000003,0.69084599999999996,29.178799999999999
217874.0,129.71199999999999,-1344.8599999999999,-1218.1099999999999,-1295.28,30.9803,1.9801200000000001,23.775300000000001
217875.0,113.211,-332.87900000000002,-214.70099999999999,-289.23200000000003,15.8596,-0.9002,21.187799999999999
217876.0,79.7971,563.18299999999999,624.36099999999999,577.14700000000005,-25.0535,-11.6341,18.212199999999999
217877.0,93.850300000000004,488.42200000000003,519.88099999999997,487.666,-43.761800000000001,-18.470099999999999,18.485199999999999
217878.0,107.40300000000001,150.613,164.37,139.90199999999999,-52.993000000000002,-22.418800000000001,19.591799999999999
217879.0,99.0244,-258.39600000000002,-232.755,-266.01499999999999,-46.781700000000001,-18.633600000000001,20.718499999999999
217880.0,86.661500000000004,-380.06,-323.22500000000002,-376.38,-31.2608,-10.206799999999999,20.260000000000002
217881.0,629.42100000000005,1550.96,1562.8199999999999,1467.54,343.483,-16.186299999999999,-105.443
217882.0,314.37799999999999,-1230.28,-1311.21,-1330.3800000000001,173.25800000000001,-9.9139499999999998,-2.2860499999999999
217883.0,184.0,-18.607299999999999,71.665599999999998,-1.9042600000000001,-86.807500000000005,-19.208500000000001,32.773000000000003
217884.0,135.11600000000001,6288.4200000000001,6363.2399999999998,6304.0900000000001,-43.688699999999997,-29.779599999999999,41.626199999999997
217885.0,71.1905,77.131,151.37,98.598299999999995,4.39839,-0.119167,14.507300000000001
217886.0,68.0916,-217.44800000000001,-198.22,-221.28999999999999,-32.479399999999998,-11.9575,13.9575
217887.0,113.514,5160.1899999999996,5259.29,5188.8500000000004,-4.00936,-16.470700000000001,37.511699999999998
217888.0,264.26999999999998,2700.1999999999998,2782.3000000000002,2718.9400000000001,-134.61099999999999,-39.268500000000003,42.032400000000003
217889.0,151.50899999999999,-2461.9099999999999,-2497.48,-2514.0900000000001,83.186899999999994,2.9813800000000001,3.4465499999999998
217890.0,206.17500000000001,-1960.0899999999999,-2013.6600000000001,-2026.5899999999999,113.556,-1.48098,5.3668899999999997
217891.0,106.321,-2854.9699999999998,-2850.23,-2886.0599999999999,57.318600000000004,5.7783899999999999,8.3931500000000003
217892.0,71.380899999999997,-2546.9699999999998,-2501.8200000000002,-2556.4899999999998,21.054300000000001,4.5472000000000001,19.528199999999998
217893.0,96.692400000000006,-2036.1099999999999,-1961.2,-2030.95,-21.300599999999999,-1.07683,30.185700000000001
217894.0,140.721,-1261.8399999999999,-1173.8,-1248.76,-55.949199999999998,-9.8821600000000007,33.404600000000002
217895.0,161.66200000000001,763.60799999999995,873.51599999999996,791.63499999999999,-64.379199999999997,-13.691000000000001,33.432200000000002
217896.0,228.60300000000001,1323.6500000000001,1409.8499999999999,1340.3,-114.92700000000001,-29.9788,34.959600000000002
217897.0,270.35899999999998,4271.6899999999996,4345.2700000000004,4290.1800000000003,-136.803,-43.348300000000002,48.012999999999998
217898.0,231.85400000000001,5455.6800000000003,5524.0,5470.79,-112.789,-41.2532,46.987000000000002
217899.0,198.249,6113.0799999999999,6178.1899999999996,6125.8900000000003,-90.659599999999998,-39.031199999999998,46.566099999999999
217900.0,156.56999999999999,6382.6999999999998,6447.0100000000002,6393.6999999999998,-62.837299999999999,-34.954999999999998,42.637700000000002
217901.0,136.26300000000001,-6415.4200000000001,-6366.8199999999997,-6409.8400000000001,-53.372300000000003,-32.206099999999999,39.950200000000002
217902.0,117.404,5861.79,5947.0600000000004,5882.3299999999999,-22.358000000000001,-23.658100000000001,39.4298
217903.0,120.79300000000001,4255.5900000000001,4371.0600000000004,4294.71,12.4826,-8.1790299999999991,34.529299999999999
217904.0,130.56,3138.0500000000002,3264.4699999999998,3183.3099999999999,26.658899999999999,0.80909600000000004,29.4604
217905.0,128.41900000000001,1903.01,2026.3399999999999,1944.96,31.468900000000001,6.7855999999999996,22.989000000000001
217906.0,105.125,807.55399999999997,911.71299999999997,840.54200000000003,22.6648,5.6239999999999997,17.453299999999999
217907.0,104.289,-594.26599999999996,-484.80900000000003,-550.673,11.738300000000001,2.2688700000000002,21.116599999999998
217908.0,53.772199999999998,-247.17400000000001,-205.30199999999999,-240.018,-15.400499999999999,-6.5243900000000004,13.508100000000001
217909.0,86.008499999999998,9.8032599999999999,30.263999999999999,7.7272499999999997,-42.789900000000003,-14.6488,16.282299999999999
217910.0,92.654700000000005,178.381,223.535,189.06700000000001,-42.572400000000002,-11.5578,18.941600000000001
217911.0,87.026700000000005,42.536700000000003,113.206,62.858600000000003,-29.0029,-4.1680200000000003,18.502400000000002
217912.0,59.714599999999997,53.002699999999997,1.9836800000000001,59.892299999999999,-12.171200000000001,1.19719,6.1971400000000001
217913.0,268.21800000000002,1584.27,1541.8099999999999,1533.8900000000001,152.32900000000001,-0.89224999999999999,6.4256399999999996
217914.0,175.928,2048.6100000000001,2013.79,2008.3499999999999,98.938100000000006,4.2304599999999999,5.7518700000000003
217915.0,117.931,2534.0100000000002,2536.8600000000001,2510.8099999999999,65.572299999999998,7.8193999999999999,8.4156099999999991
217916.0,90.6845,2636.4499999999998,2688.25,2634.5999999999999,38.377400000000002,9.0297199999999993,16.106100000000001
217917.0,95.489900000000006,2248.1100000000001,2337.8800000000001,2263.4200000000001,3.6699899999999999,5.4032200000000001,26.276700000000002
217918.0,124.87,1720.0599999999999,1825.77,1742.97,-32.6875,-3.9654799999999999,31.948799999999999
217919.0,200.69499999999999,-525.56299999999999,-418.00599999999997,-496.93700000000001,-93.171000000000006,-22.9605,33.393999999999998
217920.0,241.93199999999999,-1779.3900000000001,-1680.1800000000001,-1753.49,-119.855,-32.338099999999997,38.097000000000001
217921.0,260.86000000000001,-3276.6199999999999,-3198.1500000000001,-3256.8400000000001,-132.364,-39.103000000000002,44.365699999999997
217922.0,241.387,-4784.75,-4734.6700000000001,-4777.04,-122.27,-42.014800000000001,44.499600000000001
217923.0,204.227,-5762.4300000000003,-5715.71,-5757.4799999999996,-99.1096,-39.146599999999999,43.464700000000001
217924.0,163.047,-6253.2700000000004,-6213.3100000000004,-6251.8800000000001,-72.953299999999999,-36.876199999999997,40.803800000000003
217925.0,110.67,-6231.5799999999999,-6174.4799999999996,-6222.0,-31.699100000000001,-26.656300000000002,37.843000000000004
217926.0,97.908799999999999,-5733.7700000000004,-5664.3800000000001,-5716.8299999999999,-12.750299999999999,-20.082899999999999,36.344799999999999
217927.0,97.463200000000001,-5011.4899999999998,-4927.5500000000002,-4984.71,4.3693200000000001,-12.6662,33.885800000000003
217928.0,109.395,-4081.6999999999998,-3981.04,-4044.3400000000001,21.5273,-4.2760400000000001,30.3017
217929.0,124.822,-2912.73,-2795.9499999999998,-2867.3000000000002,32.174399999999999,3.4020800000000002,26.107399999999998
217930.0,124.577,-1647.95,-1525.0999999999999,-1600.29,28.210699999999999,6.0430099999999998,22.453199999999999
217931.0,80.502099999999999,64.122299999999996,144.744,95.937399999999997,-8.5775799999999993,-4.0620200000000004,20.520800000000001
217932.0,75.484800000000007,324.45699999999999,372.85500000000002,340.66300000000001,-27.7942,-10.867599999999999,20.045200000000001
217933.0,86.569199999999995,231.09800000000001,255.72900000000001,236.09,-40.875900000000001,-16.622199999999999,19.529199999999999
217934.0,88.007400000000004,-52.548699999999997,-30.0413,-47.884099999999997,-41.795000000000002,-17.778700000000001,19.435700000000001
217935.0,71.383499999999998,-244.43799999999999,-201.29599999999999,-231.74100000000001,-27.2776,-11.216699999999999,18.360199999999999
217936.0,590.30999999999995,1518.4000000000001,1554.77,1451.3399999999999,317.34300000000002,-18.2685,-111.18300000000001
217937.0,293.096,-928.39599999999996,-990.03700000000003,-1021.2,162.01599999999999,-11.773999999999999,-4.0758799999999997
217938.0,151.35499999999999,-312.56700000000001,-233.149,-295.82600000000002,-69.901600000000002,-15.9696,27.243200000000002
217939.0,145.18899999999999,6506.9899999999998,6567.0200000000004,6515.9300000000003,-58.834699999999998,-33.323500000000003,37.4925
217940.0,81.5672,863.34199999999998,946.29100000000005,892.41700000000003,15.211399999999999,4.6328399999999998,13.9107
217941.0,50.331400000000002,96.458100000000002,129.26599999999999,110.47799999999999,-17.117000000000001,-5.64832,15.7651
217942.0,104.291,5780.7799999999997,5864.8400000000001,5795.8599999999997,-21.423999999999999,-20.112400000000001,27.443899999999999
217943.0,240.303,2224.3000000000002,2292.0100000000002,2243.0,-123.456,-36.329300000000003,38.273000000000003
217944.0,144.40299999999999,-2392.6599999999999,-2421.1599999999999,-2444.5100000000002,79.174599999999998,2.6720700000000002,-0.79294900000000001
217945.0,193.19499999999999,-1902.05,-1944.21,-1964.8599999999999,106.783,-2.4824199999999998,2.7485900000000001
217946.0,103.036,-2431.3000000000002,-2425.6399999999999,-2465.1500000000001,55.165300000000002,5.8018400000000003,2.3241800000000001
217947.0,66.012100000000004,-2538.5300000000002,-2493.9299999999998,-2550.1799999999998,19.3171,3.9148800000000001,13.5205
217948.0,88.269199999999998,-2022.73,-1949.24,-2017.9400000000001,-19.4313,-0.343976,23.000299999999999
217949.0,117.57599999999999,-1143.5699999999999,-1062.6099999999999,-1131.54,-45.234200000000001,-7.2765500000000003,24.5093
217950.0,132.96299999999999,782.18100000000004,880.197,808.34100000000001,-50.073799999999999,-10.773400000000001,26.340900000000001
217951.0,195.84,790.84500000000003,864.50999999999999,808.65599999999995,-98.177599999999998,-25.695399999999999,31.751100000000001
217952.0,268.16500000000002,3611.4499999999998,3672.3499999999999,3630.8299999999999,-137.839,-44.1798,45.288499999999999
217953.0,247.613,4956.4099999999999,5013.5500000000002,4972.8699999999999,-124.758,-44.308599999999998,45.215499999999999
217954.0,215.821,5926.5500000000002,5980.3299999999999,5939.0500000000002,-104.986,-42.271500000000003,43.880000000000003
217955.0,171.78100000000001,6407.8900000000003,6459.3800000000001,6415.4399999999996,-77.899299999999997,-38.200299999999999,39.1845
217956.0,150.52099999999999,-6485.1899999999996,-6449.6000000000004,-6483.1400000000003,-66.832700000000003,-36.188499999999998,37.103700000000003
217957.0,119.926,6288.4899999999998,6358.8400000000001,6299.2299999999996,-39.161999999999999,-27.4099,32.756500000000003
217958.0,100.428,5006.3699999999999,5104.5299999999997,5028.8100000000004,-5.2365599999999999,-12.750400000000001,22.9406
217959.0,105.655,4062.79,4172.6499999999996,4094.5900000000001,8.1661999999999999,-5.3160299999999996,20.749600000000001
217960.0,114.185,3001.6500000000001,3119.6199999999999,3039.9699999999998,19.043199999999999,3.6230799999999999,18.668700000000001
217961.0,109.815,1852.22,1961.77,1888.6300000000001,25.046099999999999,8.2612900000000007,14.556100000000001
217962.0,105.22499999999999,-1610.8699999999999,-1503.95,-1568.74,20.190799999999999,9.0967500000000001,17.310600000000001
217963.0,54.081899999999997,303.39699999999999,356.22399999999999,323.86700000000002,-3.5204900000000001,-1.5007600000000001,15.838699999999999
217964.0,57.946399999999997,66.200599999999994,92.2654,77.899199999999993,-25.7163,-8.0553100000000004,14.9201
217965.0,67.771600000000007,85.652600000000007,121.04000000000001,102.407,-30.1114,-8.4885800000000007,15.4557
217966.0,65.432199999999995,36.954500000000003,84.374499999999998,58.894399999999997,-25.093800000000002,-4.6005500000000001,14.5962
217967.0,59.193100000000001,63.510899999999999,12.3818,70.020899999999997,-10.987299999999999,4.3180899999999998,5.6657299999999999
217968.0,250.30799999999999,1357.0799999999999,1325.46,1313.75,142.68799999999999,-1.91774,4.3026999999999997
217969.0,165.55000000000001,2102.3899999999999,2074.7600000000002,2063.4400000000001,93.342500000000001,3.4682400000000002,3.02535
217970.0,114.714,2247.6199999999999,2251.75,2221.96,63.640700000000002,7.6549300000000002,4.1487800000000004
217971.0,87.196399999999997,2399.79,2449.8600000000001,2393.6999999999998,37.087899999999998,9.9351500000000001,10.513999999999999
217972.0,88.921499999999995,2348.6300000000001,2434.4299999999998,2360.6100000000001,2.5288599999999999,6.1580700000000004,20.785799999999998
217973.0,106.81699999999999,1589.3099999999999,1684.02,1608.8499999999999,-27.398,-2.6616399999999998,23.347899999999999
217974.0,168.57599999999999,-58.598799999999997,38.604599999999998,-28.171600000000002,-75.213099999999997,-18.964300000000001,31.364799999999999
217975.0,211.91499999999999,-1305.6600000000001,-1215.26,-1276.3299999999999,-103.733,-28.453199999999999,35.668799999999997
217976.0,248.17400000000001,-2695.73,-2619.9000000000001,-2669.7600000000002,-125.693,-37.794899999999998,42.635399999999997
217977.0,250.77099999999999,-4092.4400000000001,-4044.9499999999998,-4077.3299999999999,-128.124,-44.294800000000002,44.674300000000002
217978.0,222.399,-5360.3800000000001,-5322.8299999999999,-5352.5600000000004,-111.496,-43.081499999999998,42.512
217979.0,180.749,-6144.6199999999999,-6115.7200000000003,-6143.8100000000004,-86.591899999999995,-40.721600000000002,38.247700000000002
217980.0,120.715,-6493.3299999999999,-6449.5699999999997,-6489.2700000000004,-46.6646,-31.445799999999998,33.260399999999997
217981.0,96.891499999999994,-6218.2399999999998,-6163.1400000000003,-6210.1899999999996,-28.552600000000002,-25.121300000000002,28.235800000000001
217982.0,83.226100000000002,-5655.3699999999999,-5586.1000000000004,-5640.8199999999997,-11.551299999999999,-17.530799999999999,23.1082
217983.0,84.271299999999997,-4854.9899999999998,-4771.3500000000004,-4831.5299999999997,2.9995400000000001,-9.3534500000000005,20.241
217984.0,93.841999999999999,-3902.5700000000002,-3807.5700000000002,-3870.5300000000002,15.502700000000001,-0.85280100000000003,18.943999999999999
217985.0,107.438,-2812.9000000000001,-2707.1300000000001,-2774.7600000000002,25.8292,7.4417600000000004,15.992900000000001
217986.0,83.304699999999997,-658.62099999999998,-572.779,-619.80399999999997,2.0090599999999998,3.0912500000000001,21.255299999999998
217987.0,65.4709,-184.999,-128.94200000000001,-155.95599999999999,-13.3232,-3.8807800000000001,21.220500000000001
217988.0,63.415399999999998,-15.640499999999999,21.236599999999999,5.8659600000000003,-23.315999999999999,-8.7859499999999997,19.405100000000001
217989.0,67.455799999999996,-1.30782,29.1997,16.880199999999999,-28.933,-11.445600000000001,17.694500000000001
217990.0,61.687899999999999,-56.482799999999997,-20.051600000000001,-36.602699999999999,-24.149899999999999,-9.54101,16.1706
217991.0,550.30200000000002,1161.8,1221.74,1111.8199999999999,290.88099999999997,-19.094200000000001,-113.75
217992.0,272.19099999999997,-1024.2,-1066.4400000000001,-1110.26,150.46700000000001,-13.340400000000001,-5.0967000000000002
217993.0,120.31999999999999,-484.74200000000002,-417.73000000000002,-467.22300000000001,-53.385199999999998,-12.4312,24.764700000000001
217994.0,144.214,6265.1499999999996,6312.54,6271.3400000000001,-66.160600000000002,-32.160899999999998,29.281400000000001
217995.0,73.617199999999997,1547.4100000000001,1623.6800000000001,1576.05,12.803800000000001,3.5674999999999999,12.0603
217996.0,44.541899999999998,547.45899999999995,588.73400000000004,567.93299999999999,-8.00413,-1.18218,13.036300000000001
217997.0,89.516499999999994,5680.2799999999997,5751.8000000000002,5691.1499999999996,-25.126799999999999,-18.2273,14.9038
217998.0,204.19800000000001,1503.55,1559.25,1523.97,-104.258,-30.228000000000002,36.355400000000003
217999.0,139.06,-2061.4400000000001,-2084.2600000000002,-2111.75,75.993600000000001,2.4609800000000002,-5.4928299999999997
218000.0,181.499,-1598.1400000000001,-1628.71,-1657.0599999999999,100.5,-3.40707,0.51333099999999998
218001.0,100.60899999999999,-2512.8200000000002,-2509.0700000000002,-2546.6999999999998,53.913800000000002,5.7562100000000003,-2.1528900000000002
218002.0,59.8262,-2283.9400000000001,-2245.5700000000002,-2296.1900000000001,18.496600000000001,5.3346600000000004,11.184200000000001
218003.0,77.143600000000006,-1830.02,-1765.95,-1823.26,-15.0824,3.2511000000000001,22.5014
218004.0,92.374499999999998,-1287.55,-1219.5699999999999,-1273.47,-32.031500000000001,-3.1350099999999999,22.828900000000001
218005.0,102.771,927.83299999999997,1008.77,954.05200000000002,-35.076700000000002,-6.04772,23.4193
218006.0,163.76400000000001,455.23599999999999,518.779,475.93700000000001,-80.427999999999997,-21.3416,31.0672
218007.0,239.07400000000001,2889.5500000000002,2937.4000000000001,2909.6599999999999,-123.102,-39.892099999999999,41.5867
218008.0,242.09299999999999,4220.3599999999997,4263.9899999999998,4239.0699999999997,-123.51900000000001,-43.862200000000001,43.316299999999998
218009.0,222.68199999999999,5281.6999999999998,5322.4200000000001,5297.8699999999999,-111.67400000000001,-43.499499999999998,41.779400000000003
218010.0,181.11500000000001,5987.1099999999997,6026.4899999999998,5996.4700000000003,-88.087699999999998,-38.910499999999999,35.179200000000002
218011.0,154.762,-6110.0500000000002,-6089.2200000000003,-6107.6099999999997,-74.095299999999995,-37.329599999999999,31.152200000000001
218012.0,110.09099999999999,6143.1599999999999,6202.0600000000004,6149.8400000000001,-43.855600000000003,-25.150700000000001,21.073599999999999
218013.0,82.066199999999995,4976.54,5057.1899999999996,4992.2799999999997,-11.1088,-12.539300000000001,11.6778
218014.0,81.503200000000007,4137.5799999999999,4223.3599999999997,4158.8999999999996,-2.7290800000000002,-8.4922199999999997,11.8391
218015.0,86.7654,3283.5,3377.1799999999998,3313.3600000000001,4.6057899999999998,-3.34612,13.678100000000001
218016.0,87.914900000000003,2399.4099999999999,2492.1799999999998,2431.96,14.000299999999999,2.3563200000000002,12.618399999999999
218017.0,82.396000000000001,-2182.29,-2097.9899999999998,-2151.54,14.480499999999999,6.0091799999999997,14.0397
218018.0,53.7881,916.87099999999998,972.67100000000005,941.26199999999994,1.3257099999999999,0.86694700000000002,13.393000000000001
218019.0,44.457299999999996,348.87799999999999,383.892,366.84100000000001,-14.462400000000001,-1.66143,11.8466
218020.0,48.322499999999998,216.68899999999999,251.73500000000001,234.90299999999999,-18.6629,-1.76536,10.9412
218021.0,50.631399999999999,77.483900000000006,116.526,98.579999999999998,-19.280999999999999,-1.46315,9.9354600000000008
218022.0,55.903799999999997,80.897300000000001,37.955100000000002,95.875,-5.6869199999999998,10.1312,1.70702
218023.0,232.53399999999999,1273.8800000000001,1253.22,1236.9300000000001,132.91900000000001,-2.5508000000000002,2.65279
218024.0,156.465,1668.04,1647.55,1630.6700000000001,88.341999999999999,2.4267300000000001,0.127497
218025.0,113.13800000000001,2179.9499999999998,2183.6100000000001,2152.3499999999999,62.554499999999997,7.8294499999999996,-0.56236600000000003
218026.0,84.112300000000005,2369.9200000000001,2415.8200000000002,2362.77,36.738199999999999,11.0617,7.5887399999999996
218027.0,78.659000000000006,1997.3099999999999,2072.27,2009.21,2.4552100000000001,8.7454800000000006,18.8904
218028.0,84.3065,1515.8599999999999,1591.1800000000001,1535.8599999999999,-19.1968,1.2182299999999999,21.832999999999998
218029.0,139.27500000000001,124.196,209.803,155.03,-59.294600000000003,-14.195499999999999,29.471499999999999
218030.0,177.75700000000001,-765.73900000000003,-687.29499999999996,-733.66499999999996,-84.533299999999997,-23.3597,35.8553
218031.0,214.142,-1929.9200000000001,-1861.48,-1899.3599999999999,-106.63200000000001,-32.968299999999999,40.6524
218032.0,234.40799999999999,-3337.7800000000002,-3290.3800000000001,-3314.0999999999999,-118.70399999999999,-41.668999999999997,43.897399999999998
218033.0,225.619,-4599.75,-4567.8000000000002,-4583.79,-113.849,-44.039400000000001,42.5625
218034.0,191.846,-5542.29,-5523.4899999999998,-5535.7200000000003,-94.995699999999999,-42.590200000000003,36.5946
218035.0,115.486,-6266.96,-6236.8000000000002,-6264.6099999999997,-51.575099999999999,-31.258400000000002,22.9603
218036.0,84.944800000000001,-6040.9799999999996,-5996.6199999999999,-6034.5100000000002,-31.421199999999999,-23.9968,16.365300000000001
218037.0,70.283600000000007,-5507.4399999999996,-5448.0600000000004,-5495.8599999999997,-15.260400000000001,-16.512799999999999,12.2623
218038.0,70.514300000000006,-4750.9399999999996,-4679.6800000000003,-4734.2299999999996,-5.2460199999999997,-10.2735,11.6503
218039.0,72.8262,-3911.2800000000002,-3834.54,-3889.6199999999999,1.22296,-5.5847899999999999,13.0214
218040.0,78.276600000000002,-3087.77,-3006.2199999999998,-3061.0999999999999,12.1837,0.73656999999999995,12.8261
218041.0,71.431299999999993,-1320.21,-1246.3599999999999,-1288.8699999999999,4.1867099999999997,5.0043800000000003,16.860900000000001
218042.0,57.224600000000002,-742.39999999999998,-686.96400000000006,-714.27999999999997,-5.6021999999999998,0.87320600000000004,17.059999999999999
218043.0,50.494599999999998,-415.50900000000001,-373.42399999999998,-391.44200000000001,-12.7194,-1.9458899999999999,15.4438
218044.0,50.347499999999997,-237.52000000000001,-200.595,-216.00999999999999,-17.583100000000002,-3.0176599999999998,13.517799999999999
218045.0,50.374400000000001,-110.57299999999999,-73.287599999999998,-89.4696,-18.898599999999998,-3.1289400000000001,11.3733
218046.0,510.14299999999997,1137.1199999999999,1219.1099999999999,1103.95,264.74900000000002,-18.574300000000001,-113.128
218047.0,252.65899999999999,-718.18399999999997,-741.95899999999995,-798.30799999999999,139.113,-14.3881,-5.1016500000000002
218048.0,96.411000000000001,-749.02300000000002,-690.00199999999995,-733.53599999999994,-40.741799999999998,-9.5681200000000004,20.2606
218049.0,132.738,5462.2799999999997,5504.6700000000001,5466.8800000000001,-65.792000000000002,-27.9434,14.9206
218050.0,54.613100000000003,1774.02,1834.3199999999999,1793.47,1.27362,-0.60638000000000003,6.7057099999999998
218051.0,41.635199999999998,891.42700000000002,934.57500000000005,909.59500000000003,-5.3071000000000002,0.90326399999999996,8.9194600000000008
218052.0,76.726500000000001,4878.8500000000004,4937.8199999999997,4884.3100000000004,-25.546800000000001,-15.7356,0.48723499999999997
218053.0,168.727,1080.5999999999999,1130.4400000000001,1101.45,-85.958600000000004,-24.752199999999998,29.354299999999999
218054.0,133.917,-2015.01,-2030.8299999999999,-2061.3000000000002,73.181600000000003,1.3226800000000001,-8.1976600000000008
218055.0,170.315,-1546.03,-1565.0699999999999,-1600.71,94.210599999999999,-4.4703600000000003,-1.73644
218056.0,100.26000000000001,-2117.02,-2112.52,-2153.5300000000002,52.878500000000003,5.6726799999999997,-4.0554100000000002
218057.0,60.203699999999998,-2275.79,-2242.2399999999998,-2290.46,21.241499999999998,6.9161200000000003,9.9070199999999993
218058.0,67.846100000000007,-1875.5599999999999,-1818.75,-1871.02,-7.8714899999999997,4.8639400000000004,21.2578
218059.0,76.808400000000006,-1261.22,-1199.8699999999999,-1251.0899999999999,-21.893799999999999,-2.2024599999999999,20.014199999999999
218060.0,84.499799999999993,1033.23,1105.03,1054.6800000000001,-25.0305,-4.06691,19.461300000000001
218061.0,133.93199999999999,21.3581,77.4208,41.454000000000001,-65.131399999999999,-16.918299999999999,25.380299999999998
218062.0,198.09,2069.3600000000001,2110.1700000000001,2088.3200000000002,-102.938,-32.643500000000003,31.6389
218063.0,213.48699999999999,3194.5,3228.29,3211.6500000000001,-110.782,-38.690800000000003,33.721600000000002
218064.0,209.75999999999999,4291.46,4322.5799999999999,4306.6400000000003,-108.08,-40.781199999999998,32.8643
218065.0,179.15799999999999,5095.0799999999999,5128.9399999999996,5104.04,-91.723200000000006,-36.267800000000001,25.746400000000001
218066.0,147.595,-5208.6599999999999,-5194.2799999999997,-5205.6499999999996,-74.479299999999995,-35.996499999999997,19.0017
218067.0,94.509600000000006,5339.0699999999997,5390.8299999999999,5342.6599999999999,-41.164200000000001,-20.655799999999999,4.5641600000000002
218068.0,69.295400000000001,4267.7700000000004,4331.1800000000003,4276.3100000000004,-16.368600000000001,-12.1685,0.55905400000000005
218069.0,65.256900000000002,3634.3899999999999,3699.7399999999998,3645.9400000000001,-10.7136,-9.2065300000000008,1.8612599999999999
218070.0,63.513500000000001,2999.3000000000002,3067.02,3015.2600000000002,-6.0642399999999999,-6.4032299999999998,3.69326
218071.0,60.845399999999998,2366.8000000000002,2433.9099999999999,2385.8600000000001,-0.73386600000000002,-3.20031,5.2090199999999998
218072.0,55.997199999999999,-2128.8099999999999,-2068.21,-2112.5100000000002,0.82524799999999998,-0.58099400000000001,7.7810100000000002
218073.0,46.756700000000002,1279.1700000000001,1329.9200000000001,1298.21,-1.4576100000000001,0.36840099999999998,8.3235899999999994
218074.0,41.662399999999998,585.697,626.37800000000004,603.86099999999999,-8.8895599999999995,1.8995500000000001,8.9805600000000005
218075.0,42.166600000000003,321.51799999999997,360.63299999999998,339.69299999999998,-11.5695,2.25475,8.4020799999999998
218076.0,43.562100000000001,95.483099999999993,135.01300000000001,113.559,-13.3424,1.9939899999999999,7.6776200000000001
218077.0,53.965000000000003,110.489,76.751900000000006,126.083,-0.108115,17.906500000000001,-3.7774999999999999
218078.0,215.56,1049.8599999999999,1039.45,1018.58,123.392,-2.7764099999999998,1.2980100000000001
218079.0,147.20099999999999,1735.2,1722.4200000000001,1700.1700000000001,83.051199999999994,1.17828,-3.0891099999999998
218080.0,111.44799999999999,1922.3900000000001,1925.9300000000001,1895.1500000000001,61.548000000000002,7.8953199999999999,-2.4689800000000002
218081.0,83.081100000000006,2134.8400000000001,2177.1999999999998,2124.1900000000001,36.7988,11.525399999999999,5.26769
218082.0,71.627300000000005,2123.96,2188.5599999999999,2133.1599999999999,7.71577,10.622,17.7944
218083.0,71.702500000000001,1534.9400000000001,1601.6700000000001,1550.55,-9.8531300000000002,2.2888500000000001,19.8279
218084.0,112.301,515.14300000000003,588.30700000000002,543.90300000000002,-46.526600000000002,-9.7280300000000004,24.203499999999998
218085.0,145.387,-385.22899999999998,-317.04300000000001,-354.23000000000002,-68.501099999999994,-18.0656,29.3522
218086.0,175.18000000000001,-1358.0899999999999,-1299.0,-1327.5899999999999,-87.104399999999998,-26.5825,32.589599999999997
218087.0,198.35400000000001,-2335.6700000000001,-2289.3200000000002,-2309.5500000000002,-100.765,-34.817500000000003,34.771500000000003
218088.0,205.75800000000001,-3482.6900000000001,-3450.4400000000001,-3461.6900000000001,-104.77800000000001,-40.319000000000003,35.214799999999997
218089.0,188.71600000000001,-4518.6000000000004,-4500.29,-4506.21,-95.842699999999994,-41.256100000000004,29.934999999999999
218090.0,100.88800000000001,-5410.2799999999997,-5385.3400000000001,-5410.25,-48.653199999999998,-27.670200000000001,7.2796200000000004
218091.0,74.196600000000004,-5133.7299999999996,-5092.79,-5132.4799999999996,-29.962599999999998,-19.790800000000001,1.85181
218092.0,65.452699999999993,-4591.0600000000004,-4538.9099999999999,-4587.7200000000003,-19.1797,-14.369,1.24824
218093.0,62.449599999999997,-3972.04,-3913.8499999999999,-3965.9000000000001,-12.656599999999999,-10.5503,2.5077699999999998
218094.0,60.254800000000003,-3353.46,-3292.6599999999999,-3344.0500000000002,-8.1267600000000009,-7.5741300000000003,3.9782700000000002
218095.0,57.823300000000003,-2739.6999999999998,-2677.9299999999998,-2726.5900000000001,-2.4203100000000002,-4.2788500000000003,5.5737199999999998
218096.0,51.9529,-1564.8299999999999,-1509.4200000000001,-1546.3199999999999,-0.99995299999999998,1.49936,10.0448
218097.0,46.4255,-1100.8099999999999,-1053.1900000000001,-1081.25,-4.46509,1.59256,11.092499999999999
218098.0,43.118699999999997,-735.83500000000004,-694.29300000000001,-716.50800000000004,-8.1710200000000004,1.3841000000000001,10.9047
218099.0,43.582700000000003,-445.09500000000003,-404.85399999999998,-426.005,-11.020799999999999,1.89486,10.144399999999999
218100.0,44.173200000000001,-195.417,-155.518,-177.10499999999999,-12.963800000000001,1.84737,8.94937
218101.0,470.11700000000002,735.476,837.40300000000002,716.94299999999998,238.17500000000001,-16.758199999999999,-111.59999999999999
218102.0,234.66200000000001,-809.10799999999995,-813.40200000000004,-881.55499999999995,128.16900000000001,-16.052600000000002,-4.2887500000000003
218103.0,71.064700000000002,-956.38,-906.38,-947.20500000000004,-30.031600000000001,-5.3991400000000001,6.6251300000000004
218104.0,117.604,3997.23,4034.1799999999998,4000.73,-60.485599999999998,-23.0671,-1.86965
218105.0,42.8005,1577.5999999999999,1621.8499999999999,1587.3699999999999,-7.7490500000000004,-3.0261200000000001,1.04054
218106.0,39.3992,890.55600000000004,930.82299999999998,902.08799999999997,-7.4096700000000002,-0.32292100000000001,5.6924099999999997
218107.0,71.838399999999993,3616.7199999999998,3659.9099999999999,3616.2800000000002,-28.5152,-13.829800000000001,-9.3626299999999993
218108.0,135.96100000000001,307.36599999999999,350.70499999999998,325.971,-70.809100000000001,-18.917899999999999,17.814
218109.0,127.76000000000001,-1687.21,-1695.3299999999999,-1731.25,69.3078,-0.13591200000000001,-9.3871300000000009
218110.0,160.791,-1266.9400000000001,-1275.3099999999999,-1317.27,88.638300000000001,-5.1509799999999997,-2.7022200000000001
218111.0,101.03100000000001,-2156.23,-2151.0999999999999,-2194.2600000000002,52.046199999999999,7.3753500000000001,-9.1233400000000007
218112.0,60.529899999999998,-2060.6799999999998,-2031.8199999999999,-2079.5700000000002,24.293900000000001,6.6003400000000001,3.0193599999999998
218113.0,59.603099999999998,-1810.1300000000001,-1756.04,-1809.1700000000001,-5.5056000000000003,3.7212900000000002,13.482799999999999
218114.0,62.347700000000003,-1477.6199999999999,-1422.3599999999999,-1471.8199999999999,-17.777000000000001,0.46514899999999998,7.5699399999999999
218115.0,61.973599999999998,1241.9400000000001,1300.6199999999999,1257.48,-17.828399999999998,-0.90112499999999995,6.0856599999999998
218116.0,105.218,-367.35199999999998,-319.64699999999999,-352.74799999999999,-52.550600000000003,-12.365600000000001,13.353999999999999
218117.0,157.203,1281.1700000000001,1318.25,1298.54,-83.351600000000005,-24.481999999999999,18.616299999999999
218118.0,173.309,2184.3099999999999,2213.5700000000002,2198.3299999999999,-92.557000000000002,-29.733599999999999,18.623999999999999
218119.0,174.10900000000001,3003.8400000000001,3031.3099999999999,3014.5999999999999,-93.132599999999996,-31.9255,14.8362
218120.0,156.77000000000001,3690.52,3722.8099999999999,3698.3800000000001,-83.633300000000006,-29.049700000000001,8.3828300000000002
218121.0,128.58099999999999,-3704.21,-3684.6999999999998,-3701.52,-66.812700000000007,-30.473600000000001,2.5882299999999998
218122.0,88.222700000000003,3912.5,3953.5900000000001,3912.6999999999998,-40.715000000000003,-17.6252,-8.1128199999999993
218123.0,62.422499999999999,3250.29,3295.3800000000001,3251.8400000000001,-21.3902,-10.8293,-8.2910000000000004
218124.0,55.878399999999999,2832.1599999999999,2878.9899999999998,2836.6900000000001,-16.244199999999999,-8.1891099999999994,-6.5180499999999997
218125.0,50.748800000000003,2395.6100000000001,2443.0,2402.5900000000001,-12.1807,-6.0365500000000001,-4.3768799999999999
218126.0,46.4163,1971.9000000000001,2018.21,1980.49,-9.4083100000000002,-4.4331800000000001,-1.7583200000000001
218127.0,43.098300000000002,-1758.4100000000001,-1715.24,-1751.48,-8.3232199999999992,-3.25007,1.3973500000000001
218128.0,40.155099999999997,1214.55,1256.3,1225.23,-7.1596700000000002,-1.6909700000000001,3.5724900000000002
218129.0,41.300699999999999,599.64800000000002,640.54999999999995,612.33799999999997,-8.3353699999999993,1.1523300000000001,7.7107400000000004
218130.0,41.832299999999996,331.27499999999998,370.98599999999999,344.40499999999997,-9.4665599999999994,1.49196,9.0645500000000006
218131.0,42.187800000000003,92.993499999999997,131.34899999999999,106.10899999999999,-10.4438,1.4168499999999999,10.1069
218132.0,58.587699999999998,114.57899999999999,89.191800000000001,127.041,2.0777100000000002,26.505800000000001,-8.07714
218133.0,199.89500000000001,983.02599999999995,983.63499999999999,957.98900000000003,114.429,-3.2220200000000001,0.85616099999999995
218134.0,138.636,1314.97,1307.9100000000001,1282.71,78.048400000000001,0.76075400000000004,-5.18825
218135.0,106.792,1817.5799999999999,1823.8800000000001,1791.1800000000001,58.606099999999998,7.3178799999999997,-3.49539
218136.0,84.157600000000002,2090.77,2124.8000000000002,2074.3000000000002,39.165300000000002,12.6214,-2.07151
218137.0,69.599800000000002,1936.75,1999.6300000000001,1940.3900000000001,11.7807,9.8956300000000006,11.49
218138.0,60.025399999999998,1639.95,1700.1099999999999,1651.8599999999999,-8.4765700000000006,2.56786,10.3726
218139.0,84.840699999999998,750.71100000000001,814.68299999999999,773.83399999999995,-34.231499999999997,-5.0198600000000004,12.3706
218140.0,115.41800000000001,210.77099999999999,269.41199999999998,237.131,-55.805900000000001,-12.5732,17.478100000000001
218141.0,139.30799999999999,-572.60199999999998,-522.79300000000001,-545.65300000000002,-70.885000000000005,-19.834299999999999,20.7179
218142.0,157.249,-1518.4100000000001,-1476.6400000000001,-1494.3900000000001,-81.899799999999999,-25.803100000000001,20.725000000000001
218143.0,167.774,-2336.6799999999998,-2305.4499999999998,-2317.2800000000002,-88.181700000000006,-31.726800000000001,18.747800000000002
218144.0,161.77799999999999,-3118.73,-3094.1999999999998,-3105.4499999999998,-85.215100000000007,-33.620899999999999,13.464399999999999
218145.0,94.573899999999995,-3852.4299999999998,-3825.98,-3856.0900000000001,-46.137099999999997,-23.5304,-5.3955799999999998
218146.0,74.974800000000002,-3657.27,-3622.4299999999998,-3663.3099999999999,-32.031700000000001,-17.245699999999999,-7.9580599999999997
218147.0,64.461600000000004,-3341.96,-3302.3899999999999,-3346.1900000000001,-23.9709,-13.121700000000001,-7.4008099999999999
218148.0,56.656700000000001,-2978.8499999999999,-2936.8400000000001,-2979.6500000000001,-18.3156,-9.9547100000000004,-5.9752599999999996
218149.0,50.650599999999997,-2574.2199999999998,-2530.54,-2571.6799999999998,-13.6386,-7.1712699999999998,-4.0784599999999998
218150.0,46.477200000000003,-2157.8000000000002,-2113.5500000000002,-2152.7600000000002,-10.319800000000001,-4.9140300000000003,-1.5526899999999999
218151.0,40.612900000000003,-1384.49,-1343.28,-1375.9300000000001,-7.4494400000000001,-1.8884000000000001,4.2216699999999996
218152.0,39.3491,-1041.04,-1001.84,-1031.27,-7.5876200000000003,-0.77507899999999996,6.4390700000000001
218153.0,39.996200000000002,-736.75999999999999,-698.32500000000005,-725.899,-8.4905500000000007,0.26294899999999999,8.2754499999999993
218154.0,42.626800000000003,-464.13200000000001,-424.31799999999998,-452.07999999999998,-9.5229700000000008,1.41967,9.8039100000000001
218155.0,43.450699999999998,-209.828,-170.71299999999999,-197.398,-10.508800000000001,1.5579499999999999,10.8188
218156.0,430.92399999999998,707.10699999999997,822.221,696.18799999999999,212.376,-12.9145,-108.407
218157.0,216.88,-492.00099999999998,-472.44200000000001,-551.42499999999995,116.58199999999999,-19.609200000000001,-3.3194699999999999
218158.0,48.605600000000003,-1366.46,-1327.8800000000001,-1362.6900000000001,-17.891200000000001,-0.59988799999999998,-3.8321999999999998
218159.0,102.61799999999999,2356.3699999999999,2380.9699999999998,2363.2800000000002,-54.255400000000002,-19.3215,-5.6740599999999999
218160.0,37.173400000000001,1093.9400000000001,1126.73,1099.29,-11.1136,-5.1924299999999999,0.83653999999999995
218161.0,37.314599999999999,686.07799999999997,719.60799999999995,693.476,-9.3708100000000005,-3.90456,7.12425
218162.0,62.786200000000001,2400.4000000000001,2432.6799999999998,2398.79,-26.569099999999999,-10.4931,-11.513500000000001
218163.0,100.866,-319.43599999999998,-284.97300000000001,-306.90899999999999,-54.1952,-11.423500000000001,4.4060100000000002
218164.0,129.596,-1645.0799999999999,-1652.1800000000001,-1694.0899999999999,69.104100000000003,0.63313600000000003,-11.0099
218165.0,154.459,-1223.3800000000001,-1218.72,-1269.23,84.518900000000002,-5.3328300000000004,-1.17855
218166.0,102.499,-1778.6900000000001,-1773.8900000000001,-1813.5,53.4923,6.7243300000000001,-11.322900000000001
218167.0,59.6098,-2135.9299999999998,-2109.52,-2156.3400000000001,24.148299999999999,6.7671400000000004,-2.14025
218168.0,49.219099999999997,-1913.1400000000001,-1867.99,-1916.8900000000001,0.047444699999999999,6.4992999999999999,4.9531599999999996
218169.0,43.545299999999997,-1486.71,-1444.4100000000001,-1484.6900000000001,-6.0305600000000004,5.0295699999999997,-1.0753900000000001
218170.0,42.933300000000003,1406.6199999999999,1452.3900000000001,1417.8900000000001,-5.07721,3.9188399999999999,-2.1701999999999999
218171.0,75.335300000000004,-1003.4299999999999,-965.26400000000001,-993.08100000000002,-38.181399999999996,-6.4494400000000001,1.67815
218172.0,117.84999999999999,252.691,285.05799999999999,264.75400000000002,-64.102999999999994,-15.553599999999999,3.2978999999999998
218173.0,132.38800000000001,921.77700000000004,948.255,932.72199999999998,-72.624099999999999,-19.5685,2.83067
218174.0,130.97,1578.8800000000001,1603.95,1588.5599999999999,-71.467600000000004,-21.0747,-2.4825900000000001
218175.0,125.488,2049.6700000000001,2075.8099999999999,2060.7199999999998,-67.922399999999996,-21.277999999999999,-3.2680400000000001
218176.0,108.015,-2000.2,-1978.5799999999999,-1995.0699999999999,-56.820599999999999,-22.805,-3.57836
218177.0,80.565100000000001,2485.0700000000002,2513.3200000000002,2486.8200000000002,-40.443199999999997,-14.9413,-7.3547500000000001
218178.0,54.698700000000002,2149.75,2184.3899999999999,2148.6900000000001,-19.153400000000001,-7.7458200000000001,-12.563000000000001
218179.0,49.315100000000001,1865.3099999999999,1900.27,1866.1300000000001,-16.378599999999999,-6.5628000000000002,-10.0641
218180.0,44.226700000000001,1590.8199999999999,1625.21,1593.4300000000001,-14.452,-5.9484700000000004,-6.4150400000000003
218181.0,39.895499999999998,1332.1700000000001,1365.6600000000001,1336.3299999999999,-12.635999999999999,-5.5362799999999996,-2.6722000000000001
218182.0,38.089599999999997,-1162.6300000000001,-1130.4400000000001,-1160.05,-11.685499999999999,-5.1275599999999999,0.82375200000000004
218183.0,36.249899999999997,882.20600000000002,914.71500000000003,888.54200000000003,-10.063700000000001,-4.7688600000000001,4.1214399999999998
218184.0,40.736800000000002,490.40199999999999,526.78300000000002,499.197,-9.2538999999999998,-2.5426500000000001,10.037000000000001
218185.0,42.837499999999999,280.78899999999999,317.90699999999998,290.27999999999997,-9.4916699999999992,-1.9227799999999999,12.0853
218186.0,44.032699999999998,81.399699999999996,117.893,90.832400000000007,-10.112399999999999,-1.8786700000000001,13.478199999999999
218187.0,62.5077,92.239999999999995,73.352000000000004,102.59399999999999,0.60596300000000003,31.113099999999999,-10.684900000000001
218188.0,181.74100000000001,747.66399999999999,763.24300000000005,733.06600000000003,103.75,-4.0712700000000002,1.2754399999999999
218189.0,135.75200000000001,1398.3099999999999,1395.6700000000001,1366.45,76.174599999999998,0.057908000000000001,-5.2623100000000003
218190.0,109.68300000000001,1585.8599999999999,1592.46,1555.29,59.303899999999999,7.1161099999999999,-7.0257699999999996
218191.0,85.983599999999996,1928.4100000000001,1959.6099999999999,1912.2,41.302300000000002,12.8691,-3.4991400000000001
218192.0,61.689900000000002,2129.8400000000001,2184.79,2128.48,11.5671,9.8861699999999999,2.2574399999999999
218193.0,43.597700000000003,1644.6800000000001,1690.4200000000001,1652.8800000000001,0.12820599999999999,5.9170699999999998,1.9826699999999999
218194.0,62.107500000000002,1341.3099999999999,1394.9200000000001,1356.4300000000001,-22.8322,-0.26362000000000002,0.50647699999999996
218195.0,83.427199999999999,804.40599999999995,852.92700000000002,824.21299999999997,-40.627400000000002,-6.4050700000000003,5.7665899999999999
218196.0,103.759,203.023,245.536,223.58099999999999,-54.1843,-12.594799999999999,6.4861199999999997
218197.0,118.56,-356.75799999999998,-318.31599999999997,-338.03300000000002,-63.334800000000001,-16.5489,5.5522200000000002
218198.0,126.25,-1021.4400000000001,-992.78499999999997,-1006.67,-68.100999999999999,-21.633299999999998,1.4136899999999999
218199.0,125.464,-1607.1500000000001,-1578.8099999999999,-1595.1300000000001,-67.301699999999997,-22.680399999999999,-0.85765100000000005
218200.0,88.113500000000002,-2252.5500000000002,-2232.3499999999999,-2253.54,-44.819099999999999,-20.2013,-5.3094799999999998
218201.0,67.453100000000006,-2337.5500000000002,-2314.23,-2342.6500000000001,-30.7317,-15.696199999999999,-9.8074300000000001
218202.0,55.613500000000002,-2198.4400000000001,-2168.1599999999999,-2201.6900000000001,-21.104099999999999,-10.659800000000001,-11.407400000000001
218203.0,49.969200000000001,-1935.98,-1901.8900000000001,-1936.6800000000001,-17.0199,-7.5039699999999998,-9.5337399999999999
218204.0,45.408799999999999,-1665.4400000000001,-1631.3699999999999,-1665.0999999999999,-15.032400000000001,-6.1592200000000004,-6.3453900000000001
218205.0,41.131700000000002,-1407.03,-1373.9200000000001,-1405.6500000000001,-13.2484,-5.4863,-2.7267100000000002
218206.0,36.7515,-943.00099999999998,-911.42999999999995,-939.23299999999995,-10.579700000000001,-4.84626,4.1813900000000004
218207.0,36.771900000000002,-747.93299999999999,-716.66099999999994,-742.99400000000003,-9.8634500000000003,-4.4542099999999998,7.1390200000000004
218208.0,38.689599999999999,-563.60299999999995,-531.20799999999997,-557.28200000000004,-9.6778999999999993,-3.6682899999999998,9.8477800000000002
218209.0,42.191400000000002,-375.154,-339.77199999999999,-367.32400000000001,-9.67544,-2.3755799999999998,12.1952
218210.0,44.472000000000001,-176.13300000000001,-139.78299999999999,-167.501,-10.120699999999999,-1.86364,13.8804
218211.0,395.13,450.55799999999999,576.19899999999996,451.03800000000001,190.297,-8.5577400000000008,-102.541
218212.0,203.548,-634.654,-596.61300000000006,-689.44500000000005,105.548,-22.174700000000001,0.87035099999999999
218213.0,39.439100000000003,-1695.6700000000001,-1664.02,-1695.27,-8.6411499999999997,2.5952600000000001,-10.3636
218214.0,90.809799999999996,1085.1300000000001,1096.95,1096.9000000000001,-49.589500000000001,-15.5952,0.37092399999999998
218215.0,33.982999999999997,607.57100000000003,631.71600000000001,611.99800000000005,-11.5039,-7.9501499999999998,4.9176299999999999
218216.0,37.149500000000003,452.608,479.61700000000002,458.983,-9.79284,-7.32789,10.5412
218217.0,50.921799999999998,1364.1700000000001,1392.49,1362.3699999999999,-19.0121,-4.9442199999999996,-13.8954
218218.0,65.855800000000002,-1177.9200000000001,-1151.75,-1170.4200000000001,-34.706400000000002,-3.50929,-6.8776999999999999
218219.0,133.25800000000001,-1351.0599999999999,-1349.9100000000001,-1396.99,70.251999999999995,-1.0051099999999999,-16.173200000000001
218220.0,147.42699999999999,-855.46799999999996,-833.99400000000003,-896.67899999999997,78.684100000000001,-5.9125899999999998,-1.99499
218221.0,104.428,-1986.71,-1977.53,-2023.6400000000001,53.872,2.4895200000000002,-11.4392
218222.0,63.750700000000002,-1854.3800000000001,-1828.1900000000001,-1877.04,26.076599999999999,8.3397799999999993,-2.7631399999999999
218223.0,48.588799999999999,-1794.4200000000001,-1759.05,-1802.4300000000001,11.3565,9.9955999999999996,-5.0189899999999996
218224.0,43.292400000000001,-1910.46,-1875.8099999999999,-1914.2,5.1452799999999996,5.6800499999999996,-10.863899999999999
218225.0,46.119,1905.3299999999999,1949.1300000000001,1909.5699999999999,3.4794499999999999,5.73245,-8.9691700000000001
218226.0,50.077399999999997,-1421.1099999999999,-1391.49,-1415.5,-22.922599999999999,0.079884800000000006,-7.9255899999999997
218227.0,78.344200000000001,-673.08399999999995,-648.33799999999997,-665.24099999999999,-42.188200000000002,-5.7878999999999996,-8.5244
218228.0,91.729100000000003,-239.22800000000001,-219.815,-229.24299999999999,-50.671900000000001,-9.7128200000000007,-6.9649799999999997
218229.0,91.719099999999997,167.018,183.55500000000001,177.642,-49.998800000000003,-12.283300000000001,-9.1187900000000006
218230.0,98.541399999999996,622.93799999999999,636.17700000000002,637.77300000000002,-54.035800000000002,-15.6638,-2.2942200000000001
218231.0,91.637699999999995,-646.64700000000005,-632.596,-635.36800000000005,-49.673699999999997,-16.566199999999998,1.3583400000000001
218232.0,69.1434,1391.99,1413.25,1396.9300000000001,-36.812100000000001,-9.9412299999999991,-3.9839899999999999
218233.0,45.770499999999998,1140.95,1170.2,1138.4100000000001,-13.1227,-4.1929999999999996,-14.017799999999999
218234.0,39.969000000000001,919.98400000000004,947.16700000000003,919.80600000000004,-13.6418,-5.5077800000000003,-8.2552199999999996
218235.0,36.131999999999998,772.57000000000005,797.87900000000002,774.46000000000004,-13.546200000000001,-6.7047299999999996,-2.82158
218236.0,34.271000000000001,678.279,702.577,681.60000000000002,-12.607900000000001,-7.5403900000000004,1.45381
218237.0,35.298900000000003,-565.86000000000001,-541.02200000000005,-563.471,-11.869,-7.8070599999999999,5.0746399999999996
218238.0,34.969900000000003,535.09199999999998,559.899,540.50999999999999,-10.581200000000001,-7.9590199999999998,7.8874199999999997
218239.0,41.072299999999998,349.327,380.32799999999997,356.887,-9.4209899999999998,-6.0457200000000002,13.256600000000001
218240.0,44.200000000000003,217.84700000000001,251.333,226.21000000000001,-9.3075899999999994,-5.2206200000000003,15.283300000000001
218241.0,46.109400000000001,67.192899999999995,101.209,75.724900000000005,-9.5325699999999998,-4.9363099999999998,16.739999999999998
218242.0,63.4114,84.8583,68.062399999999997,88.049400000000006,-3.1571199999999999,31.9724,-13.886699999999999
218243.0,163.084,638.31500000000005,667.69100000000003,629.99699999999996,91.899299999999997,-4.0535500000000004,3.3737400000000002
218244.0,131.94800000000001,926.21500000000003,932.13,895.13900000000001,72.854399999999998,-2.5645500000000001,-9.7075200000000006
218245.0,117.98399999999999,1682.1700000000001,1694.77,1650.3800000000001,62.912399999999998,4.99397,-11.5722
218246.0,86.599500000000006,1998.9200000000001,2036.26,1980.99,39.868600000000001,10.5786,-1.82816
218247.0,55.768500000000003,1753.25,1793.4300000000001,1748.1500000000001,16.867799999999999,10.9359,-4.1880699999999997
218248.0,48.843800000000002,1857.45,1896.0,1858.55,13.2331,7.9564300000000001,-8.6711299999999998
218249.0,46.466999999999999,1635.96,1678.5799999999999,1644.54,-12.2578,3.1719300000000001,-7.1535700000000002
218250.0,54.933999999999997,1448.26,1487.95,1461.0799999999999,-23.9328,-0.45492500000000002,-4.7682200000000003
218251.0,68.1708,1101.0699999999999,1135.8099999999999,1115.25,-34.634700000000002,-4.5768800000000001,-4.8450499999999996
218252.0,80.3626,605.37800000000004,639.55899999999997,619.14800000000002,-42.216900000000003,-6.9521300000000004,-5.1327800000000003
218253.0,86.566699999999997,226.36199999999999,250.58600000000001,238.39099999999999,-46.480200000000004,-11.983700000000001,-6.8704200000000002
218254.0,92.405799999999999,-186.35300000000001,-161.45500000000001,-173.25700000000001,-50.108199999999997,-13.195499999999999,-2.4920100000000001
218255.0,78.690299999999993,-1120.1800000000001,-1112.3199999999999,-1114.5899999999999,-42.050400000000003,-16.636700000000001,-1.6267499999999999
218256.0,52.546999999999997,-1358.5799999999999,-1344.48,-1360.4200000000001,-23.753299999999999,-11.2684,-12.3748
218257.0,45.0717,-1219.9200000000001,-1192.3299999999999,-1222.24,-13.680199999999999,-5.3172899999999998,-13.5982
218258.0,42.521999999999998,-957.48400000000004,-925.94000000000005,-958.62800000000004,-13.1167,-4.3612900000000003,-8.2161600000000004
218259.0,38.784799999999997,-760.53200000000004,-731.66099999999994,-760.55999999999995,-13.5009,-5.7851999999999997,-2.75176
218260.0,36.305,-640.44000000000005,-614.06399999999996,-639.25,-12.857799999999999,-7.0402300000000002,1.5988899999999999
218261.0,35.589100000000002,-503.10700000000003,-478.815,-499.54599999999999,-10.964,-8.1277500000000007,7.9897799999999997
218262.0,36.773800000000001,-434.57100000000003,-409.887,-429.95800000000003,-10.202199999999999,-8.0738599999999998,10.452299999999999
218263.0,39.251100000000001,-356.90899999999999,-330.18200000000002,-351.13,-9.7807399999999998,-7.4139499999999998,12.8514
218264.0,42.792299999999997,-259.56099999999998,-228.93000000000001,-252.55600000000001,-9.4549400000000006,-6.1027699999999996,15.0387
218265.0,45.7012,-131.714,-98.715999999999994,-123.74299999999999,-9.4917400000000001,-5.2419799999999999,16.797699999999999
218266.0,362.52100000000002,430.14400000000001,563.26099999999997,442.80599999999998,172.65299999999999,-3.1129600000000002,-92.683599999999998
218267.0,194.529,-309.17099999999999,-257.92399999999998,-365.673,95.407600000000002,-24.179099999999998,4.6665799999999997
218268.0,39.894599999999997,-2035.8099999999999,-2010.1700000000001,-2038.1600000000001,0.30440099999999998,6.06318,-15.8931
218269.0,70.289500000000004,195.875,201.125,211.21299999999999,-38.044600000000003,-9.8620199999999993,6.4384600000000001
218270.0,30.905799999999999,307.69900000000001,325.02199999999999,314.74799999999999,-8.6459799999999998,-8.6203699999999994,9.6662800000000004
218271.0,36.695999999999998,310.048,331.94499999999999,317.88900000000001,-8.0276499999999995,-8.6271100000000001,13.6714
218272.0,30.030200000000001,537.58299999999997,559.81299999999999,542.01800000000003,-9.1900899999999996,-1.4641500000000001,-8.6940899999999992
218273.0,41.694400000000002,-1638.03,-1619.75,-1632.72,-17.9026,2.7460100000000001,-12.768800000000001
218274.0,128.501,-1338.75,-1325.3800000000001,-1378.96,65.415599999999998,-3.7208999999999999,-20.815999999999999
218275.0,139.53100000000001,-861.25,-826.31899999999996,-896.78200000000004,72.002499999999998,-6.4996200000000002,-4.6600700000000002
218276.0,105.26900000000001,-1552.1500000000001,-1535.73,-1592.22,50.406300000000002,0.59642799999999996,-17.5566
218277.0,72.8767,-1963.4400000000001,-1935.1199999999999,-1987.6300000000001,30.322600000000001,7.4187399999999997,-10.2615
218278.0,58.709299999999999,-2026.48,-1994.27,-2037.5899999999999,19.617799999999999,8.9065100000000008,-13.356999999999999
218279.0,50.324599999999997,-1947.4000000000001,-1917.98,-1954.47,10.871499999999999,6.8998600000000003,-17.432200000000002
218280.0,51.2395,2063.5700000000002,2101.9200000000001,2061.8699999999999,8.2801100000000005,7.2034900000000004,-15.547499999999999
218281.0,37.988199999999999,-1941.6099999999999,-1919.3599999999999,-1940.46,-9.2915799999999997,4.88476,-14.627000000000001
218282.0,45.933,-1469.8,-1453.2,-1462.1700000000001,-22.363800000000001,1.6303399999999999,-11.463900000000001
218283.0,54.341000000000001,-1165.7,-1155.47,-1153.6099999999999,-30.1158,-2.1929599999999998,-5.4977799999999997
218284.0,55.073500000000003,-750.72699999999998,-744.98099999999999,-738.63699999999994,-30.453800000000001,-5.2872700000000004,-4.3668699999999996
218285.0,71.992500000000007,-315.85500000000002,-313.536,-300.096,-39.174199999999999,-9.6167099999999994,5.3051500000000003
218286.0,70.451800000000006,252.80500000000001,259.92000000000002,270.47300000000001,-37.429200000000002,-10.6648,7.7960399999999996
218287.0,47.344700000000003,547.44200000000001,564.83900000000006,558.97799999999995,-25.442,-4.6393899999999997,-0.075693200000000002
218288.0,24.430700000000002,376.00700000000001,396.654,379.30200000000002,-6.1307700000000001,-2.3140299999999998,-5.7425800000000002
218289.0,22.554500000000001,294.87099999999998,313.02199999999999,299.64499999999998,-7.8281900000000002,-4.4409099999999997,0.19480500000000001
218290.0,25.024999999999999,284.16399999999999,301.08600000000001,289.99200000000002,-8.7279199999999992,-6.3048200000000003,4.34931
218291.0,28.049800000000001,294.81299999999999,311.44400000000002,301.33600000000001,-8.8914200000000001,-7.7221799999999998,7.3043399999999998
218292.0,31.5992,-209.58199999999999,-191.03200000000001,-203.035,-8.51309,-8.3870799999999992,10.0755
218293.0,33.726300000000002,317.63400000000001,336.495,325.11200000000002,-8.3609899999999993,-8.9998400000000007,11.7494
218294.0,40.775599999999997,268.50200000000001,295.11599999999999,276.90199999999999,-7.96793,-7.48827,15.7971
218295.0,44.189100000000003,177.79400000000001,207.95400000000001,186.637,-7.9860100000000003,-6.5982700000000003,17.412700000000001
218296.0,46.356999999999999,59.915799999999997,91.765900000000002,69.093999999999994,-8.2605199999999996,-6.1817099999999998,18.468699999999998
218297.0,61.722299999999997,77.474000000000004,61.433799999999998,74.105699999999999,-7.3554599999999999,29.4636,-16.6175
218298.0,147.78399999999999,433.72800000000001,474.959,427.27699999999999,81.104900000000001,-4.6395499999999998,3.3673799999999998
218299.0,124.57599999999999,1049.3699999999999,1062.54,1021.76,67.236000000000004,-3.6059899999999998,-14.3583
218300.0,115.251,1406.6300000000001,1428.5,1375.6500000000001,58.876800000000003,2.3409399999999998,-15.8264
218301.0,88.701800000000006,1805.48,1845.4300000000001,1783.53,38.226599999999998,7.7005499999999998,-10.8371
218302.0,68.040800000000004,2098.4000000000001,2137.71,2089.0700000000002,25.901,9.0512300000000003,-11.132
218303.0,60.6128,2031.4200000000001,2070.23,2027.01,19.114999999999998,7.8018299999999998,-15.2608
218304.0,41.281500000000001,2130.7399999999998,2165.0799999999999,2134.2199999999998,-1.1594800000000001,6.2808799999999998,-13.0372
218305.0,39.971200000000003,1901.5899999999999,1933.05,1908.6099999999999,-10.095700000000001,4.5476999999999999,-11.7189
218306.0,41.762700000000002,1680.6199999999999,1707.3699999999999,1690.3599999999999,-17.4861,1.94709,-9.4084099999999999
218307.0,46.9069,1499.3699999999999,1526.0799999999999,1511.21,-22.7821,0.92764899999999995,-5.8634199999999996
218308.0,49.258800000000001,1145.49,1161.46,1158.55,-26.5855,-4.1364799999999997,-3.5416300000000001
218309.0,61.166499999999999,720.07799999999997,737.01599999999996,736.83500000000004,-33.139400000000002,-5.5900499999999997,4.79922
218310.0,57.808700000000002,-294.38,-291.05000000000001,-280.66399999999999,-30.549499999999998,-11.1904,2.0660500000000002
218311.0,29.923200000000001,-548.83699999999999,-537.47900000000004,-544.10500000000002,-12.880599999999999,-6.17746,-7.8640400000000001
218312.0,26.7241,-401.80099999999999,-379.24900000000002,-400.49700000000001,-6.3107100000000003,-2.12418,-5.78146
218313.0,26.185600000000001,-238.81999999999999,-215.36699999999999,-236.49700000000001,-7.2495000000000003,-2.98333,0.35622900000000002
218314.0,26.907299999999999,-191.488,-170.54400000000001,-187.14500000000001,-8.2618299999999998,-5.2692899999999998,4.8083900000000002
218315.0,29.094200000000001,-195.768,-176.50399999999999,-190.04400000000001,-8.5763400000000001,-7.0671799999999996,7.7973400000000002
218316.0,34.142099999999999,-227.98699999999999,-209.173,-220.83000000000001,-8.3338699999999992,-9.1694200000000006,12.035500000000001
218317.0,36.402099999999997,-242.435,-222.53200000000001,-234.82900000000001,-8.0802099999999992,-9.4156899999999997,13.6708
218318.0,39.195399999999999,-235.36199999999999,-212.76400000000001,-227.23599999999999,-8.0272500000000004,-8.9419299999999993,15.384399999999999
218319.0,42.476599999999998,-190.238,-163.238,-181.59700000000001,-7.8940099999999997,-7.6853699999999998,17.027100000000001
218320.0,45.514400000000002,-101.105,-70.778499999999994,-91.946200000000005,-8.0697500000000009,-6.7218,18.392199999999999
218321.0,331.387,82.823700000000002,221.28399999999999,102.036,155.05199999999999,1.95346,-83.271199999999993
218322.0,187.012,-452.60300000000001,-387.86000000000001,-505.93799999999999,86.289100000000005,-26.032299999999999,6.1545300000000003
218323.0,45.891500000000001,-2177.0,-2157.1500000000001,-2182.1700000000001,7.4445199999999998,8.8972099999999994,-19.820799999999998
218324.0,43.535299999999999,-383.07499999999999,-379.00900000000001,-367.81299999999999,-22.4862,-4.4596400000000003,6.6169500000000001
218325.0,28.036300000000001,278.08199999999999,289.64299999999997,286.97399999999999,-4.4451000000000001,-6.8078399999999997,12.619899999999999
218326.0,33.638399999999997,301.54000000000002,319.14699999999999,310.04599999999999,-5.0242599999999999,-7.14086,14.946999999999999
218327.0,18.200299999999999,0.81728599999999996,13.0806,10.784000000000001,-7.5186500000000001,-2.8865500000000002,1.7477400000000001
218328.0,27.2485,-2132.1199999999999,-2121.3499999999999,-2127.9499999999998,-5.9419599999999999,6.3905799999999999,-11.911799999999999
218329.0,126.795,-1050.6199999999999,-1032.1099999999999,-1092.3399999999999,62.973100000000002,-5.2917399999999999,-20.3399
218330.0,138.745,-609.72299999999996,-566.37199999999996,-643.78700000000003,69.563500000000005,-7.2262300000000002,-4.4686599999999999
218331.0,106.492,-1690.8,-1669.23,-1727.8699999999999,48.9726,0.90712199999999998,-22.392299999999999
218332.0,80.781000000000006,-1789.98,-1760.6099999999999,-1812.4100000000001,32.404899999999998,6.4814999999999996,-20.210100000000001
218333.0,65.624799999999993,-2001.3099999999999,-1972.4000000000001,-2015.24,21.728899999999999,7.8997900000000003,-20.577500000000001
218334.0,54.995600000000003,-2235.3800000000001,-2211.3499999999999,-2244.75,14.089600000000001,8.8536900000000003,-20.845800000000001
218335.0,54.905799999999999,2309.0500000000002,2340.23,2304.27,13.0025,8.9950700000000001,-19.326699999999999
218336.0,36.4803,-2139.29,-2123.54,-2139.96,1.09893,8.09619,-17.0426
218337.0,24.949999999999999,-1822.7,-1813.03,-1815.3699999999999,-9.7555899999999998,5.2295999999999996,-7.7142600000000003
218338.0,32.2742,-1523.55,-1519.3,-1510.6600000000001,-17.358499999999999,1.4514100000000001,0.78754999999999997
218339.0,32.531399999999998,-1188.27,-1186.79,-1176.3699999999999,-17.508700000000001,-0.85634999999999994,1.86006
218340.0,48.646900000000002,-772.40800000000002,-771.33699999999999,-757.95699999999999,-25.047799999999999,-3.3420000000000001,9.2435600000000004
218341.0,43.883299999999998,747.24599999999998,754.23800000000006,764.37,-21.804200000000002,-5.2700899999999997,8.0363600000000002
218342.0,31.6508,-122.09999999999999,-110.63,-107.172,-15.6517,-3.2779699999999998,4.1407400000000001
218343.0,16.4237,82.280100000000004,92.887500000000003,91.099500000000006,-5.0786800000000003,-3.1667000000000001,4.6735800000000003
218344.0,18.985600000000002,136.47900000000001,145.744,145.501,-4.2416299999999998,-3.7652999999999999,7.7523099999999996
218345.0,22.214200000000002,181.501,190.66800000000001,190.68799999999999,-3.9149600000000002,-4.7518000000000002,9.9252699999999994
218346.0,25.348299999999998,231.37899999999999,241.38499999999999,240.56100000000001,-4.0917899999999996,-5.9016000000000002,11.478300000000001
218347.0,28.812200000000001,-153.274,-140.72800000000001,-143.37100000000001,-3.90889,-6.6411800000000003,13.1754
218348.0,30.738399999999999,303.76600000000002,317.65300000000002,312.43299999999999,-4.8139500000000002,-7.3406399999999996,13.7364
218349.0,37.755499999999998,261.911,284.78100000000001,270.476,-5.3471599999999997,-6.1699799999999998,16.582899999999999
218350.0,41.290900000000001,179.63900000000001,206.655,188.393,-5.6371799999999999,-5.4042700000000004,17.813800000000001
218351.0,43.7027,61.297499999999999,90.7059,70.612200000000001,-5.9782500000000001,-5.1052099999999996,18.68
218352.0,57.305100000000003,65.715599999999995,49.216799999999999,57.656599999999997,-11.7746,24.072099999999999,-17.562899999999999
218353.0,137.21199999999999,415.01799999999997,467.78800000000001,412.40199999999999,72.570800000000006,-5.5626100000000003,1.31389
218354.0,124.053,668.41099999999994,687.947,640.67399999999998,65.902199999999993,-4.3992300000000002,-14.2456
218355.0,112.05,1393.6900000000001,1422.1400000000001,1362.23,54.332000000000001,0.19259899999999999,-18.301200000000001
218356.0,93.318899999999999,1826.1199999999999,1866.03,1803.24,38.097200000000001,5.7654800000000002,-20.206
218357.0,78.619699999999995,1912.24,1953.0699999999999,1899.04,28.590800000000002,7.5427600000000004,-19.813400000000001
218358.0,65.465100000000007,2213.8200000000002,2250.29,2205.6399999999999,20.1812,8.2846200000000003,-19.685300000000002
218359.0,45.323,2223.1100000000001,2250.9000000000001,2222.1700000000001,6.8346900000000002,8.8530599999999993,-17.122299999999999
218360.0,34.553699999999999,2269.1700000000001,2293.0300000000002,2272.2399999999998,0.45145099999999999,8.2562099999999994,-12.691800000000001
218361.0,25.698,2132.0100000000002,2150.9000000000001,2139.1500000000001,-6.0703199999999997,5.9902100000000003,-7.5149299999999997
218362.0,26.7438,1794.98,1813.99,1805.6199999999999,-10.954700000000001,5.1488100000000001,-1.0640799999999999
218363.0,28.484100000000002,1518.9400000000001,1527.6800000000001,1532.49,-14.7498,0.0409266,2.3943599999999998
218364.0,42.095399999999998,1159.5699999999999,1171.26,1176.53,-20.506599999999999,-0.86760599999999999,9.6950900000000004
218365.0,36.487099999999998,382.08199999999999,390.64299999999997,398.31,-17.452200000000001,-6.4032,5.6820500000000003
218366.0,21.289200000000001,173.49100000000001,184.994,183.678,-8.7673400000000008,-5.1923399999999997,2.7592400000000001
218367.0,18.881599999999999,81.436199999999999,94.693200000000004,87.756299999999996,-5.8384400000000003,-3.9706199999999998,5.0017300000000002
218368.0,20.384799999999998,7.4380600000000001,19.490400000000001,14.6,-4.4500999999999999,-3.9163600000000001,8.1625399999999999
218369.0,23.142399999999999,-44.589100000000002,-33.162300000000002,-35.829599999999999,-3.6158999999999999,-4.5162000000000004,10.455500000000001
218370.0,26.253,-94.0685,-82.206999999999994,-84.453900000000004,-3.5801500000000002,-5.5746700000000002,12.0892
218371.0,31.146599999999999,-201.39699999999999,-187.572,-191.518,-4.3568800000000003,-7.4242800000000004,14.0908
218372.0,33.362400000000001,-224.61199999999999,-208.78399999999999,-214.84700000000001,-4.7275499999999999,-7.8372900000000003,14.9489
218373.0,36.127299999999998,-221.18600000000001,-201.977,-211.42699999999999,-5.11721,-7.5289099999999998,16.122599999999998
218374.0,39.524999999999999,-182.703,-158.52799999999999,-172.99799999999999,-5.33582,-6.4560399999999998,17.395
218375.0,42.686500000000002,-99.989900000000006,-71.959800000000001,-90.096699999999998,-5.7226800000000004,-5.6019300000000003,18.470600000000001
218376.0,303.58699999999999,131.56,267.93700000000001,148.96600000000001,141.29599999999999,6.6303000000000001,-72.138099999999994
218377.0,180.00899999999999,-112.348,-35.838799999999999,-160.727,77.599900000000005,-27.801600000000001,6.4161099999999998
218378.0,47.871499999999997,-2320.77,-2305.5999999999999,-2326.52,14.0853,10.7127,-18.275700000000001
218379.0,31.982099999999999,-624.74000000000001,-626.15200000000004,-608.35500000000002,-12.728899999999999,-1.32826,8.9047300000000007
218380.0,25.159700000000001,439.25299999999999,444.76600000000002,447.31799999999998,-0.97631400000000002,-3.70892,13.3903
218381.0,28.362100000000002,400.05500000000001,413.488,407.03899999999999,-1.4898199999999999,-3.36138,14.4735
218382.0,28.056999999999999,-68.177300000000002,-69.166600000000003,-53.135100000000001,-7.1244199999999998,-2.15551,11.2376
218383.0,20.279900000000001,-2127.8000000000002,-2121.5700000000002,-2125.3299999999999,1.3210900000000001,7.81372,-8.0286399999999993
218384.0,129.65700000000001,-1161.55,-1128.76,-1201.5599999999999,60.361800000000002,-9.5972799999999996,-23.213899999999999
218385.0,139.602,-662.42399999999998,-602.755,-692.755,65.089100000000002,-9.86496,-8.0972299999999997
218386.0,106.76600000000001,-1388.5899999999999,-1356.51,-1419.8599999999999,46.6721,-2.0086200000000001,-24.782299999999999
218387.0,85.031300000000002,-1903.2,-1871.95,-1922.6700000000001,34.164499999999997,6.35039,-23.404299999999999
218388.0,70.270200000000003,-2105.8699999999999,-2081.1900000000001,-2120.5300000000002,26.508600000000001,9.2066499999999998,-21.523
218389.0,58.321599999999997,-2134.8499999999999,-2114.71,-2144.3899999999999,20.388300000000001,10.1053,-19.6585
218390.0,57.4831,2294.2800000000002,2321.8200000000002,2288.4099999999999,18.6418,10.221500000000001,-18.198799999999999
218391.0,36.012500000000003,-2340.5,-2329.8099999999999,-2342.9000000000001,8.2100899999999992,9.9583300000000001,-14.737399999999999
218392.0,14.5367,-2004.05,-1998.8800000000001,-1998.96,-2.7803100000000001,6.6856299999999997,-3.0415100000000002
218393.0,23.895,-1713.21,-1712.8199999999999,-1702.1199999999999,-10.527699999999999,3.2431800000000002,5.4209300000000002
218394.0,23.5947,-1310.3,-1311.1800000000001,-1299.0899999999999,-10.531000000000001,1.7326299999999999,5.1185900000000002
218395.0,37.839700000000001,-953.36000000000001,-953.30100000000004,-936.80700000000002,-15.8466,0.62672099999999997,11.608700000000001
218396.0,30.462800000000001,963.95699999999999,968.072,979.60199999999998,-12.170199999999999,-1.7809299999999999,9.6053300000000004
218397.0,31.567499999999999,-323.77199999999999,-324.01799999999997,-307.06,-10.7866,-2.0857700000000001,10.815899999999999
218398.0,26.4009,111.27,110.006,124.46599999999999,-4.4889799999999997,-2.0834899999999998,11.9876
218399.0,25.3001,254.81999999999999,254.488,266.22899999999998,-2.7797900000000002,-2.54474,12.428800000000001
218400.0,24.7075,361.23399999999998,362.25599999999997,371.00799999999998,-1.9996700000000001,-2.9806599999999999,12.717700000000001
218401.0,24.547699999999999,419.57400000000001,422.334,428.14999999999998,-1.3915900000000001,-3.3670800000000001,12.9778
218402.0,26.219100000000001,-320.709,-315.09899999999999,-310.92899999999997,-0.63151500000000005,-4.0018000000000002,13.7348
218403.0,26.363800000000001,433.24400000000003,442.18400000000003,440.923,-1.0966100000000001,-3.8104200000000001,13.876200000000001
218404.0,32.299799999999998,330.38499999999999,349.43400000000003,336.60300000000001,-2.1985100000000002,-2.3104200000000001,15.595800000000001
218405.0,35.589100000000002,211.80099999999999,234.77600000000001,217.738,-2.81839,-1.74194,16.400500000000001
218406.0,37.812899999999999,72.282700000000006,97.817400000000006,78.6935,-3.4184000000000001,-1.5322100000000001,16.914400000000001
218407.0,53.769599999999997,62.723599999999998,44.030999999999999,52.8917,-15.8285,18.314599999999999,-17.038900000000002
218408.0,127.664,208.80699999999999,274.61200000000002,211.25700000000001,63.176400000000001,-6.6383000000000001,-2.3782199999999998
218409.0,128.71100000000001,942.64999999999998,980.18200000000002,915.32399999999996,63.710700000000003,-9.1392199999999999,-17.868099999999998
218410.0,115.54900000000001,1305.8099999999999,1349.55,1276.2,50.5366,-4.4772699999999999,-22.693300000000001
218411.0,95.089799999999997,1690.1800000000001,1736.3099999999999,1670.0899999999999,36.258699999999997,2.88001,-23.197399999999998
218412.0,81.683300000000003,2129.6100000000001,2167.27,2114.96,30.5138,8.0014699999999994,-22.379999999999999
218413.0,69.796800000000005,2190.0100000000002,2222.9499999999998,2179.71,24.6388,9.3256399999999999,-20.487200000000001
218414.0,46.324800000000003,2460.1799999999998,2482.1599999999999,2456.8699999999999,13.0152,10.725899999999999,-15.5533
218415.0,33.343600000000002,2342.0799999999999,2361.1300000000001,2342.1399999999999,7.1346600000000002,9.9944000000000006,-9.9577000000000009
218416.0,18.916,2186.8400000000001,2200.4899999999998,2191.5500000000002,0.52149199999999996,7.7035400000000003,-3.4061900000000001
218417.0,19.734200000000001,2032.75,2046.8099999999999,2040.9200000000001,-4.6823699999999997,6.8104300000000002,3.4049700000000001
218418.0,21.327300000000001,1686.04,1690.9300000000001,1697.8499999999999,-8.8791600000000006,1.7900100000000001,5.8592599999999999
218419.0,34.001899999999999,1293.3099999999999,1301.8599999999999,1308.52,-13.5848,1.5248699999999999,11.849500000000001
218420.0,31.770099999999999,652.78700000000003,657.01599999999996,669.18799999999999,-11.0908,-3.1027399999999998,11.459300000000001
218421.0,29.334199999999999,361.536,364.476,376.76900000000001,-7.8674499999999998,-3.7273999999999998,12.0726
218422.0,27.833600000000001,130.80500000000001,132.12,144.708,-4.8762400000000001,-3.3069700000000002,12.8301
218423.0,26.726299999999998,-37.393300000000004,-36.099800000000002,-24.903400000000001,-2.67753,-3.1836000000000002,13.176600000000001
218424.0,26.2879,-175.27099999999999,-173.13499999999999,-164.05000000000001,-1.7195499999999999,-3.4502299999999999,13.416
218425.0,25.851199999999999,-274.221,-270.887,-264.048,-1.0511999999999999,-3.6566800000000002,13.468
218426.0,27.275300000000001,-337.26299999999998,-328.71300000000002,-327.47899999999998,-0.70244499999999999,-4.2984900000000001,14.164
218427.0,28.376799999999999,-333.601,-321.87799999999999,-324.07299999999998,-1.07206,-4.2978300000000003,14.489699999999999
218428.0,30.5381,-301.60700000000003,-285.73000000000002,-292.60899999999998,-1.7573700000000001,-3.7456100000000001,15.177199999999999
218429.0,33.957299999999996,-229.327,-208.215,-221.19900000000001,-2.3316400000000002,-2.57125,16.091100000000001
218430.0,37.021900000000002,-114.551,-89.742199999999997,-106.669,-3.0199400000000001,-1.9305399999999999,16.832799999999999
218431.0,284.755,-62.584000000000003,69.095600000000005,-48.0749,134.79400000000001,10.264699999999999,-59.503700000000002
218432.0,172.91300000000001,-314.35700000000003,-235.43199999999999,-364.12400000000002,69.629999999999995,-29.648099999999999,5.2612500000000004
218433.0,49.1327,-2206.71,-2193.48,-2212.75,18.593,11.4274,-15.208299999999999
218434.0,43.812800000000003,-482.37700000000001,-490.08600000000001,-459.86399999999998,-8.5050299999999996,-1.05427,17.883099999999999
218435.0,24.876000000000001,746.04899999999998,750.22500000000002,752.65499999999997,2.1242000000000001,-0.53163099999999996,13.795500000000001
218436.0,23.619900000000001,576.66499999999996,587.15599999999995,578.40200000000004,0.15759300000000001,0.81232700000000002,12.396100000000001
218437.0,48.303100000000001,225.46199999999999,216.37799999999999,249.77699999999999,-5.1595500000000003,-1.3412900000000001,21.2395
218438.0,20.3414,-2192.5500000000002,-2189.04,-2190.6700000000001,7.2684699999999998,8.8403899999999993,-1.96376
218439.0,122.446,-959.28700000000003,-909.95299999999997,-991.08900000000006,47.209600000000002,-10.9711,-31.260300000000001
218440.0,129.46899999999999,-451.82499999999999,-373.98399999999998,-469.858,50.716000000000001,-11.379099999999999,-17.022099999999998
218441.0,106.974,-1604.53,-1567.7,-1637.0599999999999,39.642299999999999,-4.3699199999999996,-31.929600000000001
218442.0,85.534700000000001,-1724.1300000000001,-1689.8499999999999,-1741.48,31.2714,3.69868,-27.511500000000002
218443.0,66.0107,-1972.6099999999999,-1942.05,-1982.1400000000001,22.950700000000001,8.3098100000000006,-20.447700000000001
218444.0,57.307499999999997,-2238.1700000000001,-2215.98,-2246.1900000000001,20.189399999999999,10.4734,-18.235399999999998
218445.0,57.366100000000003,2314.0300000000002,2339.6199999999999,2306.6900000000001,20.285399999999999,10.251200000000001,-16.777999999999999
218446.0,34.595199999999998,-2189.0900000000001,-2181.6100000000001,-2192.1399999999999,13.4145,10.683199999999999,-8.6894600000000004
218447.0,15.2959,-1889.46,-1886.45,-1885.77,3.3130299999999999,7.6376200000000001,2.19163
218448.0,23.211400000000001,-1607.4100000000001,-1608.6900000000001,-1596.8599999999999,-4.5289999999999999,4.4161999999999999,9.8695699999999995
218449.0,24.244900000000001,-1299.28,-1302.3499999999999,-1287.01,-5.0684399999999998,2.50223,9.9039900000000003
218450.0,42.9405,-901.91499999999996,-905.71799999999996,-881.73699999999997,-10.3947,0.85750700000000002,18.431699999999999
218451.0,38.707900000000002,873.649,872.74300000000005,892.89800000000002,-8.4567399999999999,-0.89825900000000003,17.2486
218452.0,48.835299999999997,-96.499200000000002,-105.379,-71.881,-7.8967900000000002,-1.0774300000000001,20.743099999999998
218453.0,45.622599999999998,494.29599999999999,486.41699999999997,516.16099999999994,-2.2481599999999999,-1.14954,21.2121
218454.0,40.015900000000002,662.11400000000003,656.07399999999996,679.47900000000004,0.81445900000000004,-0.54071599999999997,19.625499999999999
218455.0,34.6143,742.59199999999998,739.73400000000004,756.24099999999999,2.9492500000000001,-0.39557500000000001,17.683299999999999
218456.0,29.490300000000001,767.80600000000004,768.61099999999999,778.09500000000003,3.1081099999999999,-0.61270100000000005,15.719799999999999
218457.0,27.7926,-639.57100000000003,-635.29600000000005,-628.18799999999999,2.95133,-1.3605499999999999,14.623699999999999
218458.0,22.752800000000001,679.75300000000004,686.971,683.48699999999997,1.00878,-0.11795899999999999,12.589700000000001
218459.0,27.488399999999999,439.32400000000001,454.02600000000001,439.762,-0.42906699999999998,2.28654,13.284800000000001
218460.0,30.041899999999998,272.73000000000002,289.84500000000003,272.84300000000002,-0.74326499999999995,2.9770300000000001,13.9435
218461.0,32.130299999999998,94.066900000000004,113.42400000000001,94.782300000000006,-0.84113199999999999,3.32856,14.555899999999999
218462.0,53.520200000000003,60.529400000000003,38.695500000000003,50.505600000000001,-19.846,13.666399999999999,-15.960000000000001
218463.0,118.58499999999999,233.364,309.00900000000001,236.161,52.253999999999998,-7.6998499999999996,-7.6302899999999996
218464.0,119.923,591.59400000000005,648.16999999999996,572.34000000000003,49.782699999999998,-11.359400000000001,-25.156300000000002
218465.0,113.956,1348.3299999999999,1400.28,1320.3900000000001,40.750999999999998,-7.4710400000000003,-31.1265
218466.0,98.693200000000004,1726.8299999999999,1775.3499999999999,1705.51,32.6173,0.59902200000000005,-30.027200000000001
218467.0,79.736900000000006,1849.3699999999999,1891.9200000000001,1837.25,27.109000000000002,7.5085499999999996,-22.441400000000002
218468.0,64.8399,2180.3699999999999,2214.25,2171.1300000000001,20.7865,8.4283300000000008,-19.569900000000001
218469.0,47.569600000000001,2264.1500000000001,2284.4000000000001,2259.8200000000002,18.3596,11.759399999999999,-10.334099999999999
218470.0,33.111899999999999,2326.4499999999998,2342.8299999999999,2325.4499999999998,12.0846,10.414,-3.9676900000000002
218471.0,20.9724,2197.27,2208.75,2200.8899999999999,6.28301,8.2359100000000005,2.2027199999999998
218472.0,21.801100000000002,1870.27,1882.8199999999999,1876.96,0.77105699999999999,7.4321099999999998,7.9488399999999997
218473.0,21.247399999999999,1615.8199999999999,1619.71,1627.03,-3.7380900000000001,2.7232799999999999,9.8334100000000007
218474.0,36.192399999999999,1281.8199999999999,1287.6700000000001,1297.6300000000001,-8.5928100000000001,2.4416500000000001,17.1172
218475.0,46.230200000000004,467.32600000000002,462.745,489.70699999999999,-8.8941300000000005,-1.9266799999999999,20.529199999999999
218476.0,46.992400000000004,114.351,107.646,137.27699999999999,-6.5411799999999998,-2.5496300000000001,21.104199999999999
218477.0,46.489600000000003,-180.816,-187.369,-158.256,-3.5613600000000001,-2.94293,21.583600000000001
218478.0,42.646799999999999,-417.26600000000002,-422.88799999999998,-397.089,-0.047079900000000001,-2.5958000000000001,20.3828
218479.0,37.418399999999998,-555.11699999999996,-557.67600000000004,-538.05799999999999,2.8481200000000002,-1.8224400000000001,18.480699999999999
218480.0,32.886699999999998,-616.24900000000002,-614.81299999999999,-601.67499999999995,3.77088,-1.4942299999999999,16.7196
218481.0,23.928899999999999,-616.774,-609.94299999999998,-608.76300000000003,1.64219,-0.91384200000000004,12.9857
218482.0,22.907499999999999,-546.279,-536.93600000000004,-540.71600000000001,0.52764800000000001,-0.23608100000000001,12.3489
218483.0,24.668700000000001,-441.24700000000001,-428.92700000000002,-437.33999999999997,-0.21107400000000001,0.82472000000000001,12.747
218484.0,28.680099999999999,-306.28800000000001,-289.70800000000003,-303.61200000000002,-0.45204800000000001,2.3083399999999998,13.7629
218485.0,31.344899999999999,-143.249,-123.965,-140.78999999999999,-0.65384600000000004,2.9349799999999999,14.432399999999999
218486.0,271.35199999999998,112.10899999999999,246.471,127.024,128.08099999999999,11.196400000000001,-50.890599999999999
218487.0,162.84999999999999,-118.33,-41.906700000000001,-167.14599999999999,62.868600000000001,-30.0168,1.3445199999999999
218488.0,47.373100000000001,-2057.2600000000002,-2045.04,-2059.02,22.301500000000001,12.5091,-6.0270200000000003
218489.0,53.5916,-266.67899999999997,-273.58999999999997,-241.19800000000001,-10.0791,-4.1188700000000003,23.4041
218490.0,21.123200000000001,1060.6400000000001,1069.0899999999999,1057.76,2.2495500000000002,2.43181,10.150700000000001
218491.0,22.045200000000001,672.77800000000002,680.43600000000004,668.50699999999995,-0.20902000000000001,4.2961600000000004,10.342499999999999
218492.0,70.400899999999993,657.11599999999999,645.625,690.01900000000001,-11.6655,-5.1724300000000003,30.957100000000001
218493.0,34.613700000000001,-1759.01,-1755.9000000000001,-1754.71,15.1759,9.9370200000000004,8.0873200000000001
218494.0,108.292,-941.15700000000004,-895.19100000000003,-970.18899999999996,39.207799999999999,-5.3075400000000004,-30.224799999999998
218495.0,113.98399999999999,-607.601,-532.97299999999996,-621.59299999999996,40.578400000000002,-9.7293800000000008,-17.882100000000001
218496.0,108.679,-1228.9000000000001,-1198.7,-1263.1400000000001,39.715400000000002,-1.2092000000000001,-36.314900000000002
218497.0,87.020600000000002,-1918.04,-1888.0999999999999,-1936.3299999999999,32.850099999999998,1.4090199999999999,-29.1572
218498.0,56.935499999999998,-2035.9100000000001,-2005.29,-2040.3900000000001,21.4299,8.0694199999999991,-13.834099999999999
218499.0,50.593899999999998,-1898.29,-1876.8900000000001,-1901.2,20.448899999999998,12.513500000000001,-10.1135
218500.0,51.228000000000002,1987.0799999999999,2008.5599999999999,1980.79,21.471299999999999,10.9518,-9.0453100000000006
218501.0,39.868499999999997,-2027.79,-2021.27,-2026.0799999999999,19.298999999999999,11.6098,3.3385400000000001
218502.0,30.329000000000001,-1645.78,-1642.4200000000001,-1641.1700000000001,11.664300000000001,8.8178999999999998,9.3328000000000007
218503.0,30.4175,-1403.77,-1403.99,-1393.5799999999999,3.0794700000000002,5.3698100000000002,15.3195
218504.0,29.449200000000001,-1044.3199999999999,-1045.9200000000001,-1032.8,-0.236153,2.0331199999999998,15.286899999999999
218505.0,47.938800000000001,-678.97000000000003,-681.97400000000005,-658.91700000000003,-7.9976900000000004,-0.86750799999999995,23.328199999999999
218506.0,46.061,654.55100000000004,655.97000000000003,675.44500000000005,-8.6262600000000003,-2.25543,22.1676
218507.0,65.969999999999999,192.24299999999999,182.26300000000001,224.99700000000001,-12.0898,-5.1151200000000001,27.903199999999998
218508.0,62.0959,1020.75,1011.83,1049.1300000000001,-7.9157599999999997,-4.3792499999999999,28.7089
218509.0,50.438600000000001,1252.75,1247.8399999999999,1275.1600000000001,-3.9177200000000001,-2.8845900000000002,24.743300000000001
218510.0,38.487000000000002,1329.04,1329.1300000000001,1340.26,-1.5028600000000001,-1.2152099999999999,21.175599999999999
218511.0,25.642199999999999,1243.23,1249.3900000000001,1244.0799999999999,1.6787000000000001,0.88434800000000002,14.297499999999999
218512.0,20.366499999999998,-1084.8800000000001,-1076.0999999999999,-1082.0999999999999,2.3976199999999999,1.2675099999999999,10.525399999999999
218513.0,20.505099999999999,859.36699999999996,867.04499999999996,855.89400000000001,0.73164899999999999,3.27813,9.8136399999999995
218514.0,26.050899999999999,494.93799999999999,504.56599999999997,488.98399999999998,-0.71609599999999995,5.8798199999999996,11.3712
218515.0,27.935600000000001,300.44,310.63,293.041,-0.98366500000000001,6.73576,11.6531
218516.0,30.243099999999998,109.45999999999999,121.08,100.443,-0.85572899999999996,7.6804500000000004,11.753
218517.0,55.691899999999997,59.418500000000002,34.5458,49.010599999999997,-23.308800000000002,10.955500000000001,-14.646000000000001
218518.0,112.36799999999999,209.09200000000001,287.72399999999999,211.33199999999999,44.917499999999997,-6.4070799999999997,-12.094799999999999
218519.0,101.72499999999999,723.69299999999998,779.60699999999997,707.29899999999998,37.678600000000003,-7.9225599999999998,-23.0138
218520.0,104.86499999999999,963.26300000000003,1003.9299999999999,934.67700000000002,35.090000000000003,-4.9693199999999997,-34.620399999999997
218521.0,105.765,1559.71,1601.8399999999999,1534.8299999999999,35.472499999999997,1.1214,-36.360500000000002
218522.0,77.671199999999999,2118.98,2165.2800000000002,2107.96,25.483599999999999,7.3534499999999996,-19.557500000000001
218523.0,53.036000000000001,1961.49,1991.9300000000001,1956.1500000000001,18.312000000000001,9.6478300000000008,-11.6922
218524.0,48.193399999999997,2196.8499999999999,2216.7600000000002,2193.73,21.991399999999999,11.5962,0.251272
218525.0,40.969200000000001,2009.5899999999999,2025.26,2011.9000000000001,18.369700000000002,10.014200000000001,7.0872099999999998
218526.0,34.900599999999997,1821.8599999999999,1834.3,1828.1900000000001,13.821099999999999,8.3581199999999995,10.314500000000001
218527.0,33.972900000000003,1692.6900000000001,1705.8900000000001,1700.6900000000001,8.6063100000000006,8.4268900000000002,13.979200000000001
218528.0,28.838699999999999,1389.55,1395.54,1401.24,2.4710800000000002,3.7302900000000001,14.933999999999999
218529.0,41.005400000000002,1020.39,1027.79,1036.0999999999999,-4.7710800000000004,2.1650499999999999,21.709299999999999
218530.0,59.075299999999999,234.184,231.37299999999999,260.81999999999999,-12.504200000000001,-4.7164000000000001,26.8443
218531.0,69.019900000000007,-229.43600000000001,-238.20599999999999,-198.45400000000001,-13.1172,-6.2471100000000002,30.670400000000001
218532.0,64.908799999999999,-675.81700000000001,-687.077,-647.38,-10.520899999999999,-7.3572600000000001,28.653500000000001
218533.0,54.413200000000003,-997.85599999999999,-1006.16,-973.44299999999998,-6.2165600000000003,-6.2970699999999997,24.887899999999998
218534.0,43.654499999999999,-1175.5999999999999,-1180.52,-1156.8699999999999,-2.5413600000000001,-4.2861799999999999,21.324999999999999
218535.0,26.123799999999999,-1212.24,-1210.8,-1203.95,0.84838000000000002,-2.2539500000000001,14.214600000000001
218536.0,21.562000000000001,-882.76700000000005,-872.17499999999995,-881.65700000000004,1.1867099999999999,3.2186900000000001,10.455500000000001
218537.0,21.760899999999999,-685.63199999999995,-676.42700000000002,-686.39200000000005,-0.18495200000000001,3.6188199999999999,10.6745
218538.0,23.294,-506.56999999999999,-497.57400000000001,-508.99400000000003,-0.84879800000000005,4.3334999999999999,11.1877
218539.0,26.754300000000001,-331.37700000000001,-320.44499999999999,-335.995,-0.97055400000000003,5.8254700000000001,11.8299
218540.0,28.187000000000001,-144.28999999999999,-132.553,-150.41499999999999,-0.70811299999999999,6.7439200000000001,11.682
218541.0,255.649,-37.000300000000003,107.51900000000001,-17.466100000000001,114.93600000000001,10.8881,-48.046399999999998
218542.0,155.00200000000001,-366.89499999999998,-292.16399999999999,-409.10300000000001,60.753599999999999,-28.4635,-0.72601599999999999
218543.0,48.874000000000002,-1687.3800000000001,-1668.1600000000001,-1675.26,20.3826,11.1707,12.712
218544.0,56.337299999999999,-41.136099999999999,-41.9955,-14.454000000000001,-5.29101,-5.1884100000000002,27.5291
218545.0,25.891200000000001,1274.96,1289.8099999999999,1268.9100000000001,3.1662499999999998,4.7974300000000003,8.6434700000000007
218546.0,26.428799999999999,758.05100000000004,765.57399999999996,756.37199999999996,-0.56999500000000003,5.4815300000000002,13.3581
218547.0,89.882900000000006,937.50699999999995,928.37199999999996,981.46699999999998,-18.223199999999999,-8.8636599999999994,38.425199999999997
218548.0,53.680900000000001,-1300.25,-1289.4000000000001,-1290.8800000000001,21.216000000000001,9.5887399999999996,19.5929
218549.0,102.143,-745.28800000000001,-703.16499999999996,-772.38099999999997,41.775799999999997,-1.80785,-22.642800000000001
218550.0,107.361,-436.27199999999999,-371.33199999999999,-453.96100000000001,41.491500000000002,-8.2719299999999993,-12.618600000000001
218551.0,106.79900000000001,-1395.8199999999999,-1363.3299999999999,-1425.21,42.241,0.73292000000000002,-32.545299999999997
218552.0,90.358199999999997,-1647.9100000000001,-1616.04,-1667.6800000000001,34.185000000000002,0.24469199999999999,-29.563800000000001
218553.0,57.848500000000001,-1885.1900000000001,-1853.27,-1888.78,23.616399999999999,6.0457999999999998,-11.7943
218554.0,46.350200000000001,-1971.52,-1945.1099999999999,-1965.23,20.4617,10.1806,1.86585
218555.0,49.576700000000002,1927.6300000000001,1957.9200000000001,1929.8099999999999,19.767199999999999,9.0342900000000004,7.8389100000000003
218556.0,55.840299999999999,-1423.6900000000001,-1409.72,-1411.0699999999999,20.383500000000002,11.2309,20.939
218557.0,49.8033,-1029.8599999999999,-1018.85,-1021.6,20.445499999999999,8.5378100000000003,17.408999999999999
218558.0,46.691099999999999,-852.99199999999996,-844.98099999999999,-840.06299999999999,12.7972,6.2179099999999998,21.947099999999999
218559.0,42.827100000000002,-672.53800000000001,-667.649,-659.82500000000005,8.6063200000000002,3.28877,22.031300000000002
218560.0,51.344099999999997,-393.28699999999998,-390.59300000000002,-373.60700000000003,0.96466399999999997,-0.32251000000000002,27.637899999999998
218561.0,50.658000000000001,389.40600000000001,400.66699999999997,412.464,-1.69272,-1.8578600000000001,26.760999999999999
218562.0,74.677800000000005,390.875,384.58499999999998,428.024,-13.235900000000001,-8.9684899999999992,32.437800000000003
218563.0,81.239800000000002,1436.1099999999999,1427.49,1472.8,-15.382,-6.8611800000000001,36.567900000000002
218564.0,61.343400000000003,1704.8299999999999,1701.0899999999999,1729.23,-9.3772000000000002,-4.6205400000000001,30.191600000000001
218565.0,43.753100000000003,1805.3399999999999,1811.8299999999999,1817.47,-4.1608099999999997,0.20642099999999999,24.165199999999999
218566.0,29.941400000000002,1637.0599999999999,1651.95,1634.97,1.7781199999999999,4.0626199999999999,13.909000000000001
218567.0,23.7453,-1466.96,-1452.53,-1471.71,2.2830599999999999,3.8140900000000002,8.2707899999999999
218568.0,23.2257,968.03999999999996,977.87,965.50199999999995,0.60708700000000004,4.5707399999999998,10.764699999999999
218569.0,31.919899999999998,572.05499999999995,581.82799999999997,567.76900000000001,-0.13914299999999999,7.6273400000000002,15.1496
218570.0,34.167299999999997,363.72300000000001,374.86000000000001,356.98399999999998,0.52774100000000002,8.8081899999999997,15.158300000000001
218571.0,36.334000000000003,139.452,152.93199999999999,129.636,0.92014499999999999,10.5077,13.856299999999999
218572.0,57.7759,59.4116,32.058,46.961199999999998,-25.6312,9.7758400000000005,-13.1379
218573.0,111.911,301.089,380.50999999999999,304.00900000000001,44.613999999999997,-3.4603700000000002,-12.010400000000001
218574.0,96.320099999999996,405.92899999999997,460.202,388.51100000000002,36.953000000000003,-6.2839099999999997,-17.011800000000001
218575.0,98.261700000000005,975.41499999999996,1010.97,949.20399999999995,37.044600000000003,-2.5701499999999999,-29.6373
218576.0,104.93000000000001,1499.72,1541.25,1475.7,36.185899999999997,0.55378899999999998,-35.506300000000003
218577.0,81.256600000000006,1764.3399999999999,1813.1800000000001,1751.22,25.687899999999999,5.5082800000000001,-21.087
218578.0,56.934899999999999,2004.8599999999999,2043.4100000000001,2002.4200000000001,21.3169,9.0101300000000002,-4.0148999999999999
218579.0,52.444600000000001,1629.8699999999999,1653.51,1636.53,18.765899999999998,8.6729000000000003,18.4621
218580.0,53.085299999999997,1468.0899999999999,1485.8199999999999,1478.02,20.164400000000001,7.6431500000000003,19.884399999999999
218581.0,51.110199999999999,1281.7,1299.1400000000001,1292.52,20.232600000000001,7.4351599999999998,18.1264
218582.0,52.381300000000003,1044.0799999999999,1064.71,1056.53,17.021100000000001,8.4600299999999997,21.1066
218583.0,46.386499999999998,903.15300000000002,917.61199999999997,918.072,11.396800000000001,4.9110100000000001,22.164400000000001
218584.0,49.933999999999997,697.87900000000002,712.46900000000005,714.95100000000002,4.9216300000000004,2.8506100000000001,26.715199999999999
218585.0,64.356999999999999,9.7150499999999997,15.6059,40.2151,-10.3086,-5.3719000000000001,31.3643
218586.0,85.446899999999999,-460.83100000000002,-463.94400000000002,-421.16300000000001,-18.771599999999999,-8.6685800000000004,37.911799999999999
218587.0,86.269900000000007,-1052.0899999999999,-1064.6500000000001,-1012.51,-18.497599999999998,-9.86538,36.065600000000003
218588.0,68.252899999999997,-1495.9300000000001,-1508.5599999999999,-1466.3099999999999,-13.0002,-8.6069899999999997,28.9693
218589.0,48.618899999999996,-1707.47,-1713.47,-1687.5699999999999,-7.8089300000000001,-5.3549100000000003,22.682600000000001
218590.0,21.842300000000002,-1752.95,-1748.9300000000001,-1746.98,-0.42844599999999999,-0.27587699999999998,12.2272
218591.0,27.904,-1058.4300000000001,-1043.45,-1062.3800000000001,0.0228451,4.9168599999999998,11.648199999999999
218592.0,27.374199999999998,-775.56799999999998,-765.44500000000005,-776.61300000000006,-1.66015,4.2536500000000004,13.8161
218593.0,28.2441,-579.68799999999999,-571.10799999999995,-581.16200000000003,-1.4400200000000001,4.7585699999999997,14.5504
218594.0,32.220500000000001,-392.733,-380.93599999999998,-397.048,-0.30133500000000002,6.8198999999999996,15.162100000000001
218595.0,33.346499999999999,-177.81399999999999,-163.994,-184.703,0.32544699999999999,8.0652399999999993,13.938499999999999
218596.0,242.51300000000001,184.09,335.19,209.51499999999999,104.441,13.314299999999999,-44.427100000000003
218597.0,149.30199999999999,-145.04300000000001,-65.487499999999997,-178.23400000000001,57.368299999999998,-27.903199999999998,-1.8817699999999999
218598.0,65.460999999999999,-1408.24,-1384.9200000000001,-1384.99,11.621499999999999,8.5732800000000005,32.2331
218599.0,52.0413,297.83499999999998,311.69600000000003,317.23500000000001,1.8550899999999999,-4.82782,27.8596
218600.0,36.068800000000003,1273.52,1297.75,1272.55,3.14662,2.16317,14.670199999999999
218601.0,36.371600000000001,810.09000000000003,827.16700000000003,817.18600000000004,-4.05131,0.72326900000000005,18.719799999999999
218602.0,84.980800000000002,926.42100000000005,930.22500000000002,968.69600000000003,-18.473400000000002,-12.2018,37.015500000000003
218603.0,63.9604,-447.06099999999998,-426.60599999999999,-431.72199999999998,18.735299999999999,8.2603000000000009,28.828499999999998
218604.0,99.379000000000005,-849.96900000000005,-801.98000000000002,-870.65499999999997,41.638800000000003,-1.9191499999999999,-17.703299999999999
218605.0,105.476,-573.52099999999996,-506.76299999999998,-589.54899999999998,40.140900000000002,-6.9320000000000004,-11.0092
218606.0,99.013400000000004,-1008.92,-974.33199999999999,-1035.5999999999999,40.447699999999998,1.05461,-26.210699999999999
218607.0,89.577399999999997,-1628.5,-1602.1099999999999,-1652.49,33.887900000000002,2.6049600000000002,-29.743500000000001
218608.0,58.184600000000003,-1878.48,-1851.05,-1883.6600000000001,24.422499999999999,5.5220700000000003,-13.9422
218609.0,43.509500000000003,-1688.6500000000001,-1661.3499999999999,-1674.4000000000001,15.3788,7.4417999999999997,12.3565
218610.0,60.787100000000002,1643.6199999999999,1680.78,1654.5,12.9331,7.4914100000000001,25.3628
218611.0,73.272099999999995,-909.70399999999995,-888.27800000000002,-887.41099999999994,13.8749,9.4291800000000006,36.724899999999998
218612.0,57.562399999999997,-396.64800000000002,-375.64600000000002,-384.72399999999999,20.036899999999999,6.2843799999999996,23.506499999999999
218613.0,57.132199999999997,-278.94400000000002,-258.77100000000002,-261.53899999999999,14.9153,4.7129500000000002,26.902799999999999
218614.0,58.138599999999997,-57.803100000000001,-40.444600000000001,-39.010100000000001,11.1633,2.73258,29.752099999999999
218615.0,59.3185,126.36,141.916,145.05099999999999,6.4809200000000002,-0.094103900000000004,32.104300000000002
218616.0,53.022199999999998,-118.06399999999999,-95.972800000000007,-96.733900000000006,4.5832100000000002,-1.56332,27.5029
218617.0,61.103299999999997,536.90999999999997,545.88199999999995,564.80100000000004,-7.6909400000000003,-9.6813900000000004,29.815000000000001
218618.0,94.884100000000004,1430.6800000000001,1433.46,1477.47,-21.9803,-10.2994,41.505800000000001
218619.0,77.533100000000005,1812.3900000000001,1818.9400000000001,1846.1600000000001,-16.744599999999998,-6.3097700000000003,36.9176
218620.0,52.672600000000003,1837.28,1854.29,1853.49,-7.2538,-1.2068700000000001,27.9023
218621.0,40.139200000000002,1602.9000000000001,1627.9000000000001,1605.95,1.22258,2.32145,18.551500000000001
218622.0,36.244900000000001,-1447.99,-1423.0899999999999,-1449.1500000000001,1.8650199999999999,0.59629699999999997,14.744
218623.0,34.388300000000001,993.79499999999996,1014.38,996.28899999999999,-0.50651999999999997,0.68450200000000005,16.348500000000001
218624.0,46.223700000000001,664.42600000000004,682.59400000000005,669.40899999999999,-5.6610300000000002,2.4946999999999999,24.203700000000001
218625.0,50.840000000000003,441.18900000000002,463.78100000000001,437.93200000000002,-4.2779699999999998,3.7615500000000002,25.118099999999998
218626.0,51.871499999999997,137.96799999999999,167.24299999999999,127.31100000000001,-1.90995,6.2234699999999998,20.6633
218627.0,57.7209,65.397300000000001,36.261400000000002,48.5458,-26.041399999999999,9.4528300000000005,-11.3619
218628.0,113.831,243.78899999999999,329.88299999999998,248.251,43.051600000000001,-2.3026900000000001,-10.5411
218629.0,98.239699999999999,679.69399999999996,740.41700000000003,665.50699999999995,36.874699999999997,-5.90001,-15.463200000000001
218630.0,93.732600000000005,784.30200000000002,825.80100000000004,763.49000000000001,37.630800000000001,-1.95072,-22.414100000000001
218631.0,95.082599999999999,1193.71,1229.52,1169.6800000000001,33.7181,0.80120000000000002,-31.1327
218632.0,83.550899999999999,1807.4400000000001,1848.6500000000001,1788.4400000000001,27.8306,5.2870600000000003,-24.025300000000001
218633.0,61.615200000000002,1865.3900000000001,1910.7,1861.9000000000001,21.354600000000001,8.2053399999999996,0.91694500000000001
218634.0,69.349400000000003,1263.6600000000001,1289.8099999999999,1282.75,9.9953699999999994,5.9363400000000004,35.846400000000003
218635.0,61.959000000000003,665.13099999999997,684.18299999999999,683.64099999999996,14.315899999999999,5.2024900000000001,30.495699999999999
218636.0,55.962899999999998,422.86000000000001,444.57799999999997,436.67599999999999,18.050599999999999,5.0541400000000003,23.911100000000001
218637.0,58.545099999999998,438.65100000000001,467.041,452.94099999999997,16.230599999999999,5.4864899999999999,25.445599999999999
218638.0,60.192900000000002,272.33199999999999,297.839,291.17599999999999,12.7142,3.92571,29.2517
218639.0,61.640300000000003,58.263100000000001,81.612899999999996,78.990399999999994,8.5111100000000004,1.8312299999999999,32.048400000000001
218640.0,56.285200000000003,-293.84100000000001,-272.05200000000002,-267.72300000000001,-2.8002600000000002,-3.6540900000000001,28.9633
218641.0,75.463499999999996,-576.32899999999995,-560.69799999999998,-539.65300000000002,-15.095000000000001,-6.7824799999999996,35.856099999999998
218642.0,93.950699999999998,-1035.5599999999999,-1031.29,-989.34199999999998,-23.056699999999999,-10.083500000000001,40.703200000000002
218643.0,85.540899999999993,-1564.5599999999999,-1567.7,-1523.5899999999999,-20.865200000000002,-10.909800000000001,35.764699999999998
218644.0,57.037100000000002,-1838.0799999999999,-1836.1500000000001,-1813.8299999999999,-12.8444,-8.6655599999999993,25.7441
218645.0,33.372599999999998,-1746.5699999999999,-1730.8099999999999,-1738.5,-2.6239599999999998,-3.5397400000000001,17.020800000000001
218646.0,39.732700000000001,-1090.02,-1064.8599999999999,-1090.73,-1.02471,0.708839,17.536200000000001
218647.0,40.707599999999999,-836.33699999999999,-815.59000000000003,-833.03399999999999,-5.4360600000000003,-0.59032899999999999,19.954899999999999
218648.0,44.071100000000001,-674.14200000000005,-658.86800000000005,-668.053,-7.7400399999999996,-1.0516000000000001,22.962700000000002
218649.0,45.161700000000003,-528.93799999999999,-510.88400000000001,-529.50800000000004,-6.26668,-0.46999200000000002,22.982199999999999
218650.0,46.366599999999998,-294.89100000000002,-269.07400000000001,-304.25400000000002,-4.0708399999999996,1.0985,19.154
218651.0,230.142,47.408999999999999,207.816,82.029600000000002,92.376800000000003,18.1463,-40.8309
218652.0,139.33600000000001,-384.80000000000001,-301.86599999999999,-411.904,49.060899999999997,-27.614999999999998,-3.8902199999999998
218653.0,92.788899999999998,-855.23699999999997,-841.18299999999999,-829.52499999999998,15.2257,11.020200000000001,48.4861
218654.0,51.257899999999999,820.13499999999999,847.38400000000001,827.25400000000002,8.0765999999999991,-0.26338800000000001,24.7133
218655.0,54.706899999999997,1314.9200000000001,1349.28,1322.21,3.6526299999999998,0.30049500000000001,25.619
218656.0,50.167999999999999,641.60500000000002,673.62800000000004,656.79200000000003,-0.42131299999999999,-2.4551699999999999,24.003
218657.0,56.643500000000003,674.38199999999995,691.93299999999999,698.31799999999998,-10.270899999999999,-9.0330399999999997,26.995999999999999
218658.0,80.699299999999994,51.409700000000001,70.896699999999996,74.231499999999997,18.7607,9.4059200000000001,39.729199999999999
218659.0,96.877300000000005,-609.76800000000003,-558.02700000000004,-626.50400000000002,41.372799999999998,-0.87817999999999996,-11.8969
218660.0,99.233999999999995,-354.16399999999999,-286.54500000000002,-365.65199999999999,36.9893,-4.0703500000000004,-8.4059200000000001
218661.0,100.093,-1108.51,-1076.8299999999999,-1134.1199999999999,46.185299999999998,3.15177,-19.3065
218662.0,94.938599999999994,-1281.3299999999999,-1262.96,-1303.22,45.4848,6.5689299999999999,-22.047499999999999
218663.0,66.875,-1580.29,-1564.1800000000001,-1583.22,35.907400000000003,9.0117100000000008,-3.8883000000000001
218664.0,67.608500000000006,-1526.3499999999999,-1512.21,-1509.79,23.231100000000001,11.1267,27.9316
218665.0,85.683800000000005,1306.3099999999999,1333.8099999999999,1321.6900000000001,18.750800000000002,11.560499999999999,42.0961
218666.0,92.614199999999997,-253.202,-235.58699999999999,-225.86600000000001,15.019299999999999,10.450799999999999,48.294199999999996
218667.0,72.638000000000005,384.35199999999998,403.71300000000002,402.755,20.798500000000001,8.1860499999999998,33.7654
218668.0,70.748599999999996,516.09100000000001,535.45699999999999,536.18799999999999,18.192,6.2120899999999999,34.1905
218669.0,72.138499999999993,628.70799999999997,648.88800000000003,650.35599999999999,13.692299999999999,3.9918999999999998,37.214199999999998
218670.0,66.958799999999997,806.28499999999997,829.73599999999999,823.54999999999995,10.3551,3.0335000000000001,35.0762
218671.0,50.401699999999998,-883.15899999999999,-859.88099999999997,-866.93600000000004,8.4323499999999996,1.6803699999999999,25.107299999999999
218672.0,42.414400000000001,687.75999999999999,713.36099999999999,696.07100000000003,1.56942,-4.6292200000000001,20.1296
218673.0,85.454099999999997,917.20000000000005,928.53399999999999,959.928,-20.139099999999999,-10.8849,37.684600000000003
218674.0,93.843599999999995,1316.78,1328.95,1366.1900000000001,-20.442799999999998,-8.1314399999999996,42.293900000000001
218675.0,77.058400000000006,1632.0999999999999,1651.76,1668.6400000000001,-12.1839,-3.7452100000000002,38.502200000000002
218676.0,56.747100000000003,1598.95,1627.3599999999999,1617.8599999999999,-1.46146,-0.65015400000000001,29.354900000000001
218677.0,49.365200000000002,-1498.1500000000001,-1469.5999999999999,-1486.29,0.54626399999999997,-4.4153099999999998,24.2227
218678.0,54.452399999999997,960.62599999999998,998.33299999999997,964.54100000000005,3.6716299999999999,-0.19247400000000001,23.345300000000002
218679.0,69.573300000000003,530.64800000000002,560.35400000000004,555.26700000000005,-6.7962400000000001,-1.80908,36.216200000000001
218680.0,75.205299999999994,427.04300000000001,464.77800000000002,442.214,-6.49193,1.5413300000000001,38.473700000000001
218681.0,70.068899999999999,95.900999999999996,142.994,96.488299999999995,-2.19794,4.8879999999999999,29.625699999999998
218682.0,55.375599999999999,71.652900000000002,41.950099999999999,48.809600000000003,-24.6128,9.1449700000000007,-9.5329099999999993
218683.0,109.417,277.64999999999998,363.70999999999998,279.40199999999999,38.4099,-1.2307900000000001,-9.7138200000000001
218684.0,94.918300000000002,293.661,357.70100000000002,284.46899999999999,35.610999999999997,-2.8185699999999998,-11.6473
218685.0,91.703500000000005,769.61900000000003,815.15300000000002,752.47000000000003,38.425400000000003,-1.68964,-16.564800000000002
218686.0,97.519400000000005,1117.51,1149.21,1094.1300000000001,42.664900000000003,2.2561599999999999,-24.092600000000001
218687.0,89.679699999999997,1392.53,1428.6400000000001,1374.04,40.5565,7.1717000000000004,-14.6076
218688.0,72.770700000000005,1692.1900000000001,1730.04,1689.53,29.9239,11.2408,15.166
218689.0,89.792400000000001,527.67200000000003,547.18200000000002,553.59900000000005,12.244899999999999,8.39968,47.798900000000003
218690.0,79.7029,69.812399999999997,86.039400000000001,95.356399999999994,14.427099999999999,6.7382999999999997,41.193100000000001
218691.0,70.073499999999996,-251.32599999999999,-233.57400000000001,-231.42099999999999,17.372199999999999,6.0327400000000004,34.340299999999999
218692.0,67.943600000000004,-505.48700000000002,-484.27199999999999,-488.209,17.305399999999999,6.2144500000000003,32.761600000000001
218693.0,71.028400000000005,-570.70399999999995,-548.40499999999997,-550.21799999999996,14.2628,5.5806300000000002,35.968600000000002
218694.0,67.379000000000005,-728.529,-707.16899999999998,-706.46699999999998,9.7741100000000003,3.6722100000000002,35.313499999999998
218695.0,44.104199999999999,-789.17399999999998,-758.22799999999995,-779.47500000000002,4.6460600000000003,0.020627900000000001,19.398199999999999
218696.0,54.667200000000001,-604.00800000000004,-570.577,-586.76499999999999,-4.7891899999999996,-1.63069,26.2882
218697.0,78.8048,-643.21299999999997,-617.33000000000004,-608.66099999999994,-16.906500000000001,-5.9384300000000003,37.759900000000002
218698.0,94.915400000000005,-972.13,-956.65099999999995,-924.85699999999997,-22.4085,-10.1868,42.616999999999997
218699.0,83.782799999999995,-1422.26,-1411.8599999999999,-1378.9100000000001,-17.264500000000002,-10.867000000000001,37.571399999999997
218700.0,55.9739,-1658.4400000000001,-1640.8299999999999,-1633.6300000000001,-6.9610399999999997,-8.6847700000000003,27.524100000000001
218701.0,53.600099999999998,-1178.55,-1141.0599999999999,-1173.24,2.3713600000000001,-2.0202100000000001,23.160299999999999
218702.0,60.2348,-819.89599999999996,-778.46699999999998,-812.10000000000002,-0.85149799999999998,-0.983545,26.888500000000001
218703.0,70.973299999999995,-539.28599999999994,-507.82499999999999,-516.68100000000004,-8.3050200000000007,-3.0757599999999998,36.571100000000001
218704.0,67.362099999999998,-544.471,-515.71000000000004,-524.84400000000005,-9.2356400000000001,-4.69564,34.485399999999998
218705.0,59.023800000000001,-448.71699999999998,-409.952,-446.185,-5.11008,-1.81829,25.720099999999999
