Label,S_Mises,S_S11,S_S22,S_S33,S_S12,S_S13,S_S23
1.0,4.2661100000000001e-28,-1.8420900000000001e-25,-1.8465299999999999e-25,-1.84271e-25,-4.8990700000000002e-29,-5.2229599999999998e-30,-2.27212e-29
2.0,3.61537e-28,-1.84316e-25,-1.84691e-25,-1.84389e-25,-6.1210599999999997e-29,-2.3316099999999999e-30,-1.45281e-29
3.0,2.77615e-28,-1.8439399999999999e-25,-1.84673e-25,-1.84455e-25,-6.3354600000000001e-29,-9.18004e-31,-6.4327300000000005e-30
4.0,2.4854700000000001e-28,-1.8446899999999999e-25,-1.84699e-25,-1.84532e-25,-8.0086200000000003e-29,-5.7317599999999999e-31,-2.5719200000000001e-30
5.0,2.0494999999999999e-28,-1.84508e-25,-1.8467799999999999e-25,-1.84563e-25,-8.0321000000000003e-29,1.29394e-30,9.0015300000000007e-31
6.0,1.95437e-28,-1.8457500000000001e-25,-1.8471000000000001e-25,-1.8462899999999999e-25,-9.0208799999999999e-29,1.7909499999999999e-32,2.93689e-30
7.0,1.7656000000000001e-28,-1.8460100000000001e-25,-1.8469399999999999e-25,-1.84647e-25,-9.0625799999999998e-29,2.9105699999999999e-30,2.1312200000000001e-30
8.0,3.7643699999999999e-28,-1.84216e-25,-1.84582e-25,-1.8428300000000001e-25,-9.4905100000000005e-29,-9.1552399999999999e-30,-8.3392399999999994e-30
9.0,3.1217000000000002e-28,-1.8430199999999999e-25,-1.8459499999999999e-25,-1.84363e-25,-9.16853e-29,-9.1217799999999995e-30,-3.7468999999999999e-30
10.0,2.7519999999999998e-28,-1.8439300000000001e-25,-1.8463599999999999e-25,-1.84457e-25,-9.61906e-29,-6.7850500000000006e-30,2.5727499999999999e-31
11.0,2.2653599999999999e-28,-1.8444599999999999e-25,-1.8462600000000001e-25,-1.8450000000000001e-25,-9.2497900000000001e-29,-5.5099700000000002e-30,2.0934499999999999e-30
12.0,2.1134500000000002e-28,-1.8451800000000001e-25,-1.8466700000000001e-25,-1.84573e-25,-9.5836600000000004e-29,-5.0163999999999999e-30,3.9276499999999998e-30
13.0,1.7999000000000001e-28,-1.8455200000000001e-25,-1.84649e-25,-1.8459499999999999e-25,-9.1836800000000005e-29,-2.8359199999999998e-30,3.3929800000000002e-30
14.0,1.7404400000000001e-28,-1.84615e-25,-1.8469399999999999e-25,-1.8466099999999999e-25,-9.1935100000000003e-29,-4.5098399999999999e-30,6.8922699999999999e-30
15.0,4.1585700000000003e-28,-1.8422699999999999e-25,-1.84658e-25,-1.8429200000000001e-25,-5.4449399999999997e-29,-1.3866400000000001e-29,-2.2181799999999999e-29
16.0,3.3047100000000002e-28,-1.8432699999999999e-25,-1.84666e-25,-1.8438699999999999e-25,-5.8824000000000006e-29,-1.07811e-29,-1.08324e-29
17.0,2.78593e-28,-1.84406e-25,-1.84681e-25,-1.8446700000000001e-25,-7.0198099999999998e-29,-8.0315800000000005e-30,-1.61816e-30
18.0,2.3107700000000001e-28,-1.8446000000000001e-25,-1.84672e-25,-1.84514e-25,-7.5165499999999998e-29,-6.8336099999999996e-30,4.84557e-30
19.0,2.0908200000000001e-28,-1.84522e-25,-1.84689e-25,-1.8457500000000001e-25,-8.4585200000000002e-29,-4.9898300000000001e-30,9.0925199999999998e-30
20.0,1.8668300000000001e-28,-1.84558e-25,-1.84682e-25,-1.84605e-25,-8.6786899999999996e-29,-3.9923100000000002e-30,1.1916200000000001e-29
21.0,1.7854599999999999e-28,-1.8461700000000001e-25,-1.8470900000000001e-25,-1.8466099999999999e-25,-9.0787200000000005e-29,-4.3062300000000003e-30,1.6066699999999999e-29
22.0,3.4401400000000001e-28,-1.8424399999999999e-25,-1.8456899999999999e-25,-1.84296e-25,-9.2688399999999997e-29,-2.1590200000000001e-29,2.3497800000000001e-30
23.0,3.0224699999999999e-28,-1.8432799999999999e-25,-1.8460299999999999e-25,-1.8438300000000001e-25,-9.45268e-29,-1.8669200000000001e-29,6.8952199999999995e-30
24.0,2.5766199999999998e-28,-1.8439300000000001e-25,-1.8461199999999999e-25,-1.8444599999999999e-25,-9.2968200000000003e-29,-1.6541399999999999e-29,1.08246e-29
25.0,2.2845999999999999e-28,-1.84465e-25,-1.84641e-25,-1.84516e-25,-9.39907e-29,-1.35275e-29,1.3027600000000001e-29
26.0,1.9906000000000001e-28,-1.84507e-25,-1.8464e-25,-1.8455299999999999e-25,-9.1402400000000003e-29,-1.19201e-29,1.4058999999999999e-29
27.0,1.8485600000000001e-28,-1.8456800000000001e-25,-1.8467099999999999e-25,-1.84613e-25,-9.1821199999999998e-29,-9.9190700000000004e-30,1.5097799999999999e-29
28.0,1.6829600000000001e-28,-1.84599e-25,-1.84665e-25,-1.8463599999999999e-25,-9.0187900000000001e-29,-7.54982e-30,1.20112e-29
29.0,3.78306e-28,-1.84266e-25,-1.8465100000000001e-25,-1.84316e-25,-5.5345699999999997e-29,-2.0583799999999999e-29,-1.9394599999999999e-29
30.0,3.1338899999999998e-28,-1.8435100000000001e-25,-1.8466700000000001e-25,-1.8440299999999999e-25,-6.1410999999999996e-29,-1.69432e-29,-5.5762500000000001e-30
31.0,2.6058900000000002e-28,-1.84413e-25,-1.84664e-25,-1.8446199999999999e-25,-6.8369300000000001e-29,-1.4707999999999999e-29,4.6523499999999997e-30
32.0,2.26722e-28,-1.84474e-25,-1.84674e-25,-1.8452099999999999e-25,-7.6840800000000004e-29,-1.17433e-29,1.25146e-29
33.0,2.0036700000000001e-28,-1.84516e-25,-1.8467099999999999e-25,-1.8455900000000001e-25,-8.1264600000000003e-29,-1.0457399999999999e-29,1.7665299999999999e-29
34.0,1.87194e-28,-1.8457099999999999e-25,-1.84689e-25,-1.8461199999999999e-25,-8.6882199999999997e-29,-8.4143399999999997e-30,2.1456600000000001e-29
35.0,1.7493799999999999e-28,-1.8460399999999999e-25,-1.84688e-25,-1.84641e-25,-8.88705e-29,-7.5202400000000002e-30,2.1294599999999999e-29
36.0,3.23712e-28,-1.84282e-25,-1.8457899999999999e-25,-1.84322e-25,-8.9315800000000003e-29,-2.9006300000000003e-29,1.23657e-29
37.0,2.8384999999999998e-28,-1.84347e-25,-1.84597e-25,-1.84389e-25,-8.9623600000000004e-29,-2.60488e-29,1.7087e-29
38.0,2.4887500000000001e-28,-1.8441700000000001e-25,-1.8462099999999999e-25,-1.8445900000000001e-25,-9.0009199999999997e-29,-2.2643899999999999e-29,2.0736700000000001e-29
39.0,2.18639e-28,-1.84466e-25,-1.8462799999999999e-25,-1.84507e-25,-8.8509399999999996e-29,-2.0196599999999999e-29,2.2957700000000001e-29
40.0,1.9748799999999999e-28,-1.84524e-25,-1.8465100000000001e-25,-1.84564e-25,-8.8773499999999999e-29,-1.68181e-29,2.4172300000000001e-29
41.0,1.79066e-28,-1.8455900000000001e-25,-1.8465299999999999e-25,-1.8459599999999999e-25,-8.71941e-29,-1.5101700000000001e-29,2.4587600000000001e-29
42.0,1.7056700000000001e-28,-1.84613e-25,-1.84682e-25,-1.84649e-25,-8.6953900000000002e-29,-1.30241e-29,2.7846999999999999e-29
43.0,3.4433600000000002e-28,-1.8430900000000001e-25,-1.8465200000000001e-25,-1.84346e-25,-5.5755599999999999e-29,-2.5862799999999998e-29,-1.3454700000000001e-29
44.0,2.8879400000000001e-28,-1.8437500000000001e-25,-1.84658e-25,-1.84413e-25,-6.1224800000000002e-29,-2.1771799999999999e-29,-2.87045e-31
45.0,2.4732899999999998e-28,-1.84433e-25,-1.84663e-25,-1.8447099999999999e-25,-6.8295399999999997e-29,-1.9021000000000001e-29,1.18136e-29
46.0,2.1604499999999998e-28,-1.8447899999999999e-25,-1.8466199999999999e-25,-1.84515e-25,-7.4184499999999999e-29,-1.6570600000000001e-29,1.95956e-29
47.0,1.9665599999999999e-28,-1.8452899999999999e-25,-1.84673e-25,-1.84563e-25,-8.0061700000000003e-29,-1.3892000000000001e-29,2.5831599999999999e-29
48.0,1.82327e-28,-1.84566e-25,-1.84674e-25,-1.84597e-25,-8.3260000000000003e-29,-1.3057599999999999e-29,2.9658500000000001e-29
49.0,1.7615000000000001e-28,-1.84616e-25,-1.8469499999999999e-25,-1.8464599999999999e-25,-8.5994599999999999e-29,-1.16394e-29,3.5023300000000002e-29
50.0,3.0107899999999998e-28,-1.84322e-25,-1.84588e-25,-1.8434499999999999e-25,-8.31417e-29,-3.2912299999999998e-29,2.0295900000000001e-29
51.0,2.6892199999999999e-28,-1.8438e-25,-1.84608e-25,-1.84407e-25,-8.36717e-29,-3.0476399999999997e-29,2.5607599999999998e-29
52.0,2.3734900000000001e-28,-1.8443e-25,-1.8461899999999999e-25,-1.8446099999999999e-25,-8.3499400000000004e-29,-2.73371e-29,2.9242600000000001e-29
53.0,2.1189299999999999e-28,-1.8448500000000001e-25,-1.8463699999999999e-25,-1.84516e-25,-8.3405500000000005e-29,-2.3823300000000001e-29,3.1804599999999997e-29
54.0,1.9184400000000001e-28,-1.84524e-25,-1.8464300000000001e-25,-1.8455399999999999e-25,-8.2734800000000005e-29,-2.1359799999999999e-29,3.3388400000000001e-29
55.0,1.77935e-28,-1.84574e-25,-1.84665e-25,-1.8460299999999999e-25,-8.3106599999999996e-29,-1.81394e-29,3.4432400000000002e-29
56.0,1.6588100000000001e-28,-1.84605e-25,-1.8466800000000001e-25,-1.84632e-25,-8.3061199999999998e-29,-1.5911699999999999e-29,3.17559e-29
57.0,3.1058599999999999e-28,-1.8435000000000001e-25,-1.8465200000000001e-25,-1.84373e-25,-5.57813e-29,-2.7719799999999998e-29,-7.4674199999999993e-30
58.0,2.6636200000000001e-28,-1.8440399999999999e-25,-1.84656e-25,-1.8442899999999999e-25,-6.0143400000000003e-29,-2.5042999999999999e-29,7.1244599999999993e-30
59.0,2.32551e-28,-1.84448e-25,-1.84656e-25,-1.84474e-25,-6.6278800000000002e-29,-2.22417e-29,1.7978000000000001e-29
60.0,2.0772399999999999e-28,-1.8449499999999999e-25,-1.8466099999999999e-25,-1.8451899999999999e-25,-7.1786299999999995e-29,-1.94967e-29,2.73297e-29
61.0,1.90412e-28,-1.84533e-25,-1.84664e-25,-1.84556e-25,-7.6066899999999997e-29,-1.7693e-29,3.3236400000000002e-29
62.0,1.80726e-28,-1.8457799999999999e-25,-1.8467799999999999e-25,-1.8460100000000001e-25,-8.0317999999999996e-29,-1.5517300000000001e-29,3.8353399999999999e-29
63.0,1.72856e-28,-1.8461099999999999e-25,-1.84682e-25,-1.84632e-25,-8.3055599999999999e-29,-1.5119399999999999e-29,3.87216e-29
64.0,2.8062600000000002e-28,-1.8436099999999999e-25,-1.8460200000000001e-25,-1.8436999999999999e-25,-7.5015399999999995e-29,-3.5057400000000001e-29,2.5932700000000002e-29
65.0,2.5344999999999998e-28,-1.84405e-25,-1.84613e-25,-1.8441899999999999e-25,-7.6552999999999998e-29,-3.2123799999999999e-29,3.1119000000000002e-29
66.0,2.2696399999999998e-28,-1.8445399999999999e-25,-1.8462799999999999e-25,-1.84472e-25,-7.6591900000000005e-29,-2.91439e-29,3.63672e-29
67.0,2.0477400000000001e-28,-1.8449399999999999e-25,-1.8463599999999999e-25,-1.84514e-25,-7.6677600000000002e-29,-2.6343600000000002e-29,3.8887299999999999e-29
68.0,1.8723600000000001e-28,-1.8454e-25,-1.8465100000000001e-25,-1.8456000000000001e-25,-7.7252900000000006e-29,-2.2967499999999999e-29,4.0848900000000002e-29
69.0,1.74493e-28,-1.84573e-25,-1.84658e-25,-1.8459399999999999e-25,-7.71179e-29,-2.11639e-29,4.2049599999999998e-29
70.0,1.6813500000000001e-28,-1.8461800000000001e-25,-1.8468e-25,-1.8464e-25,-7.7331300000000003e-29,-1.8652100000000001e-29,4.5879099999999997e-29
71.0,2.7964600000000002e-28,-1.8438500000000001e-25,-1.8465000000000001e-25,-1.84397e-25,-5.4115700000000005e-29,-2.9383599999999998e-29,-2.7768500000000002e-31
72.0,2.4779900000000001e-28,-1.8442700000000001e-25,-1.8465399999999999e-25,-1.84441e-25,-5.8753000000000002e-29,-2.6261199999999999e-29,1.2825399999999999e-29
73.0,2.2054299999999999e-28,-1.8446800000000001e-25,-1.84656e-25,-1.84481e-25,-6.3173299999999995e-29,-2.4120499999999999e-29,2.4994500000000001e-29
74.0,2.0001999999999999e-28,-1.84505e-25,-1.84658e-25,-1.8451800000000001e-25,-6.8244699999999997e-29,-2.1694899999999999e-29,3.30892e-29
75.0,1.86594e-28,-1.8454599999999999e-25,-1.84665e-25,-1.84558e-25,-7.2476799999999999e-29,-1.98289e-29,4.0351400000000002e-29
76.0,1.7691e-28,-1.84582e-25,-1.84672e-25,-1.8459399999999999e-25,-7.5265199999999997e-29,-1.86973e-29,4.4792699999999999e-29
77.0,1.7404299999999999e-28,-1.84624e-25,-1.84689e-25,-1.8463699999999999e-25,-7.7072099999999998e-29,-1.7315399999999999e-29,5.1578200000000003e-29
78.0,2.6171899999999999e-28,-1.8439399999999999e-25,-1.84615e-25,-1.8439399999999999e-25,-6.7759299999999998e-29,-3.3448599999999999e-29,2.84328e-29
79.0,2.3989999999999998e-28,-1.84431e-25,-1.84624e-25,-1.8443400000000001e-25,-6.8883199999999995e-29,-3.17399e-29,3.56504e-29
80.0,2.1804599999999999e-28,-1.8446899999999999e-25,-1.84632e-25,-1.8447600000000001e-25,-6.9929099999999998e-29,-2.9316899999999998e-29,4.0526099999999999e-29
81.0,1.9836699999999999e-28,-1.8451000000000001e-25,-1.8464300000000001e-25,-1.8451899999999999e-25,-7.0262300000000002e-29,-2.6623400000000003e-29,4.4412499999999998e-29
82.0,1.8318499999999999e-28,-1.8454499999999999e-25,-1.8465100000000001e-25,-1.84557e-25,-7.0711399999999998e-29,-2.44425e-29,4.6868e-29
83.0,1.72483e-28,-1.8458599999999999e-25,-1.84666e-25,-1.84598e-25,-7.1980499999999999e-29,-2.1463499999999999e-29,4.9171399999999997e-29
84.0,1.6445900000000001e-28,-1.8461700000000001e-25,-1.84674e-25,-1.8462799999999999e-25,-7.38689e-29,-1.9873499999999999e-29,4.7537100000000002e-29
85.0,2.56819e-28,-1.84413e-25,-1.8465000000000001e-25,-1.8441800000000001e-25,-5.2913500000000005e-29,-2.74773e-29,6.5573699999999999e-30
86.0,2.34153e-28,-1.84448e-25,-1.8465399999999999e-25,-1.8445000000000001e-25,-5.5967000000000005e-29,-2.6529599999999999e-29,1.9595900000000001e-29
87.0,2.12013e-28,-1.84482e-25,-1.84655e-25,-1.8448400000000001e-25,-6.0111900000000002e-29,-2.4829599999999999e-29,2.9411900000000002e-29
88.0,1.94282e-28,-1.8451800000000001e-25,-1.84658e-25,-1.8451999999999999e-25,-6.3543300000000002e-29,-2.3250699999999999e-29,3.8972799999999999e-29
89.0,1.8179e-28,-1.8455399999999999e-25,-1.84665e-25,-1.84557e-25,-6.7174800000000004e-29,-2.1473799999999999e-29,4.555e-29
90.0,1.76077e-28,-1.8459200000000001e-25,-1.8467600000000001e-25,-1.8459499999999999e-25,-7.0567599999999995e-29,-2.0470699999999999e-29,5.1832e-29
91.0,1.7097600000000001e-28,-1.8462700000000001e-25,-1.8468400000000001e-25,-1.8462899999999999e-25,-7.4294699999999996e-29,-2.01802e-29,5.2519699999999999e-29
92.0,2.4802100000000001e-28,-1.8441700000000001e-25,-1.84622e-25,-1.84407e-25,-6.1473599999999995e-29,-3.1741700000000001e-29,3.12789e-29
93.0,2.3033199999999998e-28,-1.84447e-25,-1.8462899999999999e-25,-1.8444300000000001e-25,-6.3677700000000002e-29,-2.9910799999999999e-29,3.7240499999999998e-29
94.0,2.1193099999999998e-28,-1.8448400000000001e-25,-1.84638e-25,-1.84481e-25,-6.4174399999999995e-29,-2.8630200000000002e-29,4.40783e-29
95.0,1.9386500000000001e-28,-1.8451899999999999e-25,-1.8464599999999999e-25,-1.8451999999999999e-25,-6.47351e-29,-2.6579699999999999e-29,4.76355e-29
96.0,1.79847e-28,-1.84556e-25,-1.84656e-25,-1.8455900000000001e-25,-6.5856299999999999e-29,-2.40055e-29,5.1203499999999999e-29
97.0,1.70625e-28,-1.84589e-25,-1.84666e-25,-1.8459399999999999e-25,-6.6723900000000002e-29,-2.2656999999999999e-29,5.3752400000000001e-29
98.0,1.66817e-28,-1.8462700000000001e-25,-1.84683e-25,-1.8463500000000001e-25,-6.6502400000000004e-29,-2.14115e-29,5.8960299999999996e-29
99.0,1.57152e-28,-1.84597e-25,-1.8462799999999999e-25,-1.8462799999999999e-25,-8.8859800000000002e-29,-3.3533800000000002e-30,1.9333699999999999e-30
100.0,1.47974e-28,-1.8460900000000001e-25,-1.8463400000000001e-25,-1.8464599999999999e-25,-8.2120999999999998e-29,-7.1051299999999995e-30,1.2845000000000001e-29
101.0,1.2407e-28,-1.8459599999999999e-25,-1.84558e-25,-1.8460900000000001e-25,-6.6359699999999996e-29,-3.0438400000000001e-30,4.3637099999999999e-30
102.0,1.10273e-28,-1.8460900000000001e-25,-1.84583e-25,-1.84633e-25,-5.3750599999999995e-29,-5.75732e-30,2.25927e-29
103.0,9.8480499999999999e-29,-1.8459300000000001e-25,-1.8450000000000001e-25,-1.84588e-25,-2.2548300000000001e-29,2.9328700000000001e-31,1.4812600000000001e-30
104.0,8.8395500000000002e-29,-1.84607e-25,-1.8457899999999999e-25,-1.84632e-25,-1.9822700000000001e-29,-7.5423300000000001e-31,3.88755e-29
105.0,1.61547e-28,-1.84555e-25,-1.84432e-25,-1.84556e-25,5.3674300000000001e-29,-1.05924e-29,-2.5710199999999999e-29
106.0,1.78475e-28,-1.84565e-25,-1.8464399999999999e-25,-1.8461000000000001e-25,-9.45103e-29,-6.8038399999999999e-30,7.5150500000000001e-30
107.0,1.4991099999999999e-28,-1.84549e-25,-1.8456700000000001e-25,-1.84574e-25,-8.4964100000000001e-29,-6.2485600000000002e-30,8.1734199999999996e-30
108.0,1.3781099999999999e-28,-1.84563e-25,-1.8456700000000001e-25,-1.84591e-25,-7.6219600000000003e-29,-6.6493800000000003e-30,1.59868e-29
109.0,1.02468e-28,-1.8454499999999999e-25,-1.84491e-25,-1.8455200000000001e-25,-4.7003300000000003e-29,-4.5157399999999998e-30,1.28523e-29
110.0,9.5707399999999999e-29,-1.8456199999999999e-25,-1.84515e-25,-1.8457700000000001e-25,-3.73285e-29,-2.1053499999999999e-30,2.4951200000000001e-29
111.0,8.3330199999999999e-29,-1.8452500000000001e-25,-1.84456e-25,-1.8453599999999999e-25,1.58694e-29,-3.37474e-30,1.1855399999999999e-29
112.0,1.06214e-28,-1.84557e-25,-1.8446800000000001e-25,-1.84565e-25,2.04728e-29,-8.4319400000000008e-31,2.0841200000000001e-29
113.0,1.8560400000000001e-28,-1.84499e-25,-1.8459e-25,-1.84538e-25,-9.6512200000000002e-29,-7.2103399999999995e-30,6.4695499999999995e-30
114.0,1.74294e-28,-1.8451199999999999e-25,-1.8457099999999999e-25,-1.84548e-25,-9.4910899999999995e-29,-8.1214199999999995e-30,1.2699e-29
115.0,1.3498699999999999e-28,-1.8449200000000001e-25,-1.84489e-25,-1.8451000000000001e-25,-7.5194500000000003e-29,-8.0971999999999998e-30,1.5160100000000001e-29
116.0,1.18046e-28,-1.8450900000000001e-25,-1.8447899999999999e-25,-1.84523e-25,-6.02206e-29,-4.7369300000000003e-30,2.22266e-29
117.0,7.8772499999999999e-29,-1.84481e-25,-1.8442500000000001e-25,-1.8449e-25,-1.8717300000000001e-29,-4.1040099999999997e-30,2.20386e-29
118.0,8.9963399999999995e-29,-1.84506e-25,-1.8442700000000001e-25,-1.84508e-25,1.2601600000000001e-30,1.8153299999999999e-31,2.40967e-29
119.0,9.0495200000000002e-29,-1.84483e-25,-1.84423e-25,-1.84489e-25,2.8100800000000002e-29,7.52732e-30,2.38103e-29
120.0,2.1855600000000001e-28,-1.84455e-25,-1.8459499999999999e-25,-1.84505e-25,-1.0375600000000001e-28,-8.3889899999999997e-30,7.9031900000000006e-30
121.0,1.8351500000000001e-28,-1.84433e-25,-1.84505e-25,-1.84465e-25,-9.8348299999999998e-29,-1.02217e-29,1.27133e-29
122.0,1.54296e-28,-1.84447e-25,-1.8446700000000001e-25,-1.8446700000000001e-25,-8.5680400000000002e-29,-7.8015e-30,2.0107099999999999e-29
123.0,1.0866e-28,-1.8441999999999999e-25,-1.84398e-25,-1.84432e-25,-5.4545999999999995e-29,-7.1619799999999996e-30,2.4700799999999999e-29
124.0,9.1464599999999999e-29,-1.84441e-25,-1.8437799999999999e-25,-1.84441e-25,-2.6593399999999999e-29,-1.8355900000000001e-30,2.77548e-29
125.0,8.0349600000000004e-29,-1.84416e-25,-1.8436199999999999e-25,-1.84422e-25,9.0255800000000004e-30,2.69394e-30,3.1078199999999998e-29
126.0,9.9666499999999995e-29,-1.84424e-25,-1.8437500000000001e-25,-1.8443500000000001e-25,3.9888700000000001e-29,1.0335899999999999e-30,2.6537300000000002e-29
127.0,2.4219000000000002e-28,-1.8436999999999999e-25,-1.8454200000000001e-25,-1.8441800000000001e-25,-1.07242e-28,-1.1007100000000001e-29,6.8739999999999998e-30
128.0,2.0761400000000001e-28,-1.8437600000000001e-25,-1.84482e-25,-1.8440900000000001e-25,-1.05313e-28,-1.01881e-29,1.4956100000000001e-29
129.0,1.6532399999999999e-28,-1.8434499999999999e-25,-1.8439200000000001e-25,-1.84365e-25,-8.8966500000000003e-29,-1.0920499999999999e-29,2.2620400000000001e-29
130.0,1.1858100000000001e-28,-1.8435900000000001e-25,-1.84341e-25,-1.8436099999999999e-25,-6.0820799999999997e-29,-5.6743499999999997e-30,2.8896200000000001e-29
131.0,8.0191000000000002e-29,-1.84331e-25,-1.8430000000000001e-25,-1.8433500000000001e-25,-2.3275e-29,-1.6113699999999999e-30,3.48989e-29
132.0,7.9967699999999997e-29,-1.8434399999999999e-25,-1.84296e-25,-1.8434499999999999e-25,1.56472e-29,2.4321999999999999e-30,3.3023900000000002e-29
133.0,1.0274200000000001e-28,-1.84332e-25,-1.8431700000000001e-25,-1.8434499999999999e-25,4.3826199999999998e-29,1.2369900000000001e-29,3.5321900000000003e-29
134.0,2.7993399999999998e-28,-1.8430100000000001e-25,-1.8452600000000001e-25,-1.8435199999999999e-25,-1.09659e-28,-1.01465e-29,5.3698600000000002e-30
135.0,2.4530000000000001e-28,-1.84263e-25,-1.84424e-25,-1.8430000000000001e-25,-1.1232299999999999e-28,-1.3579200000000001e-29,1.4345600000000001e-29
136.0,1.8289300000000001e-28,-1.84265e-25,-1.8434e-25,-1.8427600000000001e-25,-9.4216799999999999e-29,-9.8237100000000006e-30,2.3215600000000001e-29
137.0,1.3152800000000001e-28,-1.8422600000000001e-25,-1.8426099999999999e-25,-1.84232e-25,-6.5564999999999997e-29,-6.8018599999999998e-30,3.2643200000000002e-29
138.0,7.4684900000000001e-29,-1.8423400000000001e-25,-1.8421999999999999e-25,-1.8422699999999999e-25,-2.2499399999999999e-29,-8.8860100000000007e-31,3.6099699999999997e-29
139.0,7.7086600000000001e-29,-1.84214e-25,-1.8421899999999999e-25,-1.8421999999999999e-25,1.7227900000000001e-29,7.5282400000000004e-30,4.0231e-29
140.0,1.1418800000000001e-28,-1.8421899999999999e-25,-1.8425199999999999e-25,-1.84239e-25,5.3476699999999997e-29,7.9398900000000001e-30,3.3948500000000001e-29
141.0,3.37965e-28,-1.8419300000000001e-25,-1.84491e-25,-1.8425000000000001e-25,-1.12918e-28,-1.4821600000000001e-29,1.5236300000000001e-30
142.0,2.87313e-28,-1.84172e-25,-1.84398e-25,-1.8420299999999999e-25,-1.10945e-28,-1.32771e-29,9.7186499999999993e-30
143.0,2.52963e-28,-1.84105e-25,-1.84282e-25,-1.84123e-25,-1.0574900000000001e-28,-1.2623999999999999e-29,2.1513399999999999e-29
144.0,1.6984800000000001e-28,-1.84088e-25,-1.8418599999999999e-25,-1.8407899999999999e-25,-7.1523299999999997e-29,-7.8870699999999993e-30,2.9994499999999999e-29
145.0,1.252e-28,-1.84046e-25,-1.8413300000000001e-25,-1.8404100000000001e-25,-3.2236099999999999e-29,1.0710499999999999e-30,3.8642199999999998e-29
146.0,1.07581e-28,-1.8405299999999999e-25,-1.8413500000000001e-25,-1.8405100000000001e-25,1.23737e-29,7.4210500000000003e-30,3.68037e-29
147.0,1.57069e-28,-1.8405800000000001e-25,-1.8418699999999999e-25,-1.8407799999999999e-25,4.2685300000000002e-29,1.8213300000000001e-29,3.5087000000000001e-29
148.0,1.61362e-28,-1.8461099999999999e-25,-1.8466000000000001e-25,-1.84648e-25,-8.6500199999999995e-29,-1.09402e-29,2.1064300000000001e-29
149.0,1.40498e-28,-1.8459599999999999e-25,-1.8460299999999999e-25,-1.8461899999999999e-25,-7.7688299999999995e-29,-9.5096199999999999e-30,1.7851500000000001e-29
150.0,1.3270300000000001e-28,-1.84613e-25,-1.84606e-25,-1.8463599999999999e-25,-6.7325500000000001e-29,-9.5232099999999999e-30,3.1772299999999999e-29
151.0,1.02816e-28,-1.8459399999999999e-25,-1.8454399999999999e-25,-1.8460000000000001e-25,-4.4652399999999998e-29,-6.15047e-30,2.3768099999999999e-29
152.0,1.06958e-28,-1.84614e-25,-1.8457500000000001e-25,-1.8462500000000001e-25,-3.4996099999999998e-29,-3.14395e-30,4.3414100000000002e-29
153.0,9.07286e-29,-1.84582e-25,-1.8450100000000001e-25,-1.8458400000000001e-25,5.3815299999999998e-30,-2.7861599999999999e-30,2.1640400000000001e-29
154.0,8.9157299999999997e-29,-1.8462099999999999e-25,-1.8458699999999999e-25,-1.8460399999999999e-25,-8.45169e-30,9.9931399999999994e-31,4.7754499999999999e-29
155.0,1.6886e-28,-1.8455299999999999e-25,-1.84616e-25,-1.8458699999999999e-25,-8.9493400000000001e-29,-1.2093999999999999e-29,1.86936e-29
156.0,1.5632900000000001e-28,-1.8456800000000001e-25,-1.8460299999999999e-25,-1.84597e-25,-8.3710000000000002e-29,-1.2306500000000001e-29,2.5344700000000002e-29
157.0,1.3040300000000001e-28,-1.84549e-25,-1.8454300000000001e-25,-1.84565e-25,-6.7269099999999996e-29,-1.07334e-29,2.9880900000000002e-29
158.0,1.1766800000000001e-28,-1.8456899999999999e-25,-1.8454200000000001e-25,-1.8457899999999999e-25,-5.2754700000000002e-29,-8.1024800000000001e-30,3.7321200000000001e-29
159.0,9.1977100000000001e-29,-1.84541e-25,-1.84491e-25,-1.8454599999999999e-25,-2.22904e-29,-3.7970000000000002e-30,3.7129999999999998e-29
160.0,9.4018100000000001e-29,-1.84565e-25,-1.8451199999999999e-25,-1.84565e-25,-6.16976e-30,-4.9144800000000002e-30,4.4269599999999999e-29
161.0,8.0292499999999997e-29,-1.84531e-25,-1.8447099999999999e-25,-1.84523e-25,2.5584100000000003e-29,1.3192099999999999e-30,2.0763200000000001e-29
162.0,1.8891699999999999e-28,-1.8451899999999999e-25,-1.84615e-25,-1.84558e-25,-9.4714000000000003e-29,-1.39076e-29,2.0460300000000001e-29
163.0,1.65692e-28,-1.8450200000000001e-25,-1.8455100000000001e-25,-1.8452899999999999e-25,-8.705e-29,-1.4439000000000001e-29,2.7935500000000001e-29
164.0,1.4436000000000001e-28,-1.8451800000000001e-25,-1.8452799999999999e-25,-1.84533e-25,-7.4235499999999997e-29,-1.23589e-29,3.5013199999999998e-29
165.0,1.16582e-28,-1.8449499999999999e-25,-1.84473e-25,-1.8450200000000001e-25,-4.9595999999999998e-29,-8.5682499999999995e-30,4.1924299999999999e-29
166.0,1.03042e-28,-1.84514e-25,-1.8446899999999999e-25,-1.84513e-25,-2.6253199999999999e-29,-5.70582e-30,4.6386200000000003e-29
167.0,8.9359900000000005e-29,-1.8448699999999999e-25,-1.84438e-25,-1.8448400000000001e-25,5.0544999999999998e-30,1.5491800000000001e-30,4.3167900000000002e-29
168.0,1.0958300000000001e-28,-1.84505e-25,-1.8445399999999999e-25,-1.84508e-25,2.6026200000000002e-29,5.5958600000000002e-30,4.8582999999999999e-29
169.0,2.0742700000000002e-28,-1.8445100000000001e-25,-1.84574e-25,-1.8449e-25,-9.8372399999999995e-29,-1.6592800000000001e-29,2.1740999999999999e-29
170.0,1.8328399999999999e-28,-1.8446199999999999e-25,-1.84533e-25,-1.8448699999999999e-25,-9.3366099999999999e-29,-1.6172699999999999e-29,3.0646399999999999e-29
171.0,1.5379499999999999e-28,-1.84441e-25,-1.84466e-25,-1.8445399999999999e-25,-7.6708499999999998e-29,-1.3877500000000001e-29,4.0714099999999999e-29
172.0,1.26329e-28,-1.84455e-25,-1.84439e-25,-1.84455e-25,-5.3193099999999998e-29,-9.6771599999999995e-30,4.8063600000000002e-29
173.0,1.0466e-28,-1.84431e-25,-1.84398e-25,-1.8442700000000001e-25,-2.2366399999999999e-29,-2.8531899999999999e-30,5.3099699999999999e-29
174.0,1.0621499999999999e-28,-1.8444499999999999e-25,-1.84399e-25,-1.8444e-25,6.3714600000000006e-30,3.4578599999999997e-30,5.5471799999999999e-29
175.0,1.0941900000000001e-28,-1.84424e-25,-1.8440200000000001e-25,-1.8441899999999999e-25,3.0189799999999997e-29,1.13102e-29,5.3089299999999997e-29
176.0,2.33612e-28,-1.8440000000000001e-25,-1.84558e-25,-1.84439e-25,-1.03108e-28,-1.83856e-29,2.18557e-29
177.0,2.03118e-28,-1.8438e-25,-1.8447899999999999e-25,-1.84405e-25,-9.8256500000000003e-29,-1.8256199999999999e-29,3.3620599999999998e-29
178.0,1.6668400000000001e-28,-1.8438699999999999e-25,-1.8442899999999999e-25,-1.8439300000000001e-25,-8.0946699999999998e-29,-1.4989199999999999e-29,4.44703e-29
179.0,1.3498e-28,-1.84363e-25,-1.8436899999999999e-25,-1.8436000000000001e-25,-5.4724800000000005e-29,-9.1867200000000002e-30,5.4532099999999998e-29
180.0,1.1340500000000001e-28,-1.84372e-25,-1.84348e-25,-1.8436000000000001e-25,-2.20611e-29,-1.2178800000000001e-30,6.0418200000000005e-29
181.0,1.1176799999999999e-28,-1.8435000000000001e-25,-1.8433699999999999e-25,-1.8434200000000001e-25,9.8990100000000001e-30,7.1965700000000002e-30,6.2993699999999999e-29
182.0,1.2685900000000001e-28,-1.84355e-25,-1.84355e-25,-1.8435800000000001e-25,4.0959900000000001e-29,1.2583299999999999e-29,5.9372300000000002e-29
183.0,2.6751100000000002e-28,-1.84314e-25,-1.84516e-25,-1.8435399999999999e-25,-1.07207e-28,-2.12226e-29,2.1333899999999999e-29
184.0,2.2863800000000002e-28,-1.84313e-25,-1.84449e-25,-1.8433300000000001e-25,-1.02097e-28,-2.0167499999999999e-29,3.4511699999999997e-29
185.0,1.93463e-28,-1.8428300000000001e-25,-1.8436700000000001e-25,-1.8428699999999999e-25,-8.7598900000000002e-29,-1.6411900000000001e-29,4.7944500000000002e-29
186.0,1.50232e-28,-1.84282e-25,-1.84315e-25,-1.8426800000000001e-25,-5.8141000000000002e-29,-8.7299000000000006e-30,5.9181100000000004e-29
187.0,1.27422e-28,-1.84255e-25,-1.8427600000000001e-25,-1.84239e-25,-2.3529800000000001e-29,2.8250499999999999e-31,6.7105500000000001e-29
188.0,1.2419399999999999e-28,-1.8425900000000001e-25,-1.8427799999999999e-25,-1.84246e-25,1.39785e-29,1.09458e-29,6.7563799999999997e-29
189.0,1.50492e-28,-1.8424300000000001e-25,-1.8430299999999999e-25,-1.8424e-25,3.9380400000000001e-29,2.1598299999999999e-29,6.53903e-29
190.0,3.0428799999999999e-28,-1.8424499999999999e-25,-1.8450100000000001e-25,-1.8428400000000001e-25,-1.0514099999999999e-28,-2.3232700000000001e-29,1.68816e-29
191.0,2.8067300000000002e-28,-1.8420399999999999e-25,-1.84414e-25,-1.8422600000000001e-25,-1.0765199999999999e-28,-2.2252600000000001e-29,2.9220599999999998e-29
192.0,2.3511700000000002e-28,-1.8418e-25,-1.8433e-25,-1.8417600000000001e-25,-9.2337599999999999e-29,-1.7991e-29,4.3122499999999998e-29
193.0,1.98035e-28,-1.8413500000000001e-25,-1.8425100000000001e-25,-1.8411700000000001e-25,-6.6880699999999998e-29,-1.04683e-29,5.6599599999999995e-29
194.0,1.6272599999999999e-28,-1.8412500000000001e-25,-1.84216e-25,-1.84098e-25,-2.9842299999999998e-29,1.6004899999999998e-30,6.4369200000000005e-29
195.0,1.6856000000000001e-28,-1.84105e-25,-1.84215e-25,-1.8408599999999999e-25,3.28647e-30,1.4542499999999999e-29,6.6368000000000005e-29
196.0,1.8794999999999999e-28,-1.8411199999999999e-25,-1.8425399999999999e-25,-1.8411099999999999e-25,3.33319e-29,2.1895e-29,5.7975199999999996e-29
197.0,1.55554e-28,-1.8460000000000001e-25,-1.8464200000000001e-25,-1.8462799999999999e-25,-8.2134099999999998e-29,-1.4101199999999999e-29,2.5883999999999999e-29
198.0,1.4953e-28,-1.84614e-25,-1.8463599999999999e-25,-1.84638e-25,-7.5099799999999996e-29,-1.44677e-29,3.7686599999999997e-29
199.0,1.24269e-28,-1.84598e-25,-1.84588e-25,-1.8460900000000001e-25,-5.9747500000000004e-29,-1.21436e-29,3.6202e-29
200.0,1.25364e-28,-1.8461700000000001e-25,-1.84597e-25,-1.8462500000000001e-25,-4.9285700000000001e-29,-8.5222000000000005e-30,5.0304299999999999e-29
201.0,9.6349600000000005e-29,-1.8459200000000001e-25,-1.8454399999999999e-25,-1.8459200000000001e-25,-2.1465799999999999e-29,-5.7277099999999997e-30,4.2876499999999999e-29
202.0,1.0913899999999999e-28,-1.8461800000000001e-25,-1.84582e-25,-1.8461000000000001e-25,-1.7537600000000001e-29,-8.1014699999999998e-31,5.7448599999999995e-29
203.0,1.08104e-28,-1.8458e-25,-1.84516e-25,-1.8458500000000001e-25,2.23428e-29,5.9285099999999998e-30,4.35244e-29
204.0,1.70343e-28,-1.8457099999999999e-25,-1.84638e-25,-1.8460200000000001e-25,-8.5489200000000005e-29,-1.6712899999999999e-29,3.0724e-29
205.0,1.5361900000000001e-28,-1.84557e-25,-1.8459200000000001e-25,-1.8457799999999999e-25,-7.6592900000000004e-29,-1.6453500000000001e-29,3.7696899999999998e-29
206.0,1.39408e-28,-1.84574e-25,-1.84581e-25,-1.8458500000000001e-25,-6.5040400000000005e-29,-1.4235999999999999e-29,4.48606e-29
207.0,1.2035599999999999e-28,-1.8455299999999999e-25,-1.8453699999999999e-25,-1.84556e-25,-4.5127500000000002e-29,-9.8081000000000006e-30,5.08748e-29
208.0,1.13525e-28,-1.84573e-25,-1.8454200000000001e-25,-1.8456899999999999e-25,-2.7327799999999998e-29,-7.1025100000000006e-30,5.6759199999999996e-29
209.0,9.7825099999999997e-29,-1.8454599999999999e-25,-1.84505e-25,-1.8453599999999999e-25,-2.9355699999999999e-30,3.6094899999999999e-31,5.2169999999999995e-29
210.0,1.1818399999999999e-28,-1.8456999999999999e-25,-1.8454300000000001e-25,-1.84555e-25,9.2442900000000001e-30,4.8805299999999997e-30,6.6117900000000005e-29
211.0,1.8421700000000001e-28,-1.84514e-25,-1.84605e-25,-1.8454499999999999e-25,-8.8023699999999999e-29,-1.95525e-29,3.2629799999999999e-29
212.0,1.67279e-28,-1.8452700000000001e-25,-1.8457899999999999e-25,-1.8454499999999999e-25,-8.1331699999999996e-29,-1.8743500000000001e-29,4.0587999999999997e-29
213.0,1.4892899999999999e-28,-1.8451000000000001e-25,-1.84531e-25,-1.8451899999999999e-25,-6.6693399999999999e-29,-1.5661899999999999e-29,5.0893499999999999e-29
214.0,1.3065699999999999e-28,-1.84524e-25,-1.8451700000000001e-25,-1.84522e-25,-4.7452499999999999e-29,-1.1971199999999999e-29,5.7293e-29
215.0,1.1713e-28,-1.8450299999999999e-25,-1.84482e-25,-1.8449399999999999e-25,-2.40155e-29,-4.7203800000000001e-30,6.2152400000000002e-29
216.0,1.1666399999999999e-28,-1.8451899999999999e-25,-1.84491e-25,-1.84506e-25,-1.8111700000000001e-30,-6.67762e-32,6.59305e-29
217.0,1.04679e-28,-1.8449300000000001e-25,-1.84472e-25,-1.8447600000000001e-25,2.0347800000000001e-29,7.1083399999999994e-30,5.5410800000000004e-29
218.0,2.0318399999999999e-28,-1.8447500000000001e-25,-1.8459200000000001e-25,-1.84505e-25,-9.20773e-29,-2.1894500000000001e-29,3.3415900000000002e-29
219.0,1.83275e-28,-1.84463e-25,-1.8453599999999999e-25,-1.8448e-25,-8.5107e-29,-2.07796e-29,4.5298099999999999e-29
220.0,1.5972600000000001e-28,-1.84472e-25,-1.84506e-25,-1.84474e-25,-6.94866e-29,-1.7642e-29,5.4874700000000005e-29
221.0,1.4210599999999999e-28,-1.8445399999999999e-25,-1.8446199999999999e-25,-1.8444599999999999e-25,-4.8186899999999998e-29,-1.12491e-29,6.4965500000000002e-29
222.0,1.2876700000000001e-28,-1.84465e-25,-1.8445299999999999e-25,-1.84449e-25,-2.3125500000000001e-29,-4.45597e-30,7.0038999999999997e-29
223.0,1.23925e-28,-1.8444399999999999e-25,-1.8443400000000001e-25,-1.8442500000000001e-25,2.32957e-30,4.4516e-30,7.0746500000000001e-29
224.0,1.35174e-28,-1.8445399999999999e-25,-1.8445000000000001e-25,-1.8444300000000001e-25,2.50733e-29,1.2317e-29,7.2657099999999996e-29
225.0,2.2683399999999998e-28,-1.8441000000000001e-25,-1.84557e-25,-1.84439e-25,-9.5925299999999996e-29,-2.4665199999999999e-29,3.49775e-29
226.0,2.0033300000000001e-28,-1.84415e-25,-1.8451000000000001e-25,-1.8442600000000001e-25,-8.8522499999999996e-29,-2.3225800000000001e-29,4.7668800000000003e-29
227.0,1.77745e-28,-1.84398e-25,-1.8445399999999999e-25,-1.8439499999999999e-25,-7.3025299999999997e-29,-1.8464399999999999e-29,6.1211799999999998e-29
228.0,1.55262e-28,-1.8440200000000001e-25,-1.8442600000000001e-25,-1.8438500000000001e-25,-4.9623000000000001e-29,-1.12594e-29,7.0910299999999998e-29
229.0,1.44318e-28,-1.8438300000000001e-25,-1.8439499999999999e-25,-1.8435900000000001e-25,-2.23947e-29,-1.87924e-30,7.8111700000000001e-29
230.0,1.4258100000000001e-28,-1.84388e-25,-1.84399e-25,-1.84366e-25,4.8788800000000003e-30,8.4267799999999996e-30,8.00045e-29
231.0,1.5334000000000001e-28,-1.8436899999999999e-25,-1.84406e-25,-1.84346e-25,2.6574599999999999e-29,1.72742e-29,7.7003499999999996e-29
232.0,2.5408900000000002e-28,-1.8435299999999999e-25,-1.8453699999999999e-25,-1.8437799999999999e-25,-9.8216200000000005e-29,-2.78294e-29,3.3946400000000002e-29
233.0,2.2785499999999999e-28,-1.8433699999999999e-25,-1.8446999999999999e-25,-1.8434399999999999e-25,-9.2989399999999999e-29,-2.5185399999999999e-29,4.92908e-29
234.0,1.9969600000000001e-28,-1.8433300000000001e-25,-1.84422e-25,-1.84321e-25,-7.6844000000000002e-29,-1.9714500000000001e-29,6.3059199999999999e-29
235.0,1.77973e-28,-1.8431099999999999e-25,-1.84371e-25,-1.8428500000000001e-25,-5.28901e-29,-1.13e-29,7.5252099999999998e-29
236.0,1.63e-28,-1.8431000000000001e-25,-1.84355e-25,-1.8427699999999999e-25,-2.39038e-29,7.2611100000000001e-31,8.1970599999999998e-29
237.0,1.67849e-28,-1.8429e-25,-1.8435000000000001e-25,-1.84257e-25,4.1808599999999997e-30,1.14233e-29,8.3975199999999998e-29
238.0,1.74233e-28,-1.84291e-25,-1.84371e-25,-1.84273e-25,2.8566300000000002e-29,2.21252e-29,7.7863099999999999e-29
239.0,2.90841e-28,-1.8428e-25,-1.84513e-25,-1.8430399999999999e-25,-9.9799099999999999e-29,-2.9929599999999999e-29,3.0721599999999999e-29
240.0,2.6750099999999999e-28,-1.84263e-25,-1.8445399999999999e-25,-1.8426700000000001e-25,-9.5632699999999999e-29,-2.7953999999999998e-29,4.42184e-29
241.0,2.44179e-28,-1.8422899999999999e-25,-1.8438300000000001e-25,-1.8421099999999999e-25,-8.3078699999999996e-29,-2.2588200000000001e-29,5.8996899999999997e-29
242.0,2.1962699999999999e-28,-1.8421099999999999e-25,-1.84338e-25,-1.8417500000000001e-25,-5.9762899999999999e-29,-1.21811e-29,7.1415099999999998e-29
243.0,2.1026299999999998e-28,-1.8418400000000001e-25,-1.84307e-25,-1.84141e-25,-3.1645600000000003e-29,4.37073e-31,7.9573600000000005e-29
244.0,2.07409e-28,-1.8418300000000001e-25,-1.84315e-25,-1.8414399999999999e-25,-4.2309100000000002e-30,1.54247e-29,7.78939e-29
245.0,2.31771e-28,-1.84172e-25,-1.8434200000000001e-25,-1.84138e-25,1.4680399999999999e-29,2.6886299999999999e-29,7.1091499999999998e-29
246.0,1.60829e-28,-1.84615e-25,-1.84663e-25,-1.8464e-25,-7.7429899999999998e-29,-1.7943299999999999e-29,4.1591499999999998e-29
247.0,1.43026e-28,-1.8460299999999999e-25,-1.8462600000000001e-25,-1.8461800000000001e-25,-6.8198399999999996e-29,-1.6644400000000001e-29,4.1902499999999997e-29
248.0,1.40807e-28,-1.8461899999999999e-25,-1.8462799999999999e-25,-1.8462799999999999e-25,-5.8949799999999999e-29,-1.44517e-29,5.3845399999999997e-29
249.0,1.17528e-28,-1.8460000000000001e-25,-1.8458500000000001e-25,-1.8460100000000001e-25,-3.9610899999999998e-29,-1.10952e-29,5.3236200000000002e-29
250.0,1.24723e-28,-1.8462099999999999e-25,-1.8460200000000001e-25,-1.84614e-25,-3.1037699999999998e-29,-6.01036e-30,6.3990499999999996e-29
251.0,1.0687400000000001e-28,-1.8459300000000001e-25,-1.84557e-25,-1.8458699999999999e-25,-3.0476599999999999e-30,-7.4707699999999999e-31,5.8456100000000002e-29
252.0,1.1515200000000001e-28,-1.8461899999999999e-25,-1.8460000000000001e-25,-1.84597e-25,-1.57717e-30,2.57342e-31,6.5387300000000004e-29
253.0,1.67898e-28,-1.84565e-25,-1.84632e-25,-1.84589e-25,-7.8775999999999995e-29,-2.0109399999999999e-29,4.0610600000000001e-29
254.0,1.55976e-28,-1.8457799999999999e-25,-1.8461899999999999e-25,-1.8459200000000001e-25,-7.0985499999999998e-29,-1.92873e-29,4.7602299999999999e-29
255.0,1.4374200000000001e-28,-1.84563e-25,-1.84583e-25,-1.8456800000000001e-25,-5.8321900000000004e-29,-1.5953599999999999e-29,5.5918800000000002e-29
256.0,1.3281800000000001e-28,-1.8457899999999999e-25,-1.8457899999999999e-25,-1.8457500000000001e-25,-4.29854e-29,-1.26341e-29,6.2180599999999999e-29
257.0,1.2197500000000001e-28,-1.84558e-25,-1.84547e-25,-1.84547e-25,-2.4868899999999999e-29,-5.8912100000000001e-30,6.5278799999999996e-29
258.0,1.2599200000000001e-28,-1.8457700000000001e-25,-1.84563e-25,-1.8456000000000001e-25,-8.3930299999999997e-30,-9.3572200000000004e-31,7.1688600000000003e-29
259.0,1.1239200000000001e-28,-1.84547e-25,-1.84524e-25,-1.8453500000000001e-25,1.2993400000000001e-29,5.7214999999999997e-30,6.2282799999999996e-29
260.0,1.8113000000000001e-28,-1.8453400000000001e-25,-1.84622e-25,-1.84555e-25,-8.1227099999999999e-29,-2.26041e-29,4.1458699999999998e-29
261.0,1.69364e-28,-1.84524e-25,-1.8458400000000001e-25,-1.8453599999999999e-25,-7.3557999999999997e-29,-2.12106e-29,5.1956400000000001e-29
262.0,1.5307699999999999e-28,-1.8453599999999999e-25,-1.8456800000000001e-25,-1.8453500000000001e-25,-5.9877399999999998e-29,-1.8336799999999999e-29,5.9540600000000004e-29
263.0,1.4357399999999999e-28,-1.8451999999999999e-25,-1.8453500000000001e-25,-1.8451000000000001e-25,-4.3684700000000002e-29,-1.2296e-29,6.8207200000000004e-29
264.0,1.3449599999999999e-28,-1.84533e-25,-1.8453400000000001e-25,-1.84515e-25,-2.3740900000000001e-29,-6.8824799999999995e-30,7.2844599999999996e-29
265.0,1.2853399999999999e-28,-1.8451099999999999e-25,-1.8451000000000001e-25,-1.84488e-25,-5.2193400000000002e-30,1.4539899999999999e-30,7.2849199999999997e-29
266.0,1.4195799999999999e-28,-1.8452799999999999e-25,-1.8453400000000001e-25,-1.8450399999999999e-25,1.1518e-29,8.3864599999999998e-30,7.9070100000000001e-29
267.0,1.99536e-28,-1.84481e-25,-1.8459399999999999e-25,-1.8450200000000001e-25,-8.4030799999999996e-29,-2.5318199999999999e-29,4.3719400000000001e-29
268.0,1.8220299999999999e-28,-1.84489e-25,-1.84566e-25,-1.8449499999999999e-25,-7.5886500000000005e-29,-2.3737800000000001e-29,5.41847e-29
269.0,1.69168e-28,-1.8447700000000001e-25,-1.8452700000000001e-25,-1.8447099999999999e-25,-6.2496100000000003e-29,-1.9060999999999999e-29,6.5797500000000003e-29
270.0,1.5467799999999999e-28,-1.8448500000000001e-25,-1.84513e-25,-1.8446700000000001e-25,-4.3315500000000002e-29,-1.33375e-29,7.3301200000000004e-29
271.0,1.4918999999999999e-28,-1.8446800000000001e-25,-1.8448699999999999e-25,-1.84441e-25,-2.3885999999999999e-29,-4.6246499999999997e-30,7.9352900000000003e-29
272.0,1.47124e-28,-1.8447700000000001e-25,-1.8449499999999999e-25,-1.84449e-25,-2.49343e-30,3.3678300000000001e-30,8.1653500000000001e-29
273.0,1.4584900000000001e-28,-1.8445399999999999e-25,-1.8448400000000001e-25,-1.84424e-25,1.5195499999999999e-29,1.10102e-29,7.6284999999999996e-29
274.0,2.1943499999999999e-28,-1.84438e-25,-1.8457700000000001e-25,-1.8445399999999999e-25,-8.6533399999999997e-29,-2.8167199999999999e-29,4.4092899999999998e-29
275.0,2.01385e-28,-1.8443e-25,-1.8453e-25,-1.84431e-25,-7.8971800000000004e-29,-2.54254e-29,5.77733e-29
276.0,1.84274e-28,-1.84433e-25,-1.8450299999999999e-25,-1.8441800000000001e-25,-6.3815900000000005e-29,-2.05206e-29,6.9070699999999995e-29
277.0,1.7360500000000001e-28,-1.8441800000000001e-25,-1.8446899999999999e-25,-1.84391e-25,-4.5340600000000002e-29,-1.2471900000000001e-29,7.9174299999999995e-29
278.0,1.6498099999999999e-28,-1.84422e-25,-1.84464e-25,-1.84388e-25,-2.2803999999999999e-29,-3.1960799999999998e-30,8.4204999999999995e-29
279.0,1.6659399999999999e-28,-1.8440399999999999e-25,-1.8445200000000001e-25,-1.84365e-25,-2.19651e-30,6.8048200000000001e-30,8.5511399999999999e-29
280.0,1.68583e-28,-1.8441099999999999e-25,-1.8446899999999999e-25,-1.84381e-25,1.68725e-29,1.6815699999999999e-29,8.2989899999999997e-29
281.0,2.44912e-28,-1.8437799999999999e-25,-1.8455000000000001e-25,-1.8439e-25,-8.8944299999999998e-29,-3.06807e-29,4.3631299999999998e-29
282.0,2.2563899999999999e-28,-1.8437799999999999e-25,-1.8451099999999999e-25,-1.84372e-25,-8.1397300000000003e-29,-2.7965999999999999e-29,5.8224599999999995e-29
283.0,2.0947899999999998e-28,-1.8436199999999999e-25,-1.84465e-25,-1.84339e-25,-6.7880200000000004e-29,-2.1605300000000001e-29,7.1338199999999998e-29
284.0,1.9678e-28,-1.8436000000000001e-25,-1.8444399999999999e-25,-1.84322e-25,-4.7476100000000001e-29,-1.24478e-29,8.1205700000000001e-29
285.0,1.92715e-28,-1.8434200000000001e-25,-1.84422e-25,-1.84296e-25,-2.5597700000000002e-29,-1.58636e-30,8.7293899999999995e-29
286.0,1.9053700000000001e-28,-1.8434399999999999e-25,-1.8443e-25,-1.84299e-25,-3.4996199999999998e-30,1.08368e-29,8.6728800000000002e-29
287.0,2.06691e-28,-1.8432500000000001e-25,-1.84441e-25,-1.8427899999999999e-25,1.22529e-29,2.0573199999999999e-29,8.20916e-29
288.0,2.7652300000000002e-28,-1.8432500000000001e-25,-1.84541e-25,-1.8433300000000001e-25,-8.8895200000000002e-29,-3.3993899999999999e-29,3.9517800000000002e-29
289.0,2.6138300000000001e-28,-1.84307e-25,-1.84491e-25,-1.84296e-25,-8.4029099999999996e-29,-3.06983e-29,5.2263299999999999e-29
290.0,2.4937200000000002e-28,-1.8429200000000001e-25,-1.8445399999999999e-25,-1.8426099999999999e-25,-7.1779600000000001e-29,-2.42887e-29,6.4939199999999996e-29
291.0,2.3917300000000001e-28,-1.8426800000000001e-25,-1.84416e-25,-1.8421999999999999e-25,-5.3840499999999999e-29,-1.4735300000000001e-29,7.47703e-29
292.0,2.3365399999999999e-28,-1.84263e-25,-1.8440800000000001e-25,-1.84206e-25,-3.2449799999999999e-29,-1.0895600000000001e-30,7.88324e-29
293.0,2.4063900000000002e-28,-1.84247e-25,-1.8440800000000001e-25,-1.84188e-25,-1.3990399999999999e-29,1.1294999999999999e-29,7.7430500000000004e-29
294.0,2.36899e-28,-1.8425299999999999e-25,-1.8443e-25,-1.8420800000000001e-25,1.84945e-30,2.2507699999999999e-29,6.6220600000000001e-29
295.0,1.5559600000000001e-28,-1.8460900000000001e-25,-1.84655e-25,-1.8462500000000001e-25,-7.1871899999999996e-29,-1.9117999999999999e-29,4.4819899999999998e-29
296.0,1.5308000000000001e-28,-1.8462099999999999e-25,-1.8465399999999999e-25,-1.84632e-25,-6.43334e-29,-1.8855800000000001e-29,5.5047099999999997e-29
297.0,1.35941e-28,-1.84607e-25,-1.8462099999999999e-25,-1.8461000000000001e-25,-5.0865800000000001e-29,-1.6043899999999999e-29,5.7120700000000004e-29
298.0,1.38162e-28,-1.84624e-25,-1.8463e-25,-1.8461800000000001e-25,-4.23102e-29,-1.22203e-29,6.62541e-29
299.0,1.2154e-28,-1.8460299999999999e-25,-1.8459399999999999e-25,-1.8459399999999999e-25,-2.1643299999999999e-29,-7.4321700000000001e-30,6.6120999999999996e-29
300.0,1.28527e-28,-1.84623e-25,-1.84615e-25,-1.8460299999999999e-25,-1.57455e-29,-3.6525100000000003e-30,7.1747500000000005e-29
301.0,1.2072100000000001e-28,-1.8459399999999999e-25,-1.8456999999999999e-25,-1.8458400000000001e-25,8.6956300000000001e-30,4.0978400000000003e-30,6.7982199999999999e-29
302.0,1.6635400000000001e-28,-1.84582e-25,-1.84648e-25,-1.84597e-25,-7.2487200000000001e-29,-2.17161e-29,4.8121700000000002e-29
303.0,1.58426e-28,-1.84574e-25,-1.84622e-25,-1.84581e-25,-6.4337900000000005e-29,-2.02913e-29,5.5966600000000001e-29
304.0,1.4791599999999999e-28,-1.8458599999999999e-25,-1.84615e-25,-1.8458400000000001e-25,-5.2825500000000003e-29,-1.79748e-29,6.2199000000000001e-29
305.0,1.4078199999999999e-28,-1.8457099999999999e-25,-1.84589e-25,-1.8456000000000001e-25,-3.9602700000000002e-29,-1.2661899999999999e-29,6.8336399999999997e-29
306.0,1.36919e-28,-1.8458500000000001e-25,-1.8459300000000001e-25,-1.8456800000000001e-25,-2.45556e-29,-7.8904300000000007e-30,7.35635e-29
307.0,1.2838799999999999e-28,-1.84563e-25,-1.84565e-25,-1.8454300000000001e-25,-8.5670700000000002e-30,-1.6391900000000001e-30,7.2605599999999999e-29
308.0,1.3923500000000001e-28,-1.84583e-25,-1.8459399999999999e-25,-1.8455299999999999e-25,2.8656999999999998e-30,2.8741100000000001e-30,7.7456799999999999e-29
309.0,1.7990199999999999e-28,-1.8453599999999999e-25,-1.8462500000000001e-25,-1.8455000000000001e-25,-7.3791200000000004e-29,-2.42699e-29,4.9839199999999997e-29
310.0,1.67994e-28,-1.8454499999999999e-25,-1.8460900000000001e-25,-1.84548e-25,-6.5538000000000001e-29,-2.27294e-29,5.7455200000000004e-29
311.0,1.6111500000000001e-28,-1.8453599999999999e-25,-1.84583e-25,-1.8452799999999999e-25,-5.45061e-29,-1.8725699999999999e-29,6.6721500000000001e-29
312.0,1.5093799999999999e-28,-1.8454499999999999e-25,-1.8457700000000001e-25,-1.8452799999999999e-25,-3.9055000000000001e-29,-1.4057000000000001e-29,7.2507199999999996e-29
313.0,1.47157e-28,-1.8452899999999999e-25,-1.8455399999999999e-25,-1.8450399999999999e-25,-2.4578800000000001e-29,-6.90986e-30,7.7036300000000005e-29
314.0,1.4693799999999999e-28,-1.84541e-25,-1.84564e-25,-1.8451199999999999e-25,-8.00233e-30,-3.2533600000000002e-31,8.0342800000000005e-29
315.0,1.3753800000000001e-28,-1.8451700000000001e-25,-1.84539e-25,-1.84489e-25,7.2665299999999995e-30,5.9928700000000001e-30,7.4888199999999999e-29
316.0,1.94249e-28,-1.8450200000000001e-25,-1.8461199999999999e-25,-1.8451199999999999e-25,-7.5307699999999995e-29,-2.6801299999999998e-29,4.9998899999999999e-29
317.0,1.84157e-28,-1.84497e-25,-1.84581e-25,-1.8449499999999999e-25,-6.7824900000000004e-29,-2.43209e-29,6.0850599999999998e-29
318.0,1.72289e-28,-1.8450299999999999e-25,-1.84566e-25,-1.84488e-25,-5.4685399999999998e-29,-2.0364999999999999e-29,6.91242e-29
319.0,1.67001e-28,-1.8449200000000001e-25,-1.8454300000000001e-25,-1.84466e-25,-4.0515500000000002e-29,-1.3588699999999999e-29,7.7027499999999997e-29
320.0,1.6065700000000001e-28,-1.84498e-25,-1.8454200000000001e-25,-1.84466e-25,-2.3196599999999999e-29,-6.5858500000000001e-30,8.0847900000000001e-29
321.0,1.5964199999999999e-28,-1.84481e-25,-1.8452600000000001e-25,-1.8444300000000001e-25,-7.8214599999999993e-30,1.7421300000000001e-30,8.1791500000000002e-29
322.0,1.63996e-28,-1.8449300000000001e-25,-1.8454599999999999e-25,-1.84456e-25,6.41975e-30,9.8803600000000002e-30,8.2187999999999995e-29
323.0,2.1390399999999998e-28,-1.8445399999999999e-25,-1.84589e-25,-1.8446000000000001e-25,-7.7477100000000003e-29,-2.91901e-29,5.0537600000000001e-29
324.0,2.00454e-28,-1.84458e-25,-1.84563e-25,-1.84449e-25,-6.9099499999999998e-29,-2.6422700000000001e-29,6.21539e-29
325.0,1.91344e-28,-1.84449e-25,-1.8453500000000001e-25,-1.8442600000000001e-25,-5.6835500000000001e-29,-2.09545e-29,7.2554199999999998e-29
326.0,1.8362599999999999e-28,-1.8445100000000001e-25,-1.8452500000000001e-25,-1.8441700000000001e-25,-4.0858000000000002e-29,-1.3858999999999999e-29,7.9479399999999997e-29
327.0,1.8152300000000001e-28,-1.84438e-25,-1.84508e-25,-1.8439399999999999e-25,-2.4441599999999999e-29,-4.7134199999999997e-30,8.4117599999999998e-29
328.0,1.7886000000000001e-28,-1.8444300000000001e-25,-1.84516e-25,-1.84398e-25,-7.6600800000000006e-30,4.2971500000000003e-30,8.3873599999999997e-29
329.0,1.83861e-28,-1.8442500000000001e-25,-1.8451199999999999e-25,-1.8437699999999999e-25,5.9879800000000002e-30,1.1607800000000001e-29,8.0149599999999999e-29
330.0,2.3628899999999998e-28,-1.8441099999999999e-25,-1.8457500000000001e-25,-1.8441000000000001e-25,-7.8257700000000002e-29,-3.2080900000000003e-29,4.9056200000000002e-29
331.0,2.2364699999999999e-28,-1.8440399999999999e-25,-1.8454e-25,-1.84388e-25,-7.1294400000000004e-29,-2.8250700000000002e-29,6.1626599999999998e-29
332.0,2.15113e-28,-1.8440299999999999e-25,-1.8451999999999999e-25,-1.8436999999999999e-25,-5.9159100000000001e-29,-2.25066e-29,7.1947599999999995e-29
333.0,2.0880700000000001e-28,-1.8439e-25,-1.84497e-25,-1.8434399999999999e-25,-4.3481300000000002e-29,-1.38953e-29,7.9384900000000004e-29
334.0,2.05809e-28,-1.8439e-25,-1.84497e-25,-1.8433699999999999e-25,-2.6737499999999998e-29,-3.94908e-30,8.2098600000000001e-29
335.0,2.0936199999999999e-28,-1.8437500000000001e-25,-1.84491e-25,-1.8431700000000001e-25,-1.11283e-29,6.2421199999999998e-30,8.1606299999999996e-29
336.0,2.0265200000000001e-28,-1.84382e-25,-1.84507e-25,-1.8433300000000001e-25,1.94399e-30,1.6218599999999999e-29,7.3438599999999999e-29
337.0,2.6188499999999999e-28,-1.84364e-25,-1.84563e-25,-1.8435900000000001e-25,-7.8383800000000004e-29,-3.4148000000000001e-29,4.3948099999999998e-29
338.0,2.5535699999999999e-28,-1.84355e-25,-1.8453599999999999e-25,-1.8433300000000001e-25,-7.3007200000000004e-29,-3.0766999999999997e-29,5.4588700000000005e-29
339.0,2.4843000000000001e-28,-1.84339e-25,-1.84506e-25,-1.84299e-25,-6.2190599999999997e-29,-2.52086e-29,6.3330399999999999e-29
340.0,2.4593700000000001e-28,-1.84331e-25,-1.8449300000000001e-25,-1.8427600000000001e-25,-4.8605799999999999e-29,-1.58796e-29,6.9753199999999999e-29
341.0,2.4474400000000001e-28,-1.8431700000000001e-25,-1.84481e-25,-1.8425299999999999e-25,-3.3023399999999998e-29,-4.80564e-30,7.1580900000000003e-29
342.0,2.4210500000000002e-28,-1.8431999999999999e-25,-1.8449e-25,-1.84256e-25,-1.9462699999999999e-29,6.5856699999999994e-30,6.6660899999999999e-29
343.0,2.5677500000000001e-28,-1.8430800000000001e-25,-1.8450000000000001e-25,-1.8424200000000001e-25,-1.03954e-29,1.5316200000000001e-29,6.0941700000000003e-29
344.0,1.6141799999999999e-28,-1.84624e-25,-1.84674e-25,-1.8463500000000001e-25,-6.6670500000000004e-29,-2.1080300000000001e-29,5.5846599999999998e-29
345.0,1.48709e-28,-1.84615e-25,-1.84649e-25,-1.8461899999999999e-25,-5.7780700000000006e-29,-1.9232e-29,5.76052e-29
346.0,1.4891600000000001e-28,-1.8462799999999999e-25,-1.84655e-25,-1.84624e-25,-5.0523399999999996e-29,-1.7453800000000001e-29,6.5170399999999995e-29
347.0,1.3575499999999999e-28,-1.84613e-25,-1.8462700000000001e-25,-1.8460399999999999e-25,-3.4590800000000002e-29,-1.3482600000000001e-29,6.8100200000000005e-29
348.0,1.3920200000000001e-28,-1.8462799999999999e-25,-1.84638e-25,-1.8461000000000001e-25,-2.8177800000000003e-29,-9.8806400000000004e-30,7.3263100000000005e-29
349.0,1.29262e-28,-1.84607e-25,-1.84606e-25,-1.8459e-25,-8.7780500000000006e-30,-3.9903899999999998e-30,7.3390599999999998e-29
350.0,1.34047e-28,-1.8462500000000001e-25,-1.84633e-25,-1.8459599999999999e-25,-4.6143899999999998e-30,-2.87707e-30,7.4706799999999997e-29
351.0,1.6722000000000001e-28,-1.84582e-25,-1.8465000000000001e-25,-1.8459e-25,-6.6701699999999997e-29,-2.2415099999999999e-29,5.4660699999999996e-29
352.0,1.58162e-28,-1.84591e-25,-1.8464300000000001e-25,-1.84591e-25,-5.8364600000000004e-29,-2.1475700000000001e-29,5.9863599999999997e-29
353.0,1.53916e-28,-1.84581e-25,-1.84624e-25,-1.84574e-25,-4.9141799999999998e-29,-1.81352e-29,6.6459000000000003e-29
354.0,1.4746500000000001e-28,-1.8459200000000001e-25,-1.84623e-25,-1.8457700000000001e-25,-3.6539000000000003e-29,-1.45472e-29,7.1670099999999995e-29
355.0,1.4220399999999999e-28,-1.8457600000000001e-25,-1.8460200000000001e-25,-1.84556e-25,-2.44237e-29,-9.2606999999999995e-30,7.4349799999999994e-29
356.0,1.43651e-28,-1.8459e-25,-1.84613e-25,-1.8456199999999999e-25,-1.21583e-29,-4.1190100000000001e-30,7.7816200000000003e-29
357.0,1.32973e-28,-1.84565e-25,-1.8457899999999999e-25,-1.8454300000000001e-25,1.5247499999999999e-30,1.7487999999999999e-30,7.45059e-29
358.0,1.75797e-28,-1.8455200000000001e-25,-1.84638e-25,-1.84557e-25,-6.6740799999999995e-29,-2.4506400000000001e-29,5.3830700000000004e-29
359.0,1.7170599999999999e-28,-1.84548e-25,-1.8462099999999999e-25,-1.8454399999999999e-25,-5.9963900000000003e-29,-2.2881799999999999e-29,6.2040899999999998e-29
360.0,1.62392e-28,-1.84555e-25,-1.84613e-25,-1.8454200000000001e-25,-4.8580699999999999e-29,-1.9709900000000001e-29,6.7886500000000005e-29
361.0,1.5936e-28,-1.8454499999999999e-25,-1.8459599999999999e-25,-1.84523e-25,-3.77484e-29,-1.4752100000000001e-29,7.3618700000000005e-29
362.0,1.5466300000000001e-28,-1.8455299999999999e-25,-1.84598e-25,-1.8452500000000001e-25,-2.3620100000000001e-29,-9.0059500000000004e-30,7.7399399999999995e-29
363.0,1.5005799999999999e-28,-1.8453599999999999e-25,-1.8457700000000001e-25,-1.8450399999999999e-25,-1.1444400000000001e-29,-3.0904000000000001e-30,7.7453699999999997e-29
364.0,1.5666e-28,-1.8455200000000001e-25,-1.8460000000000001e-25,-1.84513e-25,-5.64931e-32,2.53848e-30,7.92329e-29
365.0,1.9213500000000001e-28,-1.8451099999999999e-25,-1.8462099999999999e-25,-1.84513e-25,-6.8110400000000004e-29,-2.68425e-29,5.43722e-29
366.0,1.83047e-28,-1.84516e-25,-1.84607e-25,-1.84507e-25,-6.0202199999999999e-29,-2.4673e-29,6.2355700000000001e-29
367.0,1.78398e-28,-1.8451000000000001e-25,-1.84589e-25,-1.84489e-25,-5.0319300000000001e-29,-2.0487700000000001e-29,7.0111400000000003e-29
368.0,1.71781e-28,-1.84514e-25,-1.8458400000000001e-25,-1.8448500000000001e-25,-3.7037799999999999e-29,-1.5148700000000001e-29,7.5107799999999996e-29
369.0,1.69906e-28,-1.8450200000000001e-25,-1.8456899999999999e-25,-1.84465e-25,-2.49422e-29,-8.2070800000000005e-30,7.84523e-29
370.0,1.6770499999999999e-28,-1.8451000000000001e-25,-1.8457700000000001e-25,-1.8446899999999999e-25,-1.12654e-29,-1.1671600000000001e-30,7.9328499999999998e-29
371.0,1.61887e-28,-1.84491e-25,-1.84558e-25,-1.8445000000000001e-25,5.6873800000000003e-31,4.3227000000000002e-30,7.5729999999999996e-29
372.0,2.08749e-28,-1.8447500000000001e-25,-1.84608e-25,-1.8446999999999999e-25,-6.8813900000000002e-29,-2.9012799999999999e-29,5.3198600000000002e-29
373.0,2.0083399999999999e-28,-1.84472e-25,-1.8458599999999999e-25,-1.84456e-25,-6.1608899999999997e-29,-2.6257199999999999e-29,6.2797999999999997e-29
374.0,1.9445700000000001e-28,-1.84474e-25,-1.8457500000000001e-25,-1.8444599999999999e-25,-5.0817500000000003e-29,-2.16215e-29,6.9982300000000005e-29
375.0,1.9117100000000001e-28,-1.84465e-25,-1.8456000000000001e-25,-1.8442600000000001e-25,-3.8821099999999998e-29,-1.4997499999999999e-29,7.5466799999999996e-29
376.0,1.8723800000000001e-28,-1.8446800000000001e-25,-1.8456099999999999e-25,-1.84422e-25,-2.5139200000000001e-29,-7.6605200000000001e-30,7.7392299999999998e-29
377.0,1.87408e-28,-1.84455e-25,-1.8455000000000001e-25,-1.8440299999999999e-25,-1.30213e-29,1.3471900000000001e-31,7.7172700000000001e-29
378.0,1.8419699999999999e-28,-1.84466e-25,-1.8456700000000001e-25,-1.8441700000000001e-25,-2.2396100000000001e-30,8.0708600000000004e-30,7.3153300000000001e-29
379.0,2.2877400000000001e-28,-1.84433e-25,-1.8459300000000001e-25,-1.84423e-25,-6.9489700000000003e-29,-3.1063800000000002e-29,5.0255199999999998e-29
380.0,2.2254999999999999e-28,-1.84432e-25,-1.8457600000000001e-25,-1.8440900000000001e-25,-6.29379e-29,-2.8380699999999997e-29,6.0178300000000005e-29
381.0,2.1715000000000001e-28,-1.8442500000000001e-25,-1.84556e-25,-1.84388e-25,-5.3058699999999999e-29,-2.27491e-29,6.7687100000000005e-29
382.0,2.1426800000000002e-28,-1.8442500000000001e-25,-1.8455100000000001e-25,-1.8437600000000001e-25,-4.0739699999999999e-29,-1.58187e-29,7.2073800000000003e-29
383.0,2.13236e-28,-1.84413e-25,-1.84541e-25,-1.84357e-25,-2.8340600000000001e-29,-6.9567699999999996e-30,7.3793600000000005e-29
384.0,2.0892200000000001e-28,-1.8441800000000001e-25,-1.84549e-25,-1.8436000000000001e-25,-1.6253899999999999e-29,1.4667900000000001e-30,7.0441899999999998e-29
385.0,2.1441299999999998e-28,-1.8440399999999999e-25,-1.8454599999999999e-25,-1.8434399999999999e-25,-6.4491900000000004e-30,7.2333700000000007e-30,6.68074e-29
386.0,2.5323699999999998e-28,-1.8439499999999999e-25,-1.8458699999999999e-25,-1.8438e-25,-6.99572e-29,-3.2894699999999998e-29,4.5533299999999998e-29
387.0,2.4695199999999998e-28,-1.84389e-25,-1.8456800000000001e-25,-1.8436099999999999e-25,-6.3765099999999998e-29,-3.0665699999999999e-29,5.1872999999999999e-29
388.0,2.4620899999999999e-28,-1.8438300000000001e-25,-1.84557e-25,-1.8434e-25,-5.5178400000000005e-29,-2.50647e-29,5.7931200000000001e-29
389.0,2.4397599999999999e-28,-1.84372e-25,-1.8454300000000001e-25,-1.8431700000000001e-25,-4.4378600000000001e-29,-1.7595400000000001e-29,6.0747299999999997e-29
390.0,2.4270599999999998e-28,-1.84372e-25,-1.8454499999999999e-25,-1.8430900000000001e-25,-3.3075399999999999e-29,-8.7457400000000003e-30,5.9974999999999994e-29
391.0,2.4505799999999998e-28,-1.8436099999999999e-25,-1.84541e-25,-1.8429499999999999e-25,-2.3218400000000001e-29,3.5778699999999999e-31,5.7143699999999995e-29
392.0,2.2934799999999998e-28,-1.84372e-25,-1.8455100000000001e-25,-1.84315e-25,-1.53272e-29,8.2786499999999995e-30,4.5604900000000002e-29
393.0,1.5687899999999999e-28,-1.8462099999999999e-25,-1.84666e-25,-1.8462500000000001e-25,-6.2264599999999996e-29,-2.0391499999999999e-29,5.7283200000000005e-29
394.0,1.5810800000000001e-28,-1.84631e-25,-1.84674e-25,-1.8463e-25,-5.7561000000000002e-29,-2.0888599999999999e-29,6.2847199999999999e-29
395.0,1.4697400000000001e-28,-1.8462099999999999e-25,-1.8465299999999999e-25,-1.84615e-25,-4.4106800000000001e-29,-1.8119999999999999e-29,6.7128599999999998e-29
396.0,1.4813099999999999e-28,-1.84633e-25,-1.8466000000000001e-25,-1.8461800000000001e-25,-3.8774100000000001e-29,-1.6064999999999999e-29,7.1394299999999995e-29
397.0,1.39173e-28,-1.8461700000000001e-25,-1.8463599999999999e-25,-1.8460100000000001e-25,-2.23651e-29,-1.15037e-29,7.4188600000000001e-29
398.0,1.4135499999999999e-28,-1.8462899999999999e-25,-1.84647e-25,-1.8460399999999999e-25,-1.7642400000000001e-29,-9.1457600000000003e-30,7.6137100000000004e-29
399.0,1.3367e-28,-1.84606e-25,-1.8461199999999999e-25,-1.8458599999999999e-25,-1.0177799999999999e-30,-2.5369099999999999e-30,7.59099e-29
400.0,1.64432e-28,-1.8459399999999999e-25,-1.8466000000000001e-25,-1.8459599999999999e-25,-6.1833099999999994e-29,-2.2738900000000001e-29,5.7307700000000005e-29
401.0,1.62588e-28,-1.8459e-25,-1.8465000000000001e-25,-1.8458500000000001e-25,-5.5685e-29,-2.1454300000000001e-29,6.2723299999999996e-29
402.0,1.5598199999999999e-28,-1.84597e-25,-1.84648e-25,-1.8458599999999999e-25,-4.5708799999999998e-29,-1.94625e-29,6.7478500000000004e-29
403.0,1.5193e-28,-1.84588e-25,-1.84633e-25,-1.8456999999999999e-25,-3.6081300000000001e-29,-1.61187e-29,7.1220700000000002e-29
404.0,1.4956399999999999e-28,-1.84597e-25,-1.8463699999999999e-25,-1.84573e-25,-2.49286e-29,-1.2094400000000001e-29,7.5022199999999995e-29
405.0,1.4322100000000001e-28,-1.8458e-25,-1.84613e-25,-1.8455399999999999e-25,-1.3762499999999999e-29,-7.3594000000000006e-30,7.5493600000000002e-29
406.0,1.4854400000000001e-28,-1.8459599999999999e-25,-1.8463500000000001e-25,-1.8456099999999999e-25,-4.2736499999999997e-30,-4.2098499999999999e-30,7.7103800000000002e-29
407.0,1.7724299999999999e-28,-1.84556e-25,-1.8464499999999999e-25,-1.84555e-25,-6.2517500000000001e-29,-2.4457499999999999e-29,5.7151199999999996e-29
408.0,1.7004600000000001e-28,-1.8456099999999999e-25,-1.84639e-25,-1.8455299999999999e-25,-5.4878600000000004e-29,-2.30508e-29,6.1813000000000004e-29
409.0,1.67404e-28,-1.84556e-25,-1.8462799999999999e-25,-1.84539e-25,-4.66794e-29,-2.0537000000000001e-29,6.7186700000000004e-29
410.0,1.6202299999999999e-28,-1.8456199999999999e-25,-1.8462700000000001e-25,-1.84538e-25,-3.54675e-29,-1.65019e-29,7.1420699999999997e-29
411.0,1.5824200000000001e-28,-1.8455100000000001e-25,-1.8461099999999999e-25,-1.8451999999999999e-25,-2.54004e-29,-1.2185299999999999e-29,7.3508900000000001e-29
412.0,1.5730599999999999e-28,-1.8455900000000001e-25,-1.8461899999999999e-25,-1.84524e-25,-1.41634e-29,-6.4342299999999998e-30,7.5483999999999997e-29
413.0,1.4612199999999999e-28,-1.84539e-25,-1.84591e-25,-1.84507e-25,-3.6846100000000001e-30,-1.3169e-30,7.2699799999999996e-29
414.0,1.8839299999999999e-28,-1.84523e-25,-1.8463400000000001e-25,-1.8451800000000001e-25,-6.2105399999999999e-29,-2.6033799999999998e-29,5.52622e-29
415.0,1.8545e-28,-1.84522e-25,-1.84623e-25,-1.84508e-25,-5.5902399999999997e-29,-2.4722e-29,6.14616e-29
416.0,1.79833e-28,-1.8452600000000001e-25,-1.8461800000000001e-25,-1.8450299999999999e-25,-4.64742e-29,-2.1444900000000001e-29,6.6344800000000001e-29
417.0,1.76912e-28,-1.8451899999999999e-25,-1.84607e-25,-1.8448599999999999e-25,-3.67171e-29,-1.7010800000000001e-29,7.0077299999999998e-29
418.0,1.7293300000000001e-28,-1.84523e-25,-1.8460900000000001e-25,-1.8448500000000001e-25,-2.5334199999999999e-29,-1.15647e-29,7.21777e-29
419.0,1.6856899999999999e-28,-1.8451000000000001e-25,-1.8459300000000001e-25,-1.8446800000000001e-25,-1.50896e-29,-5.9391700000000002e-30,7.1863899999999996e-29
420.0,1.7046599999999999e-28,-1.84524e-25,-1.8461099999999999e-25,-1.8447799999999999e-25,-5.2937799999999998e-30,-4.61792e-31,7.1371600000000001e-29
421.0,2.0530500000000002e-28,-1.8448599999999999e-25,-1.8461999999999999e-25,-1.8447600000000001e-25,-6.2693699999999997e-29,-2.8163199999999999e-29,5.3122999999999998e-29
422.0,2.0126500000000001e-28,-1.84488e-25,-1.8461199999999999e-25,-1.8446800000000001e-25,-5.6492799999999998e-29,-2.6145700000000001e-29,5.9327299999999996e-29
423.0,1.9772100000000001e-28,-1.8448400000000001e-25,-1.8460100000000001e-25,-1.8445299999999999e-25,-4.75728e-29,-2.2290599999999999e-29,6.4504600000000003e-29
424.0,1.94069e-28,-1.8448500000000001e-25,-1.84599e-25,-1.8444599999999999e-25,-3.7410100000000002e-29,-1.72822e-29,6.7395600000000002e-29
425.0,1.91782e-28,-1.8447700000000001e-25,-1.84588e-25,-1.8442899999999999e-25,-2.7151799999999999e-29,-1.11884e-29,6.8761099999999999e-29
426.0,1.8805400000000001e-28,-1.84482e-25,-1.8459399999999999e-25,-1.84432e-25,-1.66708e-29,-4.4921099999999997e-30,6.7659899999999995e-29
427.0,1.8113300000000001e-28,-1.8446700000000001e-25,-1.8457799999999999e-25,-1.8441800000000001e-25,-7.5987899999999994e-30,-1.08547e-32,6.43368e-29
428.0,2.2436400000000001e-28,-1.8445000000000001e-25,-1.8461099999999999e-25,-1.8443500000000001e-25,-6.2880699999999998e-29,-3.0308700000000001e-29,4.8932699999999998e-29
429.0,2.20795e-28,-1.84448e-25,-1.8460000000000001e-25,-1.84422e-25,-5.6852999999999999e-29,-2.7638600000000001e-29,5.4921600000000001e-29
430.0,2.1921e-28,-1.84448e-25,-1.8459399999999999e-25,-1.8440900000000001e-25,-4.915e-29,-2.4006799999999999e-29,5.9110699999999995e-29
431.0,2.1676900000000002e-28,-1.84441e-25,-1.8458400000000001e-25,-1.8439200000000001e-25,-3.9438799999999998e-29,-1.78224e-29,6.1616399999999998e-29
432.0,2.1389999999999999e-28,-1.8444200000000001e-25,-1.8458599999999999e-25,-1.84388e-25,-2.9453000000000003e-29,-1.16832e-29,6.1017400000000002e-29
433.0,2.11785e-28,-1.84432e-25,-1.8457700000000001e-25,-1.84373e-25,-2.06013e-29,-4.5186500000000003e-30,5.9422700000000004e-29
434.0,2.03376e-28,-1.8444399999999999e-25,-1.84589e-25,-1.84388e-25,-1.22535e-29,2.77153e-30,5.38337e-29
435.0,2.4175500000000001e-28,-1.8442099999999999e-25,-1.84606e-25,-1.8440200000000001e-25,-6.2060799999999998e-29,-3.3412599999999998e-29,4.1748299999999999e-29
436.0,2.4368599999999998e-28,-1.84414e-25,-1.8459599999999999e-25,-1.8438400000000001e-25,-5.8389999999999996e-29,-2.9687299999999998e-29,4.77369e-29
437.0,2.41092e-28,-1.8440900000000001e-25,-1.8458599999999999e-25,-1.84365e-25,-5.0579199999999996e-29,-2.53485e-29,5.0588800000000001e-29
438.0,2.4088699999999999e-28,-1.84406e-25,-1.84583e-25,-1.8435199999999999e-25,-4.2008300000000001e-29,-1.98101e-29,5.1481299999999997e-29
439.0,2.3905600000000002e-28,-1.84399e-25,-1.8457500000000001e-25,-1.84338e-25,-3.3123299999999999e-29,-1.20055e-29,5.06463e-29
440.0,2.3206699999999999e-28,-1.8440299999999999e-25,-1.8458e-25,-1.8434300000000001e-25,-2.49781e-29,-5.0833799999999998e-30,4.50287e-29
441.0,2.3463999999999998e-28,-1.8439399999999999e-25,-1.8457500000000001e-25,-1.8433e-25,-1.84463e-29,-1.56684e-30,4.31996e-29
442.0,3.0601799999999999e-28,-1.8381999999999999e-25,-1.84132e-25,-1.8383499999999999e-25,-2.7530099999999999e-30,1.09143e-29,1.1975199999999999e-29
443.0,7.3768200000000004e-28,-1.8346600000000001e-25,-1.8411099999999999e-25,-1.83423e-25,-1.71442e-28,-9.2720999999999996e-30,-5.6147500000000004e-29
444.0,2.8638500000000002e-28,-1.8378e-25,-1.84057e-25,-1.83774e-25,-2.53035e-29,7.3322499999999998e-30,2.0217099999999999e-29
445.0,7.8950699999999997e-28,-1.8331600000000001e-25,-1.84023e-25,-1.83273e-25,-1.61857e-28,-1.3718899999999999e-29,-6.2861999999999999e-29
446.0,2.9061199999999998e-28,-1.8379399999999999e-25,-1.8405399999999999e-25,-1.8377500000000001e-25,-5.8746900000000004e-29,-3.5764499999999998e-30,1.5999499999999999e-29
447.0,8.1478100000000002e-28,-1.8327599999999999e-25,-1.8402500000000001e-25,-1.83247e-25,-1.50768e-28,-1.65192e-29,-6.0592700000000001e-29
448.0,3.4796400000000001e-28,-1.83824e-25,-1.8412699999999999e-25,-1.8381999999999999e-25,-9.5177199999999997e-29,-9.2803600000000001e-30,1.09157e-29
449.0,7.9282900000000003e-28,-1.8340000000000001e-25,-1.8415199999999999e-25,-1.83396e-25,-1.2557000000000001e-28,-1.91035e-29,-6.02582e-29
450.0,3.8029400000000001e-28,-1.8392799999999999e-25,-1.84263e-25,-1.8394e-25,-1.08314e-28,-1.4470699999999999e-29,-2.5922499999999999e-31
451.0,7.3682000000000001e-28,-1.8359399999999999e-25,-1.8431999999999999e-25,-1.8362400000000001e-25,-9.6517800000000001e-29,-1.60751e-29,-5.1733299999999998e-29
452.0,4.22096e-28,-1.8400999999999999e-25,-1.84405e-25,-1.8405800000000001e-25,-1.1196600000000001e-28,-1.3541399999999999e-29,-6.2215800000000001e-30
453.0,6.3824299999999998e-28,-1.83849e-25,-1.8449200000000001e-25,-1.83896e-25,-7.0251499999999997e-29,-1.3772100000000001e-29,-4.5859500000000001e-29
454.0,3.9795899999999999e-28,-1.8412500000000001e-25,-1.84513e-25,-1.8417899999999999e-25,-9.2055900000000003e-29,-1.1715499999999999e-29,-1.14812e-29
455.0,5.5031699999999996e-28,-1.8403400000000001e-25,-1.84605e-25,-1.8410399999999999e-25,-5.3875600000000003e-29,-6.9306299999999995e-30,-3.3889800000000001e-29
456.0,3.2567700000000001e-28,-1.8391099999999999e-25,-1.84222e-25,-1.83899e-25,-1.3721199999999999e-29,2.4126700000000001e-29,3.2194499999999999e-29
457.0,6.7046400000000001e-28,-1.8365000000000001e-25,-1.84231e-25,-1.8360299999999999e-25,-1.4932700000000001e-28,-1.23455e-29,-7.1597799999999996e-29
458.0,2.9909500000000001e-28,-1.83897e-25,-1.8416800000000001e-25,-1.8386899999999999e-25,-2.5201000000000001e-29,1.2249699999999999e-29,4.1296899999999998e-29
459.0,7.1612199999999996e-28,-1.83532e-25,-1.84165e-25,-1.8348499999999999e-25,-1.46522e-28,-1.6895e-29,-7.1274800000000002e-29
460.0,3.0478199999999998e-28,-1.83898e-25,-1.84157e-25,-1.8386199999999999e-25,-5.6412099999999995e-29,-2.3625900000000002e-30,4.25632e-29
461.0,7.32765e-28,-1.83512e-25,-1.8417899999999999e-25,-1.83479e-25,-1.3116e-28,-2.4738199999999999e-29,-7.1482400000000004e-29
462.0,3.2522399999999998e-28,-1.83948e-25,-1.8421700000000001e-25,-1.83922e-25,-8.49634e-29,-1.5105999999999999e-29,3.4239999999999998e-29
463.0,7.1758900000000003e-28,-1.8358400000000001e-25,-1.8425900000000001e-25,-1.8357500000000001e-25,-1.1166899999999999e-28,-2.9392799999999999e-29,-6.6261300000000003e-29
464.0,3.61639e-28,-1.8400299999999999e-25,-1.8431199999999999e-25,-1.84004e-25,-1.0362500000000001e-28,-2.3548600000000001e-29,2.20756e-29
465.0,6.6527000000000002e-28,-1.8375100000000001e-25,-1.84398e-25,-1.8376999999999999e-25,-8.8549899999999997e-29,-2.9445400000000001e-29,-5.8150200000000003e-29
466.0,3.73736e-28,-1.8409300000000001e-25,-1.8443e-25,-1.8411800000000001e-25,-1.0369999999999999e-28,-2.5106700000000001e-29,9.9849899999999998e-30
467.0,5.9357600000000004e-28,-1.83923e-25,-1.8451800000000001e-25,-1.8396800000000001e-25,-6.7537799999999999e-29,-2.5809000000000001e-29,-4.8301399999999998e-29
468.0,3.7916399999999999e-28,-1.8416099999999999e-25,-1.8451800000000001e-25,-1.84207e-25,-9.84749e-29,-2.3838100000000001e-29,1.9544299999999999e-30
469.0,5.0033600000000001e-28,-1.84097e-25,-1.84608e-25,-1.8415299999999999e-25,-5.5197100000000004e-29,-1.9681199999999999e-29,-3.5792199999999999e-29
470.0,3.3163899999999999e-28,-1.8403599999999999e-25,-1.84338e-25,-1.83999e-25,-2.3580599999999999e-29,2.25078e-29,3.2984500000000002e-29
471.0,5.8953099999999996e-28,-1.83856e-25,-1.8436000000000001e-25,-1.83806e-25,-1.2746300000000001e-28,-1.5416500000000001e-29,-7.3190699999999999e-29
472.0,3.2694900000000001e-28,-1.8401600000000001e-25,-1.84296e-25,-1.8396199999999999e-25,-3.4025600000000002e-29,1.1084e-29,4.74583e-29
473.0,6.2464699999999999e-28,-1.8378499999999999e-25,-1.84331e-25,-1.8373599999999999e-25,-1.20776e-28,-2.24115e-29,-7.7547400000000005e-29
474.0,3.2088899999999999e-28,-1.84031e-25,-1.8429399999999999e-25,-1.83974e-25,-5.3824099999999995e-29,-3.8852800000000001e-30,4.9099500000000002e-29
475.0,6.3984600000000004e-28,-1.83755e-25,-1.8433e-25,-1.8371799999999999e-25,-1.10931e-28,-2.9325599999999999e-29,-7.4877799999999998e-29
476.0,3.33016e-28,-1.8405100000000001e-25,-1.84321e-25,-1.8400800000000001e-25,-7.5873599999999996e-29,-1.94004e-29,4.4695099999999998e-29
477.0,6.2669200000000003e-28,-1.8381099999999999e-25,-1.84391e-25,-1.8379399999999999e-25,-9.6362399999999997e-29,-3.4389399999999999e-29,-6.9284899999999995e-29
478.0,3.4478100000000001e-28,-1.84105e-25,-1.8439300000000001e-25,-1.8408699999999999e-25,-9.0538600000000003e-29,-2.8421799999999998e-29,3.39746e-29
479.0,5.8893700000000002e-28,-1.8390800000000001e-25,-1.84472e-25,-1.8391600000000001e-25,-7.8908300000000001e-29,-3.5290199999999999e-29,-6.0045200000000001e-29
480.0,3.53445e-28,-1.8415800000000001e-25,-1.8446800000000001e-25,-1.84166e-25,-9.4574699999999994e-29,-3.2406200000000002e-29,2.1709900000000001e-29
481.0,5.2683799999999998e-28,-1.8404e-25,-1.8456000000000001e-25,-1.8406999999999999e-25,-6.4286000000000005e-29,-3.1274000000000002e-29,-4.78212e-29
482.0,3.4784500000000002e-28,-1.8421999999999999e-25,-1.8453699999999999e-25,-1.84248e-25,-9.1135999999999995e-29,-3.1437400000000001e-29,1.30979e-29
483.0,4.5713000000000001e-28,-1.8415800000000001e-25,-1.8461899999999999e-25,-1.8420299999999999e-25,-5.56086e-29,-2.6831800000000001e-29,-3.4545200000000002e-29
484.0,3.3719299999999998e-28,-1.8414499999999999e-25,-1.8443699999999999e-25,-1.8408400000000001e-25,-3.32601e-29,1.7044100000000001e-29,2.8890299999999999e-29
485.0,4.9260599999999999e-28,-1.84057e-25,-1.8447799999999999e-25,-1.8400900000000001e-25,-9.7482299999999999e-29,-1.8223699999999999e-29,-6.7483600000000004e-29
486.0,3.2394100000000002e-28,-1.84146e-25,-1.8441800000000001e-25,-1.84081e-25,-3.7304e-29,6.4159300000000006e-30,3.9918599999999999e-29
487.0,5.2664299999999996e-28,-1.8400000000000001e-25,-1.84456e-25,-1.8395000000000001e-25,-9.6363899999999995e-29,-2.4591300000000001e-29,-7.0143499999999999e-29
488.0,3.26288e-28,-1.84141e-25,-1.84406e-25,-1.84074e-25,-5.1313600000000001e-29,-8.3918500000000004e-30,4.5314400000000002e-29
489.0,5.3874700000000002e-28,-1.8399e-25,-1.8446800000000001e-25,-1.8395000000000001e-25,-8.9797500000000005e-29,-3.0483799999999997e-29,-6.8431100000000003e-29
490.0,3.2723200000000001e-28,-1.84166e-25,-1.8442899999999999e-25,-1.8411099999999999e-25,-6.6581500000000003e-29,-2.0299600000000001e-29,4.3874599999999998e-29
491.0,5.3296699999999997e-28,-1.84006e-25,-1.8449300000000001e-25,-1.8398400000000001e-25,-7.9941799999999995e-29,-3.6840300000000002e-29,-6.2874500000000004e-29
492.0,3.30289e-28,-1.8419200000000001e-25,-1.84463e-25,-1.8415800000000001e-25,-7.8017699999999996e-29,-3.1291100000000002e-29,3.69951e-29
493.0,5.0474399999999996e-28,-1.8406899999999999e-25,-1.8454499999999999e-25,-1.8406600000000001e-25,-6.9468800000000004e-29,-3.6986999999999999e-29,-5.3487399999999995e-29
494.0,3.3024700000000001e-28,-1.8423500000000001e-25,-1.8451700000000001e-25,-1.8422600000000001e-25,-8.35007e-29,-3.4344199999999998e-29,2.8269400000000001e-29
495.0,4.6123800000000002e-28,-1.8414499999999999e-25,-1.8459200000000001e-25,-1.8416099999999999e-25,-5.9798900000000005e-29,-3.54988e-29,-4.2528199999999998e-29
496.0,3.2344099999999999e-28,-1.84274e-25,-1.8456000000000001e-25,-1.8428400000000001e-25,-8.2741600000000004e-29,-3.5042799999999998e-29,2.0470999999999999e-29
497.0,4.0485399999999996e-28,-1.8423e-25,-1.84631e-25,-1.8426000000000001e-25,-5.5095099999999998e-29,-3.0359000000000003e-29,-2.9062000000000001e-29
498.0,2.9984799999999999e-28,-1.84257e-25,-1.84515e-25,-1.84198e-25,-3.2817299999999999e-29,7.1757100000000004e-30,1.96813e-29
499.0,4.0882700000000004e-28,-1.8419200000000001e-25,-1.84541e-25,-1.8414300000000001e-25,-7.42558e-29,-1.81189e-29,-5.2521499999999994e-29
500.0,3.1373600000000002e-28,-1.84241e-25,-1.8450100000000001e-25,-1.8416999999999999e-25,-3.8277300000000001e-29,-5.8891899999999996e-31,3.20544e-29
501.0,4.2877000000000003e-28,-1.8417500000000001e-25,-1.8454599999999999e-25,-1.8412899999999999e-25,-7.3211000000000002e-29,-2.5107900000000001e-29,-5.57306e-29
502.0,3.1246800000000001e-28,-1.84249e-25,-1.8450200000000001e-25,-1.8418e-25,-4.75842e-29,-1.1237000000000001e-29,3.67729e-29
503.0,4.4367199999999997e-28,-1.84156e-25,-1.84548e-25,-1.8411700000000001e-25,-7.0107399999999997e-29,-3.0312200000000002e-29,-5.5344900000000001e-29
504.0,3.12734e-28,-1.8425299999999999e-25,-1.84506e-25,-1.8419499999999999e-25,-5.74747e-29,-2.25411e-29,3.7851899999999998e-29
505.0,4.41266e-28,-1.8416899999999999e-25,-1.8456800000000001e-25,-1.8414200000000001e-25,-6.5825900000000002e-29,-3.4590800000000002e-29,-4.98913e-29
506.0,3.1184699999999999e-28,-1.8427500000000001e-25,-1.8453e-25,-1.8423400000000001e-25,-6.6979899999999998e-29,-3.0575699999999999e-29,3.5999200000000001e-29
507.0,4.2645799999999998e-28,-1.8419499999999999e-25,-1.84591e-25,-1.8418400000000001e-25,-6.01408e-29,-3.6823499999999999e-29,-4.3173899999999999e-29
508.0,3.0766200000000002e-28,-1.84297e-25,-1.84556e-25,-1.8427600000000001e-25,-7.1564400000000003e-29,-3.5805699999999997e-29,2.9492200000000001e-29
509.0,3.9591300000000002e-28,-1.8424200000000001e-25,-1.8461899999999999e-25,-1.84246e-25,-5.5531400000000002e-29,-3.48966e-29,-3.2733499999999999e-29
510.0,2.9983000000000001e-28,-1.8432500000000001e-25,-1.8458500000000001e-25,-1.84323e-25,-7.3971700000000002e-29,-3.5501900000000002e-29,2.4487699999999999e-29
511.0,3.57001e-28,-1.8429399999999999e-25,-1.84639e-25,-1.8430900000000001e-25,-5.3733700000000002e-29,-3.2721900000000002e-29,-2.1107000000000001e-29
512.0,2.8814200000000001e-28,-1.8431999999999999e-25,-1.8456099999999999e-25,-1.8425299999999999e-25,-3.1675600000000001e-29,1.1525600000000001e-31,2.1406599999999999e-29
513.0,3.2082000000000002e-28,-1.8430399999999999e-25,-1.8458400000000001e-25,-1.84265e-25,-5.1820000000000005e-29,-1.97731e-29,-3.1698799999999999e-29
514.0,2.8251600000000002e-28,-1.8432600000000001e-25,-1.8456000000000001e-25,-1.8426099999999999e-25,-3.5722499999999997e-29,-6.72396e-30,2.40944e-29
515.0,3.4909500000000001e-28,-1.8427899999999999e-25,-1.8458400000000001e-25,-1.8423599999999999e-25,-5.4486900000000002e-29,-2.34252e-29,-3.60476e-29
516.0,2.9001399999999999e-28,-1.8431800000000001e-25,-1.84555e-25,-1.8425399999999999e-25,-4.2439999999999999e-29,-1.4833399999999999e-29,2.8785100000000002e-29
517.0,3.5867899999999998e-28,-1.8427899999999999e-25,-1.8459599999999999e-25,-1.8424200000000001e-25,-5.5489599999999995e-29,-2.8007599999999999e-29,-3.5274199999999999e-29
518.0,2.9084899999999999e-28,-1.8432799999999999e-25,-1.84564e-25,-1.84272e-25,-5.0735500000000003e-29,-2.2374800000000001e-29,3.2131099999999998e-29
519.0,3.6394999999999999e-28,-1.8427799999999999e-25,-1.84605e-25,-1.8425000000000001e-25,-5.3679400000000001e-29,-3.2545700000000001e-29,-3.3749399999999998e-29
520.0,2.8956100000000001e-28,-1.8433400000000001e-25,-1.84572e-25,-1.8429300000000001e-25,-5.7095899999999995e-29,-3.0308200000000002e-29,3.1178499999999998e-29
521.0,3.5531400000000001e-28,-1.8429300000000001e-25,-1.8461999999999999e-25,-1.8427799999999999e-25,-5.2584100000000005e-29,-3.32043e-29,-2.8214499999999999e-29
522.0,2.8504200000000001e-28,-1.8435000000000001e-25,-1.84589e-25,-1.8432500000000001e-25,-6.2358499999999995e-29,-3.30003e-29,2.89183e-29
523.0,3.3961700000000002e-28,-1.84314e-25,-1.84632e-25,-1.8431000000000001e-25,-5.0959499999999998e-29,-3.4549200000000002e-29,-2.1541899999999999e-29
524.0,2.7606499999999998e-28,-1.8436800000000001e-25,-1.8460299999999999e-25,-1.84357e-25,-6.4651499999999996e-29,-3.4695199999999998e-29,2.6045000000000002e-29
525.0,3.1401300000000002e-28,-1.8434499999999999e-25,-1.8464200000000001e-25,-1.8435000000000001e-25,-5.1413300000000001e-29,-3.19849e-29,-1.34748e-29
526.0,2.3851900000000001e-28,-1.8437899999999999e-25,-1.84583e-25,-1.8433e-25,-2.6728700000000001e-29,-4.9189299999999998e-30,1.51002e-29
527.0,2.7829799999999998e-28,-1.8436000000000001e-25,-1.8460100000000001e-25,-1.84313e-25,-3.7857599999999998e-29,-1.66372e-29,-1.10184e-29
528.0,2.616e-28,-1.8436999999999999e-25,-1.8458599999999999e-25,-1.8431000000000001e-25,-3.2014899999999998e-29,-1.0173499999999999e-29,2.41693e-29
529.0,2.8094300000000001e-28,-1.8435900000000001e-25,-1.84606e-25,-1.84321e-25,-4.1437900000000001e-29,-2.1980500000000001e-29,-1.40227e-29
530.0,2.6275399999999998e-28,-1.84374e-25,-1.84589e-25,-1.8431800000000001e-25,-3.8643999999999999e-29,-1.63446e-29,2.6806200000000002e-29
531.0,2.9726900000000001e-28,-1.8435199999999999e-25,-1.84615e-25,-1.84316e-25,-4.3928500000000001e-29,-2.6627800000000001e-29,-1.5839099999999999e-29
532.0,2.67333e-28,-1.84374e-25,-1.8459200000000001e-25,-1.84324e-25,-4.4922800000000001e-29,-2.3246e-29,2.9022e-29
533.0,2.9968599999999999e-28,-1.84356e-25,-1.84624e-25,-1.8432699999999999e-25,-4.5552199999999999e-29,-2.8558099999999999e-29,-1.4691e-29
534.0,2.66811e-28,-1.84381e-25,-1.8460100000000001e-25,-1.8434200000000001e-25,-5.0890399999999997e-29,-2.7719799999999998e-29,3.0033000000000002e-29
535.0,2.9863300000000002e-28,-1.8436000000000001e-25,-1.84632e-25,-1.8434200000000001e-25,-4.6961100000000002e-29,-3.1255700000000001e-29,-1.1626600000000001e-29
536.0,2.6318400000000002e-28,-1.84389e-25,-1.84608e-25,-1.8436199999999999e-25,-5.5554999999999999e-29,-3.1626600000000001e-29,2.8299199999999997e-29
537.0,2.90368e-28,-1.84371e-25,-1.84639e-25,-1.8436099999999999e-25,-4.7251199999999998e-29,-3.0701099999999999e-29,-7.7784300000000003e-30
538.0,2.6005499999999999e-28,-1.84398e-25,-1.8461700000000001e-25,-1.84382e-25,-5.9821399999999997e-29,-3.15388e-29,2.7978900000000002e-29
539.0,2.7541900000000001e-28,-1.8438699999999999e-25,-1.8464399999999999e-25,-1.8438699999999999e-25,-4.8742e-29,-2.9599400000000002e-29,-3.3473000000000003e-30
540.0,1.68027e-28,-1.84633e-25,-1.8468699999999999e-25,-1.84631e-25,-6.3326299999999998e-29,-2.1383799999999999e-29,6.2674400000000003e-29
541.0,1.6616100000000001e-28,-1.8464200000000001e-25,-1.84689e-25,-1.8463e-25,-6.0746299999999998e-29,-2.2814799999999999e-29,6.3442499999999997e-29
542.0,1.58554e-28,-1.84638e-25,-1.84682e-25,-1.84623e-25,-4.6305999999999998e-29,-2.2944100000000001e-29,6.8984200000000002e-29
543.0,1.56808e-28,-1.8464499999999999e-25,-1.8468400000000001e-25,-1.8462500000000001e-25,-4.2548799999999999e-29,-2.2813000000000001e-29,7.0481300000000004e-29
544.0,1.4881499999999999e-28,-1.84633e-25,-1.8466999999999999e-25,-1.8461099999999999e-25,-2.7691299999999998e-29,-2.0622100000000001e-29,7.2871299999999996e-29
545.0,1.47765e-28,-1.84638e-25,-1.8467099999999999e-25,-1.8461199999999999e-25,-2.31309e-29,-2.0780000000000001e-29,7.3788800000000002e-29
546.0,1.3838700000000001e-28,-1.84616e-25,-1.8464399999999999e-25,-1.84591e-25,-8.7443800000000004e-30,-1.53865e-29,7.3161599999999998e-29
547.0,1.65527e-28,-1.84632e-25,-1.84683e-25,-1.8463e-25,-6.58747e-29,-2.18827e-29,5.8507500000000003e-29
548.0,1.56629e-28,-1.8462799999999999e-25,-1.84673e-25,-1.84624e-25,-5.2283400000000001e-29,-2.1094899999999999e-29,6.5281899999999998e-29
549.0,1.56873e-28,-1.84638e-25,-1.8467799999999999e-25,-1.8462600000000001e-25,-4.9456499999999999e-29,-2.0767499999999999e-29,6.7804899999999998e-29
550.0,1.4826500000000001e-28,-1.8462700000000001e-25,-1.8466199999999999e-25,-1.84613e-25,-3.4015399999999997e-29,-1.80657e-29,7.2143900000000003e-29
551.0,1.48532e-28,-1.8463599999999999e-25,-1.84666e-25,-1.84614e-25,-2.9750499999999998e-29,-1.66249e-29,7.4365400000000002e-29
552.0,1.4148900000000001e-28,-1.8461899999999999e-25,-1.8464300000000001e-25,-1.84598e-25,-1.43264e-29,-1.21064e-29,7.6228800000000004e-29
553.0,1.4271100000000001e-28,-1.84632e-25,-1.84657e-25,-1.8460299999999999e-25,-9.93091e-30,-1.18516e-29,7.6369399999999997e-29
554.0,1.7221e-28,-1.84599e-25,-1.8467600000000001e-25,-1.8459300000000001e-25,-6.4155300000000003e-29,-2.1999699999999999e-29,5.6184200000000001e-29
555.0,1.6754900000000001e-28,-1.8460200000000001e-25,-1.84674e-25,-1.8459e-25,-5.5862899999999996e-29,-2.3260600000000001e-29,6.0318100000000001e-29
556.0,1.6473800000000001e-28,-1.84608e-25,-1.8467500000000001e-25,-1.84589e-25,-4.8574700000000002e-29,-2.28707e-29,6.3930599999999995e-29
557.0,1.58786e-28,-1.8460200000000001e-25,-1.84666e-25,-1.8457899999999999e-25,-3.8805099999999997e-29,-2.28457e-29,6.5749099999999998e-29
558.0,1.55908e-28,-1.84607e-25,-1.8466800000000001e-25,-1.8457799999999999e-25,-3.0447999999999998e-29,-2.0733000000000001e-29,6.8082100000000001e-29
559.0,1.4885100000000001e-28,-1.84591e-25,-1.84649e-25,-1.8456199999999999e-25,-2.0488200000000001e-29,-1.92876e-29,6.8191799999999998e-29
560.0,1.50818e-28,-1.8460399999999999e-25,-1.84658e-25,-1.8457099999999999e-25,-1.1125900000000001e-29,-1.76859e-29,7.2372900000000003e-29
561.0,1.6825100000000001e-28,-1.8459499999999999e-25,-1.8466700000000001e-25,-1.8459300000000001e-25,-6.1357099999999998e-29,-2.28103e-29,5.8085e-29
562.0,1.6417899999999999e-28,-1.8460000000000001e-25,-1.84666e-25,-1.8459200000000001e-25,-5.4560400000000002e-29,-2.20938e-29,6.2398699999999998e-29
563.0,1.59649e-28,-1.8459599999999999e-25,-1.84657e-25,-1.84582e-25,-4.5674900000000001e-29,-2.14916e-29,6.5960500000000004e-29
564.0,1.5656899999999999e-28,-1.8460200000000001e-25,-1.84658e-25,-1.84582e-25,-3.6763500000000003e-29,-1.8450400000000001e-29,7.0170400000000001e-29
565.0,1.5081300000000001e-28,-1.84591e-25,-1.8464200000000001e-25,-1.84566e-25,-2.6674299999999999e-29,-1.60993e-29,7.1625000000000005e-29
566.0,1.5002600000000001e-28,-1.8460000000000001e-25,-1.84649e-25,-1.8456999999999999e-25,-1.7261500000000001e-29,-1.25294e-29,7.3900100000000004e-29
567.0,1.3921700000000001e-28,-1.8457799999999999e-25,-1.8461800000000001e-25,-1.8455200000000001e-25,-7.0007899999999994e-30,-7.5657699999999999e-30,7.2481800000000004e-29
568.0,1.7876500000000001e-28,-1.8456199999999999e-25,-1.84665e-25,-1.84555e-25,-6.1148900000000001e-29,-2.3005600000000001e-29,5.0668399999999999e-29
569.0,1.7492399999999999e-28,-1.8456700000000001e-25,-1.84665e-25,-1.8455299999999999e-25,-5.4743300000000002e-29,-2.3801399999999999e-29,5.4018000000000002e-29
570.0,1.70196e-28,-1.8456700000000001e-25,-1.8466099999999999e-25,-1.8454599999999999e-25,-4.6224200000000001e-29,-2.3670399999999999e-29,5.6990700000000003e-29
571.0,1.6790199999999999e-28,-1.8457099999999999e-25,-1.8466099999999999e-25,-1.8454300000000001e-25,-3.85233e-29,-2.24713e-29,5.9861399999999998e-29
572.0,1.61874e-28,-1.8456199999999999e-25,-1.84649e-25,-1.84531e-25,-2.9721900000000002e-29,-2.1269400000000001e-29,6.0264799999999998e-29
573.0,1.60203e-28,-1.8456700000000001e-25,-1.8465100000000001e-25,-1.84531e-25,-2.03816e-29,-1.87238e-29,6.3241800000000002e-29
574.0,1.4574499999999999e-28,-1.8455100000000001e-25,-1.8462500000000001e-25,-1.8451899999999999e-25,-1.10566e-29,-1.4449300000000001e-29,6.1356300000000001e-29
575.0,1.7624800000000001e-28,-1.8456099999999999e-25,-1.84656e-25,-1.84558e-25,-6.0248900000000004e-29,-2.41115e-29,5.5135000000000004e-29
576.0,1.72989e-28,-1.8456199999999999e-25,-1.8465200000000001e-25,-1.8455100000000001e-25,-5.3567300000000002e-29,-2.39397e-29,5.9080400000000005e-29
577.0,1.6893700000000001e-28,-1.84566e-25,-1.8465000000000001e-25,-1.84548e-25,-4.5496199999999997e-29,-2.1816799999999999e-29,6.3385400000000002e-29
578.0,1.64107e-28,-1.8456099999999999e-25,-1.8464e-25,-1.8453599999999999e-25,-3.6396900000000001e-29,-1.96414e-29,6.5656899999999999e-29
579.0,1.61511e-28,-1.84566e-25,-1.8464200000000001e-25,-1.8453500000000001e-25,-2.6756100000000002e-29,-1.54805e-29,6.8656099999999997e-29
580.0,1.54247e-28,-1.8455299999999999e-25,-1.84623e-25,-1.8451999999999999e-25,-1.7123699999999999e-29,-1.20928e-29,6.8443000000000003e-29
581.0,1.57921e-28,-1.84566e-25,-1.84638e-25,-1.8452700000000001e-25,-7.6866099999999998e-30,-8.64716e-30,7.1011199999999998e-29
582.0,1.89729e-28,-1.8452600000000001e-25,-1.84658e-25,-1.8451899999999999e-25,-5.8658799999999995e-29,-2.4181199999999999e-29,4.2672399999999998e-29
583.0,1.8580300000000001e-28,-1.8453e-25,-1.84656e-25,-1.84514e-25,-5.2040500000000005e-29,-2.4762899999999999e-29,4.5882599999999998e-29
584.0,1.81776e-28,-1.84533e-25,-1.8465399999999999e-25,-1.8450900000000001e-25,-4.53683e-29,-2.4371700000000001e-29,4.8143599999999999e-29
585.0,1.77445e-28,-1.8453e-25,-1.84647e-25,-1.8450000000000001e-25,-3.7050600000000002e-29,-2.31041e-29,5.0314900000000002e-29
586.0,1.75175e-28,-1.84532e-25,-1.84647e-25,-1.84497e-25,-2.9659100000000001e-29,-2.06397e-29,5.2369700000000003e-29
587.0,1.65548e-28,-1.84522e-25,-1.8463e-25,-1.8448599999999999e-25,-2.1236e-29,-1.8493100000000001e-29,5.1714800000000001e-29
588.0,1.68256e-28,-1.8453400000000001e-25,-1.84639e-25,-1.8449399999999999e-25,-1.2034599999999999e-29,-1.6132199999999999e-29,5.8661899999999997e-29
589.0,1.8984599999999999e-28,-1.8452600000000001e-25,-1.84647e-25,-1.8451899999999999e-25,-5.9358799999999998e-29,-2.61679e-29,5.1418199999999998e-29
590.0,1.8579699999999999e-28,-1.8452899999999999e-25,-1.8464300000000001e-25,-1.84514e-25,-5.3462500000000003e-29,-2.5095099999999999e-29,5.5323500000000003e-29
591.0,1.8189499999999999e-28,-1.8452799999999999e-25,-1.8463599999999999e-25,-1.8450299999999999e-25,-4.5221599999999998e-29,-2.3287199999999999e-29,5.8645300000000002e-29
592.0,1.7806100000000001e-28,-1.8453e-25,-1.8463500000000001e-25,-1.84499e-25,-3.6602700000000002e-29,-1.9662900000000001e-29,6.1390700000000003e-29
593.0,1.72875e-28,-1.84522e-25,-1.84623e-25,-1.8448500000000001e-25,-2.7331299999999999e-29,-1.6210299999999999e-29,6.2184600000000005e-29
594.0,1.7119899999999999e-28,-1.8452899999999999e-25,-1.8462799999999999e-25,-1.8448699999999999e-25,-1.8027900000000001e-29,-1.11817e-29,6.4065199999999997e-29
595.0,1.56976e-28,-1.8451199999999999e-25,-1.8460200000000001e-25,-1.84474e-25,-9.2229000000000004e-30,-6.6527899999999994e-30,6.1028699999999996e-29
596.0,2.06661e-28,-1.84491e-25,-1.8465399999999999e-25,-1.84483e-25,-5.5307000000000003e-29,-2.57947e-29,3.3516399999999999e-29
597.0,2.02464e-28,-1.8449399999999999e-25,-1.8465100000000001e-25,-1.8447799999999999e-25,-5.0674100000000004e-29,-2.6183500000000002e-29,3.4930300000000001e-29
598.0,1.9804099999999999e-28,-1.8449399999999999e-25,-1.8464599999999999e-25,-1.8446899999999999e-25,-4.3484999999999999e-29,-2.5274600000000002e-29,3.67296e-29
599.0,1.9440299999999999e-28,-1.8449499999999999e-25,-1.8464300000000001e-25,-1.84464e-25,-3.7287000000000001e-29,-2.3747599999999999e-29,3.7986499999999999e-29
600.0,1.8848999999999999e-28,-1.8449e-25,-1.84633e-25,-1.8445399999999999e-25,-2.9999400000000002e-29,-2.1373400000000001e-29,3.90253e-29
601.0,1.8637200000000001e-28,-1.8449300000000001e-25,-1.84633e-25,-1.8445200000000001e-25,-2.2608799999999999e-29,-1.8157599999999999e-29,4.1976599999999998e-29
602.0,1.6593100000000001e-28,-1.8448400000000001e-25,-1.8460900000000001e-25,-1.84448e-25,-1.5595400000000001e-29,-1.37423e-29,3.9475799999999998e-29
603.0,2.0683200000000001e-28,-1.84491e-25,-1.84638e-25,-1.8448e-25,-5.9562799999999998e-29,-2.78265e-29,4.6639200000000003e-29
604.0,2.0305399999999999e-28,-1.8449200000000001e-25,-1.84633e-25,-1.8447099999999999e-25,-5.2942200000000002e-29,-2.6618100000000001e-29,5.0390799999999998e-29
605.0,2.0001899999999999e-28,-1.8449399999999999e-25,-1.8463e-25,-1.84464e-25,-4.6002299999999998e-29,-2.42274e-29,5.3036100000000001e-29
606.0,1.9610600000000001e-28,-1.8449e-25,-1.84622e-25,-1.8445100000000001e-25,-3.7338300000000002e-29,-2.0639800000000001e-29,5.4605700000000005e-29
607.0,1.9255799999999999e-28,-1.8449200000000001e-25,-1.84622e-25,-1.84448e-25,-2.8790200000000001e-29,-1.5882300000000001e-29,5.5429700000000005e-29
608.0,1.8495200000000001e-28,-1.84483e-25,-1.84608e-25,-1.8443599999999999e-25,-2.00913e-29,-1.1309099999999999e-29,5.4176400000000002e-29
609.0,1.85986e-28,-1.8449399999999999e-25,-1.8461999999999999e-25,-1.8444399999999999e-25,-1.16962e-29,-6.6667300000000001e-30,5.57915e-29
610.0,2.2732199999999999e-28,-1.84457e-25,-1.8465200000000001e-25,-1.8445000000000001e-25,-5.3649300000000002e-29,-2.6792500000000001e-29,2.1654399999999999e-29
611.0,2.24093e-28,-1.84458e-25,-1.84648e-25,-1.84441e-25,-4.7993199999999999e-29,-2.7283200000000002e-29,2.2585900000000001e-29
612.0,2.2168400000000002e-28,-1.84458e-25,-1.8464399999999999e-25,-1.8443400000000001e-25,-4.3666099999999998e-29,-2.6663899999999997e-29,2.2318799999999999e-29
613.0,2.1768900000000001e-28,-1.84455e-25,-1.8463699999999999e-25,-1.84423e-25,-3.7557399999999999e-29,-2.4615399999999999e-29,2.2744e-29
614.0,2.1396100000000002e-28,-1.84455e-25,-1.84633e-25,-1.8441800000000001e-25,-3.24578e-29,-2.2147899999999999e-29,2.35149e-29
615.0,2.01708e-28,-1.8445100000000001e-25,-1.8461800000000001e-25,-1.84413e-25,-2.6293599999999998e-29,-1.8983700000000001e-29,2.42608e-29
616.0,2.0481999999999999e-28,-1.8446000000000001e-25,-1.8462600000000001e-25,-1.84414e-25,-1.88166e-29,-1.5788899999999999e-29,3.1292499999999999e-29
617.0,2.25122e-28,-1.84456e-25,-1.8463e-25,-1.84441e-25,-5.8337799999999998e-29,-2.9066600000000002e-29,4.0524000000000001e-29
618.0,2.2284300000000002e-28,-1.84457e-25,-1.8462600000000001e-25,-1.84432e-25,-5.3757500000000001e-29,-2.8090799999999999e-29,4.2609699999999998e-29
619.0,2.2039399999999999e-28,-1.8445399999999999e-25,-1.8461899999999999e-25,-1.8441899999999999e-25,-4.6114400000000003e-29,-2.5311799999999998e-29,4.4861400000000002e-29
620.0,2.18428e-28,-1.8445399999999999e-25,-1.8461700000000001e-25,-1.8441099999999999e-25,-3.9246799999999998e-29,-2.13642e-29,4.5419899999999998e-29
621.0,2.1333299999999998e-28,-1.84448e-25,-1.84608e-25,-1.84399e-25,-3.1286600000000003e-29,-1.6396599999999999e-29,4.4686900000000001e-29
622.0,2.0992600000000002e-28,-1.8445299999999999e-25,-1.8461099999999999e-25,-1.8440000000000001e-25,-2.3303699999999999e-29,-1.11087e-29,4.4583900000000002e-29
623.0,1.94329e-28,-1.8444200000000001e-25,-1.8459300000000001e-25,-1.8439599999999999e-25,-1.6445099999999999e-29,-6.9187100000000002e-30,4.1080800000000002e-29
624.0,2.4931499999999999e-28,-1.8442600000000001e-25,-1.8465000000000001e-25,-1.8441800000000001e-25,-5.02839e-29,-2.7317499999999998e-29,9.9466500000000001e-30
625.0,2.5163099999999999e-28,-1.8441800000000001e-25,-1.8464300000000001e-25,-1.8440399999999999e-25,-4.74326e-29,-2.9018399999999998e-29,7.6004600000000001e-30
626.0,2.5326200000000001e-28,-1.84414e-25,-1.84639e-25,-1.8439200000000001e-25,-4.3646099999999998e-29,-2.7765999999999999e-29,6.3460099999999997e-30
627.0,2.5210300000000001e-28,-1.8441099999999999e-25,-1.84632e-25,-1.84382e-25,-4.0642000000000002e-29,-2.6603699999999999e-29,4.6611999999999999e-30
628.0,2.4526899999999998e-28,-1.8440900000000001e-25,-1.84623e-25,-1.84374e-25,-3.63535e-29,-2.35152e-29,4.79809e-30
629.0,2.40587e-28,-1.8441099999999999e-25,-1.8461899999999999e-25,-1.8436999999999999e-25,-3.1888800000000002e-29,-2.0183100000000001e-29,6.5232200000000003e-30
630.0,2.13385e-28,-1.84414e-25,-1.8460000000000001e-25,-1.8438e-25,-2.7594900000000003e-29,-1.6215900000000001e-29,8.0186300000000006e-30
631.0,2.4236499999999998e-28,-1.84423e-25,-1.84622e-25,-1.8440800000000001e-25,-5.8462100000000005e-29,-3.0188600000000002e-29,3.2092899999999997e-29
632.0,2.4261499999999999e-28,-1.84424e-25,-1.8461899999999999e-25,-1.8439599999999999e-25,-5.2884400000000005e-29,-2.89644e-29,3.4057500000000002e-29
633.0,2.4383499999999998e-28,-1.8441800000000001e-25,-1.84613e-25,-1.84381e-25,-4.7900899999999999e-29,-2.7142699999999999e-29,3.4713599999999999e-29
634.0,2.42004e-28,-1.84414e-25,-1.84607e-25,-1.8436800000000001e-25,-4.1261599999999998e-29,-2.1928e-29,3.5033400000000001e-29
635.0,2.39066e-28,-1.84414e-25,-1.84605e-25,-1.8436099999999999e-25,-3.45752e-29,-1.69577e-29,3.30692e-29
636.0,2.2981600000000001e-28,-1.8441099999999999e-25,-1.84597e-25,-1.8435800000000001e-25,-2.8182800000000001e-29,-1.1869200000000001e-29,3.0503700000000003e-29
637.0,2.28435e-28,-1.8441700000000001e-25,-1.8460299999999999e-25,-1.8436199999999999e-25,-2.22354e-29,-6.8816400000000002e-30,3.0934499999999997e-29
638.0,1.13707e-28,-1.8477600000000001e-25,-1.84681e-25,-1.8476299999999999e-25,4.0226600000000002e-29,-5.4305400000000003e-31,-7.2259400000000002e-30
639.0,1.3163799999999999e-28,-1.84756e-25,-1.8465200000000001e-25,-1.84733e-25,5.2222099999999998e-29,-1.2603199999999999e-30,-5.9798399999999999e-30
640.0,1.0908000000000001e-28,-1.84733e-25,-1.84664e-25,-1.84722e-25,5.0573200000000004e-29,-9.8110399999999996e-31,-7.1845100000000001e-30
641.0,1.24908e-28,-1.8469499999999999e-25,-1.84632e-25,-1.84681e-25,6.3772399999999997e-29,-1.02547e-31,-6.2745900000000001e-30
642.0,1.11226e-28,-1.84682e-25,-1.84649e-25,-1.8467700000000001e-25,6.1325599999999996e-29,-7.7899299999999996e-31,-6.7241400000000006e-30
643.0,1.2260999999999999e-28,-1.8463400000000001e-25,-1.84615e-25,-1.8463e-25,6.9776600000000005e-29,1.2621199999999999e-30,-6.69695e-30
644.0,1.2026100000000001e-28,-1.84624e-25,-1.84633e-25,-1.8462600000000001e-25,6.90997e-29,-1.19348e-30,-4.7717100000000001e-30
645.0,1.2843899999999999e-28,-1.84783e-25,-1.84672e-25,-1.8476099999999999e-25,4.2739400000000002e-29,-1.26824e-30,-1.46526e-29
646.0,1.1895700000000001e-28,-1.84758e-25,-1.8466899999999999e-25,-1.8474e-25,4.7415299999999998e-29,-9.5987299999999994e-31,-1.4761200000000001e-29
647.0,1.2309999999999999e-28,-1.8472799999999999e-25,-1.84649e-25,-1.8471000000000001e-25,5.5847799999999998e-29,-1.46143e-30,-1.48905e-29
648.0,1.15958e-28,-1.84707e-25,-1.8465100000000001e-25,-1.8469499999999999e-25,5.8231799999999998e-29,-7.7113999999999998e-31,-1.51489e-29
649.0,1.2169599999999999e-28,-1.8466899999999999e-25,-1.8463e-25,-1.8465900000000001e-25,6.5495500000000003e-29,-1.079e-30,-1.53044e-29
650.0,1.19045e-28,-1.8465100000000001e-25,-1.8463500000000001e-25,-1.8464599999999999e-25,6.6503100000000005e-29,-8.4375299999999999e-31,-1.5426299999999999e-29
651.0,1.2439099999999999e-28,-1.84606e-25,-1.8461099999999999e-25,-1.84605e-25,6.9467799999999995e-29,1.88045e-31,-1.7916200000000001e-29
652.0,1.2588999999999999e-28,-1.84783e-25,-1.8467899999999999e-25,-1.8476199999999999e-25,4.1885300000000002e-29,-1.22472e-30,-2.2641800000000001e-29
653.0,1.2541799999999999e-28,-1.84757e-25,-1.84664e-25,-1.8473599999999999e-25,4.8421099999999999e-29,-1.36218e-30,-2.32915e-29
654.0,1.2106100000000001e-28,-1.8473400000000001e-25,-1.8466000000000001e-25,-1.84716e-25,5.3318999999999998e-29,-1.27218e-30,-2.3234700000000001e-29
655.0,1.23109e-28,-1.8470200000000001e-25,-1.8464399999999999e-25,-1.8468599999999999e-25,5.9750999999999999e-29,-1.86195e-30,-2.4038199999999999e-29
656.0,1.2084599999999999e-28,-1.8468e-25,-1.8464300000000001e-25,-1.8466899999999999e-25,6.2567e-29,-1.3529500000000001e-30,-2.4299600000000001e-29
657.0,1.2501099999999999e-28,-1.84641e-25,-1.84623e-25,-1.84633e-25,6.7130200000000003e-29,-1.9610599999999999e-30,-2.49212e-29
658.0,1.24706e-28,-1.8461999999999999e-25,-1.8462500000000001e-25,-1.8461700000000001e-25,6.8200900000000003e-29,-1.96254e-30,-2.25947e-29
659.0,1.29379e-28,-1.84783e-25,-1.84681e-25,-1.8476000000000001e-25,4.1292600000000001e-29,-7.3340699999999997e-31,-3.1238600000000001e-29
660.0,1.2648300000000001e-28,-1.8476099999999999e-25,-1.84672e-25,-1.84739e-25,4.73483e-29,-1.5442300000000001e-30,-3.0866799999999998e-29
661.0,1.2602199999999999e-28,-1.84733e-25,-1.8465900000000001e-25,-1.8471299999999999e-25,5.2989399999999995e-29,-1.8506900000000001e-30,-3.22009e-29
662.0,1.24675e-28,-1.8470900000000001e-25,-1.8465299999999999e-25,-1.8469200000000001e-25,5.7541300000000005e-29,-1.9713699999999999e-30,-3.23678e-29
663.0,1.2657499999999999e-28,-1.8467600000000001e-25,-1.84639e-25,-1.8466199999999999e-25,6.2158900000000004e-29,-2.7130799999999999e-30,-3.33604e-29
664.0,1.26622e-28,-1.8465200000000001e-25,-1.8463500000000001e-25,-1.8464200000000001e-25,6.4426399999999996e-29,-2.1334499999999999e-30,-3.3442600000000001e-29
665.0,1.31241e-28,-1.8461199999999999e-25,-1.84615e-25,-1.8460399999999999e-25,6.6132500000000003e-29,-2.5753999999999999e-30,-3.6462199999999998e-29
666.0,1.3177400000000001e-28,-1.8478500000000001e-25,-1.8468599999999999e-25,-1.8476000000000001e-25,4.0733e-29,-1.30577e-30,-3.8307299999999999e-29
667.0,1.30308e-28,-1.8476000000000001e-25,-1.8467500000000001e-25,-1.8473799999999999e-25,4.6004599999999999e-29,-1.35532e-30,-3.97227e-29
668.0,1.2900000000000001e-28,-1.8473799999999999e-25,-1.8466700000000001e-25,-1.8471700000000001e-25,5.1319999999999996e-29,-2.0636699999999998e-30,-3.98025e-29
669.0,1.2963099999999999e-28,-1.8470900000000001e-25,-1.84655e-25,-1.8469e-25,5.5858600000000004e-29,-2.58444e-30,-4.14441e-29
670.0,1.2948900000000001e-28,-1.8468400000000001e-25,-1.84648e-25,-1.8466800000000001e-25,5.9251700000000003e-29,-2.7077e-30,-4.1771900000000002e-29
671.0,1.3263499999999999e-28,-1.84649e-25,-1.84632e-25,-1.8463500000000001e-25,6.2640099999999996e-29,-3.4694399999999997e-30,-4.2952500000000002e-29
672.0,1.3239099999999999e-28,-1.84624e-25,-1.8462799999999999e-25,-1.84614e-25,6.4429799999999996e-29,-2.9581399999999999e-30,-4.0391499999999998e-29
673.0,1.3474400000000001e-28,-1.8478400000000001e-25,-1.8469e-25,-1.8476000000000001e-25,3.9336700000000003e-29,-7.6536600000000004e-31,-4.6184699999999999e-29
674.0,1.3386500000000001e-28,-1.84764e-25,-1.84681e-25,-1.84739e-25,4.46651e-29,-1.6236399999999999e-30,-4.6407499999999999e-29
675.0,1.3353600000000001e-28,-1.8474e-25,-1.8467099999999999e-25,-1.8471700000000001e-25,4.8765299999999999e-29,-1.9689399999999999e-30,-4.8367499999999998e-29
676.0,1.3330399999999999e-28,-1.84715e-25,-1.84663e-25,-1.8469399999999999e-25,5.3191800000000002e-29,-2.6642599999999999e-30,-4.8798700000000002e-29
677.0,1.3510300000000001e-28,-1.8468500000000001e-25,-1.8465000000000001e-25,-1.84666e-25,5.6765999999999995e-29,-3.0716900000000001e-30,-5.04127e-29
678.0,1.3543200000000001e-28,-1.84658e-25,-1.8464200000000001e-25,-1.84641e-25,5.8836900000000004e-29,-3.1045700000000001e-30,-5.05209e-29
679.0,1.4069899999999999e-28,-1.84622e-25,-1.84624e-25,-1.84606e-25,5.9568500000000003e-29,-3.7890399999999998e-30,-5.4199e-29
680.0,1.3766499999999999e-28,-1.8478500000000001e-25,-1.8469399999999999e-25,-1.8475900000000001e-25,3.8469400000000002e-29,-1.2192899999999999e-30,-5.1338199999999996e-29
681.0,1.37919e-28,-1.8476700000000001e-25,-1.8468599999999999e-25,-1.8474200000000001e-25,4.1651200000000003e-29,-1.22847e-30,-5.3841499999999998e-29
682.0,1.3724300000000001e-28,-1.8474499999999999e-25,-1.8467700000000001e-25,-1.8472099999999999e-25,4.61643e-29,-1.90416e-30,-5.4448399999999999e-29
683.0,1.37851e-28,-1.8471999999999999e-25,-1.8466800000000001e-25,-1.84697e-25,4.9451000000000001e-29,-2.1978899999999999e-30,-5.6611800000000003e-29
684.0,1.3844899999999999e-28,-1.8469200000000001e-25,-1.84657e-25,-1.8466999999999999e-25,5.2727599999999998e-29,-2.9401899999999999e-30,-5.7321800000000003e-29
685.0,1.41691e-28,-1.8466099999999999e-25,-1.8464399999999999e-25,-1.84641e-25,5.5434699999999998e-29,-3.1377000000000001e-30,-5.90759e-29
686.0,1.4153700000000001e-28,-1.84631e-25,-1.8463400000000001e-25,-1.84614e-25,5.8209999999999997e-29,-2.9291099999999999e-30,-5.6249299999999996e-29
687.0,1.29659e-28,-1.84775e-25,-1.84665e-25,-1.84757e-25,4.5881399999999997e-29,-1.8777100000000001e-30,-6.3540699999999996e-30
688.0,1.1606800000000001e-28,-1.84758e-25,-1.8467099999999999e-25,-1.84747e-25,4.7105299999999997e-29,-1.17855e-30,-5.7305900000000003e-30
689.0,1.2483199999999999e-28,-1.84723e-25,-1.8464e-25,-1.8470900000000001e-25,5.6398999999999995e-29,-1.7283199999999999e-30,-5.6414900000000003e-30
690.0,1.1312199999999999e-28,-1.8470900000000001e-25,-1.84655e-25,-1.8470399999999999e-25,5.7956400000000002e-29,-1.7243300000000001e-30,-5.1769999999999998e-30
691.0,1.23617e-28,-1.84666e-25,-1.8461700000000001e-25,-1.84657e-25,6.6165399999999996e-29,-9.6895599999999996e-31,-5.4616100000000003e-30
692.0,1.15647e-28,-1.8465200000000001e-25,-1.84639e-25,-1.84655e-25,6.5997499999999998e-29,-2.1691099999999999e-30,-4.4362900000000002e-30
693.0,1.2105999999999999e-28,-1.8460399999999999e-25,-1.84597e-25,-1.8460299999999999e-25,6.9350799999999998e-29,4.5635899999999999e-31,-7.8849299999999998e-30
694.0,1.2206999999999999e-28,-1.8477600000000001e-25,-1.8467500000000001e-25,-1.8476199999999999e-25,4.2440599999999999e-29,-7.9639500000000006e-31,-1.3588099999999999e-29
695.0,1.23338e-28,-1.8475e-25,-1.84658e-25,-1.8473599999999999e-25,4.9379499999999999e-29,-1.6949700000000001e-30,-1.3170199999999999e-29
696.0,1.1862e-28,-1.84733e-25,-1.84658e-25,-1.84722e-25,5.3510199999999995e-29,-1.3196000000000001e-30,-1.3323999999999999e-29
697.0,1.21786e-28,-1.84697e-25,-1.8463500000000001e-25,-1.8468699999999999e-25,6.0533500000000001e-29,-2.1256100000000001e-30,-1.3437300000000001e-29
698.0,1.1762e-28,-1.8467899999999999e-25,-1.8464e-25,-1.8467500000000001e-25,6.29294e-29,-1.7860000000000001e-30,-1.3389200000000001e-29
699.0,1.21446e-28,-1.8463699999999999e-25,-1.84613e-25,-1.8463400000000001e-25,6.7428100000000002e-29,-2.2488400000000001e-30,-1.40403e-29
700.0,1.2087799999999999e-28,-1.8461899999999999e-25,-1.84623e-25,-1.84623e-25,6.8775199999999997e-29,-3.1190499999999999e-30,-1.1236000000000001e-29
701.0,1.2540700000000001e-28,-1.84773e-25,-1.84672e-25,-1.84757e-25,4.2840200000000001e-29,-9.4008300000000008e-31,-2.0994599999999999e-29
702.0,1.2220500000000001e-28,-1.84756e-25,-1.8466700000000001e-25,-1.8474200000000001e-25,4.7768699999999999e-29,-1.1651399999999999e-30,-2.09012e-29
703.0,1.22344e-28,-1.8472500000000001e-25,-1.8465000000000001e-25,-1.8471299999999999e-25,5.3996600000000005e-29,-1.7813100000000001e-30,-2.1175e-29
704.0,1.2020799999999999e-28,-1.84706e-25,-1.84648e-25,-1.84697e-25,5.8072300000000004e-29,-1.70112e-30,-2.1541200000000001e-29
705.0,1.21837e-28,-1.8466899999999999e-25,-1.8462799999999999e-25,-1.8466199999999999e-25,6.3044399999999999e-29,-2.8019399999999998e-30,-2.1892299999999999e-29
706.0,1.2039200000000001e-28,-1.8465000000000001e-25,-1.8463e-25,-1.84647e-25,6.4957700000000004e-29,-2.76248e-30,-2.21745e-29
707.0,1.2469899999999999e-28,-1.84608e-25,-1.84606e-25,-1.84606e-25,6.7177500000000003e-29,-3.0945800000000001e-30,-2.56892e-29
708.0,1.2602199999999999e-28,-1.84774e-25,-1.8467700000000001e-25,-1.84758e-25,4.2326400000000003e-29,-8.1313000000000006e-31,-2.8181600000000001e-29
709.0,1.2462000000000001e-28,-1.8475100000000001e-25,-1.84665e-25,-1.8473699999999999e-25,4.7037400000000002e-29,-9.6566899999999995e-31,-2.8761899999999998e-29
710.0,1.2309899999999999e-28,-1.84732e-25,-1.8465900000000001e-25,-1.8471800000000001e-25,5.2091799999999999e-29,-1.34272e-30,-2.8986399999999998e-29
711.0,1.22929e-28,-1.8470000000000001e-25,-1.8464399999999999e-25,-1.84689e-25,5.6930800000000002e-29,-2.2671899999999999e-30,-2.9797299999999998e-29
712.0,1.22244e-28,-1.8467899999999999e-25,-1.8464e-25,-1.8466999999999999e-25,6.0085e-29,-2.3847e-30,-3.0597799999999998e-29
713.0,1.2401e-28,-1.8464200000000001e-25,-1.84622e-25,-1.8463500000000001e-25,6.3385699999999999e-29,-3.8514899999999997e-30,-3.1414e-29
714.0,1.2371899999999999e-28,-1.8462099999999999e-25,-1.84623e-25,-1.8461800000000001e-25,6.5062399999999997e-29,-4.33767e-30,-2.90767e-29
715.0,1.2773599999999999e-28,-1.84773e-25,-1.8467899999999999e-25,-1.84755e-25,4.07165e-29,-1.0601099999999999e-31,-3.58282e-29
716.0,1.2614200000000001e-28,-1.84755e-25,-1.84672e-25,-1.8473799999999999e-25,4.5682900000000001e-29,-8.7560899999999995e-31,-3.5686000000000003e-29
717.0,1.2557100000000001e-28,-1.8472899999999999e-25,-1.8465900000000001e-25,-1.84714e-25,5.0090499999999998e-29,-1.3501e-30,-3.7135699999999998e-29
718.0,1.2474699999999999e-28,-1.84707e-25,-1.8465200000000001e-25,-1.8469399999999999e-25,5.41289e-29,-1.8630699999999999e-30,-3.7785000000000001e-29
719.0,1.25213e-28,-1.8467500000000001e-25,-1.84638e-25,-1.84664e-25,5.7797000000000003e-29,-3.1912199999999998e-30,-3.88162e-29
720.0,1.2551900000000001e-28,-1.8465299999999999e-25,-1.84633e-25,-1.8464300000000001e-25,5.9776100000000005e-29,-3.4024399999999999e-30,-3.9650199999999998e-29
721.0,1.3033700000000001e-28,-1.84615e-25,-1.84615e-25,-1.84606e-25,6.1116299999999994e-29,-4.4068299999999999e-30,-4.3378e-29
722.0,1.2924200000000001e-28,-1.84773e-25,-1.84683e-25,-1.8475399999999999e-25,3.9751900000000001e-29,-3.10027e-31,-4.1592599999999998e-29
723.0,1.28859e-28,-1.8475399999999999e-25,-1.84674e-25,-1.8473599999999999e-25,4.3340299999999999e-29,-5.5002899999999998e-31,-4.33449e-29
724.0,1.2799799999999999e-28,-1.8473400000000001e-25,-1.84666e-25,-1.84716e-25,4.7653300000000001e-29,-1.1275099999999999e-30,-4.3993000000000002e-29
725.0,1.2778900000000001e-28,-1.84707e-25,-1.8465399999999999e-25,-1.84691e-25,5.1167399999999997e-29,-2.0507800000000001e-30,-4.56144e-29
726.0,1.27939e-28,-1.8468400000000001e-25,-1.8464599999999999e-25,-1.8466800000000001e-25,5.3960399999999996e-29,-2.5419399999999999e-30,-4.6778999999999999e-29
727.0,1.30046e-28,-1.8465100000000001e-25,-1.84633e-25,-1.8463699999999999e-25,5.6670599999999999e-29,-4.2030199999999997e-30,-4.8158499999999999e-29
728.0,1.30196e-28,-1.8462700000000001e-25,-1.8462799999999999e-25,-1.84616e-25,5.8906800000000002e-29,-4.6678999999999999e-30,-4.5985799999999999e-29
729.0,1.3113099999999999e-28,-1.84773e-25,-1.8468699999999999e-25,-1.8475399999999999e-25,3.7362399999999998e-29,3.6038900000000001e-31,-4.7628599999999999e-29
730.0,1.3090399999999999e-28,-1.84757e-25,-1.8467899999999999e-25,-1.8473699999999999e-25,4.16053e-29,-5.73829e-31,-4.8215600000000001e-29
731.0,1.31423e-28,-1.8473599999999999e-25,-1.8466899999999999e-25,-1.8471700000000001e-25,4.4842000000000002e-29,-9.1255600000000005e-31,-5.0702000000000004e-29
732.0,1.3076300000000001e-28,-1.8471299999999999e-25,-1.8466000000000001e-25,-1.8469399999999999e-25,4.8136600000000003e-29,-1.6381800000000001e-30,-5.1690399999999997e-29
733.0,1.3169200000000001e-28,-1.8468500000000001e-25,-1.8465000000000001e-25,-1.8466700000000001e-25,5.1059800000000004e-29,-2.9142200000000001e-30,-5.3412500000000004e-29
734.0,1.32908e-28,-1.8465900000000001e-25,-1.84641e-25,-1.8464200000000001e-25,5.2878600000000004e-29,-3.32691e-30,-5.4571100000000001e-29
735.0,1.3817099999999999e-28,-1.8462700000000001e-25,-1.8462600000000001e-25,-1.84608e-25,5.2684499999999995e-29,-3.9243199999999997e-30,-5.8858599999999998e-29
736.0,1.46798e-28,-1.84638e-25,-1.84638e-25,-1.84613e-25,4.87204e-29,-2.9462600000000001e-30,-6.7776900000000003e-29
737.0,1.4816700000000001e-28,-1.84639e-25,-1.84641e-25,-1.84615e-25,4.75751e-29,-1.5873899999999999e-30,-6.9563999999999999e-29
738.0,1.48022e-28,-1.8465200000000001e-25,-1.8465200000000001e-25,-1.84623e-25,3.4262600000000002e-29,-3.63562e-31,-7.6396400000000005e-29
739.0,1.5084600000000001e-28,-1.8465100000000001e-25,-1.8465299999999999e-25,-1.8462099999999999e-25,3.1693400000000002e-29,1.7733400000000001e-30,-7.9053100000000002e-29
740.0,1.50391e-28,-1.8466700000000001e-25,-1.8466700000000001e-25,-1.84633e-25,1.7406200000000001e-29,2.91591e-30,-8.2778099999999999e-29
741.0,1.5338599999999999e-28,-1.8466199999999999e-25,-1.84664e-25,-1.8463e-25,1.3264199999999999e-29,7.2152999999999998e-30,-8.5119500000000006e-29
742.0,1.5281900000000001e-28,-1.84681e-25,-1.8468599999999999e-25,-1.84648e-25,-1.52897e-30,6.3780199999999998e-30,-8.5463699999999995e-29
743.0,1.44076e-28,-1.8466800000000001e-25,-1.8465000000000001e-25,-1.8464499999999999e-25,5.0420399999999997e-29,-2.55215e-30,-6.5006200000000005e-29
744.0,1.4503000000000001e-28,-1.8467600000000001e-25,-1.84658e-25,-1.8465100000000001e-25,4.3276399999999998e-29,-1.1916899999999999e-30,-7.0432300000000004e-29
745.0,1.4760599999999999e-28,-1.84681e-25,-1.8466099999999999e-25,-1.8465299999999999e-25,3.7167900000000001e-29,-2.6665800000000002e-31,-7.5357099999999999e-29
746.0,1.4740000000000001e-28,-1.8469399999999999e-25,-1.84673e-25,-1.84664e-25,2.8295600000000001e-29,2.11506e-30,-7.8731599999999995e-29
747.0,1.4973200000000001e-28,-1.8469399999999999e-25,-1.84672e-25,-1.84665e-25,2.0556300000000001e-29,3.2778500000000003e-30,-8.2475699999999995e-29
748.0,1.49511e-28,-1.8471199999999999e-25,-1.84691e-25,-1.84681e-25,1.06273e-29,6.1824500000000002e-30,-8.3910100000000003e-29
749.0,1.5666899999999999e-28,-1.84697e-25,-1.8467700000000001e-25,-1.8466899999999999e-25,6.7513000000000004e-31,9.6728600000000006e-30,-8.8802199999999995e-29
750.0,1.4196300000000001e-28,-1.84699e-25,-1.84663e-25,-1.8467500000000001e-25,4.7696100000000002e-29,-2.00758e-30,-6.4124099999999999e-29
751.0,1.44218e-28,-1.84706e-25,-1.8466899999999999e-25,-1.8468e-25,4.2212499999999998e-29,-9.3432399999999999e-31,-6.9129399999999995e-29
752.0,1.4506300000000001e-28,-1.8471700000000001e-25,-1.8467799999999999e-25,-1.84689e-25,3.4560799999999998e-29,4.53978e-31,-7.3616699999999997e-29
753.0,1.47697e-28,-1.84722e-25,-1.84681e-25,-1.8469399999999999e-25,2.7346400000000002e-29,2.06817e-30,-7.7949299999999995e-29
754.0,1.47534e-28,-1.8473699999999999e-25,-1.8469399999999999e-25,-1.84708e-25,1.8617000000000001e-29,4.44522e-30,-8.0076099999999999e-29
755.0,1.5212999999999999e-28,-1.8473500000000001e-25,-1.8469200000000001e-25,-1.84708e-25,9.2370400000000002e-30,6.5118200000000002e-30,-8.4318999999999995e-29
756.0,1.4747799999999999e-28,-1.8475100000000001e-25,-1.84715e-25,-1.8472099999999999e-25,-6.7105100000000003e-31,7.4716399999999999e-30,-8.2622599999999999e-29
757.0,1.41004e-28,-1.8472700000000001e-25,-1.84674e-25,-1.8470200000000001e-25,4.5245099999999999e-29,-1.54232e-30,-6.2210499999999996e-29
758.0,1.4276200000000001e-28,-1.8473599999999999e-25,-1.84682e-25,-1.8471099999999999e-25,3.8853300000000001e-29,-4.31121e-31,-6.7346699999999997e-29
759.0,1.4462500000000001e-28,-1.8474499999999999e-25,-1.84688e-25,-1.8471700000000001e-25,3.2597199999999998e-29,9.9330500000000001e-31,-7.1410699999999999e-29
760.0,1.4628800000000001e-28,-1.84757e-25,-1.84698e-25,-1.8473e-25,2.4377100000000001e-29,2.77085e-30,-7.5269799999999998e-29
761.0,1.49524e-28,-1.8476199999999999e-25,-1.8470100000000001e-25,-1.8473500000000001e-25,1.65714e-29,4.3145899999999997e-30,-7.8860000000000003e-29
762.0,1.47813e-28,-1.8477600000000001e-25,-1.8471700000000001e-25,-1.84748e-25,7.6037400000000004e-30,6.9255899999999995e-30,-7.9326700000000003e-29
763.0,1.59162e-28,-1.84766e-25,-1.84705e-25,-1.8474300000000001e-25,-2.4857399999999998e-30,9.8826000000000006e-30,-8.6127700000000002e-29
764.0,1.40435e-28,-1.8475200000000001e-25,-1.8468400000000001e-25,-1.8472799999999999e-25,4.1255299999999998e-29,-8.8631400000000009e-31,-6.0669199999999996e-29
765.0,1.4252899999999999e-28,-1.8476199999999999e-25,-1.84691e-25,-1.8473500000000001e-25,3.6427499999999999e-29,3.7006200000000001e-31,-6.46131e-29
766.0,1.4428999999999999e-28,-1.84773e-25,-1.8470000000000001e-25,-1.84747e-25,2.8909300000000001e-29,1.4653099999999999e-30,-6.8888600000000003e-29
767.0,1.46586e-28,-1.84781e-25,-1.84706e-25,-1.84755e-25,2.2088899999999999e-29,3.0350200000000001e-30,-7.2146999999999995e-29
768.0,1.4799999999999999e-28,-1.8479400000000001e-25,-1.8471800000000001e-25,-1.8476800000000001e-25,1.3781299999999999e-29,4.9152199999999999e-30,-7.4780200000000002e-29
769.0,1.5370100000000001e-28,-1.84797e-25,-1.8471800000000001e-25,-1.84773e-25,5.2063599999999998e-30,6.6809299999999996e-30,-7.8503400000000004e-29
770.0,1.4510899999999999e-28,-1.8481000000000001e-25,-1.8474e-25,-1.84783e-25,-3.16432e-30,7.6631699999999996e-30,-7.5501699999999998e-29
771.0,1.40452e-28,-1.84774e-25,-1.8469300000000001e-25,-1.84748e-25,3.8696299999999998e-29,-4.7592099999999999e-31,-5.7978799999999998e-29
772.0,1.42245e-28,-1.8478400000000001e-25,-1.8470100000000001e-25,-1.8475900000000001e-25,3.2181799999999997e-29,6.1974300000000004e-31,-6.2298700000000001e-29
773.0,1.4423200000000001e-28,-1.8479499999999999e-25,-1.84708e-25,-1.8476900000000001e-25,2.65992e-29,2.0394099999999999e-30,-6.5091600000000004e-29
774.0,1.46231e-28,-1.84807e-25,-1.8471800000000001e-25,-1.84782e-25,1.86808e-29,3.2499299999999999e-30,-6.8260499999999995e-29
775.0,1.4968500000000001e-28,-1.84815e-25,-1.84723e-25,-1.84791e-25,1.14904e-29,4.8227799999999999e-30,-7.0923399999999998e-29
776.0,1.4866899999999999e-28,-1.8482700000000001e-25,-1.8473799999999999e-25,-1.8480200000000001e-25,3.3393000000000001e-30,6.7636399999999997e-30,-7.2062400000000003e-29
777.0,1.6286200000000001e-28,-1.84824e-25,-1.8472799999999999e-25,-1.84808e-25,-6.07696e-30,9.0470499999999998e-30,-7.8070499999999999e-29
778.0,1.3931199999999999e-28,-1.8479e-25,-1.8470000000000001e-25,-1.84766e-25,3.4387900000000002e-29,-3.4737999999999998e-31,-5.5767799999999996e-29
779.0,1.4112900000000001e-28,-1.8480200000000001e-25,-1.84708e-25,-1.8477600000000001e-25,2.99547e-29,1.30229e-30,-5.8042300000000001e-29
780.0,1.44153e-28,-1.84814e-25,-1.84715e-25,-1.84789e-25,2.3163199999999999e-29,1.70951e-30,-6.1193000000000004e-29
781.0,1.4662899999999999e-28,-1.8482600000000001e-25,-1.84723e-25,-1.8480100000000001e-25,1.6949800000000001e-29,3.8205999999999998e-30,-6.3282300000000002e-29
782.0,1.4878600000000001e-28,-1.8483699999999999e-25,-1.8473400000000001e-25,-1.8481299999999999e-25,9.02215e-30,4.7198700000000001e-30,-6.5841900000000003e-29
783.0,1.5434899999999999e-28,-1.8484499999999999e-25,-1.8473699999999999e-25,-1.84825e-25,1.3058400000000001e-30,6.4315400000000006e-30,-6.7850900000000002e-29
784.0,1.4630099999999999e-28,-1.8485200000000001e-25,-1.84756e-25,-1.8482600000000001e-25,-5.8942300000000001e-30,8.0088099999999996e-30,-6.7321499999999996e-29
785.0,1.39177e-28,-1.8462899999999999e-25,-1.8463e-25,-1.8461199999999999e-25,5.3326999999999998e-29,-3.4764899999999997e-30,-5.9181699999999999e-29
786.0,1.3714299999999999e-28,-1.84641e-25,-1.8464e-25,-1.8461700000000001e-25,4.1490500000000002e-29,-3.7399099999999997e-30,-6.6015800000000004e-29
787.0,1.4058799999999999e-28,-1.8463699999999999e-25,-1.8463599999999999e-25,-1.84615e-25,4.06338e-29,-2.1308699999999998e-30,-6.9059299999999995e-29
788.0,1.3908299999999999e-28,-1.8465299999999999e-25,-1.8465100000000001e-25,-1.8462600000000001e-25,2.6960899999999999e-29,-1.55313e-30,-7.4026399999999997e-29
789.0,1.4269099999999999e-28,-1.84648e-25,-1.8464499999999999e-25,-1.8462099999999999e-25,2.3979499999999999e-29,1.4962400000000001e-30,-7.7386800000000006e-29
790.0,1.4386799999999999e-28,-1.84666e-25,-1.84665e-25,-1.8463400000000001e-25,9.1177399999999995e-30,2.3578100000000002e-30,-8.0499199999999996e-29
791.0,1.4592699999999999e-28,-1.8465299999999999e-25,-1.84648e-25,-1.8462600000000001e-25,4.5676099999999997e-30,7.7325499999999999e-30,-8.2518900000000005e-29
792.0,1.3520300000000001e-28,-1.84663e-25,-1.8464399999999999e-25,-1.8464300000000001e-25,4.8726599999999999e-29,-3.06885e-30,-5.9886500000000004e-29
793.0,1.3577600000000001e-28,-1.84665e-25,-1.8464599999999999e-25,-1.8464300000000001e-25,4.3632800000000001e-29,-2.7664399999999999e-30,-6.4018500000000002e-29
794.0,1.35207e-28,-1.8467600000000001e-25,-1.84655e-25,-1.8465299999999999e-25,3.66111e-29,-1.0237399999999999e-30,-6.7721600000000002e-29
795.0,1.37557e-28,-1.8467600000000001e-25,-1.8465399999999999e-25,-1.8465100000000001e-25,2.9311899999999999e-29,-3.5905400000000002e-31,-7.2510400000000005e-29
796.0,1.37037e-28,-1.8469200000000001e-25,-1.8466899999999999e-25,-1.84665e-25,2.0565299999999999e-29,2.1259099999999999e-30,-7.4981700000000006e-29
797.0,1.4043899999999999e-28,-1.8468599999999999e-25,-1.8466000000000001e-25,-1.8466000000000001e-25,1.17399e-29,4.3533800000000003e-30,-7.8734100000000003e-29
798.0,1.4071e-28,-1.84708e-25,-1.8469e-25,-1.8467799999999999e-25,1.06717e-30,5.3987999999999999e-30,-7.9568199999999996e-29
799.0,1.3332099999999999e-28,-1.8469e-25,-1.8465399999999999e-25,-1.8466999999999999e-25,4.67825e-29,-2.2756499999999999e-30,-5.8411900000000004e-29
800.0,1.3338599999999999e-28,-1.84697e-25,-1.8465900000000001e-25,-1.8467600000000001e-25,4.15079e-29,-1.18194e-30,-6.2032100000000001e-29
801.0,1.3451500000000001e-28,-1.8470100000000001e-25,-1.8466199999999999e-25,-1.8467899999999999e-25,3.5084899999999997e-29,-4.8098500000000001e-31,-6.6407800000000004e-29
802.0,1.3432200000000001e-28,-1.84714e-25,-1.84673e-25,-1.8469e-25,2.7550599999999998e-29,1.4940499999999999e-30,-6.9408400000000004e-29
803.0,1.3706099999999999e-28,-1.84715e-25,-1.84672e-25,-1.84691e-25,1.89947e-29,2.5427300000000001e-30,-7.3640499999999995e-29
804.0,1.3674899999999999e-28,-1.84732e-25,-1.8469e-25,-1.84706e-25,9.9350699999999994e-30,5.3848999999999997e-30,-7.5146200000000004e-29
805.0,1.4442499999999999e-28,-1.8471999999999999e-25,-1.8467500000000001e-25,-1.84699e-25,2.6361299999999999e-31,7.9455799999999995e-30,-7.9875600000000005e-29
806.0,1.3249000000000001e-28,-1.8471700000000001e-25,-1.84664e-25,-1.84697e-25,4.4058000000000002e-29,-1.1403200000000001e-30,-5.6627600000000002e-29
807.0,1.3296099999999999e-28,-1.84722e-25,-1.8466800000000001e-25,-1.8470100000000001e-25,3.92527e-29,-4.6331499999999996e-31,-6.0130100000000001e-29
808.0,1.33395e-28,-1.84733e-25,-1.8467600000000001e-25,-1.8471099999999999e-25,3.2544899999999999e-29,9.3907299999999992e-31,-6.3718599999999995e-29
809.0,1.3491799999999999e-28,-1.8473799999999999e-25,-1.8467899999999999e-25,-1.84715e-25,2.5230999999999999e-29,1.9064000000000001e-30,-6.7422700000000005e-29
810.0,1.3519799999999999e-28,-1.8475200000000001e-25,-1.8469300000000001e-25,-1.8473e-25,1.6959200000000001e-29,4.25127e-30,-6.9794499999999997e-29
811.0,1.39729e-28,-1.8475100000000001e-25,-1.84689e-25,-1.8472899999999999e-25,8.0491799999999999e-30,5.5678500000000002e-30,-7.3649800000000003e-29
812.0,1.36724e-28,-1.84772e-25,-1.84716e-25,-1.84747e-25,-1.16286e-30,7.1109100000000006e-30,-7.3426999999999997e-29
813.0,1.3261999999999999e-28,-1.84741e-25,-1.84674e-25,-1.8471999999999999e-25,4.1534999999999997e-29,-3.7783800000000002e-31,-5.4485700000000001e-29
814.0,1.3269799999999999e-28,-1.84748e-25,-1.8468e-25,-1.8472799999999999e-25,3.5823300000000002e-29,4.25314e-31,-5.7894699999999995e-29
815.0,1.3389400000000001e-28,-1.84756e-25,-1.8468500000000001e-25,-1.8473500000000001e-25,3.00208e-29,1.5615399999999999e-30,-6.1095399999999996e-29
816.0,1.3508499999999999e-28,-1.8476900000000001e-25,-1.8469499999999999e-25,-1.84748e-25,2.24616e-29,2.98034e-30,-6.4246800000000001e-29
817.0,1.3735600000000001e-28,-1.84773e-25,-1.84697e-25,-1.8475299999999999e-25,1.46492e-29,4.2878799999999998e-30,-6.71681e-29
818.0,1.37508e-28,-1.84789e-25,-1.8471299999999999e-25,-1.8476800000000001e-25,6.0628999999999999e-30,6.4326000000000003e-30,-6.8597700000000006e-29
819.0,1.46817e-28,-1.84783e-25,-1.8470399999999999e-25,-1.84766e-25,-2.8696500000000002e-30,7.6646700000000003e-30,-7.3577300000000001e-29
820.0,1.32236e-28,-1.8476099999999999e-25,-1.84683e-25,-1.84741e-25,3.7495899999999999e-29,5.5816499999999995e-32,-5.2701199999999997e-29
821.0,1.3306500000000001e-28,-1.8476900000000001e-25,-1.84688e-25,-1.84748e-25,3.3396099999999998e-29,1.18959e-30,-5.4977699999999998e-29
822.0,1.3437000000000001e-28,-1.8478e-25,-1.84697e-25,-1.8476000000000001e-25,2.6530599999999998e-29,2.1067300000000001e-30,-5.8305299999999998e-29
823.0,1.3656e-28,-1.84789e-25,-1.8470200000000001e-25,-1.8476800000000001e-25,2.01269e-29,3.38548e-30,-6.09539e-29
824.0,1.37902e-28,-1.8480200000000001e-25,-1.84714e-25,-1.84783e-25,1.23374e-29,4.7698100000000004e-30,-6.3288800000000004e-29
825.0,1.42588e-28,-1.84805e-25,-1.84715e-25,-1.8478699999999999e-25,3.9390699999999997e-30,6.2484999999999998e-30,-6.64302e-29
826.0,1.40219e-28,-1.84823e-25,-1.8473699999999999e-25,-1.8480200000000001e-25,-4.2973200000000003e-30,8.1828199999999996e-30,-6.6565300000000001e-29
827.0,1.3227800000000001e-28,-1.8477799999999999e-25,-1.8469e-25,-1.84756e-25,3.5567099999999999e-29,8.03892e-31,-4.98645e-29
828.0,1.3337200000000001e-28,-1.8478599999999999e-25,-1.8469499999999999e-25,-1.84766e-25,2.9905499999999998e-29,1.29008e-30,-5.2778000000000001e-29
829.0,1.3527899999999999e-28,-1.84797e-25,-1.8470299999999999e-25,-1.8477600000000001e-25,2.4798299999999999e-29,2.977e-30,-5.4790999999999995e-29
830.0,1.37724e-28,-1.8480900000000001e-25,-1.8471199999999999e-25,-1.84789e-25,1.76132e-29,3.2914300000000003e-30,-5.8012299999999997e-29
831.0,1.40159e-28,-1.8481800000000001e-25,-1.8471800000000001e-25,-1.848e-25,1.0247400000000001e-29,4.9952200000000001e-30,-5.9938299999999998e-29
832.0,1.41331e-28,-1.84831e-25,-1.84731e-25,-1.8481099999999999e-25,2.6351700000000001e-30,6.5652099999999994e-30,-6.1763500000000005e-29
833.0,1.5168799999999999e-28,-1.84833e-25,-1.8473e-25,-1.8481999999999999e-25,-5.3269699999999999e-30,7.0641400000000004e-30,-6.6438799999999995e-29
834.0,1.61352e-28,-1.84874e-25,-1.8475100000000001e-25,-1.8486199999999999e-25,-7.9420600000000002e-30,6.4438599999999996e-30,-6.3221299999999996e-29
835.0,1.4951899999999999e-28,-1.8487799999999999e-25,-1.84756e-25,-1.84857e-25,-9.9535499999999993e-30,7.6817199999999999e-30,-5.5594900000000005e-29
836.0,1.5476300000000001e-28,-1.849e-25,-1.8476299999999999e-25,-1.8488799999999999e-25,-8.8683999999999996e-30,4.4214e-30,-4.6122599999999999e-29
837.0,1.4991400000000001e-28,-1.8489599999999999e-25,-1.84756e-25,-1.84882e-25,-1.18788e-29,4.8090199999999999e-30,-3.6861599999999998e-29
838.0,1.51715e-28,-1.8491099999999999e-25,-1.8476299999999999e-25,-1.849e-25,-1.01162e-29,2.1832300000000001e-30,-2.8284200000000001e-29
839.0,1.49852e-28,-1.84908e-25,-1.84758e-25,-1.84898e-25,-1.3728200000000001e-29,1.6579000000000001e-30,-1.55235e-29
840.0,1.50313e-28,-1.8491199999999999e-25,-1.8476000000000001e-25,-1.8490399999999999e-25,-1.05455e-29,-1.28493e-30,-8.8156000000000001e-30
841.0,1.4981199999999999e-28,-1.8486000000000001e-25,-1.8474599999999999e-25,-1.84839e-25,-8.0937899999999995e-32,5.9331400000000001e-30,-6.15545e-29
842.0,1.51621e-28,-1.8488e-25,-1.8475200000000001e-25,-1.8486199999999999e-25,-1.42272e-30,5.3624600000000003e-30,-5.3413700000000005e-29
843.0,1.4849300000000001e-28,-1.84881e-25,-1.84748e-25,-1.84864e-25,-2.25131e-30,4.5129600000000002e-30,-4.5680600000000001e-29
844.0,1.4916200000000001e-28,-1.8489599999999999e-25,-1.8475399999999999e-25,-1.84881e-25,-2.6479799999999999e-30,3.4121699999999999e-30,-3.6480700000000001e-29
845.0,1.4699300000000001e-28,-1.8489200000000001e-25,-1.84747e-25,-1.8487899999999999e-25,-4.0137900000000002e-30,2.1616700000000001e-30,-2.6334599999999998e-29
846.0,1.4756200000000001e-28,-1.8490100000000001e-25,-1.8475200000000001e-25,-1.8489e-25,-2.9361100000000001e-30,8.0517899999999995e-31,-1.8033000000000001e-29
847.0,1.46964e-28,-1.84898e-25,-1.84747e-25,-1.8488699999999999e-25,-6.3891500000000003e-30,-3.6515499999999998e-31,-5.56906e-30
848.0,1.4958099999999999e-28,-1.84855e-25,-1.8473799999999999e-25,-1.84833e-25,7.4460400000000003e-30,5.1154199999999998e-30,-5.94063e-29
849.0,1.47228e-28,-1.8486199999999999e-25,-1.84739e-25,-1.8484200000000001e-25,6.7450400000000003e-30,3.7829200000000002e-30,-5.2719000000000004e-29
850.0,1.46669e-28,-1.8487600000000001e-25,-1.8474300000000001e-25,-1.84857e-25,5.4555499999999997e-30,3.6952e-30,-4.4017699999999998e-29
851.0,1.4468399999999999e-28,-1.8487600000000001e-25,-1.8473699999999999e-25,-1.84858e-25,5.2541899999999998e-30,2.4068799999999998e-30,-3.5565200000000003e-29
852.0,1.4470400000000001e-28,-1.8488599999999999e-25,-1.84741e-25,-1.8486999999999999e-25,4.7232300000000001e-30,1.7078200000000001e-30,-2.6369800000000002e-29
853.0,1.4305700000000001e-28,-1.84881e-25,-1.8473500000000001e-25,-1.8486700000000001e-25,3.5537100000000002e-30,4.8378299999999999e-31,-1.6169500000000001e-29
854.0,1.4479e-28,-1.8489e-25,-1.8474e-25,-1.8487600000000001e-25,4.90279e-30,-1.18383e-30,-8.5165099999999997e-30
855.0,1.4545400000000001e-28,-1.8484e-25,-1.8472799999999999e-25,-1.8481700000000001e-25,1.4975599999999999e-29,2.8942500000000001e-30,-5.7575800000000002e-29
856.0,1.4466699999999999e-28,-1.8485299999999999e-25,-1.84731e-25,-1.84831e-25,1.36799e-29,3.4906300000000002e-30,-5.0429400000000002e-29
857.0,1.42767e-28,-1.84856e-25,-1.8472799999999999e-25,-1.8483599999999999e-25,1.37204e-29,2.0697899999999999e-30,-4.3043299999999998e-29
858.0,1.41753e-28,-1.84866e-25,-1.8473e-25,-1.8484599999999999e-25,1.2820500000000001e-29,2.0666099999999998e-30,-3.39934e-29
859.0,1.3994e-28,-1.8486299999999999e-25,-1.84724e-25,-1.8484499999999999e-25,1.28794e-29,7.6046199999999997e-31,-2.5564600000000001e-29
860.0,1.40513e-28,-1.8487099999999999e-25,-1.8472799999999999e-25,-1.84855e-25,1.25811e-29,-8.2029499999999999e-33,-1.65229e-29
861.0,1.3753399999999999e-28,-1.8486199999999999e-25,-1.8471999999999999e-25,-1.84848e-25,1.14724e-29,-6.3432699999999997e-31,-5.95818e-30
862.0,1.4305700000000001e-28,-1.8482899999999999e-25,-1.8471900000000001e-25,-1.8480399999999999e-25,2.1918199999999999e-29,2.5710000000000001e-30,-5.5297399999999999e-29
863.0,1.4114299999999999e-28,-1.8483599999999999e-25,-1.8471900000000001e-25,-1.8481199999999999e-25,2.1358399999999999e-29,1.3031e-30,-4.8746300000000003e-29
864.0,1.39684e-28,-1.8484400000000001e-25,-1.8471900000000001e-25,-1.84822e-25,2.07152e-29,1.9147000000000001e-30,-4.0978299999999997e-29
865.0,1.37755e-28,-1.8484300000000001e-25,-1.84715e-25,-1.84823e-25,2.0953299999999999e-29,5.6180400000000003e-31,-3.33086e-29
866.0,1.3715799999999999e-28,-1.8485100000000001e-25,-1.84716e-25,-1.84831e-25,2.0389799999999999e-29,5.3795499999999998e-31,-2.42596e-29
867.0,1.3464800000000001e-28,-1.8484400000000001e-25,-1.8470900000000001e-25,-1.8482600000000001e-25,2.0499100000000001e-29,-2.6442899999999999e-31,-1.57893e-29
868.0,1.3905299999999999e-28,-1.84857e-25,-1.84715e-25,-1.8483799999999999e-25,1.9987799999999999e-29,-2.00163e-30,-8.37751e-30
869.0,1.39892e-28,-1.84814e-25,-1.8471000000000001e-25,-1.8479e-25,2.7745900000000003e-29,7.1767600000000003e-31,-5.3049400000000003e-29
870.0,1.3843400000000001e-28,-1.84822e-25,-1.8471000000000001e-25,-1.84797e-25,2.7740700000000002e-29,1.46173e-30,-4.6898099999999999e-29
871.0,1.3614800000000001e-28,-1.84823e-25,-1.84707e-25,-1.848e-25,2.8027599999999999e-29,-3.8340499999999998e-32,-3.9880800000000002e-29
872.0,1.3444599999999999e-28,-1.8482799999999999e-25,-1.84706e-25,-1.84806e-25,2.7915700000000003e-29,6.3440899999999996e-31,-3.1617600000000002e-29
873.0,1.3219700000000001e-28,-1.84825e-25,-1.8470100000000001e-25,-1.8480399999999999e-25,2.82864e-29,-6.1667299999999998e-31,-2.3991999999999999e-29
874.0,1.3338499999999999e-28,-1.84833e-25,-1.8470200000000001e-25,-1.8481199999999999e-25,2.7822299999999997e-29,-7.7818999999999997e-31,-1.5212200000000001e-29
875.0,1.25461e-28,-1.8481800000000001e-25,-1.84697e-25,-1.8480299999999999e-25,2.83109e-29,-2.92834e-31,-5.86052e-30
876.0,1.37051e-28,-1.848e-25,-1.8470399999999999e-25,-1.84775e-25,3.3193000000000001e-29,2.59888e-31,-5.1356099999999998e-29
877.0,1.35684e-28,-1.8480399999999999e-25,-1.8470000000000001e-25,-1.8477899999999999e-25,3.3734300000000001e-29,-6.1836999999999997e-31,-4.54412e-29
878.0,1.3400399999999999e-28,-1.84805e-25,-1.84697e-25,-1.84782e-25,3.4438000000000001e-29,2.4310599999999999e-31,-3.8885599999999999e-29
879.0,1.3131600000000001e-28,-1.84805e-25,-1.8469200000000001e-25,-1.84782e-25,3.4850700000000003e-29,-9.7722199999999998e-31,-3.1149200000000002e-29
880.0,1.3077299999999999e-28,-1.84808e-25,-1.8469e-25,-1.8478599999999999e-25,3.5068800000000001e-29,-2.1086500000000001e-31,-2.2903099999999999e-29
881.0,1.2603599999999999e-28,-1.8480299999999999e-25,-1.8468699999999999e-25,-1.84783e-25,3.5254500000000001e-29,-9.3400300000000007e-31,-1.50463e-29
882.0,1.3724200000000001e-28,-1.84816e-25,-1.8468400000000001e-25,-1.8479e-25,3.5631e-29,-2.5615699999999999e-30,-7.4252699999999995e-30
883.0,1.35352e-28,-1.84847e-25,-1.8474300000000001e-25,-1.8482600000000001e-25,-7.0788100000000001e-30,6.6639500000000005e-30,-5.4791699999999996e-29
884.0,1.5276e-28,-1.84864e-25,-1.8474200000000001e-25,-1.84856e-25,-6.4066199999999995e-30,5.9212100000000002e-30,-5.5254699999999999e-29
885.0,1.3402700000000001e-28,-1.8485900000000001e-25,-1.84741e-25,-1.8484400000000001e-25,-8.1014200000000004e-30,5.9887299999999999e-30,-4.2045900000000001e-29
886.0,1.4468700000000001e-28,-1.84875e-25,-1.8474300000000001e-25,-1.8487099999999999e-25,-6.4830500000000006e-30,3.5408000000000002e-30,-3.6094500000000002e-29
887.0,1.3379e-28,-1.8486800000000001e-25,-1.84739e-25,-1.8486199999999999e-25,-8.9769499999999996e-30,3.8756800000000003e-30,-2.45633e-29
888.0,1.39292e-28,-1.8487700000000001e-25,-1.84741e-25,-1.8487600000000001e-25,-6.6332299999999998e-30,6.4215199999999997e-31,-1.7286600000000001e-29
889.0,1.3576999999999999e-28,-1.84875e-25,-1.8474e-25,-1.84873e-25,-9.8722499999999997e-30,2.5373e-30,-5.1714899999999997e-30
890.0,1.45448e-28,-1.8484400000000001e-25,-1.84733e-25,-1.8482899999999999e-25,1.13338e-30,5.8550599999999997e-30,-5.8004200000000001e-29
891.0,1.37399e-28,-1.8484400000000001e-25,-1.84731e-25,-1.8482899999999999e-25,9.8687599999999992e-31,5.3083499999999999e-30,-4.9901700000000001e-29
892.0,1.4057400000000001e-28,-1.8485900000000001e-25,-1.8473500000000001e-25,-1.84849e-25,1.04462e-30,4.7977000000000002e-30,-4.3075199999999998e-29
893.0,1.3410199999999999e-28,-1.84855e-25,-1.8473e-25,-1.8484499999999999e-25,6.6703700000000001e-31,3.3734e-30,-3.3438399999999999e-29
894.0,1.3762100000000001e-28,-1.84866e-25,-1.84733e-25,-1.8486000000000001e-25,1.41492e-30,2.7165299999999999e-30,-2.5633000000000002e-29
895.0,1.325e-28,-1.8486099999999999e-25,-1.8472899999999999e-25,-1.84856e-25,-6.1287400000000003e-32,1.4989999999999999e-30,-1.5007499999999999e-29
896.0,1.37349e-28,-1.8487099999999999e-25,-1.84731e-25,-1.84865e-25,1.8464100000000001e-30,-8.8338900000000004e-31,-7.8960400000000004e-30
897.0,1.3849900000000001e-28,-1.8482899999999999e-25,-1.84723e-25,-1.8481099999999999e-25,9.3375500000000002e-30,4.6511699999999997e-30,-5.5166300000000004e-29
898.0,1.3769699999999999e-28,-1.8484e-25,-1.8472600000000001e-25,-1.84825e-25,8.8511099999999996e-30,4.5120900000000003e-30,-4.8591100000000001e-29
899.0,1.34932e-28,-1.8484e-25,-1.8472099999999999e-25,-1.8482700000000001e-25,9.3128099999999998e-30,3.3077100000000003e-30,-4.1053599999999998e-29
900.0,1.35025e-28,-1.8485100000000001e-25,-1.8472500000000001e-25,-1.8484e-25,9.2325100000000002e-30,3.2538900000000001e-30,-3.2862600000000002e-29
901.0,1.31731e-28,-1.84847e-25,-1.8471900000000001e-25,-1.8483799999999999e-25,9.1945900000000002e-30,1.4909899999999999e-30,-2.4007600000000001e-29
902.0,1.3498e-28,-1.84857e-25,-1.84722e-25,-1.84849e-25,1.01482e-29,9.7657000000000001e-31,-1.5895799999999999e-29
903.0,1.2880400000000001e-28,-1.8485e-25,-1.8471900000000001e-25,-1.8484400000000001e-25,7.7555599999999998e-30,2.9109499999999999e-31,-5.4147799999999997e-30
904.0,1.36969e-28,-1.8482099999999999e-25,-1.84715e-25,-1.8480200000000001e-25,1.6558900000000001e-29,3.8406400000000002e-30,-5.2861299999999996e-29
905.0,1.3529399999999999e-28,-1.84824e-25,-1.8471299999999999e-25,-1.84807e-25,1.696e-29,2.8506200000000001e-30,-4.7083199999999998e-29
906.0,1.33346e-28,-1.84833e-25,-1.84716e-25,-1.8481800000000001e-25,1.67019e-29,3.1494600000000001e-30,-3.9273599999999999e-29
907.0,1.3209699999999999e-28,-1.84832e-25,-1.8471000000000001e-25,-1.8481900000000001e-25,1.7419900000000001e-29,1.61714e-30,-3.1769600000000001e-29
908.0,1.32217e-28,-1.84841e-25,-1.8471299999999999e-25,-1.8482899999999999e-25,1.7575700000000001e-29,1.6175999999999999e-30,-2.3280000000000001e-29
909.0,1.28576e-28,-1.8483500000000001e-25,-1.84708e-25,-1.84825e-25,1.6959899999999999e-29,1.0486700000000001e-31,-1.4765200000000001e-29
910.0,1.3734300000000001e-28,-1.8485100000000001e-25,-1.8471099999999999e-25,-1.8483699999999999e-25,1.8437899999999999e-29,-1.31979e-30,-7.6866800000000002e-30
911.0,1.3517100000000001e-28,-1.84807e-25,-1.84705e-25,-1.8478699999999999e-25,2.3539500000000001e-29,2.1871900000000001e-30,-5.10953e-29
912.0,1.32547e-28,-1.84814e-25,-1.84706e-25,-1.8479599999999999e-25,2.3378899999999999e-29,2.8420299999999999e-30,-4.4624499999999998e-29
913.0,1.3186e-28,-1.84815e-25,-1.8470200000000001e-25,-1.84799e-25,2.4466899999999999e-29,1.5020599999999999e-30,-3.8146999999999997e-29
914.0,1.3003999999999999e-28,-1.84822e-25,-1.8470399999999999e-25,-1.84808e-25,2.4484299999999999e-29,1.6787700000000002e-30,-3.0090099999999998e-29
915.0,1.28645e-28,-1.8481900000000001e-25,-1.84698e-25,-1.84806e-25,2.4920700000000001e-29,1.7336500000000001e-31,-2.26317e-29
916.0,1.3132899999999999e-28,-1.8482899999999999e-25,-1.8470200000000001e-25,-1.84815e-25,2.5757999999999998e-29,-2.5780800000000001e-32,-1.44942e-29
917.0,1.21037e-28,-1.84816e-25,-1.84698e-25,-1.84808e-25,2.28494e-29,-6.3748099999999999e-31,-5.5290700000000003e-30
918.0,1.32305e-28,-1.8479499999999999e-25,-1.84698e-25,-1.84775e-25,2.91792e-29,2.2594000000000002e-30,-4.8418699999999997e-29
919.0,1.31795e-28,-1.84798e-25,-1.8469599999999999e-25,-1.8478e-25,3.0185299999999998e-29,1.0022e-30,-4.3379900000000002e-29
920.0,1.2936699999999999e-28,-1.8480299999999999e-25,-1.8469599999999999e-25,-1.8478699999999999e-25,3.0485900000000001e-29,1.53446e-30,-3.6333999999999998e-29
921.0,1.2875100000000001e-28,-1.8480299999999999e-25,-1.84691e-25,-1.8478699999999999e-25,3.1602800000000002e-29,7.0496299999999998e-32,-2.9572500000000001e-29
922.0,1.2802899999999999e-28,-1.8480900000000001e-25,-1.8469300000000001e-25,-1.8479400000000001e-25,3.1832599999999998e-29,1.45413e-31,-2.16135e-29
923.0,1.24054e-28,-1.8480299999999999e-25,-1.84688e-25,-1.8479e-25,3.1104800000000002e-29,-7.5552500000000003e-31,-1.39851e-29
924.0,1.37006e-28,-1.8481999999999999e-25,-1.84689e-25,-1.8480100000000001e-25,3.49422e-29,-1.6306300000000001e-30,-6.8655699999999993e-30
925.0,1.3208600000000001e-28,-1.8478500000000001e-25,-1.84691e-25,-1.84765e-25,3.4156299999999999e-29,2.4232399999999998e-31,-4.7172699999999999e-29
926.0,1.29607e-28,-1.8478699999999999e-25,-1.8469e-25,-1.8476900000000001e-25,3.4757399999999999e-29,1.20899e-30,-4.19261e-29
927.0,1.2888400000000001e-28,-1.8478799999999999e-25,-1.8468699999999999e-25,-1.8477099999999999e-25,3.6399400000000003e-29,-2.1694600000000001e-31,-3.5752500000000001e-29
928.0,1.2722899999999999e-28,-1.84791e-25,-1.8468599999999999e-25,-1.84775e-25,3.6791300000000002e-29,1.1740100000000001e-31,-2.8563599999999997e-29
929.0,1.25007e-28,-1.84789e-25,-1.84682e-25,-1.84774e-25,3.7325700000000001e-29,-7.0224799999999997e-31,-2.1298899999999999e-29
930.0,1.2866499999999999e-28,-1.8479599999999999e-25,-1.84682e-25,-1.8478e-25,3.8842199999999998e-29,-1.19684e-30,-1.3636200000000001e-29
931.0,1.1320299999999999e-28,-1.8478400000000001e-25,-1.84682e-25,-1.84774e-25,3.27439e-29,-1.9379400000000001e-30,-5.7074200000000003e-30
932.0,1.1826799999999999e-28,-1.8461899999999999e-25,-1.8462600000000001e-25,-1.8463e-25,6.7983499999999995e-29,-3.5285099999999996e-30,-3.0771400000000001e-31
933.0,1.1969100000000001e-28,-1.84606e-25,-1.8457899999999999e-25,-1.84605e-25,6.6867899999999995e-29,-2.97422e-31,-8.1270300000000006e-30
934.0,1.07846e-28,-1.8462099999999999e-25,-1.84616e-25,-1.8463699999999999e-25,6.1071599999999998e-29,-3.5515500000000001e-30,3.5883100000000001e-30
935.0,1.20282e-28,-1.8461199999999999e-25,-1.84556e-25,-1.84608e-25,6.0770700000000003e-29,1.1075600000000001e-30,-1.20495e-29
936.0,8.3640600000000003e-29,-1.84631e-25,-1.8461199999999999e-25,-1.8465100000000001e-25,4.2713100000000001e-29,-2.6026400000000001e-30,1.09904e-29
937.0,1.3815499999999999e-28,-1.8461800000000001e-25,-1.84516e-25,-1.84606e-25,5.0754599999999995e-29,8.31208e-31,-2.5572100000000002e-29
938.0,7.9523200000000002e-29,-1.84672e-25,-1.84655e-25,-1.84682e-25,-1.57403e-29,1.2556099999999999e-29,3.8927500000000002e-29
939.0,1.20775e-28,-1.84605e-25,-1.8459499999999999e-25,-1.84606e-25,6.7414899999999995e-29,-2.56372e-30,-1.65472e-29
940.0,1.1367999999999999e-28,-1.8461999999999999e-25,-1.84615e-25,-1.8463e-25,6.4363900000000003e-29,-4.5247200000000001e-30,-9.4335800000000007e-30
941.0,1.1901499999999999e-28,-1.84607e-25,-1.8457799999999999e-25,-1.8461000000000001e-25,6.3359900000000003e-29,-3.0960499999999999e-30,-1.9688000000000001e-29
942.0,9.6631599999999999e-29,-1.8462799999999999e-25,-1.84607e-25,-1.8464e-25,5.2289200000000002e-29,-3.64604e-30,-8.8477699999999995e-30
943.0,1.21608e-28,-1.8461199999999999e-25,-1.8455200000000001e-25,-1.84613e-25,5.4410900000000005e-29,-2.9595100000000001e-30,-2.71149e-29
944.0,5.8935600000000005e-29,-1.8464599999999999e-25,-1.84608e-25,-1.8465200000000001e-25,2.3928e-29,7.6673699999999996e-31,-5.3659199999999998e-30
945.0,1.4221999999999999e-28,-1.8461000000000001e-25,-1.84516e-25,-1.84632e-25,4.3481800000000001e-29,7.7616000000000004e-31,-3.3086099999999998e-29
946.0,1.18241e-28,-1.8461999999999999e-25,-1.8461899999999999e-25,-1.84624e-25,6.5159899999999998e-29,-4.9485700000000001e-30,-1.9591100000000001e-29
947.0,1.21001e-28,-1.84607e-25,-1.8459300000000001e-25,-1.84608e-25,6.3645299999999997e-29,-4.7950000000000003e-30,-2.7087200000000002e-29
948.0,1.0732599999999999e-28,-1.8462600000000001e-25,-1.8461199999999999e-25,-1.84633e-25,5.68069e-29,-5.4262100000000003e-30,-2.1768099999999999e-29
949.0,1.19514e-28,-1.8461000000000001e-25,-1.8457500000000001e-25,-1.8461199999999999e-25,5.6395200000000002e-29,-5.4521899999999997e-30,-3.3459800000000003e-29
950.0,8.7124900000000003e-29,-1.84639e-25,-1.84606e-25,-1.8464200000000001e-25,3.8731199999999999e-29,-3.4818700000000003e-30,-2.5092200000000001e-29
951.0,1.21705e-28,-1.84615e-25,-1.8455299999999999e-25,-1.84622e-25,4.2937700000000002e-29,-2.9439200000000001e-30,-4.07786e-29
952.0,6.6161199999999999e-29,-1.84656e-25,-1.8461199999999999e-25,-1.8464599999999999e-25,7.8212800000000001e-30,-4.3586699999999999e-30,-2.9198999999999998e-29
953.0,1.24109e-28,-1.8461000000000001e-25,-1.8460399999999999e-25,-1.84607e-25,6.2567799999999997e-29,-4.9103799999999998e-30,-3.44692e-29
954.0,1.1520300000000001e-28,-1.84624e-25,-1.8461800000000001e-25,-1.8462500000000001e-25,5.84787e-29,-6.3098300000000001e-30,-3.08163e-29
955.0,1.2122500000000001e-28,-1.8461199999999999e-25,-1.8459300000000001e-25,-1.8461099999999999e-25,5.64833e-29,-6.4127800000000004e-30,-3.9463899999999998e-29
956.0,1.0375099999999999e-28,-1.8463500000000001e-25,-1.84614e-25,-1.84633e-25,4.53899e-29,-5.7738299999999998e-30,-3.68874e-29
957.0,1.1967600000000001e-28,-1.8461700000000001e-25,-1.8458e-25,-1.8461700000000001e-25,4.4817699999999998e-29,-5.4135999999999997e-30,-4.7579300000000002e-29
958.0,9.1689299999999995e-29,-1.84648e-25,-1.84613e-25,-1.8464e-25,2.3100500000000001e-29,-4.4236199999999998e-30,-4.3548199999999999e-29
959.0,1.2095999999999999e-28,-1.8462500000000001e-25,-1.84563e-25,-1.8462899999999999e-25,2.4881900000000001e-29,9.6175699999999992e-31,-5.3809900000000001e-29
960.0,1.22178e-28,-1.8462500000000001e-25,-1.84624e-25,-1.8461999999999999e-25,5.8787200000000002e-29,-6.0121600000000002e-30,-3.8417199999999999e-29
961.0,1.24842e-28,-1.84615e-25,-1.84606e-25,-1.8460900000000001e-25,5.5738500000000005e-29,-6.0327299999999998e-30,-4.5072399999999998e-29
962.0,1.1458000000000001e-28,-1.84633e-25,-1.84623e-25,-1.8462600000000001e-25,4.8150999999999998e-29,-6.5752499999999995e-30,-4.4605400000000001e-29
963.0,1.2288499999999999e-28,-1.8461999999999999e-25,-1.84599e-25,-1.84613e-25,4.59027e-29,-6.2096600000000001e-30,-5.2647700000000003e-29
964.0,1.0824700000000001e-28,-1.8464499999999999e-25,-1.84622e-25,-1.84633e-25,3.0970999999999998e-29,-5.2469799999999997e-30,-5.2848500000000005e-29
965.0,1.21591e-28,-1.8462799999999999e-25,-1.84591e-25,-1.8462099999999999e-25,2.9532799999999997e-29,-2.4638399999999999e-30,-6.0606000000000002e-29
966.0,1.0749400000000001e-28,-1.84658e-25,-1.8463e-25,-1.84639e-25,6.9896099999999998e-30,-3.3676400000000002e-30,-5.9909199999999997e-29
967.0,1.3012600000000001e-28,-1.8461899999999999e-25,-1.84615e-25,-1.84607e-25,5.4782699999999997e-29,-4.8694299999999998e-30,-5.0853400000000003e-29
968.0,1.23126e-28,-1.84632e-25,-1.8462899999999999e-25,-1.8462099999999999e-25,4.95745e-29,-6.2658700000000001e-30,-5.0218600000000002e-29
969.0,1.2739600000000001e-28,-1.84623e-25,-1.8461199999999999e-25,-1.8461099999999999e-25,4.6709499999999999e-29,-5.6846600000000001e-30,-5.6181700000000004e-29
970.0,1.19695e-28,-1.8464200000000001e-25,-1.84632e-25,-1.8462700000000001e-25,3.5163699999999999e-29,-5.4608899999999998e-30,-5.8714900000000003e-29
971.0,1.2696e-28,-1.84631e-25,-1.8461199999999999e-25,-1.8461700000000001e-25,3.2622000000000001e-29,-3.4831100000000001e-30,-6.4804e-29
972.0,1.20662e-28,-1.84655e-25,-1.8463699999999999e-25,-1.8463400000000001e-25,1.5832499999999999e-29,-2.8401300000000001e-30,-6.6844700000000002e-29
973.0,1.2868099999999999e-28,-1.84638e-25,-1.84607e-25,-1.8462500000000001e-25,1.25559e-29,2.82842e-30,-7.1464399999999995e-29
974.0,1.30588e-28,-1.84633e-25,-1.8463500000000001e-25,-1.8461700000000001e-25,5.0648799999999997e-29,-5.48417e-30,-5.4756499999999997e-29
975.0,1.3316200000000001e-28,-1.8462600000000001e-25,-1.84622e-25,-1.8461000000000001e-25,4.8480399999999999e-29,-4.3188200000000002e-30,-5.8958900000000004e-29
976.0,1.28693e-28,-1.84641e-25,-1.84638e-25,-1.84622e-25,3.8162900000000003e-29,-4.8437599999999998e-30,-6.2721799999999998e-29
977.0,1.32973e-28,-1.8463400000000001e-25,-1.8462600000000001e-25,-1.84615e-25,3.5625199999999999e-29,-2.9751900000000002e-30,-6.7274500000000004e-29
978.0,1.3039899999999999e-28,-1.8465299999999999e-25,-1.8464499999999999e-25,-1.8462899999999999e-25,2.1619600000000001e-29,-2.35625e-30,-7.0995600000000002e-29
979.0,1.3493799999999999e-28,-1.8464300000000001e-25,-1.8463e-25,-1.8462099999999999e-25,1.8273499999999999e-29,1.2707300000000001e-30,-7.4914100000000002e-29
980.0,1.36513e-28,-1.8466700000000001e-25,-1.8466199999999999e-25,-1.8463699999999999e-25,1.8133400000000001e-30,1.18518e-30,-7.7092499999999997e-29
981.0,1.2188999999999999e-28,-1.8463699999999999e-25,-1.84599e-25,-1.84633e-25,6.7076600000000002e-29,-1.2608700000000001e-30,-5.0374400000000003e-30
982.0,1.0906100000000001e-28,-1.84655e-25,-1.84632e-25,-1.84663e-25,6.0881699999999996e-29,-2.4147499999999999e-30,-1.6664299999999998e-30
983.0,1.1957800000000001e-28,-1.8464399999999999e-25,-1.84588e-25,-1.8464e-25,6.1143800000000002e-29,-1.00358e-30,-5.6191900000000002e-30
984.0,9.1219899999999996e-29,-1.8466700000000001e-25,-1.8462600000000001e-25,-1.8467500000000001e-25,4.5579499999999998e-29,-8.5590300000000005e-31,8.6836699999999999e-31
985.0,1.17511e-28,-1.8465299999999999e-25,-1.8457500000000001e-25,-1.84649e-25,5.1184300000000001e-29,-3.3751100000000002e-31,-8.9338300000000003e-30
986.0,7.4214500000000003e-29,-1.8469300000000001e-25,-1.8462099999999999e-25,-1.8469e-25,1.24129e-29,3.8458100000000003e-30,4.9668200000000002e-30
987.0,6.2636300000000004e-29,-1.8466099999999999e-25,-1.8460900000000001e-25,-1.84664e-25,1.76939e-29,3.9105299999999998e-30,-4.5060199999999998e-30
988.0,1.1638699999999999e-28,-1.8465100000000001e-25,-1.8462799999999999e-25,-1.8465399999999999e-25,6.4473699999999996e-29,-2.84226e-30,-1.2440999999999999e-29
989.0,1.17431e-28,-1.84639e-25,-1.8460200000000001e-25,-1.84639e-25,6.2756400000000002e-29,-2.8716399999999999e-30,-1.3640499999999999e-29
990.0,1.0612500000000001e-28,-1.8466099999999999e-25,-1.84622e-25,-1.84665e-25,5.4991999999999999e-29,-2.4928699999999999e-30,-1.2936700000000001e-29
991.0,1.11335e-28,-1.84647e-25,-1.84591e-25,-1.84648e-25,5.2920600000000002e-29,-1.6392e-30,-1.6256699999999999e-29
992.0,9.0378899999999996e-29,-1.8467700000000001e-25,-1.8461700000000001e-25,-1.8467799999999999e-25,3.6109200000000001e-29,-1.21371e-30,-1.36765e-29
993.0,1.00455e-28,-1.84657e-25,-1.8458400000000001e-25,-1.8466000000000001e-25,3.2469099999999999e-29,4.8353599999999999e-30,-2.0378800000000001e-29
994.0,7.6293499999999996e-29,-1.84691e-25,-1.84623e-25,-1.8470299999999999e-25,9.2690700000000003e-30,3.2441200000000003e-30,1.5434e-30
995.0,1.19695e-28,-1.84638e-25,-1.8461199999999999e-25,-1.8463699999999999e-25,6.3691899999999996e-29,-3.6453100000000003e-30,-2.2010799999999999e-29
996.0,1.1418199999999999e-28,-1.84655e-25,-1.84624e-25,-1.84656e-25,5.9069399999999998e-29,-3.74067e-30,-2.27354e-29
997.0,1.1266499999999999e-28,-1.8464300000000001e-25,-1.8460299999999999e-25,-1.8464399999999999e-25,5.54451e-29,-3.3279699999999998e-30,-2.4433599999999999e-29
998.0,1.0439400000000001e-28,-1.8466899999999999e-25,-1.8461999999999999e-25,-1.8466899999999999e-25,4.6191800000000002e-29,-3.2491800000000002e-30,-2.6211300000000001e-29
999.0,1.0427299999999999e-28,-1.8465299999999999e-25,-1.8459499999999999e-25,-1.8465399999999999e-25,3.9715699999999998e-29,-6.1793100000000005e-32,-2.9959099999999998e-29
1000.0,8.8968299999999998e-29,-1.84682e-25,-1.8462099999999999e-25,-1.8468599999999999e-25,2.54545e-29,-1.19675e-30,-2.5491100000000001e-29
1001.0,1.15338e-28,-1.8466000000000001e-25,-1.84582e-25,-1.8466800000000001e-25,1.9908599999999999e-29,5.0981799999999996e-31,-4.1776500000000002e-29
1002.0,1.19911e-28,-1.8465200000000001e-25,-1.8462799999999999e-25,-1.84648e-25,6.0357100000000003e-29,-4.0240600000000001e-30,-3.1094099999999998e-29
1003.0,1.16498e-28,-1.8464200000000001e-25,-1.84614e-25,-1.8464e-25,5.6779299999999997e-29,-4.1717899999999997e-30,-3.2021000000000002e-29
1004.0,1.1332099999999999e-28,-1.8466199999999999e-25,-1.84624e-25,-1.8465900000000001e-25,5.09158e-29,-4.4222499999999999e-30,-3.5167400000000002e-29
1005.0,1.09234e-28,-1.8465100000000001e-25,-1.84608e-25,-1.84648e-25,4.4144600000000002e-29,-2.6777000000000002e-30,-3.7827e-29
1006.0,1.0380400000000001e-28,-1.8467600000000001e-25,-1.84624e-25,-1.84673e-25,3.47256e-29,-2.89209e-30,-3.93552e-29
1007.0,1.09577e-28,-1.8466099999999999e-25,-1.8460000000000001e-25,-1.8465900000000001e-25,2.5805700000000002e-29,-5.8889399999999997e-31,-4.6456999999999998e-29
1008.0,8.7039300000000001e-29,-1.8469200000000001e-25,-1.84638e-25,-1.8468400000000001e-25,8.89212e-30,-2.6615000000000002e-31,-3.9853900000000001e-29
1009.0,1.2187800000000001e-28,-1.8464399999999999e-25,-1.84623e-25,-1.8463699999999999e-25,5.70628e-29,-4.3295700000000002e-30,-3.9439100000000001e-29
1010.0,1.1993700000000001e-28,-1.84657e-25,-1.8462899999999999e-25,-1.8465000000000001e-25,5.2858899999999995e-29,-4.7628999999999998e-30,-4.2057499999999997e-29
1011.0,1.1531700000000001e-28,-1.8465000000000001e-25,-1.8461899999999999e-25,-1.8464300000000001e-25,4.6796099999999999e-29,-3.79521e-30,-4.4274199999999999e-29
1012.0,1.1404300000000001e-28,-1.8466999999999999e-25,-1.84631e-25,-1.8466199999999999e-25,3.9968699999999998e-29,-3.90377e-30,-4.7904799999999998e-29
1013.0,1.13149e-28,-1.8466000000000001e-25,-1.84616e-25,-1.8465200000000001e-25,3.1090699999999998e-29,-2.0192300000000001e-30,-5.2394599999999996e-29
1014.0,1.0625400000000001e-28,-1.8468500000000001e-25,-1.84639e-25,-1.8467500000000001e-25,2.00491e-29,-8.8700199999999995e-31,-5.2554399999999999e-29
1015.0,1.2105599999999999e-28,-1.8466899999999999e-25,-1.8460900000000001e-25,-1.84664e-25,1.13188e-29,2.0354599999999999e-30,-6.0466099999999999e-29
1016.0,1.26505e-28,-1.84657e-25,-1.8463500000000001e-25,-1.8464499999999999e-25,5.3437899999999996e-29,-4.2502999999999998e-30,-4.8351400000000002e-29
1017.0,1.21849e-28,-1.8465100000000001e-25,-1.8462799999999999e-25,-1.84639e-25,4.8349799999999998e-29,-3.9373599999999999e-30,-4.9658699999999999e-29
1018.0,1.2210499999999999e-28,-1.84665e-25,-1.8463599999999999e-25,-1.8465299999999999e-25,4.3246799999999999e-29,-4.09941e-30,-5.3571299999999997e-29
1019.0,1.19749e-28,-1.8466000000000001e-25,-1.8462799999999999e-25,-1.8464599999999999e-25,3.50288e-29,-2.62681e-30,-5.7368400000000002e-29
1020.0,1.1828600000000001e-28,-1.8468e-25,-1.8464399999999999e-25,-1.84665e-25,2.6908100000000001e-29,-1.56052e-30,-6.0090000000000005e-29
1021.0,1.22376e-28,-1.8466999999999999e-25,-1.8462799999999999e-25,-1.84656e-25,1.76625e-29,4.6141099999999998e-31,-6.5020399999999999e-29
1022.0,1.1659999999999999e-28,-1.84698e-25,-1.84663e-25,-1.8467600000000001e-25,4.9658400000000001e-30,1.5947799999999999e-30,-6.4823999999999995e-29
1023.0,1.28319e-28,-1.8465399999999999e-25,-1.8463599999999999e-25,-1.84638e-25,4.9549700000000003e-29,-3.5114200000000002e-30,-5.4097699999999996e-29
1024.0,1.29167e-28,-1.84663e-25,-1.84641e-25,-1.84647e-25,4.5792900000000001e-29,-3.6711500000000003e-30,-5.7594299999999999e-29
1025.0,1.2733400000000001e-28,-1.8466199999999999e-25,-1.84639e-25,-1.8464300000000001e-25,3.8663299999999998e-29,-2.7636699999999999e-30,-6.1254600000000004e-29
1026.0,1.2734599999999999e-28,-1.8467700000000001e-25,-1.8465000000000001e-25,-1.84658e-25,3.1897800000000001e-29,-1.6436899999999999e-30,-6.4792699999999995e-29
1027.0,1.2903100000000001e-28,-1.84673e-25,-1.8464300000000001e-25,-1.8465200000000001e-25,2.3063499999999999e-29,1.7648000000000001e-31,-6.91897e-29
1028.0,1.28643e-28,-1.8469300000000001e-25,-1.84664e-25,-1.8466899999999999e-25,1.3466100000000001e-29,1.9257700000000001e-30,-7.1355300000000003e-29
1029.0,1.34929e-28,-1.8467899999999999e-25,-1.8464300000000001e-25,-1.8466099999999999e-25,4.1060700000000002e-30,5.4550099999999999e-30,-7.5506299999999998e-29
1030.0,1.1247099999999999e-28,-1.84683e-25,-1.8464499999999999e-25,-1.8468500000000001e-25,6.0783899999999998e-29,-2.12328e-30,-3.51651e-30
1031.0,1.20319e-28,-1.84672e-25,-1.8461000000000001e-25,-1.84666e-25,6.0203800000000003e-29,-1.7804700000000001e-30,-4.7226099999999999e-30
1032.0,1.0270699999999999e-28,-1.8469499999999999e-25,-1.8464e-25,-1.84697e-25,4.9521000000000001e-29,-7.0693699999999998e-31,-2.07445e-30
1033.0,1.1333e-28,-1.84682e-25,-1.84608e-25,-1.8468e-25,4.9819100000000001e-29,-1.2243e-30,-5.0141300000000003e-30
1034.0,9.23776e-29,-1.84715e-25,-1.8463500000000001e-25,-1.8471199999999999e-25,2.7571900000000001e-29,1.7189e-30,-2.0427200000000001e-30
1035.0,8.4052200000000005e-29,-1.84691e-25,-1.84623e-25,-1.84697e-25,2.5566599999999999e-29,1.3276399999999999e-30,-3.18277e-30
1036.0,8.8129900000000002e-29,-1.84716e-25,-1.8463400000000001e-25,-1.84722e-25,1.2776600000000001e-29,-2.79478e-30,-3.6951300000000003e-30
1037.0,1.1924900000000001e-28,-1.8466800000000001e-25,-1.8461999999999999e-25,-1.84664e-25,6.2114000000000006e-29,-2.5492499999999998e-30,-1.25637e-29
1038.0,1.1262200000000001e-28,-1.8468699999999999e-25,-1.8463599999999999e-25,-1.8468599999999999e-25,5.6573899999999995e-29,-1.9143999999999999e-30,-1.2788999999999999e-29
1039.0,1.1209399999999999e-28,-1.8467700000000001e-25,-1.84616e-25,-1.8467600000000001e-25,5.2775500000000004e-29,-1.6335299999999999e-30,-1.2980300000000001e-29
1040.0,1.0318600000000001e-28,-1.8470299999999999e-25,-1.8463400000000001e-25,-1.8470200000000001e-25,4.20304e-29,-9.3564599999999997e-31,-1.42608e-29
1041.0,1.00159e-28,-1.84689e-25,-1.84615e-25,-1.8469e-25,3.5298900000000001e-29,1.82085e-30,-1.5225399999999999e-29
1042.0,9.0573500000000005e-29,-1.8471700000000001e-25,-1.8463699999999999e-25,-1.8471999999999999e-25,1.9533300000000001e-29,6.8250600000000001e-31,-1.12942e-29
1043.0,8.2697500000000002e-29,-1.8470100000000001e-25,-1.8462700000000001e-25,-1.8470100000000001e-25,1.0385e-29,2.1372700000000001e-30,-1.8466699999999999e-29
1044.0,1.17898e-28,-1.84681e-25,-1.8463599999999999e-25,-1.8467600000000001e-25,5.9645999999999998e-29,-2.52908e-30,-2.1605999999999999e-29
1045.0,1.1478699999999999e-28,-1.84672e-25,-1.84622e-25,-1.8466999999999999e-25,5.5911200000000006e-29,-2.4720900000000001e-30,-2.1225000000000001e-29
1046.0,1.11368e-28,-1.8469300000000001e-25,-1.8463400000000001e-25,-1.8469e-25,4.9437599999999998e-29,-2.1907000000000001e-30,-2.3885699999999999e-29
1047.0,1.05526e-28,-1.8468400000000001e-25,-1.8461899999999999e-25,-1.84683e-25,4.1956000000000002e-29,-2.72493e-31,-2.4334699999999999e-29
1048.0,1.0155100000000001e-28,-1.8470900000000001e-25,-1.8463599999999999e-25,-1.84708e-25,3.1999599999999999e-29,-4.6151700000000001e-31,-2.5688800000000001e-29
1049.0,9.8997300000000004e-29,-1.8469599999999999e-25,-1.8461999999999999e-25,-1.8469599999999999e-25,2.2089999999999999e-29,2.5932899999999999e-30,-2.9048400000000002e-29
1050.0,9.1369599999999994e-29,-1.84724e-25,-1.8464499999999999e-25,-1.8473e-25,9.0762600000000004e-30,2.54006e-30,-2.0995199999999999e-29
1051.0,1.1890299999999999e-28,-1.8467099999999999e-25,-1.8462899999999999e-25,-1.84666e-25,5.762e-29,-3.0294000000000001e-30,-2.9398700000000001e-29
1052.0,1.1698100000000001e-28,-1.8468500000000001e-25,-1.8463599999999999e-25,-1.8467899999999999e-25,5.31637e-29,-2.9025500000000001e-30,-3.1643200000000002e-29
1053.0,1.10799e-28,-1.8467899999999999e-25,-1.8462600000000001e-25,-1.8467500000000001e-25,4.6547599999999998e-29,-1.8214800000000001e-30,-3.22539e-29
1054.0,1.10209e-28,-1.8470000000000001e-25,-1.84638e-25,-1.8469599999999999e-25,3.9572099999999998e-29,-1.6598799999999999e-30,-3.5722400000000002e-29
1055.0,1.0500899999999999e-28,-1.8469200000000001e-25,-1.8462600000000001e-25,-1.84688e-25,2.9732399999999999e-29,5.7881400000000003e-31,-3.7682699999999998e-29
1056.0,1.01815e-28,-1.84716e-25,-1.8464499999999999e-25,-1.84714e-25,1.99987e-29,5.1332200000000001e-31,-3.7772699999999998e-29
1057.0,1.1266799999999999e-28,-1.8470299999999999e-25,-1.8462600000000001e-25,-1.8470200000000001e-25,9.4473499999999999e-30,1.5974000000000001e-30,-4.6857099999999999e-29
1058.0,1.22e-28,-1.84681e-25,-1.8464e-25,-1.8467099999999999e-25,5.4482899999999996e-29,-2.99779e-30,-3.8894500000000002e-29
1059.0,1.1671699999999999e-28,-1.8467700000000001e-25,-1.84633e-25,-1.8466899999999999e-25,4.9412499999999998e-29,-2.6572099999999999e-30,-3.9311600000000002e-29
1060.0,1.1679499999999999e-28,-1.8469200000000001e-25,-1.84641e-25,-1.8468400000000001e-25,4.39928e-29,-2.4300399999999998e-30,-4.2958100000000001e-29
1061.0,1.1136099999999999e-28,-1.84688e-25,-1.84633e-25,-1.8468e-25,3.5286099999999998e-29,-9.35278e-31,-4.4942499999999999e-29
1062.0,1.1159300000000001e-28,-1.84708e-25,-1.84648e-25,-1.8470100000000001e-25,2.7720200000000002e-29,-3.6698000000000002e-31,-4.7851199999999998e-29
1063.0,1.1266900000000001e-28,-1.8470000000000001e-25,-1.8463599999999999e-25,-1.8469200000000001e-25,1.6901499999999999e-29,1.31202e-30,-5.1989400000000001e-29
1064.0,1.0377200000000001e-28,-1.8472700000000001e-25,-1.84666e-25,-1.8471700000000001e-25,5.0979799999999998e-30,2.94317e-30,-4.9802199999999998e-29
1065.0,1.2303800000000001e-28,-1.8467799999999999e-25,-1.8464e-25,-1.84666e-25,5.0702300000000002e-29,-2.9613700000000001e-30,-4.5888000000000001e-29
1066.0,1.23096e-28,-1.8468699999999999e-25,-1.8464399999999999e-25,-1.8467500000000001e-25,4.6722200000000001e-29,-2.6790299999999999e-30,-4.8710999999999997e-29
1067.0,1.1844e-28,-1.8468599999999999e-25,-1.84641e-25,-1.84673e-25,3.9437099999999998e-29,-1.8595399999999999e-30,-5.0828200000000001e-29
1068.0,1.1937499999999999e-28,-1.8470200000000001e-25,-1.8465100000000001e-25,-1.84689e-25,3.3143599999999997e-29,-9.0289199999999998e-31,-5.44571e-29
1069.0,1.18226e-28,-1.84699e-25,-1.8464499999999999e-25,-1.8468400000000001e-25,2.3317899999999999e-29,4.7220799999999998e-31,-5.7859699999999998e-29
1070.0,1.16642e-28,-1.8471999999999999e-25,-1.84665e-25,-1.84705e-25,1.44287e-29,2.3037599999999999e-30,-5.9336800000000005e-29
1071.0,1.2595799999999999e-28,-1.84707e-25,-1.8464599999999999e-25,-1.84697e-25,4.6777300000000002e-30,4.1580299999999997e-30,-6.4612100000000001e-29
1072.0,1.29116e-28,-1.8468599999999999e-25,-1.84648e-25,-1.8466999999999999e-25,4.8334700000000001e-29,-2.4749999999999999e-30,-5.3375200000000002e-29
1073.0,1.2548900000000001e-28,-1.8468599999999999e-25,-1.84648e-25,-1.8466899999999999e-25,4.2787900000000002e-29,-2.1669299999999999e-30,-5.5247899999999999e-29
1074.0,1.26362e-28,-1.84697e-25,-1.84655e-25,-1.8468e-25,3.7331000000000003e-29,-1.14579e-30,-5.8969499999999996e-29
1075.0,1.2561600000000001e-28,-1.84698e-25,-1.8465399999999999e-25,-1.8467899999999999e-25,2.8923000000000002e-29,-9.3836200000000005e-32,-6.2663700000000004e-29
1076.0,1.2582599999999999e-28,-1.84715e-25,-1.8466800000000001e-25,-1.8469599999999999e-25,2.1373199999999999e-29,2.0281799999999999e-30,-6.53134e-29
1077.0,1.29035e-28,-1.8471000000000001e-25,-1.8466000000000001e-25,-1.84691e-25,1.17032e-29,3.2701200000000003e-30,-6.9008599999999995e-29
1078.0,1.2666300000000001e-28,-1.8473400000000001e-25,-1.84691e-25,-1.8471099999999999e-25,1.6285200000000002e-30,4.9066200000000001e-30,-6.9670099999999995e-29
1079.0,1.21591e-28,-1.84697e-25,-1.8462600000000001e-25,-1.84688e-25,5.8501299999999998e-29,-1.9402700000000002e-30,-4.9771599999999998e-30
1080.0,1.1167500000000001e-28,-1.8471900000000001e-25,-1.8465200000000001e-25,-1.84716e-25,5.2046999999999996e-29,-1.02242e-30,-3.3069599999999999e-30
1081.0,1.14198e-28,-1.84708e-25,-1.8463e-25,-1.8470399999999999e-25,4.8698400000000002e-29,-1.808e-30,-4.6189800000000003e-30
1082.0,1.06077e-28,-1.8473799999999999e-25,-1.8465100000000001e-25,-1.8473400000000001e-25,3.59461e-29,7.8044500000000001e-31,-3.6686200000000003e-30
1083.0,9.7319299999999999e-29,-1.8472099999999999e-25,-1.84641e-25,-1.84724e-25,3.07354e-29,1.69195e-32,-3.3523600000000002e-30
1084.0,1.0206899999999999e-28,-1.84749e-25,-1.8465200000000001e-25,-1.84748e-25,1.86209e-29,8.3139200000000003e-32,-5.7574500000000002e-30
1085.0,8.9103600000000001e-29,-1.8474e-25,-1.8465399999999999e-25,-1.8474400000000001e-25,5.0842600000000003e-30,5.9275299999999997e-30,-2.5548599999999999e-30
1086.0,1.1699199999999999e-28,-1.8471000000000001e-25,-1.84647e-25,-1.8470399999999999e-25,5.6498399999999997e-29,-1.5944600000000001e-30,-1.25962e-29
1087.0,1.15402e-28,-1.8470200000000001e-25,-1.84633e-25,-1.84699e-25,5.2620000000000005e-29,-1.7104599999999999e-30,-1.21344e-29
1088.0,1.1153699999999999e-28,-1.8472500000000001e-25,-1.84648e-25,-1.8472099999999999e-25,4.5403899999999997e-29,-8.0943199999999999e-31,-1.3330500000000001e-29
1089.0,1.0625200000000001e-28,-1.84716e-25,-1.8463599999999999e-25,-1.84716e-25,3.8263600000000001e-29,3.4411400000000001e-31,-1.3260400000000001e-29
1090.0,1.0313400000000001e-28,-1.8474200000000001e-25,-1.8465200000000001e-25,-1.8474e-25,2.70476e-29,6.5129199999999998e-31,-1.37848e-29
1091.0,9.3335000000000002e-29,-1.8473e-25,-1.84647e-25,-1.84732e-25,1.8008800000000001e-29,1.7092799999999999e-30,-1.5088399999999999e-29
1092.0,1.02308e-28,-1.8475100000000001e-25,-1.84658e-25,-1.8475900000000001e-25,8.8577699999999998e-30,7.04196e-31,-1.5001799999999999e-29
1093.0,1.18426e-28,-1.84698e-25,-1.8463599999999999e-25,-1.8469200000000001e-25,5.5750599999999995e-29,-1.9853300000000001e-30,-2.0275700000000001e-29
1094.0,1.16107e-28,-1.84715e-25,-1.8464599999999999e-25,-1.8470900000000001e-25,5.0957000000000002e-29,-1.6290400000000001e-30,-2.1519900000000001e-29
1095.0,1.10845e-28,-1.8470900000000001e-25,-1.8463699999999999e-25,-1.84706e-25,4.4161899999999999e-29,-4.9740399999999999e-31,-2.1455500000000001e-29
1096.0,1.0928399999999999e-28,-1.84732e-25,-1.8465100000000001e-25,-1.8472799999999999e-25,3.63877e-29,-1.2928599999999999e-31,-2.37596e-29
1097.0,1.02828e-28,-1.84724e-25,-1.8464200000000001e-25,-1.84723e-25,2.68556e-29,1.65162e-30,-2.43679e-29
1098.0,1.0285800000000001e-28,-1.84748e-25,-1.8465900000000001e-25,-1.84749e-25,1.66611e-29,1.5893500000000001e-30,-2.4253200000000001e-29
1099.0,9.7487899999999998e-29,-1.8473799999999999e-25,-1.8465399999999999e-25,-1.8473599999999999e-25,4.8389099999999998e-30,2.2565500000000002e-30,-2.8935799999999999e-29
1100.0,1.2005200000000001e-28,-1.84707e-25,-1.84647e-25,-1.84698e-25,5.3739300000000002e-29,-1.9670099999999999e-30,-2.92111e-29
1101.0,1.1531099999999999e-28,-1.8470399999999999e-25,-1.8464e-25,-1.84698e-25,4.8447199999999998e-29,-1.30812e-30,-2.9128800000000003e-29
1102.0,1.1449900000000001e-28,-1.8472099999999999e-25,-1.84649e-25,-1.84714e-25,4.2523599999999997e-29,-9.2803000000000004e-31,-3.1806700000000001e-29
1103.0,1.08951e-28,-1.8471800000000001e-25,-1.8464300000000001e-25,-1.8471299999999999e-25,3.3842500000000001e-29,6.6360399999999996e-31,-3.2620300000000001e-29
1104.0,1.0898000000000001e-28,-1.8473799999999999e-25,-1.84658e-25,-1.8473500000000001e-25,2.5688800000000001e-29,9.5284800000000003e-31,-3.4978999999999998e-29
1105.0,1.0623199999999999e-28,-1.84732e-25,-1.8465000000000001e-25,-1.8472799999999999e-25,1.51249e-29,2.5730100000000001e-30,-3.7323799999999999e-29
1106.0,1.0604100000000001e-28,-1.84757e-25,-1.8467099999999999e-25,-1.84758e-25,4.6805500000000003e-30,3.9408200000000001e-30,-3.54578e-29
1107.0,1.2054100000000001e-28,-1.8470100000000001e-25,-1.8464499999999999e-25,-1.8469200000000001e-25,5.0817700000000005e-29,-1.8228200000000001e-30,-3.6777299999999998e-29
1108.0,1.1908099999999999e-28,-1.8471199999999999e-25,-1.8465000000000001e-25,-1.8470200000000001e-25,4.62617e-29,-1.54878e-30,-3.8517300000000002e-29
1109.0,1.1448300000000001e-28,-1.8471199999999999e-25,-1.8464599999999999e-25,-1.8470299999999999e-25,3.9042500000000001e-29,-3.56117e-31,-3.97632e-29
1110.0,1.15041e-28,-1.8472899999999999e-25,-1.84658e-25,-1.8472099999999999e-25,3.2327299999999999e-29,1.4652599999999999e-31,-4.3011499999999999e-29
1111.0,1.11825e-28,-1.8472600000000001e-25,-1.8465200000000001e-25,-1.8471800000000001e-25,2.2560399999999999e-29,1.7967099999999999e-30,-4.4880299999999998e-29
1112.0,1.12527e-28,-1.84748e-25,-1.8467099999999999e-25,-1.8474200000000001e-25,1.3852199999999999e-29,2.6500400000000001e-30,-4.6704600000000001e-29
1113.0,1.1715699999999999e-28,-1.84739e-25,-1.8466000000000001e-25,-1.84732e-25,3.6828199999999999e-30,3.0819900000000001e-30,-5.1252700000000001e-29
1114.0,1.2453900000000001e-28,-1.8470900000000001e-25,-1.8465399999999999e-25,-1.8469499999999999e-25,4.8179700000000001e-29,-1.69072e-30,-4.4942900000000003e-29
1115.0,1.2046000000000001e-28,-1.84708e-25,-1.8465100000000001e-25,-1.8469599999999999e-25,4.2716899999999999e-29,-1.1378800000000001e-30,-4.5894300000000001e-29
1116.0,1.20581e-28,-1.8472099999999999e-25,-1.8465900000000001e-25,-1.84708e-25,3.7077400000000002e-29,-4.8226900000000004e-31,-4.89249e-29
1117.0,1.1793799999999999e-28,-1.84722e-25,-1.84657e-25,-1.8470900000000001e-25,2.8630299999999998e-29,9.2535200000000008e-31,-5.1268999999999999e-29
1118.0,1.1910300000000001e-28,-1.84739e-25,-1.8467099999999999e-25,-1.8472799999999999e-25,2.1124499999999999e-29,1.9686999999999998e-30,-5.4158700000000002e-29
1119.0,1.20124e-28,-1.8473599999999999e-25,-1.84665e-25,-1.84723e-25,1.12415e-29,3.3144500000000002e-30,-5.6934400000000004e-29
1120.0,1.1848100000000001e-28,-1.8476000000000001e-25,-1.8469200000000001e-25,-1.84747e-25,1.18161e-30,5.5512500000000001e-30,-5.7805000000000004e-29
1121.0,1.2629799999999999e-28,-1.8470900000000001e-25,-1.84657e-25,-1.8469200000000001e-25,4.4922400000000003e-29,-1.6065400000000001e-30,-5.0863999999999995e-29
1122.0,1.2644900000000001e-28,-1.84716e-25,-1.8466099999999999e-25,-1.8470000000000001e-25,4.0669099999999999e-29,-7.9171200000000006e-31,-5.3568899999999996e-29
1123.0,1.2493200000000001e-28,-1.8471999999999999e-25,-1.8466199999999999e-25,-1.8470200000000001e-25,3.3903100000000002e-29,1.2430800000000001e-31,-5.6391699999999996e-29
1124.0,1.2575899999999999e-28,-1.84733e-25,-1.84673e-25,-1.8471700000000001e-25,2.7008699999999998e-29,1.46279e-30,-5.9650700000000005e-29
1125.0,1.26522e-28,-1.8473500000000001e-25,-1.84672e-25,-1.8471700000000001e-25,1.81036e-29,2.8962e-30,-6.2660199999999998e-29
1126.0,1.27244e-28,-1.8475399999999999e-25,-1.8469e-25,-1.8473599999999999e-25,9.7084400000000006e-30,4.6910000000000001e-30,-6.4773900000000001e-29
1127.0,1.3371500000000001e-28,-1.8474400000000001e-25,-1.8467700000000001e-25,-1.8473e-25,4.1123e-31,6.0657499999999999e-30,-6.8364999999999998e-29
1128.0,1.1693400000000001e-28,-1.8474e-25,-1.8466199999999999e-25,-1.84733e-25,5.1865099999999995e-29,-1.04737e-30,-4.6002300000000001e-30
1129.0,1.1618200000000001e-28,-1.8473e-25,-1.8464499999999999e-25,-1.84723e-25,4.7334499999999999e-29,-2.30433e-30,-4.9833999999999997e-30
1130.0,1.16759e-28,-1.8475900000000001e-25,-1.84663e-25,-1.8475100000000001e-25,4.0768000000000003e-29,1.32055e-31,-4.31619e-30
1131.0,1.0566800000000001e-28,-1.8474599999999999e-25,-1.84657e-25,-1.8474599999999999e-25,3.3096100000000001e-29,-8.8779900000000002e-31,-4.0924399999999997e-30
1132.0,1.1356299999999999e-28,-1.8477600000000001e-25,-1.8466800000000001e-25,-1.8476999999999999e-25,2.41388e-29,5.6148199999999999e-31,-5.8973700000000003e-30
1133.0,9.84094e-29,-1.84764e-25,-1.8467099999999999e-25,-1.8476900000000001e-25,1.2738499999999999e-29,2.5685e-30,-3.0165999999999999e-30
1134.0,1.07287e-28,-1.8478e-25,-1.8467700000000001e-25,-1.8478500000000001e-25,5.9892000000000001e-30,-2.3808499999999999e-30,-7.3741199999999994e-30
1135.0,1.1885199999999999e-28,-1.8472500000000001e-25,-1.8464599999999999e-25,-1.8471800000000001e-25,5.1643000000000001e-29,-1.8024099999999999e-30,-1.21925e-29
1136.0,1.1774800000000001e-28,-1.8474499999999999e-25,-1.8465900000000001e-25,-1.8473699999999999e-25,4.6931500000000003e-29,-9.2399599999999993e-31,-1.2644700000000001e-29
1137.0,1.1244300000000001e-28,-1.84739e-25,-1.8465200000000001e-25,-1.8473599999999999e-25,4.0002399999999999e-29,-4.4766700000000004e-31,-1.2509e-29
1138.0,1.1263499999999999e-28,-1.8476299999999999e-25,-1.84666e-25,-1.84758e-25,3.1994300000000003e-29,4.8335500000000001e-31,-1.3480000000000001e-29
1139.0,1.0415899999999999e-28,-1.84756e-25,-1.84663e-25,-1.84756e-25,2.3225599999999999e-29,8.8601300000000008e-31,-1.37469e-29
1140.0,1.1072700000000001e-28,-1.8477700000000001e-25,-1.84673e-25,-1.8477899999999999e-25,1.4143000000000001e-29,1.57326e-30,-1.5195799999999999e-29
1141.0,9.9716899999999998e-29,-1.84774e-25,-1.8467799999999999e-25,-1.84775e-25,7.5729300000000002e-31,3.95361e-30,-1.4506299999999999e-29
1142.0,1.19941e-28,-1.8473500000000001e-25,-1.84657e-25,-1.8472500000000001e-25,5.0809500000000002e-29,-1.3563799999999999e-30,-2.0426e-29
1143.0,1.1612899999999999e-28,-1.84731e-25,-1.8465000000000001e-25,-1.8472500000000001e-25,4.5301300000000003e-29,-6.4469599999999999e-31,-2.00183e-29
1144.0,1.1539e-28,-1.8475e-25,-1.8466199999999999e-25,-1.8474400000000001e-25,3.9295500000000001e-29,-1.37093e-31,-2.16121e-29
1145.0,1.1021900000000001e-28,-1.84748e-25,-1.84658e-25,-1.8474400000000001e-25,3.0798200000000002e-29,9.2528200000000002e-31,-2.1962600000000001e-29
1146.0,1.10877e-28,-1.8476900000000001e-25,-1.84672e-25,-1.8476700000000001e-25,2.2191699999999999e-29,1.6021599999999999e-30,-2.34334e-29
1147.0,1.0445299999999999e-28,-1.84764e-25,-1.8467099999999999e-25,-1.8476299999999999e-25,1.22285e-29,2.1430999999999999e-30,-2.4763799999999999e-29
1148.0,1.14669e-28,-1.8478500000000001e-25,-1.84683e-25,-1.84791e-25,3.7279499999999999e-30,2.8327500000000001e-30,-2.5761800000000002e-29
1149.0,1.19925e-28,-1.8472600000000001e-25,-1.8465200000000001e-25,-1.8471700000000001e-25,4.8915099999999998e-29,-1.0456800000000001e-30,-2.7803699999999999e-29
1150.0,1.1839e-28,-1.84739e-25,-1.8465900000000001e-25,-1.8473e-25,4.4186e-29,-6.5489000000000004e-31,-2.87963e-29
1151.0,1.14814e-28,-1.84739e-25,-1.84656e-25,-1.84733e-25,3.7045699999999999e-29,4.70392e-31,-2.9462500000000001e-29
1152.0,1.14079e-28,-1.84757e-25,-1.8466899999999999e-25,-1.8475100000000001e-25,2.9772100000000003e-29,1.0767199999999999e-30,-3.1694099999999998e-29
1153.0,1.1085199999999999e-28,-1.84756e-25,-1.84666e-25,-1.8475200000000001e-25,2.0500299999999999e-29,2.19846e-30,-3.2843899999999997e-29
1154.0,1.1343399999999999e-28,-1.8477700000000001e-25,-1.84681e-25,-1.84775e-25,1.1517200000000001e-29,3.0212600000000001e-30,-3.4396099999999998e-29
1155.0,1.08711e-28,-1.84772e-25,-1.84681e-25,-1.8476700000000001e-25,7.5234900000000003e-31,3.1061600000000001e-30,-3.6507600000000002e-29
1156.0,1.2213e-28,-1.84732e-25,-1.8466000000000001e-25,-1.8471999999999999e-25,4.70657e-29,-1.07044e-30,-3.5829400000000001e-29
1157.0,1.1896899999999999e-28,-1.84732e-25,-1.84657e-25,-1.84722e-25,4.15256e-29,-1.13168e-31,-3.63496e-29
1158.0,1.18094e-28,-1.8474599999999999e-25,-1.84666e-25,-1.8473699999999999e-25,3.5531099999999998e-29,4.7763799999999999e-31,-3.8578999999999998e-29
1159.0,1.15779e-28,-1.84748e-25,-1.84664e-25,-1.84739e-25,2.7301699999999999e-29,1.7162399999999999e-30,-4.0073599999999999e-29
1160.0,1.16824e-28,-1.84766e-25,-1.8467899999999999e-25,-1.8475900000000001e-25,1.9460699999999999e-29,2.4453899999999998e-30,-4.2683299999999999e-29
1161.0,1.1531400000000001e-28,-1.84764e-25,-1.8467600000000001e-25,-1.84756e-25,9.8951400000000001e-30,3.5799699999999999e-30,-4.4272899999999998e-29
1162.0,1.2064999999999999e-28,-1.8478699999999999e-25,-1.8469599999999999e-25,-1.8478400000000001e-25,5.1238600000000003e-31,5.6603200000000001e-30,-4.6088999999999999e-29
1163.0,1.23957e-28,-1.8473e-25,-1.8466099999999999e-25,-1.84716e-25,4.4224200000000001e-29,-6.6941499999999999e-31,-4.3017199999999999e-29
1164.0,1.22361e-28,-1.8473799999999999e-25,-1.84666e-25,-1.8472500000000001e-25,3.94794e-29,-1.05799e-31,-4.4352699999999998e-29
1165.0,1.2072200000000001e-28,-1.8474200000000001e-25,-1.84666e-25,-1.8472899999999999e-25,3.2888e-29,9.5999899999999998e-31,-4.6162100000000001e-29
1166.0,1.2124300000000001e-28,-1.84756e-25,-1.8467700000000001e-25,-1.8474400000000001e-25,2.5901900000000001e-29,1.8462899999999999e-30,-4.9022299999999999e-29
1167.0,1.2069799999999999e-28,-1.84758e-25,-1.8467600000000001e-25,-1.8474599999999999e-25,1.7150499999999999e-29,3.2534899999999997e-30,-5.1010499999999995e-29
1168.0,1.2337699999999999e-28,-1.8477700000000001e-25,-1.8469300000000001e-25,-1.8476700000000001e-25,8.8601400000000004e-30,4.4416200000000003e-30,-5.3615100000000002e-29
1169.0,1.2472000000000001e-28,-1.8477099999999999e-25,-1.8468699999999999e-25,-1.8476000000000001e-25,-1.93968e-31,4.3746599999999997e-30,-5.5560099999999999e-29
1170.0,1.27158e-28,-1.8473500000000001e-25,-1.8466800000000001e-25,-1.8471800000000001e-25,4.19398e-29,-4.2343800000000001e-31,-4.9218799999999998e-29
1171.0,1.26096e-28,-1.8473799999999999e-25,-1.8466899999999999e-25,-1.84722e-25,3.7364799999999999e-29,2.22357e-31,-5.1052699999999996e-29
1172.0,1.2608899999999999e-28,-1.84749e-25,-1.8467700000000001e-25,-1.84733e-25,3.1010499999999999e-29,1.1808000000000001e-30,-5.3931999999999997e-29
1173.0,1.2628900000000001e-28,-1.84755e-25,-1.8468e-25,-1.8473799999999999e-25,2.3605600000000001e-29,2.5617299999999999e-30,-5.6510200000000001e-29
1174.0,1.28087e-28,-1.8476999999999999e-25,-1.8469300000000001e-25,-1.8475399999999999e-25,1.59021e-29,3.8783099999999998e-30,-5.9424299999999997e-29
1175.0,1.30019e-28,-1.8477099999999999e-25,-1.84691e-25,-1.8475399999999999e-25,7.0490499999999996e-30,4.9936400000000004e-30,-6.1699199999999994e-29
1176.0,1.3136400000000001e-28,-1.8479200000000001e-25,-1.84715e-25,-1.84775e-25,-1.69416e-30,7.4228200000000006e-30,-6.3706100000000001e-29
1177.0,1.1869700000000001e-28,-1.84749e-25,-1.84656e-25,-1.84739e-25,4.5636399999999998e-29,-2.8578799999999999e-30,-5.4525700000000002e-30
1178.0,1.24548e-28,-1.8477600000000001e-25,-1.8467099999999999e-25,-1.84764e-25,4.31569e-29,-1.5708599999999999e-31,-4.8854200000000003e-30
1179.0,1.1093800000000001e-28,-1.84765e-25,-1.8466999999999999e-25,-1.8476199999999999e-25,3.37125e-29,-1.65649e-30,-4.7993299999999997e-30
1180.0,1.2380099999999999e-28,-1.84797e-25,-1.8468e-25,-1.8478799999999999e-25,2.8579099999999999e-29,5.78252e-32,-5.9531899999999998e-30
1181.0,1.0763599999999999e-28,-1.8478699999999999e-25,-1.8468500000000001e-25,-1.84789e-25,1.7626499999999999e-29,7.9787100000000006e-31,-4.0054200000000001e-30
1182.0,1.1898599999999999e-28,-1.8480900000000001e-25,-1.8469200000000001e-25,-1.84808e-25,1.1045700000000001e-29,-5.1257000000000001e-31,-7.2257700000000002e-30
1183.0,1.1163599999999999e-28,-1.84808e-25,-1.84699e-25,-1.8481199999999999e-25,-2.5895199999999998e-30,5.2337399999999997e-30,-3.9837900000000001e-30
1184.0,1.2205900000000001e-28,-1.8476099999999999e-25,-1.8466700000000001e-25,-1.8475e-25,4.6654400000000001e-29,-1.0655700000000001e-30,-1.2814800000000001e-29
1185.0,1.1724300000000001e-28,-1.84758e-25,-1.84663e-25,-1.8475e-25,4.0502099999999999e-29,-9.4828900000000001e-31,-1.25026e-29
1186.0,1.20124e-28,-1.8478e-25,-1.8467500000000001e-25,-1.84772e-25,3.5257500000000002e-29,-9.5658599999999993e-33,-1.3025100000000001e-29
1187.0,1.12953e-28,-1.8477799999999999e-25,-1.8467600000000001e-25,-1.84774e-25,2.66112e-29,1.28918e-31,-1.3296000000000001e-29
1188.0,1.1858100000000001e-28,-1.848e-25,-1.8468699999999999e-25,-1.8479599999999999e-25,1.88645e-29,1.55171e-30,-1.4494800000000001e-29
1189.0,1.09609e-28,-1.84797e-25,-1.84691e-25,-1.84797e-25,8.1803000000000003e-30,1.8418800000000001e-30,-1.3946499999999999e-29
1190.0,1.2024099999999999e-28,-1.8481299999999999e-25,-1.84699e-25,-1.8481900000000001e-25,1.1121199999999999e-30,6.9370400000000004e-31,-1.6648799999999999e-29
1191.0,1.2050399999999999e-28,-1.8475100000000001e-25,-1.8466099999999999e-25,-1.84741e-25,4.50583e-29,-6.2544700000000001e-31,-1.9766099999999999e-29
1192.0,1.2061699999999999e-28,-1.84766e-25,-1.8467099999999999e-25,-1.84757e-25,4.0972400000000001e-29,-4.5917199999999999e-31,-2.03708e-29
1193.0,1.1716200000000001e-28,-1.8476700000000001e-25,-1.8466899999999999e-25,-1.8476000000000001e-25,3.3600799999999999e-29,3.2177999999999999e-31,-2.0746699999999999e-29
1194.0,1.17656e-28,-1.8478699999999999e-25,-1.84683e-25,-1.84782e-25,2.63325e-29,1.35707e-30,-2.19351e-29
1195.0,1.1371400000000001e-28,-1.8478699999999999e-25,-1.84683e-25,-1.8478400000000001e-25,1.7475799999999999e-29,1.49811e-30,-2.2838900000000001e-29
1196.0,1.1978499999999999e-28,-1.84807e-25,-1.8469599999999999e-25,-1.84806e-25,9.0225299999999999e-30,2.9522200000000001e-30,-2.44516e-29
1197.0,1.10651e-28,-1.84805e-25,-1.8470200000000001e-25,-1.8480200000000001e-25,-2.6579100000000001e-30,3.7744499999999998e-30,-2.40821e-29
1198.0,1.22296e-28,-1.84756e-25,-1.8466800000000001e-25,-1.8474400000000001e-25,4.44993e-29,-8.4241799999999996e-31,-2.7518099999999998e-29
1199.0,1.20301e-28,-1.84757e-25,-1.84666e-25,-1.84748e-25,3.9056900000000002e-29,2.7603599999999998e-31,-2.7776600000000002e-29
1200.0,1.18763e-28,-1.84773e-25,-1.8467799999999999e-25,-1.84765e-25,3.2854100000000002e-29,9.0345500000000001e-31,-2.8996199999999999e-29
1201.0,1.17608e-28,-1.8477600000000001e-25,-1.8467700000000001e-25,-1.8476900000000001e-25,2.4847500000000001e-29,1.6811400000000001e-30,-3.0201899999999999e-29
1202.0,1.18536e-28,-1.8479499999999999e-25,-1.8469200000000001e-25,-1.8479e-25,1.6680699999999999e-29,2.79796e-30,-3.1961100000000001e-29
1203.0,1.1536400000000001e-28,-1.8479499999999999e-25,-1.8469300000000001e-25,-1.84789e-25,7.5824999999999994e-30,2.9929499999999999e-30,-3.3061199999999999e-29
1204.0,1.27111e-28,-1.84815e-25,-1.84706e-25,-1.8481800000000001e-25,-7.0590000000000003e-31,4.2772899999999999e-30,-3.5702699999999999e-29
1205.0,1.23357e-28,-1.8475100000000001e-25,-1.8466700000000001e-25,-1.8473799999999999e-25,4.2391200000000001e-29,5.2439200000000003e-32,-3.4871700000000002e-29
1206.0,1.2158400000000001e-28,-1.8476099999999999e-25,-1.84674e-25,-1.84749e-25,3.7760699999999998e-29,4.1657000000000003e-31,-3.5566200000000001e-29
1207.0,1.2081600000000001e-28,-1.84766e-25,-1.84674e-25,-1.84755e-25,3.1054600000000002e-29,1.3995799999999999e-30,-3.6903299999999999e-29
1208.0,1.20267e-28,-1.84782e-25,-1.8468699999999999e-25,-1.84772e-25,2.3721800000000001e-29,2.23888e-30,-3.8968600000000003e-29
1209.0,1.20042e-28,-1.8478500000000001e-25,-1.8468699999999999e-25,-1.8477600000000001e-25,1.5385400000000001e-29,3.13606e-30,-4.0462799999999999e-29
1210.0,1.2441200000000001e-28,-1.8480399999999999e-25,-1.8470299999999999e-25,-1.84798e-25,6.9327500000000004e-30,4.2565900000000002e-30,-4.3046799999999999e-29
1211.0,1.18226e-28,-1.8480100000000001e-25,-1.84705e-25,-1.84791e-25,-2.4821999999999999e-30,4.0809200000000001e-30,-4.2779499999999998e-29
1212.0,1.2504600000000001e-28,-1.8475399999999999e-25,-1.84674e-25,-1.84739e-25,4.0569600000000001e-29,-1.9741000000000001e-32,-4.16048e-29
1213.0,1.24527e-28,-1.84758e-25,-1.84673e-25,-1.8474400000000001e-25,3.57986e-29,9.3245599999999998e-31,-4.2789000000000002e-29
1214.0,1.2353899999999999e-28,-1.8476999999999999e-25,-1.84683e-25,-1.84757e-25,2.9596199999999999e-29,1.5720299999999999e-30,-4.4721800000000002e-29
1215.0,1.2403500000000001e-28,-1.84775e-25,-1.8468400000000001e-25,-1.8476299999999999e-25,2.21739e-29,2.8906200000000002e-30,-4.6679600000000002e-29
1216.0,1.26002e-28,-1.8479200000000001e-25,-1.84698e-25,-1.84781e-25,1.4519699999999999e-29,3.62691e-30,-4.9392900000000002e-29
1217.0,1.2519099999999999e-28,-1.8479300000000001e-25,-1.84699e-25,-1.84781e-25,5.99357e-30,4.7217799999999998e-30,-5.0405500000000002e-29
1218.0,1.34328e-28,-1.84814e-25,-1.84716e-25,-1.84808e-25,-2.7632100000000001e-30,7.3099999999999995e-30,-5.4419299999999998e-29
1219.0,1.2831200000000001e-28,-1.84755e-25,-1.8467600000000001e-25,-1.8473699999999999e-25,3.8736600000000002e-29,2.9766299999999999e-31,-4.7642400000000001e-29
1220.0,1.2713700000000001e-28,-1.8476199999999999e-25,-1.84681e-25,-1.8474599999999999e-25,3.3820900000000001e-29,9.5070400000000008e-31,-4.91432e-29
1221.0,1.2805100000000001e-28,-1.8476999999999999e-25,-1.8468500000000001e-25,-1.8475299999999999e-25,2.8148199999999997e-29,2.25197e-30,-5.1435499999999995e-29
1222.0,1.29054e-28,-1.84783e-25,-1.8469599999999999e-25,-1.8476700000000001e-25,2.0964300000000001e-29,2.93999e-30,-5.4209999999999996e-29
1223.0,1.3026699999999999e-28,-1.8478799999999999e-25,-1.84698e-25,-1.84772e-25,1.3059500000000001e-29,4.7428300000000002e-30,-5.6139899999999996e-29
1224.0,1.3409100000000001e-28,-1.84806e-25,-1.84714e-25,-1.84791e-25,5.2847099999999998e-30,5.7316899999999999e-30,-5.92343e-29
1225.0,1.34635e-28,-1.8480200000000001e-25,-1.8471099999999999e-25,-1.8478699999999999e-25,-3.2224700000000003e-30,5.2538e-30,-6.0136699999999999e-29
1226.0,1.29689e-28,-1.8478799999999999e-25,-1.8467600000000001e-25,-1.84772e-25,4.3757199999999997e-29,5.2721800000000002e-32,-5.7037300000000003e-30
1227.0,1.1358600000000001e-28,-1.8477799999999999e-25,-1.8467700000000001e-25,-1.8477099999999999e-25,3.3187099999999999e-29,-2.1944100000000001e-30,-5.50146e-30
1228.0,1.3179200000000001e-28,-1.8481299999999999e-25,-1.8468699999999999e-25,-1.84798e-25,3.1995300000000001e-29,-7.4362499999999997e-31,-6.2871099999999997e-30
1229.0,1.1524499999999999e-28,-1.84805e-25,-1.8469499999999999e-25,-1.8480299999999999e-25,2.0390299999999999e-29,-1.7981099999999999e-31,-4.7939599999999997e-30
1230.0,1.2956699999999999e-28,-1.8483400000000001e-25,-1.8470399999999999e-25,-1.8482600000000001e-25,1.51238e-29,-4.5260800000000002e-31,-7.2302699999999996e-30
1231.0,1.19781e-28,-1.84831e-25,-1.8471199999999999e-25,-1.84831e-25,3.6628699999999998e-30,2.10533e-30,-4.6928500000000001e-30
1232.0,1.2667e-28,-1.8484400000000001e-25,-1.8471900000000001e-25,-1.8484599999999999e-25,-2.681e-30,-1.8548599999999998e-30,-7.6028900000000005e-30
1233.0,1.2001600000000001e-28,-1.8477099999999999e-25,-1.8466999999999999e-25,-1.8476000000000001e-25,3.9737299999999997e-29,-1.1337599999999999e-30,-1.28196e-29
1234.0,1.2577799999999999e-28,-1.8479200000000001e-25,-1.84681e-25,-1.8478e-25,3.73866e-29,-5.9474999999999999e-31,-1.31241e-29
1235.0,1.19584e-28,-1.8479400000000001e-25,-1.8468400000000001e-25,-1.8478599999999999e-25,2.87901e-29,-4.5137699999999996e-31,-1.3328299999999999e-29
1236.0,1.25966e-28,-1.8481700000000001e-25,-1.8469599999999999e-25,-1.8480900000000001e-25,2.2692200000000001e-29,8.4938700000000007e-31,-1.4220599999999999e-29
1237.0,1.1987000000000001e-28,-1.8481800000000001e-25,-1.8470200000000001e-25,-1.84815e-25,1.3131600000000001e-29,8.0737900000000005e-31,-1.41309e-29
1238.0,1.27466e-28,-1.8483699999999999e-25,-1.8471199999999999e-25,-1.8483500000000001e-25,5.9920999999999999e-30,1.4368000000000001e-30,-1.6037399999999999e-29
1239.0,1.21641e-28,-1.8484e-25,-1.8471999999999999e-25,-1.8483799999999999e-25,-5.7185899999999999e-30,3.7856699999999999e-30,-1.4447099999999999e-29
1240.0,1.24582e-28,-1.8477799999999999e-25,-1.8467700000000001e-25,-1.84765e-25,4.1365100000000002e-29,-8.7584799999999997e-31,-2.03431e-29
1241.0,1.2228500000000001e-28,-1.84781e-25,-1.8467700000000001e-25,-1.8477099999999999e-25,3.53741e-29,-1.39773e-31,-2.0452600000000001e-29
1242.0,1.23551e-28,-1.8480100000000001e-25,-1.8469e-25,-1.84791e-25,2.94032e-29,8.1634999999999993e-31,-2.1157799999999999e-29
1243.0,1.22078e-28,-1.84806e-25,-1.8469200000000001e-25,-1.84799e-25,2.13463e-29,9.3064600000000001e-31,-2.2048900000000001e-29
1244.0,1.2584299999999999e-28,-1.8482600000000001e-25,-1.84706e-25,-1.8481999999999999e-25,1.36458e-29,2.4878700000000001e-30,-2.3356900000000001e-29
1245.0,1.2148399999999999e-28,-1.8482700000000001e-25,-1.8471099999999999e-25,-1.84823e-25,4.1954800000000003e-30,2.3668700000000002e-30,-2.3497600000000001e-29
1246.0,1.3282000000000001e-28,-1.8484499999999999e-25,-1.84722e-25,-1.84848e-25,-3.02824e-30,2.40475e-30,-2.6039900000000002e-29
1247.0,1.2448699999999999e-28,-1.84772e-25,-1.84674e-25,-1.8475900000000001e-25,3.9745e-29,1.96888e-31,-2.7427499999999998e-29
1248.0,1.23436e-28,-1.8478500000000001e-25,-1.84683e-25,-1.84773e-25,3.5056200000000001e-29,5.2127800000000001e-31,-2.7911500000000001e-29
1249.0,1.2393700000000001e-28,-1.8479200000000001e-25,-1.8468500000000001e-25,-1.84782e-25,2.8284599999999999e-29,1.0461900000000001e-30,-2.8941900000000003e-29
1250.0,1.2417900000000001e-28,-1.8481000000000001e-25,-1.8470000000000001e-25,-1.8480200000000001e-25,2.0808799999999999e-29,2.3993e-30,-3.0201199999999998e-29
1251.0,1.2414499999999999e-28,-1.84815e-25,-1.8470200000000001e-25,-1.84808e-25,1.27141e-29,2.4622399999999999e-30,-3.1460300000000002e-29
1252.0,1.2978000000000001e-28,-1.8483400000000001e-25,-1.84716e-25,-1.8483e-25,4.5386200000000003e-30,3.9631000000000003e-30,-3.3577600000000001e-29
1253.0,1.2180999999999999e-28,-1.8483400000000001e-25,-1.84723e-25,-1.8482600000000001e-25,-5.48938e-30,4.54472e-30,-3.2567099999999999e-29
1254.0,1.25e-28,-1.84773e-25,-1.8468e-25,-1.8475900000000001e-25,3.8707000000000002e-29,1.4930800000000001e-31,-3.44595e-29
1255.0,1.2554799999999999e-28,-1.8477899999999999e-25,-1.84681e-25,-1.84766e-25,3.3889599999999999e-29,8.5768199999999994e-31,-3.5223499999999999e-29
1256.0,1.24303e-28,-1.8479400000000001e-25,-1.8469300000000001e-25,-1.84782e-25,2.7219400000000003e-29,2.0497299999999999e-30,-3.6354999999999998e-29
1257.0,1.2597e-28,-1.8480200000000001e-25,-1.8469499999999999e-25,-1.84791e-25,1.9975799999999999e-29,2.5262900000000001e-30,-3.8080200000000002e-29
1258.0,1.27815e-28,-1.8481900000000001e-25,-1.8471000000000001e-25,-1.8481000000000001e-25,1.2015499999999999e-29,3.8237200000000001e-30,-4.01284e-29
1259.0,1.26115e-28,-1.84822e-25,-1.8471299999999999e-25,-1.8481199999999999e-25,3.70427e-30,4.1616100000000002e-30,-4.0821599999999997e-29
1260.0,1.39896e-28,-1.8484200000000001e-25,-1.8472600000000001e-25,-1.8484e-25,-3.9929199999999998e-30,5.21554e-30,-4.53649e-29
1261.0,1.2840399999999999e-28,-1.84772e-25,-1.8468e-25,-1.84755e-25,3.7540899999999999e-29,5.9145999999999998e-31,-4.1432599999999999e-29
1262.0,1.2583000000000001e-28,-1.8478e-25,-1.8468699999999999e-25,-1.84765e-25,3.2376199999999998e-29,1.4336899999999999e-30,-4.18076e-29
1263.0,1.27858e-28,-1.84789e-25,-1.8469e-25,-1.84775e-25,2.6316800000000002e-29,2.1252600000000001e-30,-4.3750300000000002e-29
1264.0,1.2820999999999999e-28,-1.8480399999999999e-25,-1.8470299999999999e-25,-1.8479e-25,1.91312e-29,3.1820700000000002e-30,-4.5765199999999998e-29
1265.0,1.2950200000000001e-28,-1.8481000000000001e-25,-1.84706e-25,-1.84797e-25,1.13463e-29,4.18162e-30,-4.7427399999999999e-29
1266.0,1.3567400000000001e-28,-1.8482799999999999e-25,-1.8471999999999999e-25,-1.8481800000000001e-25,3.40896e-30,5.1960600000000001e-30,-5.0780999999999997e-29
1267.0,1.27353e-28,-1.8482700000000001e-25,-1.8472500000000001e-25,-1.8481199999999999e-25,-4.9983600000000003e-30,5.1830199999999999e-30,-4.8599499999999999e-29
1268.0,1.2763599999999999e-28,-1.8477099999999999e-25,-1.8468400000000001e-25,-1.8475299999999999e-25,3.5146999999999997e-29,1.4966200000000001e-30,-4.5600400000000002e-29
1269.0,1.3061400000000001e-28,-1.8477899999999999e-25,-1.84688e-25,-1.8476199999999999e-25,3.1984400000000001e-29,1.4393899999999999e-30,-4.8044700000000001e-29
1270.0,1.29605e-28,-1.8479e-25,-1.84697e-25,-1.84774e-25,2.5242999999999999e-29,2.3227299999999999e-30,-4.9682300000000001e-29
1271.0,1.3188900000000001e-28,-1.84799e-25,-1.8470100000000001e-25,-1.84783e-25,1.84762e-29,3.9243099999999997e-30,-5.1940199999999999e-29
1272.0,1.35076e-28,-1.84814e-25,-1.84714e-25,-1.84799e-25,1.1020499999999999e-29,4.4431600000000002e-30,-5.4979399999999998e-29
1273.0,1.3405399999999999e-28,-1.8481800000000001e-25,-1.8471800000000001e-25,-1.8480200000000001e-25,3.0541400000000001e-30,5.7148100000000003e-30,-5.5210399999999995e-29
1274.0,1.4589099999999999e-28,-1.8483699999999999e-25,-1.84733e-25,-1.8482700000000001e-25,-4.9208700000000001e-30,8.6807e-30,-6.0875500000000002e-29
1275.0,1.33885e-28,-1.8463500000000001e-25,-1.8462899999999999e-25,-1.84616e-25,3.7961199999999997e-30,-1.02573e-29,7.5944000000000005e-29
1276.0,1.33331e-28,-1.8465900000000001e-25,-1.8466000000000001e-25,-1.84638e-25,-3.3027799999999999e-30,-1.3436200000000001e-29,7.4711199999999996e-29
1277.0,1.2990799999999999e-28,-1.8468699999999999e-25,-1.8466999999999999e-25,-1.84665e-25,1.49057e-32,-8.07785e-30,7.3632699999999997e-29
1278.0,1.3993800000000001e-28,-1.8466700000000001e-25,-1.8464499999999999e-25,-1.8465399999999999e-25,-1.8154999999999999e-30,-1.7132100000000001e-29,7.8176400000000004e-29
1279.0,1.3582300000000001e-28,-1.8469499999999999e-25,-1.8465100000000001e-25,-1.84683e-25,-1.17552e-30,-1.10096e-29,7.4203600000000002e-29
1280.0,1.32365e-28,-1.8471700000000001e-25,-1.8468e-25,-1.8470299999999999e-25,-3.6536499999999998e-30,-1.50161e-29,7.2464800000000004e-29
1281.0,1.28024e-28,-1.8474599999999999e-25,-1.8469200000000001e-25,-1.8473e-25,-3.16333e-30,-1.07379e-29,6.7522599999999995e-29
1282.0,1.4865099999999999e-28,-1.8473e-25,-1.8466899999999999e-25,-1.84724e-25,-5.6835199999999999e-30,-1.7304899999999999e-29,7.6945400000000002e-29
1283.0,1.40318e-28,-1.84757e-25,-1.8468e-25,-1.8475e-25,-5.1615899999999997e-30,-1.13701e-29,6.7728799999999995e-29
1284.0,1.36272e-28,-1.8477600000000001e-25,-1.84706e-25,-1.84766e-25,-6.8374799999999996e-30,-1.5066199999999999e-29,6.6872100000000003e-29
1285.0,1.3454599999999999e-28,-1.848e-25,-1.84714e-25,-1.8478799999999999e-25,-7.1217399999999995e-30,-1.2580599999999999e-29,6.0552100000000005e-29
1286.0,1.58946e-28,-1.8479400000000001e-25,-1.84697e-25,-1.8479400000000001e-25,-1.00191e-29,-1.5864399999999999e-29,7.0590200000000005e-29
1287.0,1.4826300000000001e-28,-1.8481199999999999e-25,-1.8470900000000001e-25,-1.8480900000000001e-25,-8.2585900000000006e-30,-1.1114799999999999e-29,6.0799600000000001e-29
1288.0,1.428e-28,-1.8482700000000001e-25,-1.8473e-25,-1.84815e-25,-9.98023e-30,-1.48343e-29,6.0675600000000003e-29
1289.0,1.30754e-28,-1.8464599999999999e-25,-1.8464399999999999e-25,-1.84623e-25,7.8072e-30,-4.9306200000000001e-30,7.38267e-29
1290.0,1.3322800000000001e-28,-1.84633e-25,-1.84631e-25,-1.84615e-25,1.07057e-29,-1.4655800000000001e-29,7.4090500000000005e-29
1291.0,1.2974700000000001e-28,-1.8466099999999999e-25,-1.8463599999999999e-25,-1.8464399999999999e-25,1.01001e-29,-7.2390400000000001e-30,7.2721700000000004e-29
1292.0,1.31124e-28,-1.8467700000000001e-25,-1.8465399999999999e-25,-1.8466199999999999e-25,7.6235299999999998e-30,-1.3766199999999999e-29,7.3111800000000002e-29
1293.0,1.2661400000000001e-28,-1.84705e-25,-1.84664e-25,-1.84688e-25,7.9088600000000001e-30,-8.5010899999999997e-30,6.91732e-29
1294.0,1.3727800000000001e-28,-1.8469599999999999e-25,-1.8465200000000001e-25,-1.8468599999999999e-25,6.0969200000000001e-30,-1.4291700000000001e-29,7.4231599999999998e-29
1295.0,1.3077e-28,-1.84723e-25,-1.8466199999999999e-25,-1.8471000000000001e-25,5.9630599999999999e-30,-9.1760799999999998e-30,6.7635500000000002e-29
1296.0,1.3564300000000001e-28,-1.8473699999999999e-25,-1.8467700000000001e-25,-1.8472700000000001e-25,4.1317300000000003e-30,-1.4411999999999999e-29,6.9993700000000006e-29
1297.0,1.29641e-28,-1.8476199999999999e-25,-1.84688e-25,-1.84749e-25,3.6532100000000002e-30,-1.02213e-29,6.2590000000000002e-29
1298.0,1.4483700000000001e-28,-1.8475900000000001e-25,-1.84681e-25,-1.8475299999999999e-25,1.63636e-30,-1.4147899999999999e-29,6.9838399999999997e-29
1299.0,1.3600300000000001e-28,-1.8478e-25,-1.8469e-25,-1.8477099999999999e-25,1.3160199999999999e-30,-1.03218e-29,6.0199200000000003e-29
1300.0,1.4213799999999999e-28,-1.8479400000000001e-25,-1.84705e-25,-1.8478599999999999e-25,-3.4329599999999999e-31,-1.3900099999999999e-29,6.4115800000000001e-29
1301.0,1.3627699999999999e-28,-1.84808e-25,-1.8470900000000001e-25,-1.84798e-25,-6.4304099999999998e-32,-1.07711e-29,5.5712600000000002e-29
1302.0,1.51e-28,-1.8481700000000001e-25,-1.8470900000000001e-25,-1.8481299999999999e-25,-2.4885300000000001e-30,-1.3077299999999999e-29,6.0871199999999999e-29
1303.0,1.2884699999999999e-28,-1.8462500000000001e-25,-1.8461999999999999e-25,-1.84607e-25,2.2024199999999999e-29,-4.4950300000000001e-30,7.0246199999999995e-29
1304.0,1.2886900000000001e-28,-1.8463400000000001e-25,-1.84632e-25,-1.8461800000000001e-25,1.4438199999999999e-29,-1.07657e-29,7.1637499999999999e-29
1305.0,1.25349e-28,-1.8466700000000001e-25,-1.8464300000000001e-25,-1.84648e-25,1.8363599999999999e-29,-5.2155899999999998e-30,6.86917e-29
1306.0,1.30814e-28,-1.84656e-25,-1.84632e-25,-1.8464399999999999e-25,1.7346400000000001e-29,-1.12537e-29,7.1639900000000001e-29
1307.0,1.2627100000000001e-28,-1.8468599999999999e-25,-1.8464399999999999e-25,-1.8467099999999999e-25,1.6925300000000001e-29,-6.0661099999999998e-30,6.7269700000000002e-29
1308.0,1.31384e-28,-1.8469599999999999e-25,-1.8465299999999999e-25,-1.8468500000000001e-25,1.5229000000000001e-29,-1.2118499999999999e-29,6.9841099999999995e-29
1309.0,1.25557e-28,-1.84724e-25,-1.84665e-25,-1.8471000000000001e-25,1.46688e-29,-7.8846800000000002e-30,6.3576800000000001e-29
1310.0,1.3634199999999999e-28,-1.8472099999999999e-25,-1.8466000000000001e-25,-1.8471199999999999e-25,1.3171200000000001e-29,-1.20727e-29,6.9150100000000003e-29
1311.0,1.2869899999999999e-28,-1.8474499999999999e-25,-1.8467099999999999e-25,-1.84733e-25,1.23013e-29,-8.25269e-30,6.0902900000000003e-29
1312.0,1.37579e-28,-1.84756e-25,-1.8468e-25,-1.84747e-25,1.0434599999999999e-29,-1.23754e-29,6.56695e-29
1313.0,1.3049499999999999e-28,-1.8477600000000001e-25,-1.84689e-25,-1.84765e-25,9.7501699999999994e-30,-8.9217900000000001e-30,5.6870999999999997e-29
1314.0,1.42456e-28,-1.84781e-25,-1.84689e-25,-1.84773e-25,8.2514600000000002e-30,-1.19763e-29,6.2756600000000004e-29
1315.0,1.3453500000000001e-28,-1.8479400000000001e-25,-1.8469499999999999e-25,-1.8478500000000001e-25,7.7572599999999998e-30,-9.3511600000000001e-30,5.36166e-29
1316.0,1.4334599999999999e-28,-1.84807e-25,-1.8470399999999999e-25,-1.84799e-25,5.6309200000000003e-30,-1.1337000000000001e-29,5.8403000000000001e-29
1317.0,1.24483e-28,-1.84631e-25,-1.8462600000000001e-25,-1.8461199999999999e-25,2.4642600000000001e-29,-1.7552699999999999e-30,6.6717300000000005e-29
1318.0,1.2887799999999999e-28,-1.8461700000000001e-25,-1.84616e-25,-1.84605e-25,2.81302e-29,-9.1449500000000001e-30,6.7958600000000002e-29
1319.0,1.2505699999999999e-28,-1.8465000000000001e-25,-1.8462700000000001e-25,-1.8463400000000001e-25,2.7117900000000002e-29,-3.2306499999999998e-30,6.5712900000000001e-29
1320.0,1.2783800000000001e-28,-1.84656e-25,-1.8463400000000001e-25,-1.8464399999999999e-25,2.4706799999999999e-29,-9.7066700000000003e-30,6.7988200000000002e-29
1321.0,1.2319899999999999e-28,-1.8468599999999999e-25,-1.8464499999999999e-25,-1.8467099999999999e-25,2.5347099999999997e-29,-5.1292099999999997e-30,6.2932399999999996e-29
1322.0,1.30505e-28,-1.84681e-25,-1.8464e-25,-1.84672e-25,2.3828199999999999e-29,-9.8098899999999995e-30,6.7366799999999999e-29
1323.0,1.24484e-28,-1.8470900000000001e-25,-1.8465100000000001e-25,-1.8469499999999999e-25,2.30428e-29,-5.7726499999999998e-30,6.0835500000000001e-29
1324.0,1.32184e-28,-1.8471700000000001e-25,-1.84658e-25,-1.84707e-25,2.1130400000000001e-29,-1.0482899999999999e-29,6.52957e-29
1325.0,1.2559799999999999e-28,-1.8474e-25,-1.8466800000000001e-25,-1.8472799999999999e-25,2.01693e-29,-7.0084099999999998e-30,5.7566800000000003e-29
1326.0,1.3565499999999999e-28,-1.8474300000000001e-25,-1.8466800000000001e-25,-1.8473400000000001e-25,1.8992899999999999e-29,-1.0572e-29,6.3026999999999996e-29
1327.0,1.2834099999999999e-28,-1.8476199999999999e-25,-1.8467600000000001e-25,-1.8475e-25,1.7905600000000001e-29,-7.6997400000000003e-30,5.4193400000000001e-29
1328.0,1.3777799999999999e-28,-1.84772e-25,-1.8468400000000001e-25,-1.84764e-25,1.56603e-29,-1.0348700000000001e-29,5.9798799999999999e-29
1329.0,1.3090499999999999e-28,-1.8478400000000001e-25,-1.84688e-25,-1.84774e-25,1.5361299999999999e-29,-7.6926200000000006e-30,5.1364500000000003e-29
1330.0,1.40398e-28,-1.8479499999999999e-25,-1.8469300000000001e-25,-1.8478599999999999e-25,1.4068e-29,-1.03714e-29,5.5500899999999999e-29
1331.0,1.25588e-28,-1.84615e-25,-1.8461199999999999e-25,-1.8460200000000001e-25,3.7999599999999999e-29,-1.5391399999999999e-30,6.1325000000000002e-29
1332.0,1.2569399999999999e-28,-1.8461999999999999e-25,-1.8461800000000001e-25,-1.8460900000000001e-25,3.0387300000000001e-29,-6.2612e-30,6.5371399999999999e-29
1333.0,1.2237100000000001e-28,-1.8465200000000001e-25,-1.8463e-25,-1.8463699999999999e-25,3.4199499999999998e-29,-2.64183e-30,6.0746400000000005e-29
1334.0,1.2735899999999999e-28,-1.8464300000000001e-25,-1.84624e-25,-1.8463599999999999e-25,3.3163099999999999e-29,-6.7521900000000005e-30,6.4520800000000005e-29
1335.0,1.2293499999999999e-28,-1.84674e-25,-1.8463500000000001e-25,-1.8466000000000001e-25,3.2824400000000002e-29,-3.3172900000000002e-30,5.9661799999999996e-29
1336.0,1.2753999999999999e-28,-1.8467799999999999e-25,-1.84639e-25,-1.8466999999999999e-25,3.0927500000000001e-29,-8.0006500000000001e-30,6.3175600000000001e-29
1337.0,1.2279099999999999e-28,-1.84705e-25,-1.8465000000000001e-25,-1.8469200000000001e-25,3.0463299999999997e-29,-4.9319300000000002e-30,5.6930800000000002e-29
1338.0,1.30032e-28,-1.84705e-25,-1.84649e-25,-1.8469599999999999e-25,2.9209600000000002e-29,-8.4388900000000002e-30,6.16285e-29
1339.0,1.24234e-28,-1.8472799999999999e-25,-1.8465900000000001e-25,-1.84716e-25,2.8053099999999998e-29,-5.7076200000000002e-30,5.4245899999999996e-29
1340.0,1.3231200000000001e-28,-1.8473500000000001e-25,-1.84664e-25,-1.8472700000000001e-25,2.5821299999999999e-29,-8.8213900000000004e-30,5.9569000000000003e-29
1341.0,1.25969e-28,-1.8475399999999999e-25,-1.84672e-25,-1.8474300000000001e-25,2.4569700000000001e-29,-6.3275099999999999e-30,5.1500300000000004e-29
1342.0,1.34766e-28,-1.8476000000000001e-25,-1.84674e-25,-1.8475100000000001e-25,2.38046e-29,-9.0987400000000004e-30,5.6385200000000005e-29
1343.0,1.2819499999999999e-28,-1.84773e-25,-1.8467899999999999e-25,-1.8476099999999999e-25,2.2840199999999999e-29,-7.1242099999999997e-30,4.8118300000000002e-29
1344.0,1.3674e-28,-1.8478400000000001e-25,-1.8468500000000001e-25,-1.84774e-25,2.0525399999999999e-29,-8.3844100000000006e-30,5.3004399999999997e-29
1345.0,1.2244699999999999e-28,-1.84622e-25,-1.8461999999999999e-25,-1.8460900000000001e-25,3.8685900000000002e-29,3.2730599999999998e-31,5.8693399999999999e-29
1346.0,1.2649e-28,-1.84608e-25,-1.8461199999999999e-25,-1.84605e-25,4.2869900000000002e-29,-4.1512100000000002e-30,5.8874000000000004e-29
1347.0,1.2274099999999999e-28,-1.8464200000000001e-25,-1.84623e-25,-1.8463e-25,4.1050199999999998e-29,-9.8672899999999994e-31,5.6926700000000001e-29
1348.0,1.24725e-28,-1.8464300000000001e-25,-1.8462600000000001e-25,-1.84638e-25,3.89102e-29,-5.0409199999999998e-30,5.9765700000000004e-29
1349.0,1.2189199999999999e-28,-1.84673e-25,-1.8463599999999999e-25,-1.8466099999999999e-25,3.9296399999999999e-29,-2.8590699999999998e-30,5.5135199999999995e-29
1350.0,1.2646900000000001e-28,-1.8466999999999999e-25,-1.8463400000000001e-25,-1.84664e-25,3.81262e-29,-5.6847399999999997e-30,5.9049499999999999e-29
1351.0,1.2238700000000001e-28,-1.84697e-25,-1.8464399999999999e-25,-1.8468400000000001e-25,3.7109300000000002e-29,-3.6343199999999999e-30,5.3318200000000001e-29
1352.0,1.2755599999999999e-28,-1.8470000000000001e-25,-1.84647e-25,-1.8469300000000001e-25,3.5272900000000003e-29,-6.6063699999999999e-30,5.7582899999999999e-29
1353.0,1.2344399999999999e-28,-1.84723e-25,-1.84656e-25,-1.8471199999999999e-25,3.4020599999999998e-29,-4.6917900000000003e-30,5.1141499999999995e-29
1354.0,1.29919e-28,-1.8472600000000001e-25,-1.84657e-25,-1.8471800000000001e-25,3.32499e-29,-7.3637800000000005e-30,5.5271199999999999e-29
1355.0,1.24773e-28,-1.8474499999999999e-25,-1.84665e-25,-1.84733e-25,3.1568500000000001e-29,-5.3883899999999999e-30,4.82378e-29
1356.0,1.32219e-28,-1.8475100000000001e-25,-1.8466899999999999e-25,-1.8474300000000001e-25,2.9496100000000001e-29,-7.4623199999999996e-30,5.34434e-29
1357.0,1.2594099999999999e-28,-1.8476199999999999e-25,-1.84673e-25,-1.8475100000000001e-25,2.8049500000000002e-29,-5.5882599999999997e-30,4.5978e-29
1358.0,1.32887e-28,-1.84773e-25,-1.8467899999999999e-25,-1.8476199999999999e-25,2.75023e-29,-7.6572e-30,4.9609900000000001e-29
1359.0,1.2432299999999999e-28,-1.8461199999999999e-25,-1.84614e-25,-1.84607e-25,4.9753199999999998e-29,-2.47046e-31,5.1616500000000004e-29
1360.0,1.2452099999999999e-28,-1.84615e-25,-1.8461700000000001e-25,-1.8461000000000001e-25,4.3276899999999998e-29,-1.5010600000000001e-30,5.7272499999999995e-29
1361.0,1.2181400000000001e-28,-1.8464300000000001e-25,-1.8462500000000001e-25,-1.8463400000000001e-25,4.5725399999999999e-29,-9.1109499999999999e-31,5.2650199999999999e-29
1362.0,1.2494e-28,-1.84639e-25,-1.8462500000000001e-25,-1.8463699999999999e-25,4.59956e-29,-2.5740200000000001e-30,5.4990200000000003e-29
1363.0,1.2192800000000001e-28,-1.8466800000000001e-25,-1.84633e-25,-1.84657e-25,4.43221e-29,-1.6894899999999999e-30,5.1723500000000003e-29
1364.0,1.24119e-28,-1.8466700000000001e-25,-1.8463500000000001e-25,-1.84664e-25,4.3398700000000002e-29,-3.70946e-30,5.4097300000000003e-29
1365.0,1.22133e-28,-1.8469399999999999e-25,-1.8464300000000001e-25,-1.84683e-25,4.1769600000000002e-29,-3.0385199999999998e-30,4.9923500000000003e-29
1366.0,1.2577899999999999e-28,-1.8469499999999999e-25,-1.8464499999999999e-25,-1.84689e-25,4.16053e-29,-4.7976700000000003e-30,5.25517e-29
1367.0,1.2352600000000001e-28,-1.8471800000000001e-25,-1.8465200000000001e-25,-1.84706e-25,3.9601099999999997e-29,-3.9518299999999997e-30,4.7797099999999998e-29
1368.0,1.2801299999999999e-28,-1.8472099999999999e-25,-1.8465399999999999e-25,-1.84714e-25,3.8127099999999998e-29,-5.6484999999999997e-30,5.1545700000000003e-29
1369.0,1.2417e-28,-1.84739e-25,-1.8466199999999999e-25,-1.8472799999999999e-25,3.5561600000000001e-29,-4.3165000000000001e-30,4.6133799999999997e-29
1370.0,1.30084e-28,-1.8474400000000001e-25,-1.84664e-25,-1.8473500000000001e-25,3.6089499999999998e-29,-6.0674900000000003e-30,4.90007e-29
1371.0,1.24544e-28,-1.84757e-25,-1.8466999999999999e-25,-1.8474400000000001e-25,3.3511100000000003e-29,-5.0925799999999999e-30,4.3096399999999999e-29
1372.0,1.30686e-28,-1.8476199999999999e-25,-1.84673e-25,-1.8475399999999999e-25,3.2072200000000001e-29,-5.7085799999999997e-30,4.7270099999999998e-29
1373.0,1.2655000000000001e-28,-1.8484400000000001e-25,-1.8471900000000001e-25,-1.8484599999999999e-25,-2.8252700000000002e-30,2.9892100000000001e-30,4.4727999999999998e-30
1374.0,1.1067599999999999e-28,-1.84808e-25,-1.84698e-25,-1.8481000000000001e-25,-2.4736599999999998e-30,-2.96608e-30,1.8460499999999998e-30
1375.0,1.0699799999999999e-28,-1.8477899999999999e-25,-1.8467600000000001e-25,-1.8478400000000001e-25,6.1289500000000001e-30,4.8192699999999998e-30,6.8052500000000004e-30
1376.0,8.7580200000000003e-29,-1.84739e-25,-1.8465399999999999e-25,-1.8474200000000001e-25,5.3358300000000001e-30,-2.99537e-30,4.0940200000000001e-30
1377.0,8.8364299999999998e-29,-1.84716e-25,-1.8463400000000001e-25,-1.8472099999999999e-25,1.30831e-29,5.12107e-30,7.5615200000000002e-30
1378.0,6.2906899999999997e-29,-1.8466000000000001e-25,-1.8461000000000001e-25,-1.8466199999999999e-25,1.7841899999999999e-29,-1.0613700000000001e-30,1.14425e-29
1379.0,6.5701000000000001e-29,-1.84673e-25,-1.84657e-25,-1.84682e-25,-1.6134400000000001e-29,-1.11016e-29,-2.9902699999999998e-29
1380.0,1.2032199999999999e-28,-1.8483799999999999e-25,-1.8471900000000001e-25,-1.8483599999999999e-25,-6.0486e-30,-2.8291899999999999e-30,1.11114e-29
1381.0,1.18817e-28,-1.8481099999999999e-25,-1.84698e-25,-1.84816e-25,1.1110699999999999e-30,1.2486700000000001e-30,1.44469e-29
1382.0,9.7103899999999999e-29,-1.84772e-25,-1.8467700000000001e-25,-1.8476999999999999e-25,1.2659500000000001e-30,-1.37591e-30,1.3812599999999999e-29
1383.0,1.0054100000000001e-28,-1.84749e-25,-1.84657e-25,-1.84755e-25,9.4908399999999998e-30,1.8796300000000001e-30,1.6153599999999999e-29
1384.0,8.1855500000000003e-29,-1.84699e-25,-1.8462799999999999e-25,-1.8469599999999999e-25,1.10164e-29,6.1379199999999998e-31,2.2065799999999999e-29
1385.0,7.1755100000000001e-29,-1.84689e-25,-1.8462500000000001e-25,-1.84699e-25,9.8328199999999997e-30,-1.06291e-30,3.9847199999999997e-30
1386.0,1.44599e-28,-1.84608e-25,-1.8451899999999999e-25,-1.8462700000000001e-25,4.3566499999999999e-29,1.6142700000000001e-30,4.1716799999999998e-29
1387.0,1.31403e-28,-1.8484200000000001e-25,-1.8471800000000001e-25,-1.8484499999999999e-25,-3.6950100000000001e-30,-1.7777000000000001e-30,2.2606299999999999e-29
1388.0,1.0777400000000001e-28,-1.8480100000000001e-25,-1.84698e-25,-1.84797e-25,-2.4787799999999998e-30,-2.1681300000000001e-30,2.1705399999999999e-29
1389.0,1.11369e-28,-1.84781e-25,-1.8468e-25,-1.8478500000000001e-25,4.2071799999999998e-30,-5.6109200000000004e-31,2.4763100000000001e-29
1390.0,9.4746500000000003e-29,-1.84733e-25,-1.8465200000000001e-25,-1.8472899999999999e-25,5.7363100000000002e-30,3.1202700000000001e-31,2.9713400000000003e-29
1391.0,8.8451800000000001e-29,-1.8471999999999999e-25,-1.8464499999999999e-25,-1.84723e-25,1.01193e-29,-9.3264500000000003e-32,2.3441200000000001e-29
1392.0,1.16267e-28,-1.84657e-25,-1.84583e-25,-1.8466099999999999e-25,2.06605e-29,2.06531e-30,4.6475299999999999e-29
1393.0,7.23948e-29,-1.8465399999999999e-25,-1.8461700000000001e-25,-1.8464e-25,8.1615999999999999e-30,6.5871300000000003e-30,3.58641e-29
1394.0,1.1928400000000001e-28,-1.8482799999999999e-25,-1.8471700000000001e-25,-1.8481999999999999e-25,-6.3879299999999998e-30,-4.65983e-30,2.8943400000000001e-29
1395.0,1.23548e-28,-1.8480900000000001e-25,-1.8470100000000001e-25,-1.8481099999999999e-25,-8.6682199999999996e-31,-3.0179000000000001e-30,3.3013899999999999e-29
1396.0,1.0474899999999999e-28,-1.84765e-25,-1.8467600000000001e-25,-1.84758e-25,1.2226499999999999e-30,-1.36333e-30,3.5122900000000001e-29
1397.0,1.02162e-28,-1.8475e-25,-1.8466800000000001e-25,-1.84748e-25,5.6569400000000002e-30,-1.6965700000000001e-30,3.5406700000000002e-29
1398.0,1.1083899999999999e-28,-1.8469599999999999e-25,-1.84624e-25,-1.8469200000000001e-25,1.0525199999999999e-29,9.2552100000000004e-31,4.8395200000000002e-29
1399.0,8.7604799999999998e-29,-1.8468699999999999e-25,-1.84639e-25,-1.8467500000000001e-25,9.9919599999999994e-30,2.4766900000000002e-30,4.2601000000000002e-29
1400.0,1.21965e-28,-1.8462099999999999e-25,-1.84566e-25,-1.8462099999999999e-25,2.51818e-29,1.23085e-30,5.77226e-29
1401.0,1.3712299999999999e-28,-1.84833e-25,-1.8471700000000001e-25,-1.8483400000000001e-25,-5.1742000000000003e-30,-5.7100299999999999e-30,4.1472999999999998e-29
1402.0,1.1427100000000001e-28,-1.8479200000000001e-25,-1.84697e-25,-1.84782e-25,-3.0896899999999999e-30,-3.9741700000000003e-30,3.9741200000000002e-29
1403.0,1.1593400000000001e-28,-1.8477700000000001e-25,-1.84689e-25,-1.84774e-25,7.9309899999999995e-31,-4.3230100000000003e-30,4.4028499999999998e-29
1404.0,1.1323e-28,-1.8472799999999999e-25,-1.8465299999999999e-25,-1.8472099999999999e-25,4.3042500000000001e-30,-1.39234e-30,5.0346100000000001e-29
1405.0,1.00961e-28,-1.8471800000000001e-25,-1.8466199999999999e-25,-1.84706e-25,6.1655799999999999e-30,-1.02283e-30,4.9761699999999997e-29
1406.0,1.1977300000000001e-28,-1.8466000000000001e-25,-1.84606e-25,-1.8465399999999999e-25,1.22368e-29,1.7643199999999999e-31,6.1369600000000003e-29
1407.0,1.0974499999999999e-28,-1.8465299999999999e-25,-1.84632e-25,-1.8463e-25,7.7289400000000003e-30,5.3793199999999999e-30,6.1329300000000005e-29
1408.0,1.2403199999999999e-28,-1.84814e-25,-1.8471299999999999e-25,-1.8480299999999999e-25,-6.8418999999999994e-30,-7.0654200000000007e-30,4.4202799999999998e-29
1409.0,1.2969900000000001e-28,-1.8480100000000001e-25,-1.84705e-25,-1.84797e-25,-3.6578699999999997e-30,-7.7218400000000005e-30,5.0789300000000005e-29
1410.0,1.1970399999999999e-28,-1.84758e-25,-1.8467600000000001e-25,-1.84748e-25,-7.3988000000000002e-31,-4.3139600000000002e-30,5.2614900000000005e-29
1411.0,1.1349999999999999e-28,-1.84747e-25,-1.84682e-25,-1.8473400000000001e-25,1.38295e-30,-4.8115499999999998e-30,5.5650700000000005e-29
1412.0,1.2207300000000001e-28,-1.8469399999999999e-25,-1.8463699999999999e-25,-1.8468500000000001e-25,5.1774100000000002e-30,-2.8362299999999999e-30,6.3155400000000004e-29
1413.0,1.13885e-28,-1.8468699999999999e-25,-1.84657e-25,-1.84665e-25,5.7695000000000003e-30,-2.3543399999999999e-31,6.3639800000000004e-29
1414.0,1.2537400000000001e-28,-1.8462899999999999e-25,-1.8460200000000001e-25,-1.84616e-25,1.2966e-29,-1.46988e-30,6.9924699999999999e-29
1415.0,1.42297e-28,-1.8481999999999999e-25,-1.8471700000000001e-25,-1.8481700000000001e-25,-7.0599199999999998e-30,-1.14161e-29,5.6121899999999999e-29
1416.0,1.2948800000000001e-28,-1.8478400000000001e-25,-1.8469399999999999e-25,-1.84775e-25,-5.1023399999999998e-30,-7.1582599999999997e-30,5.5430500000000002e-29
1417.0,1.2551399999999999e-28,-1.84773e-25,-1.84699e-25,-1.8476099999999999e-25,-2.86936e-30,-8.9795399999999993e-30,5.97049e-29
1418.0,1.27761e-28,-1.8472500000000001e-25,-1.8466099999999999e-25,-1.84715e-25,-3.1606099999999999e-31,-6.7833000000000002e-30,6.4711899999999996e-29
1419.0,1.2059999999999999e-28,-1.84716e-25,-1.8467600000000001e-25,-1.84697e-25,1.33349e-30,-5.3639099999999998e-30,6.6425800000000001e-29
1420.0,1.2902900000000001e-28,-1.84663e-25,-1.8462899999999999e-25,-1.84649e-25,4.2072700000000001e-30,-5.3694e-30,7.22279e-29
1421.0,1.2971800000000001e-28,-1.84655e-25,-1.8465200000000001e-25,-1.8462799999999999e-25,2.0285799999999999e-30,-8.4933600000000008e-31,7.3406500000000003e-29
1422.0,1.19467e-28,-1.8483e-25,-1.8471099999999999e-25,-1.84831e-25,3.46399e-30,-1.8420999999999999e-30,1.4298299999999999e-30
1423.0,1.1848100000000001e-28,-1.8480900000000001e-25,-1.84691e-25,-1.84807e-25,1.10295e-29,1.6276800000000002e-30,5.0784400000000001e-30
1424.0,9.7708300000000003e-29,-1.84764e-25,-1.8466999999999999e-25,-1.8476700000000001e-25,1.28597e-29,-8.6703600000000008e-31,2.7454900000000001e-30
1425.0,1.0179199999999999e-28,-1.84748e-25,-1.8465200000000001e-25,-1.8474599999999999e-25,1.8841599999999999e-29,1.6630499999999999e-30,7.4873200000000003e-30
1426.0,8.3695299999999997e-29,-1.8469e-25,-1.84623e-25,-1.8469499999999999e-25,2.5703600000000001e-29,7.4463700000000002e-31,7.3690300000000003e-30
1427.0,7.2514499999999995e-29,-1.8469200000000001e-25,-1.84622e-25,-1.84689e-25,1.23743e-29,-2.1753299999999999e-30,1.58762e-30
1428.0,1.4350699999999999e-28,-1.8461800000000001e-25,-1.84516e-25,-1.8460299999999999e-25,5.0851200000000003e-29,1.7147399999999999e-30,3.5276399999999998e-29
1429.0,1.26536e-28,-1.8483500000000001e-25,-1.8471000000000001e-25,-1.84833e-25,5.5720200000000003e-30,-1.1865299999999999e-30,1.25988e-29
1430.0,1.08172e-28,-1.8479499999999999e-25,-1.84689e-25,-1.8479400000000001e-25,8.1419199999999994e-30,-7.2109600000000002e-31,1.18594e-29
1431.0,1.0894e-28,-1.84775e-25,-1.84672e-25,-1.84775e-25,1.4476300000000001e-29,7.98898e-32,1.47913e-29
1432.0,9.1961399999999998e-29,-1.8472700000000001e-25,-1.8464599999999999e-25,-1.8472700000000001e-25,1.8409699999999999e-29,1.9902999999999999e-31,1.6707699999999999e-29
1433.0,8.9566699999999999e-29,-1.84715e-25,-1.8463599999999999e-25,-1.84715e-25,2.0005600000000001e-29,1.17461e-30,1.49976e-29
1434.0,1.01442e-28,-1.84655e-25,-1.8458400000000001e-25,-1.84655e-25,3.25912e-29,-2.77103e-30,2.6585600000000001e-29
1435.0,5.8890000000000005e-29,-1.84647e-25,-1.8461199999999999e-25,-1.84648e-25,2.3499600000000001e-29,1.0431199999999999e-30,1.37383e-29
1436.0,1.19667e-28,-1.84823e-25,-1.84707e-25,-1.8481900000000001e-25,3.5277100000000002e-30,-2.3050999999999999e-30,1.9924e-29
1437.0,1.1715e-28,-1.8480200000000001e-25,-1.8469200000000001e-25,-1.8480100000000001e-25,8.9180300000000004e-30,-1.95684e-30,2.2177799999999999e-29
1438.0,1.0179400000000001e-28,-1.8475900000000001e-25,-1.8466700000000001e-25,-1.84755e-25,1.2515900000000001e-29,-5.9478599999999996e-31,2.4145500000000001e-29
1439.0,1.00517e-28,-1.8474300000000001e-25,-1.84656e-25,-1.84741e-25,1.7252999999999999e-29,1.94928e-31,2.5361700000000001e-29
1440.0,9.83844e-29,-1.84691e-25,-1.8461899999999999e-25,-1.84688e-25,2.2634400000000001e-29,-5.8293200000000001e-31,3.2118599999999998e-29
1441.0,8.9565999999999998e-29,-1.8468e-25,-1.84622e-25,-1.8467799999999999e-25,2.5769899999999998e-29,3.0647300000000001e-30,3.0164500000000001e-29
1442.0,1.2466499999999999e-28,-1.84613e-25,-1.84556e-25,-1.84614e-25,4.2545000000000001e-29,4.9016199999999999e-30,4.7181099999999997e-29
1443.0,1.2701599999999999e-28,-1.8482700000000001e-25,-1.8470900000000001e-25,-1.84823e-25,3.6696099999999997e-30,-4.3040099999999997e-30,2.9817500000000001e-29
1444.0,1.11906e-28,-1.8478799999999999e-25,-1.8468699999999999e-25,-1.84781e-25,7.2440499999999995e-30,-2.3363500000000001e-30,3.0551599999999997e-29
1445.0,1.09818e-28,-1.8476900000000001e-25,-1.8467600000000001e-25,-1.84765e-25,1.17834e-29,-1.8071999999999999e-30,3.3310099999999998e-29
1446.0,1.0357400000000001e-28,-1.84724e-25,-1.8464599999999999e-25,-1.8471700000000001e-25,1.5646400000000001e-29,-8.7247099999999998e-31,3.7789799999999998e-29
1447.0,1.00475e-28,-1.8471000000000001e-25,-1.8464300000000001e-25,-1.8470399999999999e-25,2.06004e-29,1.2849799999999999e-30,3.9524700000000002e-29
1448.0,1.1074500000000001e-28,-1.84655e-25,-1.84599e-25,-1.84648e-25,2.6062700000000002e-29,2.5004199999999999e-30,4.9644300000000003e-29
1449.0,9.6342100000000005e-29,-1.8464599999999999e-25,-1.84615e-25,-1.84632e-25,2.28129e-29,6.3432600000000006e-30,4.7844800000000002e-29
1450.0,1.22458e-28,-1.8481099999999999e-25,-1.8470299999999999e-25,-1.8480299999999999e-25,2.4813699999999999e-30,-4.9640599999999999e-30,3.6877300000000001e-29
1451.0,1.2014700000000001e-28,-1.8479300000000001e-25,-1.8469300000000001e-25,-1.8478699999999999e-25,6.3505399999999997e-30,-4.2454699999999997e-30,4.0109800000000002e-29
1452.0,1.11095e-28,-1.8475299999999999e-25,-1.8466800000000001e-25,-1.8474400000000001e-25,9.8074499999999998e-30,-2.7441500000000001e-30,4.2599499999999999e-29
1453.0,1.08934e-28,-1.8473699999999999e-25,-1.84663e-25,-1.8472799999999999e-25,1.4136799999999999e-29,-1.4306e-30,4.6064999999999999e-29
1454.0,1.10916e-28,-1.8469e-25,-1.8462899999999999e-25,-1.8467899999999999e-25,1.7254199999999999e-29,2.1573700000000001e-31,5.24668e-29
1455.0,1.06358e-28,-1.8467799999999999e-25,-1.8463500000000001e-25,-1.84663e-25,2.0382000000000001e-29,2.55979e-30,5.3661499999999998e-29
1456.0,1.2195599999999999e-28,-1.84622e-25,-1.84589e-25,-1.8461000000000001e-25,2.9026200000000002e-29,3.8355599999999997e-30,6.1884999999999995e-29
1457.0,1.31554e-28,-1.8481299999999999e-25,-1.84706e-25,-1.84806e-25,1.79911e-30,-6.9737300000000003e-30,4.64247e-29
1458.0,1.1999699999999999e-28,-1.8477799999999999e-25,-1.8468599999999999e-25,-1.8476800000000001e-25,4.8865799999999997e-30,-5.4433300000000003e-30,4.67842e-29
1459.0,1.1816999999999999e-28,-1.8476199999999999e-25,-1.84681e-25,-1.8475200000000001e-25,8.2144199999999993e-30,-4.5874099999999997e-30,5.0927799999999995e-29
1460.0,1.15664e-28,-1.8472099999999999e-25,-1.8465299999999999e-25,-1.84708e-25,1.10055e-29,-2.8921400000000001e-30,5.5109100000000002e-29
1461.0,1.1313899999999999e-28,-1.84706e-25,-1.84655e-25,-1.84691e-25,1.4370600000000001e-29,-1.45176e-30,5.80445e-29
1462.0,1.19923e-28,-1.84658e-25,-1.8461899999999999e-25,-1.8464300000000001e-25,1.7534499999999999e-29,5.1839700000000001e-31,6.40678e-29
1463.0,1.19225e-28,-1.84647e-25,-1.84632e-25,-1.84623e-25,1.54859e-29,3.9943200000000002e-30,6.5891299999999996e-29
1464.0,1.29101e-28,-1.84799e-25,-1.8470000000000001e-25,-1.84789e-25,9.5221800000000003e-31,-8.36979e-30,5.0117200000000002e-29
1465.0,1.28468e-28,-1.8478599999999999e-25,-1.8469599999999999e-25,-1.8477600000000001e-25,3.45175e-30,-7.8720500000000004e-30,5.4702899999999997e-29
1466.0,1.23521e-28,-1.8475e-25,-1.84673e-25,-1.8473699999999999e-25,5.6702599999999999e-30,-6.5409400000000005e-30,5.7567100000000001e-29
1467.0,1.20874e-28,-1.84733e-25,-1.84672e-25,-1.8471900000000001e-25,8.5271599999999994e-30,-5.7130000000000001e-30,6.1257699999999995e-29
1468.0,1.2316700000000001e-28,-1.84691e-25,-1.8464300000000001e-25,-1.84674e-25,1.09334e-29,-3.9471800000000002e-30,6.5837199999999996e-29
1469.0,1.22601e-28,-1.8467600000000001e-25,-1.84649e-25,-1.84655e-25,1.26648e-29,-2.1784399999999998e-30,6.8138800000000003e-29
1470.0,1.2770900000000001e-28,-1.8462899999999999e-25,-1.8461700000000001e-25,-1.8461000000000001e-25,1.7465200000000001e-29,-1.6501000000000001e-30,7.0932599999999999e-29
1471.0,1.2916100000000001e-28,-1.84833e-25,-1.8470299999999999e-25,-1.84825e-25,1.4977299999999999e-29,-1.6429000000000001e-31,3.65612e-30
1472.0,1.0732499999999999e-28,-1.8478599999999999e-25,-1.8468400000000001e-25,-1.8478699999999999e-25,1.76597e-29,-8.1075399999999997e-31,2.0236399999999999e-30
1473.0,1.1294199999999999e-28,-1.84774e-25,-1.8466700000000001e-25,-1.8476900000000001e-25,2.4305999999999999e-29,-7.7411900000000003e-32,5.5617599999999997e-30
1474.0,9.6892800000000002e-29,-1.8471999999999999e-25,-1.84641e-25,-1.84722e-25,3.0862600000000002e-29,7.2662599999999996e-31,5.0066000000000002e-30
1475.0,9.2265700000000004e-29,-1.84714e-25,-1.8463400000000001e-25,-1.8471099999999999e-25,2.7678600000000002e-29,-1.01756e-30,6.0227500000000001e-30
1476.0,1.1885900000000001e-28,-1.8465200000000001e-25,-1.8457500000000001e-25,-1.84647e-25,5.1336699999999998e-29,1.5792499999999999e-30,1.5352e-29
1477.0,8.0483300000000002e-29,-1.84631e-25,-1.84614e-25,-1.8465000000000001e-25,4.2427e-29,3.8035700000000001e-30,-2.7299000000000001e-30
1478.0,1.18736e-28,-1.84816e-25,-1.84699e-25,-1.8481199999999999e-25,1.2673899999999999e-29,-1.40565e-30,1.05587e-29
1479.0,1.1715900000000001e-28,-1.84797e-25,-1.8468500000000001e-25,-1.8479300000000001e-25,1.88665e-29,-1.4024400000000001e-30,1.2455e-29
1480.0,1.02584e-28,-1.8475299999999999e-25,-1.8466099999999999e-25,-1.8475100000000001e-25,2.3435899999999999e-29,-2.9757300000000002e-31,1.33968e-29
1481.0,1.0211699999999999e-28,-1.84739e-25,-1.8465000000000001e-25,-1.8473500000000001e-25,2.7470700000000003e-29,1.35566e-31,1.5374000000000001e-29
1482.0,1.00009e-28,-1.8468599999999999e-25,-1.84614e-25,-1.8468400000000001e-25,3.5542400000000002e-29,-8.3096600000000006e-31,1.8973700000000001e-29
1483.0,9.1283699999999996e-29,-1.8467600000000001e-25,-1.8461700000000001e-25,-1.84673e-25,3.6036900000000002e-29,2.28452e-30,1.93132e-29
1484.0,1.2519400000000001e-28,-1.8461099999999999e-25,-1.8455200000000001e-25,-1.84607e-25,5.39511e-29,4.45832e-30,3.4757899999999998e-29
1485.0,1.23793e-28,-1.8482099999999999e-25,-1.8470100000000001e-25,-1.84815e-25,1.3062499999999999e-29,-3.1667600000000003e-30,1.97061e-29
1486.0,1.11192e-28,-1.84782e-25,-1.8467799999999999e-25,-1.8477700000000001e-25,1.7271299999999999e-29,-1.40331e-30,2.0587100000000001e-29
1487.0,1.0844300000000001e-28,-1.84764e-25,-1.8466800000000001e-25,-1.8475900000000001e-25,2.24443e-29,-1.0404400000000001e-30,2.2888800000000001e-29
1488.0,1.0120900000000001e-28,-1.8471900000000001e-25,-1.84639e-25,-1.84714e-25,2.71969e-29,-7.6867599999999997e-31,2.5588799999999998e-29
1489.0,1.0114100000000001e-28,-1.84705e-25,-1.8463400000000001e-25,-1.8470000000000001e-25,3.2265500000000002e-29,1.4431e-30,2.8546599999999998e-29
1490.0,1.0569700000000001e-28,-1.8465000000000001e-25,-1.8459399999999999e-25,-1.8464499999999999e-25,3.9536799999999998e-29,1.1483300000000001e-30,3.4579300000000001e-29
1491.0,8.9990100000000005e-29,-1.84639e-25,-1.8460900000000001e-25,-1.8463500000000001e-25,3.78994e-29,4.5867299999999997e-30,3.1210800000000002e-29
1492.0,1.2094299999999999e-28,-1.84807e-25,-1.8469499999999999e-25,-1.848e-25,1.1882e-29,-3.2879200000000003e-30,2.7596000000000002e-29
1493.0,1.1518500000000001e-28,-1.8478699999999999e-25,-1.8468500000000001e-25,-1.8478e-25,1.6355500000000001e-29,-2.8762900000000001e-30,2.9500999999999998e-29
1494.0,1.0756999999999999e-28,-1.84748e-25,-1.8465900000000001e-25,-1.8474e-25,2.0544999999999999e-29,-1.67454e-30,3.1835200000000001e-29
1495.0,1.06682e-28,-1.84731e-25,-1.8465299999999999e-25,-1.84723e-25,2.5954400000000002e-29,-1.6565600000000001e-31,3.5409199999999998e-29
1496.0,1.0442199999999999e-28,-1.8468500000000001e-25,-1.84622e-25,-1.8467600000000001e-25,2.9845799999999999e-29,4.1062900000000002e-31,3.9516700000000002e-29
1497.0,1.04857e-28,-1.8467099999999999e-25,-1.84623e-25,-1.8466199999999999e-25,3.4603400000000003e-29,3.9437299999999999e-30,4.2193299999999999e-29
1498.0,1.21738e-28,-1.84614e-25,-1.8457899999999999e-25,-1.84607e-25,4.3873800000000001e-29,6.3769000000000003e-30,5.1189300000000006e-29
1499.0,1.2384899999999999e-28,-1.84808e-25,-1.84699e-25,-1.84799e-25,1.09281e-29,-5.1182000000000001e-30,3.6071000000000001e-29
1500.0,1.155e-28,-1.84773e-25,-1.8467700000000001e-25,-1.84764e-25,1.46851e-29,-3.4968100000000003e-30,3.7446100000000003e-29
1501.0,1.12723e-28,-1.84755e-25,-1.8466999999999999e-25,-1.8474599999999999e-25,1.9245299999999999e-29,-2.33846e-30,4.09723e-29
1502.0,1.0876499999999999e-28,-1.84715e-25,-1.8464399999999999e-25,-1.8470399999999999e-25,2.2499e-29,-1.2395099999999999e-30,4.4273200000000001e-29
1503.0,1.09918e-28,-1.84699e-25,-1.84641e-25,-1.8468699999999999e-25,2.7700399999999998e-29,1.1661499999999999e-30,4.8159800000000001e-29
1504.0,1.1316100000000001e-28,-1.8465200000000001e-25,-1.8461000000000001e-25,-1.84639e-25,3.0651999999999998e-29,2.8605699999999999e-30,5.3442600000000003e-29
1505.0,1.09995e-28,-1.84641e-25,-1.8461999999999999e-25,-1.84623e-25,3.00977e-29,6.1652499999999999e-30,5.4421600000000004e-29
1506.0,1.2460299999999999e-28,-1.8479400000000001e-25,-1.84691e-25,-1.8478400000000001e-25,9.9398e-30,-5.9889299999999998e-30,4.2851999999999999e-29
1507.0,1.20711e-28,-1.8477700000000001e-25,-1.8468400000000001e-25,-1.84766e-25,1.33868e-29,-4.7783399999999998e-30,4.5758e-29
1508.0,1.15387e-28,-1.8474200000000001e-25,-1.84663e-25,-1.8473e-25,1.6423300000000001e-29,-3.7310400000000003e-30,4.8206500000000001e-29
1509.0,1.14632e-28,-1.84724e-25,-1.84658e-25,-1.8471099999999999e-25,2.0577400000000001e-29,-2.0612399999999998e-30,5.2216099999999995e-29
1510.0,1.14784e-28,-1.8468500000000001e-25,-1.84633e-25,-1.8466800000000001e-25,2.2794299999999999e-29,-3.09252e-31,5.6401500000000003e-29
1511.0,1.1581e-28,-1.8466899999999999e-25,-1.8463500000000001e-25,-1.8465100000000001e-25,2.6353800000000002e-29,1.95985e-30,5.8972399999999997e-29
1512.0,1.2409900000000001e-28,-1.84622e-25,-1.8460299999999999e-25,-1.84605e-25,3.1488999999999998e-29,3.5749900000000003e-30,6.3427800000000004e-29
1513.0,1.2949799999999999e-28,-1.8479499999999999e-25,-1.8469599999999999e-25,-1.8478500000000001e-25,9.1908599999999997e-30,-7.1743199999999999e-30,4.9737100000000002e-29
1514.0,1.2373399999999999e-28,-1.8476800000000001e-25,-1.8467899999999999e-25,-1.84756e-25,1.14059e-29,-6.8531799999999999e-30,5.1287100000000003e-29
1515.0,1.2133800000000001e-28,-1.84749e-25,-1.84674e-25,-1.8473699999999999e-25,1.4428500000000001e-29,-5.6093699999999999e-30,5.5171600000000005e-29
1516.0,1.19694e-28,-1.84714e-25,-1.8465299999999999e-25,-1.84698e-25,1.6894500000000001e-29,-4.22307e-30,5.8788400000000003e-29
1517.0,1.1959300000000001e-28,-1.8469499999999999e-25,-1.8465000000000001e-25,-1.8467799999999999e-25,2.0135899999999999e-29,-2.9323400000000001e-30,6.1953799999999999e-29
1518.0,1.22573e-28,-1.84655e-25,-1.8462600000000001e-25,-1.8463599999999999e-25,2.19614e-29,-1.00711e-30,6.56137e-29
1519.0,1.23162e-28,-1.8464e-25,-1.8463e-25,-1.84616e-25,2.0247500000000001e-29,1.71514e-30,6.7141400000000001e-29
1520.0,1.15059e-28,-1.8480399999999999e-25,-1.8469399999999999e-25,-1.8480200000000001e-25,2.0312799999999999e-29,-1.5907800000000001e-30,1.2593600000000001e-30
1521.0,1.2303399999999999e-28,-1.8479599999999999e-25,-1.8467899999999999e-25,-1.8478599999999999e-25,2.8624400000000001e-29,-1.04793e-30,3.8021e-30
1522.0,1.0522700000000001e-28,-1.8474400000000001e-25,-1.84656e-25,-1.8474400000000001e-25,3.3234399999999999e-29,3.00951e-32,3.4882099999999998e-30
1523.0,1.0587299999999999e-28,-1.8473699999999999e-25,-1.8465000000000001e-25,-1.84732e-25,3.61296e-29,-1.46274e-30,5.2104099999999997e-30
1524.0,1.13442e-28,-1.84681e-25,-1.84608e-25,-1.8467799999999999e-25,4.99848e-29,9.0570699999999996e-31,8.4723599999999998e-30
1525.0,9.0645199999999998e-29,-1.84666e-25,-1.8462600000000001e-25,-1.84674e-25,4.5370999999999999e-29,4.7625700000000003e-31,4.3736599999999997e-30
1526.0,1.2234699999999999e-28,-1.8461099999999999e-25,-1.84555e-25,-1.84606e-25,6.0523599999999999e-29,-7.4876299999999999e-31,1.92887e-29
1527.0,1.24827e-28,-1.84814e-25,-1.8469300000000001e-25,-1.84806e-25,2.2447899999999999e-29,-2.3668499999999999e-30,1.06093e-29
1528.0,1.11371e-28,-1.84774e-25,-1.84672e-25,-1.8476999999999999e-25,2.6601100000000002e-29,-1.05614e-30,1.11079e-29
1529.0,1.1131600000000001e-28,-1.8475900000000001e-25,-1.84663e-25,-1.8475299999999999e-25,3.2350800000000001e-29,-1.09549e-30,1.3009400000000001e-29
1530.0,1.0537100000000001e-28,-1.8471299999999999e-25,-1.8463400000000001e-25,-1.8470900000000001e-25,3.8534800000000001e-29,-7.3100899999999998e-31,1.4691700000000001e-29
1531.0,1.0315200000000001e-28,-1.8470100000000001e-25,-1.84632e-25,-1.8469599999999999e-25,4.2151499999999997e-29,6.6969700000000002e-31,1.7437800000000001e-29
1532.0,1.12185e-28,-1.8464499999999999e-25,-1.8459e-25,-1.8464200000000001e-25,5.2789699999999998e-29,1.5256299999999999e-30,2.1219000000000001e-29
1533.0,9.6675200000000002e-29,-1.8462899999999999e-25,-1.8460900000000001e-25,-1.8463699999999999e-25,5.1575500000000004e-29,3.7432e-30,1.5268e-29
1534.0,1.19729e-28,-1.848e-25,-1.8468699999999999e-25,-1.8479300000000001e-25,2.0822799999999999e-29,-2.3677300000000001e-30,1.83055e-29
1535.0,1.1523400000000001e-28,-1.84781e-25,-1.8467799999999999e-25,-1.84774e-25,2.6212599999999997e-29,-2.2143e-30,1.96879e-29
1536.0,1.08008e-28,-1.8474200000000001e-25,-1.8465299999999999e-25,-1.8473599999999999e-25,3.0950900000000002e-29,-1.36354e-30,2.1352900000000001e-29
1537.0,1.0785200000000001e-28,-1.8472600000000001e-25,-1.84647e-25,-1.8471900000000001e-25,3.6586e-29,-1.2638500000000001e-31,2.4707399999999999e-29
1538.0,1.05281e-28,-1.8467899999999999e-25,-1.84616e-25,-1.84673e-25,4.1937999999999999e-29,1.3396999999999999e-31,2.69285e-29
1539.0,1.05409e-28,-1.8466700000000001e-25,-1.8461899999999999e-25,-1.8466099999999999e-25,4.5798199999999997e-29,3.2382500000000003e-30,3.0076999999999998e-29
1540.0,1.21496e-28,-1.8460900000000001e-25,-1.84574e-25,-1.8460399999999999e-25,5.5320199999999999e-29,5.63433e-30,3.8377199999999998e-29
1541.0,1.2092899999999999e-28,-1.8480200000000001e-25,-1.84691e-25,-1.8479300000000001e-25,2.00802e-29,-3.9314300000000001e-30,2.63058e-29
1542.0,1.1397399999999999e-28,-1.8476700000000001e-25,-1.8466899999999999e-25,-1.8475900000000001e-25,2.4467199999999999e-29,-2.4812300000000001e-30,2.75986e-29
1543.0,1.11078e-28,-1.84749e-25,-1.8466199999999999e-25,-1.8474e-25,2.9753300000000003e-29,-1.5072700000000001e-30,3.05906e-29
1544.0,1.06964e-28,-1.8471000000000001e-25,-1.8463699999999999e-25,-1.8470100000000001e-25,3.3858899999999999e-29,-8.1677699999999997e-31,3.2936399999999999e-29
1545.0,1.0952000000000001e-28,-1.8469399999999999e-25,-1.84633e-25,-1.8468400000000001e-25,3.9450699999999998e-29,1.6311699999999999e-30,3.71302e-29
1546.0,1.0987399999999999e-28,-1.8464599999999999e-25,-1.8460399999999999e-25,-1.8463699999999999e-25,4.3524600000000002e-29,2.6332400000000001e-30,4.0337399999999999e-29
1547.0,1.0547000000000001e-28,-1.8463400000000001e-25,-1.84614e-25,-1.8462500000000001e-25,4.4171300000000002e-29,5.7148500000000001e-30,4.02646e-29
1548.0,1.21611e-28,-1.84789e-25,-1.8468400000000001e-25,-1.8477899999999999e-25,1.8974099999999999e-29,-4.1886000000000003e-30,3.3889099999999999e-29
1549.0,1.15875e-28,-1.8476999999999999e-25,-1.8467600000000001e-25,-1.8476000000000001e-25,2.30941e-29,-3.2773199999999997e-30,3.5962399999999997e-29
1550.0,1.1186799999999999e-28,-1.8473599999999999e-25,-1.8465399999999999e-25,-1.8472500000000001e-25,2.6987099999999999e-29,-2.2318900000000001e-30,3.82874e-29
1551.0,1.12025e-28,-1.8471800000000001e-25,-1.84649e-25,-1.84707e-25,3.2088e-29,-4.3056300000000003e-31,4.2172400000000001e-29
1552.0,1.0976300000000001e-28,-1.8467799999999999e-25,-1.8462500000000001e-25,-1.84666e-25,3.48367e-29,7.7143799999999998e-31,4.5048200000000001e-29
1553.0,1.13489e-28,-1.84663e-25,-1.8462500000000001e-25,-1.8465000000000001e-25,3.9421199999999999e-29,3.8018299999999997e-30,4.8420300000000002e-29
1554.0,1.2227100000000001e-28,-1.84615e-25,-1.8459300000000001e-25,-1.8460200000000001e-25,4.4553199999999997e-29,5.8799000000000003e-30,5.33619e-29
1555.0,1.2298800000000001e-28,-1.8478799999999999e-25,-1.84688e-25,-1.8477700000000001e-25,1.77802e-29,-5.3793499999999998e-30,4.1118499999999998e-29
1556.0,1.1841600000000001e-28,-1.8475900000000001e-25,-1.8466999999999999e-25,-1.84748e-25,2.11594e-29,-4.35176e-30,4.2818299999999999e-29
1557.0,1.1597000000000001e-28,-1.8474e-25,-1.84663e-25,-1.8472799999999999e-25,2.5120100000000001e-29,-2.8915199999999999e-30,4.6080100000000001e-29
1558.0,1.1356299999999999e-28,-1.84707e-25,-1.8464300000000001e-25,-1.8469200000000001e-25,2.7968299999999999e-29,-1.6484200000000001e-30,4.9096199999999998e-29
1559.0,1.15714e-28,-1.84688e-25,-1.84639e-25,-1.84674e-25,3.2458699999999997e-29,3.9211600000000002e-31,5.2687200000000005e-29
1560.0,1.1683200000000001e-28,-1.84649e-25,-1.8461700000000001e-25,-1.84632e-25,3.4053199999999999e-29,2.1410500000000001e-30,5.5962700000000002e-29
1561.0,1.1683400000000001e-28,-1.8463500000000001e-25,-1.84623e-25,-1.84616e-25,3.3649599999999997e-29,4.9942999999999997e-30,5.7417499999999998e-29
1562.0,1.2592e-28,-1.8477899999999999e-25,-1.84682e-25,-1.8476800000000001e-25,1.6789100000000001e-29,-6.7567299999999998e-30,4.6492299999999998e-29
1563.0,1.2239799999999999e-28,-1.8476199999999999e-25,-1.8467700000000001e-25,-1.8475100000000001e-25,1.93987e-29,-5.36538e-30,4.93335e-29
1564.0,1.1932e-28,-1.8473400000000001e-25,-1.8466000000000001e-25,-1.8471999999999999e-25,2.2284299999999999e-29,-4.5891500000000001e-30,5.2029299999999995e-29
1565.0,1.18884e-28,-1.8471299999999999e-25,-1.8465399999999999e-25,-1.84699e-25,2.5695200000000003e-29,-3.2145900000000003e-30,5.56018e-29
1566.0,1.1888499999999999e-28,-1.8467899999999999e-25,-1.8463500000000001e-25,-1.8466199999999999e-25,2.7629199999999998e-29,-1.4917799999999999e-30,5.8818799999999999e-29
1567.0,1.2032700000000001e-28,-1.8466000000000001e-25,-1.84633e-25,-1.8464200000000001e-25,3.04054e-29,3.2883299999999998e-31,6.09522e-29
1568.0,1.2506500000000001e-28,-1.8461999999999999e-25,-1.8461099999999999e-25,-1.8460200000000001e-25,3.4045199999999999e-29,1.3982900000000001e-30,6.3043699999999998e-29
1569.0,1.31107e-28,-1.8481099999999999e-25,-1.8468599999999999e-25,-1.84797e-25,3.1947000000000003e-29,-1.52859e-30,2.72162e-30
1570.0,1.10486e-28,-1.8476299999999999e-25,-1.8466800000000001e-25,-1.8476000000000001e-25,3.3846199999999998e-29,-7.2039000000000004e-31,2.24259e-30
1571.0,1.16398e-28,-1.84757e-25,-1.8466099999999999e-25,-1.84749e-25,4.0989299999999999e-29,-2.1227e-30,3.6778500000000003e-30
1572.0,1.13835e-28,-1.84706e-25,-1.8462899999999999e-25,-1.8470200000000001e-25,4.8874599999999998e-29,3.1016300000000003e-32,5.4093799999999998e-30
1573.0,1.0242999999999999e-28,-1.8469499999999999e-25,-1.8464e-25,-1.8469599999999999e-25,4.9454400000000001e-29,-1.2481e-30,4.6857700000000003e-30
1574.0,1.2009499999999999e-28,-1.8464300000000001e-25,-1.8458699999999999e-25,-1.84638e-25,6.1106099999999995e-29,-4.9780999999999999e-31,9.9243799999999999e-30
1575.0,1.0711599999999999e-28,-1.84622e-25,-1.8461700000000001e-25,-1.8463699999999999e-25,6.09134e-29,2.4093099999999999e-30,1.7488400000000001e-30
1576.0,1.18067e-28,-1.8479e-25,-1.8468e-25,-1.84782e-25,2.86015e-29,-1.8282499999999999e-30,9.5763999999999999e-30
1577.0,1.1876100000000001e-28,-1.8477600000000001e-25,-1.84672e-25,-1.8476700000000001e-25,3.54407e-29,-1.9788000000000001e-30,1.0725199999999999e-29
1578.0,1.11078e-28,-1.8473500000000001e-25,-1.84648e-25,-1.8472899999999999e-25,4.0237699999999999e-29,-1.2877899999999999e-30,1.18018e-29
1579.0,1.10751e-28,-1.84722e-25,-1.8464499999999999e-25,-1.84715e-25,4.5648800000000002e-29,-8.1473799999999994e-31,1.4203e-29
1580.0,1.1180400000000001e-28,-1.84673e-25,-1.84613e-25,-1.8466999999999999e-25,5.2750100000000001e-29,5.8919499999999996e-32,1.54588e-29
1581.0,1.0600800000000001e-28,-1.8466000000000001e-25,-1.84622e-25,-1.8466099999999999e-25,5.4462100000000004e-29,1.0733999999999999e-30,1.67859e-29
1582.0,1.1993500000000001e-28,-1.84607e-25,-1.8457700000000001e-25,-1.84605e-25,6.2484299999999999e-29,2.0108300000000001e-30,2.4551799999999999e-29
1583.0,1.21234e-28,-1.8479400000000001e-25,-1.8468400000000001e-25,-1.8478500000000001e-25,2.9037500000000001e-29,-3.0575499999999999e-30,1.73338e-29
1584.0,1.1455899999999999e-28,-1.8476000000000001e-25,-1.84663e-25,-1.8475299999999999e-25,3.3458799999999998e-29,-2.0729699999999999e-30,1.8299199999999999e-29
1585.0,1.1328399999999999e-28,-1.8474400000000001e-25,-1.84657e-25,-1.8473599999999999e-25,3.9361299999999998e-29,-1.39194e-30,2.0713399999999999e-29
1586.0,1.09424e-28,-1.8470399999999999e-25,-1.84632e-25,-1.84697e-25,4.4154999999999998e-29,-9.0168500000000005e-31,2.2020700000000001e-29
1587.0,1.1087400000000001e-28,-1.8469e-25,-1.84631e-25,-1.84683e-25,4.9165799999999998e-29,8.8223100000000004e-31,2.5797799999999997e-29
1588.0,1.12695e-28,-1.84641e-25,-1.8460100000000001e-25,-1.8463599999999999e-25,5.4784500000000003e-29,2.0501000000000001e-30,2.7374999999999997e-29
1589.0,1.07487e-28,-1.8462700000000001e-25,-1.84613e-25,-1.8462799999999999e-25,5.5769499999999996e-29,4.2113499999999999e-30,2.5586200000000001e-29
1590.0,1.20335e-28,-1.84783e-25,-1.8467700000000001e-25,-1.84773e-25,2.7617000000000001e-29,-3.1930599999999998e-30,2.4921800000000001e-29
1591.0,1.1547e-28,-1.84764e-25,-1.8466999999999999e-25,-1.8475399999999999e-25,3.2525499999999999e-29,-2.5536200000000002e-30,2.6363400000000001e-29
1592.0,1.11859e-28,-1.8473e-25,-1.84649e-25,-1.8472099999999999e-25,3.6888e-29,-1.7807100000000001e-30,2.8168000000000001e-29
1593.0,1.12513e-28,-1.8471299999999999e-25,-1.8464399999999999e-25,-1.8470299999999999e-25,4.2325399999999998e-29,-2.3079400000000001e-31,3.1743000000000002e-29
1594.0,1.0972e-28,-1.84673e-25,-1.8461999999999999e-25,-1.84664e-25,4.6060800000000002e-29,6.6837599999999999e-31,3.3186999999999998e-29
1595.0,1.1318999999999999e-28,-1.8465900000000001e-25,-1.8462099999999999e-25,-1.8465000000000001e-25,5.0121399999999999e-29,3.3372099999999997e-30,3.6894599999999998e-29
1596.0,1.2107700000000001e-28,-1.8461000000000001e-25,-1.8459e-25,-1.8460200000000001e-25,5.5077300000000003e-29,5.3062800000000001e-30,4.1474799999999999e-29
1597.0,1.1983800000000001e-28,-1.84782e-25,-1.84681e-25,-1.8477099999999999e-25,2.6265400000000001e-29,-4.3225100000000002e-30,3.2062799999999998e-29
1598.0,1.1624400000000001e-28,-1.8475299999999999e-25,-1.84663e-25,-1.8474200000000001e-25,3.0411200000000001e-29,-3.0206299999999999e-30,3.3700399999999998e-29
1599.0,1.1429899999999999e-28,-1.8473400000000001e-25,-1.84656e-25,-1.84723e-25,3.5131400000000001e-29,-1.79761e-30,3.6581700000000002e-29
1600.0,1.11531e-28,-1.8470100000000001e-25,-1.8463699999999999e-25,-1.84689e-25,3.8567499999999997e-29,-8.2597799999999994e-31,3.8664300000000002e-29
1601.0,1.14863e-28,-1.8468400000000001e-25,-1.84633e-25,-1.8467099999999999e-25,4.3429900000000001e-29,1.34349e-30,4.2576400000000001e-29
1602.0,1.1376099999999999e-28,-1.8464300000000001e-25,-1.8461199999999999e-25,-1.84631e-25,4.57079e-29,2.6238400000000002e-30,4.4333200000000002e-29
1603.0,1.1327400000000001e-28,-1.8463e-25,-1.8461899999999999e-25,-1.8461800000000001e-25,4.6611e-29,5.3440899999999999e-30,4.5065599999999999e-29
1604.0,1.2236800000000001e-28,-1.84772e-25,-1.8467500000000001e-25,-1.8476099999999999e-25,2.5090500000000001e-29,-4.6559899999999999e-30,3.8951599999999998e-29
1605.0,1.1803599999999999e-28,-1.8475399999999999e-25,-1.8466899999999999e-25,-1.8474200000000001e-25,2.86357e-29,-3.5702900000000003e-30,4.0819499999999999e-29
1606.0,1.1561100000000001e-28,-1.8472600000000001e-25,-1.8465200000000001e-25,-1.8471299999999999e-25,3.2097800000000001e-29,-2.6340900000000001e-30,4.3043399999999999e-29
1607.0,1.1609399999999999e-28,-1.84706e-25,-1.8464599999999999e-25,-1.8469300000000001e-25,3.6307799999999998e-29,-9.8966600000000001e-31,4.6454000000000003e-29
1608.0,1.14455e-28,-1.84673e-25,-1.8462899999999999e-25,-1.84658e-25,3.8437500000000002e-29,4.1291100000000002e-31,4.8744600000000003e-29
1609.0,1.1833199999999999e-28,-1.84656e-25,-1.8462600000000001e-25,-1.84641e-25,4.22048e-29,2.6783800000000001e-30,5.1547400000000003e-29
1610.0,1.23012e-28,-1.84615e-25,-1.8460200000000001e-25,-1.8460000000000001e-25,4.5262799999999999e-29,4.0506700000000003e-30,5.4032100000000001e-29
1611.0,1.23389e-28,-1.8477099999999999e-25,-1.8467799999999999e-25,-1.8475900000000001e-25,2.3809000000000001e-29,-5.4918600000000001e-30,4.4165600000000002e-29
1612.0,1.2113999999999999e-28,-1.84749e-25,-1.84666e-25,-1.8473599999999999e-25,2.6733800000000001e-29,-4.9287500000000002e-30,4.6277800000000001e-29
1613.0,1.1924699999999999e-28,-1.8472899999999999e-25,-1.8465900000000001e-25,-1.84716e-25,2.9792000000000002e-29,-3.6000400000000001e-30,4.9372400000000002e-29
1614.0,1.1797199999999999e-28,-1.8470000000000001e-25,-1.8464399999999999e-25,-1.8468500000000001e-25,3.2615399999999997e-29,-2.3954499999999999e-30,5.20634e-29
1615.0,1.1941500000000001e-28,-1.8467899999999999e-25,-1.8463699999999999e-25,-1.84664e-25,3.5982100000000001e-29,-9.6333800000000001e-31,5.4844799999999997e-29
1616.0,1.19907e-28,-1.8464599999999999e-25,-1.8462099999999999e-25,-1.8462899999999999e-25,3.7132100000000002e-29,6.4386699999999999e-31,5.7070800000000001e-29
1617.0,1.2012899999999999e-28,-1.8462899999999999e-25,-1.84622e-25,-1.8461099999999999e-25,3.60789e-29,2.8942300000000002e-30,5.8428999999999999e-29
1618.0,1.1313799999999999e-28,-1.8477600000000001e-25,-1.8467600000000001e-25,-1.8476999999999999e-25,3.3315500000000001e-29,-1.1421499999999999e-30,1.45708e-30
1619.0,1.2414900000000001e-28,-1.84774e-25,-1.8466999999999999e-25,-1.8476199999999999e-25,4.3292600000000001e-29,-2.8012599999999999e-30,2.43947e-30
1620.0,1.1562199999999999e-28,-1.8472799999999999e-25,-1.8464399999999999e-25,-1.8472099999999999e-25,4.7523699999999999e-29,-4.1991999999999997e-31,3.53765e-30
1621.0,1.11334e-28,-1.8471800000000001e-25,-1.8465100000000001e-25,-1.84715e-25,5.20343e-29,-2.1459699999999998e-30,3.39504e-30
1622.0,1.2024199999999999e-28,-1.8467099999999999e-25,-1.8460900000000001e-25,-1.84664e-25,6.0223400000000005e-29,-8.8478199999999993e-31,6.2514899999999999e-30
1623.0,1.0865400000000001e-28,-1.84655e-25,-1.84632e-25,-1.8466199999999999e-25,6.06844e-29,-1.63041e-31,4.2091999999999998e-30
1624.0,1.1965599999999999e-28,-1.84606e-25,-1.8457899999999999e-25,-1.8460399999999999e-25,6.6348299999999996e-29,-1.84962e-30,1.1613e-29
1625.0,1.2450800000000001e-28,-1.8478799999999999e-25,-1.8467799999999999e-25,-1.8477700000000001e-25,3.7264999999999998e-29,-2.4402900000000001e-30,9.3331599999999996e-30
1626.0,1.1555699999999999e-28,-1.8475299999999999e-25,-1.8465900000000001e-25,-1.8474499999999999e-25,4.05786e-29,-1.8467799999999999e-30,9.9203200000000001e-30
1627.0,1.1648799999999999e-28,-1.84741e-25,-1.84656e-25,-1.84732e-25,4.7090099999999999e-29,-1.81161e-30,1.1411e-29
1628.0,1.1435100000000001e-28,-1.84698e-25,-1.8463e-25,-1.8469300000000001e-25,5.25374e-29,-1.0134599999999999e-30,1.2283000000000001e-29
1629.0,1.1175600000000001e-28,-1.8468500000000001e-25,-1.8463500000000001e-25,-1.84682e-25,5.6185299999999995e-29,-7.3463899999999997e-31,1.4251099999999999e-29
1630.0,1.1717399999999999e-28,-1.84638e-25,-1.8460100000000001e-25,-1.8463500000000001e-25,6.2275199999999999e-29,4.5781799999999999e-31,1.6057500000000001e-29
1631.0,1.1284900000000001e-28,-1.84622e-25,-1.8461700000000001e-25,-1.8462899999999999e-25,6.3651399999999995e-29,2.38285e-30,1.2301399999999999e-29
1632.0,1.19748e-28,-1.84775e-25,-1.8467099999999999e-25,-1.84765e-25,3.4953e-29,-2.73177e-30,1.6549200000000001e-29
1633.0,1.18211e-28,-1.8476000000000001e-25,-1.84666e-25,-1.8475e-25,4.0758999999999998e-29,-2.1499899999999999e-30,1.7794599999999999e-29
1634.0,1.1404400000000001e-28,-1.8472500000000001e-25,-1.8464499999999999e-25,-1.8471700000000001e-25,4.5165899999999999e-29,-1.8324399999999999e-30,1.8719900000000001e-29
1635.0,1.1442e-28,-1.8471000000000001e-25,-1.8464300000000001e-25,-1.8470200000000001e-25,5.0548799999999999e-29,-8.0564999999999995e-31,2.14975e-29
1636.0,1.1353400000000001e-28,-1.8466800000000001e-25,-1.8461899999999999e-25,-1.84663e-25,5.5315399999999996e-29,1.27156e-31,2.21525e-29
1637.0,1.13263e-28,-1.84655e-25,-1.84623e-25,-1.8465100000000001e-25,5.8047699999999998e-29,1.4224100000000001e-30,2.4657400000000001e-29
1638.0,1.1994999999999999e-28,-1.84607e-25,-1.8459200000000001e-25,-1.8460399999999999e-25,6.2167299999999997e-29,2.75558e-30,2.9268400000000003e-29
1639.0,1.19894e-28,-1.8477600000000001e-25,-1.8467500000000001e-25,-1.84765e-25,3.4344000000000001e-29,-3.2758900000000001e-30,2.3817899999999999e-29
1640.0,1.16778e-28,-1.84748e-25,-1.84658e-25,-1.8473799999999999e-25,3.8572699999999998e-29,-2.6903700000000002e-30,2.4848900000000001e-29
1641.0,1.1547499999999999e-28,-1.84731e-25,-1.8465299999999999e-25,-1.8471999999999999e-25,4.3733600000000001e-29,-1.56879e-30,2.7173200000000002e-29
1642.0,1.1295899999999999e-28,-1.84697e-25,-1.8463400000000001e-25,-1.84688e-25,4.7875600000000002e-29,-8.5681399999999996e-31,2.8463899999999998e-29
1643.0,1.1532599999999999e-28,-1.8468e-25,-1.84631e-25,-1.8467099999999999e-25,5.2287200000000005e-29,7.47381e-31,3.1973600000000001e-29
1644.0,1.1487400000000001e-28,-1.84639e-25,-1.8461000000000001e-25,-1.84633e-25,5.5585200000000005e-29,2.0700500000000002e-30,3.26618e-29
1645.0,1.13297e-28,-1.8462500000000001e-25,-1.8461800000000001e-25,-1.8462099999999999e-25,5.6993299999999995e-29,4.1379700000000001e-30,3.1633199999999999e-29
1646.0,1.2092699999999999e-28,-1.8476700000000001e-25,-1.8466999999999999e-25,-1.84756e-25,3.28994e-29,-3.6539499999999999e-30,3.0796099999999998e-29
1647.0,1.1718999999999999e-28,-1.84749e-25,-1.84664e-25,-1.8473799999999999e-25,3.69894e-29,-2.7402699999999999e-30,3.2245699999999998e-29
1648.0,1.1509799999999999e-28,-1.8472099999999999e-25,-1.84647e-25,-1.8471000000000001e-25,4.0830199999999998e-29,-2.0146100000000001e-30,3.4039700000000001e-29
1649.0,1.1598700000000001e-28,-1.8470299999999999e-25,-1.8464200000000001e-25,-1.84691e-25,4.5491799999999999e-29,-4.8658900000000004e-31,3.7083100000000002e-29
1650.0,1.1379e-28,-1.8466899999999999e-25,-1.8462500000000001e-25,-1.84658e-25,4.8313800000000002e-29,6.2562499999999998e-31,3.8275100000000002e-29
1651.0,1.1747200000000001e-28,-1.8465200000000001e-25,-1.84623e-25,-1.8464200000000001e-25,5.1562700000000002e-29,2.70911e-30,4.1451600000000001e-29
1652.0,1.21817e-28,-1.8461099999999999e-25,-1.8460000000000001e-25,-1.8460200000000001e-25,5.4097199999999997e-29,4.0675000000000001e-30,4.4344199999999998e-29
1653.0,1.2010999999999999e-28,-1.84764e-25,-1.84673e-25,-1.8475200000000001e-25,3.1059800000000002e-29,-4.3618999999999997e-30,3.68276e-29
1654.0,1.19047e-28,-1.8474300000000001e-25,-1.8466000000000001e-25,-1.84731e-25,3.4746900000000002e-29,-3.47053e-30,3.8671100000000002e-29
1655.0,1.1738599999999999e-28,-1.84723e-25,-1.8465299999999999e-25,-1.8471099999999999e-25,3.8608900000000001e-29,-2.2104100000000002e-30,4.1022700000000003e-29
1656.0,1.1562199999999999e-28,-1.8469499999999999e-25,-1.84639e-25,-1.84682e-25,4.16281e-29,-1.1331900000000001e-30,4.29911e-29
1657.0,1.18766e-28,-1.8467600000000001e-25,-1.84633e-25,-1.84663e-25,4.5600099999999999e-29,4.2990299999999999e-31,4.62315e-29
1658.0,1.16776e-28,-1.8464200000000001e-25,-1.8461800000000001e-25,-1.8462899999999999e-25,4.6746300000000003e-29,1.6862400000000001e-30,4.7086699999999999e-29
1659.0,1.1708000000000001e-28,-1.8462600000000001e-25,-1.84622e-25,-1.84614e-25,4.7389199999999999e-29,4.0123100000000001e-30,4.7603800000000002e-29
1660.0,1.2396399999999999e-28,-1.8476000000000001e-25,-1.8467099999999999e-25,-1.84748e-25,3.0307299999999999e-29,-4.7485999999999999e-30,4.2425599999999998e-29
1661.0,1.2050399999999999e-28,-1.8474300000000001e-25,-1.84664e-25,-1.84731e-25,3.2565299999999998e-29,-4.0887499999999997e-30,4.3985600000000002e-29
1662.0,1.19127e-28,-1.8471999999999999e-25,-1.8465200000000001e-25,-1.84706e-25,3.5934900000000002e-29,-3.11524e-30,4.6241900000000001e-29
1663.0,1.1974000000000001e-28,-1.84698e-25,-1.8464399999999999e-25,-1.8468500000000001e-25,3.9418600000000001e-29,-2.04376e-30,4.9149199999999998e-29
1664.0,1.1792299999999999e-28,-1.8466899999999999e-25,-1.84631e-25,-1.84655e-25,4.1124199999999998e-29,-6.2476e-31,5.0736500000000002e-29
1665.0,1.2112199999999999e-28,-1.84649e-25,-1.8462600000000001e-25,-1.8463599999999999e-25,4.4056899999999997e-29,9.7569800000000007e-31,5.3034999999999996e-29
1666.0,1.23831e-28,-1.84613e-25,-1.84607e-25,-1.8460100000000001e-25,4.6558e-29,1.47718e-30,5.3911700000000005e-29
1667.0,1.2923799999999999e-28,-1.8478699999999999e-25,-1.8467500000000001e-25,-1.8476999999999999e-25,4.3645099999999999e-29,-3.62741e-30,1.8116000000000001e-30
1668.0,1.1803799999999999e-28,-1.84747e-25,-1.84655e-25,-1.8473799999999999e-25,4.57233e-29,-2.2916299999999999e-31,2.3081500000000001e-30
1669.0,1.1631300000000001e-28,-1.84739e-25,-1.8466099999999999e-25,-1.84731e-25,5.1735299999999996e-29,-2.7030500000000001e-30,2.3196299999999998e-30
1670.0,1.2125199999999999e-28,-1.8469599999999999e-25,-1.8462600000000001e-25,-1.8468699999999999e-25,5.8545300000000005e-29,-1.2102400000000001e-30,4.0459299999999998e-30
1671.0,1.11814e-28,-1.84683e-25,-1.8464499999999999e-25,-1.8468400000000001e-25,6.0507399999999997e-29,-1.1841799999999999e-30,3.36483e-30
1672.0,1.21572e-28,-1.8463699999999999e-25,-1.84599e-25,-1.84632e-25,6.6825500000000004e-29,-1.72453e-30,5.8892e-30
1673.0,1.1784099999999999e-28,-1.8461999999999999e-25,-1.8462600000000001e-25,-1.8463e-25,6.78097e-29,1.27407e-30,1.3223199999999999e-30
1674.0,1.18323e-28,-1.8476700000000001e-25,-1.8466800000000001e-25,-1.84757e-25,3.9542900000000002e-29,-2.2034600000000001e-30,8.9992700000000003e-30
1675.0,1.2058e-28,-1.84758e-25,-1.84665e-25,-1.8474599999999999e-25,4.6579900000000002e-29,-2.3048900000000001e-30,9.7635000000000005e-30
1676.0,1.1724200000000001e-28,-1.84722e-25,-1.8464399999999999e-25,-1.84714e-25,5.1366799999999997e-29,-1.5836500000000001e-30,1.022e-29
1677.0,1.15664e-28,-1.84708e-25,-1.8464599999999999e-25,-1.8470100000000001e-25,5.6218300000000005e-29,-1.6523399999999998e-30,1.16874e-29
1678.0,1.18046e-28,-1.8466700000000001e-25,-1.8461899999999999e-25,-1.8466199999999999e-25,6.1560700000000005e-29,-6.0285299999999998e-31,1.2564499999999999e-29
1679.0,1.1479300000000001e-28,-1.8465100000000001e-25,-1.8462899999999999e-25,-1.8465200000000001e-25,6.3571299999999998e-29,1.17403e-32,1.3113700000000001e-29
1680.0,1.19289e-28,-1.84606e-25,-1.8459599999999999e-25,-1.84605e-25,6.6346299999999999e-29,2.5142799999999999e-31,1.7547299999999999e-29
1681.0,1.22013e-28,-1.84772e-25,-1.8467099999999999e-25,-1.8476000000000001e-25,4.0892100000000001e-29,-2.46792e-30,1.63916e-29
1682.0,1.1800499999999999e-28,-1.8474499999999999e-25,-1.84656e-25,-1.8473500000000001e-25,4.4560000000000003e-29,-2.59645e-30,1.6691499999999999e-29
1683.0,1.1733599999999999e-28,-1.8472899999999999e-25,-1.8465299999999999e-25,-1.8471999999999999e-25,5.0254199999999999e-29,-1.7851700000000001e-30,1.82993e-29
1684.0,1.1627900000000001e-28,-1.8469399999999999e-25,-1.8463400000000001e-25,-1.8468699999999999e-25,5.5114299999999997e-29,-1.1293300000000001e-30,1.9164300000000001e-29
1685.0,1.15728e-28,-1.8467899999999999e-25,-1.8463400000000001e-25,-1.84673e-25,5.8601999999999997e-29,-4.9163099999999999e-31,2.1313900000000001e-29
1686.0,1.17509e-28,-1.84638e-25,-1.8461099999999999e-25,-1.8463400000000001e-25,6.2462799999999995e-29,9.3519500000000007e-31,2.21648e-29
1687.0,1.1580400000000001e-28,-1.84622e-25,-1.8461999999999999e-25,-1.84624e-25,6.38473e-29,2.5146900000000002e-30,1.9575199999999999e-29
1688.0,1.2092e-28,-1.8476299999999999e-25,-1.84666e-25,-1.8475200000000001e-25,3.8871399999999999e-29,-3.4997699999999999e-30,2.3157700000000001e-29
1689.0,1.1856600000000001e-28,-1.84748e-25,-1.8466199999999999e-25,-1.8473599999999999e-25,4.3693300000000002e-29,-2.29284e-30,2.4133599999999999e-29
1690.0,1.1661699999999999e-28,-1.8471900000000001e-25,-1.8464599999999999e-25,-1.8471000000000001e-25,4.8110499999999998e-29,-1.9998299999999998e-30,2.5461600000000003e-29
1691.0,1.16937e-28,-1.8470100000000001e-25,-1.8464200000000001e-25,-1.8469200000000001e-25,5.2731400000000002e-29,-9.8633099999999992e-31,2.7627499999999998e-29
1692.0,1.1583900000000001e-28,-1.84666e-25,-1.8462500000000001e-25,-1.8466000000000001e-25,5.6304000000000002e-29,1.70451e-31,2.8407800000000001e-29
1693.0,1.16793e-28,-1.8465000000000001e-25,-1.8462600000000001e-25,-1.8464399999999999e-25,5.8712099999999998e-29,1.3554200000000001e-30,3.0575400000000002e-29
1694.0,1.2042199999999999e-28,-1.8461000000000001e-25,-1.8460299999999999e-25,-1.84605e-25,6.0477900000000003e-29,2.6227999999999999e-30,3.4021299999999999e-29
1695.0,1.19907e-28,-1.8476099999999999e-25,-1.8466899999999999e-25,-1.84749e-25,3.7334400000000002e-29,-3.5178999999999998e-30,2.9708e-29
1696.0,1.1881000000000001e-28,-1.8474e-25,-1.84657e-25,-1.8472899999999999e-25,4.1375599999999999e-29,-3.0341000000000001e-30,3.1116899999999998e-29
1697.0,1.17769e-28,-1.84722e-25,-1.8465100000000001e-25,-1.8471000000000001e-25,4.6020400000000003e-29,-1.8298599999999998e-30,3.27752e-29
1698.0,1.16331e-28,-1.8469200000000001e-25,-1.8463699999999999e-25,-1.84682e-25,4.9541600000000001e-29,-1.02729e-30,3.43849e-29
1699.0,1.1798699999999999e-28,-1.84674e-25,-1.84633e-25,-1.84664e-25,5.2994899999999999e-29,2.4210800000000002e-31,3.7001600000000002e-29
1700.0,1.1722500000000001e-28,-1.84639e-25,-1.8461700000000001e-25,-1.84632e-25,5.5217500000000003e-29,1.6891499999999999e-30,3.7493300000000002e-29
1701.0,1.16495e-28,-1.84623e-25,-1.8462099999999999e-25,-1.8461800000000001e-25,5.6580300000000002e-29,3.4528900000000001e-30,3.60994e-29
1702.0,1.22797e-28,-1.84757e-25,-1.8466700000000001e-25,-1.8474400000000001e-25,3.6136799999999998e-29,-3.8232699999999998e-30,3.6367099999999999e-29
1703.0,1.1920000000000001e-28,-1.84739e-25,-1.8466000000000001e-25,-1.8472700000000001e-25,3.9257300000000001e-29,-3.1484199999999999e-30,3.6981199999999998e-29
1704.0,1.18392e-28,-1.84716e-25,-1.84649e-25,-1.8470399999999999e-25,4.2883199999999998e-29,-2.3288900000000001e-30,3.9149100000000001e-29
1705.0,1.19096e-28,-1.8469599999999999e-25,-1.8464200000000001e-25,-1.8468400000000001e-25,4.6791999999999998e-29,-1.23915e-30,4.14669e-29
1706.0,1.16968e-28,-1.84666e-25,-1.8463e-25,-1.84656e-25,4.8899400000000001e-29,7.3464199999999996e-32,4.25347e-29
1707.0,1.2020999999999999e-28,-1.84648e-25,-1.8462500000000001e-25,-1.8463699999999999e-25,5.1514900000000002e-29,1.47906e-30,4.5047999999999999e-29
1708.0,1.2272900000000001e-28,-1.8461199999999999e-25,-1.84607e-25,-1.8460299999999999e-25,5.2371299999999997e-29,2.46432e-30,4.74247e-29
1709.0,1.21378e-28,-1.8475200000000001e-25,-1.84666e-25,-1.8474e-25,3.3656499999999998e-29,-5.4064300000000002e-30,3.9685599999999999e-29
1710.0,1.2143600000000001e-28,-1.8473699999999999e-25,-1.8465900000000001e-25,-1.8472500000000001e-25,3.7215200000000001e-29,-3.5945000000000001e-30,4.2269599999999999e-29
1711.0,1.20382e-28,-1.8471700000000001e-25,-1.8465100000000001e-25,-1.84705e-25,4.0618100000000002e-29,-2.91675e-30,4.4240599999999999e-29
1712.0,1.18929e-28,-1.8469200000000001e-25,-1.8464e-25,-1.8468e-25,4.32686e-29,-1.6791200000000001e-30,4.6063899999999999e-29
1713.0,1.21202e-28,-1.8467099999999999e-25,-1.84633e-25,-1.8465900000000001e-25,4.6558200000000002e-29,-7.5263099999999997e-31,4.8555400000000003e-29
1714.0,1.1898399999999999e-28,-1.8464e-25,-1.84622e-25,-1.8462899999999999e-25,4.7228399999999997e-29,3.54072e-31,4.9062699999999999e-29
1715.0,1.1911e-28,-1.84622e-25,-1.84623e-25,-1.8461199999999999e-25,4.7515099999999998e-29,2.63897e-30,4.9262099999999998e-29
1716.0,1.6108000000000001e-28,-1.8485299999999999e-25,-1.8473e-25,-1.84855e-25,-1.19233e-29,-1.21196e-29,5.7083299999999995e-29
1717.0,1.49772e-28,-1.8486199999999999e-25,-1.84741e-25,-1.8485200000000001e-25,-1.3793100000000001e-29,-1.3090300000000001e-29,5.0490700000000005e-29
1718.0,1.5565699999999999e-28,-1.8489e-25,-1.8475200000000001e-25,-1.8488599999999999e-25,-1.2225199999999999e-29,-8.9303600000000001e-30,4.1294099999999999e-29
1719.0,1.51145e-28,-1.84889e-25,-1.84748e-25,-1.84881e-25,-1.4667500000000001e-29,-8.8128699999999995e-30,3.27781e-29
1720.0,1.5276699999999999e-28,-1.84907e-25,-1.8475900000000001e-25,-1.8490100000000001e-25,-1.21862e-29,-5.6146500000000002e-30,2.4469499999999999e-29
1721.0,1.5072499999999999e-28,-1.84905e-25,-1.84755e-25,-1.84898e-25,-1.5081200000000001e-29,-4.7720899999999999e-30,1.2152399999999999e-29
1722.0,1.5041499999999999e-28,-1.8491199999999999e-25,-1.8475900000000001e-25,-1.84905e-25,-1.09842e-29,-1.7066799999999999e-30,5.6025600000000003e-30
1723.0,1.3253900000000001e-28,-1.8482899999999999e-25,-1.8472600000000001e-25,-1.8481700000000001e-25,-1.02389e-29,-1.09834e-29,4.9152699999999998e-29
1724.0,1.5107300000000001e-28,-1.8485e-25,-1.8472799999999999e-25,-1.8485e-25,-8.9537800000000004e-30,-8.7558499999999994e-30,5.0361799999999998e-29
1725.0,1.32529e-28,-1.84849e-25,-1.84731e-25,-1.84839e-25,-1.02465e-29,-8.4559199999999998e-30,3.7647999999999999e-29
1726.0,1.4401499999999999e-28,-1.8486900000000001e-25,-1.8473699999999999e-25,-1.8486900000000001e-25,-8.1621600000000003e-30,-4.9840900000000003e-30,3.18789e-29
1727.0,1.33183e-28,-1.84864e-25,-1.8473500000000001e-25,-1.8485900000000001e-25,-1.01844e-29,-4.9803799999999997e-30,2.07386e-29
1728.0,1.3926e-28,-1.84875e-25,-1.84739e-25,-1.84875e-25,-7.3863400000000002e-30,-1.2831399999999999e-30,1.3635399999999999e-29
1729.0,1.35761e-28,-1.84874e-25,-1.84739e-25,-1.84873e-25,-1.0183899999999999e-29,-3.0771400000000001e-30,1.5926100000000002e-30
1730.0,1.4721499999999999e-28,-1.8483699999999999e-25,-1.84723e-25,-1.8482899999999999e-25,-3.8202499999999998e-30,-1.19812e-29,5.5072099999999996e-29
1731.0,1.5081300000000001e-28,-1.8486199999999999e-25,-1.8473400000000001e-25,-1.84856e-25,-4.7717699999999999e-30,-1.06603e-29,4.7468200000000002e-29
1732.0,1.4829500000000001e-28,-1.8486800000000001e-25,-1.8473400000000001e-25,-1.8485900000000001e-25,-5.1004999999999997e-30,-9.1175099999999998e-30,4.0382999999999999e-29
1733.0,1.49283e-28,-1.8488699999999999e-25,-1.8474499999999999e-25,-1.8487799999999999e-25,-4.9342900000000002e-30,-7.36156e-30,3.1538400000000002e-29
1734.0,1.47408e-28,-1.8488699999999999e-25,-1.84741e-25,-1.8487799999999999e-25,-5.7612399999999998e-30,-5.6606300000000002e-30,2.1821000000000001e-29
1735.0,1.4770599999999999e-28,-1.84898e-25,-1.84748e-25,-1.84889e-25,-3.95663e-30,-3.9599500000000001e-30,1.3806000000000001e-29
1736.0,1.47242e-28,-1.84897e-25,-1.8474499999999999e-25,-1.8488699999999999e-25,-6.7363999999999999e-30,-2.6847e-30,1.5999200000000001e-30
1737.0,1.42197e-28,-1.84825e-25,-1.84714e-25,-1.8481800000000001e-25,-1.4182499999999999e-30,-9.7612400000000001e-30,5.2429299999999996e-29
1738.0,1.3428600000000001e-28,-1.8482799999999999e-25,-1.84715e-25,-1.8481900000000001e-25,-1.24365e-30,-8.3319400000000004e-30,4.47432e-29
1739.0,1.3835200000000001e-28,-1.84847e-25,-1.84724e-25,-1.8484200000000001e-25,-8.0717000000000008e-31,-7.1504400000000002e-30,3.8207900000000002e-29
1740.0,1.32546e-28,-1.84847e-25,-1.8472099999999999e-25,-1.8484e-25,-8.0474600000000008e-31,-5.13835e-30,2.8959400000000001e-29
1741.0,1.36548e-28,-1.8486199999999999e-25,-1.8472799999999999e-25,-1.84857e-25,3.1404399999999998e-31,-4.0526199999999999e-30,2.12756e-29
1742.0,1.3212999999999999e-28,-1.8485900000000001e-25,-1.8472600000000001e-25,-1.8485399999999999e-25,-7.5701899999999997e-31,-2.6323200000000001e-30,1.08768e-29
1743.0,1.37267e-28,-1.8486999999999999e-25,-1.84731e-25,-1.84865e-25,1.6220700000000001e-30,-2.0238899999999999e-31,3.9136999999999999e-30
1744.0,1.4614300000000001e-28,-1.8483e-25,-1.84714e-25,-1.84822e-25,4.2130599999999998e-30,-1.1121499999999999e-29,5.2454800000000005e-29
1745.0,1.44615e-28,-1.8484300000000001e-25,-1.8471900000000001e-25,-1.84833e-25,3.8772200000000002e-30,-9.0616100000000006e-30,4.6218799999999998e-29
1746.0,1.4553399999999999e-28,-1.8486099999999999e-25,-1.8472799999999999e-25,-1.8485100000000001e-25,2.98957e-30,-8.3623500000000003e-30,3.8087799999999998e-29
1747.0,1.4403600000000001e-28,-1.84865e-25,-1.8472700000000001e-25,-1.84855e-25,3.3259299999999999e-30,-6.5253300000000006e-30,3.01513e-29
1748.0,1.4428999999999999e-28,-1.8487899999999999e-25,-1.8473500000000001e-25,-1.8486800000000001e-25,3.4345800000000002e-30,-5.31974e-30,2.1260900000000001e-29
1749.0,1.4301799999999999e-28,-1.8487700000000001e-25,-1.8473e-25,-1.84866e-25,2.7489500000000001e-30,-3.7607600000000002e-30,1.13761e-29
1750.0,1.44678e-28,-1.84889e-25,-1.84739e-25,-1.8487600000000001e-25,4.6160499999999999e-30,-2.0829100000000001e-30,3.9405699999999998e-30
1751.0,1.34013e-28,-1.84808e-25,-1.8470200000000001e-25,-1.84798e-25,7.0167800000000006e-30,-8.5425399999999996e-30,4.9322300000000002e-29
1752.0,1.3418800000000001e-28,-1.84824e-25,-1.8471000000000001e-25,-1.84815e-25,6.8590600000000006e-30,-7.7620899999999999e-30,4.3212800000000001e-29
1753.0,1.31847e-28,-1.8482700000000001e-25,-1.84708e-25,-1.8481800000000001e-25,7.6475300000000004e-30,-5.8703900000000001e-30,3.5943599999999997e-29
1754.0,1.32942e-28,-1.8484200000000001e-25,-1.84716e-25,-1.8483400000000001e-25,7.88472e-30,-5.4227000000000002e-30,2.8034999999999999e-29
1755.0,1.30343e-28,-1.84841e-25,-1.8471299999999999e-25,-1.8483400000000001e-25,8.1711400000000007e-30,-3.3831699999999998e-30,1.9385700000000001e-29
1756.0,1.34292e-28,-1.8485399999999999e-25,-1.8471900000000001e-25,-1.84847e-25,9.4949300000000002e-30,-2.7272499999999999e-30,1.14335e-29
1757.0,1.28789e-28,-1.84849e-25,-1.8471800000000001e-25,-1.8484400000000001e-25,7.49846e-30,-2.13168e-30,1.17212e-30
1758.0,1.4068399999999999e-28,-1.84814e-25,-1.8470299999999999e-25,-1.84805e-25,1.22173e-29,-8.9253999999999998e-30,5.0296600000000002e-29
1759.0,1.4142400000000001e-28,-1.84833e-25,-1.8471099999999999e-25,-1.84822e-25,1.1293299999999999e-29,-8.8405500000000003e-30,4.36236e-29
1760.0,1.40334e-28,-1.84841e-25,-1.8471199999999999e-25,-1.8482899999999999e-25,1.17107e-29,-6.7791399999999994e-30,3.67336e-29
1761.0,1.4043699999999999e-28,-1.84855e-25,-1.8471900000000001e-25,-1.8484200000000001e-25,1.12322e-29,-6.3142799999999997e-30,2.8181999999999999e-29
1762.0,1.39091e-28,-1.84855e-25,-1.84716e-25,-1.8484200000000001e-25,1.1781599999999999e-29,-4.5809100000000002e-30,2.0090800000000001e-29
1763.0,1.40022e-28,-1.8486700000000001e-25,-1.84724e-25,-1.8485299999999999e-25,1.19466e-29,-3.5469499999999997e-30,1.13351e-29
1764.0,1.3753700000000001e-28,-1.8486099999999999e-25,-1.8471900000000001e-25,-1.84847e-25,1.1222199999999999e-29,-2.87406e-30,9.5404799999999992e-31
1765.0,1.3175299999999999e-28,-1.848e-25,-1.8469499999999999e-25,-1.84789e-25,1.44583e-29,-7.8881900000000002e-30,4.6723599999999998e-29
1766.0,1.3083999999999999e-28,-1.84806e-25,-1.8469499999999999e-25,-1.8479499999999999e-25,1.51694e-29,-6.2604199999999997e-30,4.14224e-29
1767.0,1.2990699999999999e-28,-1.8481999999999999e-25,-1.8470299999999999e-25,-1.8480900000000001e-25,1.5213999999999999e-29,-6.15634e-30,3.3987099999999999e-29
1768.0,1.29298e-28,-1.84822e-25,-1.8470000000000001e-25,-1.8481199999999999e-25,1.62677e-29,-4.2447399999999999e-30,2.6714099999999998e-29
1769.0,1.3052699999999999e-28,-1.8483500000000001e-25,-1.84707e-25,-1.84825e-25,1.6687400000000001e-29,-4.0806799999999997e-30,1.8456399999999999e-29
1770.0,1.27547e-28,-1.84831e-25,-1.8470399999999999e-25,-1.84822e-25,1.6364600000000001e-29,-2.4603400000000001e-30,1.00888e-29
1771.0,1.36909e-28,-1.8485e-25,-1.8471000000000001e-25,-1.8483599999999999e-25,1.8252e-29,-1.0592300000000001e-30,3.0436600000000001e-30
1772.0,1.3756800000000001e-28,-1.8480299999999999e-25,-1.8469399999999999e-25,-1.84791e-25,1.9607699999999999e-29,-8.6693500000000005e-30,4.7645499999999998e-29
1773.0,1.3679e-28,-1.84815e-25,-1.84699e-25,-1.8480299999999999e-25,1.92921e-29,-6.7649700000000004e-30,4.1653400000000002e-29
1774.0,1.36839e-28,-1.8482799999999999e-25,-1.8470399999999999e-25,-1.84815e-25,1.9048e-29,-6.8510099999999999e-30,3.4409000000000002e-29
1775.0,1.35485e-28,-1.84832e-25,-1.8470399999999999e-25,-1.8481800000000001e-25,1.9718499999999999e-29,-4.93851e-30,2.7199099999999999e-29
1776.0,1.3586699999999999e-28,-1.8484300000000001e-25,-1.8470900000000001e-25,-1.8482799999999999e-25,1.9493100000000001e-29,-4.4789999999999998e-30,1.8499400000000001e-29
1777.0,1.33888e-28,-1.8484e-25,-1.84705e-25,-1.84825e-25,1.9998299999999999e-29,-3.4588599999999997e-30,1.0313099999999999e-29
1778.0,1.3849499999999999e-28,-1.84856e-25,-1.8471299999999999e-25,-1.8483699999999999e-25,1.9889799999999999e-29,-1.4568900000000001e-30,3.10903e-30
1779.0,1.2916000000000001e-28,-1.8478500000000001e-25,-1.8468400000000001e-25,-1.84774e-25,2.1682500000000001e-29,-6.1499200000000001e-30,4.4754499999999999e-29
1780.0,1.2777300000000001e-28,-1.8479599999999999e-25,-1.8469e-25,-1.8478500000000001e-25,2.1773100000000001e-29,-6.4758899999999996e-30,3.8784799999999999e-29
1781.0,1.2773e-28,-1.8480100000000001e-25,-1.84689e-25,-1.8479e-25,2.31454e-29,-4.8172699999999998e-30,3.2642399999999999e-29
1782.0,1.2721399999999999e-28,-1.8481199999999999e-25,-1.8469499999999999e-25,-1.8480100000000001e-25,2.3474500000000001e-29,-4.7978800000000001e-30,2.4922799999999999e-29
1783.0,1.2648200000000001e-28,-1.8481199999999999e-25,-1.8469200000000001e-25,-1.8480100000000001e-25,2.4207900000000001e-29,-3.1284399999999999e-30,1.77283e-29
1784.0,1.30215e-28,-1.84825e-25,-1.84698e-25,-1.8481299999999999e-25,2.5371599999999997e-29,-2.9347e-30,9.7172200000000004e-30
1785.0,1.2091299999999999e-28,-1.84815e-25,-1.84697e-25,-1.84807e-25,2.27252e-29,-2.51885e-30,7.9367299999999997e-31
1786.0,1.33463e-28,-1.84789e-25,-1.8468599999999999e-25,-1.8477799999999999e-25,2.5556899999999999e-29,-6.67345e-30,4.50156e-29
1787.0,1.3355300000000001e-28,-1.8480100000000001e-25,-1.84691e-25,-1.84789e-25,2.5883899999999998e-29,-6.9598999999999999e-30,3.9398299999999998e-29
1788.0,1.32184e-28,-1.84808e-25,-1.8469200000000001e-25,-1.8479400000000001e-25,2.6513499999999998e-29,-4.9481700000000003e-30,3.3014800000000003e-29
1789.0,1.3193800000000001e-28,-1.8481700000000001e-25,-1.8469499999999999e-25,-1.8480200000000001e-25,2.6832199999999999e-29,-5.0778499999999997e-30,2.52149e-29
1790.0,1.3042999999999999e-28,-1.8481700000000001e-25,-1.8469300000000001e-25,-1.8480200000000001e-25,2.7575400000000001e-29,-3.3878000000000001e-30,1.8167599999999999e-29
1791.0,1.32451e-28,-1.8482899999999999e-25,-1.84698e-25,-1.8481099999999999e-25,2.7374300000000002e-29,-2.9569900000000001e-30,9.6750000000000001e-30
1792.0,1.2554699999999999e-28,-1.8481700000000001e-25,-1.8469499999999999e-25,-1.8480299999999999e-25,2.8239999999999998e-29,-3.30996e-30,4.8299599999999997e-31
1793.0,1.2601200000000001e-28,-1.84775e-25,-1.8467899999999999e-25,-1.8476299999999999e-25,2.73297e-29,-6.3521799999999998e-30,4.1971499999999998e-29
1794.0,1.26423e-28,-1.84781e-25,-1.8468e-25,-1.8476900000000001e-25,2.85849e-29,-5.0066200000000001e-30,3.7328000000000001e-29
1795.0,1.25085e-28,-1.8479e-25,-1.84683e-25,-1.8477799999999999e-25,2.9175099999999999e-29,-5.2141200000000003e-30,3.06453e-29
1796.0,1.25441e-28,-1.8479200000000001e-25,-1.84682e-25,-1.84781e-25,3.0705800000000001e-29,-3.5930799999999998e-30,2.4335899999999999e-29
1797.0,1.25868e-28,-1.8480200000000001e-25,-1.8468699999999999e-25,-1.8479e-25,3.1247100000000001e-29,-3.5200200000000001e-30,1.6646799999999999e-29
1798.0,1.22554e-28,-1.84798e-25,-1.8468400000000001e-25,-1.8478699999999999e-25,3.0899600000000001e-29,-2.5048000000000001e-30,9.1393800000000003e-30
1799.0,1.3637499999999999e-28,-1.8481900000000001e-25,-1.84688e-25,-1.848e-25,3.4869300000000001e-29,-1.48178e-30,2.2077999999999998e-30
1800.0,1.2921200000000001e-28,-1.8477700000000001e-25,-1.84681e-25,-1.84766e-25,3.0892700000000001e-29,-6.1107599999999997e-30,4.2827700000000001e-29
1801.0,1.2974900000000001e-28,-1.8478400000000001e-25,-1.84682e-25,-1.84772e-25,3.1925200000000001e-29,-5.07728e-30,3.7623e-29
1802.0,1.2928e-28,-1.8479e-25,-1.84682e-25,-1.8477700000000001e-25,3.3026899999999998e-29,-5.1482400000000001e-30,3.1895600000000001e-29
1803.0,1.27812e-28,-1.8479400000000001e-25,-1.84682e-25,-1.8477899999999999e-25,3.38493e-29,-3.27892e-30,2.47767e-29
1804.0,1.2861699999999999e-28,-1.8480100000000001e-25,-1.8468400000000001e-25,-1.8478400000000001e-25,3.4391499999999998e-29,-3.6992499999999999e-30,1.71811e-29
1805.0,1.2455299999999999e-28,-1.84798e-25,-1.8468400000000001e-25,-1.84782e-25,3.4931699999999998e-29,-2.59786e-30,9.5761500000000002e-30
1806.0,1.36599e-28,-1.84815e-25,-1.84682e-25,-1.8479e-25,3.5502900000000001e-29,-6.6058300000000002e-31,2.1921799999999999e-30
1807.0,1.2500899999999999e-28,-1.84765e-25,-1.84672e-25,-1.8475299999999999e-25,3.2154999999999997e-29,-4.46988e-30,4.0421699999999998e-29
1808.0,1.23401e-28,-1.8476999999999999e-25,-1.8467500000000001e-25,-1.84758e-25,3.2981000000000001e-29,-5.3343699999999999e-30,3.5457400000000001e-29
1809.0,1.2436100000000001e-28,-1.84775e-25,-1.8467500000000001e-25,-1.8476299999999999e-25,3.5162800000000001e-29,-3.7516099999999999e-30,2.9997799999999998e-29
1810.0,1.23777e-28,-1.84781e-25,-1.8467700000000001e-25,-1.8476900000000001e-25,3.5794100000000001e-29,-3.8403999999999998e-30,2.3397399999999999e-29
1811.0,1.2279200000000001e-28,-1.84783e-25,-1.8467600000000001e-25,-1.8476999999999999e-25,3.6794299999999997e-29,-2.93153e-30,1.64221e-29
1812.0,1.27652e-28,-1.8479300000000001e-25,-1.8467799999999999e-25,-1.8477799999999999e-25,3.8520199999999997e-29,-2.41079e-30,9.0166500000000006e-30
1813.0,1.12793e-28,-1.84783e-25,-1.84681e-25,-1.84774e-25,3.2785700000000002e-29,-1.7135900000000001e-30,8.2300899999999994e-31
1814.0,1.19977e-28,-1.8460399999999999e-25,-1.84598e-25,-1.8460299999999999e-25,6.8862600000000005e-29,-1.54617e-30,6.4134099999999999e-30
1815.0,1.1952700000000001e-28,-1.8462500000000001e-25,-1.8463500000000001e-25,-1.8462899999999999e-25,6.8732900000000001e-29,3.58211e-30,3.4111000000000002e-31
1816.0,1.18279e-28,-1.8462099999999999e-25,-1.8462600000000001e-25,-1.8462600000000001e-25,6.7555700000000001e-29,1.8555e-30,9.4338399999999996e-30
1817.0,1.20723e-28,-1.84608e-25,-1.84615e-25,-1.8461000000000001e-25,6.8295500000000003e-29,1.9159e-30,1.3320299999999999e-29
1818.0,1.19891e-28,-1.8460900000000001e-25,-1.8460900000000001e-25,-1.84608e-25,6.5033999999999998e-29,1.7989300000000001e-30,2.3632700000000001e-29
1819.0,1.19031e-28,-1.84623e-25,-1.84632e-25,-1.8462700000000001e-25,6.6243499999999996e-29,3.4791499999999998e-30,1.7396200000000001e-29
1820.0,1.1756199999999999e-28,-1.84622e-25,-1.8462500000000001e-25,-1.84622e-25,6.2614700000000004e-29,2.7161999999999998e-30,2.6006300000000002e-29
1821.0,1.2169900000000001e-28,-1.8461199999999999e-25,-1.8461999999999999e-25,-1.84615e-25,6.3184699999999995e-29,3.6504499999999998e-30,3.0255899999999998e-29
1822.0,1.21703e-28,-1.8461199999999999e-25,-1.84613e-25,-1.84608e-25,5.7922200000000002e-29,2.54989e-30,3.9593299999999999e-29
1823.0,1.19433e-28,-1.8462099999999999e-25,-1.8463e-25,-1.8462500000000001e-25,6.0372400000000003e-29,2.72296e-30,3.28977e-29
1824.0,1.1929e-28,-1.8461999999999999e-25,-1.84623e-25,-1.8461700000000001e-25,5.5644700000000002e-29,2.1432200000000001e-30,4.0410299999999998e-29
1825.0,1.24174e-28,-1.84613e-25,-1.8461899999999999e-25,-1.84613e-25,5.4958400000000005e-29,2.45366e-30,4.5821900000000001e-29
1826.0,1.2400200000000001e-28,-1.84614e-25,-1.84614e-25,-1.84606e-25,4.8821099999999999e-29,1.26735e-30,5.2131199999999995e-29
1827.0,1.2253200000000001e-28,-1.84614e-25,-1.84622e-25,-1.8461700000000001e-25,5.3256500000000005e-29,-5.43752e-32,4.6389099999999998e-29
1828.0,1.1496799999999999e-28,-1.8465200000000001e-25,-1.84639e-25,-1.84656e-25,6.5727700000000001e-29,4.1270100000000002e-31,2.8548200000000001e-30
1829.0,1.2131999999999999e-28,-1.8463500000000001e-25,-1.8461700000000001e-25,-1.84631e-25,6.9337499999999996e-29,1.20757e-31,2.6317500000000001e-30
1830.0,1.1943000000000001e-28,-1.8463699999999999e-25,-1.84614e-25,-1.8463500000000001e-25,6.6588100000000001e-29,1.4589299999999999e-31,1.24758e-29
1831.0,1.1560900000000001e-28,-1.8465200000000001e-25,-1.84639e-25,-1.8465200000000001e-25,6.5394199999999999e-29,1.94139e-30,1.10508e-29
1832.0,1.16676e-28,-1.8465000000000001e-25,-1.84631e-25,-1.84648e-25,6.3421199999999995e-29,5.5976099999999996e-31,2.0167499999999999e-29
1833.0,1.19008e-28,-1.84641e-25,-1.8462700000000001e-25,-1.8464e-25,6.5310299999999997e-29,2.5857299999999999e-30,1.9808200000000001e-29
1834.0,1.18507e-28,-1.8464e-25,-1.8462099999999999e-25,-1.8463599999999999e-25,6.1324000000000003e-29,1.4994199999999999e-30,2.8595300000000001e-29
1835.0,1.17752e-28,-1.84649e-25,-1.8463699999999999e-25,-1.8465000000000001e-25,6.1765899999999995e-29,2.00953e-30,2.7490099999999997e-29
1836.0,1.17983e-28,-1.84647e-25,-1.8462899999999999e-25,-1.8464200000000001e-25,5.7172999999999997e-29,7.9207600000000008e-31,3.5842199999999998e-29
1837.0,1.2084499999999999e-28,-1.8464200000000001e-25,-1.8463e-25,-1.8464200000000001e-25,5.9381500000000002e-29,2.17992e-30,3.59364e-29
1838.0,1.2013200000000001e-28,-1.8464e-25,-1.84624e-25,-1.8463400000000001e-25,5.3799799999999997e-29,1.2519699999999999e-30,4.29683e-29
1839.0,1.2034400000000001e-28,-1.8464499999999999e-25,-1.84633e-25,-1.8464499999999999e-25,5.4806100000000003e-29,6.0011500000000001e-31,4.2194299999999998e-29
1840.0,1.2103200000000001e-28,-1.8464300000000001e-25,-1.8462600000000001e-25,-1.8463599999999999e-25,4.9825099999999999e-29,-1.1024700000000001e-31,4.8238799999999999e-29
1841.0,1.23844e-28,-1.8464e-25,-1.8462700000000001e-25,-1.84639e-25,5.0918900000000002e-29,-6.8903700000000002e-31,4.9717200000000002e-29
1842.0,1.2300700000000001e-28,-1.84665e-25,-1.8461700000000001e-25,-1.84657e-25,6.5971099999999996e-29,-1.38976e-30,3.6798399999999997e-30
1843.0,1.1015099999999999e-28,-1.84682e-25,-1.84649e-25,-1.8467799999999999e-25,6.1025400000000003e-29,1.27596e-30,2.3948300000000001e-30
1844.0,1.1559200000000001e-28,-1.8467899999999999e-25,-1.8464e-25,-1.8467500000000001e-25,6.2239000000000002e-29,-7.8762700000000004e-31,1.14754e-29
1845.0,1.1837000000000001e-28,-1.8466800000000001e-25,-1.84631e-25,-1.8466199999999999e-25,6.4499300000000001e-29,1.0906799999999999e-30,1.07827e-29
1846.0,1.1859199999999999e-28,-1.8466700000000001e-25,-1.8462700000000001e-25,-1.8466199999999999e-25,6.1942699999999996e-29,1.1455499999999999e-31,1.9669700000000001e-29
1847.0,1.14763e-28,-1.8467700000000001e-25,-1.8464399999999999e-25,-1.84674e-25,6.0737599999999997e-29,8.61703e-31,1.9136100000000001e-29
1848.0,1.1745500000000001e-28,-1.8467500000000001e-25,-1.8463699999999999e-25,-1.8466800000000001e-25,5.8461299999999997e-29,-4.6837500000000003e-31,2.7701300000000001e-29
1849.0,1.1801000000000001e-28,-1.8466999999999999e-25,-1.84638e-25,-1.8466700000000001e-25,5.9764700000000005e-29,1.4607900000000001e-30,2.7393700000000002e-29
1850.0,1.18573e-28,-1.8466700000000001e-25,-1.84631e-25,-1.8466000000000001e-25,5.5697800000000003e-29,1.1024500000000001e-31,3.4970700000000001e-29
1851.0,1.18276e-28,-1.84673e-25,-1.8464300000000001e-25,-1.8467099999999999e-25,5.6288400000000005e-29,4.5435400000000004e-31,3.4722400000000002e-29
1852.0,1.1942800000000001e-28,-1.8467099999999999e-25,-1.8463500000000001e-25,-1.8466199999999999e-25,5.1590600000000002e-29,-8.6637999999999998e-31,4.17729e-29
1853.0,1.2117199999999999e-28,-1.8466800000000001e-25,-1.84638e-25,-1.84666e-25,5.3162099999999996e-29,-3.6285700000000001e-31,4.2295699999999998e-29
1854.0,1.2096400000000001e-28,-1.8466700000000001e-25,-1.84633e-25,-1.84658e-25,4.8364199999999999e-29,-9.2592699999999995e-31,4.72292e-29
1855.0,1.2223800000000001e-28,-1.8466800000000001e-25,-1.8463699999999999e-25,-1.84665e-25,4.8745899999999999e-29,-1.8049299999999999e-30,4.8111599999999998e-29
1856.0,1.12286e-28,-1.84708e-25,-1.84655e-25,-1.8470399999999999e-25,5.76804e-29,-1.08656e-30,2.4388299999999999e-30
1857.0,1.23829e-28,-1.8469499999999999e-25,-1.84633e-25,-1.84682e-25,6.3465499999999999e-29,-5.0785199999999999e-31,1.9145799999999999e-30
1858.0,1.19547e-28,-1.8469499999999999e-25,-1.8463400000000001e-25,-1.8468699999999999e-25,5.97898e-29,-8.7663799999999999e-31,1.08211e-29
1859.0,1.1307900000000001e-28,-1.84705e-25,-1.8465100000000001e-25,-1.84697e-25,5.7504200000000004e-29,-1.4985800000000001e-31,1.05415e-29
1860.0,1.1676599999999999e-28,-1.8470200000000001e-25,-1.8464599999999999e-25,-1.8469499999999999e-25,5.6972500000000003e-29,-1.35645e-30,1.8728e-29
1861.0,1.1801899999999999e-28,-1.84697e-25,-1.8464300000000001e-25,-1.84689e-25,5.8431600000000002e-29,3.2418500000000001e-31,1.8799199999999999e-29
1862.0,1.18295e-28,-1.8469399999999999e-25,-1.84639e-25,-1.8468599999999999e-25,5.55528e-29,-9.0756100000000007e-31,2.6490000000000002e-29
1863.0,1.16919e-28,-1.8470100000000001e-25,-1.84649e-25,-1.8469499999999999e-25,5.5398599999999996e-29,-2.7619799999999999e-31,2.63234e-29
1864.0,1.1880599999999999e-28,-1.84697e-25,-1.8464399999999999e-25,-1.84688e-25,5.2439300000000004e-29,-1.4676300000000001e-30,3.3759099999999998e-29
1865.0,1.1916399999999999e-28,-1.8469599999999999e-25,-1.8464599999999999e-25,-1.8469e-25,5.30662e-29,-6.6266900000000002e-31,3.4283600000000001e-29
1866.0,1.20156e-28,-1.8469200000000001e-25,-1.84641e-25,-1.84683e-25,4.9193799999999999e-29,-1.5977999999999999e-30,4.0550599999999999e-29
1867.0,1.2043e-28,-1.8469599999999999e-25,-1.84648e-25,-1.84691e-25,4.9773099999999997e-29,-1.59633e-30,4.0584599999999998e-29
1868.0,1.21478e-28,-1.8469300000000001e-25,-1.8464200000000001e-25,-1.84683e-25,4.5976900000000001e-29,-2.3656799999999999e-30,4.5569799999999998e-29
1869.0,1.2346300000000001e-28,-1.8469399999999999e-25,-1.8464499999999999e-25,-1.84689e-25,4.5766800000000002e-29,-3.1545700000000001e-30,4.7550800000000002e-29
1870.0,1.2427900000000001e-28,-1.84722e-25,-1.8464e-25,-1.8470900000000001e-25,5.6305599999999995e-29,-1.1726099999999999e-30,2.5283800000000001e-30
1871.0,1.08108e-28,-1.84732e-25,-1.84664e-25,-1.84722e-25,5.03546e-29,-4.4958500000000002e-31,2.2970000000000001e-30
1872.0,1.16825e-28,-1.8473e-25,-1.84656e-25,-1.8472099999999999e-25,5.3117399999999999e-29,-1.90976e-30,1.0103400000000001e-29
1873.0,1.20396e-28,-1.8472500000000001e-25,-1.84648e-25,-1.8471099999999999e-25,5.5185399999999996e-29,-4.0423200000000004e-31,9.8916600000000006e-30
1874.0,1.1922899999999999e-28,-1.8472099999999999e-25,-1.84647e-25,-1.8471099999999999e-25,5.3117300000000004e-29,-1.5889300000000001e-30,1.7758699999999999e-29
1875.0,1.1651699999999999e-28,-1.8472799999999999e-25,-1.84657e-25,-1.8471800000000001e-25,5.2227300000000004e-29,-1.0004599999999999e-30,1.77998e-29
1876.0,1.18524e-28,-1.84724e-25,-1.8465299999999999e-25,-1.8471299999999999e-25,5.08372e-29,-2.0139799999999999e-30,2.5016199999999999e-29
1877.0,1.1964200000000001e-28,-1.84723e-25,-1.8465299999999999e-25,-1.8471299999999999e-25,5.1391400000000004e-29,-1.28249e-30,2.6094500000000001e-29
1878.0,1.1964000000000001e-28,-1.8471800000000001e-25,-1.84649e-25,-1.84707e-25,4.8510999999999997e-29,-2.18679e-30,3.2624099999999999e-29
1879.0,1.2041000000000001e-28,-1.84724e-25,-1.84656e-25,-1.84715e-25,4.9004499999999998e-29,-1.8787599999999999e-30,3.27086e-29
1880.0,1.20892e-28,-1.8471800000000001e-25,-1.8465200000000001e-25,-1.84707e-25,4.5941100000000002e-29,-2.57991e-30,3.8621600000000003e-29
1881.0,1.2290299999999999e-28,-1.8471999999999999e-25,-1.8465399999999999e-25,-1.8471199999999999e-25,4.5773299999999999e-29,-3.0384399999999998e-30,4.03091e-29
1882.0,1.22801e-28,-1.84716e-25,-1.8465100000000001e-25,-1.84705e-25,4.2787800000000001e-29,-3.1889600000000001e-30,4.4482599999999998e-29
1883.0,1.2547100000000001e-28,-1.8471999999999999e-25,-1.8465399999999999e-25,-1.8471199999999999e-25,4.3006700000000002e-29,-4.0898799999999999e-30,4.5646000000000002e-29
1884.0,1.1546100000000001e-28,-1.84757e-25,-1.8466999999999999e-25,-1.84747e-25,4.6961100000000002e-29,-2.3703799999999999e-30,1.52969e-30
1885.0,1.30753e-28,-1.84755e-25,-1.8465100000000001e-25,-1.84733e-25,5.2015899999999998e-29,-9.49918e-31,1.0579700000000001e-30
1886.0,1.21268e-28,-1.84747e-25,-1.84656e-25,-1.8473500000000001e-25,4.8803700000000001e-29,-1.71504e-30,9.1861999999999995e-30
1887.0,1.16778e-28,-1.84755e-25,-1.8466700000000001e-25,-1.84741e-25,4.6874400000000002e-29,-1.71135e-30,9.6685299999999998e-30
1888.0,1.1932899999999999e-28,-1.8475e-25,-1.84663e-25,-1.84739e-25,4.7129399999999999e-29,-2.2963899999999999e-30,1.6854999999999999e-29
1889.0,1.2158400000000001e-28,-1.8475e-25,-1.8466000000000001e-25,-1.8473599999999999e-25,4.7423700000000002e-29,-1.6249300000000001e-30,1.76893e-29
1890.0,1.2043599999999999e-28,-1.8474300000000001e-25,-1.84658e-25,-1.84732e-25,4.5909899999999998e-29,-2.65307e-30,2.4277999999999999e-29
1891.0,1.20955e-28,-1.8475e-25,-1.84664e-25,-1.8473799999999999e-25,4.5979399999999997e-29,-2.08661e-30,2.46417e-29
1892.0,1.2043e-28,-1.8474300000000001e-25,-1.8466099999999999e-25,-1.84731e-25,4.4134900000000002e-29,-2.8530500000000001e-30,3.0528100000000002e-29
1893.0,1.2330000000000001e-28,-1.8474599999999999e-25,-1.84663e-25,-1.8473500000000001e-25,4.4158999999999998e-29,-3.0969699999999999e-30,3.2739099999999998e-29
1894.0,1.21839e-28,-1.8473799999999999e-25,-1.8466000000000001e-25,-1.8472700000000001e-25,4.1487299999999999e-29,-3.3511499999999997e-30,3.7574399999999998e-29
1895.0,1.25315e-28,-1.8474400000000001e-25,-1.84663e-25,-1.84733e-25,4.23558e-29,-3.6047500000000001e-30,3.84977e-29
1896.0,1.2300199999999999e-28,-1.8473799999999999e-25,-1.8466099999999999e-25,-1.8472600000000001e-25,3.9650299999999999e-29,-3.6614200000000003e-30,4.1755599999999998e-29
1897.0,1.28303e-28,-1.84741e-25,-1.8466199999999999e-25,-1.84732e-25,3.91883e-29,-4.7805800000000002e-30,4.5362899999999998e-29
1898.0,1.2909099999999999e-28,-1.84774e-25,-1.84664e-25,-1.84756e-25,4.5814700000000003e-29,-1.2444199999999999e-30,2.1424600000000001e-30
1899.0,1.1306400000000001e-28,-1.84775e-25,-1.8468e-25,-1.8476299999999999e-25,4.0049099999999999e-29,-2.3602299999999999e-30,1.8863099999999999e-30
1900.0,1.20517e-28,-1.84772e-25,-1.84672e-25,-1.8476000000000001e-25,4.2177000000000001e-29,-2.6424000000000001e-30,9.2651800000000004e-30
1901.0,1.2677299999999999e-28,-1.8478e-25,-1.8466999999999999e-25,-1.8476099999999999e-25,4.2350300000000002e-29,-1.8918600000000002e-30,9.4454600000000001e-30
1902.0,1.2241600000000001e-28,-1.8476700000000001e-25,-1.8466700000000001e-25,-1.8475399999999999e-25,4.19569e-29,-2.65986e-30,1.63822e-29
1903.0,1.2302200000000001e-28,-1.8477600000000001e-25,-1.84674e-25,-1.8476099999999999e-25,4.1194700000000002e-29,-2.30383e-30,1.69637e-29
1904.0,1.2209200000000001e-28,-1.84765e-25,-1.8466899999999999e-25,-1.8475299999999999e-25,4.1296700000000002e-29,-2.9133600000000002e-30,2.3273700000000001e-29
1905.0,1.2488500000000001e-28,-1.84772e-25,-1.84672e-25,-1.84758e-25,4.0079299999999999e-29,-3.2594200000000002e-30,2.5001399999999999e-29
1906.0,1.22441e-28,-1.8476000000000001e-25,-1.8466800000000001e-25,-1.84748e-25,3.92652e-29,-3.7865299999999998e-30,3.0195300000000001e-29
1907.0,1.2584600000000001e-28,-1.8476900000000001e-25,-1.84672e-25,-1.84756e-25,3.9206299999999998e-29,-3.3884600000000001e-30,3.12812e-29
1908.0,1.2240100000000001e-28,-1.84757e-25,-1.8466800000000001e-25,-1.8474400000000001e-25,3.7853699999999999e-29,-3.7876000000000002e-30,3.5296700000000001e-29
1909.0,1.27013e-28,-1.84765e-25,-1.84673e-25,-1.8475299999999999e-25,3.7267700000000002e-29,-4.6961600000000003e-30,3.8082699999999998e-29
1910.0,1.23553e-28,-1.8475299999999999e-25,-1.8466899999999999e-25,-1.8474300000000001e-25,3.5365399999999999e-29,-4.5683600000000001e-30,4.1028800000000001e-29
1911.0,1.2855199999999999e-28,-1.8476099999999999e-25,-1.84672e-25,-1.8475e-25,3.60014e-29,-4.5748099999999998e-30,4.2682400000000001e-29
1912.0,1.53219e-28,-1.8465399999999999e-25,-1.8468400000000001e-25,-1.8469399999999999e-25,-8.58733e-29,2.8998199999999999e-30,-3.6650699999999997e-30
1913.0,1.41706e-28,-1.84639e-25,-1.84615e-25,-1.84658e-25,-7.8092599999999998e-29,-1.6647499999999999e-30,-1.10233e-29
1914.0,1.1740500000000001e-28,-1.8465200000000001e-25,-1.8463500000000001e-25,-1.84682e-25,-6.3461500000000005e-29,2.35432e-30,-4.60546e-31
1915.0,1.2308600000000001e-28,-1.84639e-25,-1.8456000000000001e-25,-1.8464200000000001e-25,-5.1852100000000001e-29,-2.3889500000000001e-30,-1.4258199999999999e-29
1916.0,7.1820300000000004e-29,-1.8465399999999999e-25,-1.8461199999999999e-25,-1.8467700000000001e-25,-2.3434700000000001e-29,2.4795600000000001e-30,8.2318800000000007e-30
1917.0,1.3277000000000001e-28,-1.8463500000000001e-25,-1.8451000000000001e-25,-1.8461800000000001e-25,-2.3381199999999999e-29,-1.0262699999999999e-31,-2.6690600000000002e-29
1918.0,1.2812899999999999e-28,-1.8469300000000001e-25,-1.8466099999999999e-25,-1.8469499999999999e-25,5.5340599999999998e-29,-1.8877499999999999e-29,4.1177700000000003e-29
1919.0,1.48937e-28,-1.8467700000000001e-25,-1.8466099999999999e-25,-1.8470200000000001e-25,-8.3215900000000001e-29,3.0709899999999999e-31,-7.6162299999999994e-30
1920.0,1.3087700000000001e-28,-1.84691e-25,-1.8467799999999999e-25,-1.84723e-25,-7.17367e-29,1.6650200000000001e-30,-5.2293499999999998e-30
1921.0,1.31437e-28,-1.8467700000000001e-25,-1.84616e-25,-1.8469e-25,-6.4253500000000005e-29,-9.1382000000000004e-32,-8.7500299999999999e-30
1922.0,9.4447200000000001e-29,-1.8469599999999999e-25,-1.8464499999999999e-25,-1.84716e-25,-4.0631399999999998e-29,1.2355699999999999e-30,-2.0638e-30
1923.0,1.1670200000000001e-28,-1.84674e-25,-1.84582e-25,-1.8467600000000001e-25,-3.9174399999999998e-29,1.03405e-30,-1.11738e-29
1924.0,8.28603e-29,-1.8471000000000001e-25,-1.8463e-25,-1.8471099999999999e-25,9.1909699999999999e-30,-3.7135099999999999e-30,4.3920699999999998e-30
1925.0,5.3500699999999997e-29,-1.84657e-25,-1.8460900000000001e-25,-1.84665e-25,1.43563e-30,1.7937100000000001e-30,-4.9108100000000001e-30
1926.0,1.40644e-28,-1.8472700000000001e-25,-1.8471199999999999e-25,-1.8475900000000001e-25,-7.7302599999999996e-29,1.9122600000000001e-30,-5.9719999999999997e-30
1927.0,1.3945799999999999e-28,-1.8471099999999999e-25,-1.8466000000000001e-25,-1.8473e-25,-7.14017e-29,1.1331900000000001e-30,-7.65301e-30
1928.0,1.15585e-28,-1.8473e-25,-1.8467899999999999e-25,-1.8475200000000001e-25,-5.5044600000000001e-29,9.5699300000000006e-31,-4.9822600000000002e-30
1929.0,1.2113799999999999e-28,-1.8471000000000001e-25,-1.84633e-25,-1.84722e-25,-4.9777600000000002e-29,1.97302e-30,-7.70216e-30
1930.0,9.4524300000000003e-29,-1.8473799999999999e-25,-1.84655e-25,-1.8474499999999999e-25,-2.0357500000000001e-29,-2.2909599999999998e-31,-3.7290600000000002e-30
1931.0,8.2745599999999999e-29,-1.8470000000000001e-25,-1.84631e-25,-1.8471299999999999e-25,-1.7365500000000001e-29,2.0533299999999999e-30,-4.5182699999999998e-30
1932.0,9.1087899999999998e-29,-1.8472600000000001e-25,-1.84638e-25,-1.84731e-25,3.4172000000000001e-31,3.2580299999999997e-30,-4.4414299999999997e-30
1933.0,1.4597399999999999e-28,-1.8474300000000001e-25,-1.8469399999999999e-25,-1.84765e-25,-7.5631900000000001e-29,1.68291e-30,-6.6826000000000003e-30
1934.0,1.3183599999999999e-28,-1.8476000000000001e-25,-1.8470900000000001e-25,-1.8478500000000001e-25,-6.53852e-29,1.1179899999999999e-30,-5.4930799999999999e-30
1935.0,1.2956900000000001e-28,-1.8474300000000001e-25,-1.8467099999999999e-25,-1.8476000000000001e-25,-5.7570400000000005e-29,2.5169700000000001e-30,-7.0763599999999998e-30
1936.0,1.13854e-28,-1.8476800000000001e-25,-1.8468500000000001e-25,-1.84781e-25,-3.9826500000000001e-29,6.8187999999999997e-31,-5.5384199999999998e-30
1937.0,1.0353799999999999e-28,-1.8474e-25,-1.8466199999999999e-25,-1.84755e-25,-3.2274699999999998e-29,2.6381100000000001e-30,-5.0788800000000003e-30
1938.0,1.0541699999999999e-28,-1.84765e-25,-1.8466700000000001e-25,-1.8476999999999999e-25,-1.54383e-29,2.2295099999999999e-30,-6.7603899999999999e-30
1939.0,8.6855299999999996e-29,-1.8474e-25,-1.84658e-25,-1.84748e-25,-2.0398e-30,-1.09913e-30,-2.5275899999999999e-30
1940.0,1.4227100000000001e-28,-1.8478799999999999e-25,-1.8473400000000001e-25,-1.8481299999999999e-25,-7.1351099999999996e-29,1.00133e-30,-5.3471099999999999e-30
1941.0,1.3713100000000001e-28,-1.8477099999999999e-25,-1.8470100000000001e-25,-1.8479200000000001e-25,-6.29898e-29,2.7607299999999999e-30,-6.57311e-30
1942.0,1.3103e-28,-1.8479499999999999e-25,-1.8471099999999999e-25,-1.8481099999999999e-25,-5.3239300000000004e-29,7.8374600000000001e-31,-5.62427e-30
1943.0,1.18293e-28,-1.84772e-25,-1.8469200000000001e-25,-1.84791e-25,-4.2998899999999998e-29,2.9759399999999998e-30,-5.6612900000000003e-30
1944.0,1.20185e-28,-1.84798e-25,-1.8469499999999999e-25,-1.84806e-25,-3.0442000000000001e-29,1.81799e-30,-6.8881999999999994e-30
1945.0,1.0112900000000001e-28,-1.84774e-25,-1.8468500000000001e-25,-1.8478699999999999e-25,-1.82135e-29,1.11944e-30,-3.66315e-30
1946.0,1.1107100000000001e-28,-1.8478799999999999e-25,-1.84682e-25,-1.8479400000000001e-25,-9.6841199999999999e-30,4.90278e-30,-7.9677199999999995e-30
1947.0,1.4325300000000001e-28,-1.84797e-25,-1.8472500000000001e-25,-1.8481700000000001e-25,-6.6557599999999998e-29,2.79134e-30,-5.5174199999999999e-30
1948.0,1.4377300000000001e-28,-1.8481800000000001e-25,-1.84733e-25,-1.8483500000000001e-25,-6.2179199999999997e-29,4.6240399999999997e-31,-5.0378200000000001e-30
1949.0,1.2881e-28,-1.848e-25,-1.8471800000000001e-25,-1.8481999999999999e-25,-5.0548099999999998e-29,2.8683799999999999e-30,-5.6489899999999998e-30
1950.0,1.3521299999999999e-28,-1.8482799999999999e-25,-1.8472099999999999e-25,-1.8483699999999999e-25,-4.3083799999999998e-29,1.5707800000000001e-30,-6.4402899999999997e-30
1951.0,1.1596299999999999e-28,-1.84805e-25,-1.8471199999999999e-25,-1.84822e-25,-3.0976299999999999e-29,1.89718e-30,-4.58701e-30
1952.0,1.25267e-28,-1.84825e-25,-1.8471000000000001e-25,-1.84831e-25,-2.2484500000000001e-29,3.2583399999999998e-30,-7.6877700000000006e-30
1953.0,1.1043300000000001e-28,-1.8480900000000001e-25,-1.8470399999999999e-25,-1.8481700000000001e-25,-8.7286499999999995e-30,-1.14286e-30,-3.7710100000000002e-30
1954.0,1.5115099999999999e-28,-1.8483599999999999e-25,-1.84749e-25,-1.8485100000000001e-25,-6.7386699999999998e-29,-4.27065e-31,-4.4303499999999997e-30
1955.0,1.3491999999999999e-28,-1.8481999999999999e-25,-1.8473799999999999e-25,-1.84841e-25,-5.5521200000000003e-29,2.2431099999999999e-30,-5.14506e-30
1956.0,1.47797e-28,-1.8485100000000001e-25,-1.84741e-25,-1.8486000000000001e-25,-5.3382700000000002e-29,1.34813e-30,-5.7427100000000001e-30
1957.0,1.27959e-28,-1.84832e-25,-1.8473599999999999e-25,-1.8485e-25,-4.0712199999999997e-29,1.52972e-30,-4.7269899999999998e-30
1958.0,1.38933e-28,-1.84857e-25,-1.8473500000000001e-25,-1.84864e-25,-3.41832e-29,2.2879899999999999e-30,-7.1587699999999997e-30
1959.0,1.23209e-28,-1.8484e-25,-1.8472899999999999e-25,-1.8485100000000001e-25,-2.2338699999999999e-29,3.8848199999999999e-31,-4.5527000000000003e-30
1960.0,1.3054299999999999e-28,-1.8485100000000001e-25,-1.8472600000000001e-25,-1.84855e-25,-1.5493e-29,3.8658100000000002e-30,-7.9158499999999996e-30
1961.0,1.5365100000000001e-28,-1.8464e-25,-1.8465299999999999e-25,-1.8466800000000001e-25,-8.4771399999999995e-29,4.8970400000000002e-30,-2.1632700000000001e-29
1962.0,1.38832e-28,-1.84655e-25,-1.84655e-25,-1.8468500000000001e-25,-7.6356499999999999e-29,5.8225600000000002e-30,-1.6186600000000001e-29
1963.0,1.3312800000000001e-28,-1.84638e-25,-1.8459499999999999e-25,-1.8465000000000001e-25,-6.6159700000000001e-29,3.1188400000000001e-30,-2.6304700000000001e-29
1964.0,9.8831099999999995e-29,-1.84658e-25,-1.84616e-25,-1.8467600000000001e-25,-4.52537e-29,3.1559599999999999e-30,-1.5296599999999999e-29
1965.0,1.20381e-28,-1.8463400000000001e-25,-1.84548e-25,-1.84633e-25,-3.70703e-29,2.5418800000000001e-30,-3.2169600000000001e-29
1966.0,6.1489900000000004e-29,-1.84666e-25,-1.8461000000000001e-25,-1.8467099999999999e-25,2.9165199999999999e-30,-4.9742799999999999e-30,-7.8830900000000005e-30
1967.0,1.3135100000000001e-28,-1.8460399999999999e-25,-1.8450900000000001e-25,-1.8463400000000001e-25,-1.7625699999999999e-29,5.7461100000000004e-31,-3.4110500000000002e-29
1968.0,1.4656099999999999e-28,-1.8469200000000001e-25,-1.8469200000000001e-25,-1.84723e-25,-8.0689900000000005e-29,5.3704599999999998e-30,-1.7152499999999999e-29
1969.0,1.3869600000000001e-28,-1.8467500000000001e-25,-1.8464399999999999e-25,-1.8469599999999999e-25,-7.3246100000000006e-29,4.1389300000000003e-30,-1.9075400000000001e-29
1970.0,1.1978900000000001e-28,-1.8469499999999999e-25,-1.8465299999999999e-25,-1.84714e-25,-5.8664599999999996e-29,3.6820700000000002e-30,-1.85181e-29
1971.0,1.1779399999999999e-28,-1.84673e-25,-1.84606e-25,-1.84683e-25,-4.8926800000000001e-29,2.5874500000000001e-30,-2.1286899999999999e-29
1972.0,9.1994800000000001e-29,-1.8470100000000001e-25,-1.8462899999999999e-25,-1.84708e-25,-2.42793e-29,1.60348e-30,-1.75987e-29
1973.0,9.7930200000000005e-29,-1.8466700000000001e-25,-1.8458500000000001e-25,-1.84674e-25,-1.6418800000000001e-29,-3.1280700000000001e-30,-2.21554e-29
1974.0,8.2649299999999999e-29,-1.8470200000000001e-25,-1.8462799999999999e-25,-1.8471299999999999e-25,1.2311799999999999e-29,-4.1666500000000002e-30,1.4459799999999999e-30
1975.0,1.45187e-28,-1.8471000000000001e-25,-1.84683e-25,-1.8473500000000001e-25,-7.7810100000000005e-29,4.8090499999999997e-30,-1.63403e-29
1976.0,1.3301400000000001e-28,-1.8472600000000001e-25,-1.8468699999999999e-25,-1.84749e-25,-6.7748500000000004e-29,3.8678400000000001e-30,-1.7144e-29
1977.0,1.2632100000000001e-28,-1.8470900000000001e-25,-1.84649e-25,-1.8472600000000001e-25,-5.8317399999999999e-29,3.4796399999999998e-30,-1.7431300000000001e-29
1978.0,1.11177e-28,-1.84732e-25,-1.8466099999999999e-25,-1.8474400000000001e-25,-4.1773000000000001e-29,3.07071e-30,-1.8198599999999999e-29
1979.0,1.0383199999999999e-28,-1.84708e-25,-1.8462899999999999e-25,-1.8471700000000001e-25,-3.0423800000000001e-29,7.21206e-31,-1.8006200000000001e-29
1980.0,9.2638199999999997e-29,-1.84733e-25,-1.84649e-25,-1.8474e-25,-1.00207e-29,1.7543700000000001e-30,-1.3180900000000001e-29
1981.0,8.1391900000000006e-29,-1.8470000000000001e-25,-1.8462799999999999e-25,-1.8470399999999999e-25,-1.13359e-30,2.5429399999999999e-30,-1.9206899999999999e-29
1982.0,1.41906e-28,-1.84756e-25,-1.84715e-25,-1.8478e-25,-7.3311799999999996e-29,4.0443500000000001e-30,-1.53645e-29
1983.0,1.3534e-28,-1.8474e-25,-1.8468400000000001e-25,-1.8476099999999999e-25,-6.5103199999999995e-29,3.86853e-30,-1.5502000000000001e-29
1984.0,1.2587e-28,-1.8476000000000001e-25,-1.8469e-25,-1.8477600000000001e-25,-5.3898200000000001e-29,3.4367600000000002e-30,-1.66432e-29
1985.0,1.1634099999999999e-28,-1.8474200000000001e-25,-1.84664e-25,-1.84756e-25,-4.2662600000000003e-29,2.6634500000000001e-30,-1.61312e-29
1986.0,1.08662e-28,-1.84764e-25,-1.8467500000000001e-25,-1.84773e-25,-2.7727699999999997e-29,2.9720000000000002e-30,-1.6090399999999999e-29
1987.0,9.5940099999999996e-29,-1.84739e-25,-1.84657e-25,-1.84748e-25,-1.6999499999999999e-29,2.5083099999999998e-30,-1.6482000000000001e-29
1988.0,1.0468400000000001e-28,-1.8475900000000001e-25,-1.84664e-25,-1.8476800000000001e-25,-5.7945000000000003e-30,2.4111499999999999e-30,-1.5511999999999999e-29
1989.0,1.4279199999999999e-28,-1.8476900000000001e-25,-1.8471099999999999e-25,-1.8479200000000001e-25,-6.9653299999999998e-29,4.0437499999999998e-30,-1.40016e-29
1990.0,1.3730599999999999e-28,-1.8478500000000001e-25,-1.84715e-25,-1.8480399999999999e-25,-6.2186100000000003e-29,3.5036299999999998e-30,-1.4874399999999999e-29
1991.0,1.28058e-28,-1.8477099999999999e-25,-1.8469399999999999e-25,-1.84789e-25,-5.1815999999999999e-29,3.3819899999999998e-30,-1.47569e-29
1992.0,1.2332699999999999e-28,-1.84791e-25,-1.8470100000000001e-25,-1.8480399999999999e-25,-4.1132899999999999e-29,3.20375e-30,-1.5474000000000001e-29
1993.0,1.11716e-28,-1.84773e-25,-1.8468500000000001e-25,-1.8478599999999999e-25,-3.0189299999999998e-29,3.2532799999999999e-30,-1.5290099999999999e-29
1994.0,1.15318e-28,-1.8479200000000001e-25,-1.8469e-25,-1.8480100000000001e-25,-1.90733e-29,2.9186299999999999e-30,-1.6151200000000001e-29
1995.0,9.9075000000000001e-29,-1.84775e-25,-1.84681e-25,-1.8477799999999999e-25,-5.7132399999999998e-30,1.8292100000000001e-30,-1.4689e-29
1996.0,1.44807e-28,-1.84807e-25,-1.8473500000000001e-25,-1.8482600000000001e-25,-6.7109899999999999e-29,3.3406400000000001e-30,-1.3627900000000001e-29
1997.0,1.3699800000000001e-28,-1.8479599999999999e-25,-1.8471800000000001e-25,-1.84815e-25,-5.8265499999999999e-29,3.4506199999999998e-30,-1.3681299999999999e-29
1998.0,1.3564100000000001e-28,-1.84815e-25,-1.84723e-25,-1.8482899999999999e-25,-5.1290199999999995e-29,3.2278700000000002e-30,-1.4265800000000001e-29
1999.0,1.2509099999999999e-28,-1.8480200000000001e-25,-1.8471000000000001e-25,-1.8481700000000001e-25,-4.0671299999999999e-29,3.5346200000000001e-30,-1.4403199999999999e-29
2000.0,1.2672e-28,-1.8482099999999999e-25,-1.84715e-25,-1.84831e-25,-3.13228e-29,2.8465100000000001e-30,-1.5354400000000001e-29
2001.0,1.1349999999999999e-28,-1.84806e-25,-1.84706e-25,-1.84815e-25,-1.9915000000000001e-29,3.04118e-30,-1.4410899999999999e-29
2002.0,1.2371e-28,-1.8481999999999999e-25,-1.84706e-25,-1.8482799999999999e-25,-1.25119e-29,3.7348199999999999e-30,-1.6978000000000001e-29
2003.0,1.4180899999999999e-28,-1.84815e-25,-1.8473599999999999e-25,-1.8483400000000001e-25,-6.1735400000000003e-29,3.2220100000000001e-30,-1.2833999999999999e-29
2004.0,1.4502e-28,-1.84833e-25,-1.84741e-25,-1.84848e-25,-5.8822999999999996e-29,3.10048e-30,-1.3201400000000001e-29
2005.0,1.3550999999999999e-28,-1.8482600000000001e-25,-1.84732e-25,-1.8484200000000001e-25,-4.8899599999999997e-29,3.2710799999999998e-30,-1.3522599999999999e-29
2006.0,1.3806100000000001e-28,-1.8484599999999999e-25,-1.8473699999999999e-25,-1.84857e-25,-4.1872700000000001e-29,2.6867399999999999e-30,-1.4464900000000001e-29
2007.0,1.2806e-28,-1.8483599999999999e-25,-1.8472899999999999e-25,-1.84847e-25,-3.1662799999999998e-29,3.2364899999999999e-30,-1.4306500000000001e-29
2008.0,1.33379e-28,-1.8485100000000001e-25,-1.84731e-25,-1.84858e-25,-2.39012e-29,3.03027e-30,-1.6123600000000001e-29
2009.0,1.2145099999999999e-28,-1.84841e-25,-1.8472500000000001e-25,-1.8484300000000001e-25,-1.218e-29,1.4958e-30,-1.4237900000000001e-29
2010.0,1.53854e-28,-1.84657e-25,-1.84682e-25,-1.84689e-25,-8.2382699999999999e-29,1.1100400000000001e-29,-2.66784e-29
2011.0,1.4697300000000001e-28,-1.84641e-25,-1.84633e-25,-1.8465900000000001e-25,-7.5261700000000002e-29,8.6716799999999999e-30,-3.5860200000000001e-29
2012.0,1.24499e-28,-1.8465900000000001e-25,-1.8463699999999999e-25,-1.8467600000000001e-25,-6.1134199999999997e-29,7.6625099999999995e-30,-3.1307500000000001e-29
2013.0,1.28593e-28,-1.8463699999999999e-25,-1.8458400000000001e-25,-1.8464200000000001e-25,-5.1118500000000004e-29,6.5122399999999999e-30,-4.2545200000000003e-29
2014.0,8.8566099999999999e-29,-1.84663e-25,-1.8461099999999999e-25,-1.8466700000000001e-25,-2.4378899999999999e-29,1.57381e-30,-3.2222700000000002e-29
2015.0,1.1916700000000001e-28,-1.8462500000000001e-25,-1.84549e-25,-1.84633e-25,-2.2583e-29,3.1961400000000003e-30,-4.5634500000000001e-29
2016.0,7.8692100000000005e-29,-1.8466700000000001e-25,-1.84615e-25,-1.8465200000000001e-25,1.9697100000000001e-29,1.6114799999999998e-30,-3.1181000000000001e-29
2017.0,1.4891099999999999e-28,-1.8467799999999999e-25,-1.84674e-25,-1.8470200000000001e-25,-7.9277000000000002e-29,8.9198499999999998e-30,-2.8092399999999998e-29
2018.0,1.3735600000000001e-28,-1.8469200000000001e-25,-1.8466999999999999e-25,-1.8471299999999999e-25,-6.9833200000000002e-29,7.8308199999999995e-30,-2.9882699999999998e-29
2019.0,1.2819e-28,-1.8467500000000001e-25,-1.84632e-25,-1.84688e-25,-5.9653200000000001e-29,6.3608200000000002e-30,-3.1879100000000002e-29
2020.0,1.1367e-28,-1.84697e-25,-1.8464e-25,-1.84706e-25,-4.3665300000000001e-29,5.2960600000000001e-30,-3.2924600000000001e-29
2021.0,1.0801700000000001e-28,-1.84672e-25,-1.8460399999999999e-25,-1.8467799999999999e-25,-3.08014e-29,1.9966600000000001e-30,-3.5091100000000002e-29
2022.0,9.0459300000000002e-29,-1.84698e-25,-1.8462799999999999e-25,-1.8470399999999999e-25,-1.15085e-29,1.7984599999999999e-30,-2.8898099999999998e-29
2023.0,1.1446800000000001e-28,-1.8466000000000001e-25,-1.8458e-25,-1.8467099999999999e-25,-5.6216499999999997e-30,2.0504400000000001e-30,-4.3019499999999999e-29
2024.0,1.44141e-28,-1.84723e-25,-1.8470000000000001e-25,-1.8474599999999999e-25,-7.5079899999999996e-29,7.5823200000000002e-30,-2.6421299999999999e-29
2025.0,1.3549299999999999e-28,-1.8470900000000001e-25,-1.8466899999999999e-25,-1.8472799999999999e-25,-6.6732499999999997e-29,6.69929e-30,-2.6907899999999999e-29
2026.0,1.26344e-28,-1.8472700000000001e-25,-1.8467099999999999e-25,-1.8474e-25,-5.5316099999999998e-29,5.9619600000000003e-30,-2.9505099999999999e-29
2027.0,1.15125e-28,-1.8470900000000001e-25,-1.8464300000000001e-25,-1.8471900000000001e-25,-4.2692800000000003e-29,3.8499e-30,-2.9283100000000002e-29
2028.0,1.0703600000000001e-28,-1.8473e-25,-1.8465399999999999e-25,-1.8473799999999999e-25,-2.83622e-29,3.9089899999999999e-30,-2.9669900000000001e-29
2029.0,1.0135700000000001e-28,-1.84706e-25,-1.8462700000000001e-25,-1.8471099999999999e-25,-1.5642199999999999e-29,1.25464e-30,-3.1245699999999998e-29
2030.0,9.2355000000000002e-29,-1.84731e-25,-1.8465000000000001e-25,-1.8473799999999999e-25,-1.25663e-31,2.0998500000000001e-31,-2.1576399999999999e-29
2031.0,1.42553e-28,-1.8474e-25,-1.8470000000000001e-25,-1.8476299999999999e-25,-7.16552e-29,6.8410099999999996e-30,-2.4022199999999999e-29
2032.0,1.3551200000000001e-28,-1.8475299999999999e-25,-1.84697e-25,-1.8476999999999999e-25,-6.3172200000000001e-29,6.0422599999999999e-30,-2.5671299999999997e-29
2033.0,1.2570999999999999e-28,-1.84741e-25,-1.8467500000000001e-25,-1.84756e-25,-5.2437499999999998e-29,4.8837400000000003e-30,-2.5582300000000002e-29
2034.0,1.19453e-28,-1.84758e-25,-1.84681e-25,-1.8476900000000001e-25,-4.1097900000000002e-29,4.7987899999999998e-30,-2.7388000000000002e-29
2035.0,1.09359e-28,-1.8474200000000001e-25,-1.8466099999999999e-25,-1.8475e-25,-2.8628400000000002e-29,3.15191e-30,-2.7021799999999998e-29
2036.0,1.06176e-28,-1.8476099999999999e-25,-1.84673e-25,-1.8476800000000001e-25,-1.62098e-29,3.4891100000000002e-30,-2.6038700000000002e-29
2037.0,9.8418800000000003e-29,-1.84739e-25,-1.84656e-25,-1.8474e-25,-4.6660699999999998e-30,3.96804e-30,-2.9606300000000003e-29
2038.0,1.42538e-28,-1.8477799999999999e-25,-1.8472099999999999e-25,-1.84797e-25,-6.8135700000000001e-29,5.9622900000000003e-30,-2.2889900000000001e-29
2039.0,1.35175e-28,-1.8476800000000001e-25,-1.8470100000000001e-25,-1.8478599999999999e-25,-5.9568800000000001e-29,5.1812099999999997e-30,-2.3005000000000001e-29
2040.0,1.3004200000000001e-28,-1.84782e-25,-1.84705e-25,-1.8479599999999999e-25,-5.07773e-29,5.03013e-30,-2.4456300000000001e-29
2041.0,1.2125599999999999e-28,-1.84772e-25,-1.84689e-25,-1.8478400000000001e-25,-3.9773399999999999e-29,4.2463200000000003e-30,-2.44197e-29
2042.0,1.17817e-28,-1.8478799999999999e-25,-1.8469599999999999e-25,-1.84797e-25,-2.9163500000000002e-29,4.2050500000000003e-30,-2.5339899999999999e-29
2043.0,1.0874499999999999e-28,-1.84774e-25,-1.84683e-25,-1.8477899999999999e-25,-1.82716e-29,3.9442799999999997e-30,-2.5878000000000002e-29
2044.0,1.16582e-28,-1.84791e-25,-1.84689e-25,-1.84799e-25,-9.0564099999999999e-30,2.91003e-30,-2.6105099999999999e-29
2045.0,1.4227100000000001e-28,-1.8479300000000001e-25,-1.84724e-25,-1.8481099999999999e-25,-6.4215000000000002e-29,5.1023399999999998e-30,-2.1424199999999999e-29
2046.0,1.39091e-28,-1.8480299999999999e-25,-1.8472500000000001e-25,-1.8481900000000001e-25,-5.8025899999999996e-29,5.1585099999999999e-30,-2.2183199999999999e-29
2047.0,1.32204e-28,-1.84797e-25,-1.8471199999999999e-25,-1.8481199999999999e-25,-4.8715099999999998e-29,4.6639400000000003e-30,-2.2469499999999999e-29
2048.0,1.28578e-28,-1.8481199999999999e-25,-1.8471800000000001e-25,-1.84824e-25,-3.9820300000000001e-29,4.2879099999999997e-30,-2.3423099999999999e-29
2049.0,1.2182599999999999e-28,-1.8480399999999999e-25,-1.84707e-25,-1.8481299999999999e-25,-2.9938400000000002e-29,4.4659399999999997e-30,-2.3966000000000001e-29
2050.0,1.2423000000000001e-28,-1.8481900000000001e-25,-1.8471199999999999e-25,-1.8482600000000001e-25,-2.0589499999999999e-29,3.5715300000000001e-30,-2.5067199999999999e-29
2051.0,1.1128200000000001e-28,-1.84807e-25,-1.84705e-25,-1.84807e-25,-9.4202099999999998e-30,3.6206900000000001e-30,-2.4192599999999999e-29
2052.0,1.4533899999999999e-28,-1.8481999999999999e-25,-1.8474e-25,-1.8483599999999999e-25,-6.2665e-29,5.2812600000000002e-30,-2.1043800000000001e-29
2053.0,1.4036100000000001e-28,-1.8481800000000001e-25,-1.84731e-25,-1.84833e-25,-5.5473499999999999e-29,4.7066599999999999e-30,-2.11502e-29
2054.0,1.38183e-28,-1.84833e-25,-1.8473699999999999e-25,-1.8484499999999999e-25,-4.8550700000000001e-29,4.2328399999999998e-30,-2.1940699999999999e-29
2055.0,1.3374900000000001e-28,-1.8483e-25,-1.8472799999999999e-25,-1.84841e-25,-3.9794899999999998e-29,4.60713e-30,-2.2773199999999999e-29
2056.0,1.3350200000000001e-28,-1.8484499999999999e-25,-1.8473400000000001e-25,-1.8485200000000001e-25,-3.1393100000000002e-29,3.7010999999999999e-30,-2.3830100000000001e-29
2057.0,1.2605700000000001e-28,-1.8483699999999999e-25,-1.8472600000000001e-25,-1.84841e-25,-2.1921899999999999e-29,4.2029599999999999e-30,-2.3760099999999999e-29
2058.0,1.35336e-28,-1.8485e-25,-1.8472799999999999e-25,-1.84856e-25,-1.47315e-29,3.8819400000000001e-30,-2.61924e-29
2059.0,1.5782799999999999e-28,-1.84647e-25,-1.8466700000000001e-25,-1.84666e-25,-7.8477399999999994e-29,1.3842199999999999e-29,-4.2668299999999997e-29
2060.0,1.4385099999999999e-28,-1.8466000000000001e-25,-1.84665e-25,-1.8467799999999999e-25,-7.0294899999999998e-29,1.33671e-29,-4.1119599999999997e-29
2061.0,1.4192499999999999e-28,-1.8464200000000001e-25,-1.8461899999999999e-25,-1.84648e-25,-6.1576399999999997e-29,1.1157099999999999e-29,-5.0653800000000001e-29
2062.0,1.1619700000000001e-28,-1.84664e-25,-1.84632e-25,-1.8466700000000001e-25,-4.2784099999999998e-29,7.8696399999999999e-30,-4.7318200000000001e-29
2063.0,1.26508e-28,-1.8463599999999999e-25,-1.8458400000000001e-25,-1.8463599999999999e-25,-3.5070000000000002e-29,6.9429899999999997e-30,-5.6337200000000003e-29
2064.0,9.6472900000000002e-29,-1.84666e-25,-1.8461800000000001e-25,-1.84655e-25,-6.4673399999999996e-30,2.8793200000000001e-30,-4.9176699999999999e-29
2065.0,1.1823299999999999e-28,-1.84624e-25,-1.8456000000000001e-25,-1.84632e-25,-7.2931799999999997e-30,-1.69575e-30,-5.5347699999999995e-29
2066.0,1.49459e-28,-1.8469200000000001e-25,-1.8469200000000001e-25,-1.8471299999999999e-25,-7.5424400000000005e-29,1.24507e-29,-3.81136e-29
2067.0,1.4029600000000001e-28,-1.8467799999999999e-25,-1.8465900000000001e-25,-1.8469200000000001e-25,-6.7389099999999999e-29,1.0684300000000001e-29,-4.0353799999999997e-29
2068.0,1.31078e-28,-1.8469499999999999e-25,-1.84658e-25,-1.8470399999999999e-25,-5.6151900000000002e-29,9.6439799999999993e-30,-4.3618000000000001e-29
2069.0,1.2086299999999999e-28,-1.8467600000000001e-25,-1.8462700000000001e-25,-1.8468e-25,-4.3400300000000001e-29,6.8135700000000007e-30,-4.56503e-29
2070.0,1.1091699999999999e-28,-1.84698e-25,-1.8464e-25,-1.84699e-25,-2.8900800000000002e-29,5.7083699999999999e-30,-4.5655199999999998e-29
2071.0,1.1307199999999999e-28,-1.8466999999999999e-25,-1.84605e-25,-1.8467099999999999e-25,-1.62457e-29,3.7183000000000003e-30,-5.0445300000000001e-29
2072.0,8.95143e-29,-1.8470100000000001e-25,-1.8464300000000001e-25,-1.84691e-25,3.74069e-30,2.07051e-30,-4.1323799999999999e-29
2073.0,1.4478099999999999e-28,-1.8471000000000001e-25,-1.8469e-25,-1.8473e-25,-7.2381900000000002e-29,1.0665500000000001e-29,-3.51507e-29
2074.0,1.37801e-28,-1.84722e-25,-1.8468500000000001e-25,-1.8473599999999999e-25,-6.3959199999999996e-29,9.5072500000000006e-30,-3.8093900000000002e-29
2075.0,1.2656600000000001e-28,-1.8470900000000001e-25,-1.8466099999999999e-25,-1.8471999999999999e-25,-5.2828600000000005e-29,7.6289099999999997e-30,-3.8701399999999997e-29
2076.0,1.21494e-28,-1.8472700000000001e-25,-1.84665e-25,-1.84733e-25,-4.17432e-29,6.9948799999999995e-30,-4.1500999999999999e-29
2077.0,1.11714e-28,-1.8470900000000001e-25,-1.8464200000000001e-25,-1.8471199999999999e-25,-2.8093400000000002e-29,4.48498e-30,-4.2022000000000001e-29
2078.0,1.0577599999999999e-28,-1.8473e-25,-1.84658e-25,-1.84732e-25,-1.5950199999999999e-29,4.2086799999999998e-30,-4.07205e-29
2079.0,1.1397299999999999e-28,-1.8470299999999999e-25,-1.8462700000000001e-25,-1.84705e-25,-5.4149600000000003e-30,4.0770700000000001e-30,-4.7884799999999997e-29
2080.0,1.42915e-28,-1.84749e-25,-1.8471000000000001e-25,-1.84766e-25,-6.8996800000000002e-29,9.1604699999999998e-30,-3.3496399999999998e-29
2081.0,1.3435200000000001e-28,-1.84739e-25,-1.84688e-25,-1.8475399999999999e-25,-6.0194100000000003e-29,7.8604600000000004e-30,-3.3991599999999999e-29
2082.0,1.2931899999999999e-28,-1.8475200000000001e-25,-1.84689e-25,-1.8476199999999999e-25,-5.0996800000000001e-29,7.3257700000000002e-30,-3.6557700000000002e-29
2083.0,1.1936500000000001e-28,-1.84741e-25,-1.8467099999999999e-25,-1.84748e-25,-3.9084200000000002e-29,5.5676700000000002e-30,-3.6661900000000001e-29
2084.0,1.16252e-28,-1.84758e-25,-1.8467899999999999e-25,-1.8476299999999999e-25,-2.8711600000000002e-29,5.53049e-30,-3.8228400000000002e-29
2085.0,1.0993799999999999e-28,-1.84741e-25,-1.8466000000000001e-25,-1.8474200000000001e-25,-1.6609900000000001e-29,4.08649e-30,-3.91296e-29
2086.0,1.0732699999999999e-28,-1.8476299999999999e-25,-1.8467700000000001e-25,-1.84765e-25,-5.4236199999999999e-30,2.49182e-30,-3.6013299999999999e-29
2087.0,1.41395e-28,-1.84766e-25,-1.8471299999999999e-25,-1.8478400000000001e-25,-6.5294099999999995e-29,7.8934000000000002e-30,-3.1017500000000001e-29
2088.0,1.3634400000000001e-28,-1.84775e-25,-1.8471000000000001e-25,-1.8478799999999999e-25,-5.7901600000000001e-29,7.2905500000000001e-30,-3.2251299999999997e-29
2089.0,1.2881299999999999e-28,-1.8476800000000001e-25,-1.8469499999999999e-25,-1.8478e-25,-4.8114400000000003e-29,6.1685999999999999e-30,-3.27177e-29
2090.0,1.2471399999999999e-28,-1.84782e-25,-1.8470100000000001e-25,-1.8479e-25,-3.8912299999999998e-29,5.9801300000000001e-30,-3.4549e-29
2091.0,1.17821e-28,-1.84772e-25,-1.8468699999999999e-25,-1.8477799999999999e-25,-2.7997700000000002e-29,5.0082299999999997e-30,-3.4856800000000001e-29
2092.0,1.1764699999999999e-28,-1.84789e-25,-1.8469599999999999e-25,-1.8479300000000001e-25,-1.8252900000000001e-29,4.7015900000000001e-30,-3.5735599999999997e-29
2093.0,1.09848e-28,-1.84773e-25,-1.8468400000000001e-25,-1.8476999999999999e-25,-7.9356899999999995e-30,5.40682e-30,-3.6922599999999998e-29
2094.0,1.4263000000000001e-28,-1.84797e-25,-1.8472899999999999e-25,-1.8481199999999999e-25,-6.2653500000000005e-29,7.4680300000000003e-30,-2.9643900000000003e-29
2095.0,1.3739000000000001e-28,-1.84791e-25,-1.84716e-25,-1.84805e-25,-5.5162099999999996e-29,6.33553e-30,-3.0046600000000001e-29
2096.0,1.3283300000000001e-28,-1.8480299999999999e-25,-1.8471999999999999e-25,-1.84814e-25,-4.7364699999999999e-29,6.08503e-30,-3.1225799999999999e-29
2097.0,1.2801800000000001e-28,-1.84799e-25,-1.8470900000000001e-25,-1.84807e-25,-3.7959599999999998e-29,5.5845299999999999e-30,-3.1999400000000002e-29
2098.0,1.2585799999999999e-28,-1.8481299999999999e-25,-1.84716e-25,-1.8481900000000001e-25,-2.9003099999999999e-29,5.1608699999999999e-30,-3.3420400000000002e-29
2099.0,1.1962199999999999e-28,-1.8480299999999999e-25,-1.84706e-25,-1.84805e-25,-1.96078e-29,5.2575399999999998e-30,-3.3780199999999999e-29
2100.0,1.2912299999999999e-28,-1.8481999999999999e-25,-1.8471199999999999e-25,-1.84825e-25,-1.1553399999999999e-29,3.9619300000000003e-30,-3.5950400000000003e-29
2101.0,1.4326299999999999e-28,-1.8481099999999999e-25,-1.8473400000000001e-25,-1.84825e-25,-5.9750200000000003e-29,6.3604400000000004e-30,-2.8674299999999999e-29
2102.0,1.4043e-28,-1.8481999999999999e-25,-1.8473699999999999e-25,-1.84833e-25,-5.4172700000000005e-29,6.1580599999999998e-30,-2.9305300000000001e-29
2103.0,1.3760300000000001e-28,-1.8482099999999999e-25,-1.8472899999999999e-25,-1.84832e-25,-4.6487000000000002e-29,5.9714899999999997e-30,-3.0126400000000002e-29
2104.0,1.3467699999999999e-28,-1.8483500000000001e-25,-1.8473500000000001e-25,-1.8484200000000001e-25,-3.8489900000000002e-29,5.1799200000000002e-30,-3.1281599999999998e-29
2105.0,1.3155e-28,-1.84831e-25,-1.8472700000000001e-25,-1.8483599999999999e-25,-3.0070799999999998e-29,5.5357399999999998e-30,-3.2206800000000002e-29
2106.0,1.3414300000000001e-28,-1.8484499999999999e-25,-1.84733e-25,-1.84848e-25,-2.1812499999999999e-29,4.6466099999999998e-30,-3.4029799999999999e-29
2107.0,1.22378e-28,-1.8483599999999999e-25,-1.8472700000000001e-25,-1.8483e-25,-1.2144999999999999e-29,4.7711399999999997e-30,-3.2587900000000001e-29
2108.0,1.5678e-28,-1.84663e-25,-1.8469200000000001e-25,-1.84681e-25,-7.3817200000000002e-29,1.8310599999999999e-29,-4.6827399999999999e-29
2109.0,1.5343599999999999e-28,-1.84648e-25,-1.8465299999999999e-25,-1.84655e-25,-6.7061199999999997e-29,1.5508299999999999e-29,-5.56508e-29
2110.0,1.3736e-28,-1.84665e-25,-1.8465900000000001e-25,-1.8466700000000001e-25,-5.4373699999999998e-29,1.4010899999999999e-29,-5.5831099999999997e-29
2111.0,1.3948000000000001e-28,-1.8464399999999999e-25,-1.8461899999999999e-25,-1.84641e-25,-4.6300600000000001e-29,1.1527899999999999e-29,-6.3444399999999999e-29
2112.0,1.19126e-28,-1.8466800000000001e-25,-1.8463699999999999e-25,-1.84655e-25,-2.54095e-29,7.8318100000000002e-30,-6.1545900000000005e-29
2113.0,1.26438e-28,-1.8463699999999999e-25,-1.8459499999999999e-25,-1.84631e-25,-2.0087199999999999e-29,4.5470500000000001e-30,-6.6286100000000001e-29
2114.0,1.12168e-28,-1.8466700000000001e-25,-1.8463500000000001e-25,-1.8464399999999999e-25,6.22563e-30,4.0282000000000003e-30,-6.2233999999999998e-29
2115.0,1.5085e-28,-1.84682e-25,-1.8468500000000001e-25,-1.84697e-25,-7.1371399999999999e-29,1.5124800000000001e-29,-4.6913800000000002e-29
2116.0,1.4441300000000001e-28,-1.8469300000000001e-25,-1.8467799999999999e-25,-1.8470200000000001e-25,-6.3637799999999996e-29,1.4062e-29,-5.0647799999999998e-29
2117.0,1.34493e-28,-1.8468e-25,-1.8465299999999999e-25,-1.84683e-25,-5.29204e-29,1.1468e-29,-5.3252999999999999e-29
2118.0,1.2823100000000001e-28,-1.8469599999999999e-25,-1.84657e-25,-1.8469499999999999e-25,-4.1779499999999998e-29,1.01341e-29,-5.5976899999999996e-29
2119.0,1.2249599999999999e-28,-1.8467700000000001e-25,-1.84631e-25,-1.84672e-25,-2.85439e-29,7.5470000000000005e-30,-5.8875500000000002e-29
2120.0,1.1160399999999999e-28,-1.84699e-25,-1.8465000000000001e-25,-1.84689e-25,-1.4544499999999999e-29,5.1752000000000003e-30,-5.6818799999999999e-29
2121.0,1.2239799999999999e-28,-1.8466999999999999e-25,-1.8461000000000001e-25,-1.8466700000000001e-25,-5.6239699999999999e-30,2.71558e-30,-6.1746699999999997e-29
2122.0,1.46657e-28,-1.8471999999999999e-25,-1.8470200000000001e-25,-1.8473400000000001e-25,-6.8652199999999998e-29,1.3192099999999999e-29,-4.49085e-29
2123.0,1.3765100000000001e-28,-1.8471000000000001e-25,-1.8468e-25,-1.8471999999999999e-25,-6.0116700000000004e-29,1.15845e-29,-4.62127e-29
2124.0,1.33492e-28,-1.84723e-25,-1.8467899999999999e-25,-1.8472799999999999e-25,-5.1252599999999995e-29,1.05365e-29,-4.9746499999999999e-29
2125.0,1.2336300000000001e-28,-1.8471099999999999e-25,-1.8466000000000001e-25,-1.8471199999999999e-25,-3.88521e-29,8.3666999999999996e-30,-5.0939599999999999e-29
2126.0,1.20157e-28,-1.8472700000000001e-25,-1.8466800000000001e-25,-1.8472600000000001e-25,-2.8778499999999998e-29,7.3577699999999997e-30,-5.2654000000000003e-29
2127.0,1.17443e-28,-1.8471000000000001e-25,-1.8464499999999999e-25,-1.8470399999999999e-25,-1.6018500000000001e-29,5.78199e-30,-5.4907099999999999e-29
2128.0,1.0531999999999999e-28,-1.84733e-25,-1.84672e-25,-1.84723e-25,-3.1519499999999998e-30,3.8615599999999997e-30,-5.0819299999999998e-29
2129.0,1.4261600000000001e-28,-1.8474e-25,-1.84705e-25,-1.8475399999999999e-25,-6.5426400000000002e-29,1.13663e-29,-4.1595499999999998e-29
2130.0,1.3755400000000001e-28,-1.84747e-25,-1.84699e-25,-1.84756e-25,-5.7928000000000003e-29,1.0354699999999999e-29,-4.3726200000000001e-29
2131.0,1.2899499999999999e-28,-1.8474e-25,-1.8468400000000001e-25,-1.8474599999999999e-25,-4.7781099999999997e-29,8.7266099999999996e-30,-4.4766200000000002e-29
2132.0,1.26199e-28,-1.8475299999999999e-25,-1.84688e-25,-1.84756e-25,-3.8791499999999998e-29,8.1591699999999995e-30,-4.7375999999999998e-29
2133.0,1.19073e-28,-1.8474300000000001e-25,-1.84672e-25,-1.8474200000000001e-25,-2.6969999999999999e-29,6.4724699999999999e-30,-4.8110999999999997e-29
2134.0,1.1706300000000001e-28,-1.8475900000000001e-25,-1.8468400000000001e-25,-1.84758e-25,-1.7436499999999999e-29,5.8397000000000001e-30,-4.8865300000000002e-29
2135.0,1.1899000000000001e-28,-1.8474e-25,-1.8466199999999999e-25,-1.8473599999999999e-25,-7.7123799999999994e-30,6.12177e-30,-5.1973999999999995e-29
2136.0,1.4199099999999999e-28,-1.8477099999999999e-25,-1.8471900000000001e-25,-1.84783e-25,-6.2690799999999996e-29,1.0040000000000001e-29,-3.9262500000000002e-29
2137.0,1.35842e-28,-1.84765e-25,-1.84705e-25,-1.8477600000000001e-25,-5.4763999999999998e-29,8.775e-30,-4.0184199999999999e-29
2138.0,1.3173599999999999e-28,-1.84775e-25,-1.84706e-25,-1.84782e-25,-4.67113e-29,8.1833099999999996e-30,-4.2179499999999998e-29
2139.0,1.25834e-28,-1.8476999999999999e-25,-1.8469399999999999e-25,-1.84774e-25,-3.6718099999999999e-29,7.0450299999999996e-30,-4.30982e-29
2140.0,1.2406099999999999e-28,-1.84783e-25,-1.8470100000000001e-25,-1.8478500000000001e-25,-2.7943600000000002e-29,6.7641499999999996e-30,-4.5048499999999999e-29
2141.0,1.1939600000000001e-28,-1.84773e-25,-1.84688e-25,-1.8476999999999999e-25,-1.7819699999999999e-29,5.9879800000000002e-30,-4.5590700000000002e-29
2142.0,1.2175799999999999e-28,-1.8479200000000001e-25,-1.8470100000000001e-25,-1.8479e-25,-8.4948399999999998e-30,4.1333499999999998e-30,-4.6506300000000001e-29
2143.0,1.42048e-28,-1.84789e-25,-1.8472500000000001e-25,-1.8480100000000001e-25,-5.9693900000000004e-29,8.6906699999999997e-30,-3.7483000000000001e-29
2144.0,1.3766199999999999e-28,-1.8479400000000001e-25,-1.84723e-25,-1.8480399999999999e-25,-5.3227299999999998e-29,8.2048799999999999e-30,-3.8226600000000001e-29
2145.0,1.33703e-28,-1.8479300000000001e-25,-1.84714e-25,-1.848e-25,-4.5113800000000002e-29,7.4011099999999995e-30,-3.9359599999999998e-29
2146.0,1.30211e-28,-1.8480399999999999e-25,-1.8471900000000001e-25,-1.8480900000000001e-25,-3.6828099999999999e-29,7.0096399999999996e-30,-4.1094699999999999e-29
2147.0,1.2698699999999999e-28,-1.848e-25,-1.8470900000000001e-25,-1.8480100000000001e-25,-2.7878199999999998e-29,6.4553199999999993e-30,-4.1965600000000001e-29
2148.0,1.2839099999999999e-28,-1.84814e-25,-1.8471700000000001e-25,-1.84815e-25,-1.9380600000000001e-29,5.9491299999999999e-30,-4.4002899999999999e-29
2149.0,1.1964200000000001e-28,-1.8480299999999999e-25,-1.84708e-25,-1.8479499999999999e-25,-1.05925e-29,6.8015900000000002e-30,-4.3049099999999999e-29
2150.0,1.4288799999999999e-28,-1.8481099999999999e-25,-1.8473799999999999e-25,-1.84822e-25,-5.7680800000000004e-29,8.4150700000000001e-30,-3.6184799999999999e-29
2151.0,1.4103000000000001e-28,-1.8481199999999999e-25,-1.84731e-25,-1.84822e-25,-5.20525e-29,7.8173599999999996e-30,-3.6916200000000003e-29
2152.0,1.3694599999999999e-28,-1.84823e-25,-1.8473500000000001e-25,-1.8482899999999999e-25,-4.4672800000000002e-29,6.88655e-30,-3.8060900000000002e-29
2153.0,1.3582300000000001e-28,-1.84824e-25,-1.8472799999999999e-25,-1.8482799999999999e-25,-3.7014799999999997e-29,6.9260999999999995e-30,-3.9544000000000002e-29
2154.0,1.3453500000000001e-28,-1.8483599999999999e-25,-1.8473500000000001e-25,-1.8483699999999999e-25,-2.8937800000000002e-29,6.2794999999999999e-30,-4.1315799999999999e-29
2155.0,1.3028399999999999e-28,-1.84831e-25,-1.8472700000000001e-25,-1.8482700000000001e-25,-2.0848399999999999e-29,6.4114099999999998e-30,-4.1532699999999997e-29
2156.0,1.41641e-28,-1.8484599999999999e-25,-1.84732e-25,-1.8484599999999999e-25,-1.36007e-29,5.3631500000000002e-30,-4.5631e-29
2157.0,1.6179499999999999e-28,-1.8465399999999999e-25,-1.8468e-25,-1.8466199999999999e-25,-6.8675600000000004e-29,1.88648e-29,-5.8967599999999994e-29
2158.0,1.52207e-28,-1.84666e-25,-1.8468400000000001e-25,-1.8466999999999999e-25,-6.0742199999999997e-29,1.9128199999999999e-29,-5.9827800000000004e-29
2159.0,1.51402e-28,-1.8465100000000001e-25,-1.8465100000000001e-25,-1.84647e-25,-5.4408199999999996e-29,1.5923300000000001e-29,-6.6500500000000002e-29
2160.0,1.38117e-28,-1.8466999999999999e-25,-1.8466199999999999e-25,-1.84657e-25,-3.84567e-29,1.3706800000000001e-29,-6.8194100000000004e-29
2161.0,1.39614e-28,-1.84647e-25,-1.8462799999999999e-25,-1.8463500000000001e-25,-3.2285400000000002e-29,1.02345e-29,-7.2562600000000002e-29
2162.0,1.2904700000000001e-28,-1.8466999999999999e-25,-1.8465000000000001e-25,-1.8464599999999999e-25,-1.1961e-29,7.6947400000000002e-30,-7.2003399999999995e-29
2163.0,1.29951e-28,-1.84638e-25,-1.84608e-25,-1.8462700000000001e-25,-8.2654400000000007e-30,1.69256e-30,-7.2916899999999996e-29
2164.0,1.54101e-28,-1.8469399999999999e-25,-1.84698e-25,-1.8470299999999999e-25,-6.7196e-29,1.7771299999999999e-29,-5.5328199999999999e-29
2165.0,1.4621999999999999e-28,-1.8468400000000001e-25,-1.8467799999999999e-25,-1.8468699999999999e-25,-5.9196200000000001e-29,1.5664900000000001e-29,-5.7939299999999996e-29
2166.0,1.42147e-28,-1.8469599999999999e-25,-1.8467700000000001e-25,-1.8469399999999999e-25,-5.0990599999999996e-29,1.45133e-29,-6.1783099999999996e-29
2167.0,1.35227e-28,-1.84683e-25,-1.84656e-25,-1.8467600000000001e-25,-3.9244599999999999e-29,1.19181e-29,-6.4967e-29
2168.0,1.2923e-28,-1.8470000000000001e-25,-1.84666e-25,-1.84688e-25,-2.82687e-29,9.6376600000000005e-30,-6.6135900000000003e-29
2169.0,1.2873700000000001e-28,-1.8467899999999999e-25,-1.84638e-25,-1.8466700000000001e-25,-1.7102200000000001e-29,7.3627600000000006e-30,-6.8811599999999997e-29
2170.0,1.19372e-28,-1.8470299999999999e-25,-1.8466899999999999e-25,-1.84681e-25,-3.01432e-30,5.9022200000000003e-30,-6.6305200000000003e-29
2171.0,1.4706799999999999e-28,-1.84714e-25,-1.8470100000000001e-25,-1.84724e-25,-6.43647e-29,1.53648e-29,-5.1944399999999995e-29
2172.0,1.4393700000000001e-28,-1.8472099999999999e-25,-1.8469399999999999e-25,-1.8472500000000001e-25,-5.7968000000000004e-29,1.4122899999999999e-29,-5.5381899999999995e-29
2173.0,1.3531399999999999e-28,-1.84714e-25,-1.8467899999999999e-25,-1.8471299999999999e-25,-4.7705800000000002e-29,1.2382000000000001e-29,-5.7359600000000005e-29
2174.0,1.3261999999999999e-28,-1.8472600000000001e-25,-1.84682e-25,-1.84722e-25,-3.9095299999999999e-29,1.0894700000000001e-29,-6.0229599999999999e-29
2175.0,1.2718500000000001e-28,-1.84715e-25,-1.84665e-25,-1.84706e-25,-2.6965399999999998e-29,9.24448e-30,-6.2266999999999997e-29
2176.0,1.2223199999999999e-28,-1.84731e-25,-1.8467899999999999e-25,-1.8471999999999999e-25,-1.7006599999999999e-29,7.18034e-30,-6.2258900000000002e-29
2177.0,1.2789e-28,-1.8470900000000001e-25,-1.84649e-25,-1.8470000000000001e-25,-7.6113700000000001e-30,5.8671299999999997e-30,-6.5546000000000001e-29
2178.0,1.4534000000000001e-28,-1.8474599999999999e-25,-1.8471299999999999e-25,-1.84755e-25,-6.2446499999999997e-29,1.34224e-29,-4.9757899999999999e-29
2179.0,1.3840200000000001e-28,-1.8474e-25,-1.84699e-25,-1.8474599999999999e-25,-5.4601100000000004e-29,1.2154399999999999e-29,-5.1066800000000006e-29
2180.0,1.35424e-28,-1.84749e-25,-1.84698e-25,-1.8475100000000001e-25,-4.6878599999999998e-29,1.11757e-29,-5.3899699999999999e-29
2181.0,1.28986e-28,-1.8474400000000001e-25,-1.8468599999999999e-25,-1.84741e-25,-3.64082e-29,9.6177999999999993e-30,-5.5539400000000003e-29
2182.0,1.2734199999999999e-28,-1.84756e-25,-1.8469300000000001e-25,-1.8475200000000001e-25,-2.78938e-29,8.6791999999999993e-30,-5.7479000000000003e-29
2183.0,1.2477000000000001e-28,-1.8474400000000001e-25,-1.8467700000000001e-25,-1.8473599999999999e-25,-1.7148100000000001e-29,7.63053e-30,-5.8950299999999998e-29
2184.0,1.1985400000000001e-28,-1.84765e-25,-1.84698e-25,-1.8475200000000001e-25,-6.92196e-30,5.7261399999999999e-30,-5.8552299999999995e-29
2185.0,1.42704e-28,-1.84766e-25,-1.8471800000000001e-25,-1.84775e-25,-5.9463099999999998e-29,1.1849699999999999e-29,-4.6728000000000002e-29
2186.0,1.3852799999999999e-28,-1.8476999999999999e-25,-1.84714e-25,-1.8477600000000001e-25,-5.2835099999999997e-29,1.0854699999999999e-29,-4.82207e-29
2187.0,1.3369900000000001e-28,-1.8476800000000001e-25,-1.84705e-25,-1.8477099999999999e-25,-4.4521200000000002e-29,9.7133199999999998e-30,-4.9778899999999998e-29
2188.0,1.31532e-28,-1.8477799999999999e-25,-1.84708e-25,-1.8477799999999999e-25,-3.6471600000000001e-29,9.1081600000000003e-30,-5.2130399999999998e-29
2189.0,1.27596e-28,-1.84773e-25,-1.84698e-25,-1.8476900000000001e-25,-2.6770200000000001e-29,7.9820900000000005e-30,-5.3288800000000004e-29
2190.0,1.27731e-28,-1.8478799999999999e-25,-1.84708e-25,-1.84783e-25,-1.8499700000000001e-29,7.2560400000000006e-30,-5.5121700000000002e-29
2191.0,1.2658000000000001e-28,-1.84773e-25,-1.84691e-25,-1.84764e-25,-1.00204e-29,7.9961200000000001e-30,-5.6017899999999996e-29
2192.0,1.4247000000000001e-28,-1.84791e-25,-1.8473e-25,-1.84799e-25,-5.7242599999999998e-29,1.0620499999999999e-29,-4.43062e-29
2193.0,1.3952800000000001e-28,-1.8479e-25,-1.84722e-25,-1.8479599999999999e-25,-5.1123100000000004e-29,9.6590799999999993e-30,-4.5638299999999999e-29
2194.0,1.3602899999999999e-28,-1.84797e-25,-1.84723e-25,-1.8480100000000001e-25,-4.3861800000000001e-29,9.1813699999999994e-30,-4.73882e-29
2195.0,1.3343e-28,-1.8479599999999999e-25,-1.84715e-25,-1.84797e-25,-3.55758e-29,8.1849499999999998e-30,-4.8913e-29
2196.0,1.32957e-28,-1.84808e-25,-1.84722e-25,-1.84806e-25,-2.7807300000000001e-29,8.1032799999999996e-30,-5.1177599999999997e-29
2197.0,1.2918799999999999e-28,-1.8480200000000001e-25,-1.8471199999999999e-25,-1.8479499999999999e-25,-1.9177700000000001e-29,7.4535300000000006e-30,-5.1417600000000004e-29
2198.0,1.3532799999999999e-28,-1.8481900000000001e-25,-1.84722e-25,-1.8481299999999999e-25,-1.08134e-29,5.2785900000000002e-30,-5.4794799999999998e-29
2199.0,1.4465800000000001e-28,-1.84807e-25,-1.8473699999999999e-25,-1.84815e-25,-5.5890200000000001e-29,9.8994899999999995e-30,-4.3458400000000001e-29
2200.0,1.4019900000000001e-28,-1.8481199999999999e-25,-1.8473699999999999e-25,-1.8481800000000001e-25,-4.9912699999999997e-29,9.0584299999999999e-30,-4.3915000000000003e-29
2201.0,1.3983599999999999e-28,-1.84816e-25,-1.84731e-25,-1.8481900000000001e-25,-4.33273e-29,8.7249000000000004e-30,-4.57968e-29
2202.0,1.3767799999999999e-28,-1.8482600000000001e-25,-1.8473599999999999e-25,-1.8482600000000001e-25,-3.6027e-29,8.2237700000000002e-30,-4.7570399999999999e-29
2203.0,1.3619e-28,-1.84825e-25,-1.8472899999999999e-25,-1.84822e-25,-2.8120899999999998e-29,7.6658899999999994e-30,-4.87597e-29
2204.0,1.3960799999999999e-28,-1.8483799999999999e-25,-1.8473500000000001e-25,-1.8483400000000001e-25,-2.055e-29,7.31339e-30,-5.1723000000000004e-29
2205.0,1.2866e-28,-1.8482799999999999e-25,-1.8472899999999999e-25,-1.84815e-25,-1.2597699999999999e-29,7.9990699999999996e-30,-4.88412e-29
2206.0,1.6114299999999999e-28,-1.8466899999999999e-25,-1.8470399999999999e-25,-1.8467500000000001e-25,-6.3733200000000004e-29,2.2530499999999999e-29,-6.1077800000000003e-29
2207.0,1.6010400000000001e-28,-1.84657e-25,-1.8467799999999999e-25,-1.84656e-25,-5.9960599999999999e-29,1.9290800000000001e-29,-6.6503200000000001e-29
2208.0,1.51944e-28,-1.84672e-25,-1.8468500000000001e-25,-1.8466099999999999e-25,-4.7297399999999998e-29,1.88394e-29,-7.0431800000000005e-29
2209.0,1.51403e-28,-1.84655e-25,-1.8465900000000001e-25,-1.8464300000000001e-25,-4.2358200000000002e-29,1.5342799999999999e-29,-7.4419000000000003e-29
2210.0,1.43927e-28,-1.84674e-25,-1.8467099999999999e-25,-1.8465000000000001e-25,-2.5682899999999999e-29,1.3077599999999999e-29,-7.6863499999999998e-29
2211.0,1.42521e-28,-1.8465100000000001e-25,-1.84641e-25,-1.84632e-25,-2.07409e-29,8.8965399999999998e-30,-7.8556000000000005e-29
2212.0,1.404e-28,-1.84674e-25,-1.8466899999999999e-25,-1.8464200000000001e-25,-2.6112e-30,8.4346600000000003e-30,-7.8699600000000005e-29
2213.0,1.54784e-28,-1.84689e-25,-1.8470000000000001e-25,-1.8469300000000001e-25,-6.2790300000000005e-29,1.8822799999999999e-29,-6.04867e-29
2214.0,1.5277200000000001e-28,-1.8469599999999999e-25,-1.8469599999999999e-25,-1.8469599999999999e-25,-5.7502300000000002e-29,1.8174999999999999e-29,-6.4364900000000002e-29
2215.0,1.47291e-28,-1.84689e-25,-1.84681e-25,-1.84682e-25,-4.8019600000000001e-29,1.63657e-29,-6.8117799999999999e-29
2216.0,1.43049e-28,-1.8470100000000001e-25,-1.8468500000000001e-25,-1.84689e-25,-3.8991499999999998e-29,1.4233699999999999e-29,-7.0922199999999997e-29
2217.0,1.4022e-28,-1.84688e-25,-1.84665e-25,-1.84672e-25,-2.8332899999999998e-29,1.19281e-29,-7.3980400000000004e-29
2218.0,1.35682e-28,-1.84705e-25,-1.8468e-25,-1.84683e-25,-1.7241899999999999e-29,9.6471299999999995e-30,-7.4519400000000004e-29
2219.0,1.36887e-28,-1.8468e-25,-1.8464599999999999e-25,-1.84664e-25,-8.1849600000000004e-30,6.2503599999999997e-30,-7.64768e-29
2220.0,1.51633e-28,-1.84722e-25,-1.8470900000000001e-25,-1.8472700000000001e-25,-6.2005400000000002e-29,1.6956199999999999e-29,-5.8740600000000004e-29
2221.0,1.45704e-28,-1.8471700000000001e-25,-1.84699e-25,-1.8471800000000001e-25,-5.4626199999999999e-29,1.6033300000000001e-29,-6.1047099999999998e-29
2222.0,1.4345999999999999e-28,-1.8472500000000001e-25,-1.84698e-25,-1.84722e-25,-4.74828e-29,1.4578000000000001e-29,-6.4608599999999995e-29
2223.0,1.3880699999999999e-28,-1.8471999999999999e-25,-1.8468599999999999e-25,-1.8471000000000001e-25,-3.7146999999999997e-29,1.3157599999999999e-29,-6.75715e-29
2224.0,1.3545699999999999e-28,-1.84732e-25,-1.8469200000000001e-25,-1.8471900000000001e-25,-2.8401399999999999e-29,1.08006e-29,-6.9158999999999995e-29
2225.0,1.3471100000000001e-28,-1.8471900000000001e-25,-1.84673e-25,-1.8470399999999999e-25,-1.7923699999999999e-29,9.7369699999999999e-30,-7.13367e-29
2226.0,1.28827e-28,-1.8473799999999999e-25,-1.84697e-25,-1.84716e-25,-7.2358799999999993e-30,8.2978300000000006e-30,-7.0528600000000004e-29
2227.0,1.4635600000000001e-28,-1.8474300000000001e-25,-1.84715e-25,-1.84749e-25,-5.9249000000000005e-29,1.5155500000000001e-29,-5.5344499999999997e-29
2228.0,1.44208e-28,-1.84748e-25,-1.8471099999999999e-25,-1.8475e-25,-5.3440700000000001e-29,1.42124e-29,-5.8344599999999998e-29
2229.0,1.3947900000000001e-28,-1.8474599999999999e-25,-1.8470299999999999e-25,-1.8474300000000001e-25,-4.5078900000000001e-29,1.31247e-29,-6.0839100000000003e-29
2230.0,1.37299e-28,-1.84755e-25,-1.84706e-25,-1.8475e-25,-3.7065099999999999e-29,1.17932e-29,-6.3427899999999999e-29
2231.0,1.3443700000000001e-28,-1.8475e-25,-1.8469399999999999e-25,-1.84739e-25,-2.7102000000000002e-29,1.05882e-29,-6.5507100000000005e-29
2232.0,1.32203e-28,-1.84764e-25,-1.84705e-25,-1.8475100000000001e-25,-1.8512500000000001e-29,9.0486199999999995e-30,-6.6583400000000005e-29
2233.0,1.35586e-28,-1.8474599999999999e-25,-1.8468e-25,-1.8473400000000001e-25,-9.7454000000000004e-30,8.2143900000000001e-30,-6.8912600000000004e-29
2234.0,1.4500000000000001e-28,-1.8476999999999999e-25,-1.8472500000000001e-25,-1.84775e-25,-5.7235799999999998e-29,1.3304300000000001e-29,-5.2828900000000003e-29
2235.0,1.4174800000000001e-28,-1.8476900000000001e-25,-1.8471800000000001e-25,-1.84772e-25,-5.1365900000000005e-29,1.26691e-29,-5.4696700000000003e-29
2236.0,1.3919799999999999e-28,-1.8477600000000001e-25,-1.8471800000000001e-25,-1.84775e-25,-4.3927099999999998e-29,1.18641e-29,-5.7362199999999997e-29
2237.0,1.3632399999999999e-28,-1.8477600000000001e-25,-1.8471099999999999e-25,-1.8476999999999999e-25,-3.5587499999999998e-29,1.0716e-29,-5.9411899999999999e-29
2238.0,1.3552900000000001e-28,-1.8478599999999999e-25,-1.84716e-25,-1.8477899999999999e-25,-2.7667800000000002e-29,9.8099399999999999e-30,-6.1628599999999995e-29
2239.0,1.3441399999999999e-28,-1.8477899999999999e-25,-1.8470399999999999e-25,-1.8476700000000001e-25,-1.8532499999999999e-29,9.1667300000000003e-30,-6.3099299999999996e-29
2240.0,1.32598e-28,-1.8479599999999999e-25,-1.8472099999999999e-25,-1.84781e-25,-9.8147799999999994e-30,7.2202000000000003e-30,-6.4278599999999999e-29
2241.0,1.4464999999999999e-28,-1.84789e-25,-1.84732e-25,-1.8479499999999999e-25,-5.5403500000000005e-29,1.21943e-29,-5.0306499999999998e-29
2242.0,1.4146899999999999e-28,-1.8479300000000001e-25,-1.8473e-25,-1.8479599999999999e-25,-4.9515900000000001e-29,1.14419e-29,-5.1859199999999998e-29
2243.0,1.39928e-28,-1.8479599999999999e-25,-1.8472500000000001e-25,-1.8479499999999999e-25,-4.3055899999999999e-29,1.04851e-29,-5.4035000000000001e-29
2244.0,1.38635e-28,-1.8480399999999999e-25,-1.8472799999999999e-25,-1.8480100000000001e-25,-3.5559599999999998e-29,1.03465e-29,-5.6438100000000004e-29
2245.0,1.3675500000000001e-28,-1.8480299999999999e-25,-1.8472099999999999e-25,-1.8479599999999999e-25,-2.7270100000000002e-29,8.9049700000000003e-30,-5.7793800000000005e-29
2246.0,1.3820700000000001e-28,-1.84815e-25,-1.8472899999999999e-25,-1.84806e-25,-1.9936100000000001e-29,8.5837799999999998e-30,-6.0301399999999999e-29
2247.0,1.36515e-28,-1.8480399999999999e-25,-1.84715e-25,-1.84791e-25,-1.20563e-29,9.6203099999999994e-30,-6.0400699999999995e-29
2248.0,1.43175e-28,-1.84805e-25,-1.8473799999999999e-25,-1.8481000000000001e-25,-5.3075699999999998e-29,1.0334300000000001e-29,-4.79215e-29
2249.0,1.44794e-28,-1.8481000000000001e-25,-1.8473699999999999e-25,-1.84814e-25,-4.9587700000000001e-29,1.08018e-29,-5.03437e-29
2250.0,1.41084e-28,-1.8481700000000001e-25,-1.8473799999999999e-25,-1.8481700000000001e-25,-4.23917e-29,1.0168799999999999e-29,-5.1673500000000004e-29
2251.0,1.40985e-28,-1.8481999999999999e-25,-1.8473400000000001e-25,-1.8481700000000001e-25,-3.5324799999999997e-29,9.0641299999999999e-30,-5.3759400000000003e-29
2252.0,1.41562e-28,-1.8482899999999999e-25,-1.8473799999999999e-25,-1.84824e-25,-2.8160299999999999e-29,9.33625e-30,-5.6374199999999998e-29
2253.0,1.3808599999999999e-28,-1.8482700000000001e-25,-1.84731e-25,-1.84816e-25,-2.01805e-29,8.3808399999999994e-30,-5.6194699999999997e-29
2254.0,1.4699000000000001e-28,-1.84841e-25,-1.84739e-25,-1.84833e-25,-1.2709700000000001e-29,5.9704000000000001e-30,-6.13636e-29
2255.0,1.38328e-28,-1.84831e-25,-1.8476999999999999e-25,-1.8485299999999999e-25,-6.7177500000000003e-29,-1.00542e-30,-3.7344200000000002e-30
2256.0,1.5663900000000001e-28,-1.8481299999999999e-25,-1.8474400000000001e-25,-1.8482700000000001e-25,-7.8845599999999996e-29,3.9622599999999998e-31,-2.1803000000000001e-30
2257.0,1.4208699999999999e-28,-1.8479300000000001e-25,-1.84764e-25,-1.84822e-25,-7.6688300000000001e-29,1.54881e-30,-4.2149600000000002e-30
2258.0,1.59191e-28,-1.8475299999999999e-25,-1.84733e-25,-1.8478e-25,-8.8734699999999998e-29,1.6529099999999999e-30,-3.5535700000000001e-30
2259.0,1.53105e-28,-1.8473699999999999e-25,-1.8475100000000001e-25,-1.84774e-25,-8.6121999999999997e-29,4.3274499999999999e-30,-4.8603100000000001e-30
2260.0,1.6504399999999999e-28,-1.84683e-25,-1.84716e-25,-1.8472099999999999e-25,-9.2843199999999995e-29,3.1602800000000001e-30,-5.2707899999999998e-30
2261.0,1.6981399999999999e-28,-1.84666e-25,-1.84733e-25,-1.8471099999999999e-25,-9.1414500000000005e-29,7.5287700000000003e-30,-3.6957799999999997e-30
2262.0,1.5296500000000001e-28,-1.8482700000000001e-25,-1.8474200000000001e-25,-1.84841e-25,-7.02507e-29,1.15972e-30,-4.5149299999999997e-30
2263.0,1.43744e-28,-1.8481099999999999e-25,-1.8475399999999999e-25,-1.8483599999999999e-25,-7.1556900000000002e-29,5.6775999999999998e-31,-4.4163500000000001e-30
2264.0,1.5235899999999999e-28,-1.8477700000000001e-25,-1.8472099999999999e-25,-1.84797e-25,-7.85367e-29,1.6846500000000001e-30,-5.02712e-30
2265.0,1.45087e-28,-1.8476099999999999e-25,-1.84741e-25,-1.8479300000000001e-25,-7.9271100000000005e-29,2.30793e-30,-5.57612e-30
2266.0,1.54886e-28,-1.84714e-25,-1.84699e-25,-1.8474200000000001e-25,-8.6520499999999999e-29,1.50002e-30,-6.3230599999999995e-30
2267.0,1.5403899999999999e-28,-1.8469599999999999e-25,-1.8472099999999999e-25,-1.8473500000000001e-25,-8.6361000000000005e-29,3.4639800000000001e-30,-6.0244899999999998e-30
2268.0,1.6112699999999999e-28,-1.84641e-25,-1.8467700000000001e-25,-1.8467600000000001e-25,-9.0245100000000003e-29,7.3571600000000001e-31,-9.0920699999999995e-30
2269.0,1.48844e-28,-1.8483400000000001e-25,-1.8475399999999999e-25,-1.8484599999999999e-25,-6.8874500000000004e-29,2.9289299999999999e-30,-1.2232000000000001e-29
2270.0,1.4332799999999999e-28,-1.8481299999999999e-25,-1.8476099999999999e-25,-1.84833e-25,-7.2572000000000005e-29,3.4135599999999997e-30,-1.275e-29
2271.0,1.51831e-28,-1.84783e-25,-1.8474400000000001e-25,-1.84805e-25,-8.07184e-29,4.9883400000000001e-30,-1.32993e-29
2272.0,1.4919300000000001e-28,-1.84764e-25,-1.8475200000000001e-25,-1.8479400000000001e-25,-8.1990799999999995e-29,5.7397299999999999e-30,-1.4154199999999999e-29
2273.0,1.5912300000000001e-28,-1.84722e-25,-1.84731e-25,-1.84755e-25,-8.8797799999999997e-29,7.1841399999999996e-30,-1.4778399999999999e-29
2274.0,1.6158e-28,-1.8470200000000001e-25,-1.84739e-25,-1.84741e-25,-8.8901000000000003e-29,8.7065799999999999e-30,-1.5396000000000001e-29
2275.0,1.6935599999999999e-28,-1.84649e-25,-1.84714e-25,-1.84691e-25,-8.9938899999999995e-29,8.5904799999999998e-30,-1.79155e-29
2276.0,1.4517599999999999e-28,-1.84824e-25,-1.8475100000000001e-25,-1.8484300000000001e-25,-6.6831100000000003e-29,2.8162599999999999e-30,-1.2968699999999999e-29
2277.0,1.48649e-28,-1.848e-25,-1.8473400000000001e-25,-1.8481900000000001e-25,-7.2117799999999999e-29,3.9499899999999997e-30,-1.3103799999999999e-29
2278.0,1.45775e-28,-1.8478400000000001e-25,-1.84739e-25,-1.8480900000000001e-25,-7.4988500000000005e-29,4.0319400000000001e-30,-1.3970199999999999e-29
2279.0,1.5088699999999999e-28,-1.8474599999999999e-25,-1.84715e-25,-1.84772e-25,-8.0852599999999997e-29,5.2100699999999997e-30,-1.496e-29
2280.0,1.49821e-28,-1.8472799999999999e-25,-1.84723e-25,-1.8476000000000001e-25,-8.2571100000000003e-29,5.4757500000000001e-30,-1.5667599999999999e-29
2281.0,1.5632499999999999e-28,-1.8468e-25,-1.8469399999999999e-25,-1.8471199999999999e-25,-8.6984700000000002e-29,6.3430099999999996e-30,-1.6878999999999999e-29
2282.0,1.6352399999999999e-28,-1.8465900000000001e-25,-1.84707e-25,-1.8470000000000001e-25,-8.9265199999999999e-29,8.4132099999999995e-30,-1.4500099999999999e-29
2283.0,1.4540900000000001e-28,-1.84831e-25,-1.8476000000000001e-25,-1.8484400000000001e-25,-6.68855e-29,5.9422000000000001e-30,-2.1499399999999999e-29
2284.0,1.48188e-28,-1.84808e-25,-1.8475200000000001e-25,-1.84825e-25,-7.2762500000000002e-29,6.9880200000000002e-30,-2.2582200000000001e-29
2285.0,1.47784e-28,-1.8478799999999999e-25,-1.8475399999999999e-25,-1.8481000000000001e-25,-7.6677999999999995e-29,7.8603199999999996e-30,-2.2952300000000001e-29
2286.0,1.53707e-28,-1.84755e-25,-1.84741e-25,-1.84781e-25,-8.2385800000000002e-29,9.6883800000000003e-30,-2.4213600000000001e-29
2287.0,1.5616399999999999e-28,-1.84733e-25,-1.8474400000000001e-25,-1.84765e-25,-8.4534700000000004e-29,1.05577e-29,-2.48377e-29
2288.0,1.63572e-28,-1.8469e-25,-1.8472600000000001e-25,-1.8472500000000001e-25,-8.77149e-29,1.2477300000000001e-29,-2.5680999999999997e-29
2289.0,1.6920599999999999e-28,-1.84666e-25,-1.84732e-25,-1.84707e-25,-8.7719799999999997e-29,1.41745e-29,-2.3300599999999999e-29
2290.0,1.4698499999999999e-28,-1.8481900000000001e-25,-1.8474300000000001e-25,-1.8483400000000001e-25,-6.5915999999999998e-29,5.4172499999999999e-30,-2.11166e-29
2291.0,1.4601100000000001e-28,-1.8480299999999999e-25,-1.8474200000000001e-25,-1.84822e-25,-6.9554200000000004e-29,6.0067800000000002e-30,-2.16841e-29
2292.0,1.4829500000000001e-28,-1.84773e-25,-1.8472700000000001e-25,-1.8479499999999999e-25,-7.4516500000000003e-29,7.1059500000000003e-30,-2.28197e-29
2293.0,1.48136e-28,-1.84755e-25,-1.8472700000000001e-25,-1.8477899999999999e-25,-7.7542600000000002e-29,7.5088900000000006e-30,-2.3914799999999999e-29
2294.0,1.5245e-28,-1.84715e-25,-1.84708e-25,-1.8474200000000001e-25,-8.1819400000000001e-29,9.3856699999999997e-30,-2.5236600000000001e-29
2295.0,1.5566200000000001e-28,-1.8469399999999999e-25,-1.8471299999999999e-25,-1.8472600000000001e-25,-8.38221e-29,1.0274200000000001e-29,-2.62813e-29
2296.0,1.63996e-28,-1.84647e-25,-1.84689e-25,-1.8467899999999999e-25,-8.6266299999999998e-29,1.1487299999999999e-29,-3.0139400000000001e-29
2297.0,1.4806299999999999e-28,-1.8483e-25,-1.8475900000000001e-25,-1.8484e-25,-6.5382900000000005e-29,8.3891100000000006e-30,-3.1368299999999999e-29
2298.0,1.4814499999999999e-28,-1.8481000000000001e-25,-1.84757e-25,-1.84825e-25,-7.05042e-29,9.9716999999999999e-30,-3.1165200000000002e-29
2299.0,1.51405e-28,-1.84783e-25,-1.84749e-25,-1.8480200000000001e-25,-7.5412699999999997e-29,1.12676e-29,-3.31e-29
2300.0,1.5323999999999999e-28,-1.8476099999999999e-25,-1.84749e-25,-1.8478500000000001e-25,-7.8844700000000003e-29,1.2466e-29,-3.3492700000000001e-29
2301.0,1.5912000000000001e-28,-1.8472600000000001e-25,-1.8473599999999999e-25,-1.8475299999999999e-25,-8.2680300000000001e-29,1.45155e-29,-3.4780799999999999e-29
2302.0,1.62409e-28,-1.8470100000000001e-25,-1.8473699999999999e-25,-1.84733e-25,-8.3436999999999995e-29,1.5338100000000001e-29,-3.4792400000000001e-29
2303.0,1.70331e-28,-1.84656e-25,-1.8471900000000001e-25,-1.8469e-25,-8.3563099999999997e-29,1.73457e-29,-3.7324299999999998e-29
2304.0,1.4643700000000001e-28,-1.8481800000000001e-25,-1.8474599999999999e-25,-1.84832e-25,-6.41966e-29,7.7024000000000004e-30,-2.9052599999999999e-29
2305.0,1.47108e-28,-1.8479599999999999e-25,-1.8473599999999999e-25,-1.8481299999999999e-25,-6.7847599999999997e-29,8.1480200000000005e-30,-3.0322500000000002e-29
2306.0,1.47092e-28,-1.8477799999999999e-25,-1.84733e-25,-1.8479599999999999e-25,-7.1549800000000005e-29,9.1010899999999997e-30,-3.1098000000000003e-29
2307.0,1.4965400000000001e-28,-1.8474599999999999e-25,-1.8471900000000001e-25,-1.8476700000000001e-25,-7.5484199999999999e-29,1.08072e-29,-3.2958200000000001e-29
2308.0,1.51324e-28,-1.8472500000000001e-25,-1.8471900000000001e-25,-1.84748e-25,-7.7871899999999996e-29,1.1816799999999999e-29,-3.45655e-29
2309.0,1.57673e-28,-1.8468500000000001e-25,-1.8470200000000001e-25,-1.8471000000000001e-25,-8.1252000000000003e-29,1.4275500000000001e-29,-3.6218399999999999e-29
2310.0,1.63847e-28,-1.8466199999999999e-25,-1.8470900000000001e-25,-1.8469399999999999e-25,-8.3327299999999998e-29,1.6157500000000001e-29,-3.4336700000000002e-29
2311.0,1.5021799999999999e-28,-1.8482899999999999e-25,-1.8476099999999999e-25,-1.8483799999999999e-25,-6.3881200000000003e-29,1.16089e-29,-3.9239700000000001e-29
2312.0,1.5132999999999999e-28,-1.84807e-25,-1.84756e-25,-1.8481999999999999e-25,-6.8303500000000004e-29,1.22904e-29,-4.1055299999999998e-29
2313.0,1.5307e-28,-1.8478699999999999e-25,-1.8475299999999999e-25,-1.8480200000000001e-25,-7.2708100000000004e-29,1.3801199999999999e-29,-4.1379200000000001e-29
2314.0,1.5641100000000001e-28,-1.84757e-25,-1.8474400000000001e-25,-1.8477600000000001e-25,-7.6062499999999999e-29,1.53796e-29,-4.3253099999999999e-29
2315.0,1.5881300000000001e-28,-1.84732e-25,-1.8474200000000001e-25,-1.84755e-25,-7.81418e-29,1.6728799999999999e-29,-4.3475799999999998e-29
2316.0,1.64888e-28,-1.8469499999999999e-25,-1.8472899999999999e-25,-1.8471999999999999e-25,-8.0167799999999998e-29,1.8885e-29,-4.4496200000000003e-29
2317.0,1.6915e-28,-1.8466899999999999e-25,-1.84731e-25,-1.84699e-25,-8.0452399999999995e-29,1.9941800000000001e-29,-4.13672e-29
2318.0,1.4684400000000001e-28,-1.84814e-25,-1.8474499999999999e-25,-1.84825e-25,-6.1607499999999995e-29,9.1310200000000001e-30,-3.7329100000000001e-29
2319.0,1.46749e-28,-1.84798e-25,-1.8474e-25,-1.8481000000000001e-25,-6.5298199999999996e-29,1.02911e-29,-3.7583900000000002e-29
2320.0,1.4803600000000001e-28,-1.84772e-25,-1.8473e-25,-1.8478699999999999e-25,-6.8568799999999996e-29,1.1470499999999999e-29,-3.9853699999999999e-29
2321.0,1.49263e-28,-1.8475100000000001e-25,-1.8472600000000001e-25,-1.8476700000000001e-25,-7.16011e-29,1.2802899999999999e-29,-4.1298300000000001e-29
2322.0,1.53298e-28,-1.8471800000000001e-25,-1.84714e-25,-1.8473699999999999e-25,-7.4707600000000005e-29,1.51418e-29,-4.3310800000000001e-29
2323.0,1.5725e-28,-1.8469499999999999e-25,-1.84714e-25,-1.84716e-25,-7.63184e-29,1.66534e-29,-4.4816900000000002e-29
2324.0,1.6621899999999999e-28,-1.84655e-25,-1.84697e-25,-1.8467500000000001e-25,-7.7559899999999999e-29,1.8730100000000001e-29,-4.8961000000000002e-29
2325.0,1.5296099999999999e-28,-1.8482700000000001e-25,-1.8476299999999999e-25,-1.8483400000000001e-25,-6.1732700000000005e-29,1.3135999999999999e-29,-4.78161e-29
2326.0,1.5418900000000001e-28,-1.8480900000000001e-25,-1.84758e-25,-1.8481700000000001e-25,-6.6156500000000004e-29,1.4618599999999999e-29,-4.81922e-29
2327.0,1.56073e-28,-1.8478500000000001e-25,-1.8475200000000001e-25,-1.84797e-25,-6.9148900000000002e-29,1.5713900000000001e-29,-5.0487600000000003e-29
2328.0,1.57661e-28,-1.8476099999999999e-25,-1.84747e-25,-1.84775e-25,-7.2130199999999998e-29,1.7394299999999999e-29,-5.0814699999999998e-29
2329.0,1.6168600000000001e-28,-1.8473e-25,-1.8473699999999999e-25,-1.8474599999999999e-25,-7.4335699999999996e-29,1.90847e-29,-5.2464800000000003e-29
2330.0,1.63931e-28,-1.8470200000000001e-25,-1.8473400000000001e-25,-1.84722e-25,-7.4759800000000003e-29,2.0477499999999999e-29,-5.1909199999999997e-29
2331.0,1.7170599999999999e-28,-1.84664e-25,-1.8471999999999999e-25,-1.84682e-25,-7.4033100000000001e-29,2.3088500000000001e-29,-5.4885799999999997e-29
2332.0,1.47032e-28,-1.8481199999999999e-25,-1.8474599999999999e-25,-1.8481999999999999e-25,-5.9662900000000002e-29,1.13287e-29,-4.3199900000000003e-29
2333.0,1.47976e-28,-1.8479400000000001e-25,-1.8474e-25,-1.8480399999999999e-25,-6.2205700000000005e-29,1.2076600000000001e-29,-4.5615299999999997e-29
2334.0,1.4858699999999999e-28,-1.84775e-25,-1.8473400000000001e-25,-1.8478500000000001e-25,-6.5280199999999998e-29,1.3282300000000001e-29,-4.6843299999999998e-29
2335.0,1.50913e-28,-1.84747e-25,-1.84724e-25,-1.8476000000000001e-25,-6.7846300000000001e-29,1.5153299999999999e-29,-4.93757e-29
2336.0,1.5371399999999999e-28,-1.84724e-25,-1.8471999999999999e-25,-1.8473699999999999e-25,-6.9950800000000004e-29,1.6680999999999999e-29,-5.1240300000000003e-29
2337.0,1.5978699999999999e-28,-1.8469e-25,-1.8470900000000001e-25,-1.8470399999999999e-25,-7.22114e-29,1.9402200000000001e-29,-5.3118000000000005e-29
2338.0,1.6517599999999999e-28,-1.84666e-25,-1.8471199999999999e-25,-1.8468599999999999e-25,-7.4127200000000002e-29,2.1611900000000001e-29,-5.0998099999999997e-29
2339.0,1.55696e-28,-1.8482600000000001e-25,-1.8476299999999999e-25,-1.8482899999999999e-25,-6.0268899999999999e-29,1.5444499999999999e-29,-5.3084800000000003e-29
2340.0,1.5721100000000001e-28,-1.84808e-25,-1.84758e-25,-1.84814e-25,-6.2443500000000002e-29,1.59435e-29,-5.6018899999999994e-29
2341.0,1.57792e-28,-1.8478699999999999e-25,-1.8475200000000001e-25,-1.8479400000000001e-25,-6.5602000000000003e-29,1.7310299999999999e-29,-5.64656e-29
2342.0,1.5993499999999999e-28,-1.8476000000000001e-25,-1.8474400000000001e-25,-1.8476999999999999e-25,-6.7458600000000005e-29,1.8699199999999999e-29,-5.8803000000000001e-29
2343.0,1.62262e-28,-1.84733e-25,-1.8473799999999999e-25,-1.8474400000000001e-25,-6.9350500000000001e-29,2.0365700000000001e-29,-5.9339800000000001e-29
2344.0,1.6645300000000001e-28,-1.8470100000000001e-25,-1.8472799999999999e-25,-1.8471299999999999e-25,-7.0231399999999995e-29,2.1852600000000001e-29,-6.0394700000000003e-29
2345.0,1.6995699999999999e-28,-1.8466999999999999e-25,-1.8472600000000001e-25,-1.84688e-25,-7.1449099999999996e-29,2.3184299999999999e-29,-5.65095e-29
2346.0,1.47586e-28,-1.8481000000000001e-25,-1.84748e-25,-1.8481700000000001e-25,-5.6567400000000004e-29,1.2045999999999999e-29,-4.9605500000000002e-29
2347.0,1.4880300000000001e-28,-1.8479499999999999e-25,-1.8474200000000001e-25,-1.8480100000000001e-25,-5.9830700000000004e-29,1.3599e-29,-5.0576400000000002e-29
2348.0,1.5078100000000001e-28,-1.84774e-25,-1.8473400000000001e-25,-1.84781e-25,-6.1871200000000005e-29,1.4821999999999999e-29,-5.3798000000000002e-29
2349.0,1.52075e-28,-1.8475100000000001e-25,-1.8472799999999999e-25,-1.8475900000000001e-25,-6.4172199999999995e-29,1.63563e-29,-5.5378800000000003e-29
2350.0,1.5578e-28,-1.84723e-25,-1.8471999999999999e-25,-1.84732e-25,-6.6248400000000005e-29,1.86326e-29,-5.7583800000000002e-29
2351.0,1.60253e-28,-1.84697e-25,-1.84715e-25,-1.84707e-25,-6.7573999999999996e-29,2.033e-29,-5.9136599999999998e-29
2352.0,1.67684e-28,-1.84664e-25,-1.8470299999999999e-25,-1.8466999999999999e-25,-6.6513100000000003e-29,2.18625e-29,-6.3484199999999998e-29
2353.0,1.3575399999999999e-28,-1.8487700000000001e-25,-1.8474499999999999e-25,-1.8487899999999999e-25,-1.5664999999999999e-29,-9.1720000000000007e-31,-4.6612700000000003e-30
2354.0,1.53887e-28,-1.8491999999999999e-25,-1.8476900000000001e-25,-1.84914e-25,-2.2927800000000001e-29,-8.7489700000000005e-32,-8.7378100000000005e-30
2355.0,1.43962e-28,-1.8488699999999999e-25,-1.8475299999999999e-25,-1.8489e-25,-2.7131000000000002e-29,1.78401e-30,-7.4904599999999998e-30
2356.0,1.51278e-28,-1.8491299999999999e-25,-1.8476800000000001e-25,-1.8491099999999999e-25,-2.7036900000000001e-29,-7.2536299999999996e-31,-4.2119500000000002e-30
2357.0,1.36838e-28,-1.8486999999999999e-25,-1.8475200000000001e-25,-1.8488e-25,-3.3669300000000001e-29,3.2614799999999998e-31,-4.3876100000000003e-30
2358.0,1.5469600000000001e-28,-1.8491900000000001e-25,-1.8477799999999999e-25,-1.8491800000000001e-25,-3.68778e-29,-1.3676999999999999e-31,-6.8033499999999999e-30
2359.0,1.4975000000000001e-28,-1.8488400000000001e-25,-1.84758e-25,-1.84889e-25,-4.39854e-29,1.47822e-30,-6.3603100000000002e-30
2360.0,1.4982899999999999e-28,-1.8489599999999999e-25,-1.8476800000000001e-25,-1.849e-25,-4.3398299999999998e-29,-1.09503e-30,-3.3573800000000003e-30
2361.0,1.36989e-28,-1.8485200000000001e-25,-1.8475399999999999e-25,-1.8486900000000001e-25,-4.8890599999999998e-29,1.78759e-31,-4.0349200000000002e-30
2362.0,1.53103e-28,-1.8490100000000001e-25,-1.8477600000000001e-25,-1.8490299999999999e-25,-4.9553199999999998e-29,2.0236199999999999e-31,-5.2496499999999998e-30
2363.0,1.56062e-28,-1.84865e-25,-1.84755e-25,-1.84873e-25,-6.1106499999999999e-29,9.7020200000000004e-31,-4.6918999999999999e-30
2364.0,1.4410200000000001e-28,-1.8486299999999999e-25,-1.8476700000000001e-25,-1.8487600000000001e-25,-5.77049e-29,-2.1585600000000002e-30,-2.3504799999999999e-30
2365.0,1.3567400000000001e-28,-1.84833e-25,-1.84756e-25,-1.8485399999999999e-25,-5.8829100000000005e-29,7.9119299999999999e-31,-3.5442e-30
2366.0,1.5487700000000001e-28,-1.8486800000000001e-25,-1.8476099999999999e-25,-1.84872e-25,-6.3541100000000003e-29,7.5665200000000003e-31,-3.3305500000000002e-30
2367.0,1.42487e-28,-1.84883e-25,-1.84749e-25,-1.8488500000000001e-25,-1.8216299999999999e-29,2.78327e-30,-1.7322799999999999e-29
2368.0,1.5028299999999999e-28,-1.8491099999999999e-25,-1.8476299999999999e-25,-1.8490399999999999e-25,-1.8585499999999999e-29,1.358e-30,-1.5113100000000001e-29
2369.0,1.3659100000000001e-28,-1.84872e-25,-1.84747e-25,-1.8487600000000001e-25,-2.4434699999999999e-29,2.32798e-30,-1.4632200000000001e-29
2370.0,1.5344200000000001e-28,-1.8491900000000001e-25,-1.84775e-25,-1.84915e-25,-2.87131e-29,1.6542700000000002e-30,-1.7312500000000001e-29
2371.0,1.4367600000000001e-28,-1.8488e-25,-1.84755e-25,-1.8488599999999999e-25,-3.4362300000000002e-29,2.3791899999999999e-30,-1.53825e-29
2372.0,1.5100399999999999e-28,-1.84905e-25,-1.8476800000000001e-25,-1.8490399999999999e-25,-3.4932600000000001e-29,1.7461999999999999e-30,-1.4977200000000001e-29
2373.0,1.40142e-28,-1.8486099999999999e-25,-1.84749e-25,-1.84872e-25,-4.16452e-29,2.8691299999999999e-30,-1.40956e-29
2374.0,1.5168e-28,-1.84905e-25,-1.8477600000000001e-25,-1.84907e-25,-4.2343599999999998e-29,1.8225000000000001e-30,-1.48517e-29
2375.0,1.4646700000000001e-28,-1.84866e-25,-1.84756e-25,-1.84875e-25,-5.0269800000000001e-29,2.4422200000000001e-30,-1.37449e-29
2376.0,1.4829299999999999e-28,-1.84882e-25,-1.84766e-25,-1.8488699999999999e-25,-4.98218e-29,1.7747199999999999e-30,-1.37153e-29
2377.0,1.42098e-28,-1.8484200000000001e-25,-1.84749e-25,-1.84857e-25,-5.5973699999999998e-29,2.7898900000000001e-30,-1.2954e-29
2378.0,1.4860099999999999e-28,-1.8487799999999999e-25,-1.8476900000000001e-25,-1.84883e-25,-5.5340399999999996e-29,1.9476e-30,-1.2827099999999999e-29
2379.0,1.4950500000000001e-28,-1.8484200000000001e-25,-1.8475100000000001e-25,-1.84856e-25,-6.3564400000000003e-29,3.12229e-30,-1.25701e-29
2380.0,1.4373699999999999e-28,-1.84849e-25,-1.8476299999999999e-25,-1.8486099999999999e-25,-6.2141700000000003e-29,2.06245e-30,-1.23488e-29
2381.0,1.34378e-28,-1.8487099999999999e-25,-1.8474499999999999e-25,-1.8486700000000001e-25,-1.5127000000000001e-29,3.1697299999999999e-30,-2.4442100000000001e-29
2382.0,1.5431e-28,-1.8491700000000001e-25,-1.8477099999999999e-25,-1.8490900000000001e-25,-2.08548e-29,3.3009e-30,-2.8225199999999998e-29
2383.0,1.4246900000000001e-28,-1.8487899999999999e-25,-1.8475200000000001e-25,-1.84881e-25,-2.49679e-29,3.5858899999999997e-30,-2.5533300000000002e-29
2384.0,1.5136299999999999e-28,-1.84906e-25,-1.84766e-25,-1.8490100000000001e-25,-2.6481400000000001e-29,3.6579899999999999e-30,-2.6029899999999999e-29
2385.0,1.39683e-28,-1.84866e-25,-1.84748e-25,-1.8486999999999999e-25,-3.2714699999999999e-29,4.3839400000000002e-30,-2.4013899999999999e-29
2386.0,1.52386e-28,-1.8490900000000001e-25,-1.84775e-25,-1.84907e-25,-3.44265e-29,3.7834300000000001e-30,-2.5735799999999998e-29
2387.0,1.4300299999999999e-28,-1.8486800000000001e-25,-1.8475399999999999e-25,-1.84875e-25,-4.1025699999999998e-29,3.7840499999999997e-30,-2.3125800000000001e-29
2388.0,1.50541e-28,-1.8489300000000001e-25,-1.8476800000000001e-25,-1.8489300000000001e-25,-4.1707600000000003e-29,4.3033099999999998e-30,-2.4855200000000001e-29
2389.0,1.43275e-28,-1.8485100000000001e-25,-1.84748e-25,-1.8486099999999999e-25,-4.8606100000000002e-29,4.7664600000000003e-30,-2.25434e-29
2390.0,1.49318e-28,-1.8488699999999999e-25,-1.8477099999999999e-25,-1.8489e-25,-4.81375e-29,4.1241499999999997e-30,-2.3170399999999999e-29
2391.0,1.4494599999999999e-28,-1.84848e-25,-1.8475200000000001e-25,-1.8486000000000001e-25,-5.5422899999999994e-29,4.3922399999999998e-30,-2.1422100000000001e-29
2392.0,1.47192e-28,-1.84866e-25,-1.84764e-25,-1.84872e-25,-5.5105000000000001e-29,5.1296999999999997e-30,-2.2786200000000001e-29
2393.0,1.4486800000000001e-28,-1.84831e-25,-1.84748e-25,-1.8484599999999999e-25,-6.1046200000000006e-29,5.0031599999999998e-30,-2.1153200000000001e-29
2394.0,1.4686999999999999e-28,-1.8485299999999999e-25,-1.8476299999999999e-25,-1.8486199999999999e-25,-6.0848699999999996e-29,4.6706700000000003e-30,-2.17149e-29
2395.0,1.46982e-28,-1.8487899999999999e-25,-1.8475e-25,-1.8487899999999999e-25,-1.7056999999999999e-29,4.9880000000000001e-30,-3.6243399999999998e-29
2396.0,1.50406e-28,-1.849e-25,-1.8476199999999999e-25,-1.84889e-25,-1.7396000000000001e-29,4.6408400000000001e-30,-3.6790499999999999e-29
2397.0,1.38393e-28,-1.84865e-25,-1.8474599999999999e-25,-1.8486299999999999e-25,-2.3516199999999999e-29,5.3394600000000003e-30,-3.3759699999999999e-29
2398.0,1.5363199999999999e-28,-1.8490900000000001e-25,-1.84774e-25,-1.8490200000000001e-25,-2.62795e-29,5.4489000000000001e-30,-3.6399400000000003e-29
2399.0,1.4215600000000001e-28,-1.8486999999999999e-25,-1.8475399999999999e-25,-1.84872e-25,-3.1630899999999998e-29,5.0218400000000003e-30,-3.3234799999999998e-29
2400.0,1.52238e-28,-1.8489599999999999e-25,-1.8476800000000001e-25,-1.8489200000000001e-25,-3.3696299999999997e-29,6.1219799999999998e-30,-3.56259e-29
2401.0,1.42542e-28,-1.84856e-25,-1.84747e-25,-1.8486099999999999e-25,-3.9902400000000002e-29,6.1045299999999998e-30,-3.2256400000000003e-29
2402.0,1.5150999999999999e-28,-1.8489499999999999e-25,-1.84773e-25,-1.8489300000000001e-25,-4.02373e-29,6.0297400000000003e-30,-3.3959500000000002e-29
2403.0,1.43243e-28,-1.8485299999999999e-25,-1.8475200000000001e-25,-1.8486099999999999e-25,-4.6909299999999997e-29,5.5297500000000002e-30,-3.05821e-29
2404.0,1.5011000000000001e-28,-1.8487700000000001e-25,-1.8476700000000001e-25,-1.8487899999999999e-25,-4.7647000000000001e-29,7.2115099999999995e-30,-3.3273300000000001e-29
2405.0,1.4491800000000001e-28,-1.8483799999999999e-25,-1.84747e-25,-1.84849e-25,-5.4140200000000005e-29,6.8803900000000005e-30,-2.9983500000000003e-29
2406.0,1.4861699999999999e-28,-1.8486800000000001e-25,-1.8476800000000001e-25,-1.84872e-25,-5.3636700000000001e-29,6.6446400000000005e-30,-3.1571099999999999e-29
2407.0,1.45824e-28,-1.84832e-25,-1.84749e-25,-1.8484400000000001e-25,-5.93556e-29,6.5952100000000002e-30,-2.9176899999999999e-29
2408.0,1.4741400000000001e-28,-1.84848e-25,-1.8476299999999999e-25,-1.84855e-25,-5.9738500000000005e-29,8.3853600000000002e-30,-3.0947799999999999e-29
2409.0,1.34734e-28,-1.8486099999999999e-25,-1.8474599999999999e-25,-1.84849e-25,-1.42594e-29,5.7950400000000002e-30,-4.2255100000000002e-29
2410.0,1.5691600000000001e-28,-1.84905e-25,-1.8476999999999999e-25,-1.8489499999999999e-25,-1.90827e-29,6.9096799999999994e-30,-4.6188099999999999e-29
2411.0,1.44466e-28,-1.8486999999999999e-25,-1.8475200000000001e-25,-1.8486700000000001e-25,-2.28776e-29,6.1778199999999999e-30,-4.3479600000000002e-29
2412.0,1.52925e-28,-1.8489200000000001e-25,-1.84765e-25,-1.84882e-25,-2.5148699999999999e-29,7.1085299999999993e-30,-4.6176699999999999e-29
2413.0,1.4215e-28,-1.84857e-25,-1.84747e-25,-1.84855e-25,-3.0890199999999999e-29,7.1307700000000003e-30,-4.1823100000000001e-29
2414.0,1.5347300000000001e-28,-1.8489599999999999e-25,-1.84773e-25,-1.8489e-25,-3.2141999999999998e-29,7.5568299999999994e-30,-4.4463799999999998e-29
2415.0,1.42771e-28,-1.84857e-25,-1.8475200000000001e-25,-1.8485900000000001e-25,-3.8032599999999999e-29,6.7413099999999997e-30,-4.01797e-29
2416.0,1.52806e-28,-1.84883e-25,-1.8476900000000001e-25,-1.8487899999999999e-25,-3.98954e-29,8.8318399999999995e-30,-4.3717299999999997e-29
2417.0,1.44597e-28,-1.8484400000000001e-25,-1.84747e-25,-1.84849e-25,-4.5819700000000001e-29,7.9406000000000007e-30,-3.9227999999999998e-29
2418.0,1.51635e-28,-1.8487700000000001e-25,-1.8477099999999999e-25,-1.8487600000000001e-25,-4.6166200000000002e-29,8.4813000000000003e-30,-4.1789600000000002e-29
2419.0,1.44269e-28,-1.8483799999999999e-25,-1.8475e-25,-1.8484499999999999e-25,-5.1914499999999998e-29,7.4306699999999994e-30,-3.7422100000000002e-29
2420.0,1.5066099999999999e-28,-1.8486099999999999e-25,-1.8476700000000001e-25,-1.84864e-25,-5.2619600000000001e-29,1.0246700000000001e-29,-4.0721e-29
2421.0,1.46291e-28,-1.8482600000000001e-25,-1.84748e-25,-1.8483599999999999e-25,-5.7751999999999998e-29,9.0810700000000006e-30,-3.6810200000000003e-29
2422.0,1.50017e-28,-1.84847e-25,-1.84765e-25,-1.8485299999999999e-25,-5.84234e-29,9.8025500000000007e-30,-3.97541e-29
2423.0,1.5450100000000001e-28,-1.8486800000000001e-25,-1.84748e-25,-1.8486299999999999e-25,-1.5570099999999999e-29,7.1295299999999999e-30,-5.5492600000000002e-29
2424.0,1.5015800000000001e-28,-1.84881e-25,-1.8476199999999999e-25,-1.8486199999999999e-25,-1.57323e-29,6.8955100000000004e-30,-5.5855399999999995e-29
2425.0,1.41562e-28,-1.8485299999999999e-25,-1.8474599999999999e-25,-1.8484400000000001e-25,-2.21337e-29,7.7679599999999999e-30,-5.0790899999999999e-29
2426.0,1.5569400000000001e-28,-1.84891e-25,-1.8476999999999999e-25,-1.84881e-25,-2.4038699999999999e-29,8.59899e-30,-5.3818800000000004e-29
2427.0,1.44187e-28,-1.84857e-25,-1.8475200000000001e-25,-1.8485299999999999e-25,-2.9474699999999997e-29,8.0227599999999995e-30,-4.9729000000000001e-29
2428.0,1.54575e-28,-1.8488e-25,-1.8476700000000001e-25,-1.84872e-25,-3.19382e-29,9.8752800000000004e-30,-5.3549899999999999e-29
2429.0,1.44923e-28,-1.8484599999999999e-25,-1.84748e-25,-1.8484400000000001e-25,-3.7424099999999999e-29,9.1003199999999994e-30,-4.8475199999999998e-29
2430.0,1.5410900000000001e-28,-1.8487899999999999e-25,-1.8477099999999999e-25,-1.84873e-25,-3.8403900000000002e-29,9.7022700000000004e-30,-5.1606199999999998e-29
2431.0,1.44306e-28,-1.8484200000000001e-25,-1.8475100000000001e-25,-1.8484400000000001e-25,-4.38794e-29,8.55805e-30,-4.6172699999999999e-29
2432.0,1.5372899999999999e-28,-1.8486700000000001e-25,-1.8476900000000001e-25,-1.84865e-25,-4.5562800000000002e-29,1.15204e-29,-5.0157600000000002e-29
2433.0,1.46243e-28,-1.84832e-25,-1.84748e-25,-1.8483599999999999e-25,-5.0590700000000002e-29,9.9881000000000001e-30,-4.49261e-29
2434.0,1.52809e-28,-1.84858e-25,-1.8476900000000001e-25,-1.8485900000000001e-25,-5.1603400000000004e-29,1.0973499999999999e-29,-4.8479199999999998e-29
2435.0,1.45559e-28,-1.84824e-25,-1.84749e-25,-1.84831e-25,-5.5219400000000005e-29,9.5599599999999998e-30,-4.3346499999999999e-29
2436.0,1.52337e-28,-1.8484400000000001e-25,-1.8476700000000001e-25,-1.84848e-25,-5.6927799999999995e-29,1.29466e-29,-4.7020999999999998e-29
2437.0,1.36092e-28,-1.84849e-25,-1.84748e-25,-1.8483e-25,-1.3245300000000001e-29,8.8087600000000006e-30,-5.5038200000000005e-29
2438.0,1.63309e-28,-1.8487700000000001e-25,-1.84757e-25,-1.8486800000000001e-25,-1.6670699999999999e-29,9.3276699999999994e-30,-6.3318499999999999e-29
2439.0,1.49333e-28,-1.8485399999999999e-25,-1.84748e-25,-1.8484499999999999e-25,-2.14038e-29,8.8029599999999996e-30,-5.8807800000000003e-29
2440.0,1.5428499999999999e-28,-1.8486999999999999e-25,-1.8476299999999999e-25,-1.84856e-25,-2.3687100000000001e-29,1.00605e-29,-6.2325199999999998e-29
2441.0,1.4568099999999999e-28,-1.8484499999999999e-25,-1.84747e-25,-1.8483699999999999e-25,-2.9320999999999999e-29,9.5162299999999996e-30,-5.6505699999999996e-29
2442.0,1.5634399999999999e-28,-1.84872e-25,-1.84766e-25,-1.8486199999999999e-25,-3.0882799999999999e-29,1.0409399999999999e-29,-6.0535099999999994e-29
2443.0,1.4594199999999999e-28,-1.8484300000000001e-25,-1.8475e-25,-1.8483799999999999e-25,-3.6267100000000002e-29,9.7281399999999996e-30,-5.4395900000000003e-29
2444.0,1.5566000000000001e-28,-1.84864e-25,-1.84766e-25,-1.84857e-25,-3.8255800000000003e-29,1.2366e-29,-5.9022000000000003e-29
2445.0,1.4713499999999999e-28,-1.8483400000000001e-25,-1.84749e-25,-1.84833e-25,-4.3291600000000002e-29,1.10898e-29,-5.2931199999999995e-29
2446.0,1.55421e-28,-1.84858e-25,-1.8476700000000001e-25,-1.8485399999999999e-25,-4.5110099999999999e-29,1.20949e-29,-5.7007099999999996e-29
2447.0,1.45675e-28,-1.8482799999999999e-25,-1.8475e-25,-1.8482899999999999e-25,-4.8953100000000002e-29,1.03221e-29,-5.0211299999999998e-29
2448.0,1.5457e-28,-1.84849e-25,-1.8476800000000001e-25,-1.84849e-25,-5.05335e-29,1.3737000000000001e-29,-5.4807699999999996e-29
2449.0,1.4718500000000001e-28,-1.8481999999999999e-25,-1.84749e-25,-1.84824e-25,-5.3758200000000002e-29,1.2203e-29,-4.8742899999999997e-29
2450.0,1.5347100000000001e-28,-1.84839e-25,-1.8476800000000001e-25,-1.8484200000000001e-25,-5.5746100000000001e-29,1.3666999999999999e-29,-5.3043699999999997e-29
2451.0,1.6937700000000001e-28,-1.8467600000000001e-25,-1.8471900000000001e-25,-1.8467600000000001e-25,-6.1020500000000005e-29,2.4135299999999999e-29,-6.8152499999999998e-29
2452.0,1.68987e-28,-1.8466899999999999e-25,-1.8471099999999999e-25,-1.8466999999999999e-25,-5.9246499999999997e-29,2.3691999999999999e-29,-6.9878500000000005e-29
2453.0,1.6415000000000001e-28,-1.84682e-25,-1.8471199999999999e-25,-1.8466899999999999e-25,-4.5655799999999998e-29,2.15539e-29,-7.7139900000000004e-29
2454.0,1.64291e-28,-1.8467099999999999e-25,-1.84697e-25,-1.84656e-25,-4.24019e-29,2.04702e-29,-7.96557e-29
2455.0,1.59832e-28,-1.8468400000000001e-25,-1.8470200000000001e-25,-1.8466099999999999e-25,-2.7668200000000001e-29,1.7672600000000001e-29,-8.3694500000000001e-29
2456.0,1.5936600000000001e-28,-1.8466800000000001e-25,-1.84681e-25,-1.8464300000000001e-25,-2.3219099999999999e-29,1.4364199999999999e-29,-8.5703099999999996e-29
2457.0,1.5627e-28,-1.8468599999999999e-25,-1.8469499999999999e-25,-1.84655e-25,-8.1145200000000003e-30,1.4532499999999999e-29,-8.6146400000000001e-29
2458.0,1.67293e-28,-1.84664e-25,-1.8470299999999999e-25,-1.8466999999999999e-25,-6.6158000000000002e-29,2.23565e-29,-6.3278999999999998e-29
2459.0,1.61922e-28,-1.84674e-25,-1.8470399999999999e-25,-1.8466800000000001e-25,-5.3578799999999998e-29,2.2187499999999999e-29,-7.0735000000000005e-29
2460.0,1.6171e-28,-1.84663e-25,-1.8468699999999999e-25,-1.84655e-25,-5.1334700000000001e-29,2.0032499999999999e-29,-7.34752e-29
2461.0,1.55506e-28,-1.8467799999999999e-25,-1.8469300000000001e-25,-1.84658e-25,-3.6276800000000002e-29,1.8137599999999999e-29,-7.8185400000000003e-29
2462.0,1.5460899999999999e-28,-1.8466099999999999e-25,-1.8467099999999999e-25,-1.84641e-25,-3.19541e-29,1.4846499999999999e-29,-8.0594699999999999e-29
2463.0,1.51584e-28,-1.8467899999999999e-25,-1.8468400000000001e-25,-1.84649e-25,-1.60144e-29,1.2852199999999999e-29,-8.2870299999999998e-29
2464.0,1.4770800000000001e-28,-1.8465299999999999e-25,-1.8465100000000001e-25,-1.8462799999999999e-25,-1.1436000000000001e-29,7.5541900000000006e-30,-8.3019400000000002e-29
2465.0,1.66114e-28,-1.8470399999999999e-25,-1.8472600000000001e-25,-1.8471000000000001e-25,-6.4531300000000002e-29,2.2286200000000001e-29,-6.6380099999999995e-29
2466.0,1.6310199999999999e-28,-1.8470900000000001e-25,-1.84724e-25,-1.84706e-25,-5.63169e-29,2.15924e-29,-7.1684200000000005e-29
2467.0,1.62804e-28,-1.84707e-25,-1.84715e-25,-1.84699e-25,-4.9523599999999998e-29,2.12366e-29,-7.66182e-29
2468.0,1.5910299999999999e-28,-1.84716e-25,-1.8471700000000001e-25,-1.8470100000000001e-25,-4.0199800000000001e-29,1.8528400000000001e-29,-8.0002899999999996e-29
2469.0,1.58507e-28,-1.8470900000000001e-25,-1.8470299999999999e-25,-1.84691e-25,-3.1981399999999999e-29,1.7687100000000001e-29,-8.3409700000000001e-29
2470.0,1.5467699999999999e-28,-1.84723e-25,-1.8471199999999999e-25,-1.84699e-25,-2.1633000000000001e-29,1.4510899999999999e-29,-8.4525399999999996e-29
2471.0,1.5814400000000001e-28,-1.84699e-25,-1.84683e-25,-1.8467500000000001e-25,-1.19932e-29,1.12814e-29,-8.8927799999999998e-29
2472.0,1.5904100000000001e-28,-1.84698e-25,-1.8471299999999999e-25,-1.8470200000000001e-25,-6.2178300000000005e-29,2.03668e-29,-6.3986299999999999e-29
2473.0,1.57902e-28,-1.8469599999999999e-25,-1.84705e-25,-1.8469399999999999e-25,-5.6189099999999998e-29,2.03773e-29,-6.8592700000000001e-29
2474.0,1.5358e-28,-1.8470399999999999e-25,-1.8470399999999999e-25,-1.8469499999999999e-25,-4.7759200000000001e-29,1.8029600000000001e-29,-7.2310199999999997e-29
2475.0,1.5234500000000001e-28,-1.84697e-25,-1.84691e-25,-1.84683e-25,-3.9308299999999998e-29,1.7138400000000001e-29,-7.64814e-29
2476.0,1.47582e-28,-1.8471000000000001e-25,-1.84697e-25,-1.8469e-25,-2.9282199999999998e-29,1.4014299999999999e-29,-7.81384e-29
2477.0,1.4671300000000001e-28,-1.8469399999999999e-25,-1.8467500000000001e-25,-1.84673e-25,-1.9795999999999999e-29,1.18344e-29,-8.0683700000000001e-29
2478.0,1.4344099999999999e-28,-1.8471299999999999e-25,-1.84697e-25,-1.84683e-25,-8.3092799999999998e-30,1.1118799999999999e-29,-8.0252699999999998e-29
2479.0,1.6211100000000001e-28,-1.8473500000000001e-25,-1.8473500000000001e-25,-1.84741e-25,-6.3157600000000003e-29,2.0594200000000001e-29,-6.5849700000000001e-29
2480.0,1.6127399999999999e-28,-1.8473799999999999e-25,-1.84731e-25,-1.8473699999999999e-25,-5.6760300000000001e-29,2.02542e-29,-7.0880600000000003e-29
2481.0,1.58994e-28,-1.8474400000000001e-25,-1.8473e-25,-1.8473699999999999e-25,-4.8505700000000001e-29,1.9137599999999999e-29,-7.5214400000000002e-29
2482.0,1.58604e-28,-1.8474300000000001e-25,-1.8472099999999999e-25,-1.84731e-25,-4.0774899999999998e-29,1.8113999999999999e-29,-7.9238400000000003e-29
2483.0,1.5554199999999999e-28,-1.8475399999999999e-25,-1.8472500000000001e-25,-1.8473599999999999e-25,-3.1575500000000003e-29,1.58258e-29,-8.1328400000000003e-29
2484.0,1.57282e-28,-1.8474400000000001e-25,-1.8470900000000001e-25,-1.8472500000000001e-25,-2.2131599999999999e-29,1.3887700000000001e-29,-8.5260500000000002e-29
2485.0,1.4974599999999999e-28,-1.84755e-25,-1.84722e-25,-1.8472799999999999e-25,-1.14312e-29,1.32309e-29,-8.2851300000000001e-29
2486.0,1.5558999999999999e-28,-1.84724e-25,-1.8471800000000001e-25,-1.8472799999999999e-25,-6.1288800000000004e-29,1.87528e-29,-6.2734100000000002e-29
2487.0,1.5252199999999999e-28,-1.8472899999999999e-25,-1.84716e-25,-1.8472700000000001e-25,-5.4799500000000005e-29,1.7680300000000001e-29,-6.62393e-29
2488.0,1.5079500000000001e-28,-1.8472700000000001e-25,-1.84708e-25,-1.8472099999999999e-25,-4.71073e-29,1.72152e-29,-7.0486799999999997e-29
2489.0,1.4709899999999999e-28,-1.8473599999999999e-25,-1.8471000000000001e-25,-1.8472500000000001e-25,-3.8561899999999998e-29,1.50597e-29,-7.2966000000000002e-29
2490.0,1.46276e-28,-1.8473e-25,-1.84697e-25,-1.84715e-25,-2.9237699999999998e-29,1.4054700000000001e-29,-7.6257700000000002e-29
2491.0,1.42048e-28,-1.8474300000000001e-25,-1.84707e-25,-1.84722e-25,-1.95437e-29,1.12422e-29,-7.6726100000000003e-29
2492.0,1.4609500000000001e-28,-1.84722e-25,-1.8467899999999999e-25,-1.8470299999999999e-25,-1.0319499999999999e-29,9.0995e-30,-8.0377500000000004e-29
2493.0,1.6023300000000001e-28,-1.84764e-25,-1.8474300000000001e-25,-1.8476800000000001e-25,-6.2390499999999996e-29,1.9140100000000001e-29,-6.42165e-29
2494.0,1.5928299999999999e-28,-1.8476800000000001e-25,-1.8474200000000001e-25,-1.8476800000000001e-25,-5.50502e-29,1.8799400000000001e-29,-6.9545000000000003e-29
2495.0,1.5877e-28,-1.8477099999999999e-25,-1.8473699999999999e-25,-1.84765e-25,-4.8585799999999999e-29,1.79073e-29,-7.3400400000000004e-29
2496.0,1.5677100000000001e-28,-1.8477899999999999e-25,-1.8473799999999999e-25,-1.8476800000000001e-25,-3.9823899999999997e-29,1.6533699999999999e-29,-7.6688200000000005e-29
2497.0,1.5720899999999999e-28,-1.8477700000000001e-25,-1.8472899999999999e-25,-1.8476199999999999e-25,-3.1622899999999998e-29,1.5367299999999999e-29,-8.0013200000000002e-29
2498.0,1.5242299999999999e-28,-1.8478599999999999e-25,-1.8473500000000001e-25,-1.84766e-25,-2.2400299999999999e-29,1.3087200000000001e-29,-8.0028599999999997e-29
2499.0,1.60334e-28,-1.8476800000000001e-25,-1.8471000000000001e-25,-1.84748e-25,-1.2622800000000001e-29,1.0240599999999999e-29,-8.6313099999999999e-29
2500.0,1.5197000000000001e-28,-1.8475200000000001e-25,-1.8472700000000001e-25,-1.84756e-25,-5.9250300000000001e-29,1.68494e-29,-6.03824e-29
2501.0,1.50181e-28,-1.8475299999999999e-25,-1.84722e-25,-1.8475200000000001e-25,-5.3632899999999997e-29,1.6270999999999999e-29,-6.3748700000000005e-29
2502.0,1.47489e-28,-1.8475900000000001e-25,-1.84722e-25,-1.84755e-25,-4.58139e-29,1.5130499999999999e-29,-6.7059100000000004e-29
2503.0,1.46363e-28,-1.8475900000000001e-25,-1.84714e-25,-1.84749e-25,-3.7739699999999999e-29,1.4478600000000001e-29,-7.0408100000000001e-29
2504.0,1.4328400000000001e-28,-1.8476800000000001e-25,-1.8471900000000001e-25,-1.84755e-25,-2.8984500000000001e-29,1.2251e-29,-7.2004000000000001e-29
2505.0,1.4470099999999999e-28,-1.8476000000000001e-25,-1.8470399999999999e-25,-1.8474400000000001e-25,-1.98454e-29,1.13302e-29,-7.50301e-29
2506.0,1.3856800000000001e-28,-1.8477600000000001e-25,-1.84722e-25,-1.8475200000000001e-25,-1.0145299999999999e-29,1.0299999999999999e-29,-7.3915099999999995e-29
2507.0,1.58472e-28,-1.84789e-25,-1.8475100000000001e-25,-1.8479300000000001e-25,-5.9740599999999998e-29,1.7700299999999999e-29,-6.2749800000000005e-29
2508.0,1.5838099999999999e-28,-1.8479400000000001e-25,-1.84749e-25,-1.8479300000000001e-25,-5.4614799999999999e-29,1.71933e-29,-6.6569299999999995e-29
2509.0,1.57609e-28,-1.848e-25,-1.84749e-25,-1.8479499999999999e-25,-4.6677599999999999e-29,1.6717300000000001e-29,-7.0811399999999995e-29
2510.0,1.5728699999999999e-28,-1.8480299999999999e-25,-1.8474400000000001e-25,-1.8479300000000001e-25,-3.9771800000000001e-29,1.5489100000000001e-29,-7.3682199999999996e-29
2511.0,1.5519899999999999e-28,-1.8481000000000001e-25,-1.8474599999999999e-25,-1.84797e-25,-3.10938e-29,1.3993499999999999e-29,-7.5620900000000005e-29
2512.0,1.5814300000000001e-28,-1.84805e-25,-1.8473400000000001e-25,-1.8479e-25,-2.2338999999999999e-29,1.2686600000000001e-29,-7.9131200000000002e-29
2513.0,1.47241e-28,-1.8481299999999999e-25,-1.8474599999999999e-25,-1.84789e-25,-1.33107e-29,1.2108500000000001e-29,-7.5776400000000004e-29
2514.0,1.5063400000000001e-28,-1.8477600000000001e-25,-1.8473400000000001e-25,-1.8477899999999999e-25,-5.8077e-29,1.5093199999999999e-29,-5.76542e-29
2515.0,1.4840499999999999e-28,-1.8477899999999999e-25,-1.84732e-25,-1.8478e-25,-5.1497700000000001e-29,1.47765e-29,-6.0983999999999999e-29
2516.0,1.47011e-28,-1.84782e-25,-1.8472799999999999e-25,-1.8477799999999999e-25,-4.50583e-29,1.39614e-29,-6.3867800000000005e-29
2517.0,1.4514199999999999e-28,-1.8479e-25,-1.8473e-25,-1.84782e-25,-3.6839899999999998e-29,1.2888099999999999e-29,-6.65282e-29
2518.0,1.4491299999999999e-28,-1.8478799999999999e-25,-1.84722e-25,-1.8477700000000001e-25,-2.8733499999999998e-29,1.2064799999999999e-29,-6.9063300000000001e-29
2519.0,1.4185899999999999e-28,-1.84799e-25,-1.8472899999999999e-25,-1.8478400000000001e-25,-2.0196200000000001e-29,1.03062e-29,-6.9647199999999999e-29
2520.0,1.4842499999999999e-28,-1.8478500000000001e-25,-1.84708e-25,-1.8477099999999999e-25,-1.1935299999999999e-29,9.5796800000000002e-30,-7.3820100000000002e-29
2521.0,1.5853300000000001e-28,-1.8481099999999999e-25,-1.84757e-25,-1.8481299999999999e-25,-5.9146900000000004e-29,1.64047e-29,-6.0069499999999999e-29
2522.0,1.5786700000000001e-28,-1.84816e-25,-1.84757e-25,-1.8481700000000001e-25,-5.2304299999999999e-29,1.62406e-29,-6.4255599999999997e-29
2523.0,1.57299e-28,-1.84822e-25,-1.84756e-25,-1.8481800000000001e-25,-4.6584400000000002e-29,1.5115399999999999e-29,-6.6822400000000002e-29
2524.0,1.5686599999999999e-28,-1.8482899999999999e-25,-1.84756e-25,-1.8482099999999999e-25,-3.8456900000000002e-29,1.4483799999999999e-29,-6.9860600000000002e-29
2525.0,1.5755500000000001e-28,-1.84831e-25,-1.8475e-25,-1.8481900000000001e-25,-3.1317499999999998e-29,1.3295400000000001e-29,-7.2109599999999997e-29
2526.0,1.53265e-28,-1.8483599999999999e-25,-1.8475399999999999e-25,-1.8481999999999999e-25,-2.28163e-29,1.16126e-29,-7.2687199999999995e-29
2527.0,1.6408400000000001e-28,-1.8482700000000001e-25,-1.84733e-25,-1.8481299999999999e-25,-1.3810599999999999e-29,9.5633599999999997e-30,-7.8238599999999999e-29
2528.0,1.4865700000000001e-28,-1.8479599999999999e-25,-1.8474200000000001e-25,-1.848e-25,-5.5085199999999996e-29,1.4078000000000001e-29,-5.5322899999999997e-29
2529.0,1.47782e-28,-1.848e-25,-1.8474e-25,-1.848e-25,-5.07249e-29,1.3384399999999999e-29,-5.7508499999999996e-29
2530.0,1.4648300000000001e-28,-1.84807e-25,-1.8474e-25,-1.8480399999999999e-25,-4.3357100000000002e-29,1.2924899999999999e-29,-6.0528100000000004e-29
2531.0,1.46084e-28,-1.8481000000000001e-25,-1.8473599999999999e-25,-1.8480299999999999e-25,-3.6654199999999998e-29,1.1946699999999999e-29,-6.2794700000000004e-29
2532.0,1.4486700000000001e-28,-1.8481800000000001e-25,-1.84739e-25,-1.8480900000000001e-25,-2.8760600000000002e-29,1.1012500000000001e-29,-6.4693499999999995e-29
2533.0,1.4703699999999999e-28,-1.84814e-25,-1.8472899999999999e-25,-1.8480200000000001e-25,-2.0487e-29,1.01751e-29,-6.7514999999999999e-29
2534.0,1.41443e-28,-1.8482700000000001e-25,-1.8474200000000001e-25,-1.84807e-25,-1.20312e-29,8.8158200000000005e-30,-6.7021399999999997e-29
2535.0,1.56272e-28,-1.8482700000000001e-25,-1.8476299999999999e-25,-1.8483e-25,-5.5892800000000004e-29,1.58363e-29,-5.78058e-29
2536.0,1.5616299999999999e-28,-1.8483500000000001e-25,-1.84764e-25,-1.8483400000000001e-25,-5.1750599999999995e-29,1.46013e-29,-5.9885199999999997e-29
2537.0,1.56858e-28,-1.8484200000000001e-25,-1.8476199999999999e-25,-1.8483799999999999e-25,-4.4814100000000002e-29,1.4512500000000001e-29,-6.2881800000000003e-29
2538.0,1.5691900000000001e-28,-1.84848e-25,-1.8476099999999999e-25,-1.84841e-25,-3.8846899999999999e-29,1.28868e-29,-6.4785500000000003e-29
2539.0,1.5609799999999999e-28,-1.8485299999999999e-25,-1.8476099999999999e-25,-1.8484200000000001e-25,-3.0763699999999999e-29,1.23277e-29,-6.6957899999999995e-29
2540.0,1.5885499999999999e-28,-1.84855e-25,-1.8475399999999999e-25,-1.8484300000000001e-25,-2.3068899999999999e-29,1.08944e-29,-6.8597300000000002e-29
2541.0,1.47912e-28,-1.84856e-25,-1.8476199999999999e-25,-1.84831e-25,-1.54084e-29,9.9570599999999994e-30,-6.7635099999999998e-29
2542.0,1.4777400000000001e-28,-1.8481299999999999e-25,-1.84748e-25,-1.84815e-25,-5.45488e-29,1.23835e-29,-5.1950399999999998e-29
2543.0,1.4714999999999999e-28,-1.8481700000000001e-25,-1.84747e-25,-1.8481800000000001e-25,-4.8576599999999998e-29,1.2638499999999999e-29,-5.4835200000000003e-29
2544.0,1.46884e-28,-1.84824e-25,-1.8474599999999999e-25,-1.8482099999999999e-25,-4.3467899999999999e-29,1.14136e-29,-5.6652100000000002e-29
2545.0,1.4689500000000001e-28,-1.8483e-25,-1.8474599999999999e-25,-1.84825e-25,-3.6018799999999997e-29,1.1385599999999999e-29,-5.9549499999999996e-29
2546.0,1.4685800000000001e-28,-1.84833e-25,-1.8474300000000001e-25,-1.84825e-25,-2.8743099999999998e-29,1.03107e-29,-6.1196499999999999e-29
2547.0,1.45039e-28,-1.8484e-25,-1.8474599999999999e-25,-1.8482600000000001e-25,-2.1418499999999999e-29,9.26043e-30,-6.2516000000000003e-29
2548.0,1.53641e-28,-1.8483599999999999e-25,-1.8473400000000001e-25,-1.84825e-25,-1.4586399999999999e-29,9.1426400000000007e-30,-6.6738599999999996e-29
2549.0,4.3744499999999998e-28,-1.8420000000000001e-25,-1.84655e-25,-1.84263e-25,-4.8449300000000001e-29,7.2499300000000002e-30,-2.0175700000000001e-29
2550.0,3.6866600000000001e-28,-1.8431199999999999e-25,-1.8469499999999999e-25,-1.8438599999999999e-25,-6.0944499999999997e-29,6.60635e-30,-1.36626e-29
2551.0,2.8378599999999998e-28,-1.8439300000000001e-25,-1.8467899999999999e-25,-1.84456e-25,-6.3147900000000003e-29,6.7598499999999994e-30,-1.14915e-29
2552.0,2.52492e-28,-1.8446899999999999e-25,-1.8470399999999999e-25,-1.8453400000000001e-25,-7.9690899999999998e-29,7.5098099999999996e-30,-8.4440699999999995e-30
2553.0,2.07771e-28,-1.8451000000000001e-25,-1.8468400000000001e-25,-1.84566e-25,-8.0029900000000004e-29,6.0655799999999999e-30,-7.5509100000000003e-30
2554.0,1.9730699999999999e-28,-1.8457700000000001e-25,-1.84715e-25,-1.84632e-25,-8.9783200000000005e-29,7.6056300000000002e-30,-6.8360299999999994e-30
2555.0,1.77089e-28,-1.8460299999999999e-25,-1.84698e-25,-1.8465000000000001e-25,-9.0156899999999998e-29,4.2842500000000003e-30,-3.9472899999999997e-30
2556.0,4.4563000000000002e-28,-1.8420100000000001e-25,-1.84666e-25,-1.8426999999999999e-25,-5.4310199999999996e-29,1.56212e-29,-1.68608e-29
2557.0,3.5306700000000002e-28,-1.84315e-25,-1.8467899999999999e-25,-1.84381e-25,-5.8152400000000002e-29,1.5355299999999999e-29,-1.5539600000000001e-29
2558.0,2.9483699999999998e-28,-1.8440299999999999e-25,-1.8469599999999999e-25,-1.8446800000000001e-25,-6.9243599999999997e-29,1.39118e-29,-1.4937300000000001e-29
2559.0,2.4278099999999999e-28,-1.8446199999999999e-25,-1.8468699999999999e-25,-1.8452099999999999e-25,-7.4328599999999999e-29,1.3424800000000001e-29,-1.53474e-29
2560.0,2.17026e-28,-1.8452700000000001e-25,-1.84706e-25,-1.8458400000000001e-25,-8.3557200000000001e-29,1.23566e-29,-1.5480000000000001e-29
2561.0,1.91372e-28,-1.84564e-25,-1.84697e-25,-1.84615e-25,-8.5644899999999995e-29,1.1483599999999999e-29,-1.5577799999999999e-29
2562.0,1.8112699999999999e-28,-1.84624e-25,-1.84723e-25,-1.84672e-25,-8.9381100000000001e-29,1.14905e-29,-1.7992299999999999e-29
2563.0,4.2453199999999998e-28,-1.8422799999999999e-25,-1.84665e-25,-1.8428599999999999e-25,-5.5821599999999999e-29,2.3857799999999999e-29,-1.45475e-29
2564.0,3.4831899999999999e-28,-1.8433400000000001e-25,-1.84688e-25,-1.8439399999999999e-25,-6.0517000000000001e-29,2.18104e-29,-1.73061e-29
2565.0,2.8544799999999999e-28,-1.8440800000000001e-25,-1.84688e-25,-1.84465e-25,-6.71402e-29,2.0694299999999999e-29,-1.9733899999999999e-29
2566.0,2.44997e-28,-1.8447700000000001e-25,-1.84699e-25,-1.84532e-25,-7.5702000000000001e-29,1.8770000000000001e-29,-2.2192599999999999e-29
2567.0,2.12403e-28,-1.84523e-25,-1.8469599999999999e-25,-1.84574e-25,-7.9432500000000001e-29,1.7966000000000001e-29,-2.3513699999999999e-29
2568.0,1.94491e-28,-1.84581e-25,-1.8471299999999999e-25,-1.8462799999999999e-25,-8.5185500000000005e-29,1.5921399999999999e-29,-2.49112e-29
2569.0,1.7903e-28,-1.84613e-25,-1.8471000000000001e-25,-1.84656e-25,-8.6886000000000001e-29,1.4946700000000001e-29,-2.3173100000000001e-29
2570.0,4.01366e-28,-1.84266e-25,-1.84672e-25,-1.84313e-25,-5.6279399999999995e-29,3.0568699999999997e-29,-1.4643899999999999e-29
2571.0,3.3123599999999998e-28,-1.84355e-25,-1.8468500000000001e-25,-1.8440299999999999e-25,-6.0516799999999999e-29,2.7839399999999998e-29,-1.93374e-29
2572.0,2.7919200000000001e-28,-1.8442799999999999e-25,-1.8469399999999999e-25,-1.8447600000000001e-25,-6.7151300000000003e-29,2.6010100000000001e-29,-2.5230900000000001e-29
2573.0,2.38757e-28,-1.84482e-25,-1.8469300000000001e-25,-1.8452799999999999e-25,-7.2423999999999995e-29,2.4048399999999999e-29,-2.8307899999999999e-29
2574.0,2.1171300000000001e-28,-1.84538e-25,-1.8470399999999999e-25,-1.84581e-25,-7.80341e-29,2.1539899999999999e-29,-3.1379500000000003e-29
2575.0,1.92057e-28,-1.8457799999999999e-25,-1.8470399999999999e-25,-1.8461800000000001e-25,-8.1128199999999996e-29,2.0557200000000001e-29,-3.3155500000000002e-29
2576.0,1.8146799999999999e-28,-1.8462799999999999e-25,-1.84724e-25,-1.8466700000000001e-25,-8.3278299999999998e-29,1.88326e-29,-3.6922400000000002e-29
2577.0,3.7200700000000002e-28,-1.8430900000000001e-25,-1.8467700000000001e-25,-1.8434200000000001e-25,-5.6711300000000001e-29,3.3913300000000002e-29,-1.5219699999999999e-29
2578.0,3.1429299999999999e-28,-1.8438300000000001e-25,-1.84688e-25,-1.8441899999999999e-25,-5.9667200000000005e-29,3.2128299999999998e-29,-2.3671e-29
2579.0,2.6824399999999998e-28,-1.8444200000000001e-25,-1.84691e-25,-1.8447899999999999e-25,-6.49835e-29,2.9557299999999997e-29,-2.9553e-29
2580.0,2.3304899999999999e-28,-1.84498e-25,-1.8469599999999999e-25,-1.84533e-25,-7.0008399999999999e-29,2.7078000000000002e-29,-3.51313e-29
2581.0,2.07929e-28,-1.8454200000000001e-25,-1.84698e-25,-1.8457600000000001e-25,-7.4129299999999995e-29,2.5290299999999999e-29,-3.8600900000000001e-29
2582.0,1.92531e-28,-1.8459e-25,-1.8471099999999999e-25,-1.84623e-25,-7.8105199999999999e-29,2.31363e-29,-4.1898699999999999e-29
2583.0,1.78361e-28,-1.84623e-25,-1.8471299999999999e-25,-1.8465299999999999e-25,-7.9640499999999996e-29,2.2491400000000001e-29,-4.0470199999999999e-29
2584.0,3.4193e-28,-1.84347e-25,-1.8467799999999999e-25,-1.8436800000000001e-25,-5.4886999999999997e-29,3.5729300000000003e-29,-1.78551e-29
2585.0,2.9752700000000001e-28,-1.84406e-25,-1.84688e-25,-1.84431e-25,-5.8560900000000001e-29,3.3368600000000002e-29,-2.6807300000000001e-29
2586.0,2.5792399999999998e-28,-1.8446000000000001e-25,-1.84691e-25,-1.8448400000000001e-25,-6.1924299999999995e-29,3.1710900000000001e-29,-3.50704e-29
2587.0,2.2653799999999999e-28,-1.84507e-25,-1.8469300000000001e-25,-1.84531e-25,-6.6544299999999996e-29,2.9298000000000002e-29,-4.0296899999999998e-29
2588.0,2.05632e-28,-1.8455299999999999e-25,-1.8470000000000001e-25,-1.8457700000000001e-25,-7.0618499999999997e-29,2.7291799999999997e-29,-4.5721399999999999e-29
2589.0,1.89608e-28,-1.84591e-25,-1.84706e-25,-1.84614e-25,-7.2726100000000002e-29,2.5837899999999999e-29,-4.8464800000000002e-29
2590.0,1.8082300000000001e-28,-1.8463400000000001e-25,-1.8472099999999999e-25,-1.84658e-25,-7.3613700000000001e-29,2.3718e-29,-5.3919000000000004e-29
2591.0,3.1789000000000001e-28,-1.8437899999999999e-25,-1.84681e-25,-1.84391e-25,-5.4222900000000006e-29,3.3571400000000002e-29,-2.07588e-29
2592.0,2.8475099999999998e-28,-1.8442700000000001e-25,-1.8468699999999999e-25,-1.84438e-25,-5.6451900000000005e-29,3.3954900000000002e-29,-3.18613e-29
2593.0,2.50581e-28,-1.84472e-25,-1.84689e-25,-1.8448500000000001e-25,-5.9419899999999999e-29,3.2363699999999999e-29,-3.8609600000000002e-29
2594.0,2.2220899999999999e-28,-1.8451700000000001e-25,-1.8469200000000001e-25,-1.8453e-25,-6.2200499999999999e-29,3.0372699999999997e-29,-4.61272e-29
2595.0,2.0187799999999999e-28,-1.84557e-25,-1.84697e-25,-1.84572e-25,-6.54616e-29,2.8356600000000001e-29,-5.0932799999999999e-29
2596.0,1.89024e-28,-1.84599e-25,-1.84706e-25,-1.8461199999999999e-25,-6.8161800000000005e-29,2.6746900000000001e-29,-5.5796599999999999e-29
2597.0,1.7760400000000001e-28,-1.8463400000000001e-25,-1.8471199999999999e-25,-1.8464499999999999e-25,-7.0815300000000005e-29,2.60032e-29,-5.5117100000000002e-29
2598.0,3.8304799999999999e-28,-1.8420800000000001e-25,-1.84581e-25,-1.8427799999999999e-25,-9.6577099999999996e-29,-5.7717600000000004e-32,-1.60588e-29
2599.0,3.1697400000000001e-28,-1.84297e-25,-1.8459599999999999e-25,-1.8436199999999999e-25,-9.2816100000000004e-29,2.41196e-30,-1.21765e-29
2600.0,2.7899000000000002e-28,-1.8439e-25,-1.84638e-25,-1.84457e-25,-9.7265100000000004e-29,2.0690199999999999e-30,-1.02639e-29
2601.0,2.29204e-28,-1.8444599999999999e-25,-1.8462899999999999e-25,-1.8450200000000001e-25,-9.3128100000000001e-29,2.5561600000000001e-30,-8.1681200000000007e-30
2602.0,2.1314999999999999e-28,-1.8451899999999999e-25,-1.8466999999999999e-25,-1.8457600000000001e-25,-9.6304000000000005e-29,3.2710599999999999e-30,-7.9589599999999997e-30
2603.0,1.8136200000000001e-28,-1.8455399999999999e-25,-1.8465200000000001e-25,-1.84598e-25,-9.22277e-29,1.93025e-30,-6.3568700000000006e-30
2604.0,1.74997e-28,-1.8461700000000001e-25,-1.84697e-25,-1.84664e-25,-9.2020099999999998e-29,4.3839400000000002e-30,-9.6293999999999999e-30
2605.0,3.5987899999999999e-28,-1.84222e-25,-1.84563e-25,-1.8428300000000001e-25,-9.7121599999999999e-29,1.25361e-29,-2.2562699999999999e-29
2606.0,3.1457799999999998e-28,-1.84316e-25,-1.8460299999999999e-25,-1.8437899999999999e-25,-9.8333200000000001e-29,1.14112e-29,-2.0666699999999999e-29
2607.0,2.6768199999999999e-28,-1.8438699999999999e-25,-1.84616e-25,-1.84447e-25,-9.6098100000000003e-29,1.15036e-29,-1.9944400000000001e-29
2608.0,2.3564900000000001e-28,-1.84464e-25,-1.84648e-25,-1.8452099999999999e-25,-9.5940200000000003e-29,1.02659e-29,-1.8838700000000001e-29
2609.0,2.0414899999999999e-28,-1.8450900000000001e-25,-1.84647e-25,-1.8455900000000001e-25,-9.2895900000000004e-29,9.9549300000000006e-30,-1.81486e-29
2610.0,1.8898500000000001e-28,-1.84573e-25,-1.8467899999999999e-25,-1.8461999999999999e-25,-9.2875699999999996e-29,9.0686900000000005e-30,-1.8248499999999999e-29
2611.0,1.7074099999999999e-28,-1.8460299999999999e-25,-1.84673e-25,-1.8464300000000001e-25,-9.0771599999999997e-29,7.5468700000000004e-30,-1.46577e-29
2612.0,3.4657900000000001e-28,-1.8425100000000001e-25,-1.8456999999999999e-25,-1.8430299999999999e-25,-9.6477599999999998e-29,2.18317e-29,-3.13103e-29
2613.0,3.02944e-28,-1.8432899999999999e-25,-1.8459599999999999e-25,-1.84382e-25,-9.6052899999999996e-29,2.0728499999999999e-29,-3.0718500000000002e-29
2614.0,2.64248e-28,-1.8440900000000001e-25,-1.8462700000000001e-25,-1.8446099999999999e-25,-9.4806099999999995e-29,1.8992500000000001e-29,-2.9954900000000002e-29
2615.0,2.29794e-28,-1.84465e-25,-1.84638e-25,-1.84513e-25,-9.17377e-29,1.7941800000000001e-29,-2.9282299999999999e-29
2616.0,2.0613100000000001e-28,-1.8452799999999999e-25,-1.84664e-25,-1.84573e-25,-9.1294900000000005e-29,1.5715900000000001e-29,-2.8679899999999998e-29
2617.0,1.8526300000000001e-28,-1.84566e-25,-1.84666e-25,-1.84606e-25,-8.8695699999999996e-29,1.4958199999999999e-29,-2.8097499999999997e-29
2618.0,1.74854e-28,-1.8462099999999999e-25,-1.8469499999999999e-25,-1.8466000000000001e-25,-8.7700800000000001e-29,1.3577500000000001e-29,-3.07359e-29
2619.0,3.3077300000000001e-28,-1.8428599999999999e-25,-1.8458e-25,-1.84323e-25,-9.2373200000000002e-29,2.8807400000000002e-29,-3.9415399999999998e-29
2620.0,2.9369499999999998e-28,-1.8435900000000001e-25,-1.8460900000000001e-25,-1.84399e-25,-9.1248900000000001e-29,2.7698699999999998e-29,-3.9667700000000002e-29
2621.0,2.5679499999999998e-28,-1.8442099999999999e-25,-1.8462600000000001e-25,-1.8446099999999999e-25,-8.9322100000000003e-29,2.5520800000000002e-29,-3.9119500000000002e-29
2622.0,2.27148e-28,-1.8448500000000001e-25,-1.8465000000000001e-25,-1.84523e-25,-8.7703999999999999e-29,2.31508e-29,-3.8866699999999998e-29
2623.0,2.0324099999999998e-28,-1.8452899999999999e-25,-1.8465900000000001e-25,-1.84565e-25,-8.5608199999999998e-29,2.1602500000000001e-29,-3.8428400000000002e-29
2624.0,1.8627600000000001e-28,-1.84582e-25,-1.84681e-25,-1.84616e-25,-8.5013500000000005e-29,1.8996800000000001e-29,-3.81957e-29
2625.0,1.7157599999999999e-28,-1.84614e-25,-1.8468400000000001e-25,-1.8464399999999999e-25,-8.4106899999999999e-29,1.7497700000000001e-29,-3.4728100000000002e-29
2626.0,3.15989e-28,-1.8432600000000001e-25,-1.84597e-25,-1.8434499999999999e-25,-8.4602799999999995e-29,3.3750400000000003e-29,-4.5096899999999998e-29
2627.0,2.8242299999999999e-28,-1.8438400000000001e-25,-1.8461700000000001e-25,-1.8440900000000001e-25,-8.4330799999999999e-29,3.1756899999999999e-29,-4.5916299999999999e-29
2628.0,2.5038899999999999e-28,-1.8444499999999999e-25,-1.84638e-25,-1.8447099999999999e-25,-8.2729000000000004e-29,2.9656099999999999e-29,-4.71312e-29
2629.0,2.23132e-28,-1.8449300000000001e-25,-1.8465100000000001e-25,-1.8451999999999999e-25,-8.1126600000000002e-29,2.7459200000000002e-29,-4.6645900000000001e-29
2630.0,2.0093800000000001e-28,-1.8454499999999999e-25,-1.8466899999999999e-25,-1.8457099999999999e-25,-8.01794e-29,2.4561700000000001e-29,-4.64697e-29
2631.0,1.84667e-28,-1.84581e-25,-1.8467700000000001e-25,-1.84606e-25,-7.89765e-29,2.30391e-29,-4.6431299999999998e-29
2632.0,1.75829e-28,-1.8462899999999999e-25,-1.8470000000000001e-25,-1.8465399999999999e-25,-7.8335800000000003e-29,2.08597e-29,-4.9411299999999998e-29
2633.0,3.01146e-28,-1.8436199999999999e-25,-1.84616e-25,-1.8436899999999999e-25,-7.65874e-29,3.5114099999999999e-29,-4.6856100000000001e-29
2634.0,2.7309099999999998e-28,-1.8441000000000001e-25,-1.8463e-25,-1.84422e-25,-7.6297599999999997e-29,3.3690099999999998e-29,-5.0661599999999999e-29
2635.0,2.4497400000000001e-28,-1.8446000000000001e-25,-1.8464499999999999e-25,-1.84474e-25,-7.5772199999999996e-29,3.16174e-29,-5.1827800000000003e-29
2636.0,2.19423e-28,-1.8450900000000001e-25,-1.8466000000000001e-25,-1.84524e-25,-7.4329200000000005e-29,2.9192099999999998e-29,-5.2801399999999996e-29
2637.0,1.99229e-28,-1.84549e-25,-1.8466999999999999e-25,-1.84566e-25,-7.3477100000000002e-29,2.7183300000000001e-29,-5.3109100000000001e-29
2638.0,1.8429299999999999e-28,-1.8459399999999999e-25,-1.8468599999999999e-25,-1.8461000000000001e-25,-7.3761499999999997e-29,2.4393300000000001e-29,-5.38126e-29
2639.0,1.72122e-28,-1.8462500000000001e-25,-1.8469200000000001e-25,-1.8464e-25,-7.4356999999999998e-29,2.31556e-29,-5.0922699999999995e-29
2640.0,2.8955900000000001e-28,-1.8438599999999999e-25,-1.8462600000000001e-25,-1.84382e-25,-6.9123900000000003e-29,3.4952500000000001e-29,-4.94304e-29
2641.0,2.6580899999999998e-28,-1.8442799999999999e-25,-1.84639e-25,-1.8442899999999999e-25,-7.0222000000000004e-29,3.3063700000000002e-29,-5.2072600000000001e-29
2642.0,2.4090999999999998e-28,-1.84474e-25,-1.8465299999999999e-25,-1.8447700000000001e-25,-6.9116600000000004e-29,3.19154e-29,-5.5526399999999998e-29
2643.0,2.1684600000000002e-28,-1.8451700000000001e-25,-1.84664e-25,-1.84523e-25,-6.8404299999999998e-29,2.9967199999999999e-29,-5.6197500000000003e-29
2644.0,1.9733000000000001e-28,-1.8455900000000001e-25,-1.8467600000000001e-25,-1.8456700000000001e-25,-6.8221000000000005e-29,2.74733e-29,-5.7754499999999994e-29
2645.0,1.8416900000000001e-28,-1.8459499999999999e-25,-1.8468599999999999e-25,-1.8460299999999999e-25,-6.8222099999999999e-29,2.6055499999999999e-29,-5.8880899999999999e-29
2646.0,1.76388e-28,-1.8463400000000001e-25,-1.8470299999999999e-25,-1.8464599999999999e-25,-6.6755900000000003e-29,2.41676e-29,-6.3054700000000005e-29
2647.0,1.76812e-28,-1.8463500000000001e-25,-1.8470900000000001e-25,-1.8464200000000001e-25,-6.05277e-29,2.5400199999999998e-29,-6.6462600000000005e-29
2648.0,1.74917e-28,-1.8464200000000001e-25,-1.84706e-25,-1.8463599999999999e-25,-5.8706400000000003e-29,2.5214499999999999e-29,-6.80234e-29
2649.0,1.7033900000000001e-28,-1.8463599999999999e-25,-1.8469499999999999e-25,-1.84624e-25,-4.5232800000000001e-29,2.3447800000000001e-29,-7.5114200000000003e-29
2650.0,1.69952e-28,-1.8464399999999999e-25,-1.8469399999999999e-25,-1.84623e-25,-4.2022700000000003e-29,2.17152e-29,-7.7731199999999997e-29
2651.0,1.6428100000000001e-28,-1.84633e-25,-1.8467899999999999e-25,-1.84608e-25,-2.7336999999999999e-29,1.82833e-29,-8.1248499999999996e-29
2652.0,1.6524600000000001e-28,-1.8464200000000001e-25,-1.84683e-25,-1.8461000000000001e-25,-2.2909300000000001e-29,1.67349e-29,-8.3450700000000001e-29
2653.0,1.58163e-28,-1.84624e-25,-1.8466000000000001e-25,-1.84591e-25,-8.3665899999999994e-30,9.8119000000000002e-30,-8.3508900000000002e-29
2654.0,1.86016e-28,-1.8460100000000001e-25,-1.8470100000000001e-25,-1.84605e-25,-6.2394200000000004e-29,2.69388e-29,-6.0895499999999997e-29
2655.0,1.82215e-28,-1.8460000000000001e-25,-1.8469300000000001e-25,-1.8459499999999999e-25,-5.4614900000000005e-29,2.6621700000000003e-29,-6.5941999999999995e-29
2656.0,1.80582e-28,-1.8460299999999999e-25,-1.84689e-25,-1.84589e-25,-4.8243299999999998e-29,2.4660699999999999e-29,-7.0519799999999996e-29
2657.0,1.7641500000000001e-28,-1.8459599999999999e-25,-1.8467700000000001e-25,-1.8457500000000001e-25,-3.9078500000000002e-29,2.30602e-29,-7.3677299999999999e-29
2658.0,1.75062e-28,-1.8460100000000001e-25,-1.8467799999999999e-25,-1.84572e-25,-3.12664e-29,1.9388299999999999e-29,-7.6752300000000002e-29
2659.0,1.6885500000000001e-28,-1.8458699999999999e-25,-1.84658e-25,-1.84555e-25,-2.11306e-29,1.6267200000000001e-29,-7.7441599999999995e-29
2660.0,1.72583e-28,-1.84606e-25,-1.8467099999999999e-25,-1.84566e-25,-1.15566e-29,1.31648e-29,-8.2649900000000005e-29
2661.0,1.98803e-28,-1.8456099999999999e-25,-1.8469300000000001e-25,-1.84564e-25,-5.9733599999999996e-29,2.8705300000000001e-29,-5.6205000000000003e-29
2662.0,1.9637499999999999e-28,-1.84563e-25,-1.8468699999999999e-25,-1.84556e-25,-5.43198e-29,2.8077699999999999e-29,-6.0702500000000004e-29
2663.0,1.92892e-28,-1.8455900000000001e-25,-1.8467700000000001e-25,-1.8454300000000001e-25,-4.68458e-29,2.65981e-29,-6.4473199999999997e-29
2664.0,1.90673e-28,-1.8456099999999999e-25,-1.84673e-25,-1.8453500000000001e-25,-3.9648399999999997e-29,2.3749299999999999e-29,-6.7825999999999998e-29
2665.0,1.85822e-28,-1.8455100000000001e-25,-1.84658e-25,-1.8451899999999999e-25,-3.1251100000000001e-29,2.0553299999999999e-29,-6.9248199999999998e-29
2666.0,1.8538899999999999e-28,-1.84558e-25,-1.8466000000000001e-25,-1.8451800000000001e-25,-2.2261799999999999e-29,1.6656499999999999e-29,-7.2859899999999996e-29
2667.0,1.70456e-28,-1.84547e-25,-1.8463599999999999e-25,-1.84508e-25,-1.2691400000000001e-29,1.04756e-29,-7.1376200000000002e-29
2668.0,2.18818e-28,-1.8452099999999999e-25,-1.84688e-25,-1.84523e-25,-5.8316999999999996e-29,3.0372600000000002e-29,-4.9874599999999998e-29
2669.0,2.1517100000000001e-28,-1.8451999999999999e-25,-1.8467899999999999e-25,-1.8451000000000001e-25,-5.2321400000000005e-29,2.97468e-29,-5.3786899999999999e-29
2670.0,2.1257400000000001e-28,-1.8451899999999999e-25,-1.84672e-25,-1.8450000000000001e-25,-4.6774999999999999e-29,2.7804799999999999e-29,-5.6724100000000004e-29
2671.0,2.0898000000000002e-28,-1.84514e-25,-1.8466099999999999e-25,-1.8448500000000001e-25,-3.9504999999999999e-29,2.49761e-29,-5.8985699999999999e-29
2672.0,2.06329e-28,-1.84515e-25,-1.84657e-25,-1.8447799999999999e-25,-3.24784e-29,2.0889e-29,-6.1416900000000003e-29
2673.0,1.96519e-28,-1.84507e-25,-1.8464e-25,-1.84466e-25,-2.4428199999999999e-29,1.6824500000000001e-29,-6.1260200000000003e-29
2674.0,1.98218e-28,-1.84523e-25,-1.84649e-25,-1.8447600000000001e-25,-1.5118200000000001e-29,1.30785e-29,-6.8264200000000004e-29
2675.0,2.4577799999999998e-28,-1.8447700000000001e-25,-1.8468400000000001e-25,-1.8447700000000001e-25,-5.5425499999999998e-29,3.2447499999999999e-29,-4.2371900000000002e-29
2676.0,2.42839e-28,-1.8447600000000001e-25,-1.8467500000000001e-25,-1.84465e-25,-5.2004799999999996e-29,3.1682000000000002e-29,-4.4025699999999999e-29
2677.0,2.3965499999999998e-28,-1.84472e-25,-1.84665e-25,-1.8445000000000001e-25,-4.6172599999999998e-29,2.923e-29,-4.6330800000000001e-29
2678.0,2.3677899999999998e-28,-1.8447099999999999e-25,-1.8465900000000001e-25,-1.84439e-25,-4.1173000000000001e-29,2.6023400000000003e-29,-4.7701200000000002e-29
2679.0,2.30693e-28,-1.84465e-25,-1.8464499999999999e-25,-1.8442600000000001e-25,-3.4926499999999997e-29,2.2075400000000001e-29,-4.8329299999999998e-29
2680.0,2.2680399999999998e-28,-1.8447099999999999e-25,-1.8464399999999999e-25,-1.84424e-25,-2.7814e-29,1.7179199999999999e-29,-5.1279699999999998e-29
2681.0,2.0313800000000001e-28,-1.84466e-25,-1.8462099999999999e-25,-1.84423e-25,-2.0660600000000001e-29,1.0956800000000001e-29,-4.8819200000000002e-29
2682.0,2.7943700000000001e-28,-1.84433e-25,-1.84682e-25,-1.84433e-25,-5.5226099999999998e-29,3.37279e-29,-3.2990300000000003e-29
2683.0,2.7724300000000002e-28,-1.8443e-25,-1.84673e-25,-1.84416e-25,-5.0843900000000004e-29,3.2708e-29,-3.3356799999999998e-29
2684.0,2.7586200000000001e-28,-1.8442500000000001e-25,-1.84664e-25,-1.8440100000000001e-25,-4.7750100000000001e-29,3.0734499999999997e-29,-3.2631399999999998e-29
2685.0,2.7336999999999998e-28,-1.8441899999999999e-25,-1.8465299999999999e-25,-1.8438500000000001e-25,-4.3347099999999999e-29,2.71639e-29,-3.28635e-29
2686.0,2.6965200000000002e-28,-1.8441899999999999e-25,-1.8464599999999999e-25,-1.8437699999999999e-25,-3.9878799999999999e-29,2.29454e-29,-3.3170599999999999e-29
2687.0,2.5504300000000001e-28,-1.8441700000000001e-25,-1.8463e-25,-1.84371e-25,-3.4658799999999998e-29,1.83884e-29,-3.2990200000000002e-29
2688.0,2.5392999999999999e-28,-1.84432e-25,-1.84638e-25,-1.8437600000000001e-25,-2.72915e-29,1.3750799999999999e-29,-3.9781299999999999e-29
2689.0,3.1052100000000002e-28,-1.84389e-25,-1.8467600000000001e-25,-1.8438599999999999e-25,-5.2304900000000005e-29,3.3672800000000001e-29,-2.2785e-29
2690.0,3.1801400000000002e-28,-1.84374e-25,-1.84666e-25,-1.84363e-25,-5.08372e-29,3.4437699999999998e-29,-2.03936e-29
2691.0,3.2472799999999999e-28,-1.84364e-25,-1.84658e-25,-1.8434e-25,-4.9708100000000003e-29,3.1883999999999999e-29,-1.8552e-29
2692.0,3.2608899999999998e-28,-1.84357e-25,-1.84647e-25,-1.84322e-25,-4.9593000000000003e-29,2.9289300000000001e-29,-1.6287700000000001e-29
2693.0,3.1989399999999999e-28,-1.84355e-25,-1.8463599999999999e-25,-1.8431099999999999e-25,-4.7609400000000001e-29,2.43556e-29,-1.5386099999999999e-29
2694.0,3.1369399999999999e-28,-1.8436000000000001e-25,-1.84631e-25,-1.84307e-25,-4.50235e-29,1.9426e-29,-1.5813199999999999e-29
2695.0,2.7986399999999999e-28,-1.84371e-25,-1.8461199999999999e-25,-1.84324e-25,-4.1430700000000003e-29,1.41344e-29,-1.62566e-29
2696.0,1.74655e-28,-1.84638e-25,-1.84699e-25,-1.84638e-25,-6.6161400000000001e-29,2.5327199999999998e-29,-6.2653500000000005e-29
2697.0,1.6829700000000001e-28,-1.84631e-25,-1.8468599999999999e-25,-1.8462799999999999e-25,-5.3882299999999996e-29,2.28896e-29,-7.04564e-29
2698.0,1.6857400000000001e-28,-1.84641e-25,-1.8468599999999999e-25,-1.8462600000000001e-25,-5.1433299999999996e-29,2.2269499999999999e-29,-7.3234599999999999e-29
2699.0,1.6131200000000001e-28,-1.8463e-25,-1.8466899999999999e-25,-1.8461099999999999e-25,-3.6443100000000001e-29,1.8650400000000001e-29,-7.8279699999999995e-29
2700.0,1.6235099999999999e-28,-1.84641e-25,-1.84673e-25,-1.8461199999999999e-25,-3.1939099999999998e-29,1.65697e-29,-8.1090599999999996e-29
2701.0,1.5557700000000001e-28,-1.8462500000000001e-25,-1.8465100000000001e-25,-1.8459599999999999e-25,-1.6033999999999999e-29,1.1468499999999999e-29,-8.3210000000000004e-29
2702.0,1.57396e-28,-1.8464e-25,-1.8466800000000001e-25,-1.8460399999999999e-25,-1.07013e-29,1.0526600000000001e-29,-8.3637799999999998e-29
2703.0,1.82004e-28,-1.84598e-25,-1.84683e-25,-1.84599e-25,-6.2837400000000003e-29,2.6107600000000001e-29,-6.3476300000000005e-29
2704.0,1.79097e-28,-1.8460200000000001e-25,-1.8467799999999999e-25,-1.8459499999999999e-25,-5.7208000000000005e-29,2.4530100000000001e-29,-6.8476700000000004e-29
2705.0,1.75472e-28,-1.84597e-25,-1.84666e-25,-1.8458e-25,-4.8582100000000002e-29,2.32893e-29,-7.2924800000000001e-29
2706.0,1.73005e-28,-1.8460200000000001e-25,-1.84664e-25,-1.8457799999999999e-25,-3.9894699999999999e-29,1.9639299999999999e-29,-7.7570700000000004e-29
2707.0,1.67848e-28,-1.84591e-25,-1.84647e-25,-1.8456000000000001e-25,-2.9317499999999998e-29,1.63375e-29,-7.9675000000000005e-29
2708.0,1.6749900000000001e-28,-1.8460100000000001e-25,-1.84655e-25,-1.84565e-25,-1.9349500000000001e-29,1.21636e-29,-8.2238399999999998e-29
2709.0,1.5720599999999999e-28,-1.84582e-25,-1.8462600000000001e-25,-1.84548e-25,-8.1302099999999999e-30,6.2926600000000003e-30,-8.1093499999999996e-29
2710.0,1.95165e-28,-1.84563e-25,-1.84673e-25,-1.8456199999999999e-25,-6.3109699999999997e-29,2.74368e-29,-6.2324499999999997e-29
2711.0,1.91979e-28,-1.8456199999999999e-25,-1.84663e-25,-1.8455000000000001e-25,-5.6936800000000005e-29,2.6614399999999998e-29,-6.6889399999999999e-29
2712.0,1.88598e-28,-1.84564e-25,-1.84657e-25,-1.8454300000000001e-25,-4.9046699999999998e-29,2.3804200000000001e-29,-7.2032600000000002e-29
2713.0,1.8503300000000001e-28,-1.84557e-25,-1.8464399999999999e-25,-1.8452700000000001e-25,-3.9966399999999998e-29,2.08374e-29,-7.52239e-29
2714.0,1.82656e-28,-1.8456099999999999e-25,-1.8464399999999999e-25,-1.84524e-25,-2.9920899999999998e-29,1.5894300000000001e-29,-7.8438900000000002e-29
2715.0,1.7601900000000001e-28,-1.84548e-25,-1.8462700000000001e-25,-1.84508e-25,-1.9447299999999999e-29,1.16911e-29,-7.8607399999999995e-29
2716.0,1.7945200000000001e-28,-1.84563e-25,-1.8464300000000001e-25,-1.8451700000000001e-25,-9.3929599999999994e-30,7.3055099999999993e-30,-8.0815100000000004e-29
2717.0,2.1325600000000002e-28,-1.84522e-25,-1.8466099999999999e-25,-1.8451700000000001e-25,-6.2985799999999994e-29,2.9512899999999998e-29,-6.0415499999999995e-29
2718.0,2.0996499999999999e-28,-1.84523e-25,-1.8465299999999999e-25,-1.84508e-25,-5.7701900000000004e-29,2.8035499999999998e-29,-6.5222299999999995e-29
2719.0,2.0693000000000001e-28,-1.8451899999999999e-25,-1.8464200000000001e-25,-1.8449300000000001e-25,-4.9593599999999997e-29,2.5506699999999998e-29,-6.9660299999999999e-29
2720.0,2.0400500000000001e-28,-1.8451999999999999e-25,-1.8463699999999999e-25,-1.8448400000000001e-25,-4.0756000000000002e-29,2.0862399999999999e-29,-7.3307699999999995e-29
2721.0,2.0011499999999999e-28,-1.8451099999999999e-25,-1.84624e-25,-1.8446700000000001e-25,-3.1053699999999998e-29,1.6482099999999999e-29,-7.4687599999999999e-29
2722.0,1.9841899999999999e-28,-1.8451800000000001e-25,-1.8462899999999999e-25,-1.8446899999999999e-25,-2.0966099999999999e-29,1.0539299999999999e-29,-7.6351499999999994e-29
2723.0,1.84645e-28,-1.8450200000000001e-25,-1.84607e-25,-1.84457e-25,-1.1207800000000001e-29,4.9158999999999999e-30,-7.2954199999999998e-29
2724.0,2.3720999999999999e-28,-1.8448e-25,-1.8465100000000001e-25,-1.84472e-25,-6.4591599999999996e-29,3.1343199999999999e-29,-5.8570300000000004e-29
2725.0,2.3398500000000001e-28,-1.8447899999999999e-25,-1.8464e-25,-1.84458e-25,-5.8498899999999997e-29,2.9577600000000001e-29,-6.3456000000000001e-29
2726.0,2.3138099999999999e-28,-1.8447799999999999e-25,-1.84632e-25,-1.8444499999999999e-25,-5.1417999999999996e-29,2.63445e-29,-6.7121799999999999e-29
2727.0,2.28801e-28,-1.8447099999999999e-25,-1.8462099999999999e-25,-1.8442700000000001e-25,-4.2413799999999999e-29,2.1672600000000001e-29,-6.9669400000000005e-29
2728.0,2.2604799999999999e-28,-1.84472e-25,-1.8461999999999999e-25,-1.8442099999999999e-25,-3.3314900000000001e-29,1.56406e-29,-7.0839499999999997e-29
2729.0,2.19276e-28,-1.8446199999999999e-25,-1.84607e-25,-1.8440800000000001e-25,-2.3908499999999999e-29,9.9941999999999998e-30,-6.9285900000000004e-29
2730.0,2.1941100000000002e-28,-1.8447500000000001e-25,-1.8462099999999999e-25,-1.8441800000000001e-25,-1.5039600000000001e-29,4.1566699999999998e-30,-6.9717200000000004e-29
2731.0,2.6145699999999999e-28,-1.8443500000000001e-25,-1.8463699999999999e-25,-1.84423e-25,-6.4657099999999995e-29,3.2165399999999999e-29,-5.6138699999999996e-29
2732.0,2.6079599999999998e-28,-1.84433e-25,-1.8462799999999999e-25,-1.8440800000000001e-25,-6.0380900000000002e-29,3.0772100000000003e-29,-5.9492300000000005e-29
2733.0,2.6055500000000002e-28,-1.8442700000000001e-25,-1.8461800000000001e-25,-1.84388e-25,-5.2954500000000005e-29,2.72864e-29,-6.2852000000000001e-29
2734.0,2.5985699999999999e-28,-1.84423e-25,-1.8461199999999999e-25,-1.84374e-25,-4.5668e-29,2.21041e-29,-6.40855e-29
2735.0,2.5661500000000001e-28,-1.84416e-25,-1.8460299999999999e-25,-1.8435800000000001e-25,-3.7229099999999998e-29,1.5566e-29,-6.3428300000000003e-29
2736.0,2.53828e-28,-1.8442099999999999e-25,-1.84607e-25,-1.8435900000000001e-25,-2.87166e-29,8.9169400000000001e-30,-6.2207000000000001e-29
2737.0,2.3781899999999999e-28,-1.8441199999999999e-25,-1.8459200000000001e-25,-1.84357e-25,-2.1411300000000001e-29,3.6124300000000002e-30,-5.66007e-29
2738.0,2.8536499999999999e-28,-1.8439200000000001e-25,-1.8462500000000001e-25,-1.8438e-25,-6.6130199999999997e-29,3.3400099999999998e-29,-5.0871600000000002e-29
2739.0,2.87477e-28,-1.84388e-25,-1.8461700000000001e-25,-1.8435900000000001e-25,-6.0874599999999999e-29,3.16225e-29,-5.4266699999999999e-29
2740.0,2.9114699999999998e-28,-1.8437600000000001e-25,-1.84605e-25,-1.8433599999999999e-25,-5.6041599999999999e-29,2.8685300000000001e-29,-5.6447999999999995e-29
2741.0,2.92688e-28,-1.8436899999999999e-25,-1.84597e-25,-1.84315e-25,-4.93232e-29,2.2188500000000001e-29,-5.7375900000000003e-29
2742.0,2.9222699999999998e-28,-1.84366e-25,-1.8459399999999999e-25,-1.8430299999999999e-25,-4.2284600000000001e-29,1.5499400000000001e-29,-5.5120200000000004e-29
2743.0,2.8505700000000001e-28,-1.84363e-25,-1.84589e-25,-1.84299e-25,-3.5794700000000001e-29,8.6086500000000003e-30,-5.1158899999999998e-29
2744.0,2.83689e-28,-1.84373e-25,-1.84599e-25,-1.84306e-25,-3.0305400000000002e-29,1.7722999999999999e-30,-4.8878699999999999e-29
2745.0,3.6530200000000001e-28,-1.8429399999999999e-25,-1.84607e-25,-1.8422899999999999e-25,-5.8273e-29,1.33674e-29,-4.3307800000000004e-31
2746.0,4.2701700000000004e-28,-1.84198e-25,-1.8456800000000001e-25,-1.84138e-25,-7.9428699999999997e-29,1.3937000000000001e-29,1.23476e-29
2747.0,5.2994600000000002e-28,-1.8403300000000001e-25,-1.84489e-25,-1.8396199999999999e-25,-1.0768499999999999e-28,7.8434200000000001e-30,1.85098e-29
2748.0,6.1321999999999997e-28,-1.8384499999999999e-25,-1.8437799999999999e-25,-1.8378e-25,-1.32479e-28,3.8044599999999999e-30,1.32042e-29
2749.0,6.9381599999999996e-28,-1.83622e-25,-1.8422799999999999e-25,-1.83563e-25,-1.5838199999999999e-28,-2.92941e-30,-1.9908e-30
2750.0,7.3903600000000002e-28,-1.8346099999999999e-25,-1.84113e-25,-1.83415e-25,-1.7079800000000001e-28,-7.3944299999999994e-30,-1.9823099999999999e-29
2751.0,7.6310900000000003e-28,-1.8339200000000001e-25,-1.84063e-25,-1.8335099999999999e-25,-1.79406e-28,-1.1189000000000001e-29,-4.4507600000000003e-29
2752.0,3.7508999999999998e-28,-1.84281e-25,-1.8460900000000001e-25,-1.8422600000000001e-25,-6.0534999999999999e-29,2.04679e-29,1.7386000000000001e-30
2753.0,4.64484e-28,-1.84156e-25,-1.8456199999999999e-25,-1.8409200000000001e-25,-8.01304e-29,1.9840100000000001e-29,1.4442100000000001e-29
2754.0,5.5603399999999998e-28,-1.8399100000000001e-25,-1.8447899999999999e-25,-1.8392500000000001e-25,-1.0395200000000001e-28,1.6843500000000001e-29,1.76343e-29
2755.0,6.5273700000000003e-28,-1.83756e-25,-1.8433400000000001e-25,-1.8369e-25,-1.2858800000000001e-28,1.11019e-29,1.10795e-29
2756.0,7.3043599999999999e-28,-1.8351700000000001e-25,-1.8416999999999999e-25,-1.8345999999999999e-25,-1.4917199999999999e-28,4.5884099999999997e-30,-4.0273399999999997e-30
2757.0,7.8695600000000004e-28,-1.8331600000000001e-25,-1.84023e-25,-1.8327e-25,-1.6589199999999999e-28,-3.94069e-30,-2.7392000000000002e-29
2758.0,8.1382100000000008e-28,-1.83231e-25,-1.83965e-25,-1.8319100000000001e-25,-1.68828e-28,-1.00303e-29,-4.6616499999999998e-29
2759.0,3.9287500000000002e-28,-1.8426700000000001e-25,-1.84616e-25,-1.8421899999999999e-25,-6.0214700000000004e-29,2.6496900000000003e-29,1.4750100000000001e-30
2760.0,4.7530699999999996e-28,-1.84148e-25,-1.84572e-25,-1.8409499999999999e-25,-7.6942700000000003e-29,2.6017700000000003e-29,1.16594e-29
2761.0,5.7225199999999999e-28,-1.83963e-25,-1.8447899999999999e-25,-1.8390800000000001e-25,-9.60225e-29,2.4713899999999999e-29,1.4795400000000001e-29
2762.0,6.6523500000000004e-28,-1.8373699999999999e-25,-1.8434200000000001e-25,-1.8368499999999999e-25,-1.1729200000000001e-28,1.9828100000000001e-29,6.5576500000000001e-30
2763.0,7.4628599999999997e-28,-1.8348300000000001e-25,-1.8416899999999999e-25,-1.8344100000000001e-25,-1.3606299999999999e-28,1.2656400000000001e-29,-8.5332800000000005e-30
2764.0,8.0298300000000003e-28,-1.83296e-25,-1.84039e-25,-1.83265e-25,-1.4827799999999999e-28,2.68948e-30,-2.9258600000000002e-29
2765.0,8.4023700000000004e-28,-1.8319100000000001e-25,-1.8396800000000001e-25,-1.8316600000000001e-25,-1.56372e-28,-7.6342400000000006e-30,-5.2218199999999998e-29
2766.0,3.9349500000000002e-28,-1.84273e-25,-1.8462899999999999e-25,-1.8423599999999999e-25,-5.8304900000000005e-29,3.0895700000000002e-29,-1.6660899999999999e-30
2767.0,4.75211e-28,-1.8415199999999999e-25,-1.84588e-25,-1.84114e-25,-7.0360300000000002e-29,3.30949e-29,7.7049399999999996e-30
2768.0,5.6290300000000003e-28,-1.8399200000000001e-25,-1.84513e-25,-1.83956e-25,-8.5751900000000005e-29,3.1806899999999998e-29,8.9656599999999998e-30
2769.0,6.5144599999999999e-28,-1.83782e-25,-1.8439200000000001e-25,-1.8375299999999999e-25,-1.0120199999999999e-28,2.89508e-29,2.5392000000000001e-30
2770.0,7.2644799999999999e-28,-1.8357500000000001e-25,-1.84264e-25,-1.8355900000000001e-25,-1.1595000000000001e-28,2.04169e-29,-1.09794e-29
2771.0,7.8376599999999998e-28,-1.8340099999999999e-25,-1.8415000000000001e-25,-1.83397e-25,-1.2540099999999999e-28,9.8260500000000006e-30,-3.0196000000000002e-29
2772.0,8.1536100000000003e-28,-1.8332799999999999e-25,-1.84107e-25,-1.8332699999999999e-25,-1.30263e-28,-3.2463100000000003e-30,-4.7350499999999999e-29
2773.0,3.87254e-28,-1.8428500000000001e-25,-1.8464300000000001e-25,-1.84263e-25,-5.58953e-29,3.5301599999999999e-29,-5.5593100000000001e-30
2774.0,4.5787500000000004e-28,-1.8418500000000001e-25,-1.84615e-25,-1.84165e-25,-6.4109200000000003e-29,3.6204099999999999e-29,2.01556e-30
2775.0,5.3535100000000002e-28,-1.8405000000000001e-25,-1.8455900000000001e-25,-1.8403699999999999e-25,-7.3496099999999999e-29,3.7285900000000002e-29,3.6792300000000002e-30
2776.0,6.0977899999999996e-28,-1.83896e-25,-1.8448400000000001e-25,-1.8389399999999999e-25,-8.4050000000000006e-29,3.3255e-29,-1.6231500000000002e-30
2777.0,6.7729599999999996e-28,-1.83732e-25,-1.8439499999999999e-25,-1.8374499999999999e-25,-9.16739e-29,2.5422499999999999e-29,-1.12114e-29
2778.0,7.2437499999999999e-28,-1.8361700000000001e-25,-1.84332e-25,-1.8364200000000001e-25,-9.7289699999999999e-29,1.49617e-29,-2.7217799999999998e-29
2779.0,7.5787700000000004e-28,-1.8354399999999999e-25,-1.8429399999999999e-25,-1.8357699999999999e-25,-9.98806e-29,-1.4329800000000001e-30,-4.4072899999999998e-29
2780.0,3.7190400000000001e-28,-1.84307e-25,-1.84657e-25,-1.84299e-25,-5.2543200000000001e-29,3.6435700000000001e-29,-9.1498299999999994e-30
2781.0,4.3019200000000001e-28,-1.8423e-25,-1.84641e-25,-1.8422699999999999e-25,-5.7913700000000002e-29,3.8923699999999998e-29,-2.9745200000000002e-30
2782.0,4.8958799999999997e-28,-1.8413599999999999e-25,-1.8461199999999999e-25,-1.8414300000000001e-25,-6.2883700000000005e-29,3.7518699999999999e-29,-1.6266000000000001e-30
2783.0,5.5072900000000002e-28,-1.8402500000000001e-25,-1.8457099999999999e-25,-1.84047e-25,-6.75339e-29,3.4947099999999998e-29,-3.7137399999999997e-30
2784.0,6.0159499999999999e-28,-1.8392500000000001e-25,-1.8453e-25,-1.8396199999999999e-25,-7.0592799999999997e-29,2.6333300000000002e-29,-1.18147e-29
2785.0,6.4282100000000001e-28,-1.83839e-25,-1.84491e-25,-1.8389e-25,-7.1379100000000002e-29,1.7086099999999999e-29,-2.2972899999999999e-29
2786.0,6.5568699999999997e-28,-1.8381700000000001e-25,-1.84482e-25,-1.8386700000000001e-25,-7.1792400000000004e-29,4.04957e-30,-3.4049400000000001e-29
2787.0,3.4812400000000002e-28,-1.8433699999999999e-25,-1.8466800000000001e-25,-1.8434e-25,-5.13842e-29,3.5888800000000002e-29,-1.2388999999999999e-29
2788.0,3.9038200000000001e-28,-1.8428500000000001e-25,-1.84664e-25,-1.84297e-25,-5.4409000000000003e-29,3.7264900000000003e-29,-8.4874799999999997e-30
2789.0,4.3317700000000001e-28,-1.8422500000000001e-25,-1.8465200000000001e-25,-1.84247e-25,-5.6847300000000005e-29,3.68589e-29,-7.4685600000000002e-30
2790.0,4.76798e-28,-1.84156e-25,-1.8463599999999999e-25,-1.8419399999999999e-25,-5.7875199999999999e-29,3.2151500000000002e-29,-8.1169700000000006e-30
2791.0,5.1610399999999997e-28,-1.84089e-25,-1.8461700000000001e-25,-1.8414e-25,-5.7477300000000003e-29,2.6777399999999999e-29,-1.25442e-29
2792.0,5.3861999999999999e-28,-1.84049e-25,-1.84605e-25,-1.8411000000000001e-25,-5.5853199999999995e-29,1.70585e-29,-1.89514e-29
2793.0,5.6550199999999998e-28,-1.8401600000000001e-25,-1.8460399999999999e-25,-1.84088e-25,-5.3786899999999999e-29,4.2432199999999999e-30,-2.7805600000000001e-29
2794.0,3.01293e-28,-1.84316e-25,-1.8456800000000001e-25,-1.84256e-25,-3.6313499999999999e-29,-1.6794600000000001e-30,-3.7391400000000003e-29
2795.0,3.48023e-28,-1.8423500000000001e-25,-1.84524e-25,-1.84164e-25,-3.94521e-29,-9.12585e-30,-5.0267799999999999e-29
2796.0,3.48965e-28,-1.8414499999999999e-25,-1.8444499999999999e-25,-1.8409399999999999e-25,-3.6075299999999998e-29,-1.7196299999999999e-29,-5.5208199999999996e-29
2797.0,3.6464400000000002e-28,-1.84014e-25,-1.8433300000000001e-25,-1.8397600000000001e-25,-2.9735099999999997e-29,-2.50243e-29,-6.5166600000000002e-29
2798.0,3.3317099999999999e-28,-1.8390800000000001e-25,-1.8421999999999999e-25,-1.83906e-25,-1.42765e-29,-2.2849599999999999e-29,-5.9243599999999997e-29
2799.0,3.1287599999999999e-28,-1.8381600000000001e-25,-1.8412799999999999e-25,-1.8383499999999999e-25,-3.8779899999999997e-30,-1.4711699999999999e-29,-4.2439700000000002e-29
2800.0,2.99248e-28,-1.8378400000000001e-25,-1.8409499999999999e-25,-1.8381099999999999e-25,1.29432e-30,4.0735999999999999e-30,-1.22869e-29
2801.0,3.2181099999999998e-28,-1.8430299999999999e-25,-1.84564e-25,-1.8423400000000001e-25,-4.0577299999999999e-29,5.3806799999999999e-30,-5.0129999999999999e-29
2802.0,3.3648e-28,-1.8423699999999999e-25,-1.8451099999999999e-25,-1.8416899999999999e-25,-4.2144099999999997e-29,-8.0663799999999995e-31,-5.7278400000000002e-29
2803.0,3.5373199999999998e-28,-1.8412600000000001e-25,-1.84414e-25,-1.84063e-25,-4.0472899999999997e-29,-7.9132000000000002e-30,-7.00872e-29
2804.0,3.3899500000000002e-28,-1.84013e-25,-1.84296e-25,-1.83971e-25,-3.3749299999999997e-29,-1.3458499999999999e-29,-7.5841400000000004e-29
2805.0,3.12636e-28,-1.8388599999999999e-25,-1.8416000000000001e-25,-1.8386700000000001e-25,-2.5960600000000001e-29,-1.3451800000000001e-29,-6.9226700000000005e-29
2806.0,2.7268600000000002e-28,-1.8380000000000001e-25,-1.8405999999999999e-25,-1.8380000000000001e-25,-1.7955299999999999e-29,-8.3719600000000001e-30,-4.3478900000000001e-29
2807.0,2.7503800000000002e-28,-1.8374100000000001e-25,-1.84014e-25,-1.8374499999999999e-25,-2.27217e-29,-3.28489e-31,-1.3761599999999999e-29
2808.0,3.19547e-28,-1.8430800000000001e-25,-1.84563e-25,-1.8424300000000001e-25,-4.7382000000000001e-29,1.3655000000000001e-29,-5.4329200000000003e-29
2809.0,3.39267e-28,-1.84231e-25,-1.8450000000000001e-25,-1.84164e-25,-5.0526200000000001e-29,9.74986e-30,-6.3505099999999997e-29
2810.0,3.4484399999999999e-28,-1.84139e-25,-1.8440900000000001e-25,-1.8407699999999999e-25,-5.3115799999999994e-29,4.1595399999999997e-30,-7.4562999999999995e-29
2811.0,3.3276500000000001e-28,-1.8401600000000001e-25,-1.8427899999999999e-25,-1.8396999999999999e-25,-5.3416700000000001e-29,8.4358500000000006e-31,-7.8507500000000005e-29
2812.0,3.0111099999999998e-28,-1.8391099999999999e-25,-1.84157e-25,-1.8388300000000001e-25,-5.3339399999999997e-29,-2.2974799999999999e-30,-6.7713800000000004e-29
2813.0,2.7847800000000001e-28,-1.83807e-25,-1.8405000000000001e-25,-1.8379399999999999e-25,-5.6056800000000003e-29,-2.0596e-30,-4.34293e-29
2814.0,2.8126e-28,-1.83757e-25,-1.8401199999999999e-25,-1.83746e-25,-5.9159699999999995e-29,-1.7358300000000001e-30,-1.14854e-29
2815.0,3.1986199999999999e-28,-1.8431099999999999e-25,-1.84566e-25,-1.84256e-25,-5.4428700000000001e-29,2.2041800000000001e-29,-5.6631500000000001e-29
2816.0,3.36623e-28,-1.84247e-25,-1.8451199999999999e-25,-1.84191e-25,-6.0947199999999996e-29,1.9318799999999999e-29,-6.531e-29
2817.0,3.43937e-28,-1.8415299999999999e-25,-1.8442099999999999e-25,-1.8410399999999999e-25,-6.8055499999999997e-29,1.73793e-29,-7.30444e-29
2818.0,3.3759500000000001e-28,-1.84055e-25,-1.8431800000000001e-25,-1.8401899999999999e-25,-7.6599099999999998e-29,1.2409099999999999e-29,-7.39965e-29
2819.0,3.24415e-28,-1.83946e-25,-1.84205e-25,-1.8392699999999999e-25,-8.41799e-29,8.9990899999999996e-30,-6.2379400000000004e-29
2820.0,3.13801e-28,-1.8386899999999999e-25,-1.8412799999999999e-25,-1.8386199999999999e-25,-9.1173700000000001e-29,2.1906699999999999e-30,-3.9164799999999999e-29
2821.0,3.4525200000000001e-28,-1.8379300000000001e-25,-1.8409300000000001e-25,-1.8379499999999999e-25,-9.7736700000000002e-29,-6.0519999999999999e-30,-1.52625e-29
2822.0,3.1607199999999999e-28,-1.8432600000000001e-25,-1.8458e-25,-1.8428400000000001e-25,-6.0780299999999996e-29,2.8313900000000002e-29,-5.6076099999999997e-29
2823.0,3.3284000000000002e-28,-1.84264e-25,-1.84531e-25,-1.8422600000000001e-25,-6.8841800000000002e-29,2.8957200000000002e-29,-6.1154099999999996e-29
2824.0,3.4551800000000001e-28,-1.84191e-25,-1.84466e-25,-1.8416099999999999e-25,-8.0396900000000004e-29,2.6584699999999997e-29,-6.6081199999999997e-29
2825.0,3.5067800000000001e-28,-1.8410000000000001e-25,-1.84382e-25,-1.8408500000000001e-25,-9.1923099999999997e-29,2.3205000000000001e-29,-6.3682199999999996e-29
2826.0,3.5291500000000001e-28,-1.84021e-25,-1.8431099999999999e-25,-1.84023e-25,-1.03255e-28,1.6021300000000001e-29,-5.3404199999999995e-29
2827.0,3.6541599999999999e-28,-1.8394200000000001e-25,-1.8425199999999999e-25,-1.8395800000000001e-25,-1.1281499999999999e-28,6.44157e-30,-3.4533499999999999e-29
2828.0,3.83432e-28,-1.8390199999999999e-25,-1.84241e-25,-1.8391999999999999e-25,-1.1174100000000001e-28,-5.2557500000000002e-30,-1.5593100000000001e-29
2829.0,3.09523e-28,-1.8434200000000001e-25,-1.8459599999999999e-25,-1.8431700000000001e-25,-6.5173999999999996e-29,3.3209299999999999e-29,-5.1803500000000005e-29
2830.0,3.2896200000000001e-28,-1.8429300000000001e-25,-1.84564e-25,-1.84273e-25,-7.4043300000000001e-29,3.3076399999999998e-29,-5.47562e-29
2831.0,3.4493299999999998e-28,-1.84231e-25,-1.8451800000000001e-25,-1.84222e-25,-8.4871600000000005e-29,3.2814399999999999e-29,-5.53124e-29
2832.0,3.5962200000000001e-28,-1.84165e-25,-1.8446999999999999e-25,-1.84173e-25,-9.7050599999999996e-29,2.73428e-29,-5.2482099999999999e-29
2833.0,3.7473600000000002e-28,-1.8409300000000001e-25,-1.8442099999999999e-25,-1.8411999999999999e-25,-1.0706e-28,2.0935599999999999e-29,-4.2844300000000002e-29
2834.0,3.8863199999999999e-28,-1.84048e-25,-1.84397e-25,-1.8408599999999999e-25,-1.1238699999999999e-28,9.3346299999999998e-30,-2.9454700000000002e-29
2835.0,4.2837500000000001e-28,-1.8399300000000001e-25,-1.8439499999999999e-25,-1.8404499999999999e-25,-1.1468899999999999e-28,-4.6839200000000003e-30,-1.86654e-29
2836.0,3.04523e-28,-1.8436000000000001e-25,-1.84615e-25,-1.84349e-25,-6.8393800000000001e-29,3.3936100000000002e-29,-4.8757899999999999e-29
2837.0,3.1999199999999999e-28,-1.84323e-25,-1.8459399999999999e-25,-1.8431800000000001e-25,-7.5050900000000002e-29,3.6109499999999998e-29,-4.7711599999999998e-29
2838.0,3.3942399999999999e-28,-1.8427500000000001e-25,-1.8456800000000001e-25,-1.8428400000000001e-25,-8.5493400000000001e-29,3.3678400000000001e-29,-4.7157199999999998e-29
2839.0,3.56624e-28,-1.84221e-25,-1.8453699999999999e-25,-1.84247e-25,-9.4026399999999998e-29,2.9874699999999997e-29,-4.29518e-29
2840.0,3.7386900000000002e-28,-1.84173e-25,-1.84516e-25,-1.8421700000000001e-25,-1.00363e-28,2.20562e-29,-3.4712399999999999e-29
2841.0,3.9820300000000001e-28,-1.8412699999999999e-25,-1.8450299999999999e-25,-1.8418400000000001e-25,-1.0468099999999999e-28,1.1950399999999999e-29,-2.5376100000000002e-29
2842.0,4.0512200000000004e-28,-1.84113e-25,-1.84508e-25,-1.84171e-25,-9.44436e-29,-1.45637e-30,-1.70172e-29
2843.0,1.5854599999999999e-28,-1.84598e-25,-1.8462799999999999e-25,-1.8462899999999999e-25,-8.9721799999999995e-29,-8.7880499999999995e-31,-3.14821e-30
2844.0,1.4863399999999999e-28,-1.8461099999999999e-25,-1.8463400000000001e-25,-1.84647e-25,-8.30141e-29,1.3402e-30,-1.13623e-29
2845.0,1.2646700000000001e-28,-1.84597e-25,-1.84556e-25,-1.8460900000000001e-25,-6.7484699999999998e-29,-2.3956299999999999e-30,6.6417999999999996e-31
2846.0,1.08298e-28,-1.8461000000000001e-25,-1.84581e-25,-1.8463500000000001e-25,-5.4570800000000003e-29,1.66152e-30,-1.4473899999999999e-29
2847.0,1.03646e-28,-1.8459300000000001e-25,-1.84497e-25,-1.84589e-25,-2.3266699999999999e-29,-2.19342e-30,9.6444900000000007e-30
2848.0,7.64472e-29,-1.84608e-25,-1.8457600000000001e-25,-1.8463400000000001e-25,-2.0034799999999999e-29,6.0299100000000003e-31,-2.6661500000000002e-29
2849.0,1.72776e-28,-1.8455399999999999e-25,-1.8442899999999999e-25,-1.84556e-25,5.3917800000000003e-29,1.3105199999999999e-29,3.9875000000000001e-29
2850.0,1.6483099999999999e-28,-1.84616e-25,-1.84664e-25,-1.8465399999999999e-25,-8.8609000000000001e-29,7.29344e-30,-2.26212e-29
2851.0,1.4448799999999999e-28,-1.84599e-25,-1.8460200000000001e-25,-1.84622e-25,-8.0598199999999995e-29,4.4519000000000001e-30,-1.70725e-29
2852.0,1.3511799999999999e-28,-1.84616e-25,-1.8460299999999999e-25,-1.84639e-25,-7.0291400000000003e-29,4.6711099999999998e-30,-2.8119799999999998e-29
2853.0,1.0664199999999999e-28,-1.8459499999999999e-25,-1.8453699999999999e-25,-1.8460100000000001e-25,-4.7300199999999998e-29,2.7676999999999999e-30,-1.7036e-29
2854.0,1.0339700000000001e-28,-1.84616e-25,-1.8456800000000001e-25,-1.8462799999999999e-25,-3.6753399999999999e-29,1.32276e-30,-3.4495700000000003e-29
2855.0,9.4120599999999995e-29,-1.84582e-25,-1.8449200000000001e-25,-1.8458599999999999e-25,4.4874600000000002e-30,3.3712699999999997e-30,-1.0751e-29
2856.0,7.4471900000000002e-29,-1.84622e-25,-1.8458e-25,-1.84608e-25,-8.3861999999999995e-30,6.4704599999999999e-31,-3.63712e-29
2857.0,1.6096399999999999e-28,-1.84605e-25,-1.8464599999999999e-25,-1.8463400000000001e-25,-8.5337100000000005e-29,1.14603e-29,-2.8044400000000002e-29
2858.0,1.5500099999999999e-28,-1.8461899999999999e-25,-1.8463699999999999e-25,-1.8464399999999999e-25,-7.9291399999999998e-29,1.0579899999999999e-29,-3.8126800000000001e-29
2859.0,1.299e-28,-1.8460200000000001e-25,-1.84582e-25,-1.84613e-25,-6.4232099999999996e-29,8.5914799999999999e-30,-3.4371099999999999e-29
2860.0,1.2792000000000001e-28,-1.8462099999999999e-25,-1.84589e-25,-1.8462899999999999e-25,-5.3222100000000003e-29,5.9047700000000002e-30,-4.6258500000000002e-29
2861.0,9.8326600000000004e-29,-1.8459399999999999e-25,-1.84533e-25,-1.8459599999999999e-25,-2.4208700000000001e-29,4.8546100000000001e-30,-3.67097e-29
2862.0,1.0355299999999999e-28,-1.8461999999999999e-25,-1.8457099999999999e-25,-1.84614e-25,-1.9003e-29,1.28703e-30,-4.9964699999999999e-29
2863.0,1.0765499999999999e-28,-1.8458e-25,-1.84506e-25,-1.8459e-25,2.21539e-29,-4.3149700000000002e-30,-3.5164299999999999e-29
2864.0,1.6797200000000001e-28,-1.84624e-25,-1.84672e-25,-1.84649e-25,-8.1072099999999999e-29,1.6582900000000001e-29,-4.44543e-29
2865.0,1.5072900000000001e-28,-1.8460900000000001e-25,-1.8462500000000001e-25,-1.84623e-25,-7.3194200000000005e-29,1.43948e-29,-4.3919699999999998e-29
2866.0,1.4757900000000001e-28,-1.8462500000000001e-25,-1.84624e-25,-1.84633e-25,-6.4248799999999998e-29,1.22586e-29,-5.4381999999999996e-29
2867.0,1.2308600000000001e-28,-1.8460399999999999e-25,-1.8457600000000001e-25,-1.8460399999999999e-25,-4.4334999999999998e-29,9.8072700000000006e-30,-5.22434e-29
2868.0,1.2646199999999999e-28,-1.8462500000000001e-25,-1.8459200000000001e-25,-1.8461800000000001e-25,-3.4588699999999998e-29,5.8175100000000002e-30,-6.1601899999999996e-29
2869.0,1.0692400000000001e-28,-1.8459499999999999e-25,-1.8454499999999999e-25,-1.84591e-25,-5.0927599999999998e-30,1.55435e-30,-5.4843000000000002e-29
2870.0,1.0926999999999999e-28,-1.8461999999999999e-25,-1.8459e-25,-1.8460200000000001e-25,-2.02672e-30,1.4247899999999999e-30,-6.1142600000000001e-29
2871.0,1.6384100000000001e-28,-1.8461700000000001e-25,-1.84663e-25,-1.84632e-25,-7.5411999999999995e-29,1.9294899999999999e-29,-4.8435399999999999e-29
2872.0,1.6198100000000001e-28,-1.8462899999999999e-25,-1.84658e-25,-1.84638e-25,-6.93624e-29,1.81483e-29,-5.8177100000000004e-29
2873.0,1.4475300000000001e-28,-1.84613e-25,-1.8461800000000001e-25,-1.84613e-25,-5.6305200000000003e-29,1.5402800000000001e-29,-5.9740200000000005e-29
2874.0,1.4512900000000001e-28,-1.8463e-25,-1.84624e-25,-1.8462099999999999e-25,-4.7393199999999999e-29,1.21553e-29,-6.7866400000000003e-29
2875.0,1.26263e-28,-1.84607e-25,-1.8458500000000001e-25,-1.84597e-25,-2.5552200000000003e-29,7.9606300000000004e-30,-6.6898300000000003e-29
2876.0,1.3004400000000001e-28,-1.8462700000000001e-25,-1.84607e-25,-1.84607e-25,-1.8229699999999999e-29,4.8741e-30,-7.1751700000000002e-29
2877.0,1.21395e-28,-1.84597e-25,-1.84563e-25,-1.84588e-25,7.7361599999999996e-30,-2.6724200000000001e-30,-6.7335499999999999e-29
2878.0,1.71326e-28,-1.84633e-25,-1.8468599999999999e-25,-1.8464300000000001e-25,-6.99555e-29,2.2296500000000001e-29,-5.9994000000000002e-29
2879.0,1.59111e-28,-1.8462099999999999e-25,-1.8465299999999999e-25,-1.84623e-25,-6.2180500000000004e-29,1.9779700000000001e-29,-6.2067599999999998e-29
2880.0,1.5913499999999999e-28,-1.8463400000000001e-25,-1.84656e-25,-1.8462700000000001e-25,-5.5664300000000004e-29,1.8100800000000001e-29,-6.9172200000000001e-29
2881.0,1.45218e-28,-1.8461800000000001e-25,-1.84624e-25,-1.84605e-25,-3.9391999999999997e-29,1.41634e-29,-7.1988799999999997e-29
2882.0,1.4710600000000001e-28,-1.84633e-25,-1.8463400000000001e-25,-1.8461099999999999e-25,-3.2187300000000001e-29,1.10664e-29,-7.6733100000000004e-29
2883.0,1.35189e-28,-1.8461099999999999e-25,-1.8460200000000001e-25,-1.8459200000000001e-25,-1.15039e-29,5.2367399999999998e-30,-7.6410599999999999e-29
2884.0,1.3813799999999999e-28,-1.8463e-25,-1.84631e-25,-1.8460000000000001e-25,-5.8961599999999997e-30,4.33666e-30,-7.7428899999999999e-29
2885.0,1.66836e-28,-1.8462700000000001e-25,-1.8467799999999999e-25,-1.84631e-25,-6.4265700000000001e-29,2.2313999999999999e-29,-6.1941300000000005e-29
2886.0,1.6889e-28,-1.84638e-25,-1.84682e-25,-1.84633e-25,-6.0918599999999995e-29,2.2677799999999999e-29,-6.7427300000000005e-29
2887.0,1.5871500000000001e-28,-1.8462600000000001e-25,-1.84658e-25,-1.84616e-25,-4.81238e-29,1.91605e-29,-7.2305200000000004e-29
2888.0,1.5957599999999999e-28,-1.84638e-25,-1.8466199999999999e-25,-1.8461800000000001e-25,-4.2863299999999998e-29,1.73377e-29,-7.6495200000000001e-29
2889.0,1.4971399999999999e-28,-1.84622e-25,-1.84638e-25,-1.8460000000000001e-25,-2.58573e-29,1.2503e-29,-7.9236399999999995e-29
2890.0,1.5130100000000001e-28,-1.8463599999999999e-25,-1.8465000000000001e-25,-1.84605e-25,-2.0122199999999999e-29,1.00119e-29,-8.1202099999999999e-29
2891.0,1.4279400000000001e-28,-1.84613e-25,-1.8461700000000001e-25,-1.84588e-25,-2.3642100000000001e-30,3.0002399999999999e-30,-8.0853299999999999e-29
2892.0,1.79357e-28,-1.84566e-25,-1.8464499999999999e-25,-1.8461199999999999e-25,-9.5321499999999998e-29,1.0384199999999999e-30,-7.8421999999999996e-30
2893.0,1.50998e-28,-1.8455000000000001e-25,-1.84566e-25,-1.8457500000000001e-25,-8.6094299999999999e-29,-1.4635499999999999e-30,-4.3577700000000001e-30
2894.0,1.37495e-28,-1.84564e-25,-1.84564e-25,-1.8459200000000001e-25,-7.7359200000000003e-29,-8.9954799999999997e-31,-7.8208499999999998e-30
2895.0,1.0334399999999999e-28,-1.8454499999999999e-25,-1.84488e-25,-1.8455299999999999e-25,-4.7876100000000001e-29,-1.15471e-30,-2.31736e-31
2896.0,9.0741499999999998e-29,-1.8456199999999999e-25,-1.8451099999999999e-25,-1.8457799999999999e-25,-3.7837400000000001e-29,-1.05724e-30,-9.5466599999999993e-30
2897.0,8.5579900000000006e-29,-1.84524e-25,-1.8445100000000001e-25,-1.8453699999999999e-25,1.5876900000000001e-29,3.3483500000000002e-30,5.7197300000000001e-30
2898.0,1.0539799999999999e-28,-1.84556e-25,-1.84463e-25,-1.8456700000000001e-25,2.0903e-29,2.4711700000000001e-30,-3.5411300000000002e-30
2899.0,1.7180499999999999e-28,-1.84556e-25,-1.8461800000000001e-25,-1.84591e-25,-9.1877299999999995e-29,6.90484e-30,-1.9427000000000001e-29
2900.0,1.58835e-28,-1.8456999999999999e-25,-1.8460100000000001e-25,-1.8460000000000001e-25,-8.7000099999999997e-29,5.4018399999999998e-30,-2.2505000000000001e-29
2901.0,1.3161100000000001e-28,-1.8455100000000001e-25,-1.8453599999999999e-25,-1.8456800000000001e-25,-7.04547e-29,4.1497000000000002e-30,-2.3074800000000001e-29
2902.0,1.15927e-28,-1.8456999999999999e-25,-1.84532e-25,-1.84582e-25,-5.5285e-29,3.0721399999999999e-30,-2.7031800000000001e-29
2903.0,8.84465e-29,-1.84541e-25,-1.8447899999999999e-25,-1.84549e-25,-2.3785400000000001e-29,1.25161e-30,-2.3995900000000001e-29
2904.0,8.50255e-29,-1.84565e-25,-1.8450000000000001e-25,-1.8456899999999999e-25,-6.1727200000000002e-30,4.6449299999999998e-30,-2.9741200000000001e-29
2905.0,8.3181900000000003e-29,-1.8452899999999999e-25,-1.8445900000000001e-25,-1.8452600000000001e-25,2.66089e-29,7.71362e-31,-5.4155799999999999e-30
2906.0,1.75734e-28,-1.8457600000000001e-25,-1.8464300000000001e-25,-1.8460900000000001e-25,-8.9314499999999996e-29,1.2726299999999999e-29,-3.23701e-29
2907.0,1.5805900000000001e-28,-1.8456099999999999e-25,-1.84589e-25,-1.84583e-25,-8.1403100000000004e-29,1.1080899999999999e-29,-3.68082e-29
2908.0,1.4227100000000001e-28,-1.8457600000000001e-25,-1.84572e-25,-1.84589e-25,-6.9922200000000003e-29,9.0969199999999996e-30,-4.1200400000000002e-29
2909.0,1.1997999999999999e-28,-1.8455399999999999e-25,-1.84523e-25,-1.8455900000000001e-25,-4.9002199999999998e-29,6.0315499999999998e-30,-4.4466099999999998e-29
2910.0,1.0926899999999999e-28,-1.84573e-25,-1.8452600000000001e-25,-1.84572e-25,-2.9632300000000001e-29,5.13081e-30,-4.84611e-29
2911.0,9.1830399999999998e-29,-1.8454499999999999e-25,-1.84488e-25,-1.8454e-25,-3.41433e-30,-3.27873e-31,-4.2397000000000002e-29
2912.0,1.0540099999999999e-28,-1.8456700000000001e-25,-1.8452700000000001e-25,-1.8455900000000001e-25,1.0400999999999999e-29,-3.4557600000000001e-30,-5.6081699999999996e-29
2913.0,1.75573e-28,-1.8457099999999999e-25,-1.8463699999999999e-25,-1.8459599999999999e-25,-8.32916e-29,1.77395e-29,-4.35871e-29
2914.0,1.6272499999999999e-28,-1.84583e-25,-1.8461700000000001e-25,-1.84597e-25,-7.6773100000000005e-29,1.58358e-29,-4.8932000000000002e-29
2915.0,1.48628e-28,-1.8456700000000001e-25,-1.84574e-25,-1.84572e-25,-6.4185100000000005e-29,1.2670400000000001e-29,-5.5398099999999997e-29
2916.0,1.35097e-28,-1.84582e-25,-1.84566e-25,-1.8457799999999999e-25,-4.7704199999999998e-29,1.03009e-29,-6.0243699999999998e-29
2917.0,1.20743e-28,-1.8455900000000001e-25,-1.8453e-25,-1.8455000000000001e-25,-2.7982200000000001e-29,4.8446099999999998e-30,-6.1881e-29
2918.0,1.2102499999999999e-28,-1.8457700000000001e-25,-1.8454599999999999e-25,-1.84564e-25,-9.4036100000000004e-30,1.1281500000000001e-30,-6.7453500000000005e-29
2919.0,1.0859899999999999e-28,-1.8454499999999999e-25,-1.84508e-25,-1.84539e-25,1.38899e-29,-4.6340399999999998e-30,-5.7634200000000005e-29
2920.0,1.7613400000000001e-28,-1.84589e-25,-1.84656e-25,-1.84605e-25,-7.7216199999999998e-29,2.1157599999999999e-29,-5.2145499999999995e-29
2921.0,1.67764e-28,-1.8457899999999999e-25,-1.84622e-25,-1.8458500000000001e-25,-7.0506300000000003e-29,1.87694e-29,-5.9345699999999998e-29
2922.0,1.5589100000000001e-28,-1.8459e-25,-1.84608e-25,-1.8458599999999999e-25,-5.8825899999999996e-29,1.6533600000000001e-29,-6.4992900000000003e-29
2923.0,1.4675599999999999e-28,-1.84573e-25,-1.8457700000000001e-25,-1.8456199999999999e-25,-4.4935900000000001e-29,1.18029e-29,-7.0386099999999998e-29
2924.0,1.40303e-28,-1.8458599999999999e-25,-1.8458e-25,-1.8456899999999999e-25,-2.8131799999999998e-29,7.69663e-30,-7.5047700000000005e-29
2925.0,1.29817e-28,-1.84563e-25,-1.8455000000000001e-25,-1.8454499999999999e-25,-1.02793e-29,2.1087799999999999e-30,-7.3591999999999995e-29
2926.0,1.3784499999999999e-28,-1.84581e-25,-1.84581e-25,-1.84555e-25,3.0439000000000002e-30,-1.93141e-30,-7.8061500000000001e-29
2927.0,1.79064e-28,-1.84588e-25,-1.8465900000000001e-25,-1.8459599999999999e-25,-7.1157100000000004e-29,2.32448e-29,-5.9532499999999997e-29
2928.0,1.6963e-28,-1.8459599999999999e-25,-1.8464599999999999e-25,-1.8459499999999999e-25,-6.3811100000000002e-29,2.1682299999999999e-29,-6.4871900000000001e-29
2929.0,1.6482100000000001e-28,-1.8458599999999999e-25,-1.8462099999999999e-25,-1.8457500000000001e-25,-5.5077699999999995e-29,1.82497e-29,-7.1345499999999997e-29
2930.0,1.57264e-28,-1.8459499999999999e-25,-1.8461800000000001e-25,-1.8457700000000001e-25,-4.1617400000000001e-29,1.4890699999999999e-29,-7.6605699999999995e-29
2931.0,1.5057999999999999e-28,-1.8457799999999999e-25,-1.8459300000000001e-25,-1.8455399999999999e-25,-2.8327799999999998e-29,9.8275300000000001e-30,-7.9212099999999997e-29
2932.0,1.50113e-28,-1.84591e-25,-1.84606e-25,-1.8456099999999999e-25,-1.43933e-29,4.8973800000000001e-30,-8.2312599999999999e-29
2933.0,1.3946200000000001e-28,-1.84565e-25,-1.84573e-25,-1.8454200000000001e-25,8.86947e-31,-1.21092e-30,-7.8941399999999996e-29
2934.0,1.7796400000000001e-28,-1.8460000000000001e-25,-1.84672e-25,-1.8460200000000001e-25,-6.5385900000000001e-29,2.4760099999999999e-29,-6.3014200000000005e-29
2935.0,1.75975e-28,-1.8459399999999999e-25,-1.84657e-25,-1.84588e-25,-6.0245199999999996e-29,2.2932799999999999e-29,-6.8599200000000003e-29
2936.0,1.69756e-28,-1.8460100000000001e-25,-1.8465100000000001e-25,-1.8458599999999999e-25,-5.0561800000000004e-29,2.0638999999999999e-29,-7.3833299999999997e-29
2937.0,1.6545099999999999e-28,-1.84591e-25,-1.84633e-25,-1.8456700000000001e-25,-4.0486599999999998e-29,1.7084300000000001e-29,-7.79914e-29
2938.0,1.62624e-28,-1.84599e-25,-1.8463599999999999e-25,-1.8456899999999999e-25,-2.8633199999999998e-29,1.3045699999999999e-29,-8.1873099999999997e-29
2939.0,1.5603400000000001e-28,-1.84581e-25,-1.84613e-25,-1.8455000000000001e-25,-1.6152999999999999e-29,7.9450299999999997e-30,-8.2593200000000002e-29
2940.0,1.60384e-28,-1.84597e-25,-1.8463500000000001e-25,-1.84558e-25,-5.4742400000000001e-30,4.4584400000000002e-30,-8.3812300000000005e-29
2941.0,1.86801e-28,-1.84499e-25,-1.8459e-25,-1.8454e-25,-9.7569199999999997e-29,-1.8645399999999999e-31,-6.0477400000000001e-30
2942.0,1.7450100000000001e-28,-1.8451199999999999e-25,-1.8456899999999999e-25,-1.84549e-25,-9.6235099999999995e-29,-1.6792000000000001e-30,-6.7019300000000002e-30
2943.0,1.3440100000000001e-28,-1.8449200000000001e-25,-1.8448599999999999e-25,-1.8451099999999999e-25,-7.6393300000000002e-29,-1.34843e-30,-2.85617e-30
2944.0,1.15274e-28,-1.8450900000000001e-25,-1.84473e-25,-1.84524e-25,-6.1084499999999996e-29,-2.4897499999999999e-30,-4.7781899999999997e-30
2945.0,7.4750100000000003e-29,-1.8448e-25,-1.8441899999999999e-25,-1.84491e-25,-1.8977700000000001e-29,5.3221299999999998e-31,-6.12978e-31
2946.0,8.6878200000000003e-29,-1.84505e-25,-1.8442099999999999e-25,-1.8451000000000001e-25,1.6161200000000001e-30,-2.8100899999999999e-31,-1.33249e-30
2947.0,8.5401400000000004e-29,-1.84481e-25,-1.8441700000000001e-25,-1.8449e-25,2.8900700000000001e-29,-4.0676200000000003e-30,-1.26323e-30
2948.0,1.9230999999999999e-28,-1.8452099999999999e-25,-1.84616e-25,-1.8456199999999999e-25,-9.7741000000000005e-29,7.1505900000000002e-30,-2.0519699999999999e-29
2949.0,1.6700900000000001e-28,-1.8450299999999999e-25,-1.8454499999999999e-25,-1.84532e-25,-9.0840600000000003e-29,5.6921900000000002e-30,-2.3178299999999999e-29
2950.0,1.42867e-28,-1.8451800000000001e-25,-1.8451700000000001e-25,-1.8453599999999999e-25,-7.7713199999999999e-29,3.9950899999999998e-30,-2.5224e-29
2951.0,1.10785e-28,-1.8449300000000001e-25,-1.84458e-25,-1.8450399999999999e-25,-5.2103699999999999e-29,2.3257600000000002e-30,-2.7714199999999999e-29
2952.0,9.2923800000000004e-29,-1.8451099999999999e-25,-1.8445100000000001e-25,-1.84516e-25,-2.7022700000000001e-29,2.42177e-30,-2.91946e-29
2953.0,7.8959299999999999e-29,-1.84483e-25,-1.8441899999999999e-25,-1.8448599999999999e-25,5.8483399999999997e-30,-1.53215e-30,-2.4471e-29
2954.0,1.00796e-28,-1.8450000000000001e-25,-1.8443599999999999e-25,-1.8451099999999999e-25,2.8508899999999997e-29,-3.1104099999999999e-30,-3.0319799999999998e-29
2955.0,1.8981e-28,-1.84516e-25,-1.84606e-25,-1.8455100000000001e-25,-9.2571699999999998e-29,1.4183700000000001e-29,-3.4103699999999997e-29
2956.0,1.7038399999999999e-28,-1.8452700000000001e-25,-1.84572e-25,-1.84549e-25,-8.6975200000000004e-29,1.18106e-29,-3.8393699999999997e-29
2957.0,1.4810100000000001e-28,-1.8450900000000001e-25,-1.84516e-25,-1.84522e-25,-7.1831200000000005e-29,9.1331900000000002e-30,-4.5055100000000002e-29
2958.0,1.2561700000000001e-28,-1.84523e-25,-1.84497e-25,-1.8452500000000001e-25,-5.1155200000000001e-29,7.0385899999999999e-30,-4.8488199999999997e-29
2959.0,1.0687200000000001e-28,-1.8450000000000001e-25,-1.84458e-25,-1.84497e-25,-2.54135e-29,2.1121399999999999e-30,-5.1115800000000006e-29
2960.0,1.03911e-28,-1.84514e-25,-1.84466e-25,-1.8450900000000001e-25,-8.5871499999999994e-31,-2.22686e-31,-5.3966499999999994e-29
2961.0,9.30112e-29,-1.8448599999999999e-25,-1.84448e-25,-1.8448e-25,2.36163e-29,-5.3155000000000002e-30,-4.3382399999999999e-29
2962.0,1.89531e-28,-1.84538e-25,-1.8462500000000001e-25,-1.8456199999999999e-25,-8.68688e-29,1.91565e-29,-4.4742200000000001e-29
2963.0,1.75113e-28,-1.8452600000000001e-25,-1.8457700000000001e-25,-1.8454e-25,-8.0193799999999996e-29,1.6555500000000001e-29,-5.3032e-29
2964.0,1.5570399999999999e-28,-1.8453599999999999e-25,-1.8455200000000001e-25,-1.8453699999999999e-25,-6.6020599999999995e-29,1.3909199999999999e-29,-5.8711199999999995e-29
2965.0,1.4212400000000001e-28,-1.8451800000000001e-25,-1.84513e-25,-1.8451099999999999e-25,-4.82133e-29,8.9530899999999998e-30,-6.5698199999999996e-29
2966.0,1.29724e-28,-1.8452899999999999e-25,-1.8450900000000001e-25,-1.84516e-25,-2.58385e-29,5.0102700000000003e-30,-6.9365200000000005e-29
2967.0,1.2102599999999999e-28,-1.84505e-25,-1.84483e-25,-1.84489e-25,-4.7331000000000002e-30,-1.9067100000000002e-30,-6.87373e-29
2968.0,1.3385e-28,-1.8451999999999999e-25,-1.8450900000000001e-25,-1.84505e-25,1.4546100000000001e-29,-7.6772800000000002e-30,-7.5128500000000004e-29
2969.0,1.9127100000000001e-28,-1.84539e-25,-1.8463e-25,-1.84556e-25,-7.9716399999999997e-29,2.2901699999999999e-29,-5.4852900000000004e-29
2970.0,1.76958e-28,-1.84547e-25,-1.8460399999999999e-25,-1.8455100000000001e-25,-7.2320199999999995e-29,2.0364999999999999e-29,-6.1498200000000001e-29
2971.0,1.6785900000000001e-28,-1.8453599999999999e-25,-1.8456999999999999e-25,-1.8452899999999999e-25,-6.1002499999999996e-29,1.64631e-29,-7.0076399999999995e-29
2972.0,1.5507500000000001e-28,-1.8454300000000001e-25,-1.8455900000000001e-25,-1.8452700000000001e-25,-4.3945200000000003e-29,1.22815e-29,-7.5436800000000004e-29
2973.0,1.4884799999999999e-28,-1.8452600000000001e-25,-1.84533e-25,-1.8450299999999999e-25,-2.7394900000000003e-29,5.97277e-30,-7.96802e-29
2974.0,1.4697199999999999e-28,-1.8453599999999999e-25,-1.8454300000000001e-25,-1.8451099999999999e-25,-8.3951099999999994e-30,-2.50538e-32,-8.2780299999999998e-29
2975.0,1.3790899999999999e-28,-1.8451000000000001e-25,-1.8451800000000001e-25,-1.84488e-25,9.1303099999999996e-30,-5.9365000000000001e-30,-7.7306100000000002e-29
2976.0,1.8981399999999999e-28,-1.84556e-25,-1.8464599999999999e-25,-1.8456099999999999e-25,-7.2178699999999998e-29,2.49855e-29,-6.0156199999999995e-29
2977.0,1.84436e-28,-1.8455000000000001e-25,-1.8461999999999999e-25,-1.8454599999999999e-25,-6.6443500000000002e-29,2.2550300000000001e-29,-6.8396799999999997e-29
2978.0,1.73919e-28,-1.84555e-25,-1.84606e-25,-1.8454e-25,-5.4647200000000004e-29,1.9186599999999999e-29,-7.4543700000000002e-29
2979.0,1.6969e-28,-1.8454399999999999e-25,-1.8458400000000001e-25,-1.8451899999999999e-25,-4.28475e-29,1.44418e-29,-8.0530300000000005e-29
2980.0,1.6376000000000001e-28,-1.8455000000000001e-25,-1.84583e-25,-1.8451999999999999e-25,-2.69063e-29,8.82434e-30,-8.4482899999999999e-29
2981.0,1.5860100000000001e-28,-1.84532e-25,-1.84563e-25,-1.84498e-25,-1.28469e-29,2.9220200000000001e-30,-8.4698400000000005e-29
2982.0,1.6502699999999999e-28,-1.8454499999999999e-25,-1.8458699999999999e-25,-1.84507e-25,3.7401900000000002e-31,-2.8245699999999999e-30,-8.6384899999999999e-29
2983.0,1.9355500000000001e-28,-1.84557e-25,-1.84655e-25,-1.84558e-25,-6.7220900000000004e-29,2.6171000000000003e-29,-6.4237800000000002e-29
2984.0,1.86149e-28,-1.8456199999999999e-25,-1.8464399999999999e-25,-1.8455200000000001e-25,-6.0123500000000004e-29,2.4317800000000001e-29,-6.9498700000000001e-29
2985.0,1.8347999999999999e-28,-1.84556e-25,-1.8462799999999999e-25,-1.8453500000000001e-25,-5.20406e-29,2.14975e-29,-7.5542300000000005e-29
2986.0,1.78001e-28,-1.8456000000000001e-25,-1.84623e-25,-1.84531e-25,-4.0120899999999999e-29,1.7192500000000001e-29,-8.0357900000000002e-29
2987.0,1.74428e-28,-1.84548e-25,-1.84606e-25,-1.8451199999999999e-25,-2.8891899999999998e-29,1.2654199999999999e-29,-8.3063300000000002e-29
2988.0,1.7304699999999999e-28,-1.84555e-25,-1.84614e-25,-1.84516e-25,-1.6401e-29,6.45148e-30,-8.4942200000000005e-29
2989.0,1.6264499999999999e-28,-1.8453500000000001e-25,-1.84589e-25,-1.84498e-25,-4.5182799999999997e-30,8.1355199999999995e-31,-8.2056999999999996e-29
2990.0,2.1994799999999998e-28,-1.84455e-25,-1.8459399999999999e-25,-1.84506e-25,-1.05201e-28,-9.74759e-31,-7.5817e-30
2991.0,1.8335300000000001e-28,-1.84432e-25,-1.8450200000000001e-25,-1.84466e-25,-9.9846800000000003e-29,-1.6053299999999999e-30,-4.4461399999999997e-30
2992.0,1.52449e-28,-1.8444499999999999e-25,-1.8446099999999999e-25,-1.8446700000000001e-25,-8.7135600000000002e-29,-3.6382399999999997e-30,-4.0606100000000002e-30
2993.0,1.02942e-28,-1.8441800000000001e-25,-1.8439e-25,-1.84432e-25,-5.5368299999999995e-29,-1.04306e-30,-1.5967200000000002e-30
2994.0,8.4674200000000003e-29,-1.84438e-25,-1.8436800000000001e-25,-1.84441e-25,-2.6664900000000002e-29,-1.8960800000000001e-30,-3.9711399999999996e-31
2995.0,6.8081300000000004e-29,-1.8441199999999999e-25,-1.8435199999999999e-25,-1.84422e-25,9.8170500000000004e-30,-1.2909100000000001e-30,-2.1282900000000001e-30
2996.0,9.6439799999999996e-29,-1.8442099999999999e-25,-1.84366e-25,-1.8443599999999999e-25,4.1453300000000001e-29,4.2646200000000003e-30,9.6425200000000002e-31
2997.0,2.1129899999999999e-28,-1.84449e-25,-1.8457099999999999e-25,-1.8449300000000001e-25,-1.0239499999999999e-28,8.0078000000000003e-30,-2.1696800000000001e-29
2998.0,1.83113e-28,-1.8445900000000001e-25,-1.84523e-25,-1.84489e-25,-9.7709000000000004e-29,5.4485600000000002e-30,-2.3830400000000001e-29
2999.0,1.485e-28,-1.8443699999999999e-25,-1.84449e-25,-1.84456e-25,-8.0595300000000005e-29,3.9743300000000003e-30,-2.7380799999999998e-29
3000.0,1.1472600000000001e-28,-1.84449e-25,-1.8441700000000001e-25,-1.84456e-25,-5.5402499999999996e-29,2.4481599999999998e-30,-2.9390700000000001e-29
3001.0,8.5663999999999998e-29,-1.8442500000000001e-25,-1.84372e-25,-1.8442899999999999e-25,-2.2526e-29,-4.2493100000000001e-31,-3.0872599999999999e-29
3002.0,8.87143e-29,-1.84438e-25,-1.84373e-25,-1.8444200000000001e-25,8.8025500000000006e-30,-2.6957299999999998e-30,-3.2182900000000003e-29
3003.0,9.09331e-29,-1.84414e-25,-1.8437699999999999e-25,-1.8442099999999999e-25,3.4552199999999998e-29,-6.7740900000000002e-30,-3.0800599999999997e-29
3004.0,2.0961099999999998e-28,-1.84473e-25,-1.8459e-25,-1.8450900000000001e-25,-9.8046599999999996e-29,1.49369e-29,-3.50402e-29
3005.0,1.8461000000000001e-28,-1.8445900000000001e-25,-1.84523e-25,-1.84482e-25,-9.1570599999999999e-29,1.23087e-29,-4.2152000000000002e-29
3006.0,1.55292e-28,-1.8446700000000001e-25,-1.84483e-25,-1.8447500000000001e-25,-7.50723e-29,9.6989599999999995e-30,-4.7367999999999997e-29
3007.0,1.30493e-28,-1.8444599999999999e-25,-1.84431e-25,-1.84447e-25,-5.1483400000000001e-29,5.4382599999999997e-30,-5.4012799999999996e-29
3008.0,1.12626e-28,-1.84455e-25,-1.8441700000000001e-25,-1.84449e-25,-2.35331e-29,1.44416e-30,-5.7172900000000002e-29
3009.0,1.0486800000000001e-28,-1.84432e-25,-1.84397e-25,-1.8442500000000001e-25,5.3904900000000002e-30,-4.5151500000000002e-30,-5.7213999999999997e-29
3010.0,1.2120499999999999e-28,-1.84439e-25,-1.84415e-25,-1.8444300000000001e-25,3.0983400000000002e-29,-9.9419500000000001e-30,-6.0087900000000001e-29
3011.0,2.0887100000000001e-28,-1.8447799999999999e-25,-1.8459200000000001e-25,-1.84505e-25,-9.0999899999999995e-29,2.0689e-29,-4.7736400000000001e-29
3012.0,1.86588e-28,-1.8448500000000001e-25,-1.8455100000000001e-25,-1.8449599999999999e-25,-8.3494199999999998e-29,1.7846499999999999e-29,-5.5291200000000005e-29
3013.0,1.6818099999999999e-28,-1.8447099999999999e-25,-1.8450200000000001e-25,-1.8446999999999999e-25,-6.8941000000000003e-29,1.3539900000000001e-29,-6.4487900000000001e-29
3014.0,1.48763e-28,-1.8447600000000001e-25,-1.84481e-25,-1.84465e-25,-4.74156e-29,9.1744300000000003e-30,-7.0577999999999997e-29
3015.0,1.38869e-28,-1.84457e-25,-1.8445000000000001e-25,-1.84439e-25,-2.4725800000000001e-29,2.1005900000000002e-30,-7.5740500000000004e-29
3016.0,1.3632900000000001e-28,-1.84464e-25,-1.84457e-25,-1.84447e-25,9.2367800000000001e-32,-4.1054999999999998e-30,-7.8130699999999997e-29
3017.0,1.35484e-28,-1.84438e-25,-1.84448e-25,-1.8442099999999999e-25,2.0859200000000001e-29,-1.05218e-29,-7.33942e-29
3018.0,2.0706000000000001e-28,-1.8450000000000001e-25,-1.8461199999999999e-25,-1.84514e-25,-8.2564100000000001e-29,2.4616700000000001e-29,-5.6361500000000002e-29
3019.0,1.92992e-28,-1.8449300000000001e-25,-1.8456899999999999e-25,-1.8449499999999999e-25,-7.5623800000000005e-29,2.10511e-29,-6.6093000000000001e-29
3020.0,1.7734500000000001e-28,-1.84497e-25,-1.8454499999999999e-25,-1.8448500000000001e-25,-6.1365700000000004e-29,1.7157599999999999e-29,-7.3734500000000001e-29
3021.0,1.6913200000000001e-28,-1.84483e-25,-1.84515e-25,-1.8446099999999999e-25,-4.5070900000000001e-29,1.10139e-29,-8.1635200000000006e-29
3022.0,1.6077300000000001e-28,-1.8448699999999999e-25,-1.8451000000000001e-25,-1.8446000000000001e-25,-2.4886800000000001e-29,4.6626300000000002e-30,-8.5659199999999995e-29
3023.0,1.58981e-28,-1.8446700000000001e-25,-1.8449300000000001e-25,-1.8443599999999999e-25,-6.4361100000000004e-30,-2.9771699999999999e-30,-8.6929299999999996e-29
3024.0,1.6581700000000001e-28,-1.8447600000000001e-25,-1.84516e-25,-1.84448e-25,1.05055e-29,-1.09444e-29,-8.8069599999999997e-29
3025.0,2.0875000000000002e-28,-1.84508e-25,-1.84623e-25,-1.84513e-25,-7.4937800000000005e-29,2.67644e-29,-6.2681099999999996e-29
3026.0,1.9681999999999999e-28,-1.8451199999999999e-25,-1.84599e-25,-1.8450399999999999e-25,-6.7402100000000004e-29,2.3722799999999999e-29,-7.0707900000000002e-29
3027.0,1.90376e-28,-1.8450399999999999e-25,-1.84574e-25,-1.8448400000000001e-25,-5.6841399999999997e-29,1.9298500000000001e-29,-7.8953499999999998e-29
3028.0,1.82572e-28,-1.84507e-25,-1.84565e-25,-1.8447700000000001e-25,-4.18709e-29,1.4038499999999999e-29,-8.4656500000000002e-29
3029.0,1.80062e-28,-1.8449200000000001e-25,-1.84547e-25,-1.84455e-25,-2.7580899999999999e-29,7.1696700000000004e-30,-8.8633799999999998e-29
3030.0,1.78116e-28,-1.84498e-25,-1.84556e-25,-1.8445900000000001e-25,-1.16084e-29,3.1944599999999999e-32,-8.9847300000000002e-29
3031.0,1.7378300000000001e-28,-1.8447600000000001e-25,-1.84539e-25,-1.84438e-25,2.2081999999999999e-30,-5.9030199999999998e-30,-8.6213100000000002e-29
3032.0,2.08374e-28,-1.8452099999999999e-25,-1.84641e-25,-1.8451800000000001e-25,-6.7885199999999997e-29,2.7721200000000001e-29,-6.4460099999999997e-29
3033.0,2.0452799999999999e-28,-1.8451800000000001e-25,-1.84623e-25,-1.8450299999999999e-25,-6.2179699999999996e-29,2.5622200000000002e-29,-7.1628000000000001e-29
3034.0,1.98593e-28,-1.8451999999999999e-25,-1.84613e-25,-1.8449399999999999e-25,-5.2339299999999996e-29,2.1961700000000001e-29,-7.7461399999999999e-29
3035.0,1.95815e-28,-1.8451099999999999e-25,-1.84598e-25,-1.84474e-25,-4.1538399999999997e-29,1.72383e-29,-8.2173199999999995e-29
3036.0,1.9199100000000001e-28,-1.84513e-25,-1.84598e-25,-1.8447099999999999e-25,-2.8738699999999999e-29,1.12479e-29,-8.4829900000000004e-29
3037.0,1.88581e-28,-1.84499e-25,-1.84583e-25,-1.8445299999999999e-25,-1.6911199999999999e-29,5.0270500000000003e-30,-8.4883000000000005e-29
3038.0,1.91214e-28,-1.8451099999999999e-25,-1.8460299999999999e-25,-1.8446199999999999e-25,-5.9088300000000001e-30,-1.2793199999999999e-30,-8.3716399999999997e-29
3039.0,2.4357700000000002e-28,-1.8436700000000001e-25,-1.8454e-25,-1.8441800000000001e-25,-1.0879399999999999e-28,-4.2138199999999997e-31,-7.4931199999999999e-30
3040.0,2.0735000000000001e-28,-1.84373e-25,-1.8447700000000001e-25,-1.8440900000000001e-25,-1.07288e-28,-4.0419399999999997e-30,-5.5283e-30
3041.0,1.6105999999999999e-28,-1.8434200000000001e-25,-1.8438400000000001e-25,-1.84366e-25,-9.0497999999999996e-29,-2.1465900000000001e-30,-2.5842400000000002e-30
3042.0,1.1085499999999999e-28,-1.84355e-25,-1.8432899999999999e-25,-1.8436099999999999e-25,-6.1684099999999997e-29,-3.3555400000000003e-30,-3.4835600000000001e-31
3043.0,6.0684600000000002e-29,-1.8432699999999999e-25,-1.8428599999999999e-25,-1.8433599999999999e-25,-2.2976800000000001e-29,-1.24083e-30,-7.70187e-31
3044.0,6.7823599999999997e-29,-1.84339e-25,-1.84282e-25,-1.84346e-25,1.7210299999999999e-29,1.08659e-30,2.2368099999999999e-30
3045.0,8.8050199999999997e-29,-1.8432699999999999e-25,-1.8430399999999999e-25,-1.8434499999999999e-25,4.6281999999999998e-29,-3.3599799999999999e-30,-2.75382e-30
3046.0,2.37762e-28,-1.8439399999999999e-25,-1.8455200000000001e-25,-1.84439e-25,-1.0787100000000001e-28,7.6723500000000005e-30,-2.2396800000000001e-29
3047.0,2.0183300000000001e-28,-1.84372e-25,-1.84464e-25,-1.8440399999999999e-25,-1.03566e-28,5.6875599999999999e-30,-2.5728100000000001e-29
3048.0,1.5778400000000001e-28,-1.8437699999999999e-25,-1.84405e-25,-1.8439200000000001e-25,-8.5260300000000001e-29,3.5520700000000001e-30,-2.86926e-29
3049.0,1.1516199999999999e-28,-1.8435100000000001e-25,-1.8433699999999999e-25,-1.8435800000000001e-25,-5.71169e-29,1.29466e-30,-3.21809e-29
3050.0,8.4643499999999998e-29,-1.8435800000000001e-25,-1.8431099999999999e-25,-1.8435900000000001e-25,-2.1109300000000001e-29,-1.644e-30,-3.4299299999999999e-29
3051.0,7.8091699999999995e-29,-1.8433400000000001e-25,-1.84298e-25,-1.8434e-25,1.3884600000000001e-29,-4.7320800000000003e-30,-3.61678e-29
3052.0,1.0819399999999999e-28,-1.84339e-25,-1.8431899999999999e-25,-1.8435800000000001e-25,4.7963400000000003e-29,-5.7049000000000003e-30,-3.44761e-29
3053.0,2.33972e-28,-1.8440000000000001e-25,-1.84548e-25,-1.84438e-25,-1.03323e-28,1.5975500000000001e-29,-3.7536100000000002e-29
3054.0,1.9941499999999999e-28,-1.8440399999999999e-25,-1.84488e-25,-1.84424e-25,-9.5954599999999999e-29,1.31332e-29,-4.3867199999999998e-29
3055.0,1.6809799999999999e-28,-1.8438400000000001e-25,-1.8441999999999999e-25,-1.8439200000000001e-25,-7.9091499999999999e-29,9.4367700000000007e-30,-5.2121600000000001e-29
3056.0,1.3629700000000001e-28,-1.8438599999999999e-25,-1.84382e-25,-1.84382e-25,-5.2737000000000001e-29,4.8142099999999999e-30,-5.8157599999999997e-29
3057.0,1.1667200000000001e-28,-1.84364e-25,-1.8434499999999999e-25,-1.84356e-25,-2.1145200000000001e-29,-1.0239899999999999e-30,-6.3249300000000003e-29
3058.0,1.16743e-28,-1.8436700000000001e-25,-1.84347e-25,-1.8436199999999999e-25,1.02654e-29,-7.7053100000000002e-30,-6.5367599999999995e-29
3059.0,1.30241e-28,-1.8434499999999999e-25,-1.84357e-25,-1.8434300000000001e-25,3.5894099999999998e-29,-1.3467800000000001e-29,-6.4233999999999998e-29
3060.0,2.2999700000000001e-28,-1.8442799999999999e-25,-1.8456800000000001e-25,-1.8445299999999999e-25,-9.5228700000000004e-29,2.2340699999999999e-29,-4.9670900000000001e-29
3061.0,2.0424699999999999e-28,-1.8441700000000001e-25,-1.84505e-25,-1.8442700000000001e-25,-8.7641100000000002e-29,1.82714e-29,-5.9627500000000001e-29
3062.0,1.7984200000000001e-28,-1.8441700000000001e-25,-1.84466e-25,-1.84413e-25,-7.0697500000000001e-29,1.4047300000000001e-29,-6.8651199999999999e-29
3063.0,1.62591e-28,-1.84399e-25,-1.84422e-25,-1.8438400000000001e-25,-4.8995399999999998e-29,7.4074200000000005e-30,-7.7402100000000005e-29
3064.0,1.50409e-28,-1.8440000000000001e-25,-1.8441099999999999e-25,-1.8438e-25,-2.2147500000000001e-29,2.2599900000000002e-31,-8.2448199999999999e-29
3065.0,1.51273e-28,-1.8437899999999999e-25,-1.84398e-25,-1.84357e-25,2.8677899999999999e-30,-8.0267999999999995e-30,-8.4381499999999999e-29
3066.0,1.6010300000000001e-28,-1.8438300000000001e-25,-1.8441899999999999e-25,-1.84371e-25,2.5879100000000001e-29,-1.6418800000000001e-29,-8.3612399999999994e-29
3067.0,2.2883200000000002e-28,-1.8444300000000001e-25,-1.84581e-25,-1.84456e-25,-8.6402699999999995e-29,2.6058100000000002e-29,-5.9183800000000003e-29
3068.0,2.0875200000000002e-28,-1.8444499999999999e-25,-1.8454200000000001e-25,-1.8444200000000001e-25,-7.7826499999999998e-29,2.2296500000000001e-29,-6.9168300000000002e-29
3069.0,1.9507700000000001e-28,-1.8443400000000001e-25,-1.8450200000000001e-25,-1.8441800000000001e-25,-6.3989100000000005e-29,1.6926700000000001e-29,-7.9269400000000005e-29
3070.0,1.8336e-28,-1.84433e-25,-1.8448400000000001e-25,-1.84406e-25,-4.5066500000000002e-29,1.0399999999999999e-29,-8.6467000000000005e-29
3071.0,1.7965899999999999e-28,-1.84416e-25,-1.84463e-25,-1.84381e-25,-2.4846600000000001e-29,2.12891e-30,-9.1992899999999999e-29
3072.0,1.78391e-28,-1.8441899999999999e-25,-1.84472e-25,-1.8438400000000001e-25,-4.43315e-30,-6.53453e-30,-9.2782400000000003e-29
3073.0,1.86036e-28,-1.8439599999999999e-25,-1.8446999999999999e-25,-1.8436099999999999e-25,1.23458e-29,-1.3565599999999999e-29,-8.9952100000000002e-29
3074.0,2.2791100000000001e-28,-1.84465e-25,-1.84605e-25,-1.84465e-25,-7.6998899999999996e-29,2.84066e-29,-6.4018399999999996e-29
3075.0,2.15886e-28,-1.8446000000000001e-25,-1.8457099999999999e-25,-1.84447e-25,-6.9842400000000003e-29,2.4661400000000001e-29,-7.3763699999999997e-29
3076.0,2.0688399999999998e-28,-1.8445900000000001e-25,-1.8455100000000001e-25,-1.8443400000000001e-25,-5.7699300000000001e-29,1.9737800000000001e-29,-8.1908999999999997e-29
3077.0,2.0241899999999999e-28,-1.84448e-25,-1.8453e-25,-1.8441000000000001e-25,-4.3518300000000001e-29,1.2990099999999999e-29,-8.8695300000000003e-29
3078.0,1.98511e-28,-1.84448e-25,-1.8452799999999999e-25,-1.84405e-25,-2.6971500000000002e-29,5.4995700000000002e-30,-9.1797300000000004e-29
3079.0,2.00109e-28,-1.84431e-25,-1.8451800000000001e-25,-1.8438400000000001e-25,-1.21419e-29,-2.69208e-30,-9.2277199999999999e-29
3080.0,2.0127800000000001e-28,-1.84439e-25,-1.8454e-25,-1.8439399999999999e-25,7.2769300000000004e-31,-1.13839e-29,-8.85428e-29
3081.0,2.2955800000000001e-28,-1.8447500000000001e-25,-1.8462099999999999e-25,-1.8446800000000001e-25,-7.0096999999999996e-29,2.9392600000000003e-29,-6.5699500000000003e-29
3082.0,2.2343399999999999e-28,-1.8447500000000001e-25,-1.84605e-25,-1.84456e-25,-6.36302e-29,2.6578300000000002e-29,-7.2748200000000001e-29
3083.0,2.2e-28,-1.8446999999999999e-25,-1.84589e-25,-1.8443699999999999e-25,-5.4146500000000005e-29,2.2307000000000001e-29,-7.9324399999999997e-29
3084.0,2.1663700000000002e-28,-1.8446899999999999e-25,-1.84583e-25,-1.8442600000000001e-25,-4.2583900000000002e-29,1.6801e-29,-8.3439700000000005e-29
3085.0,2.1553399999999999e-28,-1.84458e-25,-1.8457099999999999e-25,-1.84406e-25,-3.0520700000000002e-29,9.98342e-30,-8.5705199999999999e-29
3086.0,2.1320099999999998e-28,-1.8446099999999999e-25,-1.8457899999999999e-25,-1.8440800000000001e-25,-1.8429900000000001e-29,2.43336e-30,-8.4587400000000001e-29
3087.0,2.0809199999999998e-28,-1.8444499999999999e-25,-1.84566e-25,-1.8439300000000001e-25,-8.2183700000000003e-30,-2.90871e-30,-8.03332e-29
3088.0,2.8265000000000002e-28,-1.84296e-25,-1.84523e-25,-1.8435000000000001e-25,-1.11846e-28,-3.7658799999999999e-30,-9.6547199999999993e-30
3089.0,2.4464600000000001e-28,-1.8425800000000001e-25,-1.8441700000000001e-25,-1.84299e-25,-1.1452699999999999e-28,-2.7952600000000001e-30,-6.1642699999999998e-30
3090.0,1.7887399999999999e-28,-1.8425800000000001e-25,-1.8432799999999999e-25,-1.84274e-25,-9.6264300000000002e-29,-5.0586100000000002e-30,-2.9683200000000001e-30
3091.0,1.1801100000000001e-28,-1.8421800000000001e-25,-1.8424499999999999e-25,-1.8422899999999999e-25,-6.6681099999999996e-29,-2.89166e-30,-1.55386e-30
3092.0,4.4726300000000002e-29,-1.8422500000000001e-25,-1.8420100000000001e-25,-1.84223e-25,-2.2042699999999999e-29,-1.0080899999999999e-30,1.62368e-30
3093.0,3.6982999999999998e-29,-1.8420399999999999e-25,-1.84199e-25,-1.84216e-25,1.9382800000000001e-29,-9.4319499999999994e-31,-1.17321e-30
3094.0,1.02489e-28,-1.8421000000000001e-25,-1.8423400000000001e-25,-1.8423699999999999e-25,5.6971100000000001e-29,5.3275500000000003e-30,1.1489e-30
3095.0,2.73548e-28,-1.8430100000000001e-25,-1.84505e-25,-1.84349e-25,-1.1320599999999999e-28,8.6113700000000002e-30,-2.4469700000000001e-29
3096.0,2.2650300000000001e-28,-1.84298e-25,-1.8442700000000001e-25,-1.8432799999999999e-25,-1.0834200000000001e-28,5.67008e-30,-2.7357100000000001e-29
3097.0,1.8037900000000001e-28,-1.84266e-25,-1.8433300000000001e-25,-1.84282e-25,-9.2823499999999998e-29,3.5954199999999998e-30,-3.1062299999999999e-29
3098.0,1.20905e-28,-1.8426000000000001e-25,-1.8426999999999999e-25,-1.8426199999999999e-25,-6.0386500000000001e-29,4.0222299999999996e-31,-3.4642199999999998e-29
3099.0,7.6353199999999994e-29,-1.84231e-25,-1.84224e-25,-1.84232e-25,-2.1821600000000001e-29,-2.2589599999999999e-30,-3.7984099999999998e-29
3100.0,7.7115799999999996e-29,-1.8423300000000001e-25,-1.8422500000000001e-25,-1.8424e-25,2.0556e-29,-6.2071200000000002e-30,-3.8243800000000002e-29
3101.0,1.16467e-28,-1.84215e-25,-1.8425299999999999e-25,-1.8423400000000001e-25,4.9123900000000001e-29,-1.1227e-29,-4.0147500000000003e-29
3102.0,2.6232e-28,-1.8433400000000001e-25,-1.8451999999999999e-25,-1.84371e-25,-1.0683799999999999e-28,1.75058e-29,-3.87148e-29
3103.0,2.2694299999999999e-28,-1.84315e-25,-1.8443699999999999e-25,-1.8433500000000001e-25,-1.02096e-28,1.37822e-29,-4.73443e-29
3104.0,1.8641599999999999e-28,-1.84307e-25,-1.84373e-25,-1.8431099999999999e-25,-8.3800599999999996e-29,9.4797799999999997e-30,-5.55642e-29
3105.0,1.50635e-28,-1.8427899999999999e-25,-1.8430900000000001e-25,-1.84272e-25,-5.5866699999999999e-29,4.1426400000000003e-30,-6.3679800000000006e-29
3106.0,1.2654700000000001e-28,-1.84274e-25,-1.8428400000000001e-25,-1.84263e-25,-2.1473e-29,-3.59739e-30,-6.8964300000000002e-29
3107.0,1.3114799999999999e-28,-1.8425199999999999e-25,-1.8427699999999999e-25,-1.8424399999999999e-25,1.26868e-29,-1.00023e-29,-7.1885800000000004e-29
3108.0,1.5047999999999999e-28,-1.8425100000000001e-25,-1.84305e-25,-1.8426099999999999e-25,4.10452e-29,-1.70528e-29,-6.8862900000000002e-29
3109.0,2.5771799999999999e-28,-1.84356e-25,-1.84531e-25,-1.8437899999999999e-25,-9.94658e-29,2.35337e-29,-5.1960700000000004e-29
3110.0,2.28262e-28,-1.8435299999999999e-25,-1.8447500000000001e-25,-1.8436000000000001e-25,-9.14095e-29,2.0070900000000001e-29,-6.2490399999999998e-29
3111.0,2.0281899999999998e-28,-1.8433300000000001e-25,-1.84413e-25,-1.84324e-25,-7.5721600000000003e-29,1.4219600000000001e-29,-7.3331199999999996e-29
3112.0,1.81461e-28,-1.8432600000000001e-25,-1.8437899999999999e-25,-1.84305e-25,-5.1191199999999996e-29,6.8499300000000002e-30,-8.2638699999999995e-29
3113.0,1.72254e-28,-1.8430299999999999e-25,-1.8435000000000001e-25,-1.8427600000000001e-25,-2.3599399999999999e-29,-2.0407100000000001e-30,-8.9072399999999997e-29
3114.0,1.7327399999999999e-28,-1.8430199999999999e-25,-1.8435800000000001e-25,-1.8427899999999999e-25,4.0995000000000003e-30,-1.215e-29,-9.0388400000000006e-29
3115.0,1.94425e-28,-1.8428e-25,-1.84374e-25,-1.8425800000000001e-25,2.3859799999999999e-29,-2.07089e-29,-8.8309600000000004e-29
3116.0,2.5377399999999998e-28,-1.8439e-25,-1.8455900000000001e-25,-1.84399e-25,-8.8991899999999995e-29,2.84003e-29,-6.0563300000000003e-29
3117.0,2.3308899999999998e-28,-1.8438e-25,-1.84508e-25,-1.84374e-25,-8.1251199999999995e-29,2.3498599999999999e-29,-7.2122199999999997e-29
3118.0,2.18302e-28,-1.84373e-25,-1.84474e-25,-1.8435199999999999e-25,-6.7077399999999999e-29,1.7693700000000001e-29,-8.2563899999999999e-29
3119.0,2.0827999999999999e-28,-1.84356e-25,-1.8444e-25,-1.84322e-25,-4.77158e-29,9.6755199999999993e-30,-9.1498200000000004e-29
3120.0,2.0368199999999998e-28,-1.8435199999999999e-25,-1.8443500000000001e-25,-1.8431099999999999e-25,-2.6300399999999998e-29,1.30684e-32,-9.5786499999999998e-29
3121.0,2.0981799999999999e-28,-1.8433300000000001e-25,-1.8443e-25,-1.8429e-25,-6.0707100000000002e-30,-9.5755699999999998e-30,-9.6899800000000003e-29
3122.0,2.1069900000000001e-28,-1.8433699999999999e-25,-1.8445299999999999e-25,-1.8430299999999999e-25,9.97653e-30,-1.9758699999999999e-29,-9.0471299999999997e-29
3123.0,2.5196000000000001e-28,-1.8441199999999999e-25,-1.84582e-25,-1.8440900000000001e-25,-7.91526e-29,3.0162200000000001e-29,-6.4725699999999998e-29
3124.0,2.4081899999999999e-28,-1.8440900000000001e-25,-1.8455100000000001e-25,-1.84391e-25,-7.2382100000000004e-29,2.62938e-29,-7.5292700000000005e-29
3125.0,2.3234100000000002e-28,-1.84398e-25,-1.84522e-25,-1.84366e-25,-6.0891599999999998e-29,2.0286500000000001e-29,-8.4087400000000004e-29
3126.0,2.28045e-28,-1.8439300000000001e-25,-1.8451000000000001e-25,-1.84349e-25,-4.5718599999999999e-29,1.3057000000000001e-29,-9.03696e-29
3127.0,2.28126e-28,-1.8437799999999999e-25,-1.8449599999999999e-25,-1.8432600000000001e-25,-2.9981200000000003e-29,3.72474e-30,-9.3812400000000001e-29
3128.0,2.2683300000000001e-28,-1.8438e-25,-1.84507e-25,-1.8432699999999999e-25,-1.48406e-29,-5.4672499999999999e-30,-9.1372600000000002e-29
3129.0,2.3691900000000001e-28,-1.84363e-25,-1.8451000000000001e-25,-1.8430800000000001e-25,-3.2575600000000002e-30,-1.2278e-29,-8.7532400000000004e-29
3130.0,2.5186499999999998e-28,-1.84431e-25,-1.84607e-25,-1.8441999999999999e-25,-7.1204900000000004e-29,3.10977e-29,-6.4319800000000001e-29
3131.0,2.4719200000000001e-28,-1.8442600000000001e-25,-1.8458699999999999e-25,-1.8440200000000001e-25,-6.5133800000000004e-29,2.8075600000000001e-29,-7.1853600000000001e-29
3132.0,2.4517500000000002e-28,-1.8442099999999999e-25,-1.84574e-25,-1.8438300000000001e-25,-5.6518799999999996e-29,2.34739e-29,-7.8261499999999995e-29
3133.0,2.44066e-28,-1.8441099999999999e-25,-1.8455900000000001e-25,-1.8436000000000001e-25,-4.5173199999999998e-29,1.6537000000000001e-29,-8.2658700000000001e-29
3134.0,2.4289500000000001e-28,-1.8440900000000001e-25,-1.8456000000000001e-25,-1.8435199999999999e-25,-3.3184000000000002e-29,9.2969399999999995e-30,-8.3026799999999996e-29
3135.0,2.4379499999999999e-28,-1.84397e-25,-1.8455399999999999e-25,-1.8433599999999999e-25,-2.26027e-29,9.2118699999999995e-31,-8.1467999999999997e-29
3136.0,2.3925699999999999e-28,-1.8440800000000001e-25,-1.84572e-25,-1.84348e-25,-1.3584900000000001e-29,-7.8509700000000001e-30,-7.3996700000000002e-29
3137.0,3.4097499999999999e-28,-1.8418500000000001e-25,-1.8448699999999999e-25,-1.84247e-25,-1.1486899999999999e-28,-6.3247599999999996e-31,-1.2448100000000001e-29
3138.0,2.8816600000000002e-28,-1.84163e-25,-1.84389e-25,-1.84199e-25,-1.1371299999999999e-28,-4.7169199999999998e-30,-9.2475399999999998e-30
3139.0,2.47396e-28,-1.8409499999999999e-25,-1.8426700000000001e-25,-1.8411999999999999e-25,-1.0829099999999999e-28,-4.3772300000000002e-30,-7.0961500000000006e-30
3140.0,1.53853e-28,-1.8407500000000001e-25,-1.84163e-25,-1.84074e-25,-7.2491300000000002e-29,-2.86079e-30,-2.5650999999999999e-30
3141.0,9.0172800000000003e-29,-1.84031e-25,-1.84106e-25,-1.8403599999999999e-25,-3.0789600000000001e-29,-1.8604900000000001e-30,-2.97875e-30
3142.0,7.1935300000000003e-29,-1.8403599999999999e-25,-1.84106e-25,-1.8404499999999999e-25,1.5838799999999999e-29,1.9755100000000001e-30,-5.6333e-31
3143.0,1.3623000000000001e-28,-1.8404100000000001e-25,-1.8416099999999999e-25,-1.84072e-25,4.7527400000000002e-29,-9.91034e-31,-5.0092099999999998e-30
3144.0,3.12229e-28,-1.8422500000000001e-25,-1.8448599999999999e-25,-1.84274e-25,-1.11958e-28,9.0083799999999994e-30,-2.5318199999999999e-29
3145.0,2.8190400000000001e-28,-1.8417899999999999e-25,-1.8438599999999999e-25,-1.84213e-25,-1.15025e-28,6.5500400000000004e-30,-2.9068900000000002e-29
3146.0,2.2366700000000001e-28,-1.84148e-25,-1.8428400000000001e-25,-1.8415900000000001e-25,-9.91502e-29,3.4267200000000001e-30,-3.3694099999999998e-29
3147.0,1.6509e-28,-1.84096e-25,-1.8418699999999999e-25,-1.84097e-25,-6.9682500000000005e-29,8.30243e-31,-3.8825500000000002e-29
3148.0,1.0750499999999999e-28,-1.8407899999999999e-25,-1.8414e-25,-1.8407500000000001e-25,-2.6704900000000003e-29,-3.8546799999999997e-30,-4.2125899999999998e-29
3149.0,1.1379399999999999e-28,-1.84055e-25,-1.84138e-25,-1.8406199999999999e-25,1.1489700000000001e-29,-8.6883200000000005e-30,-4.4606299999999998e-29
3150.0,1.5435600000000001e-28,-1.84064e-25,-1.8418500000000001e-25,-1.84091e-25,4.5887000000000002e-29,-9.8154800000000006e-30,-4.09535e-29
3151.0,3.0412100000000002e-28,-1.84248e-25,-1.84488e-25,-1.8428699999999999e-25,-1.1029e-28,1.88095e-29,-4.0523500000000002e-29
3152.0,2.6998899999999998e-28,-1.8422699999999999e-25,-1.84413e-25,-1.84246e-25,-1.0606e-28,1.5635699999999999e-29,-4.8013099999999998e-29
3153.0,2.32638e-28,-1.8418300000000001e-25,-1.8431899999999999e-25,-1.8418500000000001e-25,-9.2192000000000002e-29,1.13701e-29,-5.7631600000000002e-29
3154.0,1.9027199999999999e-28,-1.84156e-25,-1.8425199999999999e-25,-1.8414300000000001e-25,-6.3411600000000002e-29,4.2805299999999997e-30,-6.6950099999999997e-29
3155.0,1.6865099999999999e-28,-1.84121e-25,-1.8420900000000001e-25,-1.8410399999999999e-25,-2.8343600000000002e-29,-3.8323199999999999e-30,-7.4016199999999997e-29
3156.0,1.68173e-28,-1.84115e-25,-1.84216e-25,-1.84106e-25,5.4504799999999999e-30,-1.4103400000000001e-29,-7.4023300000000006e-29
3157.0,2.0390599999999999e-28,-1.84105e-25,-1.8425299999999999e-25,-1.8410399999999999e-25,3.0222299999999998e-29,-2.17406e-29,-7.1844499999999995e-29
3158.0,2.9326800000000001e-28,-1.84291e-25,-1.84515e-25,-1.84314e-25,-1.00552e-28,2.66095e-29,-5.1966199999999997e-29
3159.0,2.6934999999999998e-28,-1.84266e-25,-1.8444599999999999e-25,-1.84271e-25,-9.6096600000000005e-29,2.24286e-29,-6.2511299999999996e-29
3160.0,2.4493400000000002e-28,-1.84241e-25,-1.8438500000000001e-25,-1.8422799999999999e-25,-8.1560100000000001e-29,1.63614e-29,-7.4270899999999997e-29
3161.0,2.23835e-28,-1.8420800000000001e-25,-1.8432799999999999e-25,-1.8418e-25,-5.7893399999999999e-29,8.2415999999999993e-30,-8.4369699999999995e-29
3162.0,2.1440200000000002e-28,-1.8419300000000001e-25,-1.8431000000000001e-25,-1.8416000000000001e-25,-3.0238000000000001e-29,-3.4751299999999997e-30,-9.05326e-29
3163.0,2.2381200000000001e-28,-1.84172e-25,-1.8431000000000001e-25,-1.8414e-25,-5.63485e-30,-1.4522299999999999e-29,-9.1220899999999995e-29
3164.0,2.3132299999999998e-28,-1.8417899999999999e-25,-1.8434300000000001e-25,-1.8416099999999999e-25,1.5015600000000001e-29,-2.3785499999999999e-29,-8.34369e-29
3165.0,2.8452500000000002e-28,-1.8432899999999999e-25,-1.8454e-25,-1.8433599999999999e-25,-8.9993199999999997e-29,3.0630399999999999e-29,-6.0006999999999995e-29
3166.0,2.7150199999999999e-28,-1.84313e-25,-1.8449599999999999e-25,-1.8430399999999999e-25,-8.4929499999999997e-29,2.6083100000000001e-29,-7.0548199999999995e-29
3167.0,2.5712099999999998e-28,-1.8429e-25,-1.8444599999999999e-25,-1.84263e-25,-7.1993599999999999e-29,2.0236400000000001e-29,-8.1266399999999999e-29
3168.0,2.4932999999999999e-28,-1.84273e-25,-1.8441899999999999e-25,-1.84232e-25,-5.3683799999999999e-29,1.06271e-29,-8.9959999999999995e-29
3169.0,2.49122e-28,-1.8425199999999999e-25,-1.8440000000000001e-25,-1.8420299999999999e-25,-3.2964100000000003e-29,-1.04786e-31,-9.4761300000000003e-29
3170.0,2.5102900000000001e-28,-1.8425000000000001e-25,-1.84413e-25,-1.8420199999999999e-25,-1.5007199999999999e-29,-1.2285599999999999e-29,-9.1738999999999996e-29
3171.0,2.7255600000000002e-28,-1.84239e-25,-1.84433e-25,-1.84188e-25,-2.9325000000000001e-30,-2.1076399999999999e-29,-8.67417e-29
3172.0,2.8145299999999998e-28,-1.84363e-25,-1.8457099999999999e-25,-1.84357e-25,-8.0803599999999997e-29,3.1752199999999998e-29,-6.3488599999999997e-29
3173.0,2.7076299999999999e-28,-1.8435199999999999e-25,-1.84538e-25,-1.84331e-25,-7.44159e-29,2.8915700000000003e-29,-7.1351599999999995e-29
3174.0,2.6750299999999999e-28,-1.84338e-25,-1.8451199999999999e-25,-1.8430100000000001e-25,-6.4480999999999995e-29,2.23152e-29,-8.0529900000000001e-29
3175.0,2.6478199999999998e-28,-1.84321e-25,-1.84489e-25,-1.8426999999999999e-25,-5.0409500000000002e-29,1.4142799999999999e-29,-8.6289200000000005e-29
3176.0,2.65874e-28,-1.84315e-25,-1.84489e-25,-1.84256e-25,-3.5407599999999999e-29,4.0694800000000003e-30,-8.7534600000000003e-29
3177.0,2.7349500000000001e-28,-1.8430100000000001e-25,-1.8449e-25,-1.84238e-25,-2.30562e-29,-6.2333300000000001e-30,-8.5071000000000005e-29
3178.0,2.64063e-28,-1.8431199999999999e-25,-1.8450900000000001e-25,-1.84257e-25,-1.3916500000000001e-29,-1.50697e-29,-7.2503600000000005e-29
3179.0,2.76166e-28,-1.8439e-25,-1.8459599999999999e-25,-1.8437500000000001e-25,-7.2181500000000003e-29,3.47302e-29,-6.1841299999999997e-29
3180.0,2.7637800000000002e-28,-1.8437899999999999e-25,-1.8457600000000001e-25,-1.8435100000000001e-25,-6.8385899999999996e-29,2.9505400000000002e-29,-6.9582699999999998e-29
3181.0,2.7359300000000001e-28,-1.8436999999999999e-25,-1.8455900000000001e-25,-1.8432600000000001e-25,-5.9199899999999998e-29,2.4825899999999999e-29,-7.4180699999999996e-29
3182.0,2.7501200000000001e-28,-1.8436099999999999e-25,-1.8455000000000001e-25,-1.8430399999999999e-25,-4.8730300000000002e-29,1.80092e-29,-7.71315e-29
3183.0,2.7697499999999998e-28,-1.8435000000000001e-25,-1.8454399999999999e-25,-1.8428500000000001e-25,-3.7930300000000001e-29,8.8977400000000004e-30,-7.7247900000000001e-29
3184.0,2.7349799999999998e-28,-1.8435199999999999e-25,-1.8455200000000001e-25,-1.8428699999999999e-25,-2.8572799999999998e-29,1.76416e-31,-7.0678199999999996e-29
3185.0,2.7913299999999998e-28,-1.8434499999999999e-25,-1.84555e-25,-1.8427600000000001e-25,-2.1846399999999999e-29,-4.7050800000000002e-30,-6.6421999999999998e-29
3186.0,2.06595e-28,-1.84081e-25,-1.8426700000000001e-25,-1.8412500000000001e-25,6.1648300000000004e-29,1.6404299999999999e-29,2.7044900000000001e-29
3187.0,1.4795300000000001e-28,-1.8423400000000001e-25,-1.8431000000000001e-25,-1.8426899999999999e-25,6.9097400000000005e-29,1.7840499999999999e-29,2.73941e-29
3188.0,1.3564500000000001e-28,-1.8432699999999999e-25,-1.84356e-25,-1.84356e-25,6.9549999999999996e-29,8.5279099999999998e-30,3.0939199999999999e-29
3189.0,1.1238899999999999e-28,-1.8442700000000001e-25,-1.8440399999999999e-25,-1.8444499999999999e-25,5.6024399999999998e-29,1.07387e-29,2.29878e-29
3190.0,9.98476e-29,-1.84472e-25,-1.84439e-25,-1.8448699999999999e-25,4.7387900000000003e-29,3.7512300000000001e-30,2.2010299999999999e-29
3191.0,1.16385e-28,-1.8456099999999999e-25,-1.8447899999999999e-25,-1.8456800000000001e-25,4.0932600000000002e-29,2.9862700000000001e-30,1.95876e-29
3192.0,1.29282e-28,-1.84533e-25,-1.8443e-25,-1.8454399999999999e-25,-1.6289199999999999e-29,2.21525e-29,-2.89519e-29
3193.0,2.2099199999999998e-28,-1.8414399999999999e-25,-1.84357e-25,-1.84199e-25,5.8507300000000001e-29,1.92694e-29,1.50551e-29
3194.0,1.8742e-28,-1.84239e-25,-1.8437500000000001e-25,-1.8429300000000001e-25,7.8971300000000005e-29,1.3958499999999999e-29,2.3436699999999999e-29
3195.0,1.4703299999999999e-28,-1.8435199999999999e-25,-1.8440800000000001e-25,-1.8438699999999999e-25,7.6250299999999997e-29,1.3000300000000001e-29,2.02577e-29
3196.0,1.3092199999999999e-28,-1.8440399999999999e-25,-1.8443500000000001e-25,-1.8443699999999999e-25,6.9221799999999996e-29,8.3829000000000006e-30,2.24215e-29
3197.0,1.20348e-28,-1.84499e-25,-1.8447700000000001e-25,-1.84515e-25,6.4041699999999995e-29,5.84542e-30,1.83138e-29
3198.0,7.1479099999999999e-29,-1.84506e-25,-1.8448e-25,-1.8452799999999999e-25,3.1155099999999998e-29,9.1786400000000003e-30,7.8773900000000005e-30
3199.0,1.23422e-28,-1.8459200000000001e-25,-1.8459499999999999e-25,-1.84624e-25,5.8245199999999995e-29,3.5790200000000003e-30,3.6891000000000001e-29
3200.0,2.4305700000000001e-28,-1.84181e-25,-1.8443e-25,-1.84249e-25,5.3782400000000005e-29,1.4589499999999999e-29,1.0171e-29
3201.0,1.86201e-28,-1.84288e-25,-1.84441e-25,-1.8434200000000001e-25,7.18359e-29,1.3796099999999999e-29,1.2916599999999999e-29
3202.0,1.69528e-28,-1.84341e-25,-1.8445299999999999e-25,-1.8439300000000001e-25,7.76227e-29,1.11921e-29,1.73198e-29
3203.0,1.42426e-28,-1.8443599999999999e-25,-1.8448400000000001e-25,-1.8446800000000001e-25,7.6611999999999996e-29,7.6109599999999997e-30,1.5403400000000001e-29
3204.0,1.1051300000000001e-28,-1.8446199999999999e-25,-1.84488e-25,-1.8449200000000001e-25,5.9659700000000004e-29,7.8347999999999997e-30,1.38036e-29
3205.0,1.3114e-28,-1.8454300000000001e-25,-1.84555e-25,-1.8456899999999999e-25,7.1699500000000004e-29,4.0804200000000001e-30,2.0160300000000001e-29
3206.0,1.0102299999999999e-28,-1.8456999999999999e-25,-1.84514e-25,-1.8456800000000001e-25,4.9040800000000002e-29,9.0476300000000008e-31,-3.1057699999999998e-31
3207.0,2.2021800000000001e-28,-1.8425900000000001e-25,-1.84489e-25,-1.84314e-25,4.0959300000000001e-29,1.1537000000000001e-29,2.4756100000000001e-30
3208.0,2.0239700000000002e-28,-1.84298e-25,-1.8448599999999999e-25,-1.8436000000000001e-25,6.5588600000000005e-29,1.08515e-29,9.2266400000000002e-30
3209.0,1.6441100000000001e-28,-1.8438599999999999e-25,-1.8450399999999999e-25,-1.8443e-25,7.2726899999999999e-29,8.0782600000000004e-30,1.04452e-29
3210.0,1.4453499999999999e-28,-1.8441700000000001e-25,-1.8450200000000001e-25,-1.84457e-25,7.0362599999999997e-29,7.9739400000000002e-30,1.15191e-29
3211.0,1.4172799999999999e-28,-1.8449599999999999e-25,-1.8454599999999999e-25,-1.8452600000000001e-25,7.6386500000000002e-29,4.3476900000000002e-30,1.3673899999999999e-29
3212.0,1.08283e-28,-1.84522e-25,-1.84523e-25,-1.8453500000000001e-25,6.1490799999999996e-29,3.1756499999999997e-30,7.94731e-30
3213.0,1.2059999999999999e-28,-1.8458400000000001e-25,-1.8459599999999999e-25,-1.84608e-25,6.5565699999999999e-29,4.7937399999999999e-30,1.95995e-29
3214.0,2.2137e-28,-1.8428699999999999e-25,-1.8451999999999999e-25,-1.8434200000000001e-25,3.8476800000000002e-29,7.7910099999999997e-30,9.7044000000000003e-31
3215.0,1.7988399999999999e-28,-1.84357e-25,-1.8452799999999999e-25,-1.8440399999999999e-25,5.4502900000000002e-29,6.9739700000000007e-30,4.2745400000000002e-30
3216.0,1.6812000000000001e-28,-1.8438300000000001e-25,-1.84522e-25,-1.8442899999999999e-25,6.5842400000000002e-29,7.5524200000000003e-30,6.6906699999999996e-30
3217.0,1.5159300000000001e-28,-1.84455e-25,-1.8455200000000001e-25,-1.84491e-25,7.17806e-29,4.2035700000000002e-30,9.0321599999999996e-30
3218.0,1.2622400000000001e-28,-1.84481e-25,-1.84533e-25,-1.8450399999999999e-25,6.7505900000000005e-29,4.0799699999999999e-30,7.6514200000000003e-30
3219.0,1.3224900000000001e-28,-1.8454399999999999e-25,-1.8458699999999999e-25,-1.8456899999999999e-25,7.2183400000000005e-29,3.18898e-30,1.16243e-29
3220.0,1.1417200000000001e-28,-1.8456999999999999e-25,-1.8455299999999999e-25,-1.84572e-25,6.5003899999999999e-29,-9.0621400000000002e-31,3.1467500000000002e-30
3221.0,1.8555399999999999e-28,-1.8435299999999999e-25,-1.8454499999999999e-25,-1.8438699999999999e-25,3.0722900000000001e-29,4.6535900000000001e-30,-1.0914100000000001e-30
3222.0,1.8155600000000001e-28,-1.84364e-25,-1.84539e-25,-1.84407e-25,5.1769100000000003e-29,6.5317399999999997e-30,1.7419199999999999e-30
3223.0,1.59437e-28,-1.8442600000000001e-25,-1.8456099999999999e-25,-1.84463e-25,5.9793699999999999e-29,3.4893000000000001e-30,4.6296999999999997e-30
3224.0,1.40988e-28,-1.84449e-25,-1.8454399999999999e-25,-1.8447700000000001e-25,6.49362e-29,4.2151100000000003e-30,4.7095699999999997e-30
3225.0,1.40449e-28,-1.84508e-25,-1.8458599999999999e-25,-1.8453599999999999e-25,7.0382699999999998e-29,2.5258e-30,7.4908500000000003e-30
3226.0,1.1928200000000001e-28,-1.84532e-25,-1.84557e-25,-1.8454200000000001e-25,6.74934e-29,6.2132400000000004e-31,5.4960999999999999e-30
3227.0,1.22406e-28,-1.8458400000000001e-25,-1.8461099999999999e-25,-1.8460299999999999e-25,6.8352800000000001e-29,2.67573e-30,1.13273e-29
3228.0,1.8628799999999999e-28,-1.8435900000000001e-25,-1.84548e-25,-1.8439300000000001e-25,3.59775e-29,5.5790600000000003e-30,-1.9203200000000001e-30
3229.0,1.65807e-28,-1.84406e-25,-1.84566e-25,-1.8443699999999999e-25,4.4501999999999998e-29,2.5308799999999998e-30,6.4042000000000003e-31
3230.0,1.5065000000000001e-28,-1.84424e-25,-1.8455100000000001e-25,-1.8445100000000001e-25,5.5808700000000001e-29,4.2611799999999999e-30,1.6255100000000001e-30
3231.0,1.4683899999999999e-28,-1.8447700000000001e-25,-1.8458599999999999e-25,-1.84506e-25,6.3043699999999998e-29,2.5498199999999999e-30,3.8725799999999999e-30
3232.0,1.26161e-28,-1.84499e-25,-1.8456099999999999e-25,-1.84514e-25,6.5105900000000005e-29,1.50331e-30,3.6981399999999997e-30
3233.0,1.3038400000000001e-28,-1.8455100000000001e-25,-1.84607e-25,-1.8457099999999999e-25,6.9459400000000002e-29,2.0721e-30,5.85516e-30
3234.0,1.1970700000000001e-28,-1.8457099999999999e-25,-1.8457799999999999e-25,-1.84574e-25,6.8982399999999995e-29,-1.7075500000000001e-30,1.8967199999999998e-30
3235.0,2.1423199999999998e-28,-1.8413400000000001e-25,-1.8431899999999999e-25,-1.84156e-25,4.5335599999999998e-29,3.0488999999999998e-29,4.6634500000000001e-29
3236.0,1.75459e-28,-1.84249e-25,-1.84347e-25,-1.84263e-25,6.1089900000000004e-29,2.3784899999999999e-29,5.6141099999999997e-29
3237.0,1.39978e-28,-1.84357e-25,-1.84389e-25,-1.84373e-25,5.6187899999999998e-29,2.0022700000000001e-29,5.2268800000000003e-29
3238.0,1.2554699999999999e-28,-1.8441800000000001e-25,-1.84423e-25,-1.84423e-25,5.2471100000000003e-29,1.4036200000000001e-29,4.7925e-29
3239.0,1.1625799999999999e-28,-1.84505e-25,-1.8446999999999999e-25,-1.8451199999999999e-25,4.3310900000000002e-29,9.3086100000000006e-30,4.50236e-29
3240.0,7.2740999999999997e-29,-1.8452099999999999e-25,-1.8447700000000001e-25,-1.8451800000000001e-25,2.6100999999999998e-29,1.22297e-29,1.7564999999999999e-29
3241.0,1.25606e-28,-1.8462600000000001e-25,-1.8459599999999999e-25,-1.8460200000000001e-25,5.3439799999999998e-29,4.2214699999999997e-30,4.6221400000000001e-29
3242.0,2.3221399999999999e-28,-1.84171e-25,-1.8438599999999999e-25,-1.8420800000000001e-25,5.1452300000000003e-29,2.84203e-29,3.6076300000000002e-29
3243.0,1.81445e-28,-1.8428300000000001e-25,-1.84406e-25,-1.84315e-25,6.6991700000000002e-29,2.5356100000000002e-29,4.2267100000000002e-29
3244.0,1.5909000000000001e-28,-1.8435199999999999e-25,-1.8442600000000001e-25,-1.8437600000000001e-25,6.8535499999999999e-29,2.0185400000000001e-29,4.3771999999999997e-29
3245.0,1.3567299999999999e-28,-1.84441e-25,-1.84463e-25,-1.84458e-25,6.3733900000000005e-29,1.5924299999999999e-29,4.11085e-29
3246.0,1.08547e-28,-1.8447500000000001e-25,-1.8447500000000001e-25,-1.8448599999999999e-25,5.1383900000000003e-29,1.2179899999999999e-29,3.3104299999999997e-29
3247.0,1.1574100000000001e-28,-1.84555e-25,-1.8453699999999999e-25,-1.8456199999999999e-25,5.2600499999999998e-29,1.3370199999999999e-29,3.6744700000000003e-29
3248.0,8.4908000000000004e-29,-1.84564e-25,-1.84507e-25,-1.8456800000000001e-25,2.8421299999999999e-29,1.19438e-29,1.6850700000000001e-29
3249.0,2.25859e-28,-1.8423e-25,-1.8445000000000001e-25,-1.8427500000000001e-25,4.81591e-29,2.5245099999999997e-29,2.3865100000000001e-29
3250.0,1.94966e-28,-1.8429399999999999e-25,-1.8445100000000001e-25,-1.8433699999999999e-25,6.68872e-29,2.35827e-29,3.1989600000000001e-29
3251.0,1.6237300000000001e-28,-1.84381e-25,-1.84474e-25,-1.84414e-25,7.1260299999999999e-29,1.91634e-29,3.3497900000000002e-29
3252.0,1.4101500000000001e-28,-1.84424e-25,-1.84482e-25,-1.8445000000000001e-25,6.6831100000000003e-29,1.5333699999999999e-29,3.2793399999999999e-29
3253.0,1.29461e-28,-1.8450100000000001e-25,-1.84524e-25,-1.8451800000000001e-25,6.5132499999999997e-29,1.37036e-29,3.1876800000000001e-29
3254.0,1.0566800000000001e-28,-1.84522e-25,-1.8451800000000001e-25,-1.8453400000000001e-25,5.29716e-29,9.4031600000000002e-30,2.7449500000000002e-29
3255.0,1.2373599999999999e-28,-1.8459499999999999e-25,-1.84588e-25,-1.8460900000000001e-25,5.9748200000000005e-29,5.6690200000000002e-30,3.7381899999999999e-29
3256.0,2.25156e-28,-1.84264e-25,-1.84491e-25,-1.84313e-25,4.3940199999999998e-29,2.0911399999999999e-29,1.58964e-29
3257.0,1.86654e-28,-1.84338e-25,-1.84499e-25,-1.84381e-25,6.1634700000000005e-29,1.8893e-29,2.22859e-29
3258.0,1.6701000000000001e-28,-1.8438e-25,-1.84499e-25,-1.8441800000000001e-25,6.8235800000000005e-29,1.65657e-29,2.5361100000000001e-29
3259.0,1.4671400000000001e-28,-1.8445299999999999e-25,-1.8452700000000001e-25,-1.84481e-25,6.9949600000000003e-29,1.39529e-29,2.5933900000000002e-29
3260.0,1.2878099999999999e-28,-1.84481e-25,-1.84524e-25,-1.8450200000000001e-25,6.5228900000000004e-29,1.04774e-29,2.6237199999999998e-29
3261.0,1.2716299999999999e-28,-1.8455000000000001e-25,-1.8456899999999999e-25,-1.84565e-25,6.7175600000000001e-29,8.2243900000000004e-30,2.6659100000000001e-29
3262.0,1.0522099999999999e-28,-1.8456999999999999e-25,-1.84547e-25,-1.8456999999999999e-25,5.6489800000000002e-29,5.3479399999999999e-30,1.7290399999999999e-29
3263.0,2.02481e-28,-1.84322e-25,-1.8452799999999999e-25,-1.84363e-25,3.8153800000000003e-29,1.4962900000000001e-29,1.0138000000000001e-29
3264.0,1.85352e-28,-1.8435199999999999e-25,-1.8452099999999999e-25,-1.8439499999999999e-25,5.6831899999999999e-29,1.5009e-29,1.5759599999999999e-29
3265.0,1.61152e-28,-1.84416e-25,-1.84539e-25,-1.8445100000000001e-25,6.4167400000000004e-29,1.2995700000000001e-29,1.84796e-29
3266.0,1.46065e-28,-1.8444499999999999e-25,-1.8453400000000001e-25,-1.84474e-25,6.6993299999999996e-29,1.0768799999999999e-29,2.06155e-29
3267.0,1.35617e-28,-1.8450900000000001e-25,-1.84566e-25,-1.8453e-25,6.9282399999999998e-29,8.4783400000000001e-30,2.07394e-29
3268.0,1.19306e-28,-1.8453e-25,-1.8455299999999999e-25,-1.8454200000000001e-25,6.4609100000000005e-29,6.2561899999999999e-30,2.0098500000000001e-29
3269.0,1.2276200000000001e-28,-1.84589e-25,-1.8460000000000001e-25,-1.8460200000000001e-25,6.5559300000000003e-29,5.1441700000000003e-30,2.5435800000000001e-29
3270.0,1.93237e-28,-1.8434399999999999e-25,-1.8454e-25,-1.84382e-25,3.83849e-29,1.14374e-29,7.0339499999999996e-30
3271.0,1.70801e-28,-1.8439200000000001e-25,-1.8455100000000001e-25,-1.8442700000000001e-25,5.0500500000000001e-29,1.08832e-29,1.10778e-29
3272.0,1.58195e-28,-1.8441700000000001e-25,-1.8454499999999999e-25,-1.8445000000000001e-25,6.0185400000000002e-29,9.9639000000000002e-30,1.3993799999999999e-29
3273.0,1.4408300000000001e-28,-1.84474e-25,-1.8456800000000001e-25,-1.84499e-25,6.5050799999999995e-29,8.0036500000000001e-30,1.5351800000000001e-29
3274.0,1.30508e-28,-1.84497e-25,-1.84558e-25,-1.84515e-25,6.5919800000000001e-29,6.5876400000000003e-30,1.6779200000000001e-29
3275.0,1.2740799999999999e-28,-1.8455200000000001e-25,-1.8459300000000001e-25,-1.8456800000000001e-25,6.8220500000000006e-29,4.7874900000000001e-30,1.77149e-29
3276.0,1.1645399999999999e-28,-1.84572e-25,-1.8457500000000001e-25,-1.84574e-25,6.5884800000000005e-29,1.9970800000000001e-30,1.3151099999999999e-29
3277.0,1.7482900000000001e-28,-1.84382e-25,-1.84558e-25,-1.8441000000000001e-25,3.4497300000000002e-29,8.4692600000000002e-30,5.2109700000000002e-30
3278.0,1.6583300000000001e-28,-1.84398e-25,-1.8455299999999999e-25,-1.8442899999999999e-25,4.80087e-29,8.49397e-30,8.2352199999999993e-30
3279.0,1.51648e-28,-1.8444499999999999e-25,-1.8457099999999999e-25,-1.8447099999999999e-25,5.5793100000000004e-29,7.2294100000000004e-30,1.0124200000000001e-29
3280.0,1.3911599999999999e-28,-1.8446800000000001e-25,-1.84563e-25,-1.8449e-25,6.1326e-29,6.36522e-30,1.21456e-29
3281.0,1.33134e-28,-1.8451800000000001e-25,-1.8459e-25,-1.8453599999999999e-25,6.5764500000000004e-29,4.7246800000000003e-30,1.3349000000000001e-29
3282.0,1.2243400000000001e-28,-1.84539e-25,-1.8457700000000001e-25,-1.84549e-25,6.6364600000000005e-29,3.3578900000000003e-30,1.36059e-29
3283.0,1.21719e-28,-1.84588e-25,-1.8461199999999999e-25,-1.84599e-25,6.6953699999999999e-29,3.14578e-30,1.7521000000000001e-29
3284.0,2.43559e-28,-1.8418500000000001e-25,-1.8438400000000001e-25,-1.84172e-25,3.0903199999999998e-29,3.3114699999999999e-29,5.9957499999999996e-29
3285.0,1.8183500000000001e-28,-1.84299e-25,-1.84405e-25,-1.84296e-25,4.1794000000000001e-29,2.8955199999999999e-29,6.7884100000000003e-29
3286.0,1.6452700000000001e-28,-1.84366e-25,-1.8442700000000001e-25,-1.84355e-25,4.6141000000000001e-29,2.37733e-29,6.9409099999999994e-29
3287.0,1.3935999999999999e-28,-1.84455e-25,-1.8446800000000001e-25,-1.8445100000000001e-25,4.06868e-29,1.6467899999999999e-29,6.68057e-29
3288.0,1.0959900000000001e-28,-1.8448500000000001e-25,-1.8448e-25,-1.8447500000000001e-25,3.41712e-29,1.4965299999999999e-29,5.0853100000000005e-29
3289.0,1.2906400000000001e-28,-1.8457099999999999e-25,-1.8455200000000001e-25,-1.84555e-25,3.7322599999999998e-29,8.1487600000000003e-30,6.3171299999999998e-29
3290.0,9.6498100000000003e-29,-1.8456899999999999e-25,-1.84514e-25,-1.8457899999999999e-25,1.08015e-29,4.6402399999999998e-30,4.17757e-29
3291.0,2.2825900000000002e-28,-1.8423300000000001e-25,-1.8443400000000001e-25,-1.8424499999999999e-25,3.7024499999999997e-29,3.3927000000000002e-29,4.6292399999999999e-29
3292.0,1.9528099999999999e-28,-1.8430399999999999e-25,-1.84438e-25,-1.84313e-25,5.3923900000000001e-29,3.0944600000000001e-29,5.7173699999999998e-29
3293.0,1.62064e-28,-1.8439200000000001e-25,-1.84465e-25,-1.84399e-25,5.5783799999999997e-29,2.5028400000000001e-29,5.83026e-29
3294.0,1.41624e-28,-1.8443599999999999e-25,-1.8447600000000001e-25,-1.8443699999999999e-25,5.2973200000000004e-29,1.9910200000000001e-29,5.4472800000000003e-29
3295.0,1.2938399999999999e-28,-1.8451199999999999e-25,-1.8452099999999999e-25,-1.8451199999999999e-25,4.9087699999999998e-29,1.6988399999999999e-29,5.3422200000000004e-29
3296.0,1.06681e-28,-1.84532e-25,-1.8451700000000001e-25,-1.8452799999999999e-25,4.1211700000000001e-29,1.1919900000000001e-29,4.35039e-29
3297.0,1.2489299999999999e-28,-1.8461199999999999e-25,-1.8459e-25,-1.8460100000000001e-25,4.8731499999999997e-29,6.7250900000000002e-30,5.1607699999999996e-29
3298.0,2.2712500000000001e-28,-1.8425900000000001e-25,-1.8446899999999999e-25,-1.8428300000000001e-25,4.09028e-29,3.1973800000000003e-29,3.58293e-29
3299.0,1.8916099999999999e-28,-1.84338e-25,-1.84481e-25,-1.8435900000000001e-25,5.6162499999999995e-29,2.8446000000000001e-29,4.4361100000000002e-29
3300.0,1.6687199999999999e-28,-1.8438699999999999e-25,-1.8448400000000001e-25,-1.8440299999999999e-25,6.1168399999999997e-29,2.4385e-29,4.72811e-29
3301.0,1.45269e-28,-1.8446000000000001e-25,-1.84516e-25,-1.8446999999999999e-25,5.9693599999999995e-29,2.06859e-29,4.6521e-29
3302.0,1.2983100000000001e-28,-1.84489e-25,-1.8451700000000001e-25,-1.8449499999999999e-25,5.62759e-29,1.5617900000000001e-29,4.4583499999999998e-29
3303.0,1.23207e-28,-1.8455900000000001e-25,-1.8456199999999999e-25,-1.8456099999999999e-25,5.4092299999999999e-29,1.36879e-29,4.4095099999999998e-29
3304.0,9.9830199999999997e-29,-1.8457099999999999e-25,-1.8454399999999999e-25,-1.8456899999999999e-25,4.2488299999999998e-29,1.08067e-29,3.4254100000000003e-29
3305.0,2.1342200000000002e-28,-1.84305e-25,-1.8451000000000001e-25,-1.8433500000000001e-25,3.9860800000000002e-29,2.6292900000000002e-29,2.6106799999999999e-29
3306.0,1.87145e-28,-1.84348e-25,-1.8450299999999999e-25,-1.8437699999999999e-25,5.6055199999999998e-29,2.5077199999999999e-29,3.4263399999999999e-29
3307.0,1.6320500000000001e-28,-1.84415e-25,-1.84523e-25,-1.8443699999999999e-25,6.1442999999999997e-29,2.18428e-29,3.6993600000000002e-29
3308.0,1.4772199999999999e-28,-1.84449e-25,-1.84523e-25,-1.84466e-25,6.2880300000000005e-29,1.7727900000000001e-29,3.8851e-29
3309.0,1.32762e-28,-1.84513e-25,-1.8455399999999999e-25,-1.84523e-25,6.1396699999999995e-29,1.5313999999999999e-29,3.7579400000000002e-29
3310.0,1.20708e-28,-1.84533e-25,-1.84549e-25,-1.84538e-25,5.7618500000000002e-29,1.08297e-29,3.6859600000000001e-29
3311.0,1.24804e-28,-1.84597e-25,-1.84597e-25,-1.8460100000000001e-25,5.9011800000000003e-29,7.2789299999999996e-30,4.0638000000000002e-29
3312.0,2.00417e-28,-1.84331e-25,-1.8452600000000001e-25,-1.84363e-25,3.9025400000000001e-29,2.1225800000000001e-29,1.9606299999999999e-29
3313.0,1.77596e-28,-1.8438300000000001e-25,-1.8453599999999999e-25,-1.84413e-25,5.3088700000000003e-29,2.0095499999999999e-29,2.5735100000000003e-29
3314.0,1.61122e-28,-1.84416e-25,-1.84533e-25,-1.8444200000000001e-25,6.0656599999999996e-29,1.7611699999999999e-29,2.97547e-29
3315.0,1.44189e-28,-1.84474e-25,-1.84556e-25,-1.8449200000000001e-25,6.2720099999999998e-29,1.5296800000000001e-29,3.0395499999999998e-29
3316.0,1.33689e-28,-1.84498e-25,-1.8455200000000001e-25,-1.8451199999999999e-25,6.3212999999999999e-29,1.1768900000000001e-29,3.2419200000000001e-29
3317.0,1.25671e-28,-1.84557e-25,-1.8458400000000001e-25,-1.84564e-25,6.31778e-29,9.3977299999999998e-30,3.1539799999999999e-29
3318.0,1.1255700000000001e-28,-1.84573e-25,-1.8456999999999999e-25,-1.84572e-25,5.8740900000000001e-29,6.5068599999999999e-30,2.6960199999999997e-29
3319.0,1.8450699999999999e-28,-1.8436899999999999e-25,-1.8455000000000001e-25,-1.84397e-25,3.7637000000000003e-29,1.60759e-29,1.5122200000000001e-29
3320.0,1.7068300000000001e-28,-1.8439300000000001e-25,-1.8454399999999999e-25,-1.84422e-25,5.1060100000000001e-29,1.5555899999999999e-29,2.0338700000000001e-29
3321.0,1.54031e-28,-1.8444200000000001e-25,-1.8456000000000001e-25,-1.84466e-25,5.7453300000000002e-29,1.4098099999999999e-29,2.2774800000000001e-29
3322.0,1.4279099999999999e-28,-1.8446800000000001e-25,-1.84557e-25,-1.84488e-25,6.18473e-29,1.16456e-29,2.5677900000000001e-29
3323.0,1.31897e-28,-1.8452099999999999e-25,-1.8458e-25,-1.84533e-25,6.3782799999999999e-29,9.4502e-30,2.5602800000000002e-29
3324.0,1.2333100000000001e-28,-1.8454e-25,-1.84573e-25,-1.84547e-25,6.3271499999999997e-29,7.12598e-30,2.68157e-29
3325.0,1.22829e-28,-1.8459200000000001e-25,-1.84607e-25,-1.84598e-25,6.3604700000000001e-29,5.4611200000000003e-30,2.9895000000000001e-29
3326.0,1.7476400000000001e-28,-1.8438300000000001e-25,-1.8455299999999999e-25,-1.8440900000000001e-25,3.8148000000000002e-29,1.2321199999999999e-29,1.27549e-29
3327.0,1.61708e-28,-1.8441800000000001e-25,-1.84564e-25,-1.8444200000000001e-25,4.68782e-29,1.2353399999999999e-29,1.5634799999999999e-29
3328.0,1.4998000000000001e-28,-1.8444200000000001e-25,-1.8456199999999999e-25,-1.84465e-25,5.49209e-29,1.0655100000000001e-29,1.8734400000000001e-29
3329.0,1.38933e-28,-1.84488e-25,-1.8457899999999999e-25,-1.84505e-25,5.9836100000000001e-29,9.0089799999999997e-30,2.0305999999999999e-29
3330.0,1.3009300000000001e-28,-1.8451099999999999e-25,-1.8457500000000001e-25,-1.84523e-25,6.2514500000000005e-29,7.4176e-30,2.2342600000000001e-29
3331.0,1.2503999999999999e-28,-1.84558e-25,-1.8460000000000001e-25,-1.8456700000000001e-25,6.4557700000000004e-29,5.5016000000000001e-30,2.2974599999999999e-29
3332.0,1.1815600000000001e-28,-1.8457700000000001e-25,-1.8459e-25,-1.8457700000000001e-25,6.4715100000000005e-29,3.0609199999999998e-30,1.9891100000000001e-29
3333.0,2.3603799999999999e-28,-1.84265e-25,-1.84456e-25,-1.8423500000000001e-25,1.1741700000000001e-29,2.9895799999999998e-29,5.6697900000000004e-29
3334.0,2.0857e-28,-1.8432899999999999e-25,-1.8445900000000001e-25,-1.8429499999999999e-25,2.7492399999999998e-29,2.7989200000000003e-29,7.3791799999999998e-29
3335.0,1.6938e-28,-1.84413e-25,-1.8448500000000001e-25,-1.84391e-25,3.05194e-29,2.1612700000000001e-29,7.5955999999999999e-29
3336.0,1.48367e-28,-1.8445100000000001e-25,-1.8449200000000001e-25,-1.8442600000000001e-25,2.9643999999999998e-29,1.89842e-29,7.0722599999999996e-29
3337.0,1.4456799999999999e-28,-1.8452799999999999e-25,-1.8454200000000001e-25,-1.84506e-25,2.9644599999999998e-29,1.20169e-29,7.4935200000000002e-29
3338.0,1.10242e-28,-1.8454e-25,-1.84524e-25,-1.84532e-25,1.9974399999999999e-29,9.4375500000000002e-30,5.91317e-29
3339.0,1.2385400000000001e-28,-1.8461999999999999e-25,-1.8460299999999999e-25,-1.8459399999999999e-25,3.0460599999999999e-29,8.4627100000000002e-30,6.2777200000000005e-29
3340.0,2.3487400000000002e-28,-1.8427799999999999e-25,-1.8447500000000001e-25,-1.8426199999999999e-25,2.36781e-29,3.3456999999999997e-29,5.16828e-29
3341.0,1.93299e-28,-1.84356e-25,-1.8448599999999999e-25,-1.8434499999999999e-25,3.8321999999999998e-29,3.02875e-29,6.2740999999999997e-29
3342.0,1.71601e-28,-1.8440299999999999e-25,-1.8449e-25,-1.8439e-25,4.2566200000000002e-29,2.5831999999999997e-29,6.6025000000000005e-29
3343.0,1.5083799999999999e-28,-1.84474e-25,-1.84523e-25,-1.8446199999999999e-25,4.2100700000000002e-29,2.1254099999999999e-29,6.5879000000000004e-29
3344.0,1.3295899999999999e-28,-1.8450200000000001e-25,-1.84523e-25,-1.84488e-25,4.00042e-29,1.6127099999999999e-29,6.0979500000000005e-29
3345.0,1.2971800000000001e-28,-1.8456999999999999e-25,-1.8457099999999999e-25,-1.84556e-25,3.82116e-29,1.21439e-29,6.2716100000000004e-29
3346.0,1.0502599999999999e-28,-1.8457799999999999e-25,-1.8455100000000001e-25,-1.84573e-25,2.6005000000000001e-29,8.8137100000000002e-30,5.2235499999999995e-29
3347.0,2.1856500000000002e-28,-1.84313e-25,-1.8450399999999999e-25,-1.84314e-25,3.0657599999999997e-29,3.2022999999999999e-29,4.2353200000000003e-29
3348.0,1.9094600000000001e-28,-1.8435900000000001e-25,-1.84499e-25,-1.8436000000000001e-25,4.48247e-29,3.0265699999999999e-29,5.2639200000000003e-29
3349.0,1.6664e-28,-1.8442500000000001e-25,-1.8451999999999999e-25,-1.84424e-25,4.9377500000000001e-29,2.6169999999999999e-29,5.5920599999999997e-29
3350.0,1.5056199999999999e-28,-1.8446000000000001e-25,-1.84522e-25,-1.84456e-25,5.05796e-29,2.11893e-29,5.6519400000000002e-29
3351.0,1.3538400000000001e-28,-1.84522e-25,-1.8455399999999999e-25,-1.8451700000000001e-25,4.8070300000000001e-29,1.79936e-29,5.5388500000000004e-29
3352.0,1.2290700000000001e-28,-1.8454200000000001e-25,-1.8455000000000001e-25,-1.8453400000000001e-25,4.5666699999999999e-29,1.2906500000000001e-29,5.2106899999999997e-29
3353.0,1.2695600000000001e-28,-1.84608e-25,-1.84599e-25,-1.8459599999999999e-25,4.7770800000000003e-29,8.5102099999999994e-30,5.4583499999999999e-29
3354.0,2.0716500000000002e-28,-1.8433e-25,-1.8451800000000001e-25,-1.8434200000000001e-25,3.4380199999999999e-29,2.9086000000000002e-29,3.4271600000000001e-29
3355.0,1.8209700000000001e-28,-1.8438599999999999e-25,-1.8452799999999999e-25,-1.84397e-25,4.7568900000000001e-29,2.7114799999999999e-29,4.2603900000000003e-29
3356.0,1.6410200000000001e-28,-1.84423e-25,-1.8452600000000001e-25,-1.8443e-25,5.3631499999999995e-29,2.3635200000000001e-29,4.69534e-29
3357.0,1.4642999999999999e-28,-1.8448e-25,-1.8455000000000001e-25,-1.84483e-25,5.4238899999999995e-29,2.05505e-29,4.7349799999999998e-29
3358.0,1.3637900000000001e-28,-1.84506e-25,-1.84549e-25,-1.84505e-25,5.4644300000000003e-29,1.5836100000000001e-29,4.8290099999999999e-29
3359.0,1.25888e-28,-1.84564e-25,-1.8458e-25,-1.8456000000000001e-25,5.2622500000000002e-29,1.32492e-29,4.7086099999999999e-29
3360.0,1.11303e-28,-1.8457700000000001e-25,-1.8456899999999999e-25,-1.8456999999999999e-25,4.7085200000000001e-29,9.9128299999999998e-30,4.2358200000000002e-29
3361.0,1.93189e-28,-1.84363e-25,-1.8454200000000001e-25,-1.8438e-25,3.6116999999999999e-29,2.3738699999999999e-29,2.77793e-29
3362.0,1.7435700000000001e-28,-1.8439399999999999e-25,-1.8453599999999999e-25,-1.8441099999999999e-25,4.895e-29,2.2944e-29,3.4808099999999999e-29
3363.0,1.5743499999999999e-28,-1.8444399999999999e-25,-1.8455200000000001e-25,-1.84457e-25,5.42485e-29,2.0589100000000001e-29,3.8002600000000001e-29
3364.0,1.45743e-28,-1.84473e-25,-1.8455100000000001e-25,-1.84481e-25,5.7414700000000004e-29,1.69691e-29,4.0751900000000001e-29
3365.0,1.3231300000000001e-28,-1.8452500000000001e-25,-1.84574e-25,-1.8452799999999999e-25,5.7175300000000003e-29,1.4438400000000001e-29,4.0137e-29
3366.0,1.25609e-28,-1.8454499999999999e-25,-1.8457099999999999e-25,-1.8454399999999999e-25,5.6721099999999996e-29,1.05048e-29,4.1148299999999999e-29
3367.0,1.2491199999999999e-28,-1.84598e-25,-1.84606e-25,-1.8459499999999999e-25,5.7098999999999998e-29,7.7458599999999997e-30,4.3038699999999998e-29
3368.0,1.7969700000000001e-28,-1.8438e-25,-1.84548e-25,-1.84399e-25,3.7424499999999997e-29,1.9172699999999999e-29,2.30975e-29
3369.0,1.6592e-28,-1.8441800000000001e-25,-1.84557e-25,-1.8443599999999999e-25,4.7741700000000002e-29,1.8717099999999999e-29,2.8142599999999998e-29
3370.0,1.53269e-28,-1.8444499999999999e-25,-1.84556e-25,-1.8446000000000001e-25,5.4365999999999995e-29,1.64104e-29,3.1978999999999998e-29
3371.0,1.4011099999999999e-28,-1.84491e-25,-1.84572e-25,-1.8450100000000001e-25,5.7268700000000002e-29,1.42164e-29,3.3180600000000003e-29
3372.0,1.3291299999999999e-28,-1.84514e-25,-1.8457099999999999e-25,-1.8451999999999999e-25,5.9193300000000001e-29,1.12617e-29,3.5694099999999998e-29
3373.0,1.2470099999999999e-28,-1.8456199999999999e-25,-1.8459399999999999e-25,-1.84564e-25,5.9634200000000005e-29,8.9413800000000003e-30,3.5009600000000002e-29
3374.0,1.1658e-28,-1.8457899999999999e-25,-1.8458599999999999e-25,-1.84574e-25,5.8415899999999999e-29,5.8204899999999997e-30,3.2381000000000001e-29
3375.0,1.7048700000000001e-28,-1.8440200000000001e-25,-1.8456099999999999e-25,-1.8441899999999999e-25,3.7302500000000002e-29,1.57808e-29,1.97129e-29
3376.0,1.5928400000000001e-28,-1.84423e-25,-1.8456000000000001e-25,-1.84441e-25,4.6308199999999998e-29,1.4391199999999999e-29,2.3400299999999999e-29
3377.0,1.47441e-28,-1.8446199999999999e-25,-1.84572e-25,-1.8447500000000001e-25,5.2354799999999997e-29,1.3155300000000001e-29,2.6322799999999999e-29
3378.0,1.3848200000000001e-28,-1.8448599999999999e-25,-1.84573e-25,-1.84498e-25,5.6887499999999997e-29,1.10045e-29,2.8927699999999997e-29
3379.0,1.2966900000000001e-28,-1.8452899999999999e-25,-1.84589e-25,-1.8453500000000001e-25,5.9465900000000003e-29,8.8699000000000003e-30,2.9758099999999999e-29
3380.0,1.2407999999999999e-28,-1.8455000000000001e-25,-1.8458699999999999e-25,-1.8455200000000001e-25,6.0513499999999995e-29,6.75986e-30,3.1296899999999997e-29
3381.0,1.2259399999999999e-28,-1.8459300000000001e-25,-1.8461199999999999e-25,-1.8459599999999999e-25,6.0796900000000003e-29,5.2981699999999997e-30,3.4288999999999998e-29
3382.0,2.4960299999999999e-28,-1.84314e-25,-1.8451000000000001e-25,-1.8426000000000001e-25,1.2715199999999999e-30,2.2436900000000001e-29,5.4990500000000001e-29
3383.0,1.98019e-28,-1.8438699999999999e-25,-1.8451700000000001e-25,-1.84347e-25,1.2745900000000001e-29,2.0723300000000001e-29,6.7282399999999998e-29
3384.0,1.82216e-28,-1.84423e-25,-1.8451700000000001e-25,-1.84382e-25,1.81115e-29,1.9895499999999999e-29,7.4741100000000004e-29
3385.0,1.6249e-28,-1.8449399999999999e-25,-1.8455200000000001e-25,-1.8446000000000001e-25,2.0528400000000001e-29,1.35771e-29,7.7816299999999999e-29
3386.0,1.35874e-28,-1.8451199999999999e-25,-1.84538e-25,-1.84488e-25,1.7619600000000001e-29,1.17489e-29,7.1254799999999996e-29
3387.0,1.40269e-28,-1.84583e-25,-1.8459599999999999e-25,-1.8455200000000001e-25,2.0689e-29,8.3909899999999998e-30,7.4581000000000004e-29
3388.0,1.1737400000000001e-28,-1.8458599999999999e-25,-1.84565e-25,-1.8457799999999999e-25,9.2153300000000005e-30,3.15224e-30,6.6198799999999999e-29
3389.0,2.2188699999999998e-28,-1.84341e-25,-1.84522e-25,-1.8431099999999999e-25,1.2371600000000001e-29,2.6902799999999999e-29,4.9500600000000002e-29
3390.0,1.9884700000000001e-28,-1.84381e-25,-1.84516e-25,-1.8435000000000001e-25,2.5074800000000001e-29,2.6475700000000001e-29,6.3952500000000003e-29
3391.0,1.7219699999999999e-28,-1.8444399999999999e-25,-1.8453599999999999e-25,-1.8441899999999999e-25,2.9771900000000001e-29,2.2844e-29,6.8224799999999997e-29
3392.0,1.5587200000000001e-28,-1.8447500000000001e-25,-1.8453500000000001e-25,-1.84449e-25,3.18026e-29,1.87175e-29,6.9195400000000005e-29
3393.0,1.4341300000000001e-28,-1.8453599999999999e-25,-1.8456899999999999e-25,-1.84513e-25,3.06334e-29,1.4612800000000001e-29,7.0087900000000002e-29
3394.0,1.25915e-28,-1.8455100000000001e-25,-1.8455900000000001e-25,-1.84533e-25,2.8361200000000002e-29,1.11875e-29,6.4656799999999998e-29
3395.0,1.2898200000000001e-28,-1.84616e-25,-1.8461000000000001e-25,-1.8459200000000001e-25,3.2164899999999999e-29,8.1906600000000004e-30,6.5464500000000001e-29
3396.0,2.1245799999999999e-28,-1.84347e-25,-1.8452500000000001e-25,-1.8433e-25,2.16038e-29,2.90721e-29,4.55392e-29
3397.0,1.86854e-28,-1.8440100000000001e-25,-1.8453400000000001e-25,-1.8438599999999999e-25,3.3155699999999999e-29,2.7600400000000001e-29,5.58257e-29
3398.0,1.6901299999999999e-28,-1.8443699999999999e-25,-1.84533e-25,-1.8441999999999999e-25,3.8949100000000001e-29,2.40639e-29,6.0948300000000001e-29
3399.0,1.51223e-28,-1.8449200000000001e-25,-1.84557e-25,-1.8447700000000001e-25,3.9374999999999998e-29,2.0554399999999999e-29,6.2040100000000002e-29
3400.0,1.40091e-28,-1.8451700000000001e-25,-1.84555e-25,-1.84499e-25,4.0609099999999998e-29,1.5979299999999999e-29,6.1850400000000002e-29
3401.0,1.3080399999999999e-28,-1.84573e-25,-1.84588e-25,-1.84556e-25,3.8356000000000002e-29,1.2551399999999999e-29,6.1822899999999995e-29
3402.0,1.15419e-28,-1.84583e-25,-1.8457600000000001e-25,-1.8456999999999999e-25,3.2445099999999998e-29,9.1842300000000001e-30,5.7117300000000004e-29
3403.0,1.99033e-28,-1.8436999999999999e-25,-1.8454200000000001e-25,-1.84365e-25,2.8107799999999998e-29,2.7132200000000002e-29,3.9427999999999998e-29
3404.0,1.7882e-28,-1.8440399999999999e-25,-1.8453599999999999e-25,-1.84399e-25,3.93148e-29,2.6234399999999999e-29,4.8689200000000002e-29
3405.0,1.6157100000000001e-28,-1.8445299999999999e-25,-1.8455200000000001e-25,-1.84447e-25,4.39221e-29,2.3462000000000001e-29,5.2374399999999999e-29
3406.0,1.49508e-28,-1.84483e-25,-1.8455200000000001e-25,-1.84473e-25,4.68742e-29,1.9327600000000001e-29,5.4942499999999999e-29
3407.0,1.3557900000000001e-28,-1.84533e-25,-1.8457500000000001e-25,-1.84522e-25,4.5640300000000002e-29,1.63201e-29,5.4672700000000002e-29
3408.0,1.2857099999999999e-28,-1.8455200000000001e-25,-1.84573e-25,-1.84539e-25,4.5979999999999998e-29,1.19808e-29,5.4387999999999999e-29
3409.0,1.27482e-28,-1.84606e-25,-1.84608e-25,-1.84591e-25,4.6692299999999998e-29,8.6508999999999998e-30,5.5442299999999995e-29
3410.0,1.8515899999999999e-28,-1.8438300000000001e-25,-1.8454599999999999e-25,-1.8438599999999999e-25,3.2272900000000002e-29,2.4268899999999999e-29,3.3997500000000001e-29
3411.0,1.7038299999999999e-28,-1.84423e-25,-1.8455399999999999e-25,-1.8442500000000001e-25,4.2558399999999998e-29,2.3265199999999999e-29,4.1242199999999998e-29
3412.0,1.5668299999999999e-28,-1.8445200000000001e-25,-1.8455299999999999e-25,-1.8445299999999999e-25,4.8178899999999998e-29,2.0599699999999999e-29,4.5521299999999998e-29
3413.0,1.4302500000000001e-28,-1.84497e-25,-1.8456999999999999e-25,-1.8449399999999999e-25,4.9719900000000001e-29,1.7940100000000001e-29,4.6819899999999998e-29
3414.0,1.3611800000000001e-28,-1.8452099999999999e-25,-1.8456999999999999e-25,-1.84515e-25,5.1671699999999998e-29,1.4060700000000001e-29,4.8856100000000001e-29
3415.0,1.26067e-28,-1.8456800000000001e-25,-1.8459300000000001e-25,-1.8456000000000001e-25,5.0474900000000001e-29,1.1608800000000001e-29,4.8153799999999998e-29
3416.0,1.1688500000000001e-28,-1.84582e-25,-1.8458400000000001e-25,-1.8457099999999999e-25,4.8111699999999999e-29,7.9484200000000003e-30,4.6092299999999998e-29
3417.0,1.7492700000000001e-28,-1.8440399999999999e-25,-1.8455900000000001e-25,-1.8441099999999999e-25,3.52231e-29,1.99921e-29,2.9581000000000001e-29
3418.0,1.6240600000000001e-28,-1.8442799999999999e-25,-1.84557e-25,-1.8443500000000001e-25,4.4262000000000003e-29,1.94423e-29,3.5348100000000002e-29
3419.0,1.5045200000000001e-28,-1.84466e-25,-1.8456800000000001e-25,-1.8446999999999999e-25,4.91483e-29,1.7632799999999999e-29,3.8513499999999999e-29
3420.0,1.41462e-28,-1.8449200000000001e-25,-1.8456999999999999e-25,-1.8449399999999999e-25,5.2719599999999998e-29,1.4668e-29,4.1449699999999999e-29
3421.0,1.3067900000000001e-28,-1.8453400000000001e-25,-1.8458599999999999e-25,-1.84531e-25,5.3529299999999998e-29,1.2247400000000001e-29,4.1661599999999998e-29
3422.0,1.2671300000000001e-28,-1.8455299999999999e-25,-1.8458599999999999e-25,-1.84548e-25,5.4502999999999998e-29,8.9749000000000005e-30,4.34993e-29
3423.0,1.24903e-28,-1.84598e-25,-1.8461199999999999e-25,-1.8459200000000001e-25,5.4893999999999999e-29,7.0210900000000001e-30,4.5104899999999999e-29
3424.0,1.6496499999999999e-28,-1.84414e-25,-1.8456099999999999e-25,-1.84423e-25,3.6195599999999999e-29,1.6501700000000001e-29,2.61348e-29
3425.0,1.5649400000000001e-28,-1.84441e-25,-1.8456899999999999e-25,-1.8445000000000001e-25,4.3545399999999999e-29,1.6098899999999999e-29,3.0369299999999998e-29
3426.0,1.4635300000000001e-28,-1.84466e-25,-1.8456999999999999e-25,-1.84473e-25,4.9415700000000002e-29,1.39834e-29,3.3460400000000003e-29
3427.0,1.36823e-28,-1.8450299999999999e-25,-1.84582e-25,-1.84506e-25,5.2815399999999999e-29,1.20428e-29,3.5655e-29
3428.0,1.3096899999999999e-28,-1.8452600000000001e-25,-1.8458400000000001e-25,-1.8452700000000001e-25,5.5359299999999997e-29,9.61411e-30,3.8022700000000002e-29
3429.0,1.2443e-28,-1.84565e-25,-1.8460100000000001e-25,-1.84563e-25,5.65454e-29,7.4205499999999996e-30,3.8276399999999998e-29
3430.0,1.18782e-28,-1.84583e-25,-1.84597e-25,-1.8457600000000001e-25,5.7093600000000001e-29,4.3947799999999997e-30,3.6279000000000001e-29
3431.0,2.1927099999999999e-28,-1.8437799999999999e-25,-1.8455399999999999e-25,-1.8432899999999999e-25,-6.6457200000000002e-30,1.2248100000000001e-29,4.2853300000000001e-29
3432.0,2.0818999999999998e-28,-1.84405e-25,-1.84547e-25,-1.8435199999999999e-25,3.1241100000000001e-30,1.5759800000000001e-29,6.3168800000000001e-29
3433.0,1.7909200000000001e-28,-1.8446800000000001e-25,-1.8456999999999999e-25,-1.84423e-25,9.1860400000000002e-30,1.1261e-29,6.9492999999999996e-29
3434.0,1.5823699999999999e-28,-1.8448699999999999e-25,-1.84556e-25,-1.8445000000000001e-25,1.00781e-29,1.0809800000000001e-29,7.2547100000000001e-29
3435.0,1.54653e-28,-1.8455100000000001e-25,-1.8460000000000001e-25,-1.84513e-25,1.3293499999999999e-29,7.3050800000000004e-30,7.6612899999999999e-29
3436.0,1.30455e-28,-1.8455900000000001e-25,-1.84573e-25,-1.84538e-25,9.86732e-30,4.2581899999999998e-30,7.2418700000000005e-29
3437.0,1.33672e-28,-1.8462500000000001e-25,-1.84631e-25,-1.8459200000000001e-25,1.54731e-29,4.7158300000000002e-30,7.2584900000000003e-29
3438.0,2.1836000000000001e-28,-1.84374e-25,-1.84547e-25,-1.8433e-25,4.7186500000000003e-30,1.98976e-29,4.8179200000000001e-29
3439.0,1.9056700000000001e-28,-1.84424e-25,-1.84556e-25,-1.8438599999999999e-25,1.4389700000000001e-29,1.9902299999999999e-29,5.9171599999999995e-29
3440.0,1.74691e-28,-1.8445200000000001e-25,-1.8455200000000001e-25,-1.84415e-25,1.9821300000000001e-29,1.7744700000000001e-29,6.6739799999999996e-29
3441.0,1.5772000000000001e-28,-1.84507e-25,-1.8457600000000001e-25,-1.8447500000000001e-25,2.1685100000000001e-29,1.4411700000000001e-29,7.0046200000000001e-29
3442.0,1.4285499999999999e-28,-1.8452600000000001e-25,-1.8456899999999999e-25,-1.84498e-25,2.2838400000000001e-29,1.16647e-29,6.9867699999999999e-29
3443.0,1.3796000000000001e-28,-1.84582e-25,-1.84605e-25,-1.8455399999999999e-25,2.2890200000000001e-29,8.3350299999999994e-30,7.1463700000000005e-29
3444.0,1.2353899999999999e-28,-1.84591e-25,-1.84589e-25,-1.84573e-25,1.69161e-29,4.6759100000000001e-30,6.8476200000000004e-29
3445.0,2.01661e-28,-1.8439e-25,-1.8455399999999999e-25,-1.8436199999999999e-25,1.4360100000000001e-29,2.3062000000000001e-29,4.5012099999999999e-29
3446.0,1.8470199999999999e-28,-1.8441899999999999e-25,-1.84549e-25,-1.84391e-25,2.3971799999999999e-29,2.2551500000000001e-29,5.63009e-29
3447.0,1.6615299999999999e-28,-1.8446700000000001e-25,-1.84564e-25,-1.84441e-25,2.8135799999999999e-29,2.0293499999999999e-29,6.1249199999999996e-29
3448.0,1.5363800000000001e-28,-1.8449300000000001e-25,-1.84563e-25,-1.8446700000000001e-25,3.1563099999999998e-29,1.6761899999999999e-29,6.4340100000000005e-29
3449.0,1.41312e-28,-1.8454200000000001e-25,-1.8458599999999999e-25,-1.8451899999999999e-25,3.0918500000000002e-29,1.3469500000000001e-29,6.5816999999999999e-29
3450.0,1.31391e-28,-1.8455900000000001e-25,-1.84581e-25,-1.8453699999999999e-25,3.1406499999999999e-29,1.0236599999999999e-29,6.4695500000000003e-29
3451.0,1.30425e-28,-1.84613e-25,-1.84616e-25,-1.84588e-25,3.33177e-29,7.1921900000000003e-30,6.5374399999999995e-29
3452.0,1.8991800000000001e-28,-1.8439499999999999e-25,-1.8455100000000001e-25,-1.8437699999999999e-25,2.22311e-29,2.3451200000000001e-29,4.2099099999999997e-29
3453.0,1.74852e-28,-1.84433e-25,-1.8456000000000001e-25,-1.84416e-25,3.0706400000000001e-29,2.3197999999999999e-29,5.0544999999999996e-29
3454.0,1.61058e-28,-1.8446199999999999e-25,-1.8455900000000001e-25,-1.8444399999999999e-25,3.6006100000000001e-29,2.0329899999999999e-29,5.5756899999999995e-29
3455.0,1.4726399999999999e-28,-1.84505e-25,-1.8457600000000001e-25,-1.84488e-25,3.7425500000000002e-29,1.7504299999999999e-29,5.80593e-29
3456.0,1.3947699999999999e-28,-1.8452899999999999e-25,-1.8457600000000001e-25,-1.8450900000000001e-25,3.9769199999999997e-29,1.39147e-29,5.9565300000000006e-29
3457.0,1.3021799999999999e-28,-1.84574e-25,-1.84598e-25,-1.84556e-25,3.8289400000000003e-29,1.08783e-29,6.01146e-29
3458.0,1.20399e-28,-1.8458699999999999e-25,-1.8459e-25,-1.8456999999999999e-25,3.4914099999999999e-29,7.2499899999999999e-30,5.8708699999999998e-29
3459.0,1.79457e-28,-1.8441000000000001e-25,-1.8456099999999999e-25,-1.8440200000000001e-25,2.8053500000000002e-29,2.1650600000000001e-29,3.8353399999999999e-29
3460.0,1.6630600000000001e-28,-1.8443599999999999e-25,-1.84558e-25,-1.8442700000000001e-25,3.6339699999999998e-29,2.1207999999999999e-29,4.5303799999999999e-29
3461.0,1.5406000000000001e-28,-1.84473e-25,-1.8456999999999999e-25,-1.84463e-25,4.0610999999999999e-29,1.92084e-29,4.9275500000000001e-29
3462.0,1.4491399999999999e-28,-1.84499e-25,-1.8457099999999999e-25,-1.8448699999999999e-25,4.3929800000000003e-29,1.5956199999999999e-29,5.2349800000000004e-29
3463.0,1.3367e-28,-1.84539e-25,-1.8458699999999999e-25,-1.8452600000000001e-25,4.3901700000000001e-29,1.3232799999999999e-29,5.3170599999999995e-29
3464.0,1.2935399999999999e-28,-1.8455900000000001e-25,-1.8458699999999999e-25,-1.8454399999999999e-25,4.5380500000000003e-29,9.6426300000000001e-30,5.4177400000000001e-29
3465.0,1.27504e-28,-1.8460399999999999e-25,-1.84614e-25,-1.84588e-25,4.6303199999999999e-29,7.26692e-30,5.5200899999999997e-29
3466.0,1.67651e-28,-1.8441899999999999e-25,-1.8456099999999999e-25,-1.8441700000000001e-25,3.1925800000000001e-29,1.9017000000000001e-29,3.4366800000000001e-29
3467.0,1.5988499999999999e-28,-1.84447e-25,-1.8456800000000001e-25,-1.8444399999999999e-25,3.9347300000000001e-29,1.8764399999999999e-29,4.00413e-29
3468.0,1.49497e-28,-1.84472e-25,-1.8456899999999999e-25,-1.8446800000000001e-25,4.4158100000000001e-29,1.6642199999999999e-29,4.39347e-29
3469.0,1.39045e-28,-1.84508e-25,-1.84581e-25,-1.8450100000000001e-25,4.6521800000000003e-29,1.4257299999999999e-29,4.6005799999999999e-29
3470.0,1.34509e-28,-1.84531e-25,-1.8458400000000001e-25,-1.84522e-25,4.9185000000000002e-29,1.1329600000000001e-29,4.8630600000000002e-29
3471.0,1.2531899999999999e-28,-1.8456899999999999e-25,-1.84599e-25,-1.8455900000000001e-25,4.8701100000000001e-29,9.0419100000000002e-30,4.8491500000000002e-29
3472.0,1.1913400000000001e-28,-1.8458500000000001e-25,-1.8459399999999999e-25,-1.84573e-25,4.7969199999999998e-29,5.3226299999999998e-30,4.7850400000000001e-29
3473.0,1.62805e-28,-1.8442899999999999e-25,-1.8456700000000001e-25,-1.8443e-25,3.4732600000000001e-29,1.6229600000000001e-29,3.21177e-29
3474.0,1.5348299999999999e-28,-1.84449e-25,-1.8456899999999999e-25,-1.8445000000000001e-25,4.04544e-29,1.5520299999999999e-29,3.5285400000000002e-29
3475.0,1.4480100000000001e-28,-1.8447899999999999e-25,-1.8457700000000001e-25,-1.8447799999999999e-25,4.5182399999999999e-29,1.38309e-29,3.9001699999999998e-29
3476.0,1.3816799999999999e-28,-1.8450299999999999e-25,-1.84581e-25,-1.8450100000000001e-25,4.9072899999999998e-29,1.16697e-29,4.2020300000000001e-29
3477.0,1.2916000000000001e-28,-1.84538e-25,-1.8459200000000001e-25,-1.84533e-25,5.04776e-29,9.3982700000000003e-30,4.3006899999999999e-29
3478.0,1.2687700000000001e-28,-1.8455900000000001e-25,-1.8459499999999999e-25,-1.8455200000000001e-25,5.2386400000000005e-29,6.7242400000000002e-30,4.5252800000000002e-29
3479.0,1.2536999999999999e-28,-1.8459599999999999e-25,-1.84615e-25,-1.84591e-25,5.2563199999999996e-29,5.6477799999999999e-30,4.7749199999999998e-29
3480.0,2.2428199999999999e-28,-1.8439599999999999e-25,-1.84572e-25,-1.84339e-25,-1.00122e-29,7.9078600000000001e-30,4.25957e-29
3481.0,1.94659e-28,-1.8444599999999999e-25,-1.84588e-25,-1.8439599999999999e-25,-3.0052799999999999e-30,5.0064600000000001e-30,5.2226400000000001e-29
3482.0,1.7487700000000001e-28,-1.84465e-25,-1.84574e-25,-1.8441999999999999e-25,1.1043199999999999e-30,6.6007699999999994e-30,6.2542900000000004e-29
3483.0,1.66114e-28,-1.84523e-25,-1.84608e-25,-1.8447899999999999e-25,5.3594500000000002e-30,3.8929500000000003e-30,6.9504099999999998e-29
3484.0,1.4216799999999999e-28,-1.8453400000000001e-25,-1.8458400000000001e-25,-1.8450299999999999e-25,5.3279100000000002e-30,1.9466999999999999e-30,7.0948699999999995e-29
3485.0,1.4575100000000001e-28,-1.8459399999999999e-25,-1.84631e-25,-1.84558e-25,7.7954299999999994e-30,1.5350299999999999e-30,7.54136e-29
3486.0,1.31715e-28,-1.84598e-25,-1.8460299999999999e-25,-1.8457899999999999e-25,2.56271e-30,-3.2216700000000002e-30,7.4885900000000005e-29
3487.0,2.02739e-28,-1.8441099999999999e-25,-1.84574e-25,-1.8436800000000001e-25,-8.9051799999999997e-32,1.2651399999999999e-29,4.2061699999999999e-29
3488.0,1.89298e-28,-1.8443400000000001e-25,-1.8456899999999999e-25,-1.8439e-25,6.9570499999999999e-30,1.2949099999999999e-29,5.4560400000000002e-29
3489.0,1.70703e-28,-1.8448e-25,-1.8458599999999999e-25,-1.84441e-25,1.1230600000000001e-29,1.0873499999999999e-29,6.1874400000000003e-29
3490.0,1.5566100000000001e-28,-1.8450200000000001e-25,-1.8457899999999999e-25,-1.84466e-25,1.4665599999999999e-29,9.18123e-30,6.6467700000000004e-29
3491.0,1.46913e-28,-1.8455100000000001e-25,-1.84606e-25,-1.8451800000000001e-25,1.59648e-29,6.3800100000000006e-30,7.0406600000000004e-29
3492.0,1.34542e-28,-1.84565e-25,-1.8459399999999999e-25,-1.8454e-25,1.5915600000000001e-29,4.1057700000000001e-30,7.09971e-29
3493.0,1.3378000000000001e-28,-1.8461899999999999e-25,-1.8463e-25,-1.8459e-25,1.8819999999999999e-29,2.2922900000000002e-30,7.1929500000000002e-29
3494.0,1.9497900000000001e-28,-1.8440900000000001e-25,-1.84565e-25,-1.84373e-25,9.4069e-30,1.6958900000000001e-29,4.4268299999999997e-29
3495.0,1.7893899999999999e-28,-1.8444499999999999e-25,-1.84574e-25,-1.8441099999999999e-25,1.53614e-29,1.69756e-29,5.23261e-29
3496.0,1.6496e-28,-1.8447099999999999e-25,-1.84572e-25,-1.84438e-25,2.0575100000000001e-29,1.4743899999999999e-29,5.92479e-29
3497.0,1.5168899999999999e-28,-1.84513e-25,-1.84589e-25,-1.8448400000000001e-25,2.27913e-29,1.2081300000000001e-29,6.3556799999999995e-29
3498.0,1.41269e-28,-1.8453500000000001e-25,-1.8458599999999999e-25,-1.84507e-25,2.5195399999999999e-29,9.7567699999999999e-30,6.5624699999999996e-29
3499.0,1.3513399999999999e-28,-1.8458e-25,-1.8461000000000001e-25,-1.8455299999999999e-25,2.50308e-29,6.6238299999999998e-30,6.8029099999999995e-29
3500.0,1.2622200000000001e-28,-1.8459200000000001e-25,-1.8460100000000001e-25,-1.84572e-25,2.1222499999999999e-29,3.1259600000000001e-30,6.8057600000000001e-29
3501.0,1.8373999999999999e-28,-1.8441999999999999e-25,-1.8456899999999999e-25,-1.8439499999999999e-25,1.7447899999999999e-29,1.9086300000000001e-29,4.20897e-29
3502.0,1.7093999999999999e-28,-1.8444300000000001e-25,-1.8456700000000001e-25,-1.8441800000000001e-25,2.3558900000000001e-29,1.78036e-29,5.0075099999999997e-29
3503.0,1.57922e-28,-1.8448e-25,-1.8457799999999999e-25,-1.84456e-25,2.7854899999999999e-29,1.6051299999999999e-29,5.5241699999999994e-29
3504.0,1.4770800000000001e-28,-1.84505e-25,-1.8457899999999999e-25,-1.8448e-25,3.1225000000000002e-29,1.33802e-29,5.9035100000000003e-29
3505.0,1.3773200000000001e-28,-1.8454399999999999e-25,-1.8459399999999999e-25,-1.8452099999999999e-25,3.1830299999999998e-29,1.03838e-29,6.1604900000000003e-29
3506.0,1.3115400000000001e-28,-1.84563e-25,-1.8459300000000001e-25,-1.84541e-25,3.31291e-29,7.6008300000000007e-30,6.2459599999999997e-29
3507.0,1.29414e-28,-1.84608e-25,-1.8461700000000001e-25,-1.8458400000000001e-25,3.4967699999999999e-29,4.8713300000000003e-30,6.3582999999999995e-29
3508.0,1.7218300000000001e-28,-1.8442500000000001e-25,-1.84565e-25,-1.8440900000000001e-25,2.3862099999999999e-29,1.84235e-29,3.9707000000000002e-29
3509.0,1.6338200000000001e-28,-1.8445200000000001e-25,-1.84572e-25,-1.8443599999999999e-25,2.9950800000000001e-29,1.79449e-29,4.6203e-29
3510.0,1.5259300000000001e-28,-1.8447799999999999e-25,-1.84573e-25,-1.8446000000000001e-25,3.4272200000000001e-29,1.5613400000000001e-29,5.1099299999999995e-29
3511.0,1.4237100000000001e-28,-1.8451199999999999e-25,-1.8458500000000001e-25,-1.8449499999999999e-25,3.6850899999999999e-29,1.3183500000000001e-29,5.4199e-29
3512.0,1.36075e-28,-1.8453500000000001e-25,-1.8458699999999999e-25,-1.84516e-25,3.9369000000000001e-29,1.04191e-29,5.6485999999999999e-29
3513.0,1.2870600000000001e-28,-1.84572e-25,-1.8460200000000001e-25,-1.84555e-25,3.9022899999999999e-29,7.5987600000000002e-30,5.8020299999999997e-29
3514.0,1.21852e-28,-1.8458699999999999e-25,-1.84598e-25,-1.84572e-25,3.6608599999999998e-29,4.0830299999999997e-30,5.8474599999999999e-29
3515.0,1.6601300000000001e-28,-1.84433e-25,-1.8456899999999999e-25,-1.84423e-25,2.9696200000000002e-29,1.6740499999999999e-29,3.7556199999999998e-29
3516.0,1.5592000000000001e-28,-1.8445399999999999e-25,-1.8456999999999999e-25,-1.8444399999999999e-25,3.4157299999999998e-29,1.6133699999999999e-29,4.2212900000000001e-29
3517.0,1.47533e-28,-1.84483e-25,-1.8457799999999999e-25,-1.84472e-25,3.8819499999999999e-29,1.4300300000000001e-29,4.6346100000000001e-29
3518.0,1.40465e-28,-1.84508e-25,-1.84582e-25,-1.8449499999999999e-25,4.21769e-29,1.2017900000000001e-29,4.9770999999999999e-29
3519.0,1.3116900000000001e-28,-1.84541e-25,-1.8459200000000001e-25,-1.8452799999999999e-25,4.3186299999999998e-29,9.4152299999999995e-30,5.1302799999999995e-29
3520.0,1.28788e-28,-1.8456199999999999e-25,-1.8459499999999999e-25,-1.84548e-25,4.5286099999999999e-29,6.6580899999999997e-30,5.3244099999999995e-29
3521.0,1.2713800000000001e-28,-1.8460000000000001e-25,-1.84615e-25,-1.8458599999999999e-25,4.6899799999999999e-29,4.9819999999999999e-30,5.4248299999999998e-29
3522.0,1.5874800000000001e-28,-1.8444e-25,-1.8457099999999999e-25,-1.8443500000000001e-25,3.1704399999999998e-29,1.5968399999999999e-29,3.44971e-29
3523.0,1.51795e-28,-1.8446000000000001e-25,-1.84574e-25,-1.8445399999999999e-25,3.7115099999999997e-29,1.4113e-29,3.8846600000000002e-29
3524.0,1.44317e-28,-1.84482e-25,-1.8457700000000001e-25,-1.8447600000000001e-25,4.1654699999999998e-29,1.26111e-29,4.2802600000000001e-29
3525.0,1.3620799999999999e-28,-1.8451199999999999e-25,-1.8458699999999999e-25,-1.84505e-25,4.4538900000000002e-29,1.04874e-29,4.5222000000000002e-29
3526.0,1.3253699999999999e-28,-1.8453500000000001e-25,-1.84591e-25,-1.8452700000000001e-25,4.7476399999999999e-29,8.2578600000000001e-30,4.82155e-29
3527.0,1.24891e-28,-1.8456800000000001e-25,-1.8460100000000001e-25,-1.8455900000000001e-25,4.7786600000000001e-29,6.3061999999999999e-30,4.8867600000000002e-29
3528.0,1.20106e-28,-1.8458500000000001e-25,-1.84599e-25,-1.8457500000000001e-25,4.77409e-29,2.5187899999999999e-30,4.8794000000000001e-29
3529.0,1.2314699999999999e-28,-1.84589e-25,-1.8462099999999999e-25,-1.8460100000000001e-25,6.8936100000000005e-29,2.6395400000000001e-30,6.0224699999999999e-30
3530.0,1.2285399999999999e-28,-1.8457099999999999e-25,-1.84599e-25,-1.8457600000000001e-25,6.9319600000000005e-29,1.3056399999999999e-31,3.3297699999999998e-31
3531.0,1.21263e-28,-1.84538e-25,-1.8457799999999999e-25,-1.8454499999999999e-25,6.6557000000000003e-29,2.5869099999999998e-31,2.6939900000000001e-30
3532.0,1.3193099999999999e-28,-1.8455900000000001e-25,-1.84616e-25,-1.8456999999999999e-25,6.98507e-29,4.0719199999999999e-30,1.9311799999999999e-30
3533.0,1.3747000000000001e-28,-1.8451999999999999e-25,-1.8460299999999999e-25,-1.84539e-25,6.6452500000000001e-29,2.7925399999999999e-30,2.8168100000000001e-30
3534.0,1.2613799999999999e-28,-1.84506e-25,-1.8457799999999999e-25,-1.84516e-25,6.1394499999999996e-29,1.9897900000000001e-30,1.3469399999999999e-30
3535.0,1.3209900000000001e-28,-1.8446999999999999e-25,-1.84563e-25,-1.8448500000000001e-25,5.7769600000000003e-29,2.3031300000000001e-30,1.4579299999999999e-30
3536.0,1.4564799999999999e-28,-1.84488e-25,-1.8459399999999999e-25,-1.84505e-25,6.1730300000000003e-29,3.8131400000000001e-30,-1.3974799999999999e-31
3537.0,1.5468200000000001e-28,-1.84449e-25,-1.8458400000000001e-25,-1.84474e-25,5.3303199999999999e-29,2.80827e-30,4.2884500000000001e-31
3538.0,1.34949e-28,-1.8444399999999999e-25,-1.8455900000000001e-25,-1.8445399999999999e-25,4.5176699999999999e-29,2.6584200000000001e-30,-2.7678900000000001e-31
3539.0,1.5346999999999999e-28,-1.84407e-25,-1.8455200000000001e-25,-1.8442600000000001e-25,4.0517499999999999e-29,3.87894e-30,-1.24478e-30
3540.0,1.65546e-28,-1.8441800000000001e-25,-1.8457600000000001e-25,-1.8443699999999999e-25,4.0989899999999999e-29,2.5696e-30,-3.2540400000000002e-30
3541.0,1.7908e-28,-1.8438300000000001e-25,-1.84565e-25,-1.8440800000000001e-25,3.1329700000000001e-29,2.3292900000000001e-30,-2.1808800000000002e-30
3542.0,1.57186e-28,-1.8439399999999999e-25,-1.84548e-25,-1.8439599999999999e-25,2.0440799999999999e-29,2.87916e-30,-3.6104500000000001e-30
3543.0,1.2045199999999999e-28,-1.8457500000000001e-25,-1.8459499999999999e-25,-1.8457899999999999e-25,6.8019700000000003e-29,1.22523e-30,9.5415700000000003e-30
3544.0,1.2397000000000001e-28,-1.84591e-25,-1.84624e-25,-1.84599e-25,6.8206899999999995e-29,4.4994899999999997e-30,1.29987e-29
3545.0,1.2643300000000001e-28,-1.84556e-25,-1.84607e-25,-1.8456800000000001e-25,6.6919999999999998e-29,3.2844000000000003e-30,1.20912e-29
3546.0,1.25934e-28,-1.8454300000000001e-25,-1.8459599999999999e-25,-1.8455299999999999e-25,6.6254700000000006e-29,3.7546799999999997e-30,1.0228900000000001e-29
3547.0,1.2796800000000001e-28,-1.8450900000000001e-25,-1.8457899999999999e-25,-1.84522e-25,6.2739999999999998e-29,4.3529999999999997e-30,1.07013e-29
3548.0,1.3423700000000001e-28,-1.84523e-25,-1.8460000000000001e-25,-1.8453599999999999e-25,6.4804200000000002e-29,4.3921600000000002e-30,9.2250700000000005e-30
3549.0,1.3991799999999999e-28,-1.8448699999999999e-25,-1.8458699999999999e-25,-1.84506e-25,5.9750799999999997e-29,4.8763199999999998e-30,9.5689200000000003e-30
3550.0,1.3358400000000001e-28,-1.8447899999999999e-25,-1.8457600000000001e-25,-1.84491e-25,5.5683799999999999e-29,4.8678200000000003e-30,7.8502399999999997e-30
3551.0,1.45122e-28,-1.8444300000000001e-25,-1.84565e-25,-1.84463e-25,5.1248500000000005e-29,6.0396500000000003e-30,7.8398500000000003e-30
3552.0,1.4700600000000001e-28,-1.84455e-25,-1.8458e-25,-1.8447099999999999e-25,5.0357600000000002e-29,4.4325700000000003e-30,5.87209e-30
3553.0,1.5965e-28,-1.8441899999999999e-25,-1.8456999999999999e-25,-1.8444200000000001e-25,4.3039800000000003e-29,5.9845399999999999e-30,5.4026799999999998e-30
3554.0,1.49007e-28,-1.8442099999999999e-25,-1.8456000000000001e-25,-1.84432e-25,3.6502699999999999e-29,4.6153799999999999e-30,3.6252200000000001e-30
3555.0,1.68519e-28,-1.84388e-25,-1.84556e-25,-1.8440800000000001e-25,3.1766599999999999e-29,6.6895300000000001e-30,3.5712599999999998e-30
3556.0,1.70719e-28,-1.8439200000000001e-25,-1.84563e-25,-1.8440399999999999e-25,2.43006e-29,3.8580800000000002e-30,5.2169500000000001e-31
3557.0,1.2228900000000001e-28,-1.84591e-25,-1.8461700000000001e-25,-1.84598e-25,6.5127000000000005e-29,3.8218300000000002e-30,2.3523300000000001e-29
3558.0,1.2219899999999999e-28,-1.8457799999999999e-25,-1.8460900000000001e-25,-1.8458400000000001e-25,6.64547e-29,3.8447699999999997e-30,1.7068999999999999e-29
3559.0,1.2336400000000001e-28,-1.84547e-25,-1.84591e-25,-1.8455399999999999e-25,6.3962599999999996e-29,4.6572800000000001e-30,1.9904800000000001e-29
3560.0,1.2834400000000001e-28,-1.8455900000000001e-25,-1.8461199999999999e-25,-1.8456899999999999e-25,6.5627900000000005e-29,4.7887900000000003e-30,1.8780699999999999e-29
3561.0,1.3024899999999999e-28,-1.8452500000000001e-25,-1.8459499999999999e-25,-1.8453699999999999e-25,6.2063600000000003e-29,5.5357399999999998e-30,1.8949500000000001e-29
3562.0,1.3016699999999999e-28,-1.84516e-25,-1.8459e-25,-1.8452700000000001e-25,6.1147600000000005e-29,5.8634800000000002e-30,1.7209100000000001e-29
3563.0,1.3593700000000001e-28,-1.84482e-25,-1.8457600000000001e-25,-1.84497e-25,5.6967099999999995e-29,7.4494900000000006e-30,1.7320599999999999e-29
3564.0,1.3717800000000001e-28,-1.8449200000000001e-25,-1.84588e-25,-1.8450399999999999e-25,5.6838299999999995e-29,5.77563e-30,1.54403e-29
3565.0,1.4635400000000001e-28,-1.84458e-25,-1.8457700000000001e-25,-1.8447500000000001e-25,5.1742200000000002e-29,7.9491000000000002e-30,1.5331000000000001e-29
3566.0,1.4099700000000001e-28,-1.84455e-25,-1.84572e-25,-1.84466e-25,4.7346300000000003e-29,6.50935e-30,1.2482300000000001e-29
3567.0,1.55065e-28,-1.8442099999999999e-25,-1.84563e-25,-1.84439e-25,4.2494400000000002e-29,8.9219400000000002e-30,1.238e-29
3568.0,1.5279e-28,-1.8443e-25,-1.8457099999999999e-25,-1.84441e-25,3.8272999999999998e-29,6.0226499999999998e-30,1.0055699999999999e-29
3569.0,1.68387e-28,-1.84398e-25,-1.84563e-25,-1.8441700000000001e-25,3.3116800000000003e-29,9.3790599999999999e-30,9.6669499999999994e-30
3570.0,1.6262599999999999e-28,-1.8440000000000001e-25,-1.8456000000000001e-25,-1.84407e-25,2.4985400000000001e-29,5.5315900000000003e-30,6.0162000000000001e-30
3571.0,1.20169e-28,-1.84581e-25,-1.8460200000000001e-25,-1.84581e-25,6.3035499999999996e-29,3.6380199999999999e-30,2.6054000000000001e-29
3572.0,1.24218e-28,-1.8459200000000001e-25,-1.84624e-25,-1.84599e-25,6.2995699999999997e-29,4.7000700000000001e-30,2.9765299999999997e-29
3573.0,1.24968e-28,-1.8456099999999999e-25,-1.84605e-25,-1.8456700000000001e-25,6.1640899999999998e-29,5.1893999999999999e-30,2.83929e-29
3574.0,1.2620199999999999e-28,-1.8455200000000001e-25,-1.8460299999999999e-25,-1.8455900000000001e-25,6.1954799999999998e-29,5.88217e-30,2.6200400000000001e-29
3575.0,1.2863499999999999e-28,-1.8452099999999999e-25,-1.8458699999999999e-25,-1.8452899999999999e-25,5.8581899999999995e-29,7.3658800000000002e-30,2.6886199999999998e-29
3576.0,1.3182400000000001e-28,-1.8452799999999999e-25,-1.8460000000000001e-25,-1.8453699999999999e-25,5.98354e-29,5.9495299999999997e-30,2.5111899999999999e-29
3577.0,1.35956e-28,-1.84497e-25,-1.8458599999999999e-25,-1.84507e-25,5.5383099999999995e-29,8.3787999999999995e-30,2.5049700000000001e-29
3578.0,1.3485499999999999e-28,-1.84491e-25,-1.84583e-25,-1.8450000000000001e-25,5.3986200000000003e-29,7.0416499999999997e-30,2.2403300000000001e-29
3579.0,1.4401700000000001e-28,-1.8446000000000001e-25,-1.84573e-25,-1.84473e-25,4.96668e-29,1.016e-29,2.22944e-29
3580.0,1.41671e-28,-1.84465e-25,-1.8458e-25,-1.8447500000000001e-25,4.71164e-29,7.1537499999999997e-30,1.9991799999999999e-29
3581.0,1.53951e-28,-1.8443500000000001e-25,-1.8457099999999999e-25,-1.84448e-25,4.2248700000000001e-29,1.10717e-29,1.9714700000000001e-29
3582.0,1.4868900000000001e-28,-1.8443400000000001e-25,-1.8456899999999999e-25,-1.8444300000000001e-25,3.7438000000000001e-29,7.1023600000000005e-30,1.5369800000000001e-29
3583.0,1.6390099999999999e-28,-1.84407e-25,-1.8456199999999999e-25,-1.8441999999999999e-25,3.3932399999999999e-29,1.13894e-29,1.6106599999999999e-29
3584.0,1.61449e-28,-1.8440900000000001e-25,-1.84565e-25,-1.84415e-25,2.6017100000000002e-29,7.3191299999999999e-30,1.23396e-29
3585.0,1.23547e-28,-1.8459300000000001e-25,-1.8461700000000001e-25,-1.8459599999999999e-25,5.7881200000000002e-29,4.5241099999999999e-30,3.9367599999999998e-29
3586.0,1.2228600000000001e-28,-1.84583e-25,-1.8461099999999999e-25,-1.8458599999999999e-25,6.0556899999999996e-29,4.7490700000000001e-30,3.2471399999999999e-29
3587.0,1.2432499999999999e-28,-1.84556e-25,-1.84597e-25,-1.84556e-25,5.7440400000000004e-29,6.0433800000000001e-30,3.5445699999999998e-29
3588.0,1.2775600000000001e-28,-1.8456099999999999e-25,-1.8461099999999999e-25,-1.8456800000000001e-25,5.9289600000000001e-29,5.0841899999999999e-30,3.43427e-29
3589.0,1.2922099999999999e-28,-1.84533e-25,-1.8459499999999999e-25,-1.8453599999999999e-25,5.5856999999999999e-29,7.1990200000000005e-30,3.4119000000000002e-29
3590.0,1.2990599999999999e-28,-1.8452600000000001e-25,-1.8459499999999999e-25,-1.84532e-25,5.5834299999999995e-29,6.5620300000000001e-30,3.1856200000000001e-29
3591.0,1.3499999999999999e-28,-1.84498e-25,-1.84582e-25,-1.8450299999999999e-25,5.2062600000000004e-29,9.4945599999999997e-30,3.1927199999999998e-29
3592.0,1.3560799999999999e-28,-1.8450000000000001e-25,-1.8459e-25,-1.84507e-25,5.1893000000000006e-29,7.10182e-30,2.9975500000000003e-29
3593.0,1.4315500000000001e-28,-1.84472e-25,-1.8457899999999999e-25,-1.8447899999999999e-25,4.7410899999999999e-29,1.08485e-29,2.9724999999999999e-29
3594.0,1.40172e-28,-1.8446899999999999e-25,-1.8457799999999999e-25,-1.8447500000000001e-25,4.5392099999999999e-29,7.7115099999999995e-30,2.59075e-29
3595.0,1.5133500000000001e-28,-1.84441e-25,-1.8456999999999999e-25,-1.8445000000000001e-25,4.1079000000000001e-29,1.19824e-29,2.5481099999999998e-29
3596.0,1.47228e-28,-1.8444399999999999e-25,-1.84573e-25,-1.8445000000000001e-25,3.6661099999999999e-29,7.92198e-30,2.27069e-29
3597.0,1.6096099999999999e-28,-1.8441999999999999e-25,-1.8456700000000001e-25,-1.8442700000000001e-25,3.3358400000000003e-29,1.2994399999999999e-29,2.2768899999999999e-29
3598.0,1.57508e-28,-1.8441800000000001e-25,-1.84566e-25,-1.8442099999999999e-25,2.6811800000000001e-29,7.2364799999999996e-30,1.71967e-29
3599.0,1.21507e-28,-1.8458599999999999e-25,-1.8460399999999999e-25,-1.8457899999999999e-25,5.5854099999999999e-29,3.0306500000000001e-30,4.0220300000000001e-29
3600.0,1.2537300000000001e-28,-1.8459e-25,-1.8461999999999999e-25,-1.84597e-25,5.4562800000000003e-29,2.8563799999999999e-30,4.4922999999999997e-29
3601.0,1.2594400000000001e-28,-1.84565e-25,-1.8460399999999999e-25,-1.84563e-25,5.4012299999999997e-29,5.0509899999999998e-30,4.2424300000000002e-29
3602.0,1.2585699999999999e-28,-1.84557e-25,-1.8460399999999999e-25,-1.8456099999999999e-25,5.4409599999999998e-29,4.8623000000000002e-30,4.0313100000000001e-29
3603.0,1.2939999999999999e-28,-1.84531e-25,-1.8459200000000001e-25,-1.84531e-25,5.1604400000000003e-29,7.5053600000000007e-30,4.0479000000000001e-29
3604.0,1.30948e-28,-1.84532e-25,-1.84599e-25,-1.8453699999999999e-25,5.2650499999999997e-29,5.6178800000000001e-30,3.9114900000000001e-29
3605.0,1.34964e-28,-1.84507e-25,-1.84588e-25,-1.84507e-25,4.86406e-29,9.0441299999999993e-30,3.8291899999999999e-29
3606.0,1.3426899999999999e-28,-1.8450100000000001e-25,-1.8458699999999999e-25,-1.84505e-25,4.84794e-29,6.6729700000000006e-30,3.5455299999999998e-29
3607.0,1.4229000000000001e-28,-1.8447700000000001e-25,-1.8457899999999999e-25,-1.8447899999999999e-25,4.4600400000000002e-29,1.0926e-29,3.5039499999999999e-29
3608.0,1.4042399999999999e-28,-1.8447600000000001e-25,-1.84582e-25,-1.8447899999999999e-25,4.2684100000000001e-29,7.6107699999999998e-30,3.2817500000000001e-29
3609.0,1.49787e-28,-1.8445299999999999e-25,-1.84574e-25,-1.84455e-25,3.8676399999999998e-29,1.18714e-29,3.2111299999999999e-29
3610.0,1.46232e-28,-1.8445000000000001e-25,-1.84574e-25,-1.8445299999999999e-25,3.58806e-29,7.42481e-30,2.7497900000000001e-29
3611.0,1.5653799999999999e-28,-1.84431e-25,-1.8456899999999999e-25,-1.84433e-25,3.2650299999999999e-29,1.2288299999999999e-29,2.7065799999999999e-29
3612.0,1.5387799999999999e-28,-1.8442799999999999e-25,-1.8456800000000001e-25,-1.8442700000000001e-25,2.6549700000000001e-29,7.5739999999999999e-30,2.32414e-29
3613.0,1.2538900000000001e-28,-1.8459e-25,-1.84613e-25,-1.8459e-25,4.8634000000000002e-29,3.7112400000000003e-30,5.1701099999999996e-29
3614.0,1.23894e-28,-1.8458599999999999e-25,-1.8460900000000001e-25,-1.84582e-25,5.3059100000000003e-29,2.082e-30,4.5714599999999999e-29
3615.0,1.2659199999999999e-28,-1.8456099999999999e-25,-1.8460000000000001e-25,-1.84555e-25,5.0011399999999999e-29,4.7407599999999997e-30,4.7278400000000002e-29
3616.0,1.2834199999999999e-28,-1.8456000000000001e-25,-1.84605e-25,-1.8456199999999999e-25,5.0499399999999996e-29,3.14545e-30,4.7645499999999998e-29
3617.0,1.29854e-28,-1.8453699999999999e-25,-1.8459399999999999e-25,-1.84532e-25,4.83096e-29,6.1573599999999999e-30,4.5346399999999998e-29
3618.0,1.3041299999999999e-28,-1.84531e-25,-1.8459499999999999e-25,-1.84532e-25,4.83004e-29,4.3983700000000002e-30,4.4464399999999998e-29
3619.0,1.3513099999999999e-28,-1.84508e-25,-1.8458599999999999e-25,-1.8450399999999999e-25,4.51711e-29,8.6001299999999995e-30,4.2475100000000002e-29
3620.0,1.34638e-28,-1.84505e-25,-1.84588e-25,-1.84505e-25,4.44218e-29,5.51773e-30,4.1683100000000003e-29
3621.0,1.4300900000000001e-28,-1.84483e-25,-1.84582e-25,-1.8447899999999999e-25,4.1411100000000001e-29,1.0187300000000001e-29,4.0317100000000001e-29
3622.0,1.39877e-28,-1.8447799999999999e-25,-1.84581e-25,-1.8447799999999999e-25,3.9772699999999998e-29,6.3969400000000007e-30,3.6608500000000003e-29
3623.0,1.4871599999999999e-28,-1.84458e-25,-1.8457500000000001e-25,-1.84455e-25,3.7024099999999999e-29,1.09449e-29,3.5343099999999998e-29
3624.0,1.46554e-28,-1.84457e-25,-1.8457700000000001e-25,-1.84455e-25,3.31376e-29,6.6122599999999998e-30,3.3422700000000002e-29
3625.0,1.5425299999999999e-28,-1.84441e-25,-1.8456999999999999e-25,-1.8443599999999999e-25,3.0679700000000002e-29,1.19404e-29,3.2510099999999998e-29
3626.0,1.5093799999999999e-28,-1.8443599999999999e-25,-1.8457099999999999e-25,-1.8443400000000001e-25,2.6504999999999998e-29,5.6301300000000001e-30,2.6505599999999998e-29
3627.0,2.03572e-28,-1.84346e-25,-1.84555e-25,-1.8435800000000001e-25,4.3425999999999997e-30,-1.21957e-31,-6.3164600000000005e-30
3628.0,2.18952e-28,-1.84332e-25,-1.8454599999999999e-25,-1.8432799999999999e-25,-1.7603699999999999e-29,2.0446400000000001e-30,-1.15273e-29
3629.0,2.8207299999999998e-28,-1.8426099999999999e-25,-1.8452899999999999e-25,-1.8425800000000001e-25,-4.6086599999999998e-29,-1.6103699999999999e-30,-1.3999199999999999e-29
3630.0,3.4616499999999999e-28,-1.8420399999999999e-25,-1.84514e-25,-1.8419e-25,-7.5755100000000002e-29,-1.2870799999999999e-30,-2.3620799999999999e-29
3631.0,4.37983e-28,-1.84073e-25,-1.84456e-25,-1.8405399999999999e-25,-1.0722999999999999e-28,-3.2210200000000001e-30,-2.9533300000000002e-29
3632.0,5.4162600000000003e-28,-1.8391099999999999e-25,-1.8437799999999999e-25,-1.8388400000000001e-25,-1.3769599999999999e-28,-3.3134100000000003e-30,-4.2896200000000003e-29
3633.0,6.4606399999999998e-28,-1.83681e-25,-1.8424399999999999e-25,-1.83647e-25,-1.56579e-28,-6.6620699999999999e-30,-4.87267e-29
3634.0,1.7953000000000001e-28,-1.84365e-25,-1.8455000000000001e-25,-1.84381e-25,1.5143000000000001e-29,3.1047099999999999e-30,-4.8520800000000001e-30
3635.0,2.2127799999999999e-28,-1.8430800000000001e-25,-1.8454200000000001e-25,-1.84341e-25,1.3429699999999999e-29,3.41097e-30,-4.5501399999999998e-30
3636.0,2.34592e-28,-1.84281e-25,-1.8452899999999999e-25,-1.8431099999999999e-25,8.7618100000000008e-31,6.2866900000000001e-30,-6.8460000000000005e-30
3637.0,2.83284e-28,-1.84189e-25,-1.8449300000000001e-25,-1.84238e-25,-9.1829699999999994e-31,7.5695400000000003e-30,-4.9771499999999998e-30
3638.0,3.0243800000000002e-28,-1.8411999999999999e-25,-1.8444300000000001e-25,-1.8416899999999999e-25,-1.37141e-30,1.2579300000000001e-29,-5.6961699999999997e-30
3639.0,3.2419699999999998e-28,-1.84005e-25,-1.8435000000000001e-25,-1.84055e-25,6.3303500000000006e-30,1.36175e-29,1.6942300000000001e-30
3640.0,3.2015799999999999e-28,-1.8390999999999999e-25,-1.8424399999999999e-25,-1.8394399999999999e-25,1.4385499999999999e-30,1.6839600000000001e-29,4.22743e-30
3641.0,1.8496299999999999e-28,-1.8436700000000001e-25,-1.8455299999999999e-25,-1.84371e-25,6.6895199999999995e-30,3.75947e-30,-2.6923699999999999e-30
3642.0,2.22103e-28,-1.84322e-25,-1.8454399999999999e-25,-1.8432500000000001e-25,-1.4225900000000001e-29,3.01735e-30,-7.5304399999999996e-30
3643.0,2.63622e-28,-1.84289e-25,-1.84541e-25,-1.8428400000000001e-25,-3.7377199999999997e-29,2.61013e-30,-1.3989799999999999e-29
3644.0,3.2851500000000002e-28,-1.84214e-25,-1.84514e-25,-1.8420299999999999e-25,-6.51339e-29,2.2802300000000001e-30,-2.2480500000000001e-29
3645.0,4.07227e-28,-1.8412799999999999e-25,-1.8448599999999999e-25,-1.8410900000000001e-25,-9.4380799999999998e-29,1.19043e-30,-3.4618200000000003e-29
3646.0,4.9815300000000002e-28,-1.8398300000000001e-25,-1.84416e-25,-1.83956e-25,-1.1864400000000001e-28,2.3498699999999999e-31,-4.5978800000000003e-29
3647.0,5.9494699999999997e-28,-1.8381899999999999e-25,-1.8433e-25,-1.83782e-25,-1.4273000000000001e-28,-4.9457499999999999e-30,-6.1419300000000004e-29
3648.0,1.8938e-28,-1.84357e-25,-1.8455200000000001e-25,-1.84381e-25,2.33961e-29,7.0493600000000005e-30,1.5248399999999999e-30
3649.0,2.0307600000000001e-28,-1.8433599999999999e-25,-1.84548e-25,-1.8436099999999999e-25,1.4555000000000001e-29,9.1994499999999996e-30,9.8927799999999994e-31
3650.0,2.36224e-28,-1.8427799999999999e-25,-1.8452700000000001e-25,-1.8431099999999999e-25,9.1149999999999998e-30,1.3013e-29,9.9591499999999998e-31
3651.0,2.61781e-28,-1.84231e-25,-1.84507e-25,-1.8426700000000001e-25,3.6713000000000003e-30,1.71509e-29,2.14551e-30
3652.0,2.9543399999999999e-28,-1.84147e-25,-1.84456e-25,-1.8418400000000001e-25,4.1558599999999997e-30,2.2971199999999999e-29,6.5280799999999996e-30
3653.0,3.0836799999999999e-28,-1.8407600000000001e-25,-1.8439300000000001e-25,-1.8410399999999999e-25,3.07305e-30,2.6195900000000001e-29,1.2777200000000001e-29
3654.0,3.2832100000000001e-28,-1.8397799999999999e-25,-1.84305e-25,-1.8398599999999999e-25,-3.11524e-30,2.5335500000000001e-29,2.1370900000000001e-29
3655.0,1.8510899999999999e-28,-1.8436800000000001e-25,-1.84555e-25,-1.84374e-25,9.2816800000000002e-30,5.9328200000000001e-30,1.9315600000000001e-30
3656.0,2.09627e-28,-1.8434300000000001e-25,-1.8455200000000001e-25,-1.8434300000000001e-25,-8.0413299999999997e-30,4.7876500000000001e-30,-2.9314800000000002e-30
3657.0,2.5070399999999998e-28,-1.84299e-25,-1.8454e-25,-1.8429300000000001e-25,-2.9637299999999999e-29,5.0872800000000003e-30,-1.06808e-29
3658.0,3.0182899999999998e-28,-1.84256e-25,-1.8453400000000001e-25,-1.8424200000000001e-25,-5.2631799999999998e-29,4.1315600000000003e-30,-1.9956399999999999e-29
3659.0,3.6888199999999999e-28,-1.8417799999999999e-25,-1.84506e-25,-1.84156e-25,-7.68307e-29,2.63672e-30,-3.25872e-29
3660.0,4.4420699999999998e-28,-1.8409e-25,-1.8447500000000001e-25,-1.8405800000000001e-25,-9.919e-29,6.8707499999999999e-31,-4.7778299999999998e-29
3661.0,5.2269000000000003e-28,-1.8396600000000001e-25,-1.84413e-25,-1.83923e-25,-1.16302e-28,-6.6342800000000003e-30,-6.1173199999999999e-29
3662.0,1.80569e-28,-1.84374e-25,-1.84557e-25,-1.8439300000000001e-25,2.4641200000000001e-29,1.06455e-29,8.1555900000000005e-30
3663.0,2.0062700000000001e-28,-1.84339e-25,-1.8454499999999999e-25,-1.8436099999999999e-25,1.79622e-29,1.3728299999999999e-29,7.5921500000000005e-30
3664.0,2.2329299999999998e-28,-1.8430900000000001e-25,-1.84539e-25,-1.84332e-25,1.1606800000000001e-29,1.7485799999999999e-29,8.4163700000000003e-30
3665.0,2.5312800000000002e-28,-1.8425399999999999e-25,-1.84513e-25,-1.8427600000000001e-25,5.97931e-30,2.34622e-29,1.0105100000000001e-29
3666.0,2.7818900000000002e-28,-1.8420800000000001e-25,-1.84488e-25,-1.84224e-25,1.8278600000000001e-30,2.7743600000000002e-29,1.3925999999999999e-29
3667.0,3.0421900000000002e-28,-1.8414e-25,-1.8443699999999999e-25,-1.84141e-25,-2.9472399999999999e-30,3.0953999999999998e-29,2.0844999999999999e-29
3668.0,3.22225e-28,-1.8408699999999999e-25,-1.8439200000000001e-25,-1.8406899999999999e-25,-1.7400200000000001e-29,2.8450899999999999e-29,2.2713399999999999e-29
3669.0,1.7737600000000001e-28,-1.8438300000000001e-25,-1.8455900000000001e-25,-1.8438500000000001e-25,1.24413e-29,6.4701099999999999e-30,7.4064800000000002e-30
3670.0,2.0154300000000001e-28,-1.8435299999999999e-25,-1.8455299999999999e-25,-1.8435100000000001e-25,-3.1908200000000001e-30,7.4244300000000002e-30,1.7707799999999999e-30
3671.0,2.3183399999999998e-28,-1.8432799999999999e-25,-1.8455200000000001e-25,-1.8431899999999999e-25,-2.02551e-29,6.0422499999999999e-30,-4.7031699999999998e-30
3672.0,2.7500399999999998e-28,-1.8428599999999999e-25,-1.8454200000000001e-25,-1.8426899999999999e-25,-3.9840999999999997e-29,5.7911299999999997e-30,-1.49791e-29
3673.0,3.2453500000000001e-28,-1.84247e-25,-1.8453699999999999e-25,-1.8421999999999999e-25,-5.8646899999999995e-29,3.1577999999999999e-30,-2.6477599999999998e-29
3674.0,3.8461599999999999e-28,-1.8417899999999999e-25,-1.84513e-25,-1.84141e-25,-7.67919e-29,4.7108399999999998e-32,-4.06555e-29
3675.0,4.4360699999999999e-28,-1.84123e-25,-1.8450000000000001e-25,-1.8407899999999999e-25,-9.34129e-29,-8.4455700000000003e-30,-5.6364499999999997e-29
3676.0,1.7715e-28,-1.8438400000000001e-25,-1.84558e-25,-1.8439599999999999e-25,2.5848900000000001e-29,1.3371599999999999e-29,1.44611e-29
3677.0,1.9253999999999999e-28,-1.84364e-25,-1.84555e-25,-1.8437600000000001e-25,2.02765e-29,1.5674300000000001e-29,1.4740700000000001e-29
3678.0,2.1376500000000002e-28,-1.8432899999999999e-25,-1.8454200000000001e-25,-1.84339e-25,1.3196600000000001e-29,2.0803900000000001e-29,1.5041899999999999e-29
3679.0,2.3746200000000001e-28,-1.8430100000000001e-25,-1.8453500000000001e-25,-1.84306e-25,6.8429400000000006e-30,2.4078200000000001e-29,1.7129900000000001e-29
3680.0,2.6410699999999999e-28,-1.84256e-25,-1.8451000000000001e-25,-1.8425000000000001e-25,-3.3932799999999999e-31,2.8283999999999999e-29,1.9278300000000001e-29
3681.0,2.8392200000000002e-28,-1.8422799999999999e-25,-1.8449300000000001e-25,-1.84207e-25,-9.2941500000000007e-30,2.7810899999999997e-29,2.1983100000000001e-29
3682.0,3.2031999999999999e-28,-1.8417600000000001e-25,-1.84464e-25,-1.8413e-25,-2.24038e-29,2.20998e-29,2.3091600000000001e-29
3683.0,1.7223100000000001e-28,-1.8439499999999999e-25,-1.8456199999999999e-25,-1.8439300000000001e-25,1.4956700000000001e-29,8.1124899999999997e-30,1.3271299999999999e-29
3684.0,1.90151e-28,-1.84374e-25,-1.8456000000000001e-25,-1.8436700000000001e-25,2.1815299999999999e-30,6.8034200000000003e-30,8.3518000000000002e-30
3685.0,2.1530599999999998e-28,-1.84349e-25,-1.84556e-25,-1.8433599999999999e-25,-1.2045699999999999e-29,7.3118400000000002e-30,1.7289899999999999e-30
3686.0,2.4451899999999998e-28,-1.8432899999999999e-25,-1.84558e-25,-1.8430800000000001e-25,-2.6684200000000001e-29,5.0183400000000002e-30,-6.0486599999999998e-30
3687.0,2.83625e-28,-1.8429499999999999e-25,-1.8455100000000001e-25,-1.84265e-25,-4.2584599999999998e-29,2.5450600000000002e-30,-1.70053e-29
3688.0,3.2392600000000002e-28,-1.8426999999999999e-25,-1.8455299999999999e-25,-1.84231e-25,-5.6512699999999998e-29,-2.30784e-30,-2.8815800000000001e-29
3689.0,3.7057599999999999e-28,-1.8422500000000001e-25,-1.8454300000000001e-25,-1.8417899999999999e-25,-6.6558299999999999e-29,-1.11191e-29,-4.28241e-29
3690.0,1.71603e-28,-1.8440100000000001e-25,-1.84563e-25,-1.84406e-25,2.6947799999999999e-29,1.3729600000000001e-29,2.0621300000000001e-29
3691.0,1.8457800000000001e-28,-1.8438e-25,-1.84556e-25,-1.8438300000000001e-25,2.05371e-29,1.7547599999999999e-29,2.0510500000000001e-29
3692.0,2.0204199999999999e-28,-1.8436199999999999e-25,-1.84555e-25,-1.8436000000000001e-25,1.44321e-29,1.9871199999999999e-29,2.1775799999999999e-29
3693.0,2.22252e-28,-1.8433400000000001e-25,-1.8454399999999999e-25,-1.8432500000000001e-25,6.4152999999999997e-30,2.3239299999999999e-29,2.2150600000000001e-29
3694.0,2.4234399999999998e-28,-1.8431700000000001e-25,-1.84541e-25,-1.84296e-25,-1.5558399999999999e-30,2.3327299999999999e-29,2.29864e-29
3695.0,2.6786000000000001e-28,-1.8428699999999999e-25,-1.8452700000000001e-25,-1.84249e-25,-1.23284e-29,2.1844e-29,2.3436699999999999e-29
3696.0,2.8317299999999999e-28,-1.8427600000000001e-25,-1.8452600000000001e-25,-1.8422899999999999e-25,-2.64716e-29,1.44805e-29,1.7382399999999999e-29
3697.0,1.66003e-28,-1.8440800000000001e-25,-1.84565e-25,-1.8440200000000001e-25,1.6905199999999999e-29,7.0106700000000002e-30,1.8151599999999999e-29
3698.0,1.8010200000000001e-28,-1.8439e-25,-1.8456199999999999e-25,-1.8438e-25,6.75786e-30,7.8878999999999993e-30,1.45591e-29
3699.0,1.9667099999999999e-28,-1.8437799999999999e-25,-1.84564e-25,-1.8436099999999999e-25,-4.0952399999999999e-30,5.5464599999999998e-30,9.92185e-30
3700.0,2.1934299999999998e-28,-1.8435900000000001e-25,-1.84564e-25,-1.8433500000000001e-25,-1.6365299999999999e-29,4.8129600000000002e-30,3.3249199999999999e-30
3701.0,2.43037e-28,-1.84348e-25,-1.8456899999999999e-25,-1.8431700000000001e-25,-2.7590399999999998e-29,1.63253e-31,-4.2719199999999999e-30
3702.0,2.75623e-28,-1.84324e-25,-1.8456700000000001e-25,-1.8428400000000001e-25,-3.9115699999999998e-29,-4.3288399999999997e-30,-1.4949300000000001e-29
3703.0,2.94829e-28,-1.84321e-25,-1.8457899999999999e-25,-1.8428300000000001e-25,-4.8622799999999999e-29,-1.06555e-29,-2.3515699999999999e-29
3704.0,1.6503200000000001e-28,-1.84415e-25,-1.84565e-25,-1.84414e-25,2.5994399999999998e-29,1.4410200000000001e-29,2.5240999999999999e-29
3705.0,1.7665399999999999e-28,-1.8440200000000001e-25,-1.84565e-25,-1.84397e-25,2.0865799999999999e-29,1.55061e-29,2.6049099999999998e-29
3706.0,1.8996199999999999e-28,-1.8438500000000001e-25,-1.8455900000000001e-25,-1.8437500000000001e-25,1.4030500000000001e-29,1.84691e-29,2.6355600000000003e-29
3707.0,2.0569299999999998e-28,-1.84374e-25,-1.8456099999999999e-25,-1.84355e-25,7.0014400000000002e-30,1.8127999999999999e-29,2.7182999999999998e-29
3708.0,2.2382700000000001e-28,-1.84355e-25,-1.84555e-25,-1.84324e-25,-2.3006499999999999e-30,1.7795799999999999e-29,2.60231e-29
3709.0,2.3808000000000001e-28,-1.8435199999999999e-25,-1.8456000000000001e-25,-1.8431000000000001e-25,-1.2298e-29,1.36757e-29,2.3539500000000001e-29
3710.0,2.7158600000000001e-28,-1.8432899999999999e-25,-1.8456099999999999e-25,-1.8426999999999999e-25,-2.2980599999999999e-29,5.90599e-30,2.1572899999999999e-29
3711.0,1.58297e-28,-1.8441999999999999e-25,-1.84565e-25,-1.8441199999999999e-25,1.82771e-29,7.1495599999999996e-30,2.3138100000000001e-29
3712.0,1.68905e-28,-1.8441000000000001e-25,-1.8456700000000001e-25,-1.84398e-25,1.09173e-29,5.8263900000000003e-30,2.15351e-29
3713.0,1.8067500000000001e-28,-1.8440100000000001e-25,-1.8456899999999999e-25,-1.8438300000000001e-25,3.12775e-30,5.4148000000000003e-30,1.8566600000000001e-29
3714.0,1.9458199999999999e-28,-1.8439399999999999e-25,-1.84573e-25,-1.8436800000000001e-25,-6.2167599999999999e-30,2.1959000000000001e-30,1.4253899999999999e-29
3715.0,2.1332499999999999e-28,-1.8438300000000001e-25,-1.8457500000000001e-25,-1.8435000000000001e-25,-1.5901199999999999e-29,-3.65861e-31,8.4719000000000003e-30
3716.0,2.2794199999999999e-28,-1.8438e-25,-1.84582e-25,-1.8434300000000001e-25,-2.4635599999999999e-29,-5.9372399999999998e-30,2.1001599999999999e-30
3717.0,2.60358e-28,-1.8436700000000001e-25,-1.8459300000000001e-25,-1.8431999999999999e-25,-3.1684999999999998e-29,-1.23758e-29,-5.5144700000000003e-30
3718.0,1.5980900000000001e-28,-1.8442899999999999e-25,-1.8456899999999999e-25,-1.84423e-25,2.58254e-29,1.16962e-29,2.9539500000000001e-29
3719.0,1.6763000000000001e-28,-1.8441899999999999e-25,-1.8456700000000001e-25,-1.8440900000000001e-25,2.0411000000000001e-29,1.45825e-29,2.9949399999999998e-29
3720.0,1.7949399999999999e-28,-1.8441000000000001e-25,-1.8456800000000001e-25,-1.8439300000000001e-25,1.48546e-29,1.4325e-29,3.1492200000000002e-29
3721.0,1.9198800000000001e-28,-1.84399e-25,-1.8456700000000001e-25,-1.84374e-25,7.3822699999999997e-30,1.46415e-29,3.0808500000000002e-29
3722.0,2.0431000000000002e-28,-1.8439399999999999e-25,-1.8457099999999999e-25,-1.8435900000000001e-25,-8.0720099999999998e-31,1.2053e-29,2.9467200000000002e-29
3723.0,2.2339700000000002e-28,-1.8438300000000001e-25,-1.84573e-25,-1.8433699999999999e-25,-1.06284e-29,7.8399899999999997e-30,2.73485e-29
3724.0,2.2426600000000001e-28,-1.8438500000000001e-25,-1.8457899999999999e-25,-1.84341e-25,-2.10973e-29,-4.0367800000000002e-31,1.6899499999999999e-29
3725.0,1.3806000000000001e-28,-1.8462799999999999e-25,-1.8465000000000001e-25,-1.84598e-25,5.2267300000000002e-30,-5.2541699999999998e-30,7.50524e-29
3726.0,1.3699299999999999e-28,-1.8460399999999999e-25,-1.8462899999999999e-25,-1.8458e-25,-2.72154e-30,-1.7091e-29,7.32222e-29
3727.0,1.3237499999999999e-28,-1.84597e-25,-1.84614e-25,-1.8457700000000001e-25,8.5217900000000001e-30,-4.5376899999999999e-30,7.3511800000000002e-29
3728.0,1.3465e-28,-1.84615e-25,-1.84638e-25,-1.84591e-25,1.14929e-29,-1.1643400000000001e-29,7.2292499999999997e-29
3729.0,1.3165499999999999e-28,-1.8461099999999999e-25,-1.8462500000000001e-25,-1.8458500000000001e-25,2.2811399999999999e-29,-1.2354100000000001e-30,6.96028e-29
3730.0,1.30425e-28,-1.8459e-25,-1.8461199999999999e-25,-1.84572e-25,1.5017699999999999e-29,-9.7482100000000006e-30,7.0419399999999995e-29
3731.0,1.26242e-28,-1.84589e-25,-1.84605e-25,-1.8457099999999999e-25,2.5192500000000001e-29,-2.8606699999999999e-31,6.6344399999999997e-29
3732.0,1.2976700000000001e-28,-1.84597e-25,-1.84615e-25,-1.8458e-25,2.8510400000000001e-29,-7.5456600000000005e-30,6.6555100000000001e-29
3733.0,1.28201e-28,-1.8460000000000001e-25,-1.84614e-25,-1.84581e-25,3.8521700000000001e-29,1.1191199999999999e-30,6.0956500000000003e-29
3734.0,1.2668100000000001e-28,-1.8458e-25,-1.8460200000000001e-25,-1.84572e-25,3.0610399999999998e-29,-4.3948500000000002e-30,6.4428700000000002e-29
3735.0,1.23309e-28,-1.8458400000000001e-25,-1.8460200000000001e-25,-1.8457500000000001e-25,3.8729300000000003e-29,1.27541e-30,5.8148500000000003e-29
3736.0,1.27714e-28,-1.8459e-25,-1.8460900000000001e-25,-1.8458e-25,4.3050500000000001e-29,-2.9535299999999999e-30,5.7968500000000003e-29
3737.0,1.26754e-28,-1.8459399999999999e-25,-1.8461199999999999e-25,-1.84582e-25,5.0053300000000002e-29,2.1987299999999999e-30,5.1227900000000004e-29
3738.0,1.25821e-28,-1.8458e-25,-1.84607e-25,-1.8458400000000001e-25,4.3191599999999999e-29,-2.2532699999999999e-31,5.6523899999999996e-29
3739.0,1.3566999999999999e-28,-1.8456999999999999e-25,-1.84607e-25,-1.8454499999999999e-25,1.7910899999999999e-30,-6.7744100000000002e-30,7.1542899999999999e-29
3740.0,1.4494399999999999e-28,-1.84597e-25,-1.8464599999999999e-25,-1.84565e-25,5.3521299999999998e-31,-1.28797e-29,7.1950499999999996e-29
3741.0,1.3883899999999999e-28,-1.8458599999999999e-25,-1.8462600000000001e-25,-1.84556e-25,1.2294999999999999e-29,-1.3393899999999999e-30,7.1084699999999998e-29
3742.0,1.34556e-28,-1.84565e-25,-1.8461099999999999e-25,-1.8454e-25,9.0638600000000003e-30,-1.0143700000000001e-29,6.7407500000000001e-29
3743.0,1.32613e-28,-1.84565e-25,-1.8460100000000001e-25,-1.8454e-25,2.03468e-29,1.43723e-30,6.7200899999999998e-29
3744.0,1.34554e-28,-1.8457099999999999e-25,-1.84615e-25,-1.84547e-25,1.8471799999999999e-29,-8.1802000000000007e-30,6.6730200000000003e-29
3745.0,1.3214900000000001e-28,-1.84573e-25,-1.84608e-25,-1.8455000000000001e-25,2.86425e-29,2.2574700000000002e-30,6.4478200000000001e-29
3746.0,1.3023399999999999e-28,-1.84556e-25,-1.84598e-25,-1.8454e-25,2.5541499999999998e-29,-4.5309899999999999e-30,6.3883299999999995e-29
3747.0,1.28648e-28,-1.8456099999999999e-25,-1.8459599999999999e-25,-1.8454399999999999e-25,3.5274699999999998e-29,4.0466600000000003e-30,5.9492600000000002e-29
3748.0,1.3020199999999999e-28,-1.8456000000000001e-25,-1.8460100000000001e-25,-1.84548e-25,3.3524399999999999e-29,-3.3273800000000001e-30,6.1114900000000003e-29
3749.0,1.28086e-28,-1.84566e-25,-1.8460200000000001e-25,-1.8455399999999999e-25,4.1542599999999999e-29,3.3628999999999997e-30,5.5792799999999995e-29
3750.0,1.27519e-28,-1.8455399999999999e-25,-1.8459599999999999e-25,-1.84548e-25,3.9031e-29,-3.15312e-31,5.6752700000000005e-29
3751.0,1.2699999999999999e-28,-1.8456099999999999e-25,-1.84599e-25,-1.8455299999999999e-25,4.6028200000000001e-29,4.4202499999999999e-30,5.1310100000000006e-29
3752.0,1.2853799999999999e-28,-1.84558e-25,-1.8460100000000001e-25,-1.84555e-25,4.5876999999999999e-29,1.2883799999999999e-30,5.24634e-29
3753.0,1.5351899999999999e-28,-1.84563e-25,-1.84631e-25,-1.8452500000000001e-25,2.35492e-30,-3.3921600000000001e-30,7.0262899999999997e-29
3754.0,1.4056799999999999e-28,-1.8454399999999999e-25,-1.84613e-25,-1.84513e-25,-1.4511799999999999e-30,-1.38215e-29,6.1435499999999996e-29
3755.0,1.41089e-28,-1.84538e-25,-1.84599e-25,-1.84507e-25,1.08827e-29,8.0380200000000003e-31,6.6060900000000005e-29
3756.0,1.4498100000000001e-28,-1.84548e-25,-1.8461899999999999e-25,-1.84516e-25,7.91492e-30,-8.7573599999999994e-30,6.4152799999999995e-29
3757.0,1.4093500000000001e-28,-1.84547e-25,-1.84606e-25,-1.8451700000000001e-25,1.9517600000000001e-29,3.0017599999999999e-30,6.4813200000000001e-29
3758.0,1.3681199999999999e-28,-1.8453e-25,-1.84597e-25,-1.84506e-25,1.6289799999999999e-29,-5.5212699999999999e-30,6.09265e-29
3759.0,1.36185e-28,-1.8453500000000001e-25,-1.8459200000000001e-25,-1.8451099999999999e-25,2.7459300000000003e-29,5.5646300000000003e-30,6.0647099999999998e-29
3760.0,1.3531099999999999e-28,-1.84533e-25,-1.84598e-25,-1.84513e-25,2.4387999999999999e-29,-3.3321799999999997e-30,5.9647100000000003e-29
3761.0,1.34078e-28,-1.8454e-25,-1.8459499999999999e-25,-1.8452099999999999e-25,3.4140199999999998e-29,5.7802600000000002e-30,5.7550100000000002e-29
3762.0,1.3203700000000001e-28,-1.8452700000000001e-25,-1.84589e-25,-1.84513e-25,3.0993199999999997e-29,-6.3485799999999998e-31,5.6597899999999995e-29
3763.0,1.31961e-28,-1.8453500000000001e-25,-1.84591e-25,-1.8452099999999999e-25,3.9968600000000003e-29,6.5959800000000005e-30,5.28896e-29
3764.0,1.3162199999999999e-28,-1.8452899999999999e-25,-1.8459200000000001e-25,-1.8452099999999999e-25,3.79302e-29,1.1870000000000001e-30,5.3492899999999999e-29
3765.0,1.3059600000000001e-28,-1.84538e-25,-1.8459399999999999e-25,-1.8452899999999999e-25,4.4344000000000002e-29,5.9658200000000003e-30,4.9499799999999999e-29
3766.0,1.3076300000000001e-28,-1.8453e-25,-1.8459300000000001e-25,-1.8452700000000001e-25,4.3125200000000002e-29,2.9732299999999999e-30,4.9552699999999998e-29
3767.0,1.50883e-28,-1.84507e-25,-1.8459300000000001e-25,-1.84472e-25,-4.1991300000000001e-31,-3.3291900000000003e-30,6.0450300000000001e-29
3768.0,1.61855e-28,-1.84531e-25,-1.8463e-25,-1.8449200000000001e-25,-3.1726700000000002e-30,-1.0599400000000001e-29,5.95659e-29
3769.0,1.5545799999999999e-28,-1.8451999999999999e-25,-1.84608e-25,-1.84483e-25,8.9088099999999997e-30,2.0576e-30,6.2391600000000001e-29
3770.0,1.46346e-28,-1.84507e-25,-1.84599e-25,-1.8447500000000001e-25,5.1422999999999997e-30,-7.4458100000000006e-30,5.3987900000000003e-29
3771.0,1.4800400000000001e-28,-1.84507e-25,-1.84589e-25,-1.8447500000000001e-25,1.7367800000000001e-29,5.9836500000000001e-30,5.9129299999999999e-29
3772.0,1.45904e-28,-1.8450900000000001e-25,-1.84599e-25,-1.8448e-25,1.34836e-29,-4.4819400000000001e-30,5.5250399999999996e-29
3773.0,1.4480200000000001e-28,-1.8451199999999999e-25,-1.8459200000000001e-25,-1.8448699999999999e-25,2.5151200000000001e-29,7.2603800000000007e-30,5.7243399999999994e-29
3774.0,1.4029099999999999e-28,-1.8450000000000001e-25,-1.8458699999999999e-25,-1.8447799999999999e-25,2.07579e-29,-1.19742e-30,5.3399299999999998e-29
3775.0,1.4077200000000001e-28,-1.84507e-25,-1.8458500000000001e-25,-1.8448699999999999e-25,3.1794499999999999e-29,8.7574899999999996e-30,5.3486800000000001e-29
3776.0,1.37967e-28,-1.8450299999999999e-25,-1.8458699999999999e-25,-1.8448699999999999e-25,2.8535000000000002e-29,8.7077100000000008e-31,5.1610299999999999e-29
3777.0,1.38064e-28,-1.8451099999999999e-25,-1.8458699999999999e-25,-1.84497e-25,3.7692999999999999e-29,8.4635099999999996e-30,4.9929799999999997e-29
3778.0,1.3568899999999999e-28,-1.8450200000000001e-25,-1.8458400000000001e-25,-1.8449200000000001e-25,3.3962499999999998e-29,2.6675700000000001e-30,4.9115500000000002e-29
3779.0,1.36321e-28,-1.8450900000000001e-25,-1.8458699999999999e-25,-1.8450100000000001e-25,4.1433500000000002e-29,8.2419899999999998e-30,4.65016e-29
3780.0,1.3459900000000001e-28,-1.8450399999999999e-25,-1.8458599999999999e-25,-1.8450000000000001e-25,4.0211200000000001e-29,4.2014799999999998e-30,4.5281200000000001e-29
3781.0,1.7910299999999999e-28,-1.8449300000000001e-25,-1.84615e-25,-1.8444599999999999e-25,-3.01751e-30,-2.1091199999999999e-30,5.5621400000000002e-29
3782.0,1.5742400000000001e-28,-1.8448e-25,-1.84598e-25,-1.8444599999999999e-25,-6.8882499999999999e-30,-1.18841e-29,4.1064200000000002e-29
3783.0,1.6466899999999999e-28,-1.8447700000000001e-25,-1.84588e-25,-1.84438e-25,5.2954299999999999e-30,3.9856799999999999e-30,5.3450600000000003e-29
3784.0,1.63861e-28,-1.8448500000000001e-25,-1.84605e-25,-1.84448e-25,6.8855299999999997e-31,-6.8200999999999993e-30,4.6485800000000002e-29
3785.0,1.6111099999999999e-28,-1.8448400000000001e-25,-1.84591e-25,-1.84449e-25,1.38546e-29,7.1885800000000006e-30,5.3819899999999998e-29
3786.0,1.53184e-28,-1.8447500000000001e-25,-1.84588e-25,-1.8444499999999999e-25,8.5320799999999999e-30,-2.9598299999999998e-30,4.5366700000000001e-29
3787.0,1.5471500000000001e-28,-1.8447799999999999e-25,-1.84581e-25,-1.8445100000000001e-25,2.1446699999999999e-29,9.7690700000000004e-30,5.1692599999999996e-29
3788.0,1.4888500000000001e-28,-1.8447700000000001e-25,-1.8458599999999999e-25,-1.8445299999999999e-25,1.6663599999999999e-29,6.6993900000000005e-32,4.5686699999999999e-29
3789.0,1.49921e-28,-1.84483e-25,-1.84583e-25,-1.84463e-25,2.87787e-29,1.05753e-29,4.9136699999999998e-29
3790.0,1.4443799999999999e-28,-1.8447500000000001e-25,-1.8458e-25,-1.84457e-25,2.3039200000000001e-29,2.1946e-30,4.4957799999999998e-29
3791.0,1.4595599999999999e-28,-1.84483e-25,-1.8458e-25,-1.8446800000000001e-25,3.3808199999999999e-29,1.04116e-29,4.6228900000000002e-29
3792.0,1.41902e-28,-1.8447700000000001e-25,-1.84581e-25,-1.8446700000000001e-25,3.0258600000000002e-29,4.1724499999999998e-30,4.27096e-29
3793.0,1.43731e-28,-1.8448400000000001e-25,-1.84582e-25,-1.8447600000000001e-25,3.87592e-29,1.0044000000000001e-29,4.2848499999999999e-29
3794.0,1.4060500000000001e-28,-1.8447899999999999e-25,-1.84581e-25,-1.84473e-25,3.4615399999999997e-29,5.2697999999999997e-30,4.0881400000000003e-29
3795.0,1.8469200000000001e-28,-1.8444200000000001e-25,-1.8458599999999999e-25,-1.84399e-25,-8.7606900000000002e-30,-1.03982e-30,4.1752199999999998e-29
3796.0,1.95131e-28,-1.8446000000000001e-25,-1.8461700000000001e-25,-1.84415e-25,-1.3077800000000001e-29,-1.0444999999999999e-29,3.3868900000000002e-29
3797.0,1.8442800000000001e-28,-1.8445299999999999e-25,-1.8459399999999999e-25,-1.8441000000000001e-25,1.05783e-32,4.4808599999999997e-30,4.57113e-29
3798.0,1.72468e-28,-1.84448e-25,-1.8459e-25,-1.84413e-25,-5.4376500000000002e-30,-6.2975199999999997e-30,3.19023e-29
3799.0,1.73692e-28,-1.84447e-25,-1.8458e-25,-1.8441099999999999e-25,8.7002799999999996e-30,8.78306e-30,4.51318e-29
3800.0,1.6878299999999999e-28,-1.8445000000000001e-25,-1.84589e-25,-1.8441800000000001e-25,2.7446500000000001e-30,-2.4255799999999999e-30,3.5024699999999999e-29
3801.0,1.66591e-28,-1.8445299999999999e-25,-1.8458e-25,-1.8442500000000001e-25,1.6876699999999999e-29,1.1176199999999999e-29,4.46988e-29
3802.0,1.59927e-28,-1.84448e-25,-1.8458e-25,-1.84423e-25,9.7004099999999998e-30,7.33709e-31,3.6424099999999999e-29
3803.0,1.59125e-28,-1.8445399999999999e-25,-1.8457500000000001e-25,-1.84433e-25,2.3097600000000001e-29,1.18916e-29,4.3413199999999999e-29
3804.0,1.53547e-28,-1.8445200000000001e-25,-1.8457799999999999e-25,-1.8443400000000001e-25,1.8012800000000001e-29,3.4383599999999998e-30,3.66458e-29
3805.0,1.5353399999999999e-28,-1.8445900000000001e-25,-1.8457600000000001e-25,-1.8444499999999999e-25,2.96949e-29,1.16671e-29,4.0807499999999999e-29
3806.0,1.49688e-28,-1.84455e-25,-1.8457700000000001e-25,-1.84441e-25,2.3664000000000001e-29,4.5163200000000002e-30,3.6874400000000001e-29
3807.0,1.50034e-28,-1.8446099999999999e-25,-1.8457500000000001e-25,-1.8445200000000001e-25,3.3007900000000002e-29,1.0742700000000001e-29,3.9241199999999999e-29
3808.0,1.4719999999999999e-28,-1.84458e-25,-1.8457700000000001e-25,-1.8445100000000001e-25,3.0410899999999998e-29,5.56051e-30,3.5024400000000002e-29
3809.0,2.1720899999999999e-28,-1.8441999999999999e-25,-1.84597e-25,-1.8436800000000001e-25,-1.36788e-29,-2.2826999999999999e-30,3.2569100000000001e-29
3810.0,1.99376e-28,-1.84416e-25,-1.8459200000000001e-25,-1.8438400000000001e-25,-2.0154999999999999e-29,-1.15518e-29,1.21317e-29
3811.0,1.97627e-28,-1.8441700000000001e-25,-1.8458e-25,-1.84374e-25,-5.6950500000000001e-30,5.40245e-30,3.3876900000000003e-29
3812.0,2.0289500000000001e-28,-1.8441700000000001e-25,-1.8459300000000001e-25,-1.8437699999999999e-25,-1.36765e-29,-6.1871099999999997e-30,1.81933e-29
3813.0,1.89577e-28,-1.84422e-25,-1.8457899999999999e-25,-1.8438500000000001e-25,2.9651999999999998e-30,9.4821900000000002e-30,3.6145e-29
3814.0,1.8540900000000001e-28,-1.8441899999999999e-25,-1.84581e-25,-1.8438599999999999e-25,-5.68468e-30,-2.14181e-30,2.2431899999999999e-29
3815.0,1.78752e-28,-1.8442500000000001e-25,-1.84573e-25,-1.84397e-25,1.0885599999999999e-29,1.1739299999999999e-29,3.7489599999999999e-29
3816.0,1.7502099999999999e-28,-1.84423e-25,-1.8457799999999999e-25,-1.84397e-25,3.09443e-30,1.8461500000000001e-30,2.5538699999999999e-29
3817.0,1.69052e-28,-1.84431e-25,-1.84572e-25,-1.8441199999999999e-25,1.83882e-29,1.3232799999999999e-29,3.6436599999999999e-29
3818.0,1.6563099999999999e-28,-1.8442799999999999e-25,-1.84574e-25,-1.8440800000000001e-25,1.00052e-29,3.28244e-30,2.8286000000000002e-29
3819.0,1.6053799999999999e-28,-1.84438e-25,-1.8457099999999999e-25,-1.84424e-25,2.3314400000000001e-29,1.21258e-29,3.5754999999999998e-29
3820.0,1.57053e-28,-1.84433e-25,-1.8457099999999999e-25,-1.8441999999999999e-25,1.7600299999999999e-29,5.24105e-30,2.90203e-29
3821.0,1.5471200000000001e-28,-1.84441e-25,-1.8456999999999999e-25,-1.8443400000000001e-25,2.9070199999999998e-29,1.1829300000000001e-29,3.3669900000000001e-29
3822.0,1.52094e-28,-1.8444e-25,-1.84572e-25,-1.8443e-25,2.24349e-29,5.0163300000000002e-30,2.9704700000000001e-29
3823.0,2.55918e-28,-1.84382e-25,-1.8460200000000001e-25,-1.8433599999999999e-25,-3.34242e-29,8.3438e-30,-2.08457e-29
3824.0,2.3933700000000001e-28,-1.84438e-25,-1.8462899999999999e-25,-1.84382e-25,-2.1043299999999999e-29,7.4173799999999995e-30,-4.2975800000000001e-29
3825.0,1.9151600000000001e-28,-1.8446800000000001e-25,-1.8461000000000001e-25,-1.84424e-25,-1.1520200000000001e-29,8.3589e-30,-5.0528699999999998e-29
3826.0,1.9076300000000001e-28,-1.84524e-25,-1.8464200000000001e-25,-1.8447700000000001e-25,-5.5785199999999998e-30,6.2674399999999999e-30,-6.9463200000000005e-29
3827.0,1.65203e-28,-1.8454399999999999e-25,-1.8462700000000001e-25,-1.84505e-25,-2.3477999999999999e-30,8.9413200000000006e-30,-7.1754100000000003e-29
3828.0,1.68029e-28,-1.84605e-25,-1.84664e-25,-1.84563e-25,6.9219e-31,7.1469699999999999e-30,-8.2529400000000002e-29
3829.0,1.5736999999999999e-28,-1.8461899999999999e-25,-1.8465100000000001e-25,-1.8458400000000001e-25,-1.6699399999999999e-30,1.0802e-29,-8.3856599999999998e-29
3830.0,2.5213399999999999e-28,-1.84389e-25,-1.8460200000000001e-25,-1.8433599999999999e-25,-2.4961100000000001e-29,2.3543700000000002e-30,-2.8242200000000003e-29
3831.0,2.1143400000000001e-28,-1.8443e-25,-1.8460000000000001e-25,-1.8438400000000001e-25,-1.23401e-29,2.67926e-30,-4.1669900000000002e-29
3832.0,1.9642699999999999e-28,-1.8447500000000001e-25,-1.8461700000000001e-25,-1.8442799999999999e-25,-3.0137699999999999e-30,2.8278000000000001e-30,-5.6654300000000001e-29
3833.0,1.7453700000000001e-28,-1.8450399999999999e-25,-1.8461199999999999e-25,-1.8446199999999999e-25,3.4323099999999999e-30,2.7454100000000001e-30,-6.4260300000000004e-29
3834.0,1.70265e-28,-1.8455299999999999e-25,-1.8463599999999999e-25,-1.8451000000000001e-25,7.7451399999999999e-30,3.3883499999999999e-30,-7.4384300000000003e-29
3835.0,1.5810399999999999e-28,-1.8457700000000001e-25,-1.84633e-25,-1.84541e-25,1.0135599999999999e-29,3.9581499999999999e-30,-7.7927300000000003e-29
3836.0,1.5707599999999999e-28,-1.8463400000000001e-25,-1.84663e-25,-1.84597e-25,1.34381e-29,4.38013e-30,-8.3189799999999996e-29
3837.0,2.26221e-28,-1.8439599999999999e-25,-1.84588e-25,-1.8435199999999999e-25,-1.50019e-29,-1.4630600000000001e-30,-3.2912899999999998e-29
3838.0,2.0278000000000001e-28,-1.8443599999999999e-25,-1.84598e-25,-1.8439399999999999e-25,-2.58345e-30,-9.5211100000000006e-31,-4.5577100000000003e-29
3839.0,1.8287800000000001e-28,-1.8446800000000001e-25,-1.84598e-25,-1.8442700000000001e-25,6.0182100000000001e-30,-9.8996300000000006e-31,-5.5782900000000005e-29
3840.0,1.72796e-28,-1.8451000000000001e-25,-1.84613e-25,-1.8446999999999999e-25,1.3066499999999999e-29,1.21744e-31,-6.5577399999999996e-29
3841.0,1.6172899999999999e-28,-1.84538e-25,-1.84615e-25,-1.8450200000000001e-25,1.7397199999999999e-29,1.74307e-31,-7.1118600000000001e-29
3842.0,1.58657e-28,-1.8458699999999999e-25,-1.84639e-25,-1.8455000000000001e-25,2.0562999999999999e-29,1.93955e-30,-7.7311799999999996e-29
3843.0,1.5392499999999999e-28,-1.84616e-25,-1.8464300000000001e-25,-1.84582e-25,1.7854199999999999e-29,2.7679700000000002e-30,-8.1555200000000003e-29
3844.0,2.0817700000000002e-28,-1.8440399999999999e-25,-1.84582e-25,-1.8436800000000001e-25,-3.6039000000000001e-30,-4.8892599999999997e-30,-3.6582200000000002e-29
3845.0,1.88956e-28,-1.8443699999999999e-25,-1.8458599999999999e-25,-1.8440100000000001e-25,6.2519200000000002e-30,-3.6190100000000001e-30,-4.7285499999999999e-29
3846.0,1.75845e-28,-1.84472e-25,-1.8459499999999999e-25,-1.8443699999999999e-25,1.5814599999999999e-29,-3.2332300000000002e-30,-5.6239799999999998e-29
3847.0,1.6556599999999999e-28,-1.8450200000000001e-25,-1.84599e-25,-1.8446899999999999e-25,2.1619699999999999e-29,-2.6237e-30,-6.3710700000000001e-29
3848.0,1.6013099999999999e-28,-1.8454300000000001e-25,-1.84616e-25,-1.8451000000000001e-25,2.65593e-29,-1.40288e-30,-7.00062e-29
3849.0,1.54311e-28,-1.84574e-25,-1.84622e-25,-1.8454200000000001e-25,2.85764e-29,-1.22814e-30,-7.4293300000000005e-29
3850.0,1.53365e-28,-1.84624e-25,-1.8464599999999999e-25,-1.8459e-25,3.18755e-29,7.9590899999999995e-31,-7.7570599999999998e-29
3851.0,1.92863e-28,-1.8441099999999999e-25,-1.84574e-25,-1.84382e-25,5.89778e-30,-5.4768699999999997e-30,-3.96641e-29
3852.0,1.78462e-28,-1.8444200000000001e-25,-1.8458e-25,-1.84413e-25,1.6477700000000001e-29,-5.2783299999999998e-30,-4.7713100000000001e-29
3853.0,1.6865299999999999e-28,-1.8446999999999999e-25,-1.8458500000000001e-25,-1.84441e-25,2.3569400000000001e-29,-4.4737799999999999e-30,-5.5691700000000004e-29
3854.0,1.61887e-28,-1.84505e-25,-1.8459599999999999e-25,-1.8447600000000001e-25,3.0687399999999999e-29,-3.7810099999999997e-30,-6.1968500000000004e-29
3855.0,1.5575499999999999e-28,-1.8453500000000001e-25,-1.8460399999999999e-25,-1.84507e-25,3.4103500000000001e-29,-3.1092600000000001e-30,-6.6702500000000005e-29
3856.0,1.5379499999999999e-28,-1.8457799999999999e-25,-1.84622e-25,-1.84548e-25,3.7518099999999999e-29,-1.32294e-30,-7.1288100000000004e-29
3857.0,1.50803e-28,-1.84606e-25,-1.84631e-25,-1.8458e-25,3.5029699999999998e-29,-1.55443e-30,-7.5418600000000004e-29
3858.0,1.79554e-28,-1.8441800000000001e-25,-1.8456800000000001e-25,-1.8439599999999999e-25,1.57178e-29,-6.2543599999999998e-30,-4.0646600000000002e-29
3859.0,1.7087299999999999e-28,-1.8444399999999999e-25,-1.84574e-25,-1.8441999999999999e-25,2.3522e-29,-5.4233700000000003e-30,-4.78913e-29
3860.0,1.6310299999999999e-28,-1.84472e-25,-1.84581e-25,-1.8445000000000001e-25,3.2115899999999999e-29,-5.1303299999999999e-30,-5.3430700000000004e-29
3861.0,1.5796500000000001e-28,-1.8450100000000001e-25,-1.84588e-25,-1.8447799999999999e-25,3.70601e-29,-4.3245500000000001e-30,-5.9430200000000005e-29
3862.0,1.54119e-28,-1.8453599999999999e-25,-1.8460100000000001e-25,-1.8451199999999999e-25,4.1963099999999999e-29,-3.51584e-30,-6.3486300000000002e-29
3863.0,1.5077800000000001e-28,-1.8456800000000001e-25,-1.8461199999999999e-25,-1.8454499999999999e-25,4.3862199999999999e-29,-3.2201500000000002e-30,-6.7011899999999999e-29
3864.0,1.5041599999999999e-28,-1.8461099999999999e-25,-1.8463e-25,-1.84582e-25,4.7567599999999999e-29,-2.0639999999999999e-30,-6.8426099999999999e-29
3865.0,1.7080699999999999e-28,-1.8442500000000001e-25,-1.84566e-25,-1.84407e-25,2.1696200000000001e-29,-4.8348000000000001e-30,-4.1268999999999998e-29
3866.0,1.66035e-28,-1.8444599999999999e-25,-1.84572e-25,-1.8443e-25,3.1765999999999999e-29,-5.3224799999999998e-30,-4.5879600000000002e-29
3867.0,1.59779e-28,-1.8446999999999999e-25,-1.8457700000000001e-25,-1.8445399999999999e-25,3.7285499999999998e-29,-4.9980600000000001e-30,-5.1321500000000006e-29
3868.0,1.55213e-28,-1.84499e-25,-1.8458500000000001e-25,-1.84483e-25,4.4028200000000001e-29,-4.5154099999999998e-30,-5.5368600000000004e-29
3869.0,1.5147599999999999e-28,-1.84531e-25,-1.8459499999999999e-25,-1.84513e-25,4.7514499999999998e-29,-3.9828499999999998e-30,-5.9244099999999996e-29
3870.0,1.50183e-28,-1.8456700000000001e-25,-1.8460900000000001e-25,-1.8454599999999999e-25,5.0881300000000002e-29,-3.2745500000000001e-30,-6.2383199999999997e-29
3871.0,1.4847299999999999e-28,-1.84597e-25,-1.84623e-25,-1.84581e-25,4.9163499999999998e-29,-2.7664600000000002e-30,-6.6940300000000001e-29
3872.0,2.66856e-28,-1.84382e-25,-1.84597e-25,-1.84321e-25,-2.08397e-29,-3.2209700000000003e-30,-4.8699199999999999e-29
3873.0,2.2463500000000002e-28,-1.84415e-25,-1.8458699999999999e-25,-1.84365e-25,-1.3260700000000001e-29,-3.08203e-30,-5.5802199999999998e-29
3874.0,2.1066300000000002e-28,-1.8447700000000001e-25,-1.8461800000000001e-25,-1.84424e-25,-5.3695200000000002e-30,-9.88627e-31,-6.86621e-29
3875.0,1.77695e-28,-1.84499e-25,-1.84599e-25,-1.84457e-25,-1.95558e-30,9.6495399999999996e-31,-7.1724700000000005e-29
3876.0,1.74328e-28,-1.8456199999999999e-25,-1.84639e-25,-1.8451700000000001e-25,1.5841899999999999e-30,1.6656100000000001e-30,-7.9524600000000005e-29
3877.0,1.5360099999999999e-28,-1.8457600000000001e-25,-1.8461800000000001e-25,-1.8454399999999999e-25,1.6011000000000001e-30,5.1728500000000003e-30,-8.0170499999999997e-29
3878.0,1.5348599999999999e-28,-1.84639e-25,-1.84664e-25,-1.8460200000000001e-25,5.5166800000000002e-30,3.3135399999999998e-30,-8.2515199999999997e-29
3879.0,2.39835e-28,-1.8438400000000001e-25,-1.8457899999999999e-25,-1.8433599999999999e-25,-1.02639e-29,-1.1370499999999999e-29,-4.9205400000000001e-29
3880.0,2.1924700000000002e-28,-1.8443e-25,-1.8459499999999999e-25,-1.84382e-25,-2.6332600000000001e-30,-9.20924e-30,-5.9385499999999997e-29
3881.0,1.9384399999999999e-28,-1.8446199999999999e-25,-1.84591e-25,-1.8441800000000001e-25,4.1541399999999999e-30,-7.6104000000000006e-30,-6.5669799999999997e-29
3882.0,1.7947699999999999e-28,-1.84513e-25,-1.84614e-25,-1.84472e-25,8.5747300000000004e-30,-4.8091200000000002e-30,-7.26541e-29
3883.0,1.6100000000000001e-28,-1.84538e-25,-1.84608e-25,-1.8450299999999999e-25,1.10438e-29,-2.9927999999999998e-30,-7.4998599999999998e-29
3884.0,1.55959e-28,-1.8459200000000001e-25,-1.84639e-25,-1.84557e-25,1.2951000000000001e-29,-6.0913000000000002e-31,-7.9132900000000002e-29
3885.0,1.47581e-28,-1.8461199999999999e-25,-1.84632e-25,-1.8458400000000001e-25,9.6395999999999994e-30,2.3262399999999999e-30,-8.1045499999999995e-29
3886.0,2.25757e-28,-1.8439399999999999e-25,-1.8457799999999999e-25,-1.84355e-25,4.1750100000000003e-31,-1.5123600000000001e-29,-5.0404499999999998e-29
3887.0,2.0404800000000002e-28,-1.8442700000000001e-25,-1.8458e-25,-1.84388e-25,7.5613799999999994e-30,-1.3204599999999999e-29,-5.7549499999999996e-29
3888.0,1.86642e-28,-1.8447099999999999e-25,-1.8459499999999999e-25,-1.8443400000000001e-25,1.3760400000000001e-29,-1.06268e-29,-6.4680799999999999e-29
3889.0,1.6979e-28,-1.8450100000000001e-25,-1.8459599999999999e-25,-1.84466e-25,1.7954600000000001e-29,-8.7846699999999996e-30,-6.8527900000000003e-29
3890.0,1.5924699999999999e-28,-1.84548e-25,-1.84616e-25,-1.84515e-25,2.0538999999999999e-29,-5.3267700000000001e-30,-7.2962499999999996e-29
3891.0,1.4920799999999999e-28,-1.84573e-25,-1.84616e-25,-1.8454399999999999e-25,2.1748699999999999e-29,-3.7160499999999998e-30,-7.4912900000000001e-29
3892.0,1.47537e-28,-1.8462600000000001e-25,-1.8464499999999999e-25,-1.8459399999999999e-25,2.44659e-29,-1.5210599999999999e-30,-7.7328499999999998e-29
3893.0,2.0928999999999999e-28,-1.8440100000000001e-25,-1.84573e-25,-1.84373e-25,9.6519199999999998e-30,-1.65161e-29,-5.0097700000000001e-29
3894.0,1.92828e-28,-1.8443500000000001e-25,-1.84581e-25,-1.84407e-25,1.6717600000000001e-29,-1.50976e-29,-5.5809100000000004e-29
3895.0,1.77108e-28,-1.8446700000000001e-25,-1.8458500000000001e-25,-1.84438e-25,2.2192200000000001e-29,-1.29634e-29,-6.1298300000000002e-29
3896.0,1.6421800000000001e-28,-1.84507e-25,-1.84599e-25,-1.8448e-25,2.6523100000000002e-29,-9.99097e-30,-6.5632800000000003e-29
3897.0,1.5324099999999999e-28,-1.8453599999999999e-25,-1.8460200000000001e-25,-1.8451000000000001e-25,2.9164100000000002e-29,-8.1293499999999993e-30,-6.8137499999999996e-29
3898.0,1.4784000000000001e-28,-1.84581e-25,-1.84623e-25,-1.84555e-25,3.07576e-29,-4.85361e-30,-7.1630900000000002e-29
3899.0,1.42049e-28,-1.84605e-25,-1.8462600000000001e-25,-1.84581e-25,2.7660300000000001e-29,-2.6177899999999998e-30,-7.3850600000000005e-29
3900.0,1.9479800000000001e-28,-1.8441000000000001e-25,-1.8457099999999999e-25,-1.84391e-25,1.8202299999999999e-29,-1.71486e-29,-4.76378e-29
3901.0,1.8150099999999999e-28,-1.84438e-25,-1.8457500000000001e-25,-1.8441700000000001e-25,2.3714499999999999e-29,-1.5256400000000001e-29,-5.3181400000000001e-29
3902.0,1.6927e-28,-1.84472e-25,-1.8458500000000001e-25,-1.8445200000000001e-25,3.0213600000000002e-29,-1.3373599999999999e-29,-5.7617800000000001e-29
3903.0,1.5828499999999999e-28,-1.8450200000000001e-25,-1.8459e-25,-1.84481e-25,3.37313e-29,-1.13406e-29,-6.1061000000000005e-29
3904.0,1.4994800000000001e-28,-1.84541e-25,-1.8460399999999999e-25,-1.8451999999999999e-25,3.6560699999999998e-29,-8.3031099999999996e-30,-6.4444400000000005e-29
3905.0,1.44109e-28,-1.8456899999999999e-25,-1.8461000000000001e-25,-1.84547e-25,3.7867999999999999e-29,-6.8408199999999997e-30,-6.6486700000000001e-29
3906.0,1.4380900000000001e-28,-1.84615e-25,-1.84633e-25,-1.84589e-25,4.0998000000000001e-29,-4.4304100000000002e-30,-6.8612800000000003e-29
3907.0,1.82594e-28,-1.8441899999999999e-25,-1.8456899999999999e-25,-1.84406e-25,2.3664099999999999e-29,-1.49899e-29,-4.5867600000000002e-29
3908.0,1.72618e-28,-1.8444399999999999e-25,-1.84574e-25,-1.8443e-25,3.0955500000000002e-29,-1.4241699999999999e-29,-4.96446e-29
3909.0,1.6335200000000001e-28,-1.84472e-25,-1.8458e-25,-1.84457e-25,3.5839100000000001e-29,-1.2733699999999999e-29,-5.4013900000000001e-29
3910.0,1.54047e-28,-1.84505e-25,-1.8459e-25,-1.84489e-25,4.0259700000000002e-29,-1.06855e-29,-5.6883399999999996e-29
3911.0,1.4692400000000001e-28,-1.8453400000000001e-25,-1.84597e-25,-1.8451800000000001e-25,4.2771400000000002e-29,-8.8557499999999998e-30,-5.9461000000000005e-29
3912.0,1.43142e-28,-1.84572e-25,-1.8461199999999999e-25,-1.8455399999999999e-25,4.48594e-29,-6.0633899999999999e-30,-6.2447100000000003e-29
3913.0,1.39336e-28,-1.84598e-25,-1.8461899999999999e-25,-1.84581e-25,4.2219800000000002e-29,-4.4076200000000001e-30,-6.5532499999999997e-29
3914.0,1.7381199999999999e-28,-1.84424e-25,-1.84566e-25,-1.8441700000000001e-25,2.9928e-29,-1.38241e-29,-4.29381e-29
3915.0,1.66802e-28,-1.8444599999999999e-25,-1.84572e-25,-1.8443699999999999e-25,3.4627900000000003e-29,-1.21734e-29,-4.75814e-29
3916.0,1.59795e-28,-1.84473e-25,-1.8458e-25,-1.84464e-25,4.12504e-29,-1.1677e-29,-5.0334900000000003e-29
3917.0,1.51064e-28,-1.8450200000000001e-25,-1.8458599999999999e-25,-1.84491e-25,4.4293800000000002e-29,-9.9480200000000007e-30,-5.3103099999999998e-29
3918.0,1.4533699999999999e-28,-1.8453500000000001e-25,-1.8459599999999999e-25,-1.84522e-25,4.78167e-29,-7.9190700000000002e-30,-5.5904599999999997e-29
3919.0,1.41479e-28,-1.84565e-25,-1.84606e-25,-1.8455100000000001e-25,4.95455e-29,-6.6205000000000004e-30,-5.7891400000000002e-29
3920.0,1.4192700000000001e-28,-1.8460399999999999e-25,-1.84622e-25,-1.84583e-25,5.3504299999999999e-29,-5.4852499999999997e-30,-5.8588300000000002e-29
3921.0,1.4463299999999999e-28,-1.8459599999999999e-25,-1.84615e-25,-1.84574e-25,5.8584299999999996e-29,-3.8930999999999997e-30,-5.5773799999999999e-29
3922.0,1.4241399999999999e-28,-1.8459300000000001e-25,-1.8461899999999999e-25,-1.8458500000000001e-25,5.9656600000000001e-29,-2.9458999999999999e-30,-5.3643599999999996e-29
3923.0,1.3549299999999999e-28,-1.84582e-25,-1.84605e-25,-1.84572e-25,6.4937699999999998e-29,-3.7652600000000003e-30,-4.0023100000000001e-29
3924.0,1.3399099999999999e-28,-1.84589e-25,-1.84616e-25,-1.8458599999999999e-25,6.6310100000000001e-29,-2.5716800000000001e-30,-3.6308100000000001e-29
3925.0,1.28432e-28,-1.84574e-25,-1.8460100000000001e-25,-1.84574e-25,6.8867399999999996e-29,-1.2266900000000001e-30,-2.2595999999999999e-29
3926.0,1.27651e-28,-1.84588e-25,-1.8461800000000001e-25,-1.8459200000000001e-25,6.9591300000000004e-29,-1.46195e-30,-1.79933e-29
3927.0,1.24139e-28,-1.8456999999999999e-25,-1.84597e-25,-1.84574e-25,6.9867799999999995e-29,3.14804e-30,-4.9875299999999999e-30
3928.0,1.4679600000000001e-28,-1.8456199999999999e-25,-1.84606e-25,-1.84549e-25,5.5541800000000004e-29,-3.59286e-30,-5.6578800000000004e-29
3929.0,1.42095e-28,-1.8455399999999999e-25,-1.84598e-25,-1.8454399999999999e-25,5.9278900000000002e-29,-4.1251900000000003e-30,-4.8790000000000001e-29
3930.0,1.4001700000000001e-28,-1.84556e-25,-1.8460200000000001e-25,-1.8455200000000001e-25,6.3212799999999997e-29,-3.1833399999999998e-30,-4.1829699999999999e-29
3931.0,1.34685e-28,-1.8454599999999999e-25,-1.8459300000000001e-25,-1.8454499999999999e-25,6.4846499999999998e-29,-3.0732299999999999e-30,-3.2782800000000002e-29
3932.0,1.33872e-28,-1.8455299999999999e-25,-1.8460399999999999e-25,-1.84558e-25,6.7647400000000001e-29,-1.5007199999999999e-30,-2.45525e-29
3933.0,1.28888e-28,-1.8454e-25,-1.8459e-25,-1.8454499999999999e-25,6.7329300000000005e-29,-6.4438699999999996e-32,-1.55973e-29
3934.0,1.3258800000000001e-28,-1.84558e-25,-1.84614e-25,-1.8456800000000001e-25,7.0112499999999997e-29,-2.2243700000000002e-31,-7.1524099999999996e-30
3935.0,1.48432e-28,-1.8452700000000001e-25,-1.84591e-25,-1.84514e-25,5.2651199999999998e-29,-4.1876899999999999e-30,-5.3456099999999996e-29
3936.0,1.4594400000000001e-28,-1.8452500000000001e-25,-1.8459e-25,-1.8451700000000001e-25,5.6772999999999997e-29,-4.1089000000000003e-30,-4.7603e-29
3937.0,1.4125599999999999e-28,-1.8451700000000001e-25,-1.8458400000000001e-25,-1.84514e-25,5.9160199999999995e-29,-3.8766399999999998e-30,-3.95746e-29
3938.0,1.39975e-28,-1.8451800000000001e-25,-1.84589e-25,-1.84522e-25,6.2361500000000002e-29,-2.6885899999999999e-30,-3.1938300000000001e-29
3939.0,1.35569e-28,-1.8450900000000001e-25,-1.84581e-25,-1.84515e-25,6.2845400000000003e-29,-2.1787900000000001e-30,-2.3668399999999999e-29
3940.0,1.3720699999999999e-28,-1.8451899999999999e-25,-1.8459499999999999e-25,-1.8452899999999999e-25,6.5675599999999998e-29,-1.5710200000000001e-31,-1.53885e-29
3941.0,1.27337e-28,-1.8450399999999999e-25,-1.8457600000000001e-25,-1.84513e-25,6.16559e-29,2.1964599999999999e-30,-7.4308600000000007e-30
3942.0,1.5221600000000001e-28,-1.84497e-25,-1.84582e-25,-1.8448500000000001e-25,4.8011399999999998e-29,-4.6793199999999999e-30,-5.1087099999999998e-29
3943.0,1.47995e-28,-1.8449e-25,-1.8457700000000001e-25,-1.8448400000000001e-25,5.1398099999999997e-29,-4.4946299999999997e-30,-4.40788e-29
3944.0,1.4638600000000001e-28,-1.8448699999999999e-25,-1.8457799999999999e-25,-1.84488e-25,5.4383100000000001e-29,-4.1846300000000001e-30,-3.7949800000000003e-29
3945.0,1.42997e-28,-1.8448e-25,-1.84573e-25,-1.8448400000000001e-25,5.6025000000000004e-29,-3.5895799999999997e-30,-3.0098000000000002e-29
3946.0,1.42799e-28,-1.8448400000000001e-25,-1.84581e-25,-1.8449300000000001e-25,5.8144400000000002e-29,-1.6298600000000002e-30,-2.2913600000000001e-29
3947.0,1.36955e-28,-1.84474e-25,-1.8457099999999999e-25,-1.8448400000000001e-25,5.6524099999999998e-29,-6.1956e-31,-1.50759e-29
3948.0,1.4676200000000001e-28,-1.8448699999999999e-25,-1.8459300000000001e-25,-1.8450299999999999e-25,6.2185999999999996e-29,5.7194800000000002e-31,-7.1637800000000005e-30
3949.0,1.5659200000000001e-28,-1.84466e-25,-1.84573e-25,-1.84456e-25,4.2099600000000002e-29,-5.17091e-30,-4.6521e-29
3950.0,1.54096e-28,-1.8446099999999999e-25,-1.8456999999999999e-25,-1.84457e-25,4.4548500000000002e-29,-5.3550299999999998e-30,-4.2015800000000002e-29
3951.0,1.50902e-28,-1.8445399999999999e-25,-1.8456700000000001e-25,-1.84455e-25,4.6855700000000003e-29,-4.68968e-30,-3.4696999999999999e-29
3952.0,1.4980100000000001e-28,-1.8445299999999999e-25,-1.8456999999999999e-25,-1.8445900000000001e-25,4.8095000000000002e-29,-3.5015500000000001e-30,-2.88419e-29
3953.0,1.4639999999999999e-28,-1.8444499999999999e-25,-1.84564e-25,-1.8445399999999999e-25,4.81255e-29,-2.6085000000000001e-30,-2.1255299999999999e-29
3954.0,1.50051e-28,-1.8445000000000001e-25,-1.8457500000000001e-25,-1.84464e-25,5.0794900000000005e-29,-4.5560200000000001e-31,-1.44933e-29
3955.0,1.36089e-28,-1.8444300000000001e-25,-1.84557e-25,-1.8445200000000001e-25,4.5124000000000002e-29,1.6615800000000001e-30,-8.5669999999999998e-30
3956.0,1.63194e-28,-1.8444300000000001e-25,-1.8456899999999999e-25,-1.84433e-25,3.4470000000000002e-29,-5.2480400000000002e-30,-4.40327e-29
3957.0,1.5936700000000001e-28,-1.8443400000000001e-25,-1.84563e-25,-1.8443e-25,3.6260300000000002e-29,-5.2883799999999999e-30,-3.7375900000000001e-29
3958.0,1.5859699999999999e-28,-1.8443e-25,-1.84563e-25,-1.8443e-25,3.6707099999999997e-29,-4.9972000000000002e-30,-3.2658899999999999e-29
3959.0,1.56925e-28,-1.8442099999999999e-25,-1.8455900000000001e-25,-1.8442600000000001e-25,3.7256599999999999e-29,-3.9743500000000002e-30,-2.5639999999999998e-29
3960.0,1.5832100000000001e-28,-1.8441999999999999e-25,-1.84564e-25,-1.8443e-25,3.7817400000000001e-29,-2.69226e-30,-2.0382099999999999e-29
3961.0,1.52421e-28,-1.84415e-25,-1.84556e-25,-1.84424e-25,3.5948600000000002e-29,-1.25502e-30,-1.4326299999999999e-29
3962.0,1.66636e-28,-1.8441700000000001e-25,-1.8457500000000001e-25,-1.8443500000000001e-25,4.0951300000000001e-29,7.3443499999999999e-31,-7.5344300000000005e-30
3963.0,1.67132e-28,-1.84422e-25,-1.84563e-25,-1.8441099999999999e-25,2.6148000000000001e-29,-4.71067e-30,-3.7589700000000003e-29
3964.0,1.68876e-28,-1.8441199999999999e-25,-1.8456000000000001e-25,-1.84405e-25,2.5393899999999998e-29,-6.0539200000000003e-30,-3.4496800000000002e-29
3965.0,1.6981500000000001e-28,-1.8440200000000001e-25,-1.84558e-25,-1.8440100000000001e-25,2.5258399999999999e-29,-5.25984e-30,-2.85519e-29
3966.0,1.7100299999999999e-28,-1.8439599999999999e-25,-1.84557e-25,-1.84399e-25,2.4157499999999999e-29,-5.05479e-30,-2.4374000000000001e-29
3967.0,1.6971399999999999e-28,-1.8439e-25,-1.8455399999999999e-25,-1.8439499999999999e-25,2.3259799999999999e-29,-3.29049e-30,-1.85055e-29
3968.0,1.74963e-28,-1.8438599999999999e-25,-1.8456000000000001e-25,-1.84397e-25,2.3136e-29,-1.34252e-30,-1.3871899999999999e-29
3969.0,1.5820499999999999e-28,-1.8439200000000001e-25,-1.8454599999999999e-25,-1.8439399999999999e-25,1.9644400000000001e-29,-4.4464999999999996e-31,-9.6110500000000002e-30
3970.0,1.40304e-28,-1.84597e-25,-1.8462099999999999e-25,-1.8458699999999999e-25,5.2926e-29,-5.4433500000000002e-30,-5.8514500000000005e-29
3971.0,1.32331e-28,-1.84588e-25,-1.84606e-25,-1.8457500000000001e-25,5.9324500000000002e-29,-5.16605e-30,-4.5294099999999999e-29
3972.0,1.3269899999999999e-28,-1.8459200000000001e-25,-1.84616e-25,-1.8459e-25,6.1393699999999999e-29,-5.7226099999999999e-30,-4.3215899999999997e-29
3973.0,1.2644599999999999e-28,-1.8457799999999999e-25,-1.84598e-25,-1.8457500000000001e-25,6.5693400000000005e-29,-4.6299100000000002e-30,-2.8895799999999998e-29
3974.0,1.2705600000000001e-28,-1.84588e-25,-1.84613e-25,-1.8459300000000001e-25,6.7270600000000005e-29,-4.3907699999999997e-30,-2.5684900000000002e-29
3975.0,1.2308399999999999e-28,-1.84572e-25,-1.8459200000000001e-25,-1.8457500000000001e-25,6.9309299999999999e-29,-1.6179299999999999e-30,-1.1369200000000001e-29
3976.0,1.2401499999999999e-28,-1.84589e-25,-1.8461999999999999e-25,-1.8460000000000001e-25,6.92826e-29,-2.7789000000000001e-30,-7.7327700000000004e-30
3977.0,1.39793e-28,-1.8456199999999999e-25,-1.8460200000000001e-25,-1.8455000000000001e-25,5.3820699999999995e-29,-6.4977299999999995e-30,-5.3095599999999998e-29
3978.0,1.3632900000000001e-28,-1.84563e-25,-1.8460299999999999e-25,-1.84557e-25,5.7538299999999998e-29,-6.5924599999999998e-30,-4.6898499999999998e-29
3979.0,1.32988e-28,-1.8455100000000001e-25,-1.8459300000000001e-25,-1.84549e-25,6.0818099999999998e-29,-6.9329200000000004e-30,-3.9020300000000001e-29
3980.0,1.31581e-28,-1.84556e-25,-1.8460000000000001e-25,-1.8456000000000001e-25,6.4512999999999996e-29,-5.6346100000000003e-30,-3.1132100000000002e-29
3981.0,1.2813400000000001e-28,-1.8454200000000001e-25,-1.8458599999999999e-25,-1.84547e-25,6.6109200000000004e-29,-4.7125699999999998e-30,-2.2295900000000001e-29
3982.0,1.29528e-28,-1.8455299999999999e-25,-1.8460399999999999e-25,-1.84565e-25,6.8368899999999997e-29,-2.9266899999999998e-30,-1.4256e-29
3983.0,1.2241900000000001e-28,-1.8453699999999999e-25,-1.8457700000000001e-25,-1.8454300000000001e-25,6.7108900000000001e-29,5.2642100000000001e-31,-4.9215500000000001e-30
3984.0,1.4295e-28,-1.84533e-25,-1.8459399999999999e-25,-1.84524e-25,5.1844800000000002e-29,-7.8491700000000006e-30,-5.1080000000000001e-29
3985.0,1.40092e-28,-1.8452500000000001e-25,-1.84588e-25,-1.8452099999999999e-25,5.5001400000000002e-29,-8.6603500000000002e-30,-4.5039999999999999e-29
3986.0,1.3789800000000001e-28,-1.8452500000000001e-25,-1.8459e-25,-1.8452700000000001e-25,5.9007099999999996e-29,-7.7398700000000002e-30,-3.7861900000000001e-29
3987.0,1.3546300000000001e-28,-1.84513e-25,-1.84581e-25,-1.8451999999999999e-25,6.1245700000000001e-29,-7.3249200000000002e-30,-3.0160199999999998e-29
3988.0,1.3548200000000001e-28,-1.8451899999999999e-25,-1.84591e-25,-1.8453e-25,6.4230899999999995e-29,-4.8499699999999998e-30,-2.19528e-29
3989.0,1.3115200000000001e-28,-1.8450399999999999e-25,-1.8457500000000001e-25,-1.8451700000000001e-25,6.4110499999999999e-29,-3.0863999999999999e-30,-1.3794000000000001e-29
3990.0,1.3827200000000001e-28,-1.8451899999999999e-25,-1.8460100000000001e-25,-1.84538e-25,6.6829600000000005e-29,-1.08173e-30,-5.9771599999999999e-30
3991.0,1.48547e-28,-1.84499e-25,-1.84583e-25,-1.8449300000000001e-25,4.8493499999999999e-29,-9.8443199999999993e-30,-4.85278e-29
3992.0,1.46641e-28,-1.84497e-25,-1.84582e-25,-1.8449599999999999e-25,5.1891699999999998e-29,-9.8849499999999999e-30,-4.3606199999999997e-29
3993.0,1.4435699999999999e-28,-1.8448699999999999e-25,-1.8457600000000001e-25,-1.8449200000000001e-25,5.4820499999999999e-29,-9.6512599999999997e-30,-3.6412699999999999e-29
3994.0,1.43501e-28,-1.8448699999999999e-25,-1.8458e-25,-1.84497e-25,5.78024e-29,-7.7720999999999994e-30,-2.9227900000000002e-29
3995.0,1.4132600000000001e-28,-1.84474e-25,-1.8456999999999999e-25,-1.84489e-25,5.8825700000000005e-29,-6.13082e-30,-2.1559299999999999e-29
3996.0,1.4321499999999999e-28,-1.84481e-25,-1.84583e-25,-1.8450000000000001e-25,6.0800500000000004e-29,-2.8143800000000001e-30,-1.38429e-29
3997.0,1.3337099999999999e-28,-1.8446800000000001e-25,-1.8456099999999999e-25,-1.84483e-25,5.8047199999999998e-29,3.11151e-31,-6.0592700000000003e-30
3998.0,1.5712599999999999e-28,-1.8447099999999999e-25,-1.8457799999999999e-25,-1.84466e-25,4.41381e-29,-1.1240700000000001e-29,-4.7019e-29
3999.0,1.54537e-28,-1.84463e-25,-1.84572e-25,-1.84465e-25,4.7123699999999999e-29,-1.14305e-29,-4.1033500000000002e-29
4000.0,1.53805e-28,-1.8445900000000001e-25,-1.84573e-25,-1.84466e-25,4.96873e-29,-1.06721e-29,-3.53319e-29
4001.0,1.5240499999999999e-28,-1.84447e-25,-1.84566e-25,-1.8446099999999999e-25,5.1397399999999996e-29,-9.0663900000000003e-30,-2.7971699999999999e-29
4002.0,1.52372e-28,-1.84448e-25,-1.84573e-25,-1.8446700000000001e-25,5.2675699999999998e-29,-6.1849099999999998e-30,-2.10218e-29
4003.0,1.4917599999999999e-28,-1.8443599999999999e-25,-1.8456099999999999e-25,-1.84456e-25,5.1818300000000005e-29,-3.6920899999999997e-30,-1.38167e-29
4004.0,1.56191e-28,-1.8444599999999999e-25,-1.84582e-25,-1.84472e-25,5.3609700000000005e-29,-1.2871100000000001e-31,-6.9040000000000007e-30
4005.0,1.63877e-28,-1.8444300000000001e-25,-1.8456899999999999e-25,-1.8444e-25,3.89336e-29,-1.19161e-29,-4.3171499999999998e-29
4006.0,1.6395500000000001e-28,-1.8443699999999999e-25,-1.8456800000000001e-25,-1.8444e-25,4.0514300000000001e-29,-1.2329300000000001e-29,-3.9565600000000001e-29
4007.0,1.6286300000000001e-28,-1.8442500000000001e-25,-1.84563e-25,-1.8443500000000001e-25,4.2197699999999998e-29,-1.14929e-29,-3.2704e-29
4008.0,1.6349199999999999e-28,-1.8442099999999999e-25,-1.84565e-25,-1.8443599999999999e-25,4.2924600000000002e-29,-9.64433e-30,-2.6994999999999998e-29
4009.0,1.6244e-28,-1.8440900000000001e-25,-1.84558e-25,-1.8442899999999999e-25,4.2774899999999998e-29,-7.0427099999999995e-30,-2.0244199999999999e-29
4010.0,1.64256e-28,-1.8441199999999999e-25,-1.8456700000000001e-25,-1.8443500000000001e-25,4.3143400000000002e-29,-3.3862300000000003e-30,-1.3724200000000001e-29
4011.0,1.5499300000000001e-28,-1.8440399999999999e-25,-1.8455000000000001e-25,-1.84423e-25,4.0360500000000002e-29,-2.6940100000000001e-31,-7.60267e-30
4012.0,1.7141199999999999e-28,-1.84423e-25,-1.84564e-25,-1.8441899999999999e-25,3.1678799999999999e-29,-1.3080600000000001e-29,-4.1578e-29
4013.0,1.71305e-28,-1.84413e-25,-1.8456199999999999e-25,-1.84416e-25,3.3267e-29,-1.26163e-29,-3.5623999999999998e-29
4014.0,1.7429999999999999e-28,-1.8440299999999999e-25,-1.8456099999999999e-25,-1.8441199999999999e-25,3.3288800000000002e-29,-1.24206e-29,-3.1592199999999999e-29
4015.0,1.7502700000000001e-28,-1.84391e-25,-1.84557e-25,-1.84407e-25,3.3618899999999998e-29,-1.0181e-29,-2.5214400000000001e-29
4016.0,1.7676899999999999e-28,-1.8438599999999999e-25,-1.8455900000000001e-25,-1.84406e-25,3.2647100000000001e-29,-7.3544899999999994e-30,-1.9684099999999999e-29
4017.0,1.7399199999999999e-28,-1.8437899999999999e-25,-1.8455200000000001e-25,-1.8440000000000001e-25,3.05752e-29,-4.3717599999999999e-30,-1.4153099999999999e-29
4018.0,1.8142299999999999e-28,-1.8438e-25,-1.84564e-25,-1.84406e-25,3.0797399999999999e-29,-3.6888700000000001e-31,-8.8441200000000001e-30
4019.0,2.0635599999999999e-28,-1.8434300000000001e-25,-1.8455399999999999e-25,-1.84355e-25,3.3386999999999998e-30,6.0409200000000002e-32,-1.0675199999999999e-29
4020.0,2.2198400000000001e-28,-1.8432899999999999e-25,-1.8454499999999999e-25,-1.84324e-25,-1.9087799999999999e-29,-3.7391000000000003e-30,-1.06627e-29
4021.0,2.8774499999999999e-28,-1.84256e-25,-1.8452700000000001e-25,-1.8425199999999999e-25,-4.8552099999999998e-29,-3.3789699999999998e-30,-1.55751e-29
4022.0,3.5407699999999998e-28,-1.8419399999999999e-25,-1.8451099999999999e-25,-1.8418e-25,-7.9614799999999995e-29,-6.6175000000000003e-30,-1.6526200000000001e-29
4023.0,4.5040799999999996e-28,-1.8405399999999999e-25,-1.84449e-25,-1.8403499999999999e-25,-1.12038e-28,-7.9772499999999997e-30,-2.4292800000000001e-29
4024.0,5.5668800000000002e-28,-1.8387799999999999e-25,-1.8436000000000001e-25,-1.8385199999999999e-25,-1.42982e-28,-9.8129099999999995e-30,-2.7644900000000001e-29
4025.0,6.6797200000000003e-28,-1.8362799999999999e-25,-1.8421199999999999e-25,-1.8359399999999999e-25,-1.6310400000000001e-28,-9.9252200000000006e-30,-3.8585199999999998e-29
4026.0,1.9085999999999999e-28,-1.8436000000000001e-25,-1.8455000000000001e-25,-1.8436199999999999e-25,4.0296499999999998e-30,-3.0317899999999999e-30,-1.36056e-29
4027.0,2.3124599999999998e-28,-1.84313e-25,-1.8454200000000001e-25,-1.84314e-25,-1.8385499999999999e-29,-4.6413300000000002e-30,-1.3173299999999999e-29
4028.0,2.7827000000000002e-28,-1.8427500000000001e-25,-1.8453699999999999e-25,-1.8426700000000001e-25,-4.4053900000000001e-29,-6.9655299999999995e-30,-1.33885e-29
4029.0,3.5126200000000001e-28,-1.84188e-25,-1.84507e-25,-1.8417500000000001e-25,-7.4779599999999996e-29,-9.2312100000000001e-30,-1.38646e-29
4030.0,4.4001000000000002e-28,-1.8408e-25,-1.8446700000000001e-25,-1.8405999999999999e-25,-1.07253e-28,-1.1606e-29,-1.40329e-29
4031.0,5.4406699999999998e-28,-1.83896e-25,-1.84373e-25,-1.8386999999999999e-25,-1.34098e-28,-1.33506e-29,-1.7274900000000001e-29
4032.0,6.5504899999999999e-28,-1.83679e-25,-1.8425100000000001e-25,-1.8364200000000001e-25,-1.6168500000000001e-28,-1.2291400000000001e-29,-1.6601700000000001e-29
4033.0,1.94561e-28,-1.8435800000000001e-25,-1.8455100000000001e-25,-1.8436099999999999e-25,5.9291100000000001e-30,-5.17091e-30,-1.73993e-29
4034.0,2.2405599999999999e-28,-1.8432899999999999e-25,-1.84548e-25,-1.8432600000000001e-25,-1.4219100000000001e-29,-5.9770399999999997e-30,-1.61511e-29
4035.0,2.73275e-28,-1.8427799999999999e-25,-1.8453699999999999e-25,-1.8426899999999999e-25,-3.9149299999999998e-29,-8.6071400000000003e-30,-1.33839e-29
4036.0,3.3585499999999998e-28,-1.8421999999999999e-25,-1.8452600000000001e-25,-1.8420299999999999e-25,-6.6271300000000001e-29,-1.06885e-29,-1.13663e-29
4037.0,4.1864099999999997e-28,-1.84114e-25,-1.8448400000000001e-25,-1.84088e-25,-9.5574900000000002e-29,-1.24752e-29,-8.0312600000000005e-30
4038.0,5.1309899999999999e-28,-1.83979e-25,-1.8442700000000001e-25,-1.8394300000000001e-25,-1.22296e-28,-1.4119399999999999e-29,-4.2634600000000002e-30
4039.0,6.1333100000000002e-28,-1.83789e-25,-1.84323e-25,-1.8374100000000001e-25,-1.4401e-28,-1.0222499999999999e-29,-3.08001e-30
4040.0,1.90151e-28,-1.8436800000000001e-25,-1.8455299999999999e-25,-1.8436700000000001e-25,8.4943200000000006e-30,-5.5692100000000001e-30,-2.1517099999999999e-29
4041.0,2.1955599999999998e-28,-1.8433599999999999e-25,-1.84549e-25,-1.8433e-25,-9.8970699999999997e-30,-8.24731e-30,-1.8584600000000001e-29
4042.0,2.5935399999999999e-28,-1.8430399999999999e-25,-1.84548e-25,-1.8429e-25,-3.0907799999999998e-29,-8.9832499999999999e-30,-1.5602899999999999e-29
4043.0,3.1603900000000002e-28,-1.84247e-25,-1.8453500000000001e-25,-1.84224e-25,-5.5476699999999997e-29,-1.17364e-29,-1.0224900000000001e-29
4044.0,3.8373e-28,-1.84182e-25,-1.8452099999999999e-25,-1.84148e-25,-7.9748000000000005e-29,-1.19178e-29,-4.7590199999999999e-30
4045.0,4.6542699999999998e-28,-1.84071e-25,-1.8447600000000001e-25,-1.8402600000000001e-25,-1.0240000000000001e-28,-1.2792600000000001e-29,2.1149299999999998e-30
4046.0,5.46874e-28,-1.8395999999999999e-25,-1.84432e-25,-1.83905e-25,-1.24641e-28,-6.5746099999999994e-30,8.6378900000000001e-30
4047.0,1.8728399999999999e-28,-1.8437799999999999e-25,-1.84555e-25,-1.84372e-25,1.1247400000000001e-29,-7.4307199999999999e-30,-2.6338099999999999e-29
4048.0,2.1078499999999998e-28,-1.84355e-25,-1.84555e-25,-1.8434300000000001e-25,-4.4782200000000002e-30,-7.7012300000000004e-30,-2.3271700000000001e-29
4049.0,2.4493800000000001e-28,-1.84324e-25,-1.8455299999999999e-25,-1.84305e-25,-2.24297e-29,-1.0205399999999999e-29,-1.8758300000000001e-29
4050.0,2.8785099999999998e-28,-1.8429200000000001e-25,-1.8455399999999999e-25,-1.84263e-25,-4.1847200000000003e-29,-1.01892e-29,-1.34153e-29
4051.0,3.44086e-28,-1.84239e-25,-1.8454300000000001e-25,-1.84199e-25,-6.2714400000000004e-29,-1.01976e-29,-5.6017700000000001e-30
4052.0,4.0499100000000002e-28,-1.8418400000000001e-25,-1.8453500000000001e-25,-1.84132e-25,-8.1248499999999996e-29,-8.5233599999999999e-30,2.1889099999999999e-30
4053.0,4.7394199999999997e-28,-1.8410100000000001e-25,-1.84508e-25,-1.8403699999999999e-25,-9.6776800000000004e-29,-2.8209299999999998e-31,1.20388e-29
4054.0,1.82854e-28,-1.8439e-25,-1.84558e-25,-1.8437899999999999e-25,1.3792900000000001e-29,-6.3410000000000003e-30,-3.0442199999999997e-29
4055.0,2.02347e-28,-1.8436999999999999e-25,-1.84558e-25,-1.84355e-25,1.00456e-30,-8.9232899999999995e-30,-2.81126e-29
4056.0,2.26609e-28,-1.8435399999999999e-25,-1.8456199999999999e-25,-1.84331e-25,-1.3080699999999999e-29,-7.8634600000000005e-30,-2.4246999999999999e-29
4057.0,2.6082799999999998e-28,-1.8432799999999999e-25,-1.84563e-25,-1.8429499999999999e-25,-2.9448099999999999e-29,-9.1114800000000005e-30,-1.8559899999999999e-29
4058.0,2.9940000000000002e-28,-1.84305e-25,-1.8456899999999999e-25,-1.8426199999999999e-25,-4.4986100000000002e-29,-6.1197300000000001e-30,-1.19526e-29
4059.0,3.49438e-28,-1.84263e-25,-1.84565e-25,-1.84207e-25,-6.0824800000000002e-29,-3.6581799999999998e-30,-2.68973e-30
4060.0,3.86291e-28,-1.84238e-25,-1.8456999999999999e-25,-1.84181e-25,-7.43715e-29,3.53832e-30,5.3489999999999997e-30
4061.0,1.77281e-28,-1.8440299999999999e-25,-1.8455900000000001e-25,-1.84388e-25,1.6219e-29,-7.1537000000000006e-30,-3.4952100000000003e-29
4062.0,1.91607e-28,-1.8439300000000001e-25,-1.84564e-25,-1.84373e-25,6.8873200000000003e-30,-6.6255000000000006e-30,-3.3839100000000001e-29
4063.0,2.0974999999999999e-28,-1.84381e-25,-1.8456800000000001e-25,-1.8435399999999999e-25,-3.62926e-30,-7.7542500000000004e-30,-3.1113999999999997e-29
4064.0,2.3270900000000001e-28,-1.8436899999999999e-25,-1.8457500000000001e-25,-1.8433300000000001e-25,-1.6387e-29,-5.7786599999999999e-30,-2.6653500000000002e-29
4065.0,2.6299299999999999e-28,-1.8435100000000001e-25,-1.84581e-25,-1.84306e-25,-2.9558499999999998e-29,-4.2951600000000003e-30,-2.0648900000000001e-29
4066.0,2.9086300000000002e-28,-1.84338e-25,-1.84589e-25,-1.8428500000000001e-25,-4.15324e-29,2.2574399999999999e-31,-1.38953e-29
4067.0,3.35187e-28,-1.84314e-25,-1.8460000000000001e-25,-1.8425000000000001e-25,-5.0750800000000002e-29,7.7426800000000004e-30,-6.0460300000000003e-30
4068.0,1.81875e-28,-1.8436099999999999e-25,-1.84549e-25,-1.8437799999999999e-25,1.4460199999999999e-29,-1.0060100000000001e-31,-9.0506500000000001e-30
4069.0,2.2495099999999999e-28,-1.8430299999999999e-25,-1.84541e-25,-1.8433699999999999e-25,1.2775599999999999e-29,-1.2401500000000001e-30,-1.0907e-29
4070.0,2.3815799999999999e-28,-1.8427500000000001e-25,-1.8452700000000001e-25,-1.84307e-25,3.58734e-31,-1.8890300000000001e-30,-1.09089e-29
4071.0,2.8788499999999998e-28,-1.8418e-25,-1.84489e-25,-1.84232e-25,-6.9221499999999999e-31,-6.2801600000000002e-31,-1.4245399999999999e-29
4072.0,3.0567299999999999e-28,-1.84106e-25,-1.8443500000000001e-25,-1.8416099999999999e-25,2.8767499999999999e-31,-6.5632600000000004e-31,-1.28651e-29
4073.0,3.26009e-28,-1.8398400000000001e-25,-1.8433400000000001e-25,-1.8404399999999999e-25,9.4305300000000001e-30,2.1998299999999998e-30,-1.5568e-29
4074.0,3.1710899999999998e-28,-1.83881e-25,-1.8421800000000001e-25,-1.8392699999999999e-25,5.70749e-30,-4.3854199999999996e-31,-1.23059e-29
4075.0,1.9612100000000001e-28,-1.84348e-25,-1.8455000000000001e-25,-1.84373e-25,2.2227899999999999e-29,-4.62577e-30,-1.4145000000000001e-29
4076.0,2.11798e-28,-1.84323e-25,-1.8454399999999999e-25,-1.8435100000000001e-25,1.3274600000000001e-29,-6.6049100000000004e-30,-1.5131399999999999e-29
4077.0,2.4640600000000001e-28,-1.8426099999999999e-25,-1.84522e-25,-1.8430100000000001e-25,8.4353699999999994e-30,-8.9430699999999996e-30,-1.6953599999999999e-29
4078.0,2.73062e-28,-1.84206e-25,-1.84497e-25,-1.8425299999999999e-25,4.6435000000000002e-30,-1.08559e-29,-1.96431e-29
4079.0,3.0597699999999998e-28,-1.8410900000000001e-25,-1.8443400000000001e-25,-1.84164e-25,8.4787700000000004e-30,-1.35002e-29,-2.4233299999999999e-29
4080.0,3.1272699999999999e-28,-1.84022e-25,-1.8435100000000001e-25,-1.84073e-25,1.15674e-29,-1.4360999999999999e-29,-2.8200099999999998e-29
4081.0,3.2523499999999999e-28,-1.8390199999999999e-25,-1.8423599999999999e-25,-1.83938e-25,6.9552100000000005e-30,-1.48588e-29,-3.6407900000000002e-29
4082.0,1.9038299999999999e-28,-1.8436000000000001e-25,-1.8455200000000001e-25,-1.84381e-25,2.3477199999999999e-29,-8.8172699999999994e-30,-1.97856e-29
4083.0,2.13087e-28,-1.84322e-25,-1.84541e-25,-1.84348e-25,1.69514e-29,-1.17861e-29,-2.0656399999999999e-29
4084.0,2.3889200000000002e-28,-1.8428400000000001e-25,-1.84532e-25,-1.84316e-25,1.13018e-29,-1.5060699999999999e-29,-2.34582e-29
4085.0,2.7079699999999999e-28,-1.8421800000000001e-25,-1.84498e-25,-1.84255e-25,7.5685299999999996e-30,-2.0090800000000001e-29,-2.72858e-29
4086.0,2.96229e-28,-1.84155e-25,-1.8445900000000001e-25,-1.8419300000000001e-25,7.1742099999999997e-30,-2.37215e-29,-3.3471000000000001e-29
4087.0,3.1691299999999998e-28,-1.84065e-25,-1.8438300000000001e-25,-1.8409499999999999e-25,6.8913699999999995e-30,-2.69986e-29,-4.2800699999999999e-29
4088.0,3.3000499999999999e-28,-1.8398400000000001e-25,-1.84305e-25,-1.83997e-25,-7.9466199999999994e-30,-2.7054399999999999e-29,-4.8794100000000002e-29
4089.0,1.9023799999999999e-28,-1.84366e-25,-1.8455200000000001e-25,-1.84382e-25,2.5234900000000001e-29,-1.24938e-29,-2.5389200000000002e-29
4090.0,2.0901800000000001e-28,-1.84341e-25,-1.84549e-25,-1.8436000000000001e-25,1.94132e-29,-1.5112200000000001e-29,-2.6988600000000002e-29
4091.0,2.3383099999999999e-28,-1.84299e-25,-1.84533e-25,-1.8431999999999999e-25,1.2934200000000001e-29,-2.06312e-29,-2.9208500000000002e-29
4092.0,2.61451e-28,-1.8425900000000001e-25,-1.8451999999999999e-25,-1.8428e-25,8.0333000000000003e-30,-2.44308e-29,-3.4138499999999998e-29
4093.0,2.9048899999999999e-28,-1.84197e-25,-1.84482e-25,-1.8421199999999999e-25,3.6716099999999997e-30,-2.9969399999999999e-29,-4.02977e-29
4094.0,3.0940499999999998e-28,-1.84149e-25,-1.8444300000000001e-25,-1.8415100000000001e-25,-2.7076199999999999e-30,-3.0891899999999999e-29,-4.8457900000000002e-29
4095.0,3.4845899999999998e-28,-1.8406899999999999e-25,-1.8438599999999999e-25,-1.8404499999999999e-25,-1.8201499999999999e-29,-2.79547e-29,-5.5271600000000003e-29
4096.0,1.8710299999999999e-28,-1.84381e-25,-1.84557e-25,-1.8439e-25,2.6394900000000002e-29,-1.3737000000000001e-29,-3.0711500000000001e-29
4097.0,2.03634e-28,-1.84356e-25,-1.8455100000000001e-25,-1.84365e-25,1.9975499999999999e-29,-1.8381400000000001e-29,-3.1904399999999998e-29
4098.0,2.2559399999999998e-28,-1.84331e-25,-1.84547e-25,-1.84338e-25,1.3903e-29,-2.1625600000000001e-29,-3.5097900000000002e-29
4099.0,2.50707e-28,-1.8429300000000001e-25,-1.84532e-25,-1.84296e-25,6.4773900000000004e-30,-2.6408400000000001e-29,-3.8599900000000002e-29
4100.0,2.7604399999999999e-28,-1.84263e-25,-1.8451999999999999e-25,-1.84255e-25,-3.5480699999999999e-31,-2.8519199999999998e-29,-4.3570299999999997e-29
4101.0,3.04849e-28,-1.8421700000000001e-25,-1.84491e-25,-1.8419200000000001e-25,-1.06448e-29,-2.8755500000000002e-29,-4.9584599999999998e-29
4102.0,3.2814499999999999e-28,-1.8418400000000001e-25,-1.84474e-25,-1.8414499999999999e-25,-2.8725900000000002e-29,-2.3022799999999999e-29,-4.8441400000000002e-29
4103.0,1.8276199999999999e-28,-1.8439499999999999e-25,-1.8455900000000001e-25,-1.8439599999999999e-25,2.5911899999999999e-29,-1.56477e-29,-3.5295899999999999e-29
4104.0,1.9739200000000001e-28,-1.8437799999999999e-25,-1.8455900000000001e-25,-1.8437799999999999e-25,2.0503399999999999e-29,-1.7217099999999999e-29,-3.7182800000000002e-29
4105.0,2.1566500000000001e-28,-1.84356e-25,-1.8455299999999999e-25,-1.8435100000000001e-25,1.3203700000000001e-29,-2.1555800000000001e-29,-3.9241900000000001e-29
4106.0,2.3716200000000002e-28,-1.84338e-25,-1.8455299999999999e-25,-1.8432500000000001e-25,5.9223099999999998e-30,-2.2603000000000001e-29,-4.2481999999999997e-29
4107.0,2.6169099999999999e-28,-1.8431000000000001e-25,-1.8454200000000001e-25,-1.8428400000000001e-25,-3.74403e-30,-2.4234999999999999e-29,-4.4638600000000002e-29
4108.0,2.82562e-28,-1.84296e-25,-1.84541e-25,-1.84257e-25,-1.4924599999999999e-29,-2.15545e-29,-4.6051000000000001e-29
4109.0,3.2590500000000001e-28,-1.8425800000000001e-25,-1.8453400000000001e-25,-1.84197e-25,-2.9628300000000001e-29,-1.4286300000000001e-29,-4.6951400000000002e-29
4110.0,1.78491e-28,-1.8441000000000001e-25,-1.84564e-25,-1.84405e-25,2.5910699999999998e-29,-1.3226299999999999e-29,-3.9602799999999997e-29
4111.0,1.90381e-28,-1.8439599999999999e-25,-1.84563e-25,-1.84389e-25,2.02793e-29,-1.7206200000000001e-29,-4.1059600000000001e-29
4112.0,2.0635900000000001e-28,-1.8438400000000001e-25,-1.84565e-25,-1.8436999999999999e-25,1.3987700000000001e-29,-1.79591e-29,-4.3618899999999999e-29
4113.0,2.2453900000000002e-28,-1.8436800000000001e-25,-1.84564e-25,-1.8434499999999999e-25,5.51035e-30,-1.9745800000000001e-29,-4.4794999999999999e-29
4114.0,2.4345199999999999e-28,-1.8435800000000001e-25,-1.84566e-25,-1.84323e-25,-3.8935200000000001e-30,-1.83862e-29,-4.5581600000000002e-29
4115.0,2.6969400000000001e-28,-1.8434e-25,-1.84566e-25,-1.8429e-25,-1.5537900000000001e-29,-1.5064e-29,-4.5967900000000002e-29
4116.0,2.8079600000000001e-28,-1.84332e-25,-1.8456999999999999e-25,-1.8427899999999999e-25,-2.9743699999999998e-29,-6.8184600000000006e-30,-3.6441099999999998e-29
4117.0,1.40285e-28,-1.84606e-25,-1.8461000000000001e-25,-1.8458400000000001e-25,2.36792e-30,3.4767899999999998e-30,-7.9602599999999999e-29
4118.0,1.3649300000000001e-28,-1.8462899999999999e-25,-1.84631e-25,-1.84598e-25,1.53067e-29,-3.5855199999999998e-30,-7.4958799999999999e-29
4119.0,1.1687699999999999e-28,-1.84589e-25,-1.8456000000000001e-25,-1.8458400000000001e-25,9.5504099999999998e-30,-1.4651899999999999e-30,-6.5036100000000002e-29
4120.0,1.17183e-28,-1.8461999999999999e-25,-1.8459399999999999e-25,-1.8460000000000001e-25,3.1108100000000001e-29,-6.7076100000000003e-30,-5.8172700000000005e-29
4121.0,9.4702999999999995e-29,-1.8456899999999999e-25,-1.84506e-25,-1.8458500000000001e-25,1.16802e-29,-2.3640099999999998e-30,-3.3392199999999999e-29
4122.0,1.15712e-28,-1.8462500000000001e-25,-1.84589e-25,-1.84605e-25,5.4130100000000001e-29,-1.82771e-30,-3.4800699999999999e-29
4123.0,1.4191300000000001e-28,-1.84532e-25,-1.8442600000000001e-25,-1.8454399999999999e-25,-1.6363599999999999e-29,-2.0334199999999999e-29,4.2962200000000002e-29
4124.0,1.4228900000000001e-28,-1.8462700000000001e-25,-1.84639e-25,-1.8459599999999999e-25,1.9538799999999999e-29,-2.4996100000000001e-30,-7.6619499999999996e-29
4125.0,1.2609000000000001e-28,-1.8459599999999999e-25,-1.8459300000000001e-25,-1.84581e-25,1.7966600000000001e-29,-3.8824300000000001e-30,-7.0029700000000001e-29
4126.0,1.26992e-28,-1.8461700000000001e-25,-1.84606e-25,-1.84599e-25,3.3456200000000001e-29,-6.9169099999999993e-30,-6.4249700000000001e-29
4127.0,1.0103899999999999e-28,-1.8457700000000001e-25,-1.84547e-25,-1.84581e-25,2.7512800000000002e-29,-7.1399600000000005e-30,-4.7403200000000002e-29
4128.0,1.18197e-28,-1.8461000000000001e-25,-1.84583e-25,-1.84606e-25,5.0261200000000001e-29,-4.5559500000000001e-30,-4.3608400000000002e-29
4129.0,8.5304799999999995e-29,-1.84563e-25,-1.8450200000000001e-25,-1.84572e-25,2.9400099999999998e-29,-9.8981400000000002e-30,-6.03904e-30
4130.0,1.1558899999999999e-28,-1.84591e-25,-1.8459399999999999e-25,-1.8462600000000001e-25,5.8512300000000005e-29,-6.1967799999999996e-31,-2.5422100000000001e-29
4131.0,1.34503e-28,-1.8460200000000001e-25,-1.84614e-25,-1.84582e-25,2.28297e-29,-3.8010700000000001e-30,-7.2330400000000005e-29
4132.0,1.33332e-28,-1.84616e-25,-1.8461999999999999e-25,-1.8459599999999999e-25,3.4871299999999998e-29,-7.1270199999999999e-30,-6.70313e-29
4133.0,1.14208e-28,-1.8458400000000001e-25,-1.8457700000000001e-25,-1.8457899999999999e-25,3.4307600000000002e-29,-8.5827399999999999e-30,-5.5520399999999995e-29
4134.0,1.23762e-28,-1.84605e-25,-1.8459499999999999e-25,-1.8460200000000001e-25,4.9965799999999998e-29,-7.4481999999999997e-30,-5.02509e-29
4135.0,9.6715200000000003e-29,-1.8456899999999999e-25,-1.84541e-25,-1.8457500000000001e-25,4.4212099999999999e-29,-9.5589700000000005e-30,-2.6987599999999998e-29
4136.0,1.1934e-28,-1.8459300000000001e-25,-1.8458500000000001e-25,-1.8461199999999999e-25,6.11419e-29,-3.4920899999999997e-30,-2.8222899999999998e-29
4137.0,1.0463900000000001e-28,-1.8456899999999999e-25,-1.84513e-25,-1.8456899999999999e-25,4.9670900000000001e-29,1.1574300000000001e-30,1.11603e-29
4138.0,1.3812199999999999e-28,-1.84616e-25,-1.8463e-25,-1.8459300000000001e-25,3.6763099999999999e-29,-6.4017699999999994e-30,-6.7992899999999997e-29
4139.0,1.23989e-28,-1.84591e-25,-1.84598e-25,-1.8458e-25,3.70436e-29,-7.8039399999999996e-30,-6.0076599999999996e-29
4140.0,1.2783e-28,-1.84605e-25,-1.8460900000000001e-25,-1.84598e-25,4.8962200000000002e-29,-8.9255800000000004e-30,-5.4221099999999999e-29
4141.0,1.0959399999999999e-28,-1.8457500000000001e-25,-1.8456899999999999e-25,-1.8457700000000001e-25,4.9002500000000001e-29,-9.9609799999999998e-30,-3.8503500000000001e-29
4142.0,1.22802e-28,-1.8459399999999999e-25,-1.8459399999999999e-25,-1.84606e-25,6.1040099999999996e-29,-6.6327900000000003e-30,-3.4778999999999998e-29
4143.0,1.0481199999999999e-28,-1.8456800000000001e-25,-1.8454599999999999e-25,-1.84574e-25,5.7675200000000005e-29,-4.7983700000000002e-30,-9.4921799999999998e-30
4144.0,1.18241e-28,-1.84583e-25,-1.8459499999999999e-25,-1.8461000000000001e-25,6.5888799999999999e-29,-3.8090600000000003e-30,-1.1400699999999999e-29
4145.0,1.3127899999999999e-28,-1.8459599999999999e-25,-1.8461099999999999e-25,-1.8458e-25,3.9102500000000003e-29,-5.9840000000000001e-30,-6.2817800000000001e-29
4146.0,1.3198099999999999e-28,-1.84606e-25,-1.8461899999999999e-25,-1.8459499999999999e-25,4.84201e-29,-8.8073799999999993e-30,-5.6835700000000003e-29
4147.0,1.1862499999999999e-28,-1.84582e-25,-1.84588e-25,-1.8457799999999999e-25,5.0224300000000002e-29,-9.19061e-30,-4.5375300000000002e-29
4148.0,1.2568200000000001e-28,-1.8459499999999999e-25,-1.84605e-25,-1.8460000000000001e-25,5.9429000000000004e-29,-8.4863099999999997e-30,-4.0454000000000002e-29
4149.0,1.1248399999999999e-28,-1.8457099999999999e-25,-1.8456899999999999e-25,-1.8457600000000001e-25,6.0382100000000003e-29,-7.4435399999999996e-30,-2.2427599999999999e-29
4150.0,1.2241700000000001e-28,-1.8458599999999999e-25,-1.84598e-25,-1.84605e-25,6.6905699999999997e-29,-5.4706499999999997e-30,-1.9981e-29
4151.0,1.1522799999999999e-28,-1.8456899999999999e-25,-1.8455299999999999e-25,-1.84573e-25,6.5560899999999996e-29,5.4559499999999996e-31,3.2871599999999999e-30
4152.0,1.3695999999999999e-28,-1.84606e-25,-1.8462500000000001e-25,-1.84591e-25,4.9436499999999999e-29,-7.5281800000000007e-30,-5.8836700000000002e-29
4153.0,1.25493e-28,-1.84588e-25,-1.8460000000000001e-25,-1.8457799999999999e-25,5.0433099999999999e-29,-7.3278499999999999e-30,-5.0287000000000002e-29
4154.0,1.2857200000000001e-28,-1.84597e-25,-1.84614e-25,-1.8459599999999999e-25,5.7242700000000004e-29,-8.6978900000000004e-30,-4.5341600000000001e-29
4155.0,1.1854700000000001e-28,-1.8457700000000001e-25,-1.8458599999999999e-25,-1.8457700000000001e-25,6.0239500000000001e-29,-7.7581200000000004e-30,-3.1133300000000002e-29
4156.0,1.24384e-28,-1.84588e-25,-1.84606e-25,-1.8460000000000001e-25,6.5374599999999997e-29,-6.9270900000000003e-30,-2.7491100000000002e-29
4157.0,1.1729300000000001e-28,-1.8456999999999999e-25,-1.84574e-25,-1.8457500000000001e-25,6.6853099999999995e-29,-3.5953300000000002e-30,-9.76009e-30
4158.0,1.22361e-28,-1.84583e-25,-1.8461000000000001e-25,-1.8460299999999999e-25,6.8697700000000003e-29,-4.0771599999999997e-30,-7.6192600000000001e-30
4159.0,1.3142e-28,-1.8459200000000001e-25,-1.84607e-25,-1.8457799999999999e-25,5.0835400000000005e-29,-5.0248800000000002e-30,-5.4134499999999999e-29
4160.0,1.33542e-28,-1.84599e-25,-1.8461999999999999e-25,-1.8459200000000001e-25,5.5624500000000005e-29,-7.7712699999999994e-30,-5.07773e-29
4161.0,1.244e-28,-1.84582e-25,-1.84597e-25,-1.8457700000000001e-25,5.95494e-29,-6.5830399999999999e-30,-3.8186100000000001e-29
4162.0,1.2705300000000001e-28,-1.8459e-25,-1.8461199999999999e-25,-1.8459499999999999e-25,6.3262799999999995e-29,-7.12128e-30,-3.46857e-29
4163.0,1.21085e-28,-1.84574e-25,-1.84588e-25,-1.8457600000000001e-25,6.6455600000000003e-29,-4.9547800000000001e-30,-1.9700599999999999e-29
4164.0,1.23808e-28,-1.8458599999999999e-25,-1.8461000000000001e-25,-1.84598e-25,6.8273200000000003e-29,-4.76973e-30,-1.6603400000000001e-29
4165.0,1.2045199999999999e-28,-1.8456999999999999e-25,-1.8457700000000001e-25,-1.84573e-25,6.9456200000000004e-29,1.67475e-31,-7.2887300000000002e-31
4166.0,1.56811e-28,-1.8459599999999999e-25,-1.8463400000000001e-25,-1.84557e-25,7.6384300000000006e-30,-1.5121699999999999e-30,-8.1601899999999997e-29
4167.0,1.3616299999999999e-28,-1.8455900000000001e-25,-1.8456899999999999e-25,-1.84539e-25,1.06308e-29,-3.6003800000000001e-30,-7.6286500000000005e-29
4168.0,1.38167e-28,-1.8457899999999999e-25,-1.8458500000000001e-25,-1.84555e-25,2.22975e-29,-7.4557099999999999e-30,-7.4520900000000002e-29
4169.0,1.0595299999999999e-28,-1.8453599999999999e-25,-1.8451000000000001e-25,-1.8453599999999999e-25,2.2329599999999999e-29,-7.7355300000000001e-30,-5.4372900000000001e-29
4170.0,1.1835300000000001e-28,-1.8456700000000001e-25,-1.84539e-25,-1.8456000000000001e-25,3.9790200000000002e-29,-5.8355399999999999e-30,-5.3204200000000001e-29
4171.0,7.4295899999999997e-29,-1.8451800000000001e-25,-1.84466e-25,-1.84522e-25,2.77052e-29,-9.3803099999999996e-30,-2.9000400000000001e-30
4172.0,1.1558e-28,-1.8456099999999999e-25,-1.8447600000000001e-25,-1.8457099999999999e-25,4.1538499999999998e-29,1.0116e-30,-3.3117600000000002e-30
4173.0,1.4513999999999999e-28,-1.8456800000000001e-25,-1.8460000000000001e-25,-1.8454200000000001e-25,1.67104e-29,-4.3843499999999999e-30,-7.6770000000000003e-29
4174.0,1.4177699999999999e-28,-1.84581e-25,-1.8460299999999999e-25,-1.84557e-25,2.45841e-29,-8.05654e-30,-7.4189899999999997e-29
4175.0,1.2508100000000001e-28,-1.84547e-25,-1.8455200000000001e-25,-1.84538e-25,3.0993799999999998e-29,-1.03122e-29,-6.3989699999999999e-29
4176.0,1.2448899999999999e-28,-1.84564e-25,-1.8456000000000001e-25,-1.8456000000000001e-25,4.14657e-29,-1.0484599999999999e-29,-5.7710999999999998e-29
4177.0,1.01184e-28,-1.8452700000000001e-25,-1.84506e-25,-1.84532e-25,4.4359900000000002e-29,-9.5654600000000007e-30,-3.41598e-29
4178.0,1.0955200000000001e-28,-1.8455200000000001e-25,-1.8452899999999999e-25,-1.84565e-25,5.4713000000000001e-29,-9.84801e-30,-2.40551e-29
4179.0,7.3034999999999997e-29,-1.8450399999999999e-25,-1.8447600000000001e-25,-1.8452799999999999e-25,3.19205e-29,-5.47092e-30,7.1476499999999999e-30
4180.0,1.4473499999999999e-28,-1.84583e-25,-1.8461700000000001e-25,-1.84558e-25,2.6697499999999997e-29,-7.4146799999999996e-30,-7.2953999999999996e-29
4181.0,1.35371e-28,-1.84558e-25,-1.84582e-25,-1.8454200000000001e-25,3.3593000000000001e-29,-1.03042e-29,-6.6862999999999998e-29
4182.0,1.3046299999999999e-28,-1.8456800000000001e-25,-1.8458400000000001e-25,-1.8456099999999999e-25,4.1464800000000002e-29,-1.20814e-29,-6.0587100000000001e-29
4183.0,1.2005999999999999e-28,-1.8453599999999999e-25,-1.8454300000000001e-25,-1.84539e-25,4.9125999999999999e-29,-1.1846400000000001e-29,-4.7314900000000002e-29
4184.0,1.19259e-28,-1.8455299999999999e-25,-1.84555e-25,-1.84565e-25,5.7171799999999996e-29,-1.1531e-29,-3.6055899999999998e-29
4185.0,1.03144e-28,-1.8451700000000001e-25,-1.8451199999999999e-25,-1.8453699999999999e-25,5.5278499999999998e-29,-6.6368800000000007e-30,-1.6614200000000001e-29
4186.0,1.2884e-28,-1.8454200000000001e-25,-1.8455299999999999e-25,-1.8457099999999999e-25,7.2491300000000002e-29,-6.1734299999999999e-31,-8.2698699999999997e-30
4187.0,1.40479e-28,-1.84566e-25,-1.8460100000000001e-25,-1.8454599999999999e-25,3.5091199999999998e-29,-8.9002500000000004e-30,-6.7013500000000004e-29
4188.0,1.3446299999999999e-28,-1.84572e-25,-1.8460100000000001e-25,-1.8456099999999999e-25,4.09096e-29,-1.16265e-29,-6.1597600000000004e-29
4189.0,1.2966199999999999e-28,-1.84547e-25,-1.8457099999999999e-25,-1.8454399999999999e-25,4.9145899999999999e-29,-1.2289299999999999e-29,-5.3045500000000004e-29
4190.0,1.25296e-28,-1.84557e-25,-1.8457600000000001e-25,-1.84564e-25,5.5904099999999997e-29,-1.2785500000000001e-29,-4.3033900000000001e-29
4191.0,1.1967400000000001e-28,-1.8452700000000001e-25,-1.8454399999999999e-25,-1.8454200000000001e-25,6.0679899999999995e-29,-9.7518699999999993e-30,-3.0247499999999999e-29
4192.0,1.2619100000000001e-28,-1.8454599999999999e-25,-1.84565e-25,-1.8456700000000001e-25,6.9216199999999997e-29,-6.3330500000000005e-30,-1.8254100000000001e-29
4193.0,1.0893200000000001e-28,-1.8451999999999999e-25,-1.8452099999999999e-25,-1.8453599999999999e-25,6.22861e-29,-9.8300300000000005e-31,1.49924e-30
4194.0,1.3801100000000001e-28,-1.84574e-25,-1.8461000000000001e-25,-1.8455900000000001e-25,4.1563400000000002e-29,-9.44265e-30,-6.2047499999999996e-29
4195.0,1.3430199999999999e-28,-1.84557e-25,-1.8459e-25,-1.84548e-25,4.8134499999999999e-29,-1.0968499999999999e-29,-5.5551599999999999e-29
4196.0,1.2863199999999999e-28,-1.84563e-25,-1.8459200000000001e-25,-1.84563e-25,5.3373200000000004e-29,-1.25131e-29,-4.7192900000000001e-29
4197.0,1.2683699999999999e-28,-1.84539e-25,-1.8456899999999999e-25,-1.84547e-25,5.9690300000000002e-29,-1.10025e-29,-3.7921200000000002e-29
4198.0,1.2638400000000001e-28,-1.8455100000000001e-25,-1.8458e-25,-1.8456700000000001e-25,6.5582999999999995e-29,-9.3101299999999998e-30,-2.6842999999999999e-29
4199.0,1.1974100000000001e-28,-1.8452600000000001e-25,-1.8455000000000001e-25,-1.8454300000000001e-25,6.6287700000000005e-29,-5.8200700000000001e-30,-1.4067599999999999e-29
4200.0,1.3217899999999999e-28,-1.8454200000000001e-25,-1.8458599999999999e-25,-1.8456999999999999e-25,7.2774100000000004e-29,-2.4783399999999999e-30,-5.2864099999999997e-30
4201.0,1.38002e-28,-1.84563e-25,-1.8460100000000001e-25,-1.8455000000000001e-25,4.8033300000000001e-29,-8.8156799999999997e-30,-5.70645e-29
4202.0,1.3169400000000001e-28,-1.8456700000000001e-25,-1.8460200000000001e-25,-1.8456199999999999e-25,5.1576500000000003e-29,-1.08854e-29,-5.03261e-29
4203.0,1.3087700000000001e-28,-1.84549e-25,-1.8458599999999999e-25,-1.8455000000000001e-25,5.75021e-29,-1.04023e-29,-4.31803e-29
4204.0,1.27715e-28,-1.84557e-25,-1.8459200000000001e-25,-1.84565e-25,6.2224400000000004e-29,-1.0132600000000001e-29,-3.3469900000000001e-29
4205.0,1.2545400000000001e-28,-1.8453500000000001e-25,-1.8457099999999999e-25,-1.84547e-25,6.5431000000000002e-29,-8.0295199999999993e-30,-2.4009300000000001e-29
4206.0,1.28942e-28,-1.84548e-25,-1.84591e-25,-1.8456800000000001e-25,6.9689699999999997e-29,-5.2924499999999997e-30,-1.43338e-29
4207.0,1.1996900000000001e-28,-1.8453e-25,-1.84556e-25,-1.84541e-25,6.8034700000000005e-29,-9.1851500000000001e-31,-1.8144400000000001e-30
4208.0,1.3578800000000001e-28,-1.8456899999999999e-25,-1.84606e-25,-1.8455900000000001e-25,5.11278e-29,-8.5659500000000007e-30,-5.3358700000000002e-29
4209.0,1.34787e-28,-1.84557e-25,-1.8459599999999999e-25,-1.8455100000000001e-25,5.5684799999999998e-29,-8.4978599999999998e-30,-4.7812200000000001e-29
4210.0,1.3026699999999999e-28,-1.8456099999999999e-25,-1.84599e-25,-1.8456199999999999e-25,5.9403100000000002e-29,-9.1933499999999998e-30,-3.9525e-29
4211.0,1.28728e-28,-1.8454399999999999e-25,-1.8458500000000001e-25,-1.8455000000000001e-25,6.3125800000000004e-29,-8.1655499999999995e-30,-3.1477099999999999e-29
4212.0,1.28566e-28,-1.8455299999999999e-25,-1.84597e-25,-1.84565e-25,6.6659600000000003e-29,-6.5797999999999994e-30,-2.2599699999999999e-29
4213.0,1.2458399999999999e-28,-1.8453599999999999e-25,-1.8457500000000001e-25,-1.84547e-25,6.7675000000000004e-29,-4.1041599999999998e-30,-1.28711e-29
4214.0,1.3106599999999999e-28,-1.8455000000000001e-25,-1.84606e-25,-1.8456999999999999e-25,6.9893999999999994e-29,-2.6149999999999999e-30,-5.11235e-30
4215.0,1.58131e-28,-1.8452899999999999e-25,-1.8458400000000001e-25,-1.8449599999999999e-25,5.6209999999999997e-30,-2.70836e-30,-7.9649499999999995e-29
4216.0,1.62425e-28,-1.8454300000000001e-25,-1.8459e-25,-1.8450900000000001e-25,1.50378e-29,-7.8957099999999997e-30,-8.2720699999999995e-29
4217.0,1.3658699999999999e-28,-1.8450200000000001e-25,-1.8451999999999999e-25,-1.8448599999999999e-25,2.12021e-29,-1.14226e-29,-7.3133400000000001e-29
4218.0,1.3820600000000001e-28,-1.8451700000000001e-25,-1.8452099999999999e-25,-1.84507e-25,3.4450600000000002e-29,-1.07278e-29,-7.0813499999999999e-29
4219.0,9.9839399999999998e-29,-1.8447600000000001e-25,-1.84458e-25,-1.8447799999999999e-25,3.8749100000000001e-29,-1.20651e-29,-3.94846e-29
4220.0,1.09493e-28,-1.84499e-25,-1.84455e-25,-1.84515e-25,4.6833699999999999e-29,-4.70463e-30,-2.8321900000000002e-29
4221.0,9.6496400000000003e-29,-1.8446899999999999e-25,-1.8443400000000001e-25,-1.8448699999999999e-25,4.8659299999999999e-29,1.2234499999999999e-30,-1.4889699999999999e-30
4222.0,1.60387e-28,-1.84547e-25,-1.84607e-25,-1.84515e-25,1.7255899999999999e-29,-7.3787100000000005e-30,-7.76649e-29
4223.0,1.49721e-28,-1.8451899999999999e-25,-1.8456199999999999e-25,-1.8449599999999999e-25,2.56288e-29,-1.2049699999999999e-29,-7.4517700000000004e-29
4224.0,1.44104e-28,-1.8452500000000001e-25,-1.84556e-25,-1.84513e-25,3.51182e-29,-1.4271800000000001e-29,-7.0658999999999998e-29
4225.0,1.2882000000000001e-28,-1.84491e-25,-1.84506e-25,-1.84489e-25,4.5410199999999998e-29,-1.44796e-29,-5.6337400000000005e-29
4226.0,1.2289100000000001e-28,-1.8450299999999999e-25,-1.84505e-25,-1.84514e-25,5.4142799999999997e-29,-1.3580000000000001e-29,-4.3368699999999998e-29
4227.0,1.0394499999999999e-28,-1.8446800000000001e-25,-1.84463e-25,-1.84488e-25,5.5070099999999999e-29,-7.2638800000000001e-30,-1.8392599999999999e-29
4228.0,1.1940699999999999e-28,-1.84497e-25,-1.84473e-25,-1.8451700000000001e-25,6.54405e-29,2.6780600000000001e-31,-1.38215e-30
4229.0,1.5332400000000001e-28,-1.84531e-25,-1.84589e-25,-1.84506e-25,2.70311e-29,-1.1020499999999999e-29,-7.1808400000000005e-29
4230.0,1.4765900000000001e-28,-1.8453400000000001e-25,-1.84583e-25,-1.8451899999999999e-25,3.42954e-29,-1.41822e-29,-6.9053300000000003e-29
4231.0,1.4186600000000001e-28,-1.84506e-25,-1.8454599999999999e-25,-1.8450000000000001e-25,4.5251399999999999e-29,-1.58922e-29,-6.1549800000000005e-29
4232.0,1.3413499999999999e-28,-1.8451099999999999e-25,-1.8454200000000001e-25,-1.8451800000000001e-25,5.3373099999999998e-29,-1.6522200000000001e-29,-5.1040400000000004e-29
4233.0,1.2734499999999999e-28,-1.8447899999999999e-25,-1.84506e-25,-1.84497e-25,6.1294299999999997e-29,-1.2559099999999999e-29,-3.6147099999999998e-29
4234.0,1.27126e-28,-1.8449399999999999e-25,-1.84516e-25,-1.8451999999999999e-25,6.8584e-29,-9.1937800000000001e-30,-2.0216700000000001e-29
4235.0,1.0954899999999999e-28,-1.8446000000000001e-25,-1.8448500000000001e-25,-1.8449200000000001e-25,6.0853900000000003e-29,-2.5136200000000001e-30,-3.0019899999999999e-31
4236.0,1.4868399999999999e-28,-1.8454e-25,-1.84599e-25,-1.84522e-25,3.4233600000000003e-29,-1.19281e-29,-6.6677499999999994e-29
4237.0,1.45692e-28,-1.8452099999999999e-25,-1.84574e-25,-1.8451000000000001e-25,4.3055899999999999e-29,-1.4920200000000001e-29,-6.1939299999999997e-29
4238.0,1.3857699999999999e-28,-1.84522e-25,-1.8456999999999999e-25,-1.84524e-25,4.9921700000000002e-29,-1.6554499999999999e-29,-5.3892699999999997e-29
4239.0,1.37493e-28,-1.8449499999999999e-25,-1.8454200000000001e-25,-1.84507e-25,5.9228999999999999e-29,-1.49916e-29,-4.4509200000000002e-29
4240.0,1.32772e-28,-1.8450399999999999e-25,-1.84547e-25,-1.8452500000000001e-25,6.5373099999999999e-29,-1.31708e-29,-3.1021500000000001e-29
4241.0,1.28642e-28,-1.84474e-25,-1.8451899999999999e-25,-1.8450299999999999e-25,6.8087900000000002e-29,-7.2358700000000001e-30,-1.7691799999999999e-29
4242.0,1.4166600000000001e-28,-1.8449399999999999e-25,-1.8454499999999999e-25,-1.8452700000000001e-25,7.7412800000000003e-29,-4.5096899999999998e-31,-4.3113399999999999e-30
4243.0,1.4635300000000001e-28,-1.84531e-25,-1.8459e-25,-1.8451700000000001e-25,4.1965700000000002e-29,-1.23714e-29,-6.0860400000000005e-29
4244.0,1.40273e-28,-1.84532e-25,-1.8458699999999999e-25,-1.8452700000000001e-25,4.7235700000000002e-29,-1.4629699999999999e-29,-5.4973000000000002e-29
4245.0,1.4042e-28,-1.8451199999999999e-25,-1.8456700000000001e-25,-1.84516e-25,5.5487099999999998e-29,-1.4823099999999999e-29,-4.8169799999999998e-29
4246.0,1.3531099999999999e-28,-1.84515e-25,-1.8456899999999999e-25,-1.8452799999999999e-25,6.0963699999999996e-29,-1.4303100000000001e-29,-3.7431e-29
4247.0,1.3590099999999999e-28,-1.8449e-25,-1.84547e-25,-1.8451199999999999e-25,6.6551999999999999e-29,-1.0766200000000001e-29,-2.7975699999999999e-29
4248.0,1.37166e-28,-1.8450200000000001e-25,-1.8456199999999999e-25,-1.8453e-25,7.1511000000000005e-29,-6.6373299999999995e-30,-1.5121900000000001e-29
4249.0,1.2698800000000001e-28,-1.8447899999999999e-25,-1.84532e-25,-1.8450399999999999e-25,6.8359699999999996e-29,-1.7402900000000001e-30,-1.6199600000000002e-30
4250.0,1.41769e-28,-1.8453699999999999e-25,-1.8459499999999999e-25,-1.8452700000000001e-25,4.6227100000000001e-29,-1.15656e-29,-5.5476199999999998e-29
4251.0,1.4153499999999999e-28,-1.84524e-25,-1.8458400000000001e-25,-1.84522e-25,5.2427400000000005e-29,-1.29443e-29,-5.03922e-29
4252.0,1.3624399999999999e-28,-1.8452500000000001e-25,-1.84583e-25,-1.84531e-25,5.6896999999999995e-29,-1.3358100000000001e-29,-4.1820900000000002e-29
4253.0,1.37218e-28,-1.84506e-25,-1.8456800000000001e-25,-1.8451999999999999e-25,6.2294500000000004e-29,-1.18533e-29,-3.4330099999999999e-29
4254.0,1.3529e-28,-1.84513e-25,-1.8457700000000001e-25,-1.84532e-25,6.6304700000000004e-29,-9.4243900000000005e-30,-2.34229e-29
4255.0,1.32794e-28,-1.84491e-25,-1.84556e-25,-1.84514e-25,6.76433e-29,-6.0294200000000003e-30,-1.40554e-29
4256.0,1.4120699999999999e-28,-1.84506e-25,-1.8458500000000001e-25,-1.8453599999999999e-25,7.0927200000000002e-29,-1.7488999999999998e-30,-4.76369e-30
4257.0,1.4295399999999999e-28,-1.84531e-25,-1.84591e-25,-1.84523e-25,5.0689700000000001e-29,-1.01431e-29,-5.2324199999999999e-29
4258.0,1.37788e-28,-1.84532e-25,-1.84591e-25,-1.8453e-25,5.3847500000000001e-29,-1.10548e-29,-4.58509e-29
4259.0,1.3780000000000001e-28,-1.8451800000000001e-25,-1.84581e-25,-1.84523e-25,5.8501900000000004e-29,-1.0964e-29,-3.9414100000000002e-29
4260.0,1.3523700000000001e-28,-1.8452099999999999e-25,-1.8458500000000001e-25,-1.84531e-25,6.2289700000000002e-29,-9.6612400000000001e-30,-3.0485300000000001e-29
4261.0,1.3426e-28,-1.8450399999999999e-25,-1.8457099999999999e-25,-1.8451899999999999e-25,6.4731099999999995e-29,-7.6950800000000002e-30,-2.2555200000000001e-29
4262.0,1.3585299999999999e-28,-1.84514e-25,-1.8458699999999999e-25,-1.8453400000000001e-25,6.7170000000000002e-29,-4.4556799999999998e-30,-1.33905e-29
4263.0,1.2740000000000001e-28,-1.84497e-25,-1.8456000000000001e-25,-1.8451199999999999e-25,6.5680999999999995e-29,-7.6158200000000003e-31,-3.9271800000000003e-30
4264.0,1.85907e-28,-1.8451099999999999e-25,-1.8460299999999999e-25,-1.84465e-25,5.8103300000000001e-30,-5.7730700000000001e-30,-8.0538400000000001e-29
4265.0,1.7046900000000001e-28,-1.8447099999999999e-25,-1.84539e-25,-1.84439e-25,1.3352100000000001e-29,-1.24052e-29,-8.1907099999999995e-29
4266.0,1.65888e-28,-1.8447500000000001e-25,-1.8452600000000001e-25,-1.8445299999999999e-25,2.6571500000000002e-29,-1.44284e-29,-8.2775100000000003e-29
4267.0,1.41334e-28,-1.84432e-25,-1.8446000000000001e-25,-1.84423e-25,3.7193799999999998e-29,-1.7638499999999999e-29,-6.7799599999999996e-29
4268.0,1.29952e-28,-1.8444e-25,-1.84438e-25,-1.8445100000000001e-25,4.8432999999999998e-29,-1.2293699999999999e-29,-5.5499999999999996e-29
4269.0,1.14323e-28,-1.8440800000000001e-25,-1.8440100000000001e-25,-1.8442500000000001e-25,5.7971400000000004e-29,-7.6422899999999999e-30,-2.8099799999999998e-29
4270.0,1.0952899999999999e-28,-1.84424e-25,-1.8439599999999999e-25,-1.8444599999999999e-25,5.7948299999999995e-29,-2.5390899999999999e-30,1.0485699999999999e-30
4271.0,1.7324500000000001e-28,-1.84491e-25,-1.8457600000000001e-25,-1.84456e-25,1.6304500000000001e-29,-1.12364e-29,-7.60501e-29
4272.0,1.68595e-28,-1.84491e-25,-1.84564e-25,-1.8446700000000001e-25,2.6029100000000003e-29,-1.60492e-29,-7.7195599999999997e-29
4273.0,1.5941700000000001e-28,-1.84456e-25,-1.84514e-25,-1.8444300000000001e-25,3.8645500000000002e-29,-1.9065200000000001e-29,-7.1974699999999998e-29
4274.0,1.48943e-28,-1.84455e-25,-1.84498e-25,-1.8446000000000001e-25,5.0324500000000001e-29,-1.9336199999999999e-29,-6.2660699999999997e-29
4275.0,1.3614599999999999e-28,-1.8441999999999999e-25,-1.8445299999999999e-25,-1.8443699999999999e-25,6.0896199999999999e-29,-1.5105400000000001e-29,-4.4362200000000002e-29
4276.0,1.3118700000000001e-28,-1.84431e-25,-1.84447e-25,-1.8446000000000001e-25,6.94068e-29,-8.5267900000000002e-30,-2.5221899999999999e-29
4277.0,1.2807999999999999e-28,-1.8440000000000001e-25,-1.8442899999999999e-25,-1.8443699999999999e-25,7.1214400000000002e-29,4.3082499999999997e-31,-3.2467499999999998e-30
4278.0,1.67132e-28,-1.8450299999999999e-25,-1.84588e-25,-1.8447700000000001e-25,2.52063e-29,-1.4213999999999999e-29,-7.1305600000000002e-29
4279.0,1.6338200000000001e-28,-1.8447799999999999e-25,-1.8455399999999999e-25,-1.8446199999999999e-25,3.6080899999999997e-29,-1.81899e-29,-6.9602500000000002e-29
4280.0,1.56104e-28,-1.84474e-25,-1.8454200000000001e-25,-1.84473e-25,4.58674e-29,-2.07463e-29,-6.3410400000000001e-29
4281.0,1.51506e-28,-1.8444300000000001e-25,-1.84505e-25,-1.8445399999999999e-25,5.7936899999999995e-29,-1.9173799999999999e-29,-5.32554e-29
4282.0,1.4403199999999999e-28,-1.8444499999999999e-25,-1.8450000000000001e-25,-1.8447099999999999e-25,6.64057e-29,-1.6248e-29,-3.8555500000000003e-29
4283.0,1.39293e-28,-1.84414e-25,-1.8446999999999999e-25,-1.8445000000000001e-25,7.16307e-29,-8.6110199999999995e-30,-2.0902599999999999e-29
4284.0,1.42394e-28,-1.84433e-25,-1.84481e-25,-1.8446899999999999e-25,7.8414400000000002e-29,5.4566399999999999e-31,-1.7838799999999999e-30
4285.0,1.6142300000000001e-28,-1.8449499999999999e-25,-1.8457899999999999e-25,-1.8447500000000001e-25,3.3939799999999999e-29,-1.5539099999999999e-29,-6.5348199999999995e-29
4286.0,1.56627e-28,-1.8449200000000001e-25,-1.8456999999999999e-25,-1.8448400000000001e-25,4.1860700000000001e-29,-1.8992500000000001e-29,-6.1752799999999995e-29
4287.0,1.5557499999999999e-28,-1.84466e-25,-1.8454300000000001e-25,-1.8447099999999999e-25,5.25716e-29,-1.95893e-29,-5.5511500000000003e-29
4288.0,1.5012099999999999e-28,-1.84464e-25,-1.84538e-25,-1.84482e-25,6.0388499999999998e-29,-1.9058399999999999e-29,-4.4655899999999999e-29
4289.0,1.5001100000000001e-28,-1.8443500000000001e-25,-1.8451199999999999e-25,-1.84465e-25,6.8513800000000004e-29,-1.4159800000000001e-29,-3.3203400000000003e-29
4290.0,1.4795500000000001e-28,-1.8444399999999999e-25,-1.8451999999999999e-25,-1.8448e-25,7.3820899999999999e-29,-8.7587899999999998e-30,-1.79204e-29
4291.0,1.44838e-28,-1.84414e-25,-1.84499e-25,-1.84457e-25,7.1714600000000001e-29,-1.72805e-30,-2.6049299999999999e-30
4292.0,1.5484400000000001e-28,-1.8450299999999999e-25,-1.8458500000000001e-25,-1.84491e-25,3.9790899999999998e-29,-1.5346700000000001e-29,-5.94092e-29
4293.0,1.53923e-28,-1.8448699999999999e-25,-1.8456800000000001e-25,-1.8448400000000001e-25,4.7881800000000002e-29,-1.75298e-29,-5.5141100000000003e-29
4294.0,1.4988100000000001e-28,-1.84483e-25,-1.84564e-25,-1.8449200000000001e-25,5.4400399999999997e-29,-1.84161e-29,-4.7182799999999997e-29
4295.0,1.5106e-28,-1.8445900000000001e-25,-1.8454399999999999e-25,-1.8447899999999999e-25,6.2084700000000003e-29,-1.6126299999999999e-29,-3.90259e-29
4296.0,1.4805100000000001e-28,-1.8446199999999999e-25,-1.84549e-25,-1.84491e-25,6.6648099999999997e-29,-1.31039e-29,-2.6998900000000003e-29
4297.0,1.4869999999999999e-28,-1.8443599999999999e-25,-1.8452899999999999e-25,-1.84473e-25,6.9733099999999998e-29,-7.4181899999999996e-30,-1.6207199999999999e-29
4298.0,1.5278500000000001e-28,-1.8445200000000001e-25,-1.8455100000000001e-25,-1.84491e-25,7.2794399999999996e-29,-2.3197900000000001e-31,-4.5287200000000003e-30
4299.0,1.5200200000000001e-28,-1.84499e-25,-1.84581e-25,-1.84491e-25,4.5207300000000003e-29,-1.4152700000000001e-29,-5.4349100000000003e-29
4300.0,1.4847500000000001e-28,-1.84497e-25,-1.8457799999999999e-25,-1.84497e-25,5.0262400000000001e-29,-1.5812299999999999e-29,-4.8790199999999997e-29
4301.0,1.4893500000000001e-28,-1.8448e-25,-1.84565e-25,-1.8449e-25,5.6507200000000005e-29,-1.54338e-29,-4.23375e-29
4302.0,1.4643199999999999e-28,-1.8447899999999999e-25,-1.8456700000000001e-25,-1.84497e-25,6.0886600000000005e-29,-1.40836e-29,-3.2944700000000002e-29
4303.0,1.4778e-28,-1.84458e-25,-1.8455200000000001e-25,-1.8448400000000001e-25,6.4879699999999999e-29,-1.0523e-29,-2.4703300000000001e-29
4304.0,1.4751300000000001e-28,-1.84466e-25,-1.84565e-25,-1.84497e-25,6.7002499999999997e-29,-6.0346200000000003e-30,-1.3952799999999999e-29
4305.0,1.4235500000000001e-28,-1.8444599999999999e-25,-1.8454200000000001e-25,-1.8447500000000001e-25,6.5667899999999995e-29,-1.6534500000000001e-30,-3.4562200000000002e-30
4306.0,1.4816600000000001e-28,-1.8450399999999999e-25,-1.8458599999999999e-25,-1.84499e-25,4.77563e-29,-1.23661e-29,-5.0038600000000003e-29
4307.0,1.4780700000000001e-28,-1.8449300000000001e-25,-1.8457799999999999e-25,-1.8449499999999999e-25,5.2376199999999994e-29,-1.3199199999999999e-29,-4.5183200000000001e-29
4308.0,1.45283e-28,-1.8449200000000001e-25,-1.8457799999999999e-25,-1.8450000000000001e-25,5.61158e-29,-1.2903199999999999e-29,-3.7995999999999997e-29
4309.0,1.45328e-28,-1.8447600000000001e-25,-1.8456800000000001e-25,-1.8449200000000001e-25,5.9631999999999995e-29,-1.1161800000000001e-29,-3.0582200000000001e-29
4310.0,1.4426300000000001e-28,-1.8447899999999999e-25,-1.8457500000000001e-25,-1.8450000000000001e-25,6.1939799999999996e-29,-8.4640199999999996e-30,-2.17229e-29
4311.0,1.42799e-28,-1.8446099999999999e-25,-1.8456000000000001e-25,-1.8448599999999999e-25,6.2749699999999998e-29,-5.1677999999999997e-30,-1.3643399999999999e-29
4312.0,1.4808199999999999e-28,-1.8447500000000001e-25,-1.8458500000000001e-25,-1.8450399999999999e-25,6.3523799999999996e-29,-1.0225599999999999e-30,-5.6433099999999997e-30
4313.0,2.0119499999999999e-28,-1.8444300000000001e-25,-1.84564e-25,-1.84397e-25,1.79316e-30,-9.8697999999999994e-30,-7.6899300000000002e-29
4314.0,1.9725899999999999e-28,-1.8444e-25,-1.84547e-25,-1.8440200000000001e-25,1.3747000000000001e-29,-1.49734e-29,-8.31771e-29
4315.0,1.87846e-28,-1.8439200000000001e-25,-1.8448e-25,-1.84366e-25,2.6541399999999997e-29,-2.1781e-29,-8.3558800000000005e-29
4316.0,1.66359e-28,-1.8438300000000001e-25,-1.8444200000000001e-25,-1.84382e-25,4.1824599999999999e-29,-2.01599e-29,-7.6843200000000005e-29
4317.0,1.51141e-28,-1.8434e-25,-1.8438599999999999e-25,-1.8435100000000001e-25,5.7392100000000006e-29,-1.8194000000000001e-29,-5.8509000000000001e-29
4318.0,1.28253e-28,-1.84341e-25,-1.8435900000000001e-25,-1.84373e-25,6.4382300000000005e-29,-1.00983e-29,-3.1316399999999999e-29
4319.0,1.29624e-28,-1.84322e-25,-1.8434499999999999e-25,-1.84356e-25,7.25874e-29,3.5614999999999999e-30,-3.8380299999999999e-30
4320.0,1.93592e-28,-1.8446000000000001e-25,-1.8457899999999999e-25,-1.84424e-25,1.33042e-29,-1.4441399999999999e-29,-7.4081800000000004e-29
4321.0,1.9004099999999999e-28,-1.8442700000000001e-25,-1.84533e-25,-1.8440000000000001e-25,2.5538599999999998e-29,-2.06437e-29,-7.7328900000000002e-29
4322.0,1.79962e-28,-1.84416e-25,-1.8450900000000001e-25,-1.84407e-25,3.8858000000000002e-29,-2.3832100000000001e-29,-7.4466699999999995e-29
4323.0,1.7103e-28,-1.8437500000000001e-25,-1.84457e-25,-1.84382e-25,5.3584000000000004e-29,-2.3419399999999999e-29,-6.5293000000000001e-29
4324.0,1.57528e-28,-1.8436899999999999e-25,-1.8443500000000001e-25,-1.84397e-25,6.6331999999999998e-29,-1.8438100000000001e-29,-4.9431299999999998e-29
4325.0,1.53137e-28,-1.8433599999999999e-25,-1.8440399999999999e-25,-1.8437600000000001e-25,7.6142599999999997e-29,-9.8602799999999999e-30,-2.7724700000000001e-29
4326.0,1.4522299999999999e-28,-1.84347e-25,-1.8440100000000001e-25,-1.84388e-25,7.9034900000000002e-29,-6.5383799999999998e-32,-1.4385700000000001e-31
4327.0,1.84993e-28,-1.8445299999999999e-25,-1.8456700000000001e-25,-1.84424e-25,2.3436100000000001e-29,-1.79449e-29,-6.94444e-29
4328.0,1.8051200000000001e-28,-1.8444399999999999e-25,-1.8455100000000001e-25,-1.8443e-25,3.4075999999999999e-29,-2.28143e-29,-6.9092800000000005e-29
4329.0,1.7794900000000001e-28,-1.8441099999999999e-25,-1.84513e-25,-1.8441099999999999e-25,4.75044e-29,-2.45269e-29,-6.5099999999999997e-29
4330.0,1.7105499999999999e-28,-1.8440000000000001e-25,-1.84497e-25,-1.8441899999999999e-25,5.9200300000000002e-29,-2.3545200000000001e-29,-5.5110399999999998e-29
4331.0,1.67945e-28,-1.84366e-25,-1.84463e-25,-1.8440000000000001e-25,7.04632e-29,-1.8029900000000001e-29,-4.0922400000000002e-29
4332.0,1.6231899999999999e-28,-1.8436800000000001e-25,-1.8446000000000001e-25,-1.84413e-25,7.7843799999999995e-29,-9.6407699999999994e-30,-2.2774899999999999e-29
4333.0,1.6902899999999999e-28,-1.8433599999999999e-25,-1.84447e-25,-1.8439200000000001e-25,7.9957299999999996e-29,2.6014299999999999e-31,-4.3364200000000003e-30
4334.0,1.75485e-28,-1.84463e-25,-1.8457500000000001e-25,-1.8444599999999999e-25,3.0960000000000001e-29,-1.90266e-29,-6.3438500000000003e-29
4335.0,1.7436899999999999e-28,-1.84441e-25,-1.84549e-25,-1.8443500000000001e-25,4.1396400000000002e-29,-2.23283e-29,-6.1563499999999999e-29
4336.0,1.7141199999999999e-28,-1.84431e-25,-1.84539e-25,-1.8444e-25,5.0931000000000004e-29,-2.3722100000000001e-29,-5.5083199999999999e-29
4337.0,1.70936e-28,-1.8440100000000001e-25,-1.8451199999999999e-25,-1.8442500000000001e-25,6.1184599999999999e-29,-2.1288599999999999e-29,-4.6360599999999997e-29
4338.0,1.6745100000000001e-28,-1.84397e-25,-1.8451000000000001e-25,-1.8443400000000001e-25,6.8102299999999997e-29,-1.68363e-29,-3.3205500000000001e-29
4339.0,1.6945299999999999e-28,-1.8436800000000001e-25,-1.8449e-25,-1.8441700000000001e-25,7.2986699999999999e-29,-9.1397000000000003e-30,-1.93144e-29
4340.0,1.65427e-28,-1.84382e-25,-1.8450100000000001e-25,-1.8443e-25,7.4485799999999998e-29,8.64144e-31,-3.6719700000000003e-30
4341.0,1.68305e-28,-1.8446199999999999e-25,-1.8457099999999999e-25,-1.8445100000000001e-25,3.7499600000000002e-29,-1.8268999999999999e-29,-5.7782000000000002e-29
4342.0,1.66494e-28,-1.84455e-25,-1.84563e-25,-1.84456e-25,4.5256499999999999e-29,-2.0961799999999999e-29,-5.37374e-29
4343.0,1.6684300000000001e-28,-1.84433e-25,-1.8454399999999999e-25,-1.8444599999999999e-25,5.3632100000000001e-29,-2.0812799999999999e-29,-4.77113e-29
4344.0,1.65461e-28,-1.8442600000000001e-25,-1.8454200000000001e-25,-1.8445100000000001e-25,5.9725299999999999e-29,-1.89688e-29,-3.81906e-29
4345.0,1.6729899999999999e-28,-1.8440000000000001e-25,-1.84524e-25,-1.84438e-25,6.5535500000000004e-29,-1.3991700000000001e-29,-2.8405600000000001e-29
4346.0,1.6524199999999999e-28,-1.84405e-25,-1.84533e-25,-1.84448e-25,6.7474700000000001e-29,-7.8728499999999998e-30,-1.6191799999999999e-29
4347.0,1.69576e-28,-1.8437899999999999e-25,-1.8451899999999999e-25,-1.8442799999999999e-25,6.6976499999999999e-29,-1.6156699999999999e-30,-4.3139600000000002e-30
4348.0,1.6162100000000001e-28,-1.8446999999999999e-25,-1.8457600000000001e-25,-1.84464e-25,4.1810700000000002e-29,-1.6670399999999999e-29,-5.2131199999999995e-29
4349.0,1.61299e-28,-1.84456e-25,-1.84564e-25,-1.8446000000000001e-25,4.8017599999999998e-29,-1.8169700000000001e-29,-4.7855600000000002e-29
4350.0,1.6076799999999999e-28,-1.84449e-25,-1.8456199999999999e-25,-1.84464e-25,5.3225199999999994e-29,-1.8067299999999999e-29,-4.09934e-29
4351.0,1.6194099999999999e-28,-1.8443e-25,-1.84549e-25,-1.8445399999999999e-25,5.8169199999999999e-29,-1.54614e-29,-3.34875e-29
4352.0,1.60776e-28,-1.8442899999999999e-25,-1.84555e-25,-1.8446099999999999e-25,6.03938e-29,-1.19637e-29,-2.3699999999999999e-29
4353.0,1.62967e-28,-1.84407e-25,-1.84541e-25,-1.8444599999999999e-25,6.2193100000000005e-29,-6.7958399999999997e-30,-1.4878000000000001e-29
4354.0,1.6153199999999999e-28,-1.84422e-25,-1.8456000000000001e-25,-1.8446099999999999e-25,6.0532000000000003e-29,2.8908500000000002e-31,-5.9367199999999999e-30
4355.0,1.5766499999999999e-28,-1.8446899999999999e-25,-1.84574e-25,-1.84466e-25,4.4755499999999998e-29,-1.4394399999999999e-29,-4.8320500000000001e-29
4356.0,1.5671699999999999e-28,-1.84466e-25,-1.84573e-25,-1.8446899999999999e-25,4.8517e-29,-1.5158100000000001e-29,-4.3617500000000002e-29
4357.0,1.5659000000000001e-28,-1.8445100000000001e-25,-1.84564e-25,-1.84464e-25,5.2377399999999995e-29,-1.43597e-29,-3.7057699999999999e-29
4358.0,1.56008e-28,-1.84448e-25,-1.8456700000000001e-25,-1.8446700000000001e-25,5.4900000000000002e-29,-1.27113e-29,-2.9513400000000003e-29
4359.0,1.56992e-28,-1.84431e-25,-1.84557e-25,-1.84457e-25,5.7075299999999994e-29,-9.2530899999999998e-30,-2.2047800000000001e-29
4360.0,1.5614900000000001e-28,-1.8443699999999999e-25,-1.8456700000000001e-25,-1.84466e-25,5.6923800000000001e-29,-4.8484599999999998e-30,-1.3681200000000001e-29
4361.0,1.5224900000000001e-28,-1.8442099999999999e-25,-1.84549e-25,-1.84449e-25,5.6071800000000005e-29,-1.2737500000000001e-30,-5.5030500000000003e-30
4362.0,2.2919600000000001e-28,-1.84413e-25,-1.8457500000000001e-25,-1.8436099999999999e-25,-3.1181600000000001e-30,-1.03639e-29,-7.0051899999999995e-29
4363.0,2.3221999999999999e-28,-1.84364e-25,-1.8451700000000001e-25,-1.8431800000000001e-25,7.9320200000000001e-30,-2.0920199999999999e-29,-8.1608300000000004e-29
4364.0,2.09893e-28,-1.8434200000000001e-25,-1.84472e-25,-1.8431999999999999e-25,2.30061e-29,-2.3828700000000001e-29,-8.2682700000000002e-29
4365.0,2.0439300000000002e-28,-1.8428400000000001e-25,-1.8440299999999999e-25,-1.8427500000000001e-25,4.1375200000000001e-29,-2.67508e-29,-7.9865400000000005e-29
4366.0,1.68534e-28,-1.8426199999999999e-25,-1.8435000000000001e-25,-1.8428599999999999e-25,5.6271599999999997e-29,-2.1481199999999999e-29,-6.1332200000000005e-29
4367.0,1.5864599999999999e-28,-1.84224e-25,-1.84307e-25,-1.8425900000000001e-25,7.2119e-29,-1.05958e-29,-3.6255e-29
4368.0,1.4076399999999999e-28,-1.8422500000000001e-25,-1.84296e-25,-1.8426800000000001e-25,7.3047599999999998e-29,-8.5278000000000002e-31,2.1201099999999999e-31
4369.0,2.1851899999999999e-28,-1.8440399999999999e-25,-1.84558e-25,-1.84363e-25,8.8076100000000005e-30,-1.8079199999999999e-29,-7.0157099999999999e-29
4370.0,2.1265e-28,-1.84388e-25,-1.84533e-25,-1.8436099999999999e-25,2.0909399999999999e-29,-2.4354699999999999e-29,-7.3962200000000004e-29
4371.0,2.1137200000000001e-28,-1.8434e-25,-1.84481e-25,-1.8433e-25,3.5993299999999999e-29,-2.8516399999999998e-29,-7.5196099999999996e-29
4372.0,1.9753599999999999e-28,-1.84316e-25,-1.8444499999999999e-25,-1.84331e-25,5.2271299999999999e-29,-2.7719100000000002e-29,-6.7180999999999998e-29
4373.0,1.9173899999999999e-28,-1.8426999999999999e-25,-1.84398e-25,-1.84305e-25,6.7836899999999999e-29,-2.2560999999999999e-29,-5.2298900000000002e-29
4374.0,1.76188e-28,-1.8426099999999999e-25,-1.8437799999999999e-25,-1.84313e-25,7.7225399999999998e-29,-1.1345999999999999e-29,-2.8576899999999999e-29
4375.0,1.8503500000000001e-28,-1.84231e-25,-1.84366e-25,-1.8429200000000001e-25,8.2678800000000003e-29,3.3302000000000003e-30,-5.2937699999999998e-30
4376.0,2.0436300000000001e-28,-1.8441899999999999e-25,-1.84566e-25,-1.84391e-25,1.8148100000000001e-29,-2.1592899999999999e-29,-6.5165299999999995e-29
4377.0,2.0443399999999998e-28,-1.8438699999999999e-25,-1.84532e-25,-1.84372e-25,3.0421600000000002e-29,-2.6069099999999998e-29,-6.7675500000000003e-29
4378.0,2.00815e-28,-1.8436700000000001e-25,-1.8451099999999999e-25,-1.84371e-25,4.2719599999999997e-29,-2.8586300000000002e-29,-6.3912500000000002e-29
4379.0,1.98705e-28,-1.8432500000000001e-25,-1.84472e-25,-1.8435000000000001e-25,5.5991699999999996e-29,-2.7176600000000002e-29,-5.5841499999999998e-29
4380.0,1.9244600000000001e-28,-1.8431000000000001e-25,-1.84457e-25,-1.8435399999999999e-25,6.6826399999999996e-29,-2.06144e-29,-4.20418e-29
4381.0,1.95182e-28,-1.8427500000000001e-25,-1.84433e-25,-1.8433400000000001e-25,7.4692999999999996e-29,-1.1408e-29,-2.4629599999999999e-29
4382.0,1.8609199999999999e-28,-1.84282e-25,-1.8443500000000001e-25,-1.84341e-25,7.4709999999999995e-29,1.20908e-30,-3.3448899999999999e-30
4383.0,1.9302799999999999e-28,-1.8441999999999999e-25,-1.8456099999999999e-25,-1.8440200000000001e-25,2.6770300000000002e-29,-2.16286e-29,-6.0469700000000001e-29
4384.0,1.9303500000000001e-28,-1.84406e-25,-1.84548e-25,-1.8440200000000001e-25,3.65216e-29,-2.5805199999999997e-29,-5.9198300000000005e-29
4385.0,1.9289e-28,-1.84374e-25,-1.8451999999999999e-25,-1.8438699999999999e-25,4.6877499999999998e-29,-2.6522799999999999e-29,-5.4676300000000004e-29
4386.0,1.9257600000000001e-28,-1.8435800000000001e-25,-1.8451099999999999e-25,-1.84388e-25,5.6032500000000005e-29,-2.4271400000000001e-29,-4.56612e-29
4387.0,1.9386099999999999e-28,-1.8432500000000001e-25,-1.8448699999999999e-25,-1.84371e-25,6.3894899999999997e-29,-1.8525099999999999e-29,-3.42009e-29
4388.0,1.9051900000000001e-28,-1.84323e-25,-1.84489e-25,-1.8437899999999999e-25,6.7223600000000002e-29,-9.4595200000000003e-30,-2.0015099999999999e-29
4389.0,2.0390500000000001e-28,-1.8429200000000001e-25,-1.84482e-25,-1.8435800000000001e-25,6.76222e-29,2.7373999999999999e-31,-6.3749700000000007e-30
4390.0,1.82559e-28,-1.84432e-25,-1.8456800000000001e-25,-1.84423e-25,3.2983699999999999e-29,-2.1128700000000001e-29,-5.4715999999999997e-29
4391.0,1.82834e-28,-1.8441199999999999e-25,-1.8455000000000001e-25,-1.84415e-25,4.09809e-29,-2.3155500000000001e-29,-5.2067500000000001e-29
4392.0,1.84534e-28,-1.84398e-25,-1.8454399999999999e-25,-1.84415e-25,4.8083699999999998e-29,-2.3416199999999999e-29,-4.6099699999999998e-29
4393.0,1.8579699999999999e-28,-1.84371e-25,-1.8452600000000001e-25,-1.8440200000000001e-25,5.4563199999999996e-29,-2.0681799999999999e-29,-3.8070199999999999e-29
4394.0,1.8633599999999999e-28,-1.84364e-25,-1.8452799999999999e-25,-1.84407e-25,5.7909800000000003e-29,-1.55417e-29,-2.7849699999999998e-29
4395.0,1.9087499999999999e-28,-1.84339e-25,-1.84515e-25,-1.84391e-25,6.0153499999999996e-29,-8.4685400000000004e-30,-1.7178600000000001e-29
4396.0,1.82005e-28,-1.8435299999999999e-25,-1.8452500000000001e-25,-1.8440200000000001e-25,5.5756099999999999e-29,9.1649799999999995e-31,-6.1718299999999997e-30
4397.0,1.7326300000000001e-28,-1.8443599999999999e-25,-1.84566e-25,-1.84432e-25,3.7081099999999999e-29,-1.8499400000000001e-29,-4.9675000000000002e-29
4398.0,1.7506799999999999e-28,-1.8442700000000001e-25,-1.8456199999999999e-25,-1.84433e-25,4.2901900000000003e-29,-2.0358999999999999e-29,-4.6014899999999999e-29
4399.0,1.7553200000000001e-28,-1.84407e-25,-1.8455000000000001e-25,-1.8442500000000001e-25,4.7835299999999998e-29,-1.9486899999999999e-29,-4.0056399999999998e-29
4400.0,1.7721400000000001e-28,-1.84398e-25,-1.8455000000000001e-25,-1.8442700000000001e-25,5.1064799999999997e-29,-1.7282399999999999e-29,-3.2223300000000002e-29
4401.0,1.7938600000000001e-28,-1.8437699999999999e-25,-1.84538e-25,-1.84415e-25,5.3798000000000002e-29,-1.2449699999999999e-29,-2.4244699999999999e-29
4402.0,1.7696600000000001e-28,-1.84381e-25,-1.8454599999999999e-25,-1.84422e-25,5.2183799999999996e-29,-6.7247199999999996e-30,-1.51033e-29
4403.0,1.83766e-28,-1.8435900000000001e-25,-1.8453699999999999e-25,-1.84405e-25,5.2283600000000003e-29,-1.8642800000000001e-30,-6.1822099999999998e-30
4404.0,1.6706999999999999e-28,-1.8444399999999999e-25,-1.8457099999999999e-25,-1.8444200000000001e-25,3.9346599999999999e-29,-1.6289400000000001e-29,-4.5677800000000001e-29
4405.0,1.67407e-28,-1.84431e-25,-1.84563e-25,-1.84438e-25,4.2945299999999998e-29,-1.6545899999999999e-29,-4.1201000000000002e-29
4406.0,1.6902999999999999e-28,-1.84423e-25,-1.84563e-25,-1.84439e-25,4.5798799999999998e-29,-1.6217300000000001e-29,-3.5725800000000002e-29
4407.0,1.69968e-28,-1.84407e-25,-1.84555e-25,-1.8443e-25,4.8127599999999998e-29,-1.3438799999999999e-29,-2.8831200000000001e-29
4408.0,1.69777e-28,-1.84405e-25,-1.8456000000000001e-25,-1.8443400000000001e-25,4.7942499999999999e-29,-1.0308800000000001e-29,-2.1270000000000001e-29
4409.0,1.7156300000000001e-28,-1.84388e-25,-1.8455000000000001e-25,-1.84422e-25,4.8392099999999999e-29,-5.6389499999999997e-30,-1.4388699999999999e-29
4410.0,1.68452e-28,-1.8440200000000001e-25,-1.84565e-25,-1.8443500000000001e-25,4.4608599999999999e-29,6.5580699999999996e-31,-7.4917099999999995e-30
4411.0,2.6688299999999999e-28,-1.8435100000000001e-25,-1.84557e-25,-1.84291e-25,-1.23314e-29,-1.4309199999999999e-29,-6.3291099999999999e-29
4412.0,2.5460099999999999e-28,-1.84323e-25,-1.84522e-25,-1.8427899999999999e-25,-3.9865099999999999e-30,-1.9630700000000001e-29,-6.6405999999999997e-29
4413.0,2.70825e-28,-1.84249e-25,-1.84457e-25,-1.84213e-25,1.0103e-29,-2.8085300000000001e-29,-7.8385599999999999e-29
4414.0,2.4015100000000001e-28,-1.84196e-25,-1.84388e-25,-1.84197e-25,2.6532600000000001e-29,-3.0351500000000002e-29,-7.36581e-29
4415.0,2.3223600000000001e-28,-1.84123e-25,-1.84314e-25,-1.8414399999999999e-25,4.8127900000000001e-29,-2.56402e-29,-6.3579000000000001e-29
4416.0,1.9789599999999999e-28,-1.8409200000000001e-25,-1.84266e-25,-1.84141e-25,5.9122999999999999e-29,-1.44996e-29,-3.6244499999999998e-29
4417.0,1.9853700000000001e-28,-1.8406600000000001e-25,-1.84247e-25,-1.84121e-25,6.6964300000000002e-29,4.6250700000000001e-30,-7.0003200000000006e-30
4418.0,2.3907900000000001e-28,-1.84373e-25,-1.8456199999999999e-25,-1.84332e-25,1.1839500000000001e-32,-1.93298e-29,-6.0213599999999999e-29
4419.0,2.48246e-28,-1.8432699999999999e-25,-1.84522e-25,-1.8429399999999999e-25,9.13291e-30,-2.5978999999999997e-29,-6.74798e-29
4420.0,2.4240599999999999e-28,-1.8428699999999999e-25,-1.8448400000000001e-25,-1.8427699999999999e-25,2.16294e-29,-3.0658299999999999e-29,-6.73937e-29
4421.0,2.4330400000000001e-28,-1.84223e-25,-1.8442799999999999e-25,-1.8423500000000001e-25,3.6986299999999997e-29,-3.20687e-29,-6.4063199999999999e-29
4422.0,2.2816500000000002e-28,-1.8418400000000001e-25,-1.84388e-25,-1.8422600000000001e-25,5.13973e-29,-2.5393600000000001e-29,-5.0260200000000002e-29
4423.0,2.2779299999999999e-28,-1.84138e-25,-1.8435199999999999e-25,-1.84199e-25,6.2893999999999999e-29,-1.2886999999999999e-29,-3.1783099999999999e-29
4424.0,2.17876e-28,-1.8413300000000001e-25,-1.8434499999999999e-25,-1.84197e-25,6.3091699999999999e-29,9.7448200000000004e-31,-5.2095199999999999e-30
4425.0,2.26119e-28,-1.8437600000000001e-25,-1.84555e-25,-1.8434499999999999e-25,1.12679e-29,-2.25616e-29,-5.9750099999999996e-29
4426.0,2.2823100000000002e-28,-1.8435100000000001e-25,-1.8453699999999999e-25,-1.8433500000000001e-25,1.93121e-29,-2.7867499999999999e-29,-6.0205199999999995e-29
4427.0,2.3257700000000001e-28,-1.8430299999999999e-25,-1.84499e-25,-1.84305e-25,2.9926099999999999e-29,-3.1256499999999998e-29,-5.9276000000000001e-29
4428.0,2.3171099999999999e-28,-1.8426800000000001e-25,-1.84474e-25,-1.8429499999999999e-25,4.14316e-29,-2.9660900000000002e-29,-5.2499399999999996e-29
4429.0,2.33844e-28,-1.84221e-25,-1.8444e-25,-1.8426899999999999e-25,5.1922299999999997e-29,-2.3727500000000001e-29,-4.1033500000000002e-29
4430.0,2.2833799999999998e-28,-1.84205e-25,-1.8443e-25,-1.8426800000000001e-25,5.6598299999999999e-29,-1.18287e-29,-2.4909300000000001e-29
4431.0,2.4340699999999998e-28,-1.84173e-25,-1.84422e-25,-1.84248e-25,5.6991200000000002e-29,1.97874e-30,-9.3378500000000004e-30
4432.0,2.1083800000000002e-28,-1.84391e-25,-1.8456199999999999e-25,-1.84373e-25,1.9711999999999999e-29,-2.3668600000000001e-29,-5.4968999999999997e-29
4433.0,2.13709e-28,-1.8436099999999999e-25,-1.8454e-25,-1.84356e-25,2.6514099999999998e-29,-2.6901699999999999e-29,-5.4000699999999995e-29
4434.0,2.18999e-28,-1.8433500000000001e-25,-1.8452600000000001e-25,-1.84347e-25,3.4349100000000001e-29,-2.8280200000000001e-29,-4.9967399999999997e-29
4435.0,2.2242799999999998e-28,-1.8429499999999999e-25,-1.8450000000000001e-25,-1.8432699999999999e-25,4.1630700000000003e-29,-2.6544100000000002e-29,-4.28367e-29
4436.0,2.2416200000000002e-28,-1.8427600000000001e-25,-1.8449399999999999e-25,-1.8432500000000001e-25,4.6637300000000001e-29,-1.9796299999999999e-29,-3.2573200000000003e-29
4437.0,2.31183e-28,-1.8424399999999999e-25,-1.8448e-25,-1.84307e-25,4.8934700000000001e-29,-1.08431e-29,-2.09941e-29
4438.0,2.2178600000000001e-28,-1.8425299999999999e-25,-1.8448500000000001e-25,-1.84313e-25,4.2884e-29,5.2965100000000001e-31,-7.7286600000000001e-30
4439.0,1.9555100000000001e-28,-1.8440000000000001e-25,-1.8456000000000001e-25,-1.84391e-25,2.60317e-29,-2.18796e-29,-5.0526799999999996e-29
4440.0,2.0034399999999999e-28,-1.8438300000000001e-25,-1.8455299999999999e-25,-1.8438500000000001e-25,3.1220599999999998e-29,-2.4081100000000001e-29,-4.7882099999999999e-29
4441.0,2.0335599999999998e-28,-1.8435399999999999e-25,-1.8453500000000001e-25,-1.84371e-25,3.6157999999999999e-29,-2.4684500000000001e-29,-4.26942e-29
4442.0,2.0799199999999998e-28,-1.8433599999999999e-25,-1.84532e-25,-1.8436700000000001e-25,4.0105900000000003e-29,-2.1680000000000001e-29,-3.5512e-29
4443.0,2.1141e-28,-1.8430800000000001e-25,-1.8451700000000001e-25,-1.8435299999999999e-25,4.2520500000000001e-29,-1.6393400000000001e-29,-2.6735000000000002e-29
4444.0,2.0978500000000001e-28,-1.84306e-25,-1.8452099999999999e-25,-1.84357e-25,4.0495500000000001e-29,-8.3510699999999997e-30,-1.7445000000000001e-29
4445.0,2.2403600000000001e-28,-1.84281e-25,-1.8451700000000001e-25,-1.8434e-25,3.9232400000000002e-29,-5.1410999999999998e-31,-9.0861799999999996e-30
4446.0,1.8537900000000001e-28,-1.8441199999999999e-25,-1.84564e-25,-1.8440800000000001e-25,3.15388e-29,-1.94258e-29,-4.6630699999999998e-29
4447.0,1.86055e-28,-1.8439599999999999e-25,-1.84555e-25,-1.8440200000000001e-25,3.4193899999999999e-29,-2.0807099999999999e-29,-4.2592599999999998e-29
4448.0,1.9133800000000001e-28,-1.8438e-25,-1.8455200000000001e-25,-1.84397e-25,3.7554900000000002e-29,-2.02656e-29,-3.7314499999999997e-29
4449.0,1.9332399999999999e-28,-1.8435800000000001e-25,-1.84541e-25,-1.8438699999999999e-25,3.9513999999999998e-29,-1.75976e-29,-3.0567900000000001e-29
4450.0,1.95277e-28,-1.8435199999999999e-25,-1.8454399999999999e-25,-1.84388e-25,3.89991e-29,-1.3036799999999999e-29,-2.2789199999999999e-29
4451.0,2.00401e-28,-1.84332e-25,-1.8453599999999999e-25,-1.8437500000000001e-25,3.89182e-29,-6.9124499999999997e-30,-1.5503799999999999e-29
4452.0,1.8830100000000001e-28,-1.84348e-25,-1.8454399999999999e-25,-1.8438500000000001e-25,3.0769399999999999e-29,5.0237200000000002e-31,-8.3738499999999999e-30
4453.0,1.76747e-28,-1.8441899999999999e-25,-1.84565e-25,-1.8441899999999999e-25,3.3702500000000002e-29,-1.79853e-29,-4.3139400000000002e-29
4454.0,1.7936700000000001e-28,-1.8440900000000001e-25,-1.8456199999999999e-25,-1.84416e-25,3.6405299999999999e-29,-1.7374699999999999e-29,-4.0045699999999999e-29
4455.0,1.7969300000000001e-28,-1.8439399999999999e-25,-1.84555e-25,-1.8440900000000001e-25,3.75678e-29,-1.6621000000000001e-29,-3.3728000000000001e-29
4456.0,1.8240300000000001e-28,-1.8438400000000001e-25,-1.84556e-25,-1.8440800000000001e-25,3.7977600000000001e-29,-1.4586699999999999e-29,-2.73952e-29
4457.0,1.8457099999999999e-28,-1.8436800000000001e-25,-1.84549e-25,-1.84398e-25,3.8427300000000003e-29,-1.00832e-29,-2.1045800000000001e-29
4458.0,1.8145800000000001e-28,-1.84372e-25,-1.84555e-25,-1.8440299999999999e-25,3.4245699999999998e-29,-5.4796699999999999e-30,-1.4219399999999999e-29
4459.0,1.88454e-28,-1.8435399999999999e-25,-1.8454599999999999e-25,-1.84389e-25,3.56664e-29,-2.41321e-30,-7.8354100000000006e-30
4460.0,1.4622300000000001e-28,-1.8483400000000001e-25,-1.8474e-25,-1.84824e-25,-1.9858e-29,-1.5963500000000001e-29,6.1726599999999995e-29
4461.0,1.6181099999999999e-28,-1.8480100000000001e-25,-1.84706e-25,-1.8480299999999999e-25,-1.7775400000000001e-29,-1.6422599999999999e-29,7.1594500000000002e-29
4462.0,1.40335e-28,-1.8478400000000001e-25,-1.8471700000000001e-25,-1.84775e-25,-1.6995499999999999e-29,-1.8582800000000001e-29,6.7803499999999995e-29
4463.0,1.51534e-28,-1.8473699999999999e-25,-1.8467899999999999e-25,-1.84733e-25,-1.56865e-29,-1.7082399999999999e-29,7.8032199999999998e-29
4464.0,1.3710699999999999e-28,-1.8472700000000001e-25,-1.8469300000000001e-25,-1.84714e-25,-1.3893e-29,-1.9700200000000001e-29,7.3445300000000003e-29
4465.0,1.4303299999999999e-28,-1.8467600000000001e-25,-1.84657e-25,-1.84663e-25,-1.3788099999999999e-29,-1.7679400000000001e-29,7.8924399999999997e-29
4466.0,1.3925200000000001e-28,-1.8466999999999999e-25,-1.84674e-25,-1.84649e-25,-9.4600100000000003e-30,-2.0516799999999999e-29,7.5948299999999997e-29
4467.0,1.5162399999999999e-28,-1.8481800000000001e-25,-1.84716e-25,-1.84816e-25,-1.7278600000000001e-29,-1.3126800000000001e-29,6.1734200000000002e-29
4468.0,1.3673099999999999e-28,-1.84807e-25,-1.84724e-25,-1.84797e-25,-1.45611e-29,-1.24878e-29,6.1620299999999997e-29
4469.0,1.4324699999999999e-28,-1.8476299999999999e-25,-1.84688e-25,-1.84757e-25,-1.3747600000000001e-29,-1.2930299999999999e-29,6.8733400000000001e-29
4470.0,1.31125e-28,-1.8475399999999999e-25,-1.8470200000000001e-25,-1.84739e-25,-1.13764e-29,-1.3036200000000001e-29,6.8638500000000003e-29
4471.0,1.3816e-28,-1.8470100000000001e-25,-1.8466000000000001e-25,-1.84691e-25,-1.0859e-29,-1.15955e-29,7.5084499999999997e-29
4472.0,1.3391400000000001e-28,-1.8469599999999999e-25,-1.84681e-25,-1.84674e-25,-8.40739e-30,-1.3028599999999999e-29,7.4879600000000005e-29
4473.0,1.36364e-28,-1.8464e-25,-1.8463699999999999e-25,-1.84623e-25,-1.09953e-29,-9.1517600000000004e-30,7.6903099999999995e-29
4474.0,1.60108e-28,-1.8483799999999999e-25,-1.8473699999999999e-25,-1.84839e-25,-2.7592299999999999e-29,-1.6701e-29,6.3820100000000001e-29
4475.0,1.5198299999999999e-28,-1.84816e-25,-1.8473400000000001e-25,-1.8481299999999999e-25,-2.6835300000000002e-29,-1.7657800000000001e-29,6.7124100000000004e-29
4476.0,1.54667e-28,-1.84782e-25,-1.8471099999999999e-25,-1.8478e-25,-2.6048699999999999e-29,-1.8735099999999999e-29,7.2926400000000005e-29
4477.0,1.4597e-28,-1.8476299999999999e-25,-1.8471199999999999e-25,-1.84756e-25,-2.5322099999999998e-29,-1.9023999999999999e-29,7.3043400000000001e-29
4478.0,1.4801599999999999e-28,-1.84722e-25,-1.8468699999999999e-25,-1.84715e-25,-2.4555799999999999e-29,-1.96363e-29,7.7278e-29
4479.0,1.42929e-28,-1.84707e-25,-1.8469200000000001e-25,-1.8469200000000001e-25,-2.35648e-29,-1.9904299999999999e-29,7.6067899999999996e-29
4480.0,1.4478299999999999e-28,-1.8465900000000001e-25,-1.84666e-25,-1.84641e-25,-2.4470000000000001e-29,-1.9150900000000001e-29,7.6509799999999999e-29
4481.0,1.4316599999999999e-28,-1.8482600000000001e-25,-1.84733e-25,-1.8482099999999999e-25,-2.3758000000000001e-29,-1.21462e-29,5.8128299999999995e-29
4482.0,1.4349099999999999e-28,-1.84798e-25,-1.84715e-25,-1.8479400000000001e-25,-2.22819e-29,-1.2929e-29,6.3226899999999995e-29
4483.0,1.37216e-28,-1.84782e-25,-1.84714e-25,-1.84774e-25,-2.1304800000000001e-29,-1.2548e-29,6.5547400000000004e-29
4484.0,1.38895e-28,-1.8474200000000001e-25,-1.84688e-25,-1.84733e-25,-2.0457599999999999e-29,-1.3091199999999999e-29,7.0754000000000002e-29
4485.0,1.34636e-28,-1.8472700000000001e-25,-1.8469300000000001e-25,-1.8471299999999999e-25,-1.9325099999999999e-29,-1.26737e-29,7.2189399999999997e-29
4486.0,1.38394e-28,-1.84681e-25,-1.84663e-25,-1.8466700000000001e-25,-1.9136499999999999e-29,-1.2873299999999999e-29,7.5920300000000001e-29
4487.0,1.4078299999999999e-28,-1.8466800000000001e-25,-1.84672e-25,-1.8464599999999999e-25,-1.4946499999999999e-29,-1.38799e-29,7.7334399999999995e-29
4488.0,1.5879600000000001e-28,-1.8484300000000001e-25,-1.8475e-25,-1.8484300000000001e-25,-3.5301999999999997e-29,-1.76189e-29,6.3188799999999996e-29
4489.0,1.5871400000000001e-28,-1.8481700000000001e-25,-1.8473599999999999e-25,-1.8481700000000001e-25,-3.5543400000000001e-29,-1.86497e-29,6.7863899999999995e-29
4490.0,1.5386500000000001e-28,-1.8479499999999999e-25,-1.84731e-25,-1.8479200000000001e-25,-3.4745299999999997e-29,-1.9323999999999999e-29,7.0649e-29
4491.0,1.53758e-28,-1.8476099999999999e-25,-1.8471299999999999e-25,-1.84757e-25,-3.49159e-29,-2.0546199999999999e-29,7.4271599999999999e-29
4492.0,1.49106e-28,-1.84741e-25,-1.8471099999999999e-25,-1.84732e-25,-3.4356799999999998e-29,-2.04799e-29,7.4663599999999998e-29
4493.0,1.5007800000000001e-28,-1.8470000000000001e-25,-1.84689e-25,-1.84689e-25,-3.4129900000000003e-29,-2.17762e-29,7.6358300000000005e-29
4494.0,1.4816399999999999e-28,-1.8467899999999999e-25,-1.8469e-25,-1.8466099999999999e-25,-2.9300399999999998e-29,-2.14759e-29,7.5991800000000004e-29
4495.0,1.45952e-28,-1.84823e-25,-1.8473400000000001e-25,-1.84823e-25,-3.0995499999999998e-29,-1.2509099999999999e-29,5.7685900000000003e-29
4496.0,1.42065e-28,-1.84806e-25,-1.8472899999999999e-25,-1.8480399999999999e-25,-3.0152600000000001e-29,-1.28241e-29,6.1132800000000005e-29
4497.0,1.41394e-28,-1.84775e-25,-1.8471099999999999e-25,-1.8477099999999999e-25,-2.9679899999999998e-29,-1.3508299999999999e-29,6.5710499999999999e-29
4498.0,1.38231e-28,-1.84756e-25,-1.84708e-25,-1.8475e-25,-2.9143799999999999e-29,-1.32566e-29,6.8351899999999998e-29
4499.0,1.39881e-28,-1.8471800000000001e-25,-1.8468699999999999e-25,-1.8471000000000001e-25,-2.8747600000000003e-29,-1.4649500000000001e-29,7.2271700000000005e-29
4500.0,1.39598e-28,-1.8470000000000001e-25,-1.84689e-25,-1.8468699999999999e-25,-2.81245e-29,-1.45007e-29,7.3775500000000001e-29
4501.0,1.44153e-28,-1.8465399999999999e-25,-1.84663e-25,-1.84641e-25,-3.0183699999999999e-29,-1.49796e-29,7.5274000000000006e-29
4502.0,1.6137199999999999e-28,-1.8484300000000001e-25,-1.84755e-25,-1.8484499999999999e-25,-4.3587900000000002e-29,-1.7510299999999999e-29,6.2075700000000004e-29
4503.0,1.5981799999999999e-28,-1.84822e-25,-1.84748e-25,-1.84823e-25,-4.2932699999999997e-29,-1.9091499999999999e-29,6.6697299999999999e-29
4504.0,1.5842000000000001e-28,-1.8479400000000001e-25,-1.8473500000000001e-25,-1.8479300000000001e-25,-4.3924699999999997e-29,-1.9986000000000001e-29,6.9779800000000003e-29
4505.0,1.55701e-28,-1.8477099999999999e-25,-1.8472799999999999e-25,-1.8476700000000001e-25,-4.3455299999999998e-29,-2.06605e-29,7.2120900000000001e-29
4506.0,1.5534699999999999e-28,-1.8473699999999999e-25,-1.8471199999999999e-25,-1.84731e-25,-4.3854699999999998e-29,-2.1711300000000001e-29,7.4025100000000001e-29
4507.0,1.5319400000000001e-28,-1.8471299999999999e-25,-1.84708e-25,-1.8470200000000001e-25,-4.2687299999999999e-29,-2.1427599999999999e-29,7.4239099999999998e-29
4508.0,1.5537899999999999e-28,-1.8466999999999999e-25,-1.84688e-25,-1.84656e-25,-4.3872999999999999e-29,-2.2606200000000001e-29,7.3258800000000002e-29
4509.0,1.4690599999999999e-28,-1.84824e-25,-1.84741e-25,-1.84825e-25,-3.8162499999999999e-29,-1.31731e-29,5.67967e-29
4510.0,1.44611e-28,-1.8480200000000001e-25,-1.8472899999999999e-25,-1.8480200000000001e-25,-3.8153899999999998e-29,-1.3343900000000001e-29,5.9960800000000001e-29
4511.0,1.4246900000000001e-28,-1.84781e-25,-1.84723e-25,-1.8478e-25,-3.768e-29,-1.37856e-29,6.3640499999999995e-29
4512.0,1.4241499999999999e-28,-1.8475e-25,-1.84707e-25,-1.84747e-25,-3.7968099999999998e-29,-1.4984300000000001e-29,6.7267599999999998e-29
4513.0,1.4130700000000001e-28,-1.8472899999999999e-25,-1.8470299999999999e-25,-1.84723e-25,-3.8032400000000002e-29,-1.51694e-29,6.9277299999999998e-29
4514.0,1.4472200000000001e-28,-1.8469e-25,-1.8468400000000001e-25,-1.84683e-25,-3.8203999999999998e-29,-1.70426e-29,7.2209499999999999e-29
4515.0,1.4555500000000001e-28,-1.84673e-25,-1.8468500000000001e-25,-1.84658e-25,-3.4800599999999998e-29,-1.8043800000000001e-29,7.3119399999999998e-29
4516.0,1.6289600000000001e-28,-1.84841e-25,-1.8476000000000001e-25,-1.8484499999999999e-25,-4.99266e-29,-1.83819e-29,6.1047900000000005e-29
4517.0,1.62361e-28,-1.8481900000000001e-25,-1.8475100000000001e-25,-1.84822e-25,-5.1481e-29,-1.9011300000000001e-29,6.4622599999999998e-29
4518.0,1.60741e-28,-1.84797e-25,-1.8474400000000001e-25,-1.84798e-25,-5.1177399999999995e-29,-2.0257500000000001e-29,6.7949100000000004e-29
4519.0,1.6034399999999999e-28,-1.8476800000000001e-25,-1.84731e-25,-1.8476700000000001e-25,-5.2658900000000001e-29,-2.0962099999999999e-29,7.0060299999999999e-29
4520.0,1.5794700000000001e-28,-1.8474300000000001e-25,-1.84723e-25,-1.84739e-25,-5.1996499999999998e-29,-2.1437599999999999e-29,7.1051699999999999e-29
4521.0,1.5944599999999999e-28,-1.84705e-25,-1.84706e-25,-1.84699e-25,-5.2455300000000005e-29,-2.28853e-29,7.2004000000000001e-29
4522.0,1.5749999999999999e-28,-1.84682e-25,-1.8470100000000001e-25,-1.8466800000000001e-25,-4.81016e-29,-2.2213600000000001e-29,7.2066300000000002e-29
4523.0,1.4822899999999999e-28,-1.8482099999999999e-25,-1.8474300000000001e-25,-1.84824e-25,-4.5757600000000002e-29,-1.29916e-29,5.4574099999999996e-29
4524.0,1.46229e-28,-1.8480200000000001e-25,-1.8473699999999999e-25,-1.84806e-25,-4.49973e-29,-1.3959299999999999e-29,5.8276199999999998e-29
4525.0,1.45722e-28,-1.8477700000000001e-25,-1.84724e-25,-1.8477899999999999e-25,-4.6198000000000001e-29,-1.46477e-29,6.1458499999999998e-29
4526.0,1.44599e-28,-1.84755e-25,-1.8471800000000001e-25,-1.84755e-25,-4.62252e-29,-1.5317e-29,6.42587e-29
4527.0,1.46112e-28,-1.84722e-25,-1.8470299999999999e-25,-1.8472099999999999e-25,-4.6889399999999998e-29,-1.70822e-29,6.7144500000000003e-29
4528.0,1.4696799999999999e-28,-1.8470000000000001e-25,-1.84699e-25,-1.8469599999999999e-25,-4.7028499999999998e-29,-1.7576300000000001e-29,6.8370799999999999e-29
4529.0,1.52644e-28,-1.8465900000000001e-25,-1.8468e-25,-1.8465399999999999e-25,-4.9877999999999998e-29,-1.90939e-29,6.8791199999999998e-29
4530.0,1.6411e-28,-1.8483699999999999e-25,-1.84764e-25,-1.8484300000000001e-25,-5.7348000000000003e-29,-1.8010500000000001e-29,5.8777200000000005e-29
4531.0,1.6418099999999999e-28,-1.8481700000000001e-25,-1.84756e-25,-1.84823e-25,-5.7525699999999997e-29,-1.92802e-29,6.2709300000000004e-29
4532.0,1.63713e-28,-1.8479400000000001e-25,-1.84747e-25,-1.84797e-25,-5.9643900000000005e-29,-1.9897999999999999e-29,6.4645699999999995e-29
4533.0,1.6293799999999999e-28,-1.8476900000000001e-25,-1.8473799999999999e-25,-1.8477099999999999e-25,-5.9610799999999999e-29,-2.0709699999999999e-29,6.7188e-29
4534.0,1.62932e-28,-1.8473799999999999e-25,-1.84724e-25,-1.8473799999999999e-25,-6.0820299999999997e-29,-2.13736e-29,6.8045599999999995e-29
4535.0,1.6199099999999999e-28,-1.8470900000000001e-25,-1.84714e-25,-1.84705e-25,-5.9949999999999995e-29,-2.1469e-29,6.8335699999999995e-29
4536.0,1.64417e-28,-1.8466999999999999e-25,-1.84698e-25,-1.8466700000000001e-25,-6.1909899999999999e-29,-2.24824e-29,6.6071900000000001e-29
4537.0,1.49884e-28,-1.8481700000000001e-25,-1.84747e-25,-1.84824e-25,-5.1056200000000002e-29,-1.39771e-29,5.3460100000000002e-29
4538.0,1.4924200000000001e-28,-1.84799e-25,-1.84739e-25,-1.8480399999999999e-25,-5.2798499999999995e-29,-1.4386699999999999e-29,5.5767600000000005e-29
4539.0,1.4877000000000001e-28,-1.8477799999999999e-25,-1.84731e-25,-1.84783e-25,-5.3118399999999998e-29,-1.5237900000000001e-29,5.90878e-29
4540.0,1.48841e-28,-1.8475100000000001e-25,-1.8471900000000001e-25,-1.84755e-25,-5.4494900000000002e-29,-1.63691e-29,6.1354800000000003e-29
4541.0,1.4906099999999999e-28,-1.8472600000000001e-25,-1.8471099999999999e-25,-1.8472899999999999e-25,-5.5055799999999999e-29,-1.7282300000000001e-29,6.31613e-29
4542.0,1.5288199999999999e-28,-1.8469200000000001e-25,-1.84697e-25,-1.8469300000000001e-25,-5.6146600000000001e-29,-1.9506800000000001e-29,6.5190699999999998e-29
4543.0,1.54101e-28,-1.8466999999999999e-25,-1.8469300000000001e-25,-1.84665e-25,-5.3376400000000002e-29,-2.0680399999999999e-29,6.6444900000000004e-29
4544.0,1.6527099999999999e-28,-1.84832e-25,-1.84766e-25,-1.84841e-25,-6.1618200000000005e-29,-1.8586099999999999e-29,5.7325200000000003e-29
4545.0,1.6661600000000001e-28,-1.84814e-25,-1.84758e-25,-1.8482099999999999e-25,-6.4998700000000004e-29,-1.8745899999999999e-29,5.8959799999999996e-29
4546.0,1.65917e-28,-1.8479200000000001e-25,-1.84749e-25,-1.84799e-25,-6.5313100000000003e-29,-1.9338799999999999e-29,6.1755300000000003e-29
4547.0,1.6594199999999999e-28,-1.84766e-25,-1.84739e-25,-1.8477099999999999e-25,-6.7426400000000002e-29,-1.98295e-29,6.2779400000000004e-29
4548.0,1.6535e-28,-1.8473599999999999e-25,-1.8472700000000001e-25,-1.8474e-25,-6.75208e-29,-2.02822e-29,6.4017699999999994e-29
4549.0,1.6684099999999999e-28,-1.8470299999999999e-25,-1.8471299999999999e-25,-1.84705e-25,-6.8440800000000003e-29,-2.0896599999999999e-29,6.4250499999999998e-29
4550.0,1.6690399999999999e-28,-1.84674e-25,-1.8470100000000001e-25,-1.8466800000000001e-25,-6.4949099999999998e-29,-2.1415699999999999e-29,6.5499900000000002e-29
4551.0,1.5104100000000001e-28,-1.84815e-25,-1.8475e-25,-1.84822e-25,-5.7143699999999995e-29,-1.3799e-29,5.06184e-29
4552.0,1.5167099999999999e-28,-1.84798e-25,-1.8474300000000001e-25,-1.84806e-25,-5.7533800000000004e-29,-1.5138100000000001e-29,5.4151900000000002e-29
4553.0,1.5232499999999999e-28,-1.8477600000000001e-25,-1.84733e-25,-1.8478400000000001e-25,-6.0036900000000004e-29,-1.5521600000000001e-29,5.6087600000000003e-29
4554.0,1.5172600000000001e-28,-1.8475100000000001e-25,-1.84723e-25,-1.8475900000000001e-25,-6.0448800000000003e-29,-1.6585499999999999e-29,5.83186e-29
4555.0,1.53559e-28,-1.84722e-25,-1.8471299999999999e-25,-1.8472799999999999e-25,-6.2041800000000002e-29,-1.8097199999999999e-29,6.0187699999999996e-29
4556.0,1.5536800000000001e-28,-1.8469499999999999e-25,-1.8470399999999999e-25,-1.84699e-25,-6.28285e-29,-1.89842e-29,6.0982799999999998e-29
4557.0,1.61171e-28,-1.84658e-25,-1.8469e-25,-1.84665e-25,-6.6440600000000001e-29,-1.97873e-29,5.9736299999999995e-29
4558.0,1.3329100000000001e-28,-1.84663e-25,-1.8466099999999999e-25,-1.8463599999999999e-25,-1.34457e-30,-7.7117800000000005e-30,7.5010600000000004e-29
4559.0,1.2565100000000001e-28,-1.8463e-25,-1.84606e-25,-1.8462099999999999e-25,-6.4717599999999994e-30,-7.7837800000000003e-32,7.1188799999999997e-29
4560.0,1.1294800000000001e-28,-1.8466099999999999e-25,-1.84638e-25,-1.8463599999999999e-25,7.6234399999999994e-30,-1.9661900000000002e-30,6.3268000000000002e-29
4561.0,1.17329e-28,-1.8461999999999999e-25,-1.84566e-25,-1.8462600000000001e-25,-5.8602099999999999e-30,3.7397099999999998e-30,5.8769599999999997e-29
4562.0,8.3280600000000004e-29,-1.84664e-25,-1.8462099999999999e-25,-1.8464599999999999e-25,2.0568900000000001e-29,3.8659100000000001e-31,3.7612400000000002e-29
4563.0,1.3247700000000001e-28,-1.8460299999999999e-25,-1.84513e-25,-1.84631e-25,-1.7082099999999999e-29,1.36135e-30,4.22492e-29
4564.0,1.22094e-28,-1.8469399999999999e-25,-1.84664e-25,-1.8469499999999999e-25,5.6015300000000004e-29,2.1685700000000001e-29,-3.2437000000000002e-29
4565.0,1.30668e-28,-1.8466700000000001e-25,-1.8463599999999999e-25,-1.84656e-25,-7.0757100000000004e-30,-5.8102900000000003e-30,7.3203500000000001e-29
4566.0,1.15826e-28,-1.8469399999999999e-25,-1.84665e-25,-1.84672e-25,-1.47939e-30,-3.97441e-30,6.5019100000000003e-29
4567.0,1.19536e-28,-1.8466199999999999e-25,-1.8461000000000001e-25,-1.8465900000000001e-25,-3.7435599999999999e-30,-5.1384500000000003e-31,6.2239099999999997e-29
4568.0,8.8783400000000001e-29,-1.8469499999999999e-25,-1.8464499999999999e-25,-1.84683e-25,5.3099500000000002e-30,4.9371999999999999e-31,4.3749600000000001e-29
4569.0,1.13477e-28,-1.84657e-25,-1.84583e-25,-1.84665e-25,-4.2356999999999998e-30,3.2006699999999998e-31,4.7091799999999999e-29
4570.0,7.8637199999999997e-29,-1.8470100000000001e-25,-1.84631e-25,-1.8470900000000001e-25,1.3256700000000001e-29,6.7960499999999995e-30,3.6082200000000003e-30
4571.0,5.3689699999999996e-29,-1.84655e-25,-1.8460900000000001e-25,-1.8466199999999999e-25,1.80028e-30,1.7014299999999999e-32,1.13612e-29
4572.0,1.2295700000000001e-28,-1.84724e-25,-1.8468500000000001e-25,-1.84705e-25,-6.5769600000000001e-30,-7.9398999999999994e-30,6.7562299999999999e-29
4573.0,1.23242e-28,-1.84698e-25,-1.8464200000000001e-25,-1.84691e-25,-6.23151e-30,-4.25159e-30,6.3911300000000002e-29
4574.0,1.01622e-28,-1.8472500000000001e-25,-1.8466899999999999e-25,-1.84714e-25,-1.5208600000000001e-30,-1.48237e-30,5.0560999999999996e-29
4575.0,1.1072299999999999e-28,-1.84697e-25,-1.8462600000000001e-25,-1.84697e-25,-3.8398599999999999e-30,-1.45065e-30,4.8911699999999999e-29
4576.0,8.8609400000000005e-29,-1.8472799999999999e-25,-1.8465200000000001e-25,-1.84732e-25,1.3519000000000001e-30,2.7005400000000001e-30,2.3463799999999999e-29
4577.0,7.96654e-29,-1.84698e-25,-1.8462899999999999e-25,-1.84699e-25,-2.53902e-31,7.1319799999999999e-32,2.22753e-29
4578.0,9.0660299999999995e-29,-1.8472600000000001e-25,-1.84639e-25,-1.84731e-25,5.9668400000000002e-31,-1.48242e-31,7.7521900000000006e-30
4579.0,1.29773e-28,-1.8473e-25,-1.8466700000000001e-25,-1.84722e-25,-9.6569100000000007e-30,-8.4576500000000003e-30,6.5406099999999998e-29
4580.0,1.1474099999999999e-28,-1.8475399999999999e-25,-1.84691e-25,-1.8474300000000001e-25,-6.1264899999999999e-30,-4.6379800000000001e-30,5.6417500000000003e-29
4581.0,1.14275e-28,-1.84732e-25,-1.84658e-25,-1.8472700000000001e-25,-6.6060899999999996e-30,-3.8664600000000003e-30,5.0746999999999999e-29
4582.0,1.02671e-28,-1.84758e-25,-1.8467600000000001e-25,-1.84758e-25,-3.9520600000000001e-30,1.7111900000000001e-31,3.5532000000000001e-29
4583.0,9.4647800000000002e-29,-1.8473500000000001e-25,-1.84655e-25,-1.8473400000000001e-25,-3.6356100000000001e-30,-1.1226099999999999e-30,2.9958900000000002e-29
4584.0,1.0216799999999999e-28,-1.84758e-25,-1.84664e-25,-1.84765e-25,-4.9351899999999999e-30,8.1842799999999994e-31,1.6101799999999999e-29
4585.0,8.5705900000000001e-29,-1.84739e-25,-1.84657e-25,-1.8474599999999999e-25,-1.70516e-30,4.0419800000000002e-30,3.4828599999999997e-30
4586.0,1.2729399999999999e-28,-1.8478e-25,-1.84708e-25,-1.8476999999999999e-25,-1.051e-29,-8.2856899999999995e-30,6.0624200000000002e-29
4587.0,1.21431e-28,-1.8476199999999999e-25,-1.84682e-25,-1.84755e-25,-9.8333000000000005e-30,-6.9993899999999996e-30,5.2977600000000003e-29
4588.0,1.1687899999999999e-28,-1.8478500000000001e-25,-1.84697e-25,-1.84783e-25,-7.7783900000000005e-30,-2.59359e-30,4.4239799999999997e-29
4589.0,1.0528699999999999e-28,-1.8476700000000001e-25,-1.84681e-25,-1.8476299999999999e-25,-7.2986100000000001e-30,-3.1134299999999999e-30,3.5294699999999998e-29
4590.0,1.13039e-28,-1.8478799999999999e-25,-1.84688e-25,-1.8479499999999999e-25,-8.1531499999999994e-30,-5.0499200000000002e-32,2.474e-29
4591.0,9.6229300000000005e-29,-1.84772e-25,-1.84681e-25,-1.84774e-25,-5.1897699999999997e-30,1.1114899999999999e-30,1.3617999999999999e-29
4592.0,1.1022300000000001e-28,-1.8478799999999999e-25,-1.84683e-25,-1.8479400000000001e-25,-9.5191899999999998e-30,-1.5849900000000001e-30,7.0807300000000005e-30
4593.0,1.3201199999999999e-28,-1.84789e-25,-1.8470100000000001e-25,-1.84782e-25,-1.3137000000000001e-29,-1.08469e-29,5.5979200000000002e-29
4594.0,1.3106699999999999e-28,-1.8480900000000001e-25,-1.8471299999999999e-25,-1.84806e-25,-1.1373900000000001e-29,-5.6668600000000001e-30,5.1267700000000003e-29
4595.0,1.15488e-28,-1.8479599999999999e-25,-1.8470200000000001e-25,-1.84789e-25,-1.0832899999999999e-29,-5.8670400000000001e-30,3.9931400000000001e-29
4596.0,1.2571299999999999e-28,-1.84816e-25,-1.8470900000000001e-25,-1.8482099999999999e-25,-1.12139e-29,-2.25651e-30,3.3194300000000003e-29
4597.0,1.0786800000000001e-28,-1.8480399999999999e-25,-1.8470299999999999e-25,-1.8480200000000001e-25,-9.1310799999999999e-30,-1.47919e-30,2.1715900000000001e-29
4598.0,1.2188100000000001e-28,-1.8481900000000001e-25,-1.84705e-25,-1.8482600000000001e-25,-1.22076e-29,-1.06081e-30,1.46714e-29
4599.0,1.09769e-28,-1.84808e-25,-1.8470299999999999e-25,-1.84815e-25,-8.6131200000000006e-30,3.83799e-30,1.40661e-30
4600.0,1.4383699999999999e-28,-1.8482700000000001e-25,-1.8472600000000001e-25,-1.84825e-25,-1.4795e-29,-8.4753799999999998e-30,5.6953600000000002e-29
4601.0,1.2564699999999999e-28,-1.8481800000000001e-25,-1.8471900000000001e-25,-1.8480900000000001e-25,-1.41648e-29,-9.0856400000000005e-30,4.4502499999999997e-29
4602.0,1.39471e-28,-1.8484e-25,-1.8472600000000001e-25,-1.8484300000000001e-25,-1.45193e-29,-5.5636600000000002e-30,4.1893200000000001e-29
4603.0,1.19697e-28,-1.84831e-25,-1.84723e-25,-1.8482600000000001e-25,-1.2802399999999999e-29,-4.2959199999999999e-30,2.9146300000000001e-29
4604.0,1.34015e-28,-1.84848e-25,-1.8472600000000001e-25,-1.8485399999999999e-25,-1.5118800000000001e-29,-2.7038499999999999e-30,2.2967100000000001e-29
4605.0,1.20105e-28,-1.84839e-25,-1.84723e-25,-1.84841e-25,-1.22515e-29,3.9739199999999999e-32,1.1158399999999999e-29
4606.0,1.3021e-28,-1.8485100000000001e-25,-1.8472600000000001e-25,-1.84856e-25,-1.5537699999999999e-29,-2.05373e-30,4.9204900000000003e-30
4607.0,1.3447999999999999e-28,-1.8464200000000001e-25,-1.8463699999999999e-25,-1.8462799999999999e-25,-1.8348499999999999e-29,-7.8579999999999995e-30,7.4706400000000005e-29
4608.0,1.24431e-28,-1.8466199999999999e-25,-1.8465000000000001e-25,-1.8464200000000001e-25,-9.4397000000000004e-30,-6.1881500000000003e-30,7.0190000000000003e-29
4609.0,1.2249399999999999e-28,-1.84631e-25,-1.8460000000000001e-25,-1.8462700000000001e-25,-1.7283100000000001e-29,-2.7081299999999999e-30,6.6468799999999998e-29
4610.0,9.6593000000000001e-29,-1.8466199999999999e-25,-1.84624e-25,-1.84649e-25,-4.1074100000000002e-30,-1.42394e-30,5.2213000000000003e-29
4611.0,1.1764399999999999e-28,-1.84622e-25,-1.84557e-25,-1.8462899999999999e-25,-2.0784099999999999e-29,-1.99627e-30,5.0778700000000002e-29
4612.0,5.9572400000000003e-29,-1.84664e-25,-1.84615e-25,-1.8466800000000001e-25,4.36536e-30,6.3322600000000003e-30,1.5331699999999999e-29
4613.0,1.37089e-28,-1.8463400000000001e-25,-1.8451099999999999e-25,-1.84616e-25,-2.30579e-29,5.3818999999999997e-31,3.5762200000000001e-29
4614.0,1.29217e-28,-1.8469399999999999e-25,-1.84673e-25,-1.8467700000000001e-25,-1.51685e-29,-8.8061899999999994e-30,7.1630900000000002e-29
4615.0,1.23744e-28,-1.8467099999999999e-25,-1.8463699999999999e-25,-1.8466199999999999e-25,-1.4577299999999999e-29,-5.4075399999999998e-30,6.7464299999999999e-29
4616.0,1.0773699999999999e-28,-1.8469300000000001e-25,-1.8465100000000001e-25,-1.84683e-25,-1.20065e-29,-3.06885e-30,5.6984299999999996e-29
4617.0,1.09707e-28,-1.84666e-25,-1.8460900000000001e-25,-1.84666e-25,-1.3811400000000001e-29,-1.63192e-30,5.2280700000000002e-29
4618.0,8.6826000000000005e-29,-1.8469499999999999e-25,-1.84632e-25,-1.84699e-25,-9.5204500000000002e-30,3.5119199999999998e-31,3.2093400000000002e-29
4619.0,9.6290599999999997e-29,-1.84665e-25,-1.84588e-25,-1.8466999999999999e-25,-1.4996899999999999e-29,4.8398400000000001e-30,2.6781700000000002e-29
4620.0,8.1353100000000005e-29,-1.8471000000000001e-25,-1.84631e-25,-1.8471000000000001e-25,9.7213900000000005e-30,5.7177000000000001e-30,5.9145600000000003e-31
4621.0,1.29149e-28,-1.84707e-25,-1.84665e-25,-1.8469599999999999e-25,-1.6494000000000001e-29,-8.9478700000000005e-30,6.8814400000000002e-29
4622.0,1.16974e-28,-1.84722e-25,-1.8467500000000001e-25,-1.8471299999999999e-25,-1.4852400000000001e-29,-5.3606300000000002e-30,6.0804999999999998e-29
4623.0,1.1271900000000001e-28,-1.8470299999999999e-25,-1.8464499999999999e-25,-1.84699e-25,-1.37552e-29,-3.4166200000000002e-30,5.4606599999999997e-29
4624.0,1.00563e-28,-1.8472500000000001e-25,-1.8465900000000001e-25,-1.8472700000000001e-25,-1.37868e-29,-1.5432499999999999e-30,4.1157799999999997e-29
4625.0,9.7380199999999998e-29,-1.8470299999999999e-25,-1.8462899999999999e-25,-1.84707e-25,-1.37512e-29,1.3205099999999999e-30,3.27843e-29
4626.0,8.9260200000000005e-29,-1.84731e-25,-1.8465100000000001e-25,-1.8473699999999999e-25,-8.8497000000000006e-30,8.9559599999999993e-31,1.51492e-29
4627.0,8.1422899999999997e-29,-1.84699e-25,-1.84631e-25,-1.8471099999999999e-25,-1.6941000000000001e-29,3.5615700000000001e-31,7.0384199999999999e-30
4628.0,1.2662799999999999e-28,-1.8475100000000001e-25,-1.8469599999999999e-25,-1.8474200000000001e-25,-1.74873e-29,-8.6847000000000002e-30,6.3864299999999999e-29
4629.0,1.19532e-28,-1.8473500000000001e-25,-1.84672e-25,-1.8472899999999999e-25,-1.56597e-29,-5.9252300000000002e-30,5.7138299999999998e-29
4630.0,1.11433e-28,-1.8475299999999999e-25,-1.84683e-25,-1.8475200000000001e-25,-1.5703700000000001e-29,-3.4592800000000001e-30,4.7532500000000001e-29
4631.0,1.04934e-28,-1.8473699999999999e-25,-1.8466099999999999e-25,-1.8473799999999999e-25,-1.4831300000000001e-29,-1.3461799999999999e-30,3.8585500000000001e-29
4632.0,1.0140400000000001e-28,-1.84758e-25,-1.84674e-25,-1.84764e-25,-1.4764100000000001e-29,-4.7442699999999996e-31,2.5748399999999999e-29
4633.0,9.2835199999999995e-29,-1.8473699999999999e-25,-1.84658e-25,-1.8474499999999999e-25,-1.5978900000000001e-29,6.2408000000000004e-31,1.6659800000000001e-29
4634.0,1.04417e-28,-1.84765e-25,-1.8466700000000001e-25,-1.8476999999999999e-25,-1.5132799999999999e-29,1.09997e-30,6.9575799999999998e-30
4635.0,1.2936e-28,-1.84766e-25,-1.8469399999999999e-25,-1.8475900000000001e-25,-1.8385e-29,-9.2757999999999995e-30,5.9955e-29
4636.0,1.22504e-28,-1.8477899999999999e-25,-1.8470200000000001e-25,-1.8477600000000001e-25,-1.7639099999999999e-29,-5.99291e-30,5.2624200000000001e-29
4637.0,1.1441499999999999e-28,-1.8476800000000001e-25,-1.8468599999999999e-25,-1.84765e-25,-1.66939e-29,-3.9696199999999997e-30,4.3557899999999999e-29
4638.0,1.12613e-28,-1.8478500000000001e-25,-1.8469599999999999e-25,-1.84789e-25,-1.71517e-29,-2.0510300000000001e-30,3.3904200000000002e-29
4639.0,1.04608e-28,-1.8477099999999999e-25,-1.84683e-25,-1.8477600000000001e-25,-1.71728e-29,-9.2319699999999997e-31,2.44203e-29
4640.0,1.1238e-28,-1.84791e-25,-1.8469e-25,-1.84799e-25,-1.8382899999999999e-29,4.2938500000000003e-31,1.4655599999999999e-29
4641.0,1.00251e-28,-1.84773e-25,-1.8468500000000001e-25,-1.8478599999999999e-25,-1.7970399999999999e-29,2.29233e-30,2.2310399999999998e-30
4642.0,1.3410700000000001e-28,-1.8480299999999999e-25,-1.8471800000000001e-25,-1.84799e-25,-2.03334e-29,-9.1523399999999994e-30,5.6819700000000002e-29
4643.0,1.2483099999999999e-28,-1.8479400000000001e-25,-1.84706e-25,-1.8479e-25,-1.9068600000000001e-29,-6.9036800000000006e-30,4.8158299999999997e-29
4644.0,1.2407699999999999e-28,-1.8480900000000001e-25,-1.84714e-25,-1.8481099999999999e-25,-1.90443e-29,-4.5045600000000003e-30,4.1085499999999998e-29
4645.0,1.15844e-28,-1.8480100000000001e-25,-1.84705e-25,-1.8480200000000001e-25,-1.9038100000000001e-29,-3.1732499999999999e-30,3.1221299999999999e-29
4646.0,1.20905e-28,-1.8481700000000001e-25,-1.8471199999999999e-25,-1.84824e-25,-2.00523e-29,-9.4757500000000005e-31,2.2523399999999999e-29
4647.0,1.1136500000000001e-28,-1.84805e-25,-1.84706e-25,-1.84814e-25,-1.9522400000000001e-29,-8.0844600000000004e-32,1.19912e-29
4648.0,1.2438699999999999e-28,-1.84825e-25,-1.8471000000000001e-25,-1.84831e-25,-2.2329800000000001e-29,-2.6583100000000002e-32,5.1917499999999999e-30
4649.0,1.35142e-28,-1.84816e-25,-1.84722e-25,-1.8481099999999999e-25,-2.16089e-29,-9.9473399999999993e-30,5.2198500000000001e-29
4650.0,1.36647e-28,-1.8483e-25,-1.8472899999999999e-25,-1.8483e-25,-2.1431500000000001e-29,-7.7079599999999996e-30,4.80634e-29
4651.0,1.2776799999999999e-28,-1.8482700000000001e-25,-1.84723e-25,-1.84825e-25,-2.1409699999999999e-29,-6.0447799999999999e-30,3.8117900000000003e-29
4652.0,1.3170800000000001e-28,-1.8484300000000001e-25,-1.84731e-25,-1.84847e-25,-2.2128700000000001e-29,-3.5932699999999997e-30,3.0797000000000001e-29
4653.0,1.24256e-28,-1.8483599999999999e-25,-1.8472500000000001e-25,-1.8484e-25,-2.2015900000000001e-29,-2.5719799999999999e-30,2.08406e-29
4654.0,1.32054e-28,-1.8485100000000001e-25,-1.84731e-25,-1.84858e-25,-2.3928199999999999e-29,-1.0072200000000001e-30,1.3262499999999999e-29
4655.0,1.22896e-28,-1.8484e-25,-1.8472899999999999e-25,-1.8485100000000001e-25,-2.23531e-29,1.7590700000000001e-30,1.6681799999999999e-30
4656.0,1.3528400000000001e-28,-1.84666e-25,-1.8466700000000001e-25,-1.84648e-25,-2.2691699999999999e-29,-1.2128600000000001e-29,7.2991000000000002e-29
4657.0,1.3230899999999999e-28,-1.8464e-25,-1.8463e-25,-1.84633e-25,-2.84869e-29,-8.6346200000000005e-30,7.0166799999999999e-29
4658.0,1.1426499999999999e-28,-1.8466099999999999e-25,-1.84641e-25,-1.8465100000000001e-25,-2.17192e-29,-6.7611899999999994e-30,6.1108699999999998e-29
4659.0,1.21657e-28,-1.84631e-25,-1.84591e-25,-1.84632e-25,-3.1694099999999998e-29,-6.3203700000000002e-30,5.7882999999999997e-29
4660.0,8.5143899999999999e-29,-1.8466000000000001e-25,-1.8461800000000001e-25,-1.84664e-25,-2.1325300000000001e-29,-1.32963e-30,3.62561e-29
4661.0,1.19174e-28,-1.84631e-25,-1.8455299999999999e-25,-1.8463e-25,-3.5346499999999998e-29,-3.2419400000000003e-30,3.8065900000000001e-29
4662.0,6.7823599999999997e-29,-1.8465399999999999e-25,-1.84614e-25,-1.8467700000000001e-25,-2.2775199999999999e-29,-2.9883800000000001e-30,-1.6554500000000002e-30
4663.0,1.3315599999999999e-28,-1.8467899999999999e-25,-1.8466000000000001e-25,-1.8466899999999999e-25,-2.5837799999999998e-29,-1.0708100000000001e-29,7.1003199999999998e-29
4664.0,1.2282199999999999e-28,-1.8469200000000001e-25,-1.84665e-25,-1.8468400000000001e-25,-2.5063499999999999e-29,-8.0220900000000002e-30,6.44052e-29
4665.0,1.16678e-28,-1.8467099999999999e-25,-1.84633e-25,-1.8466899999999999e-25,-2.5229299999999999e-29,-5.80498e-30,5.84348e-29
4666.0,1.05022e-28,-1.8469300000000001e-25,-1.8464399999999999e-25,-1.8469499999999999e-25,-2.5818999999999998e-29,-4.1867700000000002e-30,4.6394299999999998e-29
4667.0,1.03108e-28,-1.8466800000000001e-25,-1.84607e-25,-1.84674e-25,-2.8141499999999999e-29,-8.8344000000000004e-31,3.7317499999999999e-29
4668.0,8.84334e-29,-1.8470000000000001e-25,-1.84632e-25,-1.84706e-25,-2.2544999999999999e-29,-6.8502499999999997e-31,2.0688899999999999e-29
4669.0,1.1586900000000001e-28,-1.84673e-25,-1.84583e-25,-1.84674e-25,-3.8646199999999998e-29,-5.2472499999999997e-31,1.5080699999999999e-29
4670.0,1.29279e-28,-1.84722e-25,-1.8468699999999999e-25,-1.84715e-25,-2.6230600000000001e-29,-9.8053100000000004e-30,6.66667e-29
4671.0,1.21132e-28,-1.84707e-25,-1.84663e-25,-1.8470100000000001e-25,-2.43052e-29,-7.2826000000000004e-30,6.0682499999999998e-29
4672.0,1.1366299999999999e-28,-1.84722e-25,-1.8466899999999999e-25,-1.84722e-25,-2.59325e-29,-5.2440799999999999e-30,5.1731000000000004e-29
4673.0,1.0560000000000001e-28,-1.84705e-25,-1.8464399999999999e-25,-1.84708e-25,-2.5333900000000002e-29,-2.3475900000000001e-30,4.1998399999999999e-29
4674.0,1.01407e-28,-1.8472700000000001e-25,-1.84657e-25,-1.8473500000000001e-25,-2.6126199999999999e-29,-1.83922e-30,3.01325e-29
4675.0,9.98823e-29,-1.84705e-25,-1.8463e-25,-1.84714e-25,-2.8858299999999999e-29,1.26916e-30,1.90383e-29
4676.0,9.3413600000000001e-29,-1.8473799999999999e-25,-1.84656e-25,-1.8474499999999999e-25,-1.9798200000000001e-29,2.2923399999999999e-30,4.8855799999999997e-30
4677.0,1.2900000000000001e-28,-1.8474e-25,-1.84688e-25,-1.84733e-25,-2.5756100000000002e-29,-9.6780999999999998e-30,6.3063899999999995e-29
4678.0,1.2143800000000001e-28,-1.84749e-25,-1.84691e-25,-1.84748e-25,-2.5779500000000002e-29,-6.9214199999999994e-30,5.5709400000000005e-29
4679.0,1.13006e-28,-1.8473699999999999e-25,-1.84672e-25,-1.8473799999999999e-25,-2.4764099999999999e-29,-4.1553099999999999e-30,4.6738800000000002e-29
4680.0,1.1010900000000001e-28,-1.8475399999999999e-25,-1.84681e-25,-1.8476000000000001e-25,-2.66362e-29,-3.0175399999999999e-30,3.7124399999999999e-29
4681.0,1.0395000000000001e-28,-1.84739e-25,-1.8466199999999999e-25,-1.84747e-25,-2.6743099999999997e-29,-4.1504099999999997e-31,2.6254399999999999e-29
4682.0,1.05005e-28,-1.8476199999999999e-25,-1.8467700000000001e-25,-1.84772e-25,-2.6584000000000002e-29,-1.72382e-31,1.5343399999999999e-29
4683.0,1.0194300000000001e-28,-1.84739e-25,-1.8466199999999999e-25,-1.8475399999999999e-25,-3.1858199999999998e-29,2.3935900000000002e-31,4.2867099999999998e-30
4684.0,1.3069700000000001e-28,-1.8477600000000001e-25,-1.8471000000000001e-25,-1.84773e-25,-2.69086e-29,-9.3366699999999997e-30,5.8975999999999999e-29
4685.0,1.22166e-28,-1.84766e-25,-1.8469399999999999e-25,-1.84765e-25,-2.5438999999999999e-29,-6.4404900000000003e-30,5.0972099999999999e-29
4686.0,1.18601e-28,-1.8477899999999999e-25,-1.8470100000000001e-25,-1.84782e-25,-2.6503799999999998e-29,-4.6075099999999999e-30,4.30008e-29
4687.0,1.1245399999999999e-28,-1.8476999999999999e-25,-1.8468699999999999e-25,-1.84775e-25,-2.6433899999999999e-29,-2.4278299999999999e-30,3.29991e-29
4688.0,1.133e-28,-1.8478699999999999e-25,-1.84698e-25,-1.8479599999999999e-25,-2.7956799999999998e-29,-1.2718600000000001e-30,2.3478599999999999e-29
4689.0,1.0836000000000001e-28,-1.84772e-25,-1.8468599999999999e-25,-1.8478400000000001e-25,-2.9279e-29,-5.2751799999999997e-32,1.34127e-29
4690.0,1.19273e-28,-1.84798e-25,-1.8469599999999999e-25,-1.84806e-25,-3.0204099999999998e-29,1.53548e-30,4.9643400000000001e-30
4691.0,1.3275300000000001e-28,-1.8479400000000001e-25,-1.84714e-25,-1.84791e-25,-2.7319299999999999e-29,-9.0471999999999998e-30,5.4786400000000005e-29
4692.0,1.2861e-28,-1.8480200000000001e-25,-1.8471800000000001e-25,-1.8480299999999999e-25,-2.7243499999999999e-29,-7.0728600000000004e-30,4.8430600000000002e-29
4693.0,1.22574e-28,-1.84797e-25,-1.84708e-25,-1.84799e-25,-2.71394e-29,-4.8198800000000001e-30,3.9324600000000001e-29
4694.0,1.21774e-28,-1.8481099999999999e-25,-1.8471700000000001e-25,-1.8481800000000001e-25,-2.8286600000000002e-29,-2.9450499999999999e-30,3.0881900000000001e-29
4695.0,1.1820099999999999e-28,-1.8480299999999999e-25,-1.84707e-25,-1.8481099999999999e-25,-2.9172100000000003e-29,-1.7798600000000002e-30,2.14742e-29
4696.0,1.2449200000000001e-28,-1.8482099999999999e-25,-1.84716e-25,-1.84831e-25,-3.0923099999999997e-29,2.0088000000000002e-31,1.2758799999999999e-29
4697.0,1.1515400000000001e-28,-1.84805e-25,-1.8471199999999999e-25,-1.84822e-25,-3.0834899999999998e-29,1.31123e-30,1.7930600000000001e-30
4698.0,1.3920300000000001e-28,-1.84822e-25,-1.84732e-25,-1.8482099999999999e-25,-2.9006200000000002e-29,-9.96462e-30,5.3211099999999996e-29
4699.0,1.3339100000000001e-28,-1.8481999999999999e-25,-1.8472500000000001e-25,-1.8481999999999999e-25,-2.8646199999999997e-29,-7.6920600000000002e-30,4.55147e-29
4700.0,1.3198800000000001e-28,-1.8483400000000001e-25,-1.8473400000000001e-25,-1.8483699999999999e-25,-2.9282699999999998e-29,-5.54843e-30,3.8305200000000001e-29
4701.0,1.29234e-28,-1.84831e-25,-1.8472700000000001e-25,-1.8483599999999999e-25,-3.0148899999999999e-29,-4.2675000000000001e-30,2.9404099999999998e-29
4702.0,1.31763e-28,-1.8484499999999999e-25,-1.8473500000000001e-25,-1.8485299999999999e-25,-3.1478699999999998e-29,-1.9332200000000002e-30,2.10936e-29
4703.0,1.26749e-28,-1.8483599999999999e-25,-1.8472899999999999e-25,-1.84847e-25,-3.1630399999999999e-29,-1.1035599999999999e-30,1.16347e-29
4704.0,1.38522e-28,-1.84858e-25,-1.8473599999999999e-25,-1.84864e-25,-3.4202100000000001e-29,-6.4204600000000004e-32,4.4850199999999999e-30
4705.0,1.4193999999999999e-28,-1.84649e-25,-1.84657e-25,-1.8464200000000001e-25,-3.89296e-29,-1.4030200000000001e-29,7.0378000000000002e-29
4706.0,1.2997800000000001e-28,-1.8466199999999999e-25,-1.8466199999999999e-25,-1.84655e-25,-3.4360199999999998e-29,-1.27403e-29,6.5347000000000005e-29
4707.0,1.3152599999999999e-28,-1.84638e-25,-1.84623e-25,-1.84638e-25,-4.1960000000000002e-29,-1.0997999999999999e-29,6.1734799999999997e-29
4708.0,1.09587e-28,-1.8465900000000001e-25,-1.8463699999999999e-25,-1.84663e-25,-3.8351699999999999e-29,-8.08589e-30,4.7735099999999999e-29
4709.0,1.23354e-28,-1.84633e-25,-1.84589e-25,-1.84639e-25,-4.7687199999999999e-29,-7.8980499999999997e-30,4.4623899999999998e-29
4710.0,9.4237100000000003e-29,-1.84656e-25,-1.8461999999999999e-25,-1.84674e-25,-4.2704199999999997e-29,-4.8361500000000001e-30,1.89733e-29
4711.0,1.22573e-28,-1.84639e-25,-1.8456099999999999e-25,-1.8464e-25,-5.08828e-29,6.2910500000000005e-32,1.9197700000000001e-29
4712.0,1.3533200000000001e-28,-1.8469399999999999e-25,-1.84681e-25,-1.84688e-25,-3.6116299999999998e-29,-1.3062199999999999e-29,6.7774799999999999e-29
4713.0,1.2750599999999999e-28,-1.8467600000000001e-25,-1.84656e-25,-1.84673e-25,-3.56652e-29,-1.0479899999999999e-29,6.2612699999999996e-29
4714.0,1.20561e-28,-1.8469e-25,-1.8466000000000001e-25,-1.8469300000000001e-25,-3.80504e-29,-9.0369499999999999e-30,5.4552800000000005e-29
4715.0,1.13523e-28,-1.8467099999999999e-25,-1.84631e-25,-1.8467700000000001e-25,-3.9681800000000001e-29,-6.1972400000000001e-30,4.5380400000000002e-29
4716.0,1.07177e-28,-1.8469399999999999e-25,-1.8464399999999999e-25,-1.8470299999999999e-25,-4.0572500000000002e-29,-5.1424099999999999e-30,3.3582700000000001e-29
4717.0,1.1324400000000001e-28,-1.8467099999999999e-25,-1.84608e-25,-1.84681e-25,-4.6859199999999998e-29,-2.8934900000000001e-30,2.2770300000000001e-29
4718.0,9.2536099999999996e-29,-1.8469499999999999e-25,-1.84647e-25,-1.84716e-25,-3.98287e-29,-1.61405e-30,3.76634e-30
4719.0,1.32386e-28,-1.8471199999999999e-25,-1.84682e-25,-1.84708e-25,-3.49285e-29,-1.19567e-29,6.49573e-29
4720.0,1.2555300000000001e-28,-1.8471900000000001e-25,-1.84681e-25,-1.8471999999999999e-25,-3.6007599999999999e-29,-9.3058400000000002e-30,5.8241499999999998e-29
4721.0,1.1606600000000001e-28,-1.84706e-25,-1.8466099999999999e-25,-1.8471000000000001e-25,-3.5663000000000001e-29,-6.7335800000000005e-30,4.9493700000000001e-29
4722.0,1.1413900000000001e-28,-1.84723e-25,-1.8466800000000001e-25,-1.8473e-25,-3.8701900000000002e-29,-5.5406400000000003e-30,4.0505700000000001e-29
4723.0,1.08576e-28,-1.84706e-25,-1.8464499999999999e-25,-1.8471700000000001e-25,-4.0048499999999998e-29,-2.53813e-30,2.8754099999999999e-29
4724.0,1.06584e-28,-1.8473e-25,-1.8466199999999999e-25,-1.8474200000000001e-25,-4.00492e-29,-1.95742e-30,1.7905100000000001e-29
4725.0,1.1955799999999999e-28,-1.8470900000000001e-25,-1.84633e-25,-1.8472099999999999e-25,-4.9239100000000002e-29,-9.5975600000000001e-31,7.4608400000000002e-30
4726.0,1.3177300000000001e-28,-1.84748e-25,-1.8470200000000001e-25,-1.84747e-25,-3.53741e-29,-1.07515e-29,6.0996399999999998e-29
4727.0,1.2274199999999999e-28,-1.8473799999999999e-25,-1.8468500000000001e-25,-1.8473799999999999e-25,-3.41262e-29,-7.8999399999999995e-30,5.3571400000000003e-29
4728.0,1.1941400000000001e-28,-1.84749e-25,-1.84689e-25,-1.8475399999999999e-25,-3.6300600000000001e-29,-6.2364800000000002e-30,4.55512e-29
4729.0,1.1269699999999999e-28,-1.8473799999999999e-25,-1.84673e-25,-1.84747e-25,-3.6661900000000001e-29,-3.5073900000000003e-30,3.5106900000000001e-29
4730.0,1.13527e-28,-1.84756e-25,-1.84683e-25,-1.8476700000000001e-25,-3.9104299999999998e-29,-2.7135300000000001e-30,2.5841799999999999e-29
4731.0,1.12268e-28,-1.8474e-25,-1.84665e-25,-1.8475399999999999e-25,-4.1276499999999999e-29,-4.4541699999999998e-31,1.4550400000000001e-29
4732.0,1.1254999999999999e-28,-1.8476800000000001e-25,-1.8468500000000001e-25,-1.8478e-25,-3.9379499999999998e-29,1.60942e-30,3.8763700000000002e-30
4733.0,1.31897e-28,-1.8476800000000001e-25,-1.84707e-25,-1.8476700000000001e-25,-3.4749399999999998e-29,-1.00011e-29,5.7070899999999996e-29
4734.0,1.26018e-28,-1.84773e-25,-1.84707e-25,-1.8477600000000001e-25,-3.4833199999999999e-29,-7.5404099999999993e-30,4.9867000000000002e-29
4735.0,1.2019800000000001e-28,-1.8476700000000001e-25,-1.8469499999999999e-25,-1.84772e-25,-3.5032400000000002e-29,-5.0960400000000001e-30,4.1011100000000001e-29
4736.0,1.1906399999999999e-28,-1.8478e-25,-1.8470200000000001e-25,-1.84789e-25,-3.7272300000000002e-29,-3.7028299999999997e-30,3.2393199999999997e-29
4737.0,1.1640599999999999e-28,-1.8477099999999999e-25,-1.8469e-25,-1.84783e-25,-3.8309399999999998e-29,-1.66447e-30,2.22192e-29
4738.0,1.1997999999999999e-28,-1.8479e-25,-1.8470200000000001e-25,-1.8480299999999999e-25,-4.02897e-29,-4.1774800000000003e-31,1.3030800000000001e-29
4739.0,1.17087e-28,-1.84772e-25,-1.8469200000000001e-25,-1.84791e-25,-4.2690599999999998e-29,-1.9058200000000001e-33,2.9223e-30
4740.0,1.35063e-28,-1.84798e-25,-1.84724e-25,-1.84799e-25,-3.5319099999999997e-29,-1.0019799999999999e-29,5.3787199999999996e-29
4741.0,1.29415e-28,-1.8479200000000001e-25,-1.84714e-25,-1.8479599999999999e-25,-3.4938400000000002e-29,-7.1509399999999995e-30,4.6456499999999999e-29
4742.0,1.2583000000000001e-28,-1.8480200000000001e-25,-1.8471999999999999e-25,-1.8480900000000001e-25,-3.59689e-29,-5.3818699999999998e-30,3.8585799999999998e-29
4743.0,1.24023e-28,-1.84798e-25,-1.8471000000000001e-25,-1.84807e-25,-3.7110699999999999e-29,-3.5284499999999999e-30,2.9559000000000003e-29
4744.0,1.25087e-28,-1.8481199999999999e-25,-1.8471999999999999e-25,-1.84824e-25,-3.9143099999999998e-29,-1.8302599999999999e-30,2.08494e-29
4745.0,1.2272900000000001e-28,-1.8480200000000001e-25,-1.8471099999999999e-25,-1.8481700000000001e-25,-4.0221400000000001e-29,-8.1909799999999995e-31,1.1730300000000001e-29
4746.0,1.3436299999999999e-28,-1.8482700000000001e-25,-1.8472099999999999e-25,-1.8483699999999999e-25,-4.2993199999999998e-29,1.22491e-30,3.7267400000000001e-30
4747.0,1.3892300000000001e-28,-1.84814e-25,-1.8473e-25,-1.84816e-25,-3.6087299999999999e-29,-9.5312499999999999e-30,5.1076100000000002e-29
4748.0,1.3513800000000001e-28,-1.84823e-25,-1.8473500000000001e-25,-1.8482600000000001e-25,-3.6320000000000001e-29,-7.8662400000000001e-30,4.4782399999999999e-29
4749.0,1.3368300000000001e-28,-1.84823e-25,-1.8472899999999999e-25,-1.8482899999999999e-25,-3.7277099999999999e-29,-6.1679899999999997e-30,3.6970700000000001e-29
4750.0,1.32532e-28,-1.8483500000000001e-25,-1.8473699999999999e-25,-1.8484400000000001e-25,-3.8626399999999999e-29,-3.9271199999999999e-30,2.8756100000000002e-29
4751.0,1.32042e-28,-1.84831e-25,-1.8473e-25,-1.8484200000000001e-25,-3.9855899999999998e-29,-2.88738e-30,2.0320199999999999e-29
4752.0,1.3695999999999999e-28,-1.84847e-25,-1.84739e-25,-1.84858e-25,-4.2036999999999998e-29,-7.6327300000000001e-31,1.19748e-29
4753.0,1.2776999999999999e-28,-1.84832e-25,-1.8473599999999999e-25,-1.8485e-25,-4.0802999999999999e-29,5.3824300000000003e-31,2.0946500000000001e-30
4754.0,1.4254499999999999e-28,-1.84665e-25,-1.8468e-25,-1.8466000000000001e-25,-4.41706e-29,-1.7780699999999999e-29,6.6315299999999996e-29
4755.0,1.42051e-28,-1.8464399999999999e-25,-1.8465000000000001e-25,-1.8464499999999999e-25,-5.0355499999999998e-29,-1.50509e-29,6.2878900000000002e-29
4756.0,1.28727e-28,-1.84658e-25,-1.8466000000000001e-25,-1.84664e-25,-4.9642400000000001e-29,-1.39725e-29,5.3426499999999996e-29
4757.0,1.3415800000000001e-28,-1.8463599999999999e-25,-1.84622e-25,-1.8464499999999999e-25,-5.7151000000000005e-29,-1.24413e-29,4.9426199999999998e-29
4758.0,1.17637e-28,-1.8465399999999999e-25,-1.8464e-25,-1.84673e-25,-5.7073400000000004e-29,-9.6469300000000003e-30,3.1461199999999999e-29
4759.0,1.2873500000000001e-28,-1.8463500000000001e-25,-1.84597e-25,-1.84647e-25,-6.3470500000000004e-29,-6.2446099999999999e-30,2.7800799999999999e-29
4760.0,1.1617799999999999e-28,-1.8465200000000001e-25,-1.8463599999999999e-25,-1.84682e-25,-6.26849e-29,-5.8130599999999999e-30,2.3559000000000001e-30
4761.0,1.3953999999999999e-28,-1.84682e-25,-1.8467700000000001e-25,-1.84681e-25,-4.5481200000000001e-29,-1.5179799999999999e-29,6.4689200000000003e-29
4762.0,1.3393000000000001e-28,-1.84689e-25,-1.8467600000000001e-25,-1.8469300000000001e-25,-4.7537000000000001e-29,-1.3610899999999999e-29,5.8825800000000001e-29
4763.0,1.2615099999999999e-28,-1.84673e-25,-1.8465399999999999e-25,-1.8468e-25,-4.8970600000000001e-29,-1.0956800000000001e-29,5.1034400000000001e-29
4764.0,1.2307200000000001e-28,-1.8469e-25,-1.8466000000000001e-25,-1.8470100000000001e-25,-5.2344700000000004e-29,-9.8103399999999997e-30,4.20771e-29
4765.0,1.21065e-28,-1.8467099999999999e-25,-1.8463400000000001e-25,-1.8468500000000001e-25,-5.6298799999999996e-29,-7.1584699999999996e-30,3.1092200000000002e-29
4766.0,1.14784e-28,-1.8469200000000001e-25,-1.84655e-25,-1.8471299999999999e-25,-5.6295899999999995e-29,-4.8910799999999998e-30,1.8180300000000001e-29
4767.0,1.2966199999999999e-28,-1.8467600000000001e-25,-1.84616e-25,-1.84688e-25,-6.3474799999999996e-29,-1.42105e-30,8.7326600000000003e-30
4768.0,1.37099e-28,-1.8471999999999999e-25,-1.8469599999999999e-25,-1.8472099999999999e-25,-4.5330900000000002e-29,-1.3517900000000001e-29,6.1814899999999995e-29
4769.0,1.2796e-28,-1.84708e-25,-1.8467899999999999e-25,-1.8471199999999999e-25,-4.4697200000000001e-29,-1.11236e-29,5.4887100000000004e-29
4770.0,1.2576600000000001e-28,-1.8471800000000001e-25,-1.8468e-25,-1.8472600000000001e-25,-4.7999200000000002e-29,-9.5496399999999995e-30,4.7609199999999999e-29
4771.0,1.1877199999999999e-28,-1.84705e-25,-1.84663e-25,-1.8471800000000001e-25,-4.9555599999999999e-29,-6.91977e-30,3.6898199999999999e-29
4772.0,1.1954400000000001e-28,-1.84724e-25,-1.84672e-25,-1.8473799999999999e-25,-5.2531099999999999e-29,-5.5521699999999998e-30,2.7916e-29
4773.0,1.2153700000000001e-28,-1.84706e-25,-1.8465000000000001e-25,-1.84724e-25,-5.6427900000000005e-29,-3.21635e-30,1.5848e-29
4774.0,1.1397099999999999e-28,-1.8473e-25,-1.8468e-25,-1.8475200000000001e-25,-5.4374499999999995e-29,-7.3673000000000004e-31,3.2755100000000002e-30
4775.0,1.34324e-28,-1.84741e-25,-1.8470100000000001e-25,-1.8474200000000001e-25,-4.35552e-29,-1.21567e-29,5.8396600000000005e-29
4776.0,1.2911300000000001e-28,-1.8474400000000001e-25,-1.84698e-25,-1.8475e-25,-4.4527199999999999e-29,-9.8438300000000007e-30,5.16474e-29
4777.0,1.2219899999999999e-28,-1.8473699999999999e-25,-1.8468500000000001e-25,-1.8474499999999999e-25,-4.5253499999999998e-29,-7.3215099999999998e-30,4.25928e-29
4778.0,1.22605e-28,-1.8475e-25,-1.84691e-25,-1.8476199999999999e-25,-4.8514300000000002e-29,-5.9883899999999999e-30,3.4457199999999999e-29
4779.0,1.19678e-28,-1.8473799999999999e-25,-1.8467600000000001e-25,-1.8475399999999999e-25,-5.0254400000000001e-29,-3.4409700000000002e-30,2.33337e-29
4780.0,1.2179399999999999e-28,-1.8475900000000001e-25,-1.84691e-25,-1.84775e-25,-5.2529499999999995e-29,-1.9970900000000001e-30,1.4232299999999999e-29
4781.0,1.2803500000000001e-28,-1.8474200000000001e-25,-1.8467099999999999e-25,-1.8475900000000001e-25,-5.7130999999999999e-29,-1.0291099999999999e-30,4.3169800000000002e-30
4782.0,1.3536600000000001e-28,-1.8477099999999999e-25,-1.84716e-25,-1.84775e-25,-4.3157000000000001e-29,-1.1124e-29,5.5120700000000004e-29
4783.0,1.2855800000000001e-28,-1.84765e-25,-1.8470399999999999e-25,-1.8476999999999999e-25,-4.2994000000000001e-29,-8.4367700000000006e-30,4.7514400000000003e-29
4784.0,1.26324e-28,-1.84773e-25,-1.84708e-25,-1.84782e-25,-4.50332e-29,-6.6712200000000002e-30,3.9942900000000002e-29
4785.0,1.2332599999999999e-28,-1.8476700000000001e-25,-1.84697e-25,-1.8477899999999999e-25,-4.64167e-29,-4.42458e-30,3.0339799999999999e-29
4786.0,1.25445e-28,-1.84782e-25,-1.84707e-25,-1.8479599999999999e-25,-4.94412e-29,-3.0881100000000002e-30,2.19297e-29
4787.0,1.2477000000000001e-28,-1.8476999999999999e-25,-1.8469499999999999e-25,-1.8478799999999999e-25,-5.0892500000000001e-29,-1.26965e-30,1.1986299999999999e-29
4788.0,1.30117e-28,-1.8479499999999999e-25,-1.8471199999999999e-25,-1.8481099999999999e-25,-5.3000999999999997e-29,1.49563e-30,2.73051e-30
4789.0,1.37088e-28,-1.84791e-25,-1.84723e-25,-1.8479499999999999e-25,-4.2933e-29,-1.0180899999999999e-29,5.1738199999999996e-29
4790.0,1.32418e-28,-1.8479499999999999e-25,-1.84723e-25,-1.8480100000000001e-25,-4.3140299999999999e-29,-8.1857700000000005e-30,4.51085e-29
4791.0,1.2979299999999999e-28,-1.8479300000000001e-25,-1.84715e-25,-1.8480200000000001e-25,-4.4321899999999998e-29,-6.0657599999999999e-30,3.6993500000000001e-29
4792.0,1.2917800000000001e-28,-1.8480299999999999e-25,-1.84723e-25,-1.84815e-25,-4.6601799999999999e-29,-4.40613e-30,2.8858299999999999e-29
4793.0,1.2894900000000001e-28,-1.84798e-25,-1.84714e-25,-1.8481299999999999e-25,-4.8044899999999997e-29,-2.6629099999999999e-30,1.9911000000000001e-29
4794.0,1.3366399999999999e-28,-1.84815e-25,-1.8472500000000001e-25,-1.8482899999999999e-25,-5.1032499999999999e-29,-9.5666599999999995e-31,1.1476899999999999e-29
4795.0,1.2811700000000001e-28,-1.84799e-25,-1.8471800000000001e-25,-1.8481999999999999e-25,-5.0515899999999995e-29,-4.7334299999999997e-31,2.5337899999999999e-30
4796.0,1.40272e-28,-1.84815e-25,-1.8473699999999999e-25,-1.8481900000000001e-25,-4.31848e-29,-1.0433899999999999e-29,4.9636399999999998e-29
4797.0,1.38181e-28,-1.84815e-25,-1.84732e-25,-1.8482099999999999e-25,-4.3810600000000001e-29,-8.53104e-30,4.34748e-29
4798.0,1.35451e-28,-1.84824e-25,-1.8473799999999999e-25,-1.84833e-25,-4.5060100000000001e-29,-6.2721499999999998e-30,3.5901400000000003e-29
4799.0,1.3599999999999999e-28,-1.84823e-25,-1.84732e-25,-1.8483500000000001e-25,-4.6724100000000003e-29,-4.9173999999999999e-30,2.7928999999999999e-29
4800.0,1.37171e-28,-1.8483500000000001e-25,-1.8474e-25,-1.84848e-25,-4.8909299999999997e-29,-2.9183300000000001e-30,1.9792500000000001e-29
4801.0,1.3464700000000001e-28,-1.8482700000000001e-25,-1.8473400000000001e-25,-1.8484300000000001e-25,-4.9206100000000002e-29,-1.7825299999999999e-30,1.1406e-29
4802.0,1.4739e-28,-1.8485100000000001e-25,-1.8474200000000001e-25,-1.8486099999999999e-25,-5.3515499999999997e-29,4.1249699999999999e-32,3.7896400000000001e-30
4803.0,1.5188299999999999e-28,-1.8465100000000001e-25,-1.8467099999999999e-25,-1.8465299999999999e-25,-5.7880200000000003e-29,-1.79611e-29,6.2389600000000004e-29
4804.0,1.43159e-28,-1.8465900000000001e-25,-1.8467899999999999e-25,-1.84666e-25,-5.70742e-29,-1.8245500000000001e-29,5.602e-29
4805.0,1.45116e-28,-1.84641e-25,-1.8465000000000001e-25,-1.8465100000000001e-25,-6.3154099999999997e-29,-1.5905499999999999e-29,5.2395599999999995e-29
4806.0,1.3599699999999999e-28,-1.8465299999999999e-25,-1.84664e-25,-1.84674e-25,-6.5989299999999996e-29,-1.4492099999999999e-29,3.8698699999999999e-29
4807.0,1.4042299999999999e-28,-1.8463599999999999e-25,-1.84632e-25,-1.8465399999999999e-25,-7.1500699999999999e-29,-1.13386e-29,3.4504700000000001e-29
4808.0,1.3462900000000001e-28,-1.8465200000000001e-25,-1.84655e-25,-1.84682e-25,-7.3788800000000002e-29,-9.0909899999999998e-30,1.5279700000000001e-29
4809.0,1.3949600000000001e-28,-1.84638e-25,-1.84615e-25,-1.84657e-25,-7.6951999999999999e-29,-2.0750200000000001e-30,1.07265e-29
4810.0,1.4548199999999999e-28,-1.84691e-25,-1.84691e-25,-1.8469499999999999e-25,-5.5449499999999998e-29,-1.7093400000000001e-29,6.0675400000000001e-29
4811.0,1.3835500000000001e-28,-1.8467700000000001e-25,-1.8467500000000001e-25,-1.8468500000000001e-25,-5.6115399999999996e-29,-1.4836400000000001e-29,5.4638599999999998e-29
4812.0,1.3656799999999999e-28,-1.8468699999999999e-25,-1.8467700000000001e-25,-1.8470000000000001e-25,-6.0114699999999995e-29,-1.3922500000000001e-29,4.7790700000000002e-29
4813.0,1.32497e-28,-1.84672e-25,-1.8465900000000001e-25,-1.84689e-25,-6.3654100000000005e-29,-1.1364e-29,3.7940299999999999e-29
4814.0,1.3051299999999999e-28,-1.84688e-25,-1.8466999999999999e-25,-1.8471000000000001e-25,-6.64593e-29,-9.0736000000000003e-30,2.7899700000000002e-29
4815.0,1.34019e-28,-1.84672e-25,-1.8464399999999999e-25,-1.8469300000000001e-25,-7.1016000000000001e-29,-6.0186599999999997e-30,1.7266600000000001e-29
4816.0,1.29392e-28,-1.84691e-25,-1.8467799999999999e-25,-1.84722e-25,-7.0954600000000002e-29,-3.7701300000000003e-30,3.2442099999999999e-30
4817.0,1.4029299999999999e-28,-1.8471299999999999e-25,-1.8469599999999999e-25,-1.8471800000000001e-25,-5.3047200000000004e-29,-1.5084300000000001e-29,5.8265799999999996e-29
4818.0,1.3725699999999999e-28,-1.84716e-25,-1.8469300000000001e-25,-1.8472500000000001e-25,-5.5394800000000004e-29,-1.3282099999999999e-29,5.2606399999999994e-29
4819.0,1.30474e-28,-1.84706e-25,-1.84681e-25,-1.8471900000000001e-25,-5.7085199999999996e-29,-1.1124900000000001e-29,4.3652800000000002e-29
4820.0,1.3061099999999999e-28,-1.8471900000000001e-25,-1.8468599999999999e-25,-1.8473500000000001e-25,-6.0786099999999997e-29,-9.3712099999999998e-30,3.5752100000000003e-29
4821.0,1.2913899999999999e-28,-1.84706e-25,-1.8466999999999999e-25,-1.8472600000000001e-25,-6.3999899999999999e-29,-6.9259999999999999e-30,2.44277e-29
4822.0,1.2844400000000001e-28,-1.8472500000000001e-25,-1.8468699999999999e-25,-1.84748e-25,-6.5803499999999995e-29,-4.2097099999999997e-30,1.4595100000000001e-29
4823.0,1.37872e-28,-1.8471000000000001e-25,-1.8465900000000001e-25,-1.8472899999999999e-25,-7.0778899999999995e-29,-1.5336499999999999e-30,4.7954e-30
4824.0,1.39962e-28,-1.8474400000000001e-25,-1.8471000000000001e-25,-1.8475100000000001e-25,-5.2381800000000005e-29,-1.3455899999999999e-29,5.5870300000000001e-29
4825.0,1.3299700000000001e-28,-1.8473699999999999e-25,-1.84699e-25,-1.8474599999999999e-25,-5.2661399999999997e-29,-1.12962e-29,4.8708299999999999e-29
4826.0,1.3147900000000001e-28,-1.8474400000000001e-25,-1.8470100000000001e-25,-1.84757e-25,-5.5553399999999995e-29,-9.5680599999999996e-30,4.1360799999999999e-29
4827.0,1.28233e-28,-1.8473699999999999e-25,-1.8469e-25,-1.8475399999999999e-25,-5.7831099999999997e-29,-7.1306299999999995e-30,3.15046e-29
4828.0,1.3002800000000001e-28,-1.8475200000000001e-25,-1.84699e-25,-1.8476999999999999e-25,-6.10303e-29,-5.3691099999999998e-30,2.31081e-29
4829.0,1.31549e-28,-1.84739e-25,-1.8468400000000001e-25,-1.8476000000000001e-25,-6.3657100000000001e-29,-3.1370400000000001e-30,1.2505800000000001e-29
4830.0,1.3060000000000001e-28,-1.8476000000000001e-25,-1.8471000000000001e-25,-1.8478500000000001e-25,-6.4896499999999996e-29,-1.72821e-31,2.1939599999999998e-30
4831.0,1.3876000000000001e-28,-1.8476700000000001e-25,-1.8471700000000001e-25,-1.84773e-25,-5.0798100000000002e-29,-1.2129899999999999e-29,5.2539800000000001e-29
4832.0,1.3438800000000001e-28,-1.8476800000000001e-25,-1.84715e-25,-1.8477799999999999e-25,-5.1632100000000001e-29,-1.00471e-29,4.5952000000000002e-29
4833.0,1.31289e-28,-1.84765e-25,-1.84707e-25,-1.8477799999999999e-25,-5.3304199999999998e-29,-7.7704300000000001e-30,3.7925e-29
4834.0,1.31779e-28,-1.84775e-25,-1.8471299999999999e-25,-1.8479e-25,-5.6365999999999995e-29,-6.2362e-30,2.99485e-29
4835.0,1.3109799999999999e-28,-1.8476800000000001e-25,-1.8470299999999999e-25,-1.8478699999999999e-25,-5.8204399999999998e-29,-3.8914900000000001e-30,2.0312700000000001e-29
4836.0,1.34622e-28,-1.8478500000000001e-25,-1.84716e-25,-1.8480399999999999e-25,-6.13864e-29,-1.9963100000000002e-30,1.19183e-29
4837.0,1.36217e-28,-1.8477099999999999e-25,-1.8470100000000001e-25,-1.84791e-25,-6.2825399999999997e-29,-1.37143e-30,3.3222899999999997e-30
4838.0,1.4021400000000001e-28,-1.8479200000000001e-25,-1.8473e-25,-1.84799e-25,-4.99671e-29,-1.14253e-29,4.9963999999999998e-29
4839.0,1.3720499999999999e-28,-1.84789e-25,-1.84723e-25,-1.84799e-25,-5.0879699999999998e-29,-9.0727700000000003e-30,4.3671799999999998e-29
4840.0,1.3488799999999999e-28,-1.8479599999999999e-25,-1.8472600000000001e-25,-1.84807e-25,-5.2739900000000002e-29,-7.4721600000000006e-30,3.6198399999999998e-29
4841.0,1.3464500000000001e-28,-1.8479400000000001e-25,-1.8471999999999999e-25,-1.84808e-25,-5.4650100000000004e-29,-5.2197899999999998e-30,2.7836900000000001e-29
4842.0,1.36807e-28,-1.84805e-25,-1.8472799999999999e-25,-1.8482099999999999e-25,-5.7653499999999999e-29,-3.8530400000000002e-30,1.9923900000000001e-29
4843.0,1.3544800000000001e-28,-1.84797e-25,-1.8471900000000001e-25,-1.84816e-25,-5.8144400000000002e-29,-1.94366e-30,1.12056e-29
4844.0,1.4335100000000001e-28,-1.8481900000000001e-25,-1.84733e-25,-1.8483500000000001e-25,-6.2157099999999998e-29,1.25381e-30,2.4602600000000001e-30
4845.0,1.44106e-28,-1.8480900000000001e-25,-1.8473699999999999e-25,-1.8481700000000001e-25,-5.0262199999999999e-29,-1.1009800000000001e-29,4.8426600000000002e-29
4846.0,1.39695e-28,-1.84814e-25,-1.84739e-25,-1.84823e-25,-5.0583700000000001e-29,-9.1263099999999995e-30,4.2080100000000001e-29
4847.0,1.4040799999999999e-28,-1.84816e-25,-1.8473500000000001e-25,-1.8482700000000001e-25,-5.2592799999999995e-29,-7.3980099999999998e-30,3.5157200000000002e-29
4848.0,1.3988700000000001e-28,-1.84824e-25,-1.84741e-25,-1.8483799999999999e-25,-5.4709600000000001e-29,-5.6307700000000002e-30,2.7597000000000001e-29
4849.0,1.3992100000000001e-28,-1.8482099999999999e-25,-1.8473500000000001e-25,-1.8483699999999999e-25,-5.5951699999999995e-29,-3.7873999999999997e-30,1.94417e-29
4850.0,1.4491800000000001e-28,-1.8483500000000001e-25,-1.8474300000000001e-25,-1.8485e-25,-5.9296999999999995e-29,-2.11096e-30,1.1464200000000001e-29
4851.0,1.34932e-28,-1.8481999999999999e-25,-1.84739e-25,-1.84841e-25,-5.5844100000000001e-29,-1.28115e-30,3.2110099999999998e-30
4852.0,1.53088e-28,-1.8466199999999999e-25,-1.8469300000000001e-25,-1.8466899999999999e-25,-6.2015800000000004e-29,-2.06471e-29,5.7201000000000003e-29
4853.0,1.54521e-28,-1.84647e-25,-1.8467099999999999e-25,-1.84656e-25,-6.66684e-29,-1.7793700000000001e-29,5.5232500000000005e-29
4854.0,1.4931000000000001e-28,-1.8465399999999999e-25,-1.84683e-25,-1.84674e-25,-7.0853e-29,-1.7717399999999999e-29,4.32914e-29
4855.0,1.5125000000000001e-28,-1.8464e-25,-1.8466000000000001e-25,-1.8466000000000001e-25,-7.5330499999999995e-29,-1.47053e-29,3.9961199999999997e-29
4856.0,1.48649e-28,-1.8465100000000001e-25,-1.8467700000000001e-25,-1.84683e-25,-7.9676099999999999e-29,-1.2699400000000001e-29,2.4011399999999999e-29
4857.0,1.49806e-28,-1.8463699999999999e-25,-1.8465000000000001e-25,-1.84664e-25,-8.2832199999999999e-29,-7.4390000000000003e-30,1.9543299999999999e-29
4858.0,1.5251100000000001e-28,-1.8465200000000001e-25,-1.84682e-25,-1.8469200000000001e-25,-8.5354299999999995e-29,-5.8522400000000002e-30,1.32327e-30
4859.0,1.4880500000000001e-28,-1.84683e-25,-1.8469200000000001e-25,-1.8469e-25,-6.1622299999999995e-29,-1.73397e-29,5.7087500000000002e-29
4860.0,1.48072e-28,-1.8468699999999999e-25,-1.8469200000000001e-25,-1.8470000000000001e-25,-6.5298399999999998e-29,-1.6999700000000001e-29,5.2115200000000005e-29
4861.0,1.4427e-28,-1.8467600000000001e-25,-1.84681e-25,-1.8469300000000001e-25,-6.8689500000000001e-29,-1.4786300000000001e-29,4.38486e-29
4862.0,1.43242e-28,-1.8468599999999999e-25,-1.84688e-25,-1.8470900000000001e-25,-7.2566700000000004e-29,-1.2792999999999999e-29,3.5386499999999999e-29
4863.0,1.4355799999999999e-28,-1.84674e-25,-1.8467099999999999e-25,-1.84699e-25,-7.6741600000000004e-29,-1.0018e-29,2.5450600000000001e-29
4864.0,1.4264900000000001e-28,-1.84689e-25,-1.8469e-25,-1.8472099999999999e-25,-7.8786899999999995e-29,-6.7661800000000003e-30,1.4423699999999999e-29
4865.0,1.47539e-28,-1.8467600000000001e-25,-1.8466099999999999e-25,-1.8470100000000001e-25,-8.2598099999999999e-29,-1.7375599999999999e-30,4.7559899999999999e-30
4866.0,1.4741099999999999e-28,-1.8471700000000001e-25,-1.84705e-25,-1.8472600000000001e-25,-6.1056900000000004e-29,-1.6126200000000001e-29,5.6036400000000004e-29
4867.0,1.4186500000000001e-28,-1.8471000000000001e-25,-1.84698e-25,-1.84723e-25,-6.2581200000000005e-29,-1.4686399999999999e-29,4.9211999999999999e-29
4868.0,1.4112599999999999e-28,-1.8471700000000001e-25,-1.84699e-25,-1.84733e-25,-6.6394599999999997e-29,-1.27933e-29,4.2319699999999998e-29
4869.0,1.3927899999999999e-28,-1.84708e-25,-1.8469e-25,-1.8472899999999999e-25,-6.99846e-29,-1.0713e-29,3.2564199999999998e-29
4870.0,1.3902200000000001e-28,-1.8472099999999999e-25,-1.84699e-25,-1.8474499999999999e-25,-7.2814600000000004e-29,-7.8999700000000001e-30,2.3730799999999999e-29
4871.0,1.4166900000000001e-28,-1.8470900000000001e-25,-1.84682e-25,-1.8473400000000001e-25,-7.62575e-29,-5.2523299999999998e-30,1.3281299999999999e-29
4872.0,1.3938400000000001e-28,-1.8472600000000001e-25,-1.8471199999999999e-25,-1.8475900000000001e-25,-7.6726300000000004e-29,-2.3676999999999999e-30,2.5270300000000001e-30
4873.0,1.43499e-28,-1.84741e-25,-1.8471299999999999e-25,-1.8475e-25,-5.8699699999999999e-29,-1.4633099999999999e-29,5.3099499999999997e-29
4874.0,1.4148800000000001e-28,-1.8474400000000001e-25,-1.8471199999999999e-25,-1.84756e-25,-6.1246299999999995e-29,-1.2869899999999999e-29,4.7353799999999998e-29
4875.0,1.38472e-28,-1.84739e-25,-1.84706e-25,-1.84756e-25,-6.3867499999999997e-29,-1.0911800000000001e-29,3.9344799999999998e-29
4876.0,1.3832100000000001e-28,-1.84748e-25,-1.8471099999999999e-25,-1.8476700000000001e-25,-6.7127899999999997e-29,-8.8868399999999996e-30,3.1133900000000003e-29
4877.0,1.3846299999999999e-28,-1.84741e-25,-1.8470100000000001e-25,-1.8476299999999999e-25,-6.9979900000000004e-29,-6.4874300000000005e-30,2.1253899999999999e-29
4878.0,1.3911499999999999e-28,-1.84756e-25,-1.84716e-25,-1.8478e-25,-7.2203499999999996e-29,-3.6186800000000001e-30,1.2418199999999999e-29
4879.0,1.4509500000000001e-28,-1.8474300000000001e-25,-1.8469399999999999e-25,-1.84765e-25,-7.5329900000000001e-29,-1.24021e-30,3.5012100000000001e-30
4880.0,1.4372099999999999e-28,-1.8476900000000001e-25,-1.8472500000000001e-25,-1.8477799999999999e-25,-5.7519099999999999e-29,-1.3158100000000001e-29,5.0840199999999996e-29
4881.0,1.4058399999999999e-28,-1.84766e-25,-1.8471999999999999e-25,-1.8477899999999999e-25,-5.9054099999999999e-29,-1.15157e-29,4.4874099999999998e-29
4882.0,1.3907000000000001e-28,-1.84772e-25,-1.84722e-25,-1.8478599999999999e-25,-6.1777499999999997e-29,-9.7332199999999994e-30,3.7250799999999998e-29
4883.0,1.3829000000000001e-28,-1.8476900000000001e-25,-1.84716e-25,-1.8478699999999999e-25,-6.4241799999999996e-29,-7.2900000000000003e-30,2.8780799999999998e-29
4884.0,1.3998399999999999e-28,-1.8478e-25,-1.84724e-25,-1.848e-25,-6.7315899999999997e-29,-5.3347399999999997e-30,2.0600899999999999e-29
4885.0,1.40871e-28,-1.8477099999999999e-25,-1.8471299999999999e-25,-1.8479300000000001e-25,-6.8963199999999997e-29,-3.2204900000000002e-30,1.1397699999999999e-29
4886.0,1.4140800000000001e-28,-1.8478799999999999e-25,-1.8473400000000001e-25,-1.8481299999999999e-25,-7.0979300000000004e-29,1.70535e-31,2.3334499999999999e-30
4887.0,1.4446999999999999e-28,-1.8479e-25,-1.84733e-25,-1.84799e-25,-5.6026899999999995e-29,-1.2193400000000001e-29,4.8622699999999998e-29
4888.0,1.41429e-28,-1.8479300000000001e-25,-1.84733e-25,-1.8480399999999999e-25,-5.7392400000000003e-29,-1.0606100000000001e-29,4.2436399999999997e-29
4889.0,1.41105e-28,-1.8479300000000001e-25,-1.8472899999999999e-25,-1.84807e-25,-5.9768799999999995e-29,-8.3638200000000004e-30,3.5790399999999998e-29
4890.0,1.41332e-28,-1.8480100000000001e-25,-1.8473400000000001e-25,-1.84816e-25,-6.25624e-29,-7.0076500000000002e-30,2.7954499999999998e-29
4891.0,1.41214e-28,-1.84797e-25,-1.8472799999999999e-25,-1.84816e-25,-6.40821e-29,-4.38751e-30,1.94716e-29
4892.0,1.4422599999999999e-28,-1.8481000000000001e-25,-1.8473799999999999e-25,-1.8482799999999999e-25,-6.7171000000000001e-29,-2.6013700000000001e-30,1.17062e-29
4893.0,1.4321700000000001e-28,-1.84798e-25,-1.8472600000000001e-25,-1.8481800000000001e-25,-6.6742600000000001e-29,-2.21826e-30,3.7215000000000002e-30
4894.0,1.45268e-28,-1.84808e-25,-1.84741e-25,-1.8481700000000001e-25,-5.4985100000000004e-29,-1.1051e-29,4.6626199999999998e-29
4895.0,1.4618e-28,-1.8481099999999999e-25,-1.8474e-25,-1.8482099999999999e-25,-5.72064e-29,-1.03438e-29,4.2412599999999999e-29
4896.0,1.4325200000000001e-28,-1.84816e-25,-1.8474300000000001e-25,-1.8482799999999999e-25,-5.8607299999999998e-29,-8.5403400000000004e-30,3.4798399999999998e-29
4897.0,1.44057e-28,-1.84816e-25,-1.84739e-25,-1.84831e-25,-6.05801e-29,-6.16203e-30,2.7387300000000001e-29
4898.0,1.4573099999999999e-28,-1.84825e-25,-1.8474499999999999e-25,-1.84841e-25,-6.3383099999999996e-29,-5.0345299999999999e-30,1.9829399999999999e-29
4899.0,1.42475e-28,-1.8481800000000001e-25,-1.84739e-25,-1.8483699999999999e-25,-6.2494499999999999e-29,-2.7496000000000001e-30,1.1611099999999999e-29
4900.0,1.51371e-28,-1.8483799999999999e-25,-1.8475e-25,-1.8485200000000001e-25,-6.7620999999999999e-29,7.0229599999999996e-31,3.4033700000000002e-30
4901.0,1.3569100000000001e-28,-1.8487600000000001e-25,-1.8474499999999999e-25,-1.8487799999999999e-25,-1.5915900000000001e-29,8.3908900000000006e-31,1.62066e-30
4902.0,1.5443700000000001e-28,-1.8491999999999999e-25,-1.8476900000000001e-25,-1.84916e-25,-2.3491699999999999e-29,-2.9070900000000001e-30,6.4822400000000004e-30
4903.0,1.4266400000000001e-28,-1.84883e-25,-1.84748e-25,-1.8488500000000001e-25,-1.89936e-29,-3.0070700000000002e-30,1.4177500000000001e-29
4904.0,1.51663e-28,-1.8491000000000001e-25,-1.8476199999999999e-25,-1.84905e-25,-2.0063200000000001e-29,-4.3993600000000002e-30,1.2713499999999999e-29
4905.0,1.3406100000000001e-28,-1.8486900000000001e-25,-1.8474200000000001e-25,-1.84866e-25,-1.6260699999999999e-29,-3.7765700000000001e-30,2.1173e-29
4906.0,1.5642299999999999e-28,-1.84915e-25,-1.8476900000000001e-25,-1.8491099999999999e-25,-2.3279100000000001e-29,-6.6422899999999998e-30,2.5350300000000001e-29
4907.0,1.47305e-28,-1.8487600000000001e-25,-1.8474499999999999e-25,-1.8487899999999999e-25,-1.87483e-29,-6.1665999999999999e-30,3.2496200000000002e-29
4908.0,1.5276599999999999e-28,-1.8489499999999999e-25,-1.84757e-25,-1.8489e-25,-2.0626400000000001e-29,-8.4890099999999997e-30,3.3711699999999997e-29
4909.0,1.33673e-28,-1.8485399999999999e-25,-1.84739e-25,-1.8484599999999999e-25,-1.65127e-29,-7.7859800000000003e-30,3.8229500000000002e-29
4910.0,1.5976000000000001e-28,-1.84898e-25,-1.8476199999999999e-25,-1.84897e-25,-2.2971400000000001e-29,-1.11991e-29,4.2134800000000001e-29
4911.0,1.54308e-28,-1.84858e-25,-1.8473699999999999e-25,-1.8485900000000001e-25,-1.80981e-29,-9.8955199999999999e-30,5.1180499999999997e-29
4912.0,1.51582e-28,-1.8486900000000001e-25,-1.8475e-25,-1.8486099999999999e-25,-2.01958e-29,-1.1993999999999999e-29,5.1545500000000001e-29
4913.0,1.3448300000000001e-28,-1.8483500000000001e-25,-1.8473400000000001e-25,-1.84825e-25,-1.65189e-29,-1.2384000000000001e-29,4.9936799999999999e-29
4914.0,1.65187e-28,-1.8486099999999999e-25,-1.8474e-25,-1.84865e-25,-2.1293699999999999e-29,-1.51229e-29,5.7888700000000003e-29
4915.0,1.44057e-28,-1.8488699999999999e-25,-1.8475299999999999e-25,-1.8489e-25,-2.7368100000000002e-29,-1.5218999999999999e-30,4.9913400000000001e-30
4916.0,1.5202000000000001e-28,-1.8491299999999999e-25,-1.8476800000000001e-25,-1.8491099999999999e-25,-2.7618200000000002e-29,-2.2793100000000001e-30,3.0012000000000001e-30
4917.0,1.3689399999999999e-28,-1.84872e-25,-1.84747e-25,-1.8487700000000001e-25,-2.51237e-29,-2.1406699999999999e-30,1.20173e-29
4918.0,1.5549199999999999e-28,-1.8491900000000001e-25,-1.84775e-25,-1.8491800000000001e-25,-3.0422800000000003e-29,-4.71033e-30,1.5871599999999999e-29
4919.0,1.4261500000000001e-28,-1.8487899999999999e-25,-1.8475200000000001e-25,-1.84883e-25,-2.6071200000000002e-29,-3.7771e-30,2.26756e-29
4920.0,1.5451600000000001e-28,-1.84906e-25,-1.84766e-25,-1.84905e-25,-2.9196099999999998e-29,-6.9024099999999996e-30,2.4249200000000001e-29
4921.0,1.38603e-28,-1.8486299999999999e-25,-1.8474400000000001e-25,-1.84864e-25,-2.5081900000000001e-29,-6.0298399999999999e-30,3.0668800000000001e-29
4922.0,1.5740099999999999e-28,-1.84908e-25,-1.84772e-25,-1.84907e-25,-2.9793799999999998e-29,-9.06243e-30,3.4065599999999998e-29
4923.0,1.4431500000000001e-28,-1.84866e-25,-1.84748e-25,-1.8486700000000001e-25,-2.4805699999999999e-29,-7.4730700000000003e-30,3.9965899999999999e-29
4924.0,1.5681900000000001e-28,-1.84889e-25,-1.8476099999999999e-25,-1.8488699999999999e-25,-2.9365e-29,-1.1225600000000001e-29,4.3188400000000002e-29
4925.0,1.4107e-28,-1.84847e-25,-1.84739e-25,-1.8484300000000001e-25,-2.44679e-29,-9.7998200000000002e-30,4.6787200000000001e-29
4926.0,1.5939e-28,-1.8488400000000001e-25,-1.8476199999999999e-25,-1.8488400000000001e-25,-2.8742900000000001e-29,-1.3242499999999999e-29,5.0278400000000002e-29
4927.0,1.4886e-28,-1.8484300000000001e-25,-1.8473799999999999e-25,-1.8484200000000001e-25,-2.41904e-29,-1.1569e-29,5.4841000000000004e-29
4928.0,1.5682200000000001e-28,-1.8485900000000001e-25,-1.8475100000000001e-25,-1.84856e-25,-2.8446100000000002e-29,-1.5209100000000001e-29,5.7895200000000005e-29
4929.0,1.3697899999999999e-28,-1.8486999999999999e-25,-1.8475200000000001e-25,-1.8488e-25,-3.3952100000000002e-29,-6.6514900000000004e-32,2.44728e-30
4930.0,1.5567299999999999e-28,-1.8491999999999999e-25,-1.8477899999999999e-25,-1.8491999999999999e-25,-3.7491000000000001e-29,-3.0959200000000001e-30,6.6959899999999998e-30
4931.0,1.44122e-28,-1.84882e-25,-1.84756e-25,-1.8488799999999999e-25,-3.5133100000000001e-29,-2.1336e-30,1.3304899999999999e-29
4932.0,1.5371700000000001e-28,-1.84907e-25,-1.8476999999999999e-25,-1.84908e-25,-3.67615e-29,-4.9803299999999999e-30,1.4674999999999999e-29
4933.0,1.4018000000000001e-28,-1.8486700000000001e-25,-1.84749e-25,-1.84873e-25,-3.3869500000000003e-29,-4.40243e-30,2.1750399999999999e-29
4934.0,1.56551e-28,-1.8491199999999999e-25,-1.8477799999999999e-25,-1.84914e-25,-3.7359500000000003e-29,-7.1141499999999997e-30,2.49616e-29
4935.0,1.4268999999999999e-28,-1.8487099999999999e-25,-1.8475399999999999e-25,-1.84875e-25,-3.31775e-29,-5.4734899999999998e-30,3.0627200000000001e-29
4936.0,1.57297e-28,-1.84898e-25,-1.8476999999999999e-25,-1.849e-25,-3.7458500000000001e-29,-9.72453e-30,3.4386800000000002e-29
4937.0,1.4243299999999999e-28,-1.84855e-25,-1.8474599999999999e-25,-1.84858e-25,-3.2748500000000001e-29,-8.1939600000000007e-30,3.8915199999999999e-29
4938.0,1.5887900000000001e-28,-1.84897e-25,-1.84773e-25,-1.84898e-25,-3.6621099999999998e-29,-1.14384e-29,4.2479100000000003e-29
4939.0,1.44465e-28,-1.8485299999999999e-25,-1.84748e-25,-1.8485399999999999e-25,-3.1704999999999999e-29,-9.5008499999999993e-30,4.6564699999999999e-29
4940.0,1.59556e-28,-1.8487799999999999e-25,-1.84764e-25,-1.8487799999999999e-25,-3.68196e-29,-1.4321699999999999e-29,5.08896e-29
4941.0,1.45198e-28,-1.8483799999999999e-25,-1.84741e-25,-1.8483699999999999e-25,-3.1674699999999998e-29,-1.16933e-29,5.2910900000000002e-29
4942.0,1.6088299999999999e-28,-1.84866e-25,-1.8475900000000001e-25,-1.8486700000000001e-25,-3.5933800000000002e-29,-1.5274600000000001e-29,5.7240300000000003e-29
4943.0,1.4984800000000001e-28,-1.8488400000000001e-25,-1.8475900000000001e-25,-1.8489e-25,-4.4288999999999999e-29,-1.50385e-30,5.1238600000000003e-30
4944.0,1.5095800000000001e-28,-1.84897e-25,-1.8476999999999999e-25,-1.8490200000000001e-25,-4.41387e-29,-2.4858300000000002e-30,4.3918500000000001e-30
4945.0,1.4089e-28,-1.8486299999999999e-25,-1.8475100000000001e-25,-1.84874e-25,-4.2484299999999998e-29,-2.7228999999999999e-30,1.25866e-29
4946.0,1.55012e-28,-1.8490900000000001e-25,-1.8477899999999999e-25,-1.8491299999999999e-25,-4.4406199999999997e-29,-5.2638999999999998e-30,1.55996e-29
4947.0,1.43925e-28,-1.8487099999999999e-25,-1.84757e-25,-1.8487899999999999e-25,-4.2241500000000003e-29,-3.8987100000000001e-30,2.1425399999999999e-29
4948.0,1.5575399999999999e-28,-1.84898e-25,-1.84773e-25,-1.8490200000000001e-25,-4.4897900000000003e-29,-7.7742099999999997e-30,2.5146999999999999e-29
4949.0,1.43669e-28,-1.84858e-25,-1.8475e-25,-1.84866e-25,-4.1498900000000001e-29,-6.5456600000000005e-30,3.0260999999999997e-29
4950.0,1.5774399999999999e-28,-1.849e-25,-1.8477799999999999e-25,-1.8490299999999999e-25,-4.4302599999999998e-29,-9.5840600000000001e-30,3.3662299999999999e-29
4951.0,1.43653e-28,-1.84858e-25,-1.8475399999999999e-25,-1.8486299999999999e-25,-3.9922400000000002e-29,-7.5966800000000005e-30,3.7908100000000002e-29
4952.0,1.5954299999999999e-28,-1.8488699999999999e-25,-1.84772e-25,-1.8489e-25,-4.4573500000000001e-29,-1.2577e-29,4.2635299999999998e-29
4953.0,1.4577699999999999e-28,-1.8484499999999999e-25,-1.84747e-25,-1.84848e-25,-3.9626500000000001e-29,-1.05281e-29,4.5893399999999998e-29
4954.0,1.6056100000000001e-28,-1.8488e-25,-1.84772e-25,-1.84882e-25,-4.35785e-29,-1.3717100000000001e-29,4.9917200000000002e-29
4955.0,1.4681000000000001e-28,-1.84839e-25,-1.84747e-25,-1.84841e-25,-3.8747599999999998e-29,-1.15035e-29,5.1678299999999995e-29
4956.0,1.6166399999999999e-28,-1.8486199999999999e-25,-1.8476299999999999e-25,-1.84865e-25,-4.3445699999999999e-29,-1.6698800000000001e-29,5.6670099999999999e-29
4957.0,1.37657e-28,-1.8485299999999999e-25,-1.84755e-25,-1.8486999999999999e-25,-4.9412400000000003e-29,-5.1557799999999999e-31,3.2443799999999999e-30
4958.0,1.54554e-28,-1.8490299999999999e-25,-1.8477799999999999e-25,-1.84906e-25,-5.0334300000000002e-29,-4.1897399999999998e-30,7.37279e-30
4959.0,1.4752800000000001e-28,-1.8486900000000001e-25,-1.8475900000000001e-25,-1.8487899999999999e-25,-5.1303499999999997e-29,-2.6217500000000001e-30,1.27409e-29
4960.0,1.5239700000000001e-28,-1.8488699999999999e-25,-1.8477099999999999e-25,-1.8489400000000001e-25,-5.2039800000000003e-29,-5.4603999999999998e-30,1.5450199999999999e-29
4961.0,1.44632e-28,-1.84855e-25,-1.8475200000000001e-25,-1.84866e-25,-4.9978200000000003e-29,-5.0303499999999998e-30,2.1411099999999999e-29
4962.0,1.5555799999999999e-28,-1.8489400000000001e-25,-1.8477799999999999e-25,-1.8490100000000001e-25,-5.1523400000000002e-29,-7.7444700000000006e-30,2.4374000000000001e-29
4963.0,1.45039e-28,-1.84858e-25,-1.84757e-25,-1.8486800000000001e-25,-4.8673499999999998e-29,-6.09442e-30,2.9214499999999999e-29
4964.0,1.5773300000000001e-28,-1.8488500000000001e-25,-1.84774e-25,-1.84891e-25,-5.1964100000000004e-29,-1.07654e-29,3.3820599999999998e-29
4965.0,1.46377e-28,-1.84847e-25,-1.8475100000000001e-25,-1.84855e-25,-4.7867699999999997e-29,-8.83859e-30,3.7507199999999998e-29
4966.0,1.5961200000000001e-28,-1.84883e-25,-1.8477700000000001e-25,-1.84889e-25,-5.11887e-29,-1.19553e-29,4.1506400000000002e-29
4967.0,1.4627400000000001e-28,-1.8484400000000001e-25,-1.8475299999999999e-25,-1.84849e-25,-4.6202899999999999e-29,-9.7234599999999995e-30,4.4352799999999999e-29
4968.0,1.6153299999999999e-28,-1.8487099999999999e-25,-1.84772e-25,-1.8487600000000001e-25,-5.0939800000000001e-29,-1.53073e-29,4.9179999999999998e-29
4969.0,1.4878e-28,-1.84833e-25,-1.84748e-25,-1.8483799999999999e-25,-4.5794199999999997e-29,-1.26708e-29,5.0759199999999995e-29
4970.0,1.6269399999999999e-28,-1.8486000000000001e-25,-1.8476800000000001e-25,-1.84864e-25,-5.0476700000000002e-29,-1.59591e-29,5.5514200000000001e-29
4971.0,1.5651000000000001e-28,-1.8486700000000001e-25,-1.84757e-25,-1.84875e-25,-6.14929e-29,-2.0365200000000001e-30,5.0982400000000001e-30
4972.0,1.45838e-28,-1.84865e-25,-1.8476800000000001e-25,-1.8487899999999999e-25,-5.8648799999999997e-29,-2.0587400000000001e-30,5.2419199999999998e-30
4973.0,1.4396900000000001e-28,-1.8484499999999999e-25,-1.8475299999999999e-25,-1.8486099999999999e-25,-5.7356700000000005e-29,-3.3883899999999997e-30,1.2686399999999999e-29
4974.0,1.5318999999999999e-28,-1.8488400000000001e-25,-1.84775e-25,-1.84891e-25,-5.7679800000000005e-29,-5.9258800000000003e-30,1.5290899999999999e-29
4975.0,1.4715500000000001e-28,-1.8485299999999999e-25,-1.84758e-25,-1.84866e-25,-5.7089599999999995e-29,-5.0631400000000002e-30,2.0797199999999999e-29
4976.0,1.5454799999999999e-28,-1.84874e-25,-1.84772e-25,-1.8488400000000001e-25,-5.8759500000000004e-29,-8.7326099999999998e-30,2.48291e-29
4977.0,1.47848e-28,-1.8484400000000001e-25,-1.8475299999999999e-25,-1.84856e-25,-5.6203500000000005e-29,-7.60065e-30,2.9296e-29
4978.0,1.5724099999999999e-28,-1.8487700000000001e-25,-1.8477700000000001e-25,-1.8488599999999999e-25,-5.82257e-29,-1.01666e-29,3.2672399999999997e-29
4979.0,1.4731299999999999e-28,-1.8484300000000001e-25,-1.84756e-25,-1.8485399999999999e-25,-5.4234999999999996e-29,-8.4683e-30,3.6374399999999998e-29
4980.0,1.6000400000000001e-28,-1.8486999999999999e-25,-1.84775e-25,-1.8487799999999999e-25,-5.79414e-29,-1.35005e-29,4.1113e-29
4981.0,1.494e-28,-1.8483599999999999e-25,-1.8475200000000001e-25,-1.8484400000000001e-25,-5.3184700000000005e-29,-1.1258099999999999e-29,4.3640599999999999e-29
4982.0,1.61904e-28,-1.84865e-25,-1.84775e-25,-1.84872e-25,-5.7259200000000004e-29,-1.4153299999999999e-29,4.8134300000000002e-29
4983.0,1.4895200000000001e-28,-1.8483e-25,-1.8475200000000001e-25,-1.8483599999999999e-25,-5.15637e-29,-1.18037e-29,4.8886499999999997e-29
4984.0,1.6336800000000001e-28,-1.8485399999999999e-25,-1.8476999999999999e-25,-1.8486000000000001e-25,-5.6352200000000005e-29,-1.72936e-29,5.4058200000000005e-29
4985.0,1.3664000000000001e-28,-1.8483400000000001e-25,-1.84757e-25,-1.84856e-25,-5.9504500000000002e-29,-1.9730100000000001e-30,3.8784200000000001e-30
4986.0,1.5672200000000001e-28,-1.8486999999999999e-25,-1.8476299999999999e-25,-1.84875e-25,-6.4294699999999995e-29,-4.9818699999999998e-30,7.1137600000000006e-30
4987.0,1.5156400000000001e-28,-1.84847e-25,-1.84756e-25,-1.8486099999999999e-25,-6.4807600000000002e-29,-3.9117500000000003e-30,1.26153e-29
4988.0,1.49382e-28,-1.84855e-25,-1.8476900000000001e-25,-1.8486999999999999e-25,-6.4767100000000001e-29,-6.1620200000000001e-30,1.5657800000000001e-29
4989.0,1.4823300000000001e-28,-1.8483799999999999e-25,-1.8475399999999999e-25,-1.8485299999999999e-25,-6.2984099999999995e-29,-5.8505600000000003e-30,2.1156699999999999e-29
4990.0,1.5505700000000001e-28,-1.8486299999999999e-25,-1.84772e-25,-1.84874e-25,-6.4793399999999997e-29,-8.1804799999999995e-30,2.4238e-29
4991.0,1.49183e-28,-1.84839e-25,-1.84756e-25,-1.8485299999999999e-25,-6.1493800000000003e-29,-7.4341199999999997e-30,2.8803900000000002e-29
4992.0,1.57398e-28,-1.8485900000000001e-25,-1.84772e-25,-1.8487099999999999e-25,-6.4622000000000003e-29,-1.16573e-29,3.2728200000000003e-29
4993.0,1.5062799999999999e-28,-1.84833e-25,-1.8475399999999999e-25,-1.8484599999999999e-25,-6.0284199999999998e-29,-1.02361e-29,3.62903e-29
4994.0,1.60405e-28,-1.84857e-25,-1.84774e-25,-1.8486800000000001e-25,-6.3969399999999996e-29,-1.26663e-29,4.0725999999999999e-29
4995.0,1.4941799999999999e-28,-1.8482899999999999e-25,-1.8475399999999999e-25,-1.8484e-25,-5.7783900000000003e-29,-1.0625499999999999e-29,4.2504000000000001e-29
4996.0,1.6246900000000001e-28,-1.8485299999999999e-25,-1.84773e-25,-1.8486199999999999e-25,-6.2746599999999996e-29,-1.57762e-29,4.7053900000000002e-29
4997.0,1.5100499999999999e-28,-1.84823e-25,-1.8475100000000001e-25,-1.84832e-25,-5.6384899999999996e-29,-1.3692399999999999e-29,4.7710400000000003e-29
4998.0,1.62913e-28,-1.84847e-25,-1.84773e-25,-1.8485399999999999e-25,-6.15203e-29,-1.63927e-29,5.26497e-29
4999.0,1.69369e-28,-1.84665e-25,-1.8470299999999999e-25,-1.8467500000000001e-25,-7.5868300000000006e-29,-1.8918500000000001e-29,5.5217300000000001e-29
5000.0,1.708e-28,-1.84657e-25,-1.8469499999999999e-25,-1.84666e-25,-7.8256700000000004e-29,-1.7715699999999999e-29,5.37665e-29
5001.0,1.6914299999999999e-28,-1.8466000000000001e-25,-1.84706e-25,-1.84682e-25,-8.4667799999999996e-29,-1.3828599999999999e-29,4.0523099999999998e-29
5002.0,1.7040400000000001e-28,-1.84647e-25,-1.8469599999999999e-25,-1.84674e-25,-8.7126400000000001e-29,-1.11218e-29,3.6831499999999999e-29
5003.0,1.6919099999999999e-28,-1.84658e-25,-1.84714e-25,-1.8469300000000001e-25,-9.0400999999999995e-29,-7.9057499999999998e-30,2.26263e-29
5004.0,1.69494e-28,-1.8464399999999999e-25,-1.8470200000000001e-25,-1.84683e-25,-9.1638799999999997e-29,-2.4167300000000001e-30,1.7164099999999999e-29
5005.0,1.6971399999999999e-28,-1.84664e-25,-1.8472899999999999e-25,-1.84708e-25,-9.20722e-29,-1.41621e-30,2.9365899999999998e-30
5006.0,1.6228900000000001e-28,-1.84658e-25,-1.8468699999999999e-25,-1.8466099999999999e-25,-6.7192199999999996e-29,-1.95406e-29,6.0203199999999997e-29
5007.0,1.59931e-28,-1.84658e-25,-1.84697e-25,-1.8467500000000001e-25,-7.4223700000000004e-29,-1.88637e-29,4.7842500000000002e-29
5008.0,1.6132199999999999e-28,-1.8464599999999999e-25,-1.84682e-25,-1.84664e-25,-7.7123e-29,-1.6525900000000001e-29,4.6239899999999998e-29
5009.0,1.59779e-28,-1.8465399999999999e-25,-1.8469599999999999e-25,-1.8468400000000001e-25,-8.2619999999999996e-29,-1.4612200000000001e-29,3.17034e-29
5010.0,1.60532e-28,-1.84641e-25,-1.8467899999999999e-25,-1.8466999999999999e-25,-8.5453300000000005e-29,-1.0679600000000001e-29,2.7695600000000001e-29
5011.0,1.6140399999999999e-28,-1.84655e-25,-1.8470000000000001e-25,-1.8469399999999999e-25,-8.8672000000000004e-29,-8.0726299999999994e-30,1.19864e-29
5012.0,1.6011700000000001e-28,-1.84639e-25,-1.8467500000000001e-25,-1.84674e-25,-8.9952399999999999e-29,-3.9790899999999997e-31,6.5848100000000002e-30
5013.0,1.6821800000000001e-28,-1.84699e-25,-1.8471299999999999e-25,-1.84705e-25,-7.4452099999999997e-29,-1.9179199999999999e-29,5.8936400000000001e-29
5014.0,1.6697700000000001e-28,-1.84698e-25,-1.8471700000000001e-25,-1.8471199999999999e-25,-7.9363899999999999e-29,-1.6461599999999999e-29,5.1323000000000004e-29
5015.0,1.6827e-28,-1.8469e-25,-1.8471099999999999e-25,-1.8471000000000001e-25,-8.4397700000000001e-29,-1.44147e-29,4.4381699999999997e-29
5016.0,1.65477e-28,-1.8469499999999999e-25,-1.8472099999999999e-25,-1.84722e-25,-8.69685e-29,-1.0784300000000001e-29,3.4877099999999999e-29
5017.0,1.66033e-28,-1.8468599999999999e-25,-1.8471299999999999e-25,-1.8471700000000001e-25,-9.0436899999999995e-29,-7.7531900000000006e-30,2.5739000000000002e-29
5018.0,1.6319999999999999e-28,-1.84699e-25,-1.84731e-25,-1.8473599999999999e-25,-9.0607599999999998e-29,-4.1027500000000001e-30,1.5537600000000001e-29
5019.0,1.65723e-28,-1.84682e-25,-1.8471299999999999e-25,-1.8471900000000001e-25,-9.3406100000000001e-29,1.52176e-30,5.5965600000000001e-30
5020.0,1.57121e-28,-1.8469200000000001e-25,-1.8470399999999999e-25,-1.8470200000000001e-25,-6.8133700000000004e-29,-1.8590899999999999e-29,5.6551099999999995e-29
5021.0,1.56302e-28,-1.8468400000000001e-25,-1.84699e-25,-1.84698e-25,-7.2266200000000001e-29,-1.7482300000000001e-29,5.0485800000000002e-29
5022.0,1.5428900000000001e-28,-1.84689e-25,-1.8470399999999999e-25,-1.8471000000000001e-25,-7.6048800000000004e-29,-1.51332e-29,4.2536000000000002e-29
5023.0,1.54687e-28,-1.8467899999999999e-25,-1.8469399999999999e-25,-1.8470399999999999e-25,-8.0567799999999998e-29,-1.3254199999999999e-29,3.3956699999999997e-29
5024.0,1.53055e-28,-1.8469e-25,-1.84707e-25,-1.8472099999999999e-25,-8.3064000000000003e-29,-9.7276400000000003e-30,2.3955200000000001e-29
5025.0,1.5454e-28,-1.8467799999999999e-25,-1.84689e-25,-1.84708e-25,-8.6468700000000005e-29,-6.00113e-30,1.4353299999999999e-29
5026.0,1.5337400000000001e-28,-1.8469499999999999e-25,-1.8471900000000001e-25,-1.8473400000000001e-25,-8.6176700000000002e-29,-3.1841799999999998e-30,3.2602600000000002e-30
5027.0,1.6668100000000001e-28,-1.8473400000000001e-25,-1.8472799999999999e-25,-1.8474200000000001e-25,-7.3975699999999997e-29,-1.8680699999999999e-29,5.8228199999999996e-29
5028.0,1.6762800000000001e-28,-1.8473e-25,-1.8472700000000001e-25,-1.8474300000000001e-25,-7.9225699999999996e-29,-1.6618299999999999e-29,5.2309500000000005e-29
5029.0,1.64909e-28,-1.84732e-25,-1.84732e-25,-1.8475100000000001e-25,-8.2578999999999996e-29,-1.3994600000000001e-29,4.3834799999999998e-29
5030.0,1.6485100000000001e-28,-1.8472600000000001e-25,-1.8472700000000001e-25,-1.8475e-25,-8.6595100000000004e-29,-1.14443e-29,3.53182e-29
5031.0,1.61282e-28,-1.84733e-25,-1.8473799999999999e-25,-1.8476299999999999e-25,-8.7707699999999996e-29,-7.5109199999999999e-30,2.5774200000000001e-29
5032.0,1.6233e-28,-1.84722e-25,-1.8472700000000001e-25,-1.8475399999999999e-25,-9.0681200000000005e-29,-4.5241599999999997e-30,1.5895199999999999e-29
5033.0,1.53938e-28,-1.8473799999999999e-25,-1.8475e-25,-1.84774e-25,-8.6701600000000003e-29,-1.52377e-30,5.9983199999999998e-30
5034.0,1.5430199999999999e-28,-1.8471999999999999e-25,-1.8471299999999999e-25,-1.8472899999999999e-25,-6.7004699999999996e-29,-1.74283e-29,5.5426999999999996e-29
5035.0,1.5210300000000001e-28,-1.8472099999999999e-25,-1.84714e-25,-1.8473500000000001e-25,-7.0256500000000001e-29,-1.54962e-29,4.91762e-29
5036.0,1.51604e-28,-1.84715e-25,-1.8470900000000001e-25,-1.8473500000000001e-25,-7.4586499999999997e-29,-1.4179500000000001e-29,4.1433099999999998e-29
5037.0,1.4938799999999999e-28,-1.84722e-25,-1.84715e-25,-1.8474599999999999e-25,-7.7399099999999998e-29,-1.10888e-29,3.26692e-29
5038.0,1.50592e-28,-1.84714e-25,-1.84705e-25,-1.84741e-25,-8.1270099999999996e-29,-8.8865700000000001e-30,2.30687e-29
5039.0,1.4850299999999999e-28,-1.8472799999999999e-25,-1.84722e-25,-1.8475900000000001e-25,-8.2185600000000005e-29,-4.9859700000000001e-30,1.3309499999999999e-29
5040.0,1.54331e-28,-1.84714e-25,-1.84698e-25,-1.84741e-25,-8.6321700000000005e-29,-7.6004300000000001e-31,3.9478300000000003e-30
5041.0,1.6683899999999999e-28,-1.8476299999999999e-25,-1.8474e-25,-1.84773e-25,-7.2534799999999998e-29,-1.8268099999999999e-29,5.8234999999999996e-29
5042.0,1.65184e-28,-1.84765e-25,-1.8474300000000001e-25,-1.8477799999999999e-25,-7.7014399999999997e-29,-1.65289e-29,5.0730099999999995e-29
5043.0,1.6458799999999999e-28,-1.8476199999999999e-25,-1.84741e-25,-1.8478e-25,-8.0898100000000002e-29,-1.4042700000000001e-29,4.3725399999999998e-29
5044.0,1.6159999999999999e-28,-1.84766e-25,-1.84747e-25,-1.84789e-25,-8.3345499999999998e-29,-1.10273e-29,3.4606100000000001e-29
5045.0,1.6078700000000001e-28,-1.8475900000000001e-25,-1.8474e-25,-1.8478500000000001e-25,-8.5909299999999995e-29,-8.6857999999999998e-30,2.5781700000000001e-29
5046.0,1.54116e-28,-1.8476800000000001e-25,-1.8475200000000001e-25,-1.84797e-25,-8.4398999999999997e-29,-4.8177599999999998e-30,1.5960100000000001e-29
5047.0,1.6127800000000001e-28,-1.8475399999999999e-25,-1.84733e-25,-1.84781e-25,-8.9726099999999998e-29,-8.1619500000000005e-31,5.9643600000000001e-30
5048.0,1.5232399999999999e-28,-1.8475e-25,-1.8472500000000001e-25,-1.8476000000000001e-25,-6.5357599999999998e-29,-1.5916299999999999e-29,5.3579e-29
5049.0,1.5113399999999999e-28,-1.84747e-25,-1.84722e-25,-1.8476199999999999e-25,-6.8625099999999995e-29,-1.45822e-29,4.79033e-29
5050.0,1.4881699999999999e-28,-1.8475200000000001e-25,-1.8472500000000001e-25,-1.8476900000000001e-25,-7.1770100000000003e-29,-1.23016e-29,3.97985e-29
5051.0,1.4889699999999999e-28,-1.84747e-25,-1.8471900000000001e-25,-1.8476900000000001e-25,-7.5403199999999999e-29,-1.03646e-29,3.1368799999999998e-29
5052.0,1.47309e-28,-1.84757e-25,-1.8472799999999999e-25,-1.84781e-25,-7.7386499999999997e-29,-7.0740100000000005e-30,2.2170000000000001e-29
5053.0,1.5005e-28,-1.84747e-25,-1.84716e-25,-1.84773e-25,-8.0558000000000003e-29,-4.7733800000000002e-30,1.2918599999999999e-29
5054.0,1.4468199999999999e-28,-1.8476199999999999e-25,-1.84741e-25,-1.8479300000000001e-25,-7.9103899999999997e-29,-1.7528399999999998e-30,3.4782899999999999e-30
5055.0,1.6628800000000001e-28,-1.8479200000000001e-25,-1.8475100000000001e-25,-1.8480100000000001e-25,-7.0995800000000004e-29,-1.7951200000000001e-29,5.6107599999999998e-29
5056.0,1.65383e-28,-1.8479200000000001e-25,-1.8475299999999999e-25,-1.84805e-25,-7.4521400000000001e-29,-1.5906800000000001e-29,5.0642499999999996e-29
5057.0,1.6292500000000001e-28,-1.8479400000000001e-25,-1.84756e-25,-1.8481099999999999e-25,-7.7899799999999996e-29,-1.39144e-29,4.2137600000000001e-29
5058.0,1.6097799999999999e-28,-1.8479200000000001e-25,-1.8475200000000001e-25,-1.8481199999999999e-25,-8.0013799999999997e-29,-1.16206e-29,3.4633799999999999e-29
5059.0,1.56108e-28,-1.8479599999999999e-25,-1.84758e-25,-1.8481900000000001e-25,-8.0563800000000004e-29,-8.4078900000000007e-30,2.4997600000000001e-29
5060.0,1.5756e-28,-1.84789e-25,-1.84747e-25,-1.8481099999999999e-25,-8.3300300000000001e-29,-5.7990700000000002e-30,1.5768100000000001e-29
5061.0,1.44055e-28,-1.8479499999999999e-25,-1.84765e-25,-1.84824e-25,-7.7464500000000002e-29,-2.8665700000000001e-30,7.0887099999999994e-30
5062.0,1.5248e-28,-1.84775e-25,-1.84733e-25,-1.8478500000000001e-25,-6.3512799999999999e-29,-1.4978900000000001e-29,5.2357199999999998e-29
5063.0,1.4996400000000001e-28,-1.8477700000000001e-25,-1.8473500000000001e-25,-1.8479e-25,-6.6443500000000002e-29,-1.33478e-29,4.5480800000000003e-29
5064.0,1.4922499999999999e-28,-1.8477600000000001e-25,-1.84732e-25,-1.8479300000000001e-25,-6.9433999999999998e-29,-1.13745e-29,3.8704999999999999e-29
5065.0,1.47848e-28,-1.84782e-25,-1.8473699999999999e-25,-1.8480100000000001e-25,-7.2093400000000006e-29,-9.0133700000000003e-30,2.9975599999999998e-29
5066.0,1.4844500000000001e-28,-1.8477799999999999e-25,-1.8473e-25,-1.84799e-25,-7.4678800000000002e-29,-6.9018300000000006e-30,2.1493699999999999e-29
5067.0,1.46361e-28,-1.8478799999999999e-25,-1.84741e-25,-1.8481199999999999e-25,-7.5361699999999999e-29,-3.6608799999999997e-30,1.2622200000000001e-29
5068.0,1.52891e-28,-1.8477799999999999e-25,-1.84722e-25,-1.84799e-25,-7.8811500000000002e-29,-1.4484899999999999e-30,4.1863699999999998e-30
5069.0,1.6697700000000001e-28,-1.84814e-25,-1.8476000000000001e-25,-1.84823e-25,-6.8483399999999997e-29,-1.76546e-29,5.5825900000000002e-29
5070.0,1.64203e-28,-1.8481700000000001e-25,-1.8476299999999999e-25,-1.8482899999999999e-25,-7.17481e-29,-1.6084300000000001e-29,4.8395200000000002e-29
5071.0,1.6195e-28,-1.8481800000000001e-25,-1.8476199999999999e-25,-1.84833e-25,-7.3595399999999995e-29,-1.3764e-29,4.2072399999999998e-29
5072.0,1.5848600000000001e-28,-1.8482099999999999e-25,-1.84765e-25,-1.8483799999999999e-25,-7.5343200000000002e-29,-1.16159e-29,3.3005299999999999e-29
5073.0,1.5687899999999999e-28,-1.8481800000000001e-25,-1.8475900000000001e-25,-1.8483599999999999e-25,-7.6632799999999998e-29,-8.9870800000000001e-30,2.51482e-29
5074.0,1.4925399999999999e-28,-1.8481999999999999e-25,-1.84766e-25,-1.84841e-25,-7.5085100000000003e-29,-5.8273799999999997e-30,1.59158e-29
5075.0,1.589e-28,-1.84815e-25,-1.8474599999999999e-25,-1.8483e-25,-7.9828699999999998e-29,-3.0798300000000001e-30,5.9431499999999997e-30
5076.0,1.5191699999999999e-28,-1.84799e-25,-1.8474400000000001e-25,-1.84808e-25,-6.2148700000000005e-29,-1.444e-29,4.9333200000000003e-29
5077.0,1.5116499999999999e-28,-1.84799e-25,-1.8474300000000001e-25,-1.8481099999999999e-25,-6.4210800000000005e-29,-1.25795e-29,4.4775499999999998e-29
5078.0,1.4928799999999999e-28,-1.8480399999999999e-25,-1.8474499999999999e-25,-1.8481800000000001e-25,-6.6819500000000001e-29,-1.0765799999999999e-29,3.6773799999999998e-29
5079.0,1.4921000000000001e-28,-1.8480299999999999e-25,-1.8474200000000001e-25,-1.8481999999999999e-25,-6.9012199999999997e-29,-8.5497299999999997e-30,2.9578300000000002e-29
5080.0,1.4792300000000001e-28,-1.8481000000000001e-25,-1.84747e-25,-1.8482899999999999e-25,-7.0594400000000001e-29,-6.1605499999999999e-30,2.1071199999999999e-29
5081.0,1.4992599999999999e-28,-1.8480399999999999e-25,-1.8473799999999999e-25,-1.84824e-25,-7.2805499999999999e-29,-4.0518099999999998e-30,1.25318e-29
5082.0,1.44204e-28,-1.8481299999999999e-25,-1.84756e-25,-1.8483799999999999e-25,-7.1808099999999996e-29,-9.8581300000000005e-31,3.8929800000000002e-30
5083.0,1.6467300000000001e-28,-1.84833e-25,-1.8476800000000001e-25,-1.84841e-25,-6.5906200000000002e-29,-1.7848999999999999e-29,5.2543499999999998e-29
5084.0,1.6300399999999999e-28,-1.8483699999999999e-25,-1.8476999999999999e-25,-1.84847e-25,-6.7292799999999999e-29,-1.54332e-29,4.8046500000000002e-29
5085.0,1.61137e-28,-1.84841e-25,-1.8476999999999999e-25,-1.8485299999999999e-25,-6.9410600000000004e-29,-1.3947600000000001e-29,4.0254099999999997e-29
5086.0,1.58477e-28,-1.84841e-25,-1.8476800000000001e-25,-1.84855e-25,-7.0282599999999994e-29,-1.10654e-29,3.3470799999999999e-29
5087.0,1.5429999999999999e-28,-1.8484200000000001e-25,-1.8476900000000001e-25,-1.84857e-25,-7.0834199999999995e-29,-9.0969799999999994e-30,2.4263199999999999e-29
5088.0,1.54721e-28,-1.8484200000000001e-25,-1.8476099999999999e-25,-1.84855e-25,-7.1457099999999996e-29,-6.4703799999999995e-30,1.5737099999999999e-29
5089.0,1.40252e-28,-1.84833e-25,-1.84773e-25,-1.84856e-25,-6.8057100000000001e-29,-2.868e-30,7.3116900000000001e-30
5090.0,1.51715e-28,-1.84814e-25,-1.8475100000000001e-25,-1.84825e-25,-5.9326e-29,-1.3386000000000001e-29,4.8797599999999997e-29
5091.0,1.5066600000000001e-28,-1.8481800000000001e-25,-1.8475100000000001e-25,-1.8482899999999999e-25,-6.2033899999999997e-29,-1.24549e-29,4.2283500000000001e-29
5092.0,1.50313e-28,-1.8482099999999999e-25,-1.8475100000000001e-25,-1.8483500000000001e-25,-6.3584500000000004e-29,-1.0045299999999999e-29,3.6794299999999997e-29
5093.0,1.49786e-28,-1.8482600000000001e-25,-1.8475200000000001e-25,-1.84841e-25,-6.60205e-29,-8.3869600000000005e-30,2.8628599999999998e-29
5094.0,1.49802e-28,-1.8482600000000001e-25,-1.84749e-25,-1.8484200000000001e-25,-6.7441900000000003e-29,-6.1279400000000001e-30,2.0983499999999999e-29
5095.0,1.47405e-28,-1.8482899999999999e-25,-1.84755e-25,-1.84848e-25,-6.8028999999999999e-29,-3.5665799999999997e-30,1.3124599999999999e-29
5096.0,1.5403799999999999e-28,-1.8482799999999999e-25,-1.8474300000000001e-25,-1.8484200000000001e-25,-7.0743399999999998e-29,-2.4860799999999998e-30,5.5794300000000002e-30
