Label,S_Mises,S_S11,S_S22,S_S33,S_S12,S_S13,S_S23
1.0,12610.0,-7590.3199999999997,-2954.3699999999999,868.62900000000002,4592.2299999999996,-3349.6300000000001,1658.99
2.0,12548.9,-7962.3500000000004,-2946.96,1307.1300000000001,4694.8699999999999,-2696.8299999999999,1283.5999999999999
3.0,12361.1,-8119.5299999999997,-2871.5599999999999,1621.22,4688.3999999999996,-2082.4899999999998,919.82000000000005
4.0,12178.6,-8279.7199999999993,-2796.8699999999999,1918.45,4611.0,-1368.6400000000001,504.93099999999998
5.0,11850.9,-8186.1599999999999,-2649.4099999999999,2197.9099999999999,4421.4300000000003,-512.952,73.763999999999996
6.0,10964.9,-7515.6499999999996,-2375.4299999999998,2204.3499999999999,4035.9099999999999,280.28199999999998,-251.94300000000001
7.0,9484.8199999999997,-6337.3199999999997,-1935.0999999999999,1895.02,3470.1900000000001,834.34799999999996,-528.00999999999999
8.0,8123.4200000000001,-5277.6899999999996,-1591.7,1481.8699999999999,2909.8899999999999,1238.0799999999999,-736.30200000000002
9.0,7203.6000000000004,-4542.7200000000003,-1389.99,1168.8199999999999,2497.48,1481.6099999999999,-824.55700000000002
10.0,6561.6000000000004,-4042.1999999999998,-1243.29,946.45899999999995,2210.1999999999998,1574.51,-857.23400000000004
11.0,6377.71,-3785.02,-1160.1700000000001,846.55999999999995,2058.2800000000002,1748.6700000000001,-932.375
12.0,6771.0699999999997,-3730.1100000000001,-1147.6700000000001,846.13999999999999,2041.4300000000001,2142.3200000000002,-1122.99
13.0,7580.0799999999999,-3730.04,-1167.4400000000001,909.03599999999994,2084.98,2720.4200000000001,-1415.8800000000001
14.0,8597.3299999999999,-3630.29,-1171.9300000000001,978.10900000000004,2118.7399999999998,3438.9099999999999,-1733.6700000000001
15.0,9415.7299999999996,-3323.8400000000001,-1141.26,786.01800000000003,2001.3,4137.04,-2050.2600000000002
16.0,9762.4500000000007,-2509.4000000000001,-970.51099999999997,263.01999999999998,1687.8199999999999,4671.6400000000003,-2272.9099999999999
17.0,10035.6,-1627.25,-838.27099999999996,-383.20499999999998,1351.8900000000001,5037.4399999999996,-2443.6900000000001
18.0,10404.299999999999,-942.17399999999998,-730.83299999999997,-910.05100000000004,1085.0699999999999,5308.8500000000004,-2590.1999999999998
19.0,10585.0,-207.06399999999999,-630.86900000000003,-1617.03,820.04399999999998,5405.2600000000002,-2633.3600000000001
20.0,10343.5,685.53700000000003,-482.899,-2459.6900000000001,450.24900000000002,5134.3000000000002,-2563.4499999999998
21.0,9631.1499999999996,1560.3900000000001,-300.36000000000001,-3023.3400000000001,70.879199999999997,4493.0600000000004,-2326.4699999999998
22.0,8666.6299999999992,2108.8200000000002,-172.98599999999999,-3128.1399999999999,-196.47300000000001,3753.8000000000002,-2003.24
23.0,7730.0500000000002,2335.2600000000002,-140.602,-2999.98,-361.851,3127.3499999999999,-1696.52
24.0,6922.1899999999996,2438.5100000000002,-108.068,-2861.5799999999999,-446.91699999999997,2586.1999999999998,-1434.5
25.0,6309.4099999999999,2495.3299999999999,-41.645000000000003,-2820.1799999999998,-486.72399999999999,2102.4699999999998,-1242.48
26.0,5916.04,2498.04,-15.513299999999999,-2850.1399999999999,-490.29700000000003,1739.1400000000001,-1114.53
27.0,10636.0,-6297.3199999999997,-2835.6300000000001,556.36400000000003,4178.4700000000003,-2547.3200000000002,1419.96
28.0,10382.9,-6505.25,-2774.6799999999998,862.21500000000003,4193.6000000000004,-1932.6600000000001,1021.1
29.0,10051.4,-6539.3599999999997,-2644.3600000000001,1111.0599999999999,4122.3299999999999,-1286.49,627.75900000000001
30.0,9679.2199999999993,-6407.8900000000003,-2472.9200000000001,1303.6900000000001,3999.4299999999998,-568.20600000000002,203.971
31.0,9163.0300000000007,-6063.0200000000004,-2305.0500000000002,1307.1700000000001,3792.5999999999999,44.838500000000003,-139.65600000000001
32.0,8480.8799999999992,-5593.5200000000004,-2132.1799999999998,1174.1500000000001,3502.6799999999998,391.56400000000002,-317.28100000000001
33.0,7811.25,-5214.2399999999998,-1971.04,993.64099999999996,3167.0,663.42200000000003,-477.06799999999998
34.0,7094.3800000000001,-4689.6300000000001,-1704.75,777.88,2770.5599999999999,1073.03,-674.471
35.0,6239.0100000000002,-4036.1300000000001,-1436.24,489.41000000000003,2368.3600000000001,1286.97,-742.72799999999995
36.0,5457.9399999999996,-3425.4299999999998,-1173.51,275.137,2028.73,1331.29,-751.22400000000005
37.0,5084.5500000000002,-3009.1399999999999,-1025.21,70.992599999999996,1802.03,1483.6099999999999,-855.37300000000005
38.0,5223.3199999999997,-2838.1799999999998,-1016.36,-54.803199999999997,1732.8199999999999,1745.48,-1022.99
39.0,5706.46,-2849.0999999999999,-1095.78,-153.83500000000001,1757.5799999999999,2098.0799999999999,-1221.6900000000001
40.0,6345.5100000000002,-2844.6500000000001,-1180.52,-265.815,1788.52,2529.8699999999999,-1453.74
41.0,7096.8599999999997,-2718.8499999999999,-1189.0799999999999,-354.76400000000001,1764.8,3054.5799999999999,-1704.6900000000001
42.0,7944.6899999999996,-2262.1199999999999,-1104.01,-698.07000000000005,1576.5699999999999,3711.3499999999999,-2030.01
43.0,8537.6900000000005,-1595.98,-1009.74,-1174.29,1344.6900000000001,4145.2399999999998,-2283.5900000000001
44.0,8650.4300000000003,-1055.01,-957.65800000000002,-1563.72,1191.24,4229.2200000000003,-2352.0300000000002
45.0,8491.8600000000006,-542.40099999999995,-884.43200000000002,-2064.6799999999998,982.19299999999998,4119.9499999999998,-2336.8099999999999
46.0,8129.0500000000002,36.309899999999999,-743.15800000000002,-2574.1300000000001,695.49400000000003,3832.3499999999999,-2249.6199999999999
47.0,7577.4399999999996,596.75,-570.76599999999996,-2946.9200000000001,400.40600000000001,3375.71,-2079.02
48.0,6915.8000000000002,983.13599999999997,-468.94,-3108.6900000000001,180.643,2854.23,-1860.1700000000001
49.0,6185.6099999999997,1133.1800000000001,-454.72399999999999,-3060.2800000000002,32.424799999999998,2371.1999999999998,-1627.1700000000001
50.0,5458.9099999999999,1289.9000000000001,-344.79599999999999,-2863.4299999999998,-90.336100000000002,1901.47,-1389.9000000000001
51.0,4679.2799999999997,1308.1800000000001,-260.33699999999999,-2636.4499999999998,-149.696,1424.3800000000001,-1141.45
52.0,3865.4899999999998,1184.4200000000001,-191.161,-2337.1599999999999,-158.06100000000001,993.29899999999998,-905.10000000000002
53.0,8095.54,-4585.5200000000004,-2372.0700000000002,316.61099999999999,3371.7199999999998,-1792.9100000000001,1111.9100000000001
54.0,7974.5699999999997,-4773.7600000000002,-2343.25,564.60199999999998,3397.1900000000001,-1367.03,802.97299999999996
55.0,7790.8500000000004,-4869.3999999999996,-2295.8099999999999,718.16300000000001,3367.29,-911.38400000000001,491.745
56.0,7501.4799999999996,-4891.25,-2270.8600000000001,690.28099999999995,3275.8600000000001,-436.72699999999998,193.22800000000001
57.0,7068.29,-4773.7399999999998,-2180.1500000000001,494.82900000000001,3116.1199999999999,-54.307499999999997,-20.022099999999998
58.0,6735.1400000000003,-4633.6899999999996,-2024.9300000000001,378.875,2954.8699999999999,255.33000000000001,-198.22999999999999
59.0,6553.1800000000003,-4431.1599999999999,-1797.3399999999999,431.12,2807.4299999999998,595.60699999999997,-392.678
60.0,6286.0600000000004,-4137.9399999999996,-1626.5599999999999,294.81599999999997,2618.0100000000002,984.53800000000001,-637.85000000000002
61.0,5940.2399999999998,-3763.9000000000001,-1503.0599999999999,76.465699999999998,2423.9699999999998,1237.8099999999999,-792.81200000000001
62.0,5625.6599999999999,-3474.27,-1432.6700000000001,-98.7791,2249.8400000000001,1362.5,-860.77300000000002
63.0,5274.3900000000003,-3100.46,-1291.7,-314.72000000000003,2019.8199999999999,1511.45,-954.53499999999997
64.0,4934.3699999999999,-2675.1999999999998,-1135.9200000000001,-563.79200000000003,1776.8599999999999,1635.79,-1044.28
65.0,4725.0299999999997,-2312.8499999999999,-1002.87,-738.14700000000005,1599.75,1721.4200000000001,-1099.3099999999999
66.0,4798.3500000000004,-2063.77,-891.60599999999999,-920.00599999999997,1478.4200000000001,1885.8099999999999,-1218.8399999999999
67.0,5552.6199999999999,-1861.1099999999999,-876.93499999999995,-1121.5599999999999,1430.3399999999999,2371.9200000000001,-1530.6199999999999
68.0,6661.9499999999998,-1633.9300000000001,-975.25599999999997,-1317.8299999999999,1428.2,2985.5,-1931.9400000000001
69.0,7108.0200000000004,-1386.6700000000001,-996.84000000000003,-1442.9200000000001,1389.4300000000001,3248.0900000000001,-2074.0500000000002
70.0,6888.6000000000004,-1016.73,-901.33900000000006,-1754.9300000000001,1199.5899999999999,3182.3000000000002,-2009.25
71.0,6583.8999999999996,-536.63400000000001,-738.447,-2114.1500000000001,936.58399999999995,2999.3499999999999,-1959.3399999999999
72.0,6330.0299999999997,-112.761,-629.86500000000001,-2439.1500000000001,722.65200000000004,2774.5799999999999,-1908.8499999999999
73.0,5972.3199999999997,209.37799999999999,-535.19799999999998,-2680.8800000000001,543.22900000000004,2466.9499999999998,-1804.6099999999999
74.0,5448.5100000000002,438.62799999999999,-421.399,-2757.04,368.98200000000003,2087.1100000000001,-1633.6300000000001
75.0,4889.1499999999996,611.59699999999998,-319.73500000000001,-2669.2199999999998,227.523,1738.3,-1426.8599999999999
76.0,4291.7700000000004,758.99000000000001,-192.709,-2470.54,100.497,1378.0899999999999,-1215.1199999999999
77.0,3620.7600000000002,800.09500000000003,-67.064800000000005,-2145.27,41.361499999999999,1029.3699999999999,-1008.78
78.0,3121.3000000000002,762.46600000000001,-31.183,-1949.71,12.837899999999999,754.55999999999995,-856.47699999999998
79.0,6247.5500000000002,-3512.1700000000001,-2094.0100000000002,-69.579700000000003,2750.1799999999998,-1275.97,908.61199999999997
80.0,6284.04,-3708.7600000000002,-2079.3400000000001,182.357,2805.4400000000001,-1011.6,671.35400000000004
81.0,6202.6899999999996,-3769.29,-1969.3199999999999,407.19900000000001,2785.04,-698.08799999999997,438.41800000000001
82.0,5832.3299999999999,-3634.9200000000001,-1746.53,470.447,2630.8800000000001,-376.27100000000002,230.422
83.0,5361.3000000000002,-3395.3099999999999,-1490.24,428.23200000000003,2433.9400000000001,-42.770699999999998,19.630500000000001
84.0,5174.3299999999999,-3289.8400000000001,-1421.49,345.77600000000001,2340.3699999999999,304.92099999999999,-221.34299999999999
85.0,5326.4499999999998,-3361.0700000000002,-1552.74,287.22800000000001,2378.96,554.23800000000006,-403.42599999999999
86.0,5447.6899999999996,-3435.0500000000002,-1639.9400000000001,211.321,2404.6900000000001,718.34199999999998,-519.24599999999998
87.0,5343.04,-3337.75,-1554.5899999999999,32.743200000000002,2306.0799999999999,957.69600000000003,-661.51599999999996
88.0,5258.9300000000003,-3159.7800000000002,-1442.27,-125.577,2156.3400000000001,1245.02,-838.98500000000001
89.0,5094.6000000000004,-2844.52,-1284.76,-249.63399999999999,1962.3499999999999,1470.01,-966.24199999999996
90.0,4553.1000000000004,-2380.5300000000002,-1090.78,-570.76499999999999,1670.29,1507.0799999999999,-990.40200000000004
91.0,4043.0999999999999,-1893.5899999999999,-887.11400000000003,-936.68700000000001,1394.9300000000001,1468.9100000000001,-1011.7
92.0,4183.8199999999997,-1660.9400000000001,-878.92399999999998,-1314.49,1264.97,1626.8699999999999,-1197.6500000000001
93.0,4895.0,-1435.3900000000001,-968.024,-1661.0599999999999,1211.4300000000001,2015.6500000000001,-1526.97
94.0,5198.6400000000003,-1318.7,-1041.96,-1756.4200000000001,1200.5999999999999,2179.8899999999999,-1638.75
95.0,5091.3199999999997,-1144.01,-953.11500000000001,-1747.27,1117.6199999999999,2155.7199999999998,-1603.9000000000001
96.0,5119.0799999999999,-842.447,-863.96400000000006,-1901.4300000000001,972.072,2169.1799999999998,-1648.75
97.0,5117.3299999999999,-507.99599999999998,-776.76499999999999,-2086.1700000000001,836.26400000000001,2123.1500000000001,-1676.02
98.0,4863.4300000000003,-279.69200000000001,-700.82899999999995,-2255.2199999999998,694.28800000000001,1939.8800000000001,-1598.8900000000001
99.0,4494.6300000000001,-28.818200000000001,-557.48500000000001,-2360.8099999999999,524.83799999999997,1663.1099999999999,-1482.4100000000001
100.0,4170.7399999999998,124.90300000000001,-479.04300000000001,-2433.1100000000001,379.58800000000002,1397.9100000000001,-1382.8800000000001
101.0,3859.29,220.203,-427.322,-2398.27,307.548,1175.21,-1276.3099999999999
102.0,3547.4099999999999,167.03899999999999,-421.15899999999999,-2340.8899999999999,274.55799999999999,1003.5599999999999,-1179.8399999999999
103.0,3319.8800000000001,124.196,-371.38600000000002,-2290.1599999999999,253.20500000000001,885.56899999999996,-1095.1900000000001
104.0,3226.04,188.04400000000001,-316.79199999999997,-2382.5799999999999,180.05000000000001,725.88999999999999,-1026.99
105.0,4851.8999999999996,-2554.3099999999999,-1809.8399999999999,-117.905,2233.73,-880.31399999999996,723.63
106.0,4832.5600000000004,-2737.4299999999998,-1804.8599999999999,-44.935299999999998,2275.71,-670.125,535.93799999999999
107.0,4759.3999999999996,-2791.6500000000001,-1756.1199999999999,21.602399999999999,2284.75,-434.947,341.81099999999998
108.0,4724.1899999999996,-2845.98,-1811.71,3.7617799999999999,2292.3499999999999,-258.11599999999999,191.625
109.0,4753.3999999999996,-2868.9099999999999,-1815.95,55.085299999999997,2309.1700000000001,-71.371700000000004,32.555100000000003
110.0,4784.0900000000001,-2922.6999999999998,-1787.8699999999999,81.775700000000001,2295.4099999999999,180.49100000000001,-161.089
111.0,4761.1000000000004,-2858.3000000000002,-1621.72,161.90700000000001,2232.4400000000001,407.53800000000001,-317.53399999999999
112.0,4645.54,-2806.48,-1495.3900000000001,140.72999999999999,2133.9400000000001,547.14300000000003,-400.37799999999999
113.0,4479.2799999999997,-2623.3800000000001,-1333.4400000000001,44.780500000000004,1992.3900000000001,784.22799999999995,-568.26700000000005
114.0,4422.0100000000002,-2403.5100000000002,-1247.03,-138.17500000000001,1855.72,1082.3,-787.31500000000005
115.0,4462.3100000000004,-2231.98,-1206.0999999999999,-261.601,1776.1800000000001,1275.6300000000001,-940.31899999999996
116.0,4372.9200000000001,-2097.0700000000002,-1169.6099999999999,-447.98700000000002,1688.0899999999999,1360.47,-995.077
117.0,4160.21,-1840.78,-1037.9300000000001,-779.83500000000004,1511.3399999999999,1420.6600000000001,-1077.29
118.0,4205.1700000000001,-1473.4300000000001,-936.42700000000002,-1197.78,1263.8099999999999,1612.96,-1274.1700000000001
119.0,3994.1100000000001,-1015.4,-769.36300000000006,-1463.0899999999999,1000.13,1597.5,-1281.29
120.0,3356.0599999999999,-753.79700000000003,-583.62099999999998,-1428.26,811.90599999999995,1296.5999999999999,-1102.03
121.0,3236.6500000000001,-623.26800000000003,-531.471,-1347.01,735.02300000000002,1238.9400000000001,-1103.26
122.0,3465.3099999999999,-570.21100000000001,-605.39499999999998,-1479.8800000000001,719.90700000000004,1338.6900000000001,-1194.51
123.0,3546.0,-429.74400000000003,-595.41700000000003,-1690.05,650.41800000000001,1335.29,-1231.3800000000001
124.0,3442.3099999999999,-276.19099999999997,-548.79499999999996,-1811.1500000000001,559.73900000000003,1225.3,-1210.1700000000001
125.0,3281.1700000000001,-108.371,-471.30900000000003,-1863.24,452.17599999999999,1071.4000000000001,-1173.97
126.0,3118.48,-23.8032,-439.48200000000003,-1897.1900000000001,373.22699999999998,929.024,-1127.5599999999999
127.0,2998.6500000000001,22.596,-413.411,-1909.77,329.19600000000003,822.07600000000002,-1089.0
128.0,2975.0500000000002,24.752300000000002,-419.387,-1970.52,308.27999999999997,766.69899999999996,-1081.6800000000001
129.0,3038.9000000000001,65.313800000000001,-396.69999999999999,-2083.3800000000001,290.89100000000002,719.47199999999998,-1094.0
130.0,3097.79,91.072400000000002,-383.92500000000001,-2304.2399999999998,226.666,574.55999999999995,-1099.46
131.0,3763.0599999999999,-1974.79,-1546.6199999999999,-196.27500000000001,1773.8399999999999,-625.15499999999997,566.76199999999994
132.0,3776.0599999999999,-2022.46,-1541.8900000000001,-129.374,1825.0999999999999,-497.928,453.459
133.0,3822.6599999999999,-2167.3400000000001,-1597.8399999999999,-174.03899999999999,1878.0999999999999,-398.786,361.20499999999998
134.0,4012.0900000000001,-2327.0900000000001,-1557.5999999999999,-76.542199999999994,1977.04,-290.88600000000002,252.74700000000001
135.0,4261.7799999999997,-2651.9400000000001,-1640.53,-75.769000000000005,2087.46,-80.753299999999996,74.656199999999998
136.0,4298.1300000000001,-2674.3099999999999,-1559.4100000000001,-50.416899999999998,2085.21,227.62799999999999,-154.666
137.0,4095.4400000000001,-2540.9200000000001,-1533.8,-206.13,1973.79,457.35000000000002,-338.39800000000002
138.0,3996.0500000000002,-2334.9200000000001,-1465.6199999999999,-171.89099999999999,1909.6099999999999,544.80899999999997,-441.24299999999999
139.0,4091.7399999999998,-2348.02,-1515.8699999999999,-216.44999999999999,1895.02,709.471,-576.38599999999997
140.0,4109.5299999999997,-2213.3699999999999,-1421.8399999999999,-371.38,1820.98,945.529,-752.05399999999997
141.0,4086.0300000000002,-2152.0700000000002,-1413.9200000000001,-634.202,1738.5599999999999,1088.1300000000001,-884.57100000000003
142.0,4246.5500000000002,-2058.0500000000002,-1364.55,-696.25699999999995,1707.9400000000001,1248.1600000000001,-1035.5799999999999
143.0,4438.4399999999996,-1907.3599999999999,-1345.2,-891.71600000000001,1580.6400000000001,1507.53,-1239.6199999999999
144.0,4047.6999999999998,-1232.8099999999999,-995.09699999999998,-1177.04,1200.01,1555.3599999999999,-1259.6400000000001
145.0,3105.6100000000001,-730.15200000000004,-668.87800000000004,-1324.55,815.08299999999997,1144.95,-1052.8599999999999
146.0,2611.1300000000001,-456.27199999999999,-516.70000000000005,-1281.9000000000001,611.99000000000001,898.89999999999998,-937.17700000000002
147.0,2352.0799999999999,-479.27300000000002,-552.04899999999998,-1192.22,555.35400000000004,805.96900000000005,-855.678
148.0,2020.1099999999999,-321.13799999999998,-375.14100000000002,-966.774,485.78899999999999,676.28099999999995,-733.91499999999996
149.0,1843.2,-278.84699999999998,-346.67000000000002,-942.43399999999997,416.63600000000002,597.11599999999999,-684.84699999999998
150.0,1937.74,-200.70699999999999,-312.35000000000002,-985.673,395.012,621.12,-727.63800000000003
151.0,2134.25,-227.971,-399.88,-1228.3199999999999,371.91500000000002,667.79300000000001,-804.97000000000003
152.0,2151.7199999999998,-145.839,-338.63799999999998,-1244.71,355.94600000000003,650.75699999999995,-805.50300000000004
153.0,2074.9000000000001,-145.62799999999999,-338.959,-1305.4300000000001,306.90800000000002,591.14700000000005,-778.024
154.0,2141.5599999999999,25.854299999999999,-258.46100000000001,-1338.8800000000001,247.16999999999999,549.53800000000001,-804.50599999999997
155.0,2392.9899999999998,59.392400000000002,-370.483,-1621.76,208.93700000000001,532.20100000000002,-905.05499999999995
156.0,2659.1599999999999,161.70500000000001,-380.59500000000003,-1845.9100000000001,182.16800000000001,472.12099999999998,-1011.11
157.0,3028.6599999999999,-1467.9000000000001,-1335.3,-229.155,1461.72,-472.05200000000002,485.29700000000003
158.0,3120.0,-1605.02,-1370.9400000000001,-155.44499999999999,1521.6199999999999,-409.10899999999998,395.64699999999999
159.0,3186.1900000000001,-1664.7,-1337.49,-56.505000000000003,1575.05,-301.96199999999999,299.35300000000001
160.0,3216.8099999999999,-1766.1600000000001,-1397.96,-80.986900000000006,1617.3099999999999,-152.41200000000001,159.38200000000001
161.0,3268.1500000000001,-1740.25,-1375.0999999999999,-13.0273,1652.6800000000001,-5.3494299999999999,15.608700000000001
162.0,3346.9299999999998,-1824.95,-1439.04,-66.762600000000006,1687.46,137.20599999999999,-117.28700000000001
163.0,3444.8400000000001,-1869.8599999999999,-1398.27,-82.401799999999994,1719.3299999999999,282.42599999999999,-248.274
164.0,3579.3400000000001,-2023.3399999999999,-1433.45,-189.113,1745.3900000000001,448.03500000000003,-382.947
165.0,3726.0,-2053.5900000000001,-1398.0699999999999,-246.71299999999999,1755.53,648.26099999999997,-537.476
166.0,3782.8899999999999,-2027.6300000000001,-1401.3399999999999,-450.26100000000002,1706.22,851.10699999999997,-709.70399999999995
167.0,3717.9099999999999,-1819.73,-1269.1700000000001,-555.154,1600.6800000000001,975.51300000000003,-831.74000000000001
168.0,3686.1500000000001,-1687.21,-1199.7,-670.37199999999996,1473.47,1091.8800000000001,-952.51800000000003
169.0,3644.5300000000002,-1358.77,-1035.1500000000001,-784.53999999999996,1271.1800000000001,1247.0699999999999,-1083.3099999999999
170.0,3335.6300000000001,-944.14499999999998,-901.93299999999999,-1129.7,1008.17,1213.45,-1097.8399999999999
171.0,3059.21,-690.16800000000001,-778.40700000000004,-1394.25,772.05799999999999,1062.9300000000001,-1116.5
172.0,2700.1300000000001,-532.17700000000002,-696.63199999999995,-1464.1900000000001,594.67399999999998,906.94299999999998,-1003.28
173.0,1951.9200000000001,-318.52699999999999,-444.48500000000001,-1091.1199999999999,444.67000000000002,597.89200000000005,-736.87
174.0,1402.1500000000001,-131.55799999999999,-261.68799999999999,-794.27700000000004,298.315,375.55900000000003,-549.55700000000002
175.0,1139.8900000000001,-34.340299999999999,-165.196,-566.952,250.983,292.41300000000001,-455.61700000000002
176.0,1060.6500000000001,-58.715600000000002,-173.14500000000001,-531.79700000000003,241.78299999999999,272.72000000000003,-425.71800000000002
177.0,1107.8199999999999,-73.621399999999994,-163.72900000000001,-536.54999999999995,257.92200000000003,285.435,-448.173
178.0,1294.3599999999999,-148.02000000000001,-244.96199999999999,-654.62099999999998,299.69900000000001,351.35599999999999,-522.37199999999996
179.0,1508.52,-167.10400000000001,-288.30700000000002,-794.67499999999995,326.48000000000002,409.33499999999998,-611.20699999999999
180.0,1699.5999999999999,-165.24100000000001,-339.21300000000002,-1037.1300000000001,308.44299999999998,420.29000000000002,-691.50599999999997
181.0,1944.6400000000001,-100.423,-342.58100000000002,-1273.8199999999999,266.27800000000002,437.57600000000002,-783.82799999999997
182.0,2184.7199999999998,-50.604999999999997,-377.35000000000002,-1559.03,214.47800000000001,406.21499999999997,-866.16600000000005
183.0,2464.6100000000001,-1136.96,-1176.0799999999999,-238.315,1208.74,-344.09300000000002,404.83199999999999
184.0,2535.9499999999998,-1209.9100000000001,-1188.8900000000001,-165.94499999999999,1263.99,-288.697,326.41800000000001
185.0,2624.79,-1323.0699999999999,-1250.79,-140.46100000000001,1322.9200000000001,-219.846,242.12200000000001
186.0,2692.5700000000002,-1377.52,-1244.28,-71.854699999999994,1366.0599999999999,-124.718,137.06899999999999
187.0,2725.3000000000002,-1460.5799999999999,-1259.0599999999999,-80.511300000000006,1385.4100000000001,-11.600099999999999,23.537600000000001
188.0,2803.1100000000001,-1504.75,-1242.8199999999999,-50.832299999999996,1414.0799999999999,104.498,-89.772599999999997
189.0,2895.6100000000001,-1575.3299999999999,-1283.29,-105.857,1445.3199999999999,239.96899999999999,-207.739
190.0,2968.0900000000001,-1538.3800000000001,-1264.8800000000001,-159.03999999999999,1457.0,393.70499999999998,-353.964
191.0,3054.0999999999999,-1522.6600000000001,-1287.3499999999999,-255.036,1452.52,540.68899999999996,-502.37
192.0,3137.6999999999998,-1438.3599999999999,-1243.9300000000001,-323.57299999999998,1415.01,699.62300000000005,-659.83500000000004
193.0,3180.4000000000001,-1339.96,-1210.8599999999999,-435.67500000000001,1330.8800000000001,844.45699999999999,-805.02599999999995
194.0,3071.5,-1105.8699999999999,-1083.45,-508.77800000000002,1176.3599999999999,923.90499999999997,-890.35599999999999
195.0,2752.71,-869.51499999999999,-937.548,-644.72199999999998,994.43200000000002,873.76400000000001,-866.00199999999995
196.0,2619.7199999999998,-769.73400000000004,-837.41700000000003,-848.16200000000003,880.43799999999999,860.39800000000002,-877.71100000000001
197.0,2662.6199999999999,-702.63199999999995,-828.27300000000002,-1196.48,720.59699999999998,902.05899999999997,-982.00699999999995
198.0,2177.5,-393.75700000000001,-578.31799999999998,-1052.3599999999999,522.42499999999995,690.697,-845.63099999999997
199.0,1535.75,-139.483,-318.678,-737.13499999999999,346.45299999999997,441.447,-614.16700000000003
200.0,1202.48,-62.623600000000003,-222.16,-645.154,233.74799999999999,321.358,-483.17599999999999
201.0,1003.3,-61.037999999999997,-181.74700000000001,-601.89800000000002,190.89699999999999,239.17400000000001,-401.60500000000002
202.0,856.09799999999996,-43.909199999999998,-138.499,-518.55999999999995,166.77699999999999,172.13499999999999,-351.76900000000001
203.0,753.34500000000003,-75.305599999999998,-141.61799999999999,-435.47899999999998,182.26599999999999,135.81899999999999,-317.43099999999998
204.0,848.83199999999999,-139.30600000000001,-179.69300000000001,-436.61799999999999,235.47399999999999,175.89500000000001,-357.46199999999999
205.0,1167.03,-255.22499999999999,-310.97199999999998,-639.28300000000002,303.52800000000002,289.76499999999999,-484.589
206.0,1436.25,-241.43600000000001,-366.14699999999999,-878.91800000000001,316.31099999999998,329.52300000000002,-604.00400000000002
207.0,1565.1800000000001,-233.917,-398.12599999999998,-1051.1700000000001,285.02699999999999,301.99299999999999,-676.21100000000001
208.0,1666.8699999999999,-180.93899999999999,-389.66199999999998,-1153.26,243.14599999999999,268.63299999999998,-729.97400000000005
209.0,2029.5999999999999,-844.34699999999998,-1041.72,-203.65299999999999,1001.86,-249.74299999999999,339.15300000000002
210.0,2102.4699999999998,-941.04999999999995,-1098.96,-202.50800000000001,1057.4200000000001,-216.54499999999999,281.82900000000001
211.0,2201.1799999999998,-992.16099999999994,-1102.1500000000001,-117.167,1117.8599999999999,-173.50999999999999,209.857
212.0,2298.4099999999999,-1097.8499999999999,-1156.05,-85.8934,1170.5899999999999,-108.959,128.96100000000001
213.0,2371.54,-1127.46,-1138.8800000000001,-25.338200000000001,1210.3599999999999,-10.272500000000001,22.795500000000001
214.0,2410.9299999999998,-1177.6600000000001,-1161.2,-50.045299999999997,1225.55,98.347399999999993,-90.262900000000002
215.0,2435.0900000000001,-1158.49,-1124.27,-51.219099999999997,1227.1600000000001,197.404,-187.63999999999999
216.0,2455.4200000000001,-1196.1300000000001,-1142.3699999999999,-160.03100000000001,1216.26,312.851,-303.81
217.0,2480.2800000000002,-1143.21,-1090.8399999999999,-213.89599999999999,1183.6300000000001,434.44,-433.959
218.0,2530.9299999999998,-1108.0599999999999,-1085.76,-314.94999999999999,1134.47,564.65200000000004,-570.43299999999999
219.0,2577.8499999999999,-985.96799999999996,-1019.63,-384.76400000000001,1056.7,691.53399999999999,-701.90300000000002
220.0,2555.1799999999998,-864.29899999999998,-958.79899999999998,-479.87200000000001,955.87699999999995,755.23699999999997,-792.39400000000001
221.0,2492.6300000000001,-722.17999999999995,-867.90200000000004,-551.22400000000005,877.85500000000002,788.024,-808.904
222.0,2388.5700000000002,-629.78700000000003,-857.42399999999998,-845.14099999999996,757.22900000000004,783.05399999999997,-835.94000000000005
223.0,2090.2399999999998,-395.358,-681.54100000000005,-956.71900000000005,552.48599999999999,631.13599999999997,-820.98000000000002
224.0,1573.6400000000001,-298.11000000000001,-500.59500000000003,-702.00199999999995,420.04500000000002,446.78500000000003,-639.226
225.0,1247.0999999999999,-124.24299999999999,-292.27600000000001,-518.71699999999998,296.79700000000003,367.99200000000002,-505.697
226.0,1060.1700000000001,-9.71157,-194.40100000000001,-510.00900000000001,206.209,283.62400000000002,-433.22500000000002
227.0,906.601,-7.92258,-160.10300000000001,-509.19999999999999,170.72300000000001,188.91,-378.27300000000002
228.0,794.53800000000001,-66.842299999999994,-158.273,-483.64999999999998,166.97300000000001,138.74100000000001,-339.56999999999999
229.0,738.19399999999996,-70.259100000000004,-133.238,-411.99000000000001,172.68600000000001,136.577,-316.37799999999999
230.0,734.923,-75.775700000000001,-142.83600000000001,-401.10500000000002,176.84999999999999,137.11500000000001,-316.94499999999999
231.0,802.74000000000001,-56.584000000000003,-146.94,-394.09199999999998,187.952,155.316,-353.30099999999999
232.0,930.303,-65.790400000000005,-211.173,-481.88799999999998,194.18199999999999,185.39099999999999,-414.50900000000001
233.0,1041.8,-25.979500000000002,-224.291,-555.06200000000001,182.05699999999999,190.39699999999999,-470.04500000000002
234.0,1100.8599999999999,-44.189100000000003,-266.57100000000003,-653.63999999999999,164.49000000000001,179.595,-499.53699999999998
235.0,1696.6600000000001,-639.75199999999995,-933.61800000000005,-152.50200000000001,826.10500000000002,-198.84200000000001,286.19999999999999
236.0,1762.79,-683.39800000000002,-944.44399999999996,-112.282,875.99699999999996,-172.78299999999999,239.685
237.0,1834.8599999999999,-770.41899999999998,-993.64099999999996,-106.873,926.01900000000001,-136.61500000000001,182.517
238.0,1922.8599999999999,-820.34400000000005,-1003.89,-51.7014,978.40099999999995,-85.796999999999997,112.41
239.0,1999.79,-919.36500000000001,-1062.04,-67.422200000000004,1021.47,-5.70139,19.811499999999999
240.0,2038.3499999999999,-931.18299999999999,-1042.75,-56.268599999999999,1038.9100000000001,85.320400000000006,-80.619299999999996
241.0,2066.6500000000001,-964.78099999999995,-1059.6300000000001,-99.091899999999995,1041.1199999999999,170.41300000000001,-174.73500000000001
242.0,2072.1100000000001,-922.57500000000005,-1012.2,-117.7,1026.24,256.03500000000003,-264.24000000000001
243.0,2050.9099999999999,-895.822,-980.79200000000003,-207.56,985.822,342.70400000000001,-364.67599999999999
244.0,2044.6099999999999,-806.34500000000003,-897.95600000000002,-265.863,924.95299999999997,438.89600000000002,-478.15899999999999
245.0,2062.7800000000002,-740.74199999999996,-860.13,-378.18099999999998,855.07100000000003,532.70899999999995,-583.46600000000001
246.0,2116.0500000000002,-664.36000000000001,-790.05700000000002,-424.60599999999999,804.18200000000002,593.96400000000006,-677.18200000000002
247.0,2196.9499999999998,-615.02200000000005,-816.72699999999998,-532.55700000000002,760.327,679.73099999999999,-739.83299999999997
248.0,2080.8899999999999,-509.67099999999999,-791.36199999999997,-702.60599999999999,664.947,652.28700000000003,-744.97500000000002
249.0,1733.0699999999999,-422.86900000000003,-674.30700000000002,-832.27999999999997,490.60000000000002,488.60300000000001,-692.18700000000001
250.0,1307.99,-288.50900000000001,-468.92200000000003,-567.03099999999995,379.00400000000002,354.35300000000001,-530.19799999999998
251.0,1069.51,-113.66500000000001,-296.84500000000003,-436.51999999999998,264.74099999999999,296.22899999999998,-444.10000000000002
252.0,939.98699999999997,-17.735900000000001,-215.476,-444.95800000000003,190.53800000000001,234.58799999999999,-396.83199999999999
253.0,837.70100000000002,-46.142200000000003,-218.24100000000001,-487.52199999999999,158.392,167.24199999999999,-362.44400000000002
254.0,742.93799999999999,-26.024100000000001,-166.35599999999999,-417.10399999999998,147.61699999999999,120.45,-329.29399999999998
255.0,677.71500000000003,-23.8612,-149.86500000000001,-360.34199999999998,139.08600000000001,106.989,-305.62700000000001
256.0,639.61900000000003,4.3907699999999998,-126.34099999999999,-317.89299999999997,121.712,101.276,-291.59100000000001
257.0,599.06799999999998,14.9411,-128.52600000000001,-293.85599999999999,102.54600000000001,95.178700000000006,-275.99700000000001
258.0,590.85500000000002,61.554000000000002,-99.431200000000004,-240.79499999999999,92.986999999999995,107.729,-270.61399999999998
259.0,619.51999999999998,86.429699999999997,-107.899,-264.79700000000003,76.572400000000002,116.61799999999999,-278.416
260.0,638.84699999999998,135.47800000000001,-83.543400000000005,-255.47900000000001,62.073599999999999,107.863,-286.63200000000001
261.0,1435.3599999999999,-473.73099999999999,-805.173,-79.796899999999994,686.18700000000001,-162.20500000000001,240.251
262.0,1489.6300000000001,-549.51700000000005,-861.34400000000005,-87.659199999999998,729.08199999999999,-134.26499999999999,196.351
263.0,1546.4100000000001,-575.60299999999995,-865.62699999999995,-57.128300000000003,773.08000000000004,-98.935699999999997,148.06800000000001
264.0,1600.0599999999999,-648.94600000000003,-915.68200000000002,-76.0501,811.98699999999997,-53.470399999999998,84.586799999999997
265.0,1654.3800000000001,-651.12800000000004,-898.19100000000003,-28.484200000000001,843.42399999999998,2.3833000000000002,9.9703199999999992
266.0,1702.5,-703.49699999999996,-932.05399999999997,-49.858400000000003,863.77700000000004,71.020899999999997,-73.376599999999996
267.0,1733.9100000000001,-683.74000000000001,-896.30399999999997,-33.359400000000001,868.54300000000001,142.25899999999999,-159.37299999999999
268.0,1750.96,-709.83900000000006,-909.19799999999998,-91.046599999999998,858.53999999999996,212.654,-240.071
269.0,1734.78,-657.375,-846.80799999999999,-143.202,827.93499999999995,286.16199999999998,-321.298
270.0,1691.9100000000001,-634.50199999999995,-818.33900000000006,-284.863,771.57500000000005,346.88999999999999,-406.31400000000002
271.0,1692.55,-527.09400000000005,-736.55799999999999,-358.38099999999997,708.97400000000005,404.60899999999998,-502.65100000000001
272.0,1787.05,-493.96800000000002,-768.29899999999998,-454.10300000000001,664.80999999999995,468.66399999999999,-611.255
273.0,1817.1400000000001,-395.61099999999999,-741.95799999999997,-427.22199999999998,627.02800000000002,509.262,-641.47500000000002
274.0,1676.9400000000001,-395.17399999999998,-744.98400000000004,-526.33799999999997,564.98400000000004,473.01999999999998,-602.65300000000002
275.0,1409.3299999999999,-296.25999999999999,-578.55799999999999,-558.65099999999995,432.21100000000001,370.20400000000001,-559.81100000000004
276.0,1085.3399999999999,-203.47,-403.58100000000002,-393.036,329.35500000000002,272.00200000000001,-444.42500000000001
277.0,927.90499999999997,-67.445800000000006,-271.94499999999999,-331.42599999999999,233.06999999999999,242.59899999999999,-393.25900000000001
278.0,838.45600000000002,3.8336700000000001,-214.49799999999999,-357.10300000000001,170.54900000000001,200.33000000000001,-363.41500000000002
279.0,744.23299999999995,37.152999999999999,-155.607,-335.02699999999999,136.637,145.72,-331.78199999999998
280.0,664.68499999999995,5.0624200000000004,-155.02099999999999,-338.44900000000001,124.09999999999999,107.958,-301.11000000000001
281.0,607.67999999999995,4.7917300000000003,-134.78899999999999,-306.66000000000003,111.229,89.752899999999997,-279.86900000000003
282.0,566.20100000000002,9.5695700000000006,-127.283,-286.51499999999999,92.870000000000005,82.685500000000005,-263.517
283.0,534.42600000000004,64.858599999999996,-77.181700000000006,-231.816,73.359800000000007,80.369200000000006,-247.68100000000001
284.0,506.678,60.199599999999997,-89.414900000000003,-242.33699999999999,54.828499999999998,70.696600000000004,-233.85300000000001
285.0,478.245,105.452,-56.543599999999998,-189.80199999999999,39.086399999999998,63.721499999999999,-220.88200000000001
286.0,469.11000000000001,95.185199999999995,-80.318299999999994,-199.30500000000001,34.219799999999999,66.567300000000003,-214.02099999999999
287.0,1216.21,-362.303,-724.06799999999998,-63.539299999999997,570.25400000000002,-128.273,204.94999999999999
288.0,1251.24,-388.70100000000002,-731.88999999999999,-30.564,602.95899999999995,-101.521,158.17599999999999
289.0,1291.8599999999999,-435.97199999999998,-767.75099999999998,-34.474499999999999,635.71400000000006,-68.912899999999993,112.221
290.0,1332.45,-456.20800000000003,-772.721,-21.250800000000002,666.88199999999995,-32.176099999999998,60.7881
291.0,1376.97,-510.47800000000001,-806.45500000000004,-43.501600000000003,695.64999999999998,11.1448,-0.35419200000000001
292.0,1418.48,-525.42899999999997,-802.74699999999996,-37.371099999999998,715.51599999999996,63.3596,-67.561899999999994
293.0,1443.8299999999999,-550.20699999999999,-813.78700000000003,-71.829700000000003,720.31299999999999,120.49299999999999,-141.58199999999999
294.0,1455.9100000000001,-525.71299999999997,-785.38400000000001,-81.3797,707.32600000000002,179.08600000000001,-217.779
295.0,1452.79,-496.37400000000002,-770.62400000000002,-134.24600000000001,678.375,234.703,-293.88299999999998
296.0,1436.73,-433.38,-732.73599999999999,-207.072,632.81700000000001,286.947,-368.43799999999999
297.0,1392.74,-379.733,-672.22900000000004,-302.68000000000001,571.88800000000003,309.60300000000001,-430.875
298.0,1461.04,-302.38299999999998,-612.01800000000003,-357.245,508.53800000000001,376.49000000000001,-532.81299999999999
299.0,1397.8299999999999,-312.786,-629.73099999999999,-357.601,481.66399999999999,373.85899999999998,-500.12200000000001
300.0,1247.5599999999999,-243.28100000000001,-544.798,-360.53199999999998,415.94200000000001,336.82999999999998,-457.42000000000002
301.0,1089.1900000000001,-261.70400000000001,-524.44200000000001,-412.64699999999999,345.154,274.887,-428.214
302.0,896.19500000000005,-181.96799999999999,-385.64699999999999,-287.20400000000001,277.99599999999998,217.09100000000001,-364.60500000000002
303.0,791.50099999999998,-19.9818,-238.79900000000001,-223.71600000000001,188.74799999999999,204.35400000000001,-341.32400000000001
304.0,723.14999999999998,38.6128,-195.20400000000001,-248.23099999999999,140.08600000000001,176.21899999999999,-316.77199999999999
305.0,651.63,6.7452300000000003,-195.511,-301.64100000000002,116.238,128.934,-294.72000000000003
306.0,588.923,18.1966,-151.697,-278.17399999999998,105.04300000000001,90.017399999999995,-272.68400000000003
307.0,542.91300000000001,24.2699,-127.705,-250.839,90.959400000000002,72.801699999999997,-256.29500000000002
308.0,512.65899999999999,39.320799999999998,-105.547,-229.42400000000001,78.576999999999998,64.138800000000003,-243.363
309.0,488.41199999999998,33.370100000000001,-107.837,-233.28999999999999,64.922799999999995,54.9437,-233.41800000000001
310.0,464.19099999999997,51.774799999999999,-87.303299999999993,-207.36199999999999,52.537199999999999,49.186500000000002,-223.21899999999999
311.0,442.72300000000001,53.903599999999997,-86.234499999999997,-200.452,43.818300000000001,50.003700000000002,-211.386
312.0,425.774,71.772400000000005,-68.107799999999997,-179.06800000000001,39.318600000000004,47.253399999999999,-202.11099999999999
313.0,1022.52,-248.756,-621.33500000000004,-31.183399999999999,469.46300000000002,-96.903999999999996,172.20699999999999
314.0,1044.8299999999999,-298.74099999999999,-650.78499999999997,-33.771599999999999,495.60000000000002,-74.696299999999994,129.94300000000001
315.0,1080.02,-309.709,-645.93700000000001,-2.1755200000000001,525.17700000000002,-46.495399999999997,84.654799999999994
316.0,1125.9400000000001,-363.69400000000002,-693.32600000000002,-21.130299999999998,554.94200000000001,-15.4376,37.455199999999998
317.0,1161.04,-360.15199999999999,-685.29300000000001,-4.7359200000000001,576.93200000000002,21.1647,-13.152699999999999
318.0,1182.45,-395.024,-713.99300000000005,-46.130600000000001,588.827,58.068300000000001,-66.261499999999998
319.0,1193.04,-371.58999999999997,-684.21199999999999,-40.369100000000003,587.96000000000004,97.807299999999998,-124.57299999999999
320.0,1197.2,-379.755,-686.71000000000004,-74.690799999999996,574.471,138.91399999999999,-186.572
321.0,1193.54,-339.613,-633.94200000000001,-59.878599999999999,546.66899999999998,181.292,-246.43700000000001
322.0,1174.76,-305.78199999999998,-598.15599999999995,-119.30500000000001,499.30099999999999,232.24299999999999,-313.87900000000002
323.0,1174.3599999999999,-240.11699999999999,-538.72400000000005,-160.61699999999999,445.06099999999998,268.005,-387.37700000000001
324.0,1163.51,-152.33699999999999,-477.68400000000003,-255.85499999999999,353.22699999999998,309.37200000000001,-450.709
325.0,952.827,-104.361,-393.43000000000001,-175.86000000000001,316.85300000000001,238.07300000000001,-350.54700000000003
326.0,898.49599999999998,-129.102,-414.36900000000003,-231.827,274.35899999999998,233.01900000000001,-344.45999999999998
327.0,824.351,-153.91800000000001,-411.94999999999999,-213.56299999999999,272.12400000000002,191.495,-312.32499999999999
328.0,721.82500000000005,-126.399,-338.14699999999999,-174.315,227.38999999999999,166.80799999999999,-286.03699999999998
329.0,672.54700000000003,11.416499999999999,-209.43700000000001,-131.88,146.767,177.392,-291.90899999999999
330.0,622.52499999999998,77.885099999999994,-157.68700000000001,-152.38800000000001,108.126,157.77600000000001,-272.95299999999997
331.0,569.93499999999995,67.155299999999997,-140.71600000000001,-192.60499999999999,96.707999999999998,111.289,-260.07900000000001
332.0,523.91700000000003,32.480400000000003,-140.49700000000001,-219.351,90.457099999999997,74.576400000000007,-247.303
333.0,488.16199999999998,31.5321,-126.38200000000001,-210.49799999999999,77.032399999999996,58.476300000000002,-234.483
334.0,461.286,27.0855,-124.967,-210.57400000000001,65.9589,44.411099999999998,-223.86799999999999
335.0,436.702,43.966200000000001,-103.23399999999999,-182.154,53.825699999999998,36.7483,-214.827
336.0,410.572,47.524900000000002,-99.956000000000003,-169.934,43.022100000000002,35.1629,-201.94
337.0,386.55200000000002,67.905799999999999,-75.210300000000004,-139.465,38.667099999999998,31.476199999999999,-189.876
338.0,373.53100000000001,45.5764,-88.338899999999995,-149.054,38.073099999999997,29.490600000000001,-185.12799999999999
339.0,852.96799999999996,-174.28,-546.86400000000003,-18.8491,379.61200000000002,-70.585999999999999,140.71600000000001
340.0,876.36800000000005,-192.27799999999999,-550.75599999999997,-3.46719,406.64800000000002,-50.739699999999999,103.874
341.0,911.73800000000006,-231.922,-581.77300000000002,-9.6799499999999998,435.23700000000002,-27.2422,61.118699999999997
342.0,951.38099999999997,-240.53100000000001,-586.34500000000003,14.8788,458.54300000000001,-4.7033199999999997,19.3887
343.0,976.05999999999995,-266.61000000000001,-607.99400000000003,4.8057299999999996,471.46699999999998,22.737300000000001,-21.8581
344.0,979.40599999999995,-254.91200000000001,-589.77300000000002,6.4771000000000001,473.53800000000001,48.698099999999997,-61.706299999999999
345.0,978.48099999999999,-270.37299999999999,-593.84400000000005,-23.083100000000002,469.79899999999998,75.600899999999996,-103.873
346.0,982.06700000000001,-256.005,-566.779,-27.213799999999999,462.13099999999997,105.61199999999999,-153.048
347.0,990.00999999999999,-264.12700000000001,-564.99300000000005,-53.104199999999999,444.221,144.071,-206.005
348.0,968.02599999999995,-214.44499999999999,-500.02499999999998,-61.196399999999997,407.65800000000002,176.506,-255.767
349.0,967.93799999999999,-182.24600000000001,-455.97300000000001,-114.526,336.54700000000003,225.035,-340.16699999999997
350.0,881.31799999999998,-47.8035,-325.36900000000003,-141.96000000000001,234.179,238.48400000000001,-356.74700000000001
351.0,695.20500000000004,-62.069000000000003,-311.01499999999999,-148.13999999999999,198.196,175.08199999999999,-274.19400000000002
352.0,683.70100000000002,-83.912599999999998,-339.79300000000001,-178.15700000000001,177.57599999999999,177.68000000000001,-275.61799999999999
353.0,609.00300000000004,-123.005,-340.88499999999999,-146.047,199.10499999999999,137.35400000000001,-225.37100000000001
354.0,580.41399999999999,-73.991799999999998,-268.38600000000002,-101.321,175.32499999999999,137.56700000000001,-227.059
355.0,578.09400000000005,18.0322,-191.614,-86.736000000000004,121.265,153.58199999999999,-249.233
356.0,547.77800000000002,83.525999999999996,-139.755,-102.697,87.074799999999996,137.80799999999999,-243.16499999999999
357.0,503.04199999999997,51.376600000000003,-158.5,-167.77099999999999,77.233400000000003,97.928700000000006,-231.161
358.0,461.22500000000002,47.900100000000002,-134.01900000000001,-165.69900000000001,72.685900000000004,64.128900000000002,-219.60599999999999
359.0,425.76799999999997,42.439599999999999,-119.667,-160.166,63.756300000000003,45.289499999999997,-206.91900000000001
360.0,395.01600000000002,55.097700000000003,-95.123900000000006,-138.142,51.348300000000002,34.524700000000003,-194.65600000000001
361.0,367.42899999999997,53.559899999999999,-90.609999999999999,-131.44499999999999,39.138599999999997,30.971499999999999,-181.834
362.0,346.43799999999999,71.551299999999998,-67.462699999999998,-108.593,32.884999999999998,27.352499999999999,-171.071
363.0,334.13799999999998,44.833399999999997,-86.510199999999998,-126.44499999999999,31.706399999999999,22.634899999999998,-166.33699999999999
364.0,327.029,52.989899999999999,-76.208200000000005,-108.59999999999999,31.044599999999999,23.320599999999999,-163.80799999999999
365.0,695.42200000000003,-99.998400000000004,-445.43099999999998,16.719999999999999,298.31,-50.809100000000001,108.98999999999999
366.0,728.11099999999999,-135.93000000000001,-483.86700000000002,6.6204299999999998,325.44400000000002,-35.202800000000003,76.827799999999996
367.0,760.67499999999995,-140.94,-490.82900000000001,26.776199999999999,348.03399999999999,-17.2879,41.287300000000002
368.0,787.92200000000003,-169.77699999999999,-517.55600000000004,20.956,363.72800000000001,-1.12527,9.3108199999999997
369.0,807.32299999999998,-167.55099999999999,-508.81299999999999,37.481000000000002,374.58100000000002,17.4129,-22.068200000000001
370.0,818.21299999999997,-189.446,-521.52300000000002,17.335999999999999,380.16899999999998,39.542900000000003,-56.258899999999997
371.0,819.79600000000005,-171.76300000000001,-494.22699999999998,21.608000000000001,378.67099999999999,62.801499999999997,-93.682000000000002
372.0,819.44299999999998,-178.655,-491.62299999999999,-4.7371699999999999,370.76600000000002,87.4482,-133.56299999999999
373.0,813.39999999999998,-146.12,-452.67000000000002,-6.2434200000000004,353.61099999999999,112.265,-175.376
374.0,817.06600000000003,-144.173,-445.15699999999998,-33.046999999999997,327.13200000000001,141.21700000000001,-223.857
375.0,769.12400000000002,-68.912599999999998,-337.86099999999999,-18.130199999999999,250.24199999999999,172.114,-274.62
376.0,627.94200000000001,7.8818200000000003,-218.726,-18.170100000000001,169.63399999999999,157.73099999999999,-249.81399999999999
377.0,538.32500000000005,1.1128100000000001,-209.86799999999999,-39.148699999999998,141.441,140.685,-210.364
378.0,481.09300000000002,-33.057899999999997,-230.49000000000001,-87.799000000000007,116.97199999999999,123.854,-194.26400000000001
379.0,437.66899999999998,-47.1586,-224.32599999999999,-48.938499999999998,136.80199999999999,97.9101,-158.71799999999999
380.0,485.73500000000001,-64.806600000000003,-256.13099999999997,-88.5047,138.96100000000001,115.682,-187.28700000000001
381.0,503.38099999999997,-12.854100000000001,-216.06100000000001,-100.28400000000001,106.928,125.05500000000001,-216.79900000000001
382.0,479.59100000000001,52.624200000000002,-155.39099999999999,-88.131500000000003,73.009299999999996,115.024,-216.42699999999999
383.0,437.44099999999997,102.03700000000001,-103.851,-72.178100000000001,57.082000000000001,89.551500000000004,-200.53999999999999
384.0,397.62,73.585400000000007,-113.005,-102.976,53.924399999999999,60.782499999999999,-187.30500000000001
385.0,364.81200000000001,54.433599999999998,-106.861,-109.495,49.9039,40.734000000000002,-177.19200000000001
386.0,338.10399999999998,45.808799999999998,-99.351900000000001,-109.76300000000001,41.867699999999999,31.145299999999999,-166.78700000000001
387.0,318.21699999999998,57.746600000000001,-77.664100000000005,-94.879800000000003,34.107700000000001,24.6997,-158.09100000000001
388.0,304.197,42.051900000000003,-86.811400000000006,-105.539,29.114599999999999,18.031300000000002,-152.36799999999999
389.0,292.31400000000002,56.880600000000001,-69.041799999999995,-81.893299999999996,25.595600000000001,16.420500000000001,-147.23400000000001
390.0,284.33300000000003,54.641599999999997,-72.787700000000001,-80.166300000000007,23.857800000000001,19.9559,-142.255
391.0,575.94600000000003,-60.053800000000003,-376.47399999999999,33.763500000000001,235.76300000000001,-40.1248,84.701300000000003
392.0,608.74699999999996,-67.386799999999994,-389.68099999999998,53.750700000000002,258.036,-30.2056,59.154200000000003
393.0,631.97699999999998,-90.646500000000003,-412.03699999999998,52.411000000000001,274.55799999999999,-15.3583,30.581199999999999
394.0,647.21799999999996,-89.862099999999998,-407.50400000000002,64.663700000000006,285.77100000000002,-0.039105800000000003,3.5971600000000001
395.0,660.74199999999996,-107.729,-421.214,52.432099999999998,294.53199999999998,15.337899999999999,-22.3169
396.0,673.86300000000006,-102.916,-413.63099999999997,56.9649,300.262,33.389499999999998,-53.206699999999998
397.0,686.69600000000003,-117.393,-426.78399999999999,36.606999999999999,301.31200000000001,53.947400000000002,-88.259399999999999
398.0,687.33299999999997,-103.599,-410.69999999999999,27.7941,293.209,75.239900000000006,-123.291
399.0,672.68700000000001,-103.036,-399.88,0.0817465,276.255,90.715999999999994,-152.21600000000001
400.0,659.74300000000005,-65.4465,-348.78399999999999,0.63991699999999996,244.959,114.408,-193.74100000000001
401.0,634.52800000000002,-39.954300000000003,-302.185,-10.9626,187.15000000000001,132.51599999999999,-236.405
402.0,554.94899999999996,25.638300000000001,-208.916,10.254099999999999,134.44399999999999,134.041,-222.25999999999999
403.0,441.61099999999999,10.8718,-189.90199999999999,-44.747399999999999,102.40300000000001,111.09099999999999,-177.29499999999999
404.0,357.94400000000002,-13.648199999999999,-178.63800000000001,-61.555,79.199100000000001,84.903499999999994,-148.40000000000001
405.0,347.39400000000001,-43.3705,-204.19499999999999,-52.242899999999999,95.185599999999994,77.097099999999998,-130.58000000000001
406.0,402.55799999999999,-35.427999999999997,-227.02500000000001,-68.728399999999993,107.26600000000001,90.768600000000006,-154.251
407.0,426.10399999999998,-28.241099999999999,-230.25999999999999,-96.760999999999996,86.941599999999994,95.726100000000002,-182.33099999999999
408.0,404.56,51.736600000000003,-146.53200000000001,-42.508499999999998,54.465499999999999,92.758200000000002,-182.072
409.0,371.173,94.658600000000007,-103.836,-34.625700000000002,36.683900000000001,83.1357,-165.87700000000001
410.0,339.58699999999999,88.713700000000003,-93.537999999999997,-53.146700000000003,37.1721,61.023400000000002,-155.47399999999999
411.0,314.738,67.063900000000004,-90.680199999999999,-66.254199999999997,38.279200000000003,40.494500000000002,-150.685
412.0,294.78300000000002,64.253,-77.426100000000005,-64.983900000000006,34.814799999999998,26.317599999999999,-144.589
413.0,279.08100000000002,45.8855,-83.369600000000005,-77.865300000000005,30.034199999999998,15.734400000000001,-139.53700000000001
414.0,266.37900000000002,54.8354,-66.488100000000003,-61.602400000000003,25.7316,11.7088,-134.672
415.0,257.05799999999999,45.030799999999999,-74.471100000000007,-67.602500000000006,23.0032,14.1799,-129.59
416.0,250.72800000000001,51.195999999999998,-68.351900000000001,-59.110799999999998,22.1462,16.140799999999999,-125.61799999999999
417.0,494.09899999999999,-19.470300000000002,-317.92700000000002,61.225299999999997,188.958,-34.3247,67.850099999999998
418.0,518.86199999999997,-46.314999999999998,-345.33199999999999,58.5428,207.03800000000001,-26.046500000000002,47.703400000000002
419.0,533.11800000000005,-46.495100000000001,-341.18099999999998,71.539299999999997,221.053,-12.035299999999999,23.3247
420.0,541.15700000000004,-68.341899999999995,-360.15899999999999,50.760300000000001,230.024,2.2916500000000002,-1.1717900000000001
421.0,551.94600000000003,-61.378300000000003,-354.05200000000002,56.695300000000003,236.542,15.6166,-25.167200000000001
422.0,565.96900000000005,-77.507199999999997,-370.488,41.0364,241.768,29.1875,-50.948399999999999
423.0,577.98599999999999,-61.189599999999999,-351.53500000000003,56.348700000000001,241.56899999999999,46.322800000000001,-82.302700000000002
424.0,576.89800000000002,-63.000599999999999,-347.76100000000002,41.131,233.22900000000001,62.071399999999997,-110.273
425.0,566.61400000000003,-35.596299999999999,-311.73899999999998,45.134399999999999,215.845,78.774199999999993,-138.56800000000001
426.0,544.68200000000002,-28.3628,-288.14400000000001,18.2621,188.94800000000001,91.864099999999993,-165.81700000000001
427.0,514.67899999999997,-4.1267399999999999,-223.54499999999999,36.884099999999997,150.78700000000001,101.19799999999999,-188.977
428.0,461.822,31.681799999999999,-163.26499999999999,42.942999999999998,114.676,110.624,-179.61799999999999
429.0,378.346,39.346600000000002,-138.33799999999999,-7.8672599999999999,93.433499999999995,88.749300000000005,-150.46100000000001
430.0,314.96699999999998,-36.231699999999996,-183.31899999999999,-77.238,77.913200000000003,66.067800000000005,-129.88900000000001
431.0,306.11799999999999,-19.592300000000002,-166.15600000000001,-35.403700000000001,75.919499999999999,66.582099999999997,-120.69799999999999
432.0,334.59100000000001,-9.2524700000000006,-185.07900000000001,-43.839500000000001,75.984700000000004,76.143799999999999,-130.648
433.0,351.15600000000001,-9.5872799999999998,-192.851,-59.197200000000002,66.882400000000004,79.186199999999999,-146.20099999999999
434.0,343.00299999999999,49.896099999999997,-121.577,-12.3348,47.0657,81.798299999999998,-150.917
435.0,321.88499999999999,121.233,-51.660699999999999,28.400300000000001,27.6995,79.423000000000002,-141.33199999999999
436.0,296.673,102.056,-70.727099999999993,-11.686199999999999,24.760999999999999,61.1036,-131.44900000000001
437.0,273.892,75.750200000000007,-79.502700000000004,-35.628999999999998,29.1736,38.515799999999999,-127.536
438.0,256.47800000000001,50.588299999999997,-85.167000000000002,-54.716700000000003,28.892099999999999,21.1861,-124.776
439.0,243.10900000000001,52.127699999999997,-69.982200000000006,-46.918599999999998,25.262799999999999,11.149800000000001,-121.36499999999999
440.0,234.26400000000001,36.6342,-78.479500000000002,-57.060200000000002,22.566400000000002,8.0532199999999996,-118.199
441.0,230.709,48.451799999999999,-66.273099999999999,-42.593899999999998,20.8125,9.2338000000000005,-116.426
442.0,227.084,42.768300000000004,-73.328400000000002,-44.864899999999999,22.968800000000002,13.6517,-113.19799999999999
443.0,425.30099999999999,-2.1238700000000001,-272.63600000000002,73.212199999999996,153.375,-28.970199999999998,53.413699999999999
444.0,440.50099999999998,-4.6183800000000002,-277.75200000000001,84.202600000000004,165.899,-19.6707,34.457799999999999
445.0,449.03399999999999,-19.894500000000001,-294.15100000000001,71.223699999999994,175.39500000000001,-7.7127299999999996,14.760300000000001
446.0,452.73399999999998,-15.172599999999999,-287.76299999999998,71.830200000000005,181.89099999999999,3.6778,-5.2896000000000001
447.0,461.03100000000001,-25.087700000000002,-296.87,60.1098,187.64699999999999,14.0002,-26.129300000000001
448.0,476.54000000000002,-22.448699999999999,-296.50900000000001,64.585099999999997,192.72499999999999,25.485299999999999,-48.9101
449.0,487.08499999999998,-34.155500000000004,-307.08300000000003,50.342399999999998,193.04300000000001,38.005099999999999,-74.005799999999994
450.0,487.16500000000002,-25.3508,-290.63200000000001,51.217500000000001,186.94399999999999,50.707599999999999,-96.992599999999996
451.0,481.63799999999998,-25.118300000000001,-279.26400000000001,32.539400000000001,174.32300000000001,64.898200000000003,-123.298
452.0,480.49900000000002,-4.8442800000000004,-248.08099999999999,32.2059,154.67500000000001,79.681200000000004,-153.30799999999999
453.0,440.48700000000002,13.872400000000001,-197.09,45.086799999999997,112.92100000000001,83.473299999999995,-166.14099999999999
454.0,367.13600000000002,70.429900000000004,-113.79600000000001,66.883499999999998,78.6447,82.460099999999997,-144.38
455.0,313.13,14.4566,-156.91,-21.938099999999999,72.836699999999993,65.695700000000002,-122.111
456.0,271.517,-13.194800000000001,-162.12899999999999,-40.1297,60.1997,51.652200000000001,-109.46899999999999
457.0,256.96300000000002,-16.3873,-157.40100000000001,-25.1877,52.553400000000003,55.263100000000001,-99.768699999999995
458.0,277.44099999999997,7.82219,-146.53100000000001,-9.9773700000000005,49.729500000000002,66.916499999999999,-107.59
459.0,295.80500000000001,4.6607700000000003,-163.01900000000001,-36.794600000000003,48.946399999999997,70.4679,-119.069
460.0,296.99099999999999,-2.34639,-164.78299999999999,-53.008400000000002,43.209699999999998,68.738600000000005,-126.101
461.0,282.63499999999999,45.348599999999998,-108.11799999999999,-13.992000000000001,23.4072,69.024600000000007,-123.8
462.0,258.15499999999997,104.67100000000001,-54.420099999999998,17.744,14.764699999999999,58.974200000000003,-110.331
463.0,234.18299999999999,86.143799999999999,-63.500599999999999,-7.37974,19.995000000000001,37.042400000000001,-103.893
464.0,218.45599999999999,63.1751,-64.726799999999997,-19.689699999999998,22.713200000000001,18.0215,-104.202
465.0,209.27500000000001,48.4739,-66.910300000000007,-29.9025,20.119499999999999,8.3736700000000006,-103.212
466.0,204.73699999999999,50.246299999999998,-59.426900000000003,-24.7791,18.364999999999998,4.6222300000000001,-102.327
467.0,203.33199999999999,38.670900000000003,-69.002799999999993,-33.051200000000001,18.001100000000001,5.0419299999999998,-102.11199999999999
468.0,205.595,40.869900000000001,-70.696200000000005,-29.155999999999999,20.312100000000001,8.7703399999999991,-102.083
469.0,363.92599999999999,23.735299999999999,-224.292,88.430300000000003,121.59099999999999,-23.1874,39.694899999999997
470.0,372.11900000000003,4.8843800000000002,-242.93100000000001,78.480000000000004,130.43000000000001,-15.107699999999999,23.697700000000001
471.0,375.16300000000001,13.6647,-232.74799999999999,87.2059,136.90000000000001,-5.5380700000000003,7.7820400000000003
472.0,377.73000000000002,-4.0885499999999997,-249.375,65.292199999999994,141.90700000000001,3.7482000000000002,-8.7142400000000002
473.0,383.476,5.1273499999999999,-240.17099999999999,71.017700000000005,145.84200000000001,12.2523,-26.570499999999999
474.0,393.34500000000003,-9.1852999999999998,-255.19300000000001,56.583300000000001,148.45099999999999,21.010400000000001,-45.6708
475.0,402.81799999999998,7.62568,-238.85900000000001,69.117000000000004,149.28999999999999,31.173400000000001,-65.299199999999999
476.0,406.26400000000001,-1.70974,-246.44800000000001,46.766599999999997,146.51300000000001,40.3247,-84.977500000000006
477.0,414.233,20.303100000000001,-221.661,53.7151,139.42400000000001,52.702800000000003,-111.343
478.0,415.64999999999998,15.4427,-217.91999999999999,30.464500000000001,121.322,64.657399999999996,-138.89699999999999
479.0,380.26499999999999,40.647300000000001,-156.75399999999999,69.373000000000005,90.849000000000004,63.7438,-143.977
480.0,321.62,59.1143,-116.90900000000001,53.430900000000001,64.254099999999994,69.989500000000007,-124.28700000000001
481.0,259.23200000000003,32.444800000000001,-120.70099999999999,9.0177700000000005,53.266100000000002,50.731999999999999,-100.91800000000001
482.0,228.75,-10.9977,-141.23099999999999,-12.8714,41.585599999999999,48.196899999999999,-88.410600000000002
483.0,219.52199999999999,5.3279500000000004,-118.366,6.9476000000000004,32.983199999999997,53.667099999999998,-83.231800000000007
484.0,232.36199999999999,21.008600000000001,-110.559,11.914400000000001,25.2928,61.321100000000001,-90.545599999999993
485.0,254.095,23.7864,-132.50200000000001,-10.0641,27.481400000000001,63.946800000000003,-99.581699999999998
486.0,261.625,2.8417300000000001,-164.553,-45.9559,33.866799999999998,55.798999999999999,-105.565
487.0,251.36099999999999,42.7958,-103.08199999999999,5.09945,22.3827,55.068600000000004,-108.596
488.0,227.12700000000001,107.318,-35.188899999999997,46.4343,9.9305699999999995,53.935699999999997,-95.262799999999999
489.0,201.71600000000001,98.492900000000006,-42.473500000000001,19.1281,13.248200000000001,37.601399999999998,-83.543499999999995
490.0,185.92599999999999,56.839700000000001,-60.902500000000003,-9.5372000000000003,18.438099999999999,17.500499999999999,-85.977099999999993
491.0,180.434,54.028399999999998,-51.185400000000001,-7.5067199999999996,17.935500000000001,6.6619099999999998,-87.704300000000003
492.0,179.37200000000001,37.079500000000003,-63.855800000000002,-22.382400000000001,15.523899999999999,2.4992999999999999,-88.902299999999997
493.0,182.09,42.690399999999997,-58.519500000000001,-13.936400000000001,16.816400000000002,2.3778199999999998,-90.503600000000006
494.0,198.941,35.302199999999999,-75.849199999999996,-23.153300000000002,22.821200000000001,7.4669699999999999,-97.593400000000003
495.0,310.42700000000002,33.0045,-190.27000000000001,89.108500000000006,95.2744,-18.988099999999999,29.016200000000001
496.0,314.48000000000002,35.478499999999997,-186.506,96.900599999999997,101.63800000000001,-12.058199999999999,16.186299999999999
497.0,314.65199999999999,24.471399999999999,-195.00800000000001,84.964500000000001,106.18000000000001,-4.31271,2.5548099999999998
498.0,317.10000000000002,30.8583,-187.27600000000001,89.763199999999998,109.812,3.1859500000000001,-12.171200000000001
499.0,321.05099999999999,23.715499999999999,-193.93100000000001,79.042900000000003,112.593,10.756500000000001,-27.2149
500.0,325.851,30.1372,-186.26900000000001,81.165599999999998,114.122,18.2639,-43.313200000000002
501.0,330.81999999999999,20.828099999999999,-196.114,64.214200000000005,113.872,25.590499999999999,-58.360900000000001
502.0,335.154,26.148299999999999,-192.196,58.473999999999997,111.895,31.3658,-73.116699999999994
503.0,346.553,22.894600000000001,-197.04900000000001,39.350999999999999,105.86499999999999,41.982599999999998,-98.190100000000001
504.0,351.65300000000002,32.505699999999997,-180.53299999999999,39.955399999999997,94.1203,49.270899999999997,-119.405
505.0,315.31200000000001,33.4191,-138.77500000000001,70.463999999999999,73.888400000000004,49.142699999999998,-113.131
506.0,262.685,74.8523,-71.693399999999997,90.6447,52.662199999999999,57.186199999999999,-94.5749
507.0,219.99600000000001,25.841100000000001,-105.393,26.9955,44.227800000000002,44.442,-80.061300000000003
508.0,196.989,0.57784800000000003,-112.31699999999999,14.3169,32.606299999999997,45.276800000000001,-70.664199999999994
509.0,192.393,2.9172099999999999,-103.10599999999999,14.5566,21.0076,51.492800000000003,-71.006799999999998
510.0,207.732,25.0824,-88.182900000000004,25.849499999999999,8.7361699999999995,61.172600000000003,-79.122100000000003
511.0,219.18899999999999,35.948500000000003,-97.132199999999997,15.063000000000001,7.4796899999999997,63.188299999999998,-82.725399999999993
512.0,221.36500000000001,17.853100000000001,-133.22900000000001,-28.350100000000001,19.386099999999999,51.586100000000002,-85.462599999999995
513.0,217.69999999999999,-5.6581700000000001,-139.083,-35.715899999999998,18.823,45.793500000000002,-91.913499999999999
514.0,200.94399999999999,83.226699999999994,-41.085700000000003,45.057099999999998,7.77121,48.060200000000002,-83.869500000000002
515.0,179.964,104.758,-28.425000000000001,36.256399999999999,8.4954400000000003,37.435499999999998,-69.903400000000005
516.0,165.48400000000001,64.479200000000006,-49.426299999999998,7.6373499999999996,15.2394,16.365300000000001,-73.380200000000002
517.0,161.596,46.944499999999998,-53.065399999999997,-0.55716200000000005,17.550799999999999,4.5664100000000003,-76.635300000000001
518.0,159.51599999999999,43.560699999999997,-50.886899999999997,-0.48140899999999998,15.672499999999999,0.89402300000000001,-77.471599999999995
519.0,169.22900000000001,35.316299999999998,-63.228999999999999,-8.3135100000000008,16.359300000000001,0.058363499999999999,-82.704999999999998
520.0,207.83199999999999,35.682200000000002,-90.436999999999998,-22.681899999999999,17.138100000000001,3.6503800000000002,-100.53400000000001
521.0,265.58999999999997,50.2744,-148.15000000000001,100.46299999999999,74.694100000000006,-15.491199999999999,20.254300000000001
522.0,266.255,34.506700000000002,-162.41499999999999,85.640299999999996,79.280699999999996,-9.3893400000000007,10.151400000000001
523.0,267.24000000000001,45.9512,-149.078,97.485500000000002,82.915899999999993,-3.6070600000000002,-1.8526899999999999
524.0,268.822,30.561399999999999,-162.31,82.383600000000001,85.117500000000007,2.4967000000000001,-14.5152
525.0,270.45499999999998,42.033700000000003,-149.95400000000001,88.949600000000004,86.539000000000001,9.6045499999999997,-27.895800000000001
526.0,273.488,27.549700000000001,-165.56100000000001,64.780000000000001,87.048900000000003,16.219200000000001,-42.451700000000002
527.0,278.16800000000001,46.855899999999998,-148.214,76.402299999999997,86.497200000000007,21.072500000000002,-54.501199999999997
528.0,280.42899999999997,36.140999999999998,-157.97300000000001,60.2119,84.6006,25.184999999999999,-64.118899999999996
529.0,284.06900000000002,57.940100000000001,-130.54499999999999,71.154600000000002,78.058599999999998,33.371200000000002,-83.433099999999996
530.0,282.04899999999998,45.145800000000001,-132.875,49.374699999999997,66.135400000000004,37.347900000000003,-99.637900000000002
531.0,260.72500000000002,66.470699999999994,-86.763800000000003,105.024,49.555500000000002,37.173499999999997,-92.357900000000001
532.0,228.96199999999999,77.849000000000004,-63.942100000000003,109.265,37.518000000000001,47.966799999999999,-72.461799999999997
533.0,186.25899999999999,30.744499999999999,-91.2042,45.894399999999997,35.7639,36.111899999999999,-57.719299999999997
534.0,168.47900000000001,-7.2597199999999997,-109.551,12.8141,26.120899999999999,38.237499999999997,-54.869100000000003
535.0,175.185,11.134499999999999,-86.0197,31.941800000000001,12.7614,48.368499999999997,-61.344000000000001
536.0,193.482,31.991299999999999,-68.210499999999996,47.581400000000002,-1.6680900000000001,63.003999999999998,-67.510199999999998
537.0,192.64400000000001,47.325299999999999,-63.0745,39.661099999999998,-5.0174399999999997,64.204300000000003,-66.505499999999998
538.0,180.251,26.487500000000001,-100.26000000000001,-10.872999999999999,3.1953900000000002,47.393500000000003,-65.818100000000001
539.0,176.57499999999999,16.3066,-103.812,-7.3727400000000003,5.7137200000000004,38.304099999999998,-69.604799999999997
540.0,167.143,68.915899999999993,-39.169199999999996,48.146999999999998,-1.5760099999999999,41.589799999999997,-65.5017
541.0,155.71299999999999,114.91200000000001,-5.73637,59.0212,-2.4295399999999998,36.893700000000003,-55.403500000000001
542.0,145.86799999999999,67.263400000000004,-45.367899999999999,15.8744,7.7408700000000001,17.7089,-59.492800000000003
543.0,143.43199999999999,57.068800000000003,-40.999699999999997,19.8811,15.080299999999999,4.6613100000000003,-64.477199999999996
544.0,143.54599999999999,34.314300000000003,-57.68,2.31012,15.693,1.35232,-66.628799999999998
545.0,155.34999999999999,44.622599999999998,-53.511400000000002,9.5667600000000004,15.204000000000001,1.1131500000000001,-73.069199999999995
546.0,190.55500000000001,40.351799999999997,-83.1036,-14.207000000000001,6.3416699999999997,0.31068299999999999,-90.752399999999994
547.0,225.828,53.371499999999997,-121.071,96.899100000000004,57.843499999999999,-12.6358,13.708600000000001
548.0,227.77099999999999,55.074800000000003,-119.89700000000001,98.624200000000002,61.926099999999998,-7.5145799999999996,4.9586399999999999
549.0,230.971,49.013300000000001,-126.04300000000001,93.764499999999998,65.186199999999999,-3.2473299999999998,-5.3837400000000004
550.0,231.94300000000001,52.550400000000003,-120.304,97.760300000000001,66.682199999999995,2.05918,-15.3635
551.0,229.63,50.765300000000003,-119.239,89.089200000000005,66.899600000000007,8.1399399999999993,-27.198499999999999
552.0,229.53399999999999,55.052500000000002,-113.54600000000001,84.680199999999999,66.076300000000003,13.435700000000001,-39.781100000000002
553.0,232.04599999999999,49.687899999999999,-118.848,71.596800000000002,64.581999999999994,17.626999999999999,-51.068399999999997
554.0,237.411,51.433300000000003,-117.471,71.316199999999995,62.890500000000003,21.702000000000002,-60.008699999999997
555.0,235.90100000000001,49.359999999999999,-110.127,65.155799999999999,54.384,28.3065,-73.411799999999999
556.0,217.38300000000001,61.312600000000003,-79.540899999999993,75.710499999999996,40.587000000000003,27.310400000000001,-77.461299999999994
557.0,203.892,48.887099999999997,-69.162499999999994,105.851,30.953299999999999,28.124700000000001,-64.341499999999996
558.0,185.66399999999999,82.590400000000002,-31.5489,129.17699999999999,24.263400000000001,42.7761,-47.258499999999998
559.0,147.72300000000001,29.7226,-68.415700000000001,52.853999999999999,20.0838,30.978300000000001,-42.018599999999999
560.0,142.62200000000001,4.4668400000000004,-82.890600000000006,28.7729,14.335100000000001,35.163200000000003,-43.473599999999998
561.0,163.34800000000001,8.6894200000000001,-76.444999999999993,39.889400000000002,5.0481299999999996,48.960099999999997,-53.345399999999998
562.0,185.88900000000001,38.569400000000002,-49.017000000000003,66.236000000000004,-8.00929,66.459599999999995,-58.456400000000002
563.0,175.71100000000001,41.187899999999999,-54.347999999999999,43.6038,-9.3017299999999992,64.774299999999997,-53.739699999999999
564.0,148.93600000000001,27.2879,-72.498999999999995,4.3536299999999999,-2.89419,46.097499999999997,-50.289299999999997
565.0,136.49700000000001,6.3747400000000001,-86.7941,-9.4562799999999996,1.43618,36.359000000000002,-49.000300000000003
566.0,132.89099999999999,69.8095,-15.4236,58.984900000000003,-3.3510399999999998,37.299900000000001,-48.281399999999998
567.0,133.21700000000001,117.931,19.084700000000002,76.828800000000001,-10.4453,38.323799999999999,-43.267600000000002
568.0,125.92,93.162400000000005,-11.2308,44.490699999999997,-1.8367800000000001,23.589400000000001,-44.685699999999997
569.0,124.873,59.088099999999997,-36.225099999999998,25.213699999999999,10.407299999999999,7.8581200000000004,-51.8964
570.0,130.30000000000001,50.250799999999998,-40.516300000000001,23.388999999999999,13.2479,2.96434,-57.454799999999999
571.0,140.16800000000001,48.5715,-49.702399999999997,14.733599999999999,9.2349099999999993,3.15211,-62.939300000000003
572.0,147.35499999999999,55.502899999999997,-47.417700000000004,10.028499999999999,-1.6971000000000001,-0.069766900000000007,-67.637299999999996
573.0,191.614,65.192800000000005,-87.458699999999993,102.277,44.130899999999997,-10.500400000000001,8.24376
574.0,196.852,53.050400000000003,-102.364,92.462100000000007,47.472999999999999,-7.1839399999999998,0.92966300000000002
575.0,200.053,62.098199999999999,-94.264399999999995,102.538,49.7911,-3.3324500000000001,-6.89323
576.0,199.233,50.8626,-103.41800000000001,89.229399999999998,50.861899999999999,1.4777,-15.6282
577.0,196.68000000000001,58.988199999999999,-92.346800000000002,91.165899999999993,51.027099999999997,6.3598600000000003,-25.449400000000001
578.0,193.066,49.2209,-97.097399999999993,73.241600000000005,49.660600000000002,10.994400000000001,-36.572200000000002
579.0,191.56200000000001,66.506900000000002,-76.636399999999995,82.390500000000003,47.262099999999997,14.1891,-46.098199999999999
580.0,196.48400000000001,56.882300000000001,-85.074799999999996,71.116799999999998,43.390099999999997,18.025099999999998,-56.592500000000001
581.0,202.37700000000001,78.093299999999999,-58.520299999999999,97.040000000000006,35.7986,23.775500000000001,-67.837000000000003
582.0,187.846,62.547600000000003,-51.014400000000002,100.55800000000001,23.435500000000001,24.892299999999999,-66.135900000000007
583.0,149.548,92.726500000000001,19.089600000000001,158.20500000000001,11.513400000000001,26.644100000000002,-42.054299999999998
584.0,121.84399999999999,95.103800000000007,30.552,136.82900000000001,10.3432,35.103400000000001,-27.2456
585.0,117.979,38.016599999999997,-26.512599999999999,72.089100000000002,13.621,29.381799999999998,-32.908799999999999
586.0,131.065,5.4378299999999999,-65.268900000000002,36.172600000000003,7.0438400000000003,37.403500000000001,-39.643900000000002
587.0,159.84100000000001,21.036200000000001,-56.486899999999999,56.895499999999998,-2.5668500000000001,51.390000000000001,-50.103099999999998
588.0,182.17099999999999,40.711799999999997,-39.542900000000003,76.529499999999999,-12.694800000000001,68.032799999999995,-52.342599999999997
589.0,166.43000000000001,51.497700000000002,-34.899700000000003,59.365299999999998,-13.9474,65.227199999999996,-45.259700000000002
590.0,132.68600000000001,31.5535,-52.9925,20.523499999999999,-7.92516,45.558999999999997,-40.220999999999997
591.0,110.90000000000001,23.560500000000001,-54.878100000000003,10.1287,0.80416200000000004,33.018900000000002,-35.339599999999997
592.0,108.703,43.213900000000002,-28.686299999999999,34.5458,3.86673,31.658200000000001,-37.1633
593.0,113.57299999999999,105.964,28.568000000000001,83.022199999999998,-5.3130199999999999,35.2956,-38.017600000000002
594.0,111.386,99.846699999999998,8.8106000000000009,57.013300000000001,-6.4518300000000002,27.483599999999999,-35.557899999999997
595.0,108.06100000000001,75.182599999999994,-16.177600000000002,39.793399999999998,2.9923999999999999,12.110099999999999,-40.184699999999999
596.0,115.61,52.141399999999997,-37.192,25.526800000000001,7.55626,4.0185199999999996,-47.731099999999998
597.0,122.70999999999999,57.830399999999997,-33.828499999999998,26.003699999999998,1.3365100000000001,1.97916,-53.365499999999997
598.0,118.803,60.469999999999999,-27.756900000000002,23.8001,-7.5198600000000004,-1.00417,-51.794800000000002
599.0,167.59999999999999,64.770399999999995,-71.919300000000007,99.351900000000001,32.3474,-10.014200000000001,3.7846199999999999
600.0,170.83199999999999,69.449100000000001,-67.938000000000002,106.633,34.878,-7.2903900000000004,-1.6597200000000001
601.0,171.583,62.796599999999998,-73.8733,100.036,36.8748,-3.4715799999999999,-7.5377799999999997
602.0,169.559,67.082999999999998,-67.676599999999993,100.113,38.046900000000001,0.74372199999999999,-15.3134
603.0,167.982,64.734200000000001,-67.921599999999998,92.197699999999998,38.205599999999997,5.1098299999999997,-24.259399999999999
604.0,164.41499999999999,69.854100000000003,-58.984000000000002,88.373800000000003,36.803699999999999,8.7163799999999991,-33.726700000000001
605.0,160.93799999999999,62.087000000000003,-61.187199999999997,74.349000000000004,33.9114,11.5495,-41.602699999999999
606.0,157.13200000000001,66.317300000000003,-48.250500000000002,78.268100000000004,29.6097,12.9382,-48.028700000000001
607.0,170.77199999999999,59.0413,-46.058399999999999,89.029499999999999,24.017299999999999,19.427700000000002,-61.110100000000003
608.0,159.697,69.013099999999994,-12.4785,120.81,16.107199999999999,25.742999999999999,-55.353400000000001
609.0,113.09999999999999,77.374600000000001,27.362500000000001,123.488,10.907299999999999,25.3749,-34.492600000000003
610.0,93.174000000000007,66.730099999999993,18.2485,93.334999999999994,9.6790599999999998,25.7743,-26.1997
611.0,101.633,-6.4642600000000003,-58.2346,33.402900000000002,8.62195,25.0823,-25.069700000000001
612.0,125.90900000000001,7.0837199999999996,-55.107999999999997,46.996200000000002,2.0503399999999998,38.371699999999997,-34.059800000000003
613.0,156.96000000000001,21.4909,-48.0,65.074600000000004,-8.0324200000000001,54.003700000000002,-44.483800000000002
614.0,173.126,42.084699999999998,-26.396000000000001,85.188599999999994,-17.163499999999999,68.319599999999994,-43.154200000000003
615.0,158.25399999999999,45.682600000000001,-26.788,58.854500000000002,-20.443899999999999,66.080699999999993,-37.905299999999997
616.0,124.553,36.241199999999999,-33.015999999999998,33.0563,-15.2553,48.144799999999996,-33.042000000000002
617.0,98.596299999999999,11.2209,-59.365400000000001,-2.3258999999999999,-5.1467000000000001,31.8218,-28.249700000000001
618.0,94.063999999999993,1.0112399999999999,-72.183899999999994,-15.522,3.5192600000000001,24.1188,-29.692900000000002
619.0,95.869799999999998,40.497999999999998,-23.311900000000001,30.244599999999998,0.61707199999999995,25.539100000000001,-35.168999999999997
620.0,95.699100000000001,97.558700000000002,24.860399999999998,70.140000000000001,-5.8166099999999998,25.8307,-31.683900000000001
621.0,94.178100000000001,86.504599999999996,1.72977,47.576099999999997,-3.0987900000000002,15.986800000000001,-29.843699999999998
622.0,97.874899999999997,68.116699999999994,-13.8497,39.580599999999997,0.471557,5.0220700000000003,-37.900599999999997
623.0,104.613,55.421599999999998,-25.432099999999998,28.4941,-3.23387,0.060816599999999998,-44.072800000000001
624.0,105.148,60.123399999999997,-19.1631,28.781199999999998,-8.0320300000000007,-0.61818899999999999,-45.009999999999998
625.0,150.197,73.436800000000005,-47.900100000000002,108.848,25.654299999999999,-10.1717,0.62027500000000002
626.0,149.83099999999999,63.3459,-56.914099999999998,99.289900000000003,26.978899999999999,-6.8032000000000004,-4.0771800000000002
627.0,148.16,71.310400000000001,-48.313000000000002,104.322,27.920999999999999,-3.1916600000000002,-8.8219600000000007
628.0,146.35499999999999,62.9313,-55.881599999999999,91.311000000000007,28.593499999999999,0.347082,-14.9778
629.0,143.66,69.344700000000003,-47.558399999999999,90.343800000000002,28.555299999999999,4.2012799999999997,-22.927399999999999
630.0,142.31299999999999,61.499899999999997,-52.9377,75.452500000000001,27.4925,6.7862499999999999,-31.4116
631.0,138.816,75.252899999999997,-32.690600000000003,84.652699999999996,24.419599999999999,9.3475599999999996,-38.574399999999997
632.0,132.059,68.793599999999998,-26.625299999999999,84.486699999999999,20.099699999999999,9.6335800000000003,-41.234200000000001
633.0,137.292,82.838200000000001,12.3986,126.839,8.3437599999999996,13.5703,-51.930900000000001
634.0,112.848,78.704400000000007,22.690899999999999,122.84999999999999,4.5904100000000003,23.746700000000001,-33.767299999999999
635.0,88.207099999999997,43.457799999999999,-11.7338,62.740299999999998,13.089600000000001,17.916499999999999,-24.639500000000002
636.0,86.674099999999996,-5.7659799999999999,-57.1875,20.630299999999998,13.0663,14.666499999999999,-23.499099999999999
637.0,99.509900000000002,9.8380700000000001,-38.804699999999997,56.7866,6.8648600000000002,24.675999999999998,-18.975000000000001
638.0,124.96599999999999,10.5868,-45.549500000000002,61.677900000000001,-0.64756100000000005,40.7654,-25.820499999999999
639.0,146.36000000000001,32.832500000000003,-21.014800000000001,87.831299999999999,-10.1447,55.057000000000002,-32.314399999999999
640.0,156.99100000000001,39.552599999999998,-11.406000000000001,86.502700000000004,-18.206399999999999,66.851699999999994,-31.8888
641.0,147.41900000000001,56.635599999999997,3.4119000000000002,76.653499999999994,-23.314499999999999,65.815600000000003,-30.591799999999999
642.0,121.884,44.446300000000001,-9.0569699999999997,45.773899999999998,-21.113700000000001,52.9619,-26.882400000000001
643.0,94.598600000000005,40.116500000000002,-19.633600000000001,29.2698,-12.823499999999999,34.554400000000001,-24.724599999999999
644.0,83.402000000000001,7.8846400000000001,-65.516000000000005,-16.488900000000001,-3.0560299999999998,18.264500000000002,-24.0444
645.0,82.2483,-1.3552,-62.072400000000002,-8.44421,-1.9844299999999999,15.227499999999999,-30.281600000000001
646.0,81.778099999999995,69.671800000000005,13.538,59.1008,-5.8533499999999998,20.728899999999999,-29.5886
647.0,83.343400000000003,102.18899999999999,26.518799999999999,62.499000000000002,-5.6345900000000002,16.323499999999999,-24.177399999999999
648.0,83.392200000000003,63.1006,-9.3889600000000009,33.937899999999999,-4.5628099999999998,5.25021,-30.648
649.0,89.784400000000005,64.252899999999997,-5.9786900000000003,41.052700000000002,-6.7774900000000002,-1.8144100000000001,-36.843000000000004
650.0,93.849800000000002,57.774500000000003,-13.2735,32.893900000000002,-11.606199999999999,-2.8996900000000001,-38.640599999999999
651.0,135.53700000000001,69.197299999999998,-41.159100000000002,102.297,19.713200000000001,-9.2601300000000002,-2.5988000000000002
652.0,135.048,76.3125,-33.701999999999998,108.574,20.900500000000001,-6.1059299999999999,-6.3893899999999997
653.0,131.965,69.364599999999996,-39.394399999999997,97.890699999999995,21.1876,-2.85562,-9.9788200000000007
654.0,128.33500000000001,74.820899999999995,-32.323599999999999,97.951999999999998,21.2194,0.21048900000000001,-14.439399999999999
655.0,125.083,72.5,-33.1783,87.324799999999996,21.073399999999999,3.0785800000000001,-21.0608
656.0,121.708,75.934399999999997,-24.765999999999998,85.472099999999998,19.5716,5.3196399999999997,-28.207100000000001
657.0,118.345,70.555499999999995,-23.257400000000001,75.388599999999997,16.421800000000001,6.7571899999999996,-35.505600000000001
658.0,114.175,66.225700000000003,-6.55436,93.898200000000003,9.8993599999999997,6.6667800000000002,-38.866799999999998
659.0,109.633,73.901600000000002,41.248600000000003,131.416,-1.42458,12.7372,-41.930199999999999
660.0,75.080500000000001,80.392399999999995,46.372300000000003,109.833,-1.7470600000000001,22.6859,-18.782
661.0,65.617400000000004,-1.4854499999999999,-53.005099999999999,9.5852500000000003,3.32491,9.5080100000000005,-14.765700000000001
662.0,81.638099999999994,-12.8689,-64.833600000000004,24.0472,5.9377700000000004,8.1316199999999998,-11.2425
663.0,104.702,0.46748800000000001,-47.4251,57.734000000000002,4.9097299999999997,27.656400000000001,-9.6551399999999994
664.0,123.842,14.460000000000001,-28.329899999999999,78.331999999999994,-2.2446999999999999,44.156999999999996,-16.618099999999998
665.0,133.00899999999999,24.752700000000001,-11.198499999999999,85.243799999999993,-10.281700000000001,54.722200000000001,-20.528400000000001
666.0,136.82599999999999,34.376199999999997,0.67062999999999995,81.219200000000001,-16.692,62.105600000000003,-21.639900000000001
667.0,133.21199999999999,40.297499999999999,4.2746199999999996,65.263300000000001,-22.402000000000001,62.729300000000002,-23.200600000000001
668.0,120.83,43.982100000000003,3.23231,48.498699999999999,-23.984200000000001,56.203600000000002,-22.6023
669.0,93.469099999999997,27.4145,-17.0641,18.5502,-19.3552,39.087400000000002,-21.342199999999998
670.0,70.981800000000007,15.1913,-42.685099999999998,-11.363899999999999,-11.1595,18.987300000000001,-18.8443
671.0,67.7012,-8.9882200000000001,-60.7682,-17.635899999999999,-8.3732299999999995,11.316000000000001,-23.669899999999998
672.0,71.055400000000006,56.554200000000002,11.2218,53.654400000000003,-9.8110900000000001,16.842300000000002,-25.671900000000001
673.0,72.186000000000007,91.722999999999999,26.9939,56.824199999999998,-8.5901399999999999,14.070499999999999,-20.3855
674.0,72.737700000000004,74.780600000000007,10.346299999999999,46.843400000000003,-7.7208500000000004,4.0738599999999998,-25.364000000000001
675.0,77.759500000000003,56.915999999999997,-3.6520299999999999,37.802199999999999,-9.2826799999999992,-3.4460099999999998,-30.963799999999999
676.0,82.244900000000001,55.206099999999999,-5.4494600000000002,37.6539,-12.3864,-4.5120699999999996,-33.268300000000004
677.0,121.843,77.0916,-23.237400000000001,106.717,14.593,-8.1925699999999999,-5.4632899999999998
678.0,123.05500000000001,70.143900000000002,-31.994900000000001,98.499499999999998,15.341799999999999,-5.6351100000000001,-8.3400999999999996
679.0,120.41,75.456500000000005,-25.771699999999999,100.476,15.7079,-2.6932299999999998,-10.5022
680.0,114.973,71.883399999999995,-27.0595,90.066900000000004,15.8392,0.19134999999999999,-13.498900000000001
681.0,110.27,73.671999999999997,-22.499199999999998,84.005700000000004,15.477600000000001,1.99549,-18.967700000000001
682.0,103.89400000000001,70.257800000000003,-18.704699999999999,75.968400000000003,13.8742,4.0731599999999997,-23.886500000000002
683.0,94.212000000000003,79.132900000000006,3.6642000000000001,83.000500000000002,10.902900000000001,4.2310499999999998,-28.654299999999999
684.0,93.536699999999996,71.547700000000006,29.6675,114.91200000000001,2.3831799999999999,0.87284399999999995,-33.061799999999998
685.0,89.184200000000004,106.04900000000001,90.363900000000001,159.751,-3.6103200000000002,18.740300000000001,-31.031500000000001
686.0,53.923999999999999,47.927599999999998,23.797499999999999,66.287400000000005,2.5594000000000001,17.663900000000002,-14.0206
687.0,50.854900000000001,13.722099999999999,-16.4038,36.5565,3.48488,6.6630500000000001,-9.99512
688.0,77.161900000000003,5.11205,-26.2788,56.479700000000001,3.7881100000000001,14.3622,-4.3043500000000003
689.0,106.75700000000001,23.891999999999999,-9.3945500000000006,91.947100000000006,2.0800999999999998,33.364899999999999,-3.6352099999999998
690.0,121.07599999999999,20.0016,-7.8869400000000001,91.724800000000002,-3.60182,46.295099999999998,-9.4616100000000003
691.0,120.72499999999999,31.652799999999999,8.8220399999999994,92.058899999999994,-8.7426999999999992,52.7468,-12.236700000000001
692.0,116.834,31.9026,11.811500000000001,75.982699999999994,-13.786199999999999,55.696399999999997,-13.432700000000001
693.0,117.871,47.380099999999999,25.157,74.3596,-19.821400000000001,57.843699999999998,-16.889700000000001
694.0,115.252,49.326300000000003,20.616299999999999,56.999499999999998,-23.872299999999999,56.2012,-18.2042
695.0,92.349999999999994,51.262799999999999,18.964700000000001,43.7532,-22.339700000000001,41.621699999999997,-18.048300000000001
696.0,65.838800000000006,27.2303,-14.2347,0.98555899999999996,-17.043099999999999,21.484200000000001,-15.9033
697.0,55.634099999999997,9.7772199999999998,-24.064599999999999,-0.443824,-15.126899999999999,12.8558,-18.339700000000001
698.0,61.203400000000002,54.338200000000001,23.798500000000001,52.696899999999999,-16.638200000000001,17.921900000000001,-18.855
699.0,62.348399999999998,97.901600000000002,45.3767,65.241100000000003,-14.2858,13.253399999999999,-14.583500000000001
700.0,62.291400000000003,67.793700000000001,13.655799999999999,43.057899999999997,-11.1305,2.2006399999999999,-20.739599999999999
701.0,69.401700000000005,62.646799999999999,9.4901999999999997,47.366599999999998,-11.5945,-4.55091,-26.4846
702.0,71.456500000000005,54.769399999999997,2.5670199999999999,42.7194,-12.6524,-5.10792,-27.726400000000002
703.0,110.664,72.161500000000004,-20.634699999999999,97.505899999999997,10.8637,-7.1372099999999996,-6.6890200000000002
704.0,113.06699999999999,83.379300000000001,-12.486800000000001,107.13800000000001,11.6655,-4.91594,-9.5033300000000001
705.0,112.229,72.1892,-24.9312,92.421599999999998,11.7081,-2.3066900000000001,-10.9763
706.0,107.875,81.931299999999993,-14.257899999999999,95.200999999999993,11.581899999999999,0.21279699999999999,-13.2866
707.0,100.577,74.055300000000003,-17.409400000000002,79.613,11.2837,1.4609300000000001,-16.555700000000002
708.0,91.298299999999998,85.129300000000001,2.61219,84.784599999999998,9.7441600000000008,3.3137500000000002,-20.3048
709.0,76.258600000000001,65.584100000000007,5.4965900000000003,76.246600000000001,5.8106499999999999,-0.608734,-21.1982
710.0,74.430999999999997,82.370699999999999,57.563200000000002,127.651,4.4091100000000001,1.4128499999999999,-23.711300000000001
711.0,66.200199999999995,70.725899999999996,51.733699999999999,102.67100000000001,2.8338000000000001,20.2347,-19.511900000000001
712.0,44.112900000000003,8.7518499999999992,-16.918399999999998,23.711300000000001,2.1099000000000001,9.6927299999999992,-11.313599999999999
713.0,50.161000000000001,-11.8254,-30.485800000000001,24.1402,1.22784,6.30863,-5.1430400000000001
714.0,79.918400000000005,8.7055600000000002,-2.81406,72.827799999999996,-0.213781,21.6251,0.53166599999999997
715.0,109.693,4.2676699999999999,-11.7287,82.163600000000002,-0.63597199999999998,38.550699999999999,1.03792
716.0,116.86799999999999,20.511600000000001,4.4048299999999996,94.430199999999999,-3.7395999999999998,47.0961,-4.0028899999999998
717.0,108.254,18.4694,7.0044199999999996,76.084100000000007,-7.8495400000000002,49.3523,-6.2103200000000003
718.0,101.129,27.529499999999999,17.724699999999999,67.667000000000002,-11.6503,50.071100000000001,-8.1192600000000006
719.0,104.21599999999999,28.112500000000001,17.431699999999999,56.071100000000001,-16.8096,52.993099999999998,-11.4603
720.0,105.902,40.927,23.9815,50.974299999999999,-21.000599999999999,54.271000000000001,-12.8809
721.0,87.898200000000003,31.311699999999998,9.8528699999999994,26.424099999999999,-21.2378,42.418999999999997,-14.087199999999999
722.0,62.180599999999998,20.350000000000001,-8.3817599999999999,-4.4136100000000003,-18.6981,23.339099999999998,-12.331300000000001
723.0,51.859900000000003,2.9070100000000001,-14.091799999999999,-5.6461100000000002,-19.460599999999999,16.068200000000001,-13.687200000000001
724.0,59.259900000000002,77.817499999999995,64.437399999999997,76.303799999999995,-22.167000000000002,21.359000000000002,-13.011799999999999
725.0,58.759500000000003,104.41500000000001,65.072199999999995,69.131699999999995,-19.726099999999999,14.246499999999999,-9.5188000000000006
726.0,53.288800000000002,70.698499999999996,28.715199999999999,49.015700000000002,-14.704000000000001,1.0688299999999999,-16.982500000000002
727.0,60.334000000000003,58.992199999999997,15.642300000000001,47.184399999999997,-13.957100000000001,-5.3769900000000002,-22.0777
728.0,62.1113,53.718200000000003,9.7652800000000006,44.300600000000003,-14.637600000000001,-5.0834299999999999,-22.5898
729.0,104.545,84.388499999999993,-6.03078,104.913,7.8654599999999997,-5.83765,-7.9401400000000004
730.0,105.039,70.061499999999995,-22.693300000000001,87.427599999999998,8.0442499999999999,-3.71427,-9.6926699999999997
731.0,105.254,83.000600000000006,-11.9613,96.869299999999996,7.9153599999999997,-1.82128,-10.853400000000001
732.0,103.39100000000001,72.356700000000004,-23.491199999999999,80.114099999999993,7.9344799999999998,0.166103,-13.0403
733.0,96.041600000000003,81.631500000000003,-9.8020600000000009,82.116600000000005,6.58162,1.34622,-15.098800000000001
734.0,82.843599999999995,71.323599999999999,-9.2937799999999999,64.871799999999993,4.1167100000000003,2.4253499999999999,-16.061499999999999
735.0,71.068399999999997,85.129400000000004,31.0745,100.137,3.9306899999999998,-6.4292800000000003,-17.530899999999999
736.0,62.281999999999996,82.3249,52.607199999999999,111.82299999999999,1.7217800000000001,7.4382299999999999,-18.9236
737.0,45.190899999999999,52.813899999999997,26.855399999999999,66.228399999999993,-0.55766400000000005,13.1409,-10.3477
738.0,38.894500000000001,4.8853600000000004,-18.1066,23.837499999999999,-0.91430500000000003,5.3597700000000001,-5.7885999999999997
739.0,56.385300000000001,14.414999999999999,3.5860799999999999,62.247399999999999,0.37411299999999997,9.2290399999999995,-0.24288100000000001
740.0,88.387699999999995,21.421600000000002,23.623200000000001,96.800399999999996,-0.74043300000000001,27.490500000000001,2.7504300000000002
741.0,110.048,28.135899999999999,26.086099999999998,109.658,-1.7940199999999999,41.851999999999997,3.1114099999999998
742.0,108.524,24.8611,20.876200000000001,96.252899999999997,-3.6793,45.969099999999997,-0.228102
743.0,96.769999999999996,29.9375,27.877400000000002,82.642399999999995,-6.2618200000000002,45.923699999999997,-3.1202800000000002
744.0,90.459000000000003,26.829899999999999,23.458200000000001,63.813299999999998,-9.1021999999999998,45.945,-5.7039799999999996
745.0,92.397099999999995,42.850000000000001,38.854799999999997,69.697299999999998,-12.664099999999999,48.405200000000001,-7.8079700000000001
746.0,94.303899999999999,43.438600000000001,34.002600000000001,53.683799999999998,-17.115300000000001,49.774700000000003,-9.8521199999999993
747.0,80.221599999999995,54.341700000000003,39.417099999999998,50.888100000000001,-18.446899999999999,40.091700000000003,-11.6829
748.0,57.979199999999999,31.068899999999999,7.7956200000000004,8.2574500000000004,-17.1083,22.9419,-11.1564
749.0,49.008099999999999,22.118200000000002,11.849500000000001,13.741899999999999,-17.675799999999999,16.710000000000001,-13.3818
750.0,57.418300000000002,80.534099999999995,78.366100000000003,77.203199999999995,-21.004100000000001,21.189499999999999,-14.350199999999999
751.0,58.486699999999999,113.119,87.299999999999997,78.278000000000006,-22.301100000000002,13.7722,-11.2355
752.0,49.590200000000003,66.714100000000002,35.373600000000003,45.486600000000003,-18.501000000000001,0.118358,-14.8856
753.0,52.590499999999999,65.139200000000002,31.529800000000002,56.5657,-15.597300000000001,-6.2027999999999999,-18.3081
754.0,56.255299999999998,55.219499999999996,17.534400000000002,48.590400000000002,-15.294,-5.2250300000000003,-19.7209
755.0,102.047,76.773600000000002,-14.173999999999999,92.962299999999999,4.5537000000000001,-4.8518699999999999,-9.57409
756.0,100.595,84.789400000000001,-7.8003999999999998,96.059700000000007,4.4146299999999998,-2.4331700000000001,-9.9952000000000005
757.0,100.255,79.013300000000001,-15.6447,85.977699999999999,4.42598,-0.87877899999999998,-10.361499999999999
758.0,99.643199999999993,82.201800000000006,-14.731400000000001,83.181299999999993,4.2581300000000004,-0.51247799999999999,-11.2788
759.0,95.013400000000004,80.790499999999994,-14.206099999999999,74.368899999999996,5.0408600000000003,2.5742099999999999,-12.5946
760.0,82.241500000000002,83.972200000000001,0.27136399999999999,73.8947,5.5867699999999996,1.8423,-11.488300000000001
761.0,66.808800000000005,70.272999999999996,16.3581,81.507099999999994,4.4630599999999996,-10.243499999999999,-12.2499
762.0,50.034599999999998,85.121499999999997,52.404499999999999,100.90600000000001,-1.27078,9.8962699999999995,-11.0884
763.0,37.393099999999997,31.841100000000001,6.5981699999999996,43.309399999999997,-1.4842299999999999,9.5448000000000004,-4.4760999999999997
764.0,37.514099999999999,4.01424,-12.0604,29.619499999999999,0.56857599999999997,5.1379900000000003,-0.71187199999999995
765.0,63.775399999999998,-1.7010099999999999,-3.18302,56.425199999999997,1.3669899999999999,13.448,4.1692200000000001
766.0,96.445800000000006,12.487,24.4404,96.695499999999996,-0.52359199999999995,31.735499999999998,4.1705800000000002
767.0,105.84099999999999,8.5264699999999998,19.963200000000001,89.228499999999997,-1.9583999999999999,42.4833,4.3037700000000001
768.0,98.723100000000002,18.322500000000002,25.218599999999999,84.094399999999993,-2.6601300000000001,43.917099999999998,2.5128200000000001
769.0,87.925299999999993,16.886900000000001,19.532800000000002,64.959699999999998,-4.6256300000000001,42.696399999999997,-1.51816
770.0,82.115799999999993,23.430499999999999,22.834,57.902799999999999,-6.7700300000000002,42.223500000000001,-3.9907900000000001
771.0,81.213700000000003,22.157900000000001,19.840599999999998,45.649799999999999,-9.0863999999999994,43.345799999999997,-5.7659599999999998
772.0,80.372500000000002,29.829799999999999,23.5047,39.148099999999999,-12.789999999999999,43.000999999999998,-8.8681900000000002
773.0,70.499499999999998,24.412299999999998,11.4474,20.4724,-14.7325,35.535499999999999,-11.520899999999999
774.0,53.720300000000002,16.064800000000002,-5.7517300000000002,-3.1024099999999999,-15.0684,20.834900000000001,-12.6127
775.0,45.075099999999999,0.21612300000000001,-13.735099999999999,-11.706899999999999,-15.3866,12.266400000000001,-15.271699999999999
776.0,52.923499999999997,48.469499999999996,46.3645,46.436,-19.344999999999999,14.029299999999999,-19.004100000000001
777.0,56.047499999999999,88.728099999999998,72.976299999999995,65.377899999999997,-23.7439,9.7041500000000003,-15.7263
778.0,50.468400000000003,78.680300000000003,53.869799999999998,56.179099999999998,-21.773099999999999,-1.38266,-13.607900000000001
779.0,50.378799999999998,54.249099999999999,28.083500000000001,48.417099999999998,-18.2485,-7.2640799999999999,-16.4788
780.0,54.835700000000003,52.392699999999998,19.525700000000001,50.188899999999997,-17.046900000000001,-6.7287100000000004,-18.135300000000001
781.0,99.905500000000004,85.476699999999994,-6.4335800000000001,96.436999999999998,1.97482,-3.6871200000000002,-10.857100000000001
782.0,100.004,74.618200000000002,-19.988199999999999,81.224100000000007,1.48264,-1.6453599999999999,-11.0634
783.0,98.952299999999994,83.295100000000005,-13.616300000000001,84.165199999999999,0.83703700000000003,0.179781,-10.2056
784.0,98.3857,79.035700000000006,-20.7621,72.997500000000002,0.79316699999999996,-0.85297400000000001,-9.6991899999999998
785.0,95.912000000000006,82.057400000000001,-18.816600000000001,67.582700000000003,0.733317,3.56487,-8.8395499999999991
786.0,87.689800000000005,66.236699999999999,-27.512899999999998,49.563000000000002,1.20234,1.26424,-7.6705399999999999
787.0,66.930700000000002,89.375200000000007,28.241,92.794399999999996,2.0874700000000002,-11.9862,-5.0835400000000002
788.0,40.616399999999999,84.628,53.588099999999997,95.539500000000004,0.46394200000000002,8.6995500000000003,-0.50738300000000003
789.0,38.094999999999999,48.825400000000002,29.577200000000001,66.892700000000005,1.3489100000000001,11.077,3.31576
790.0,43.692599999999999,7.5743799999999997,-3.3081100000000001,41.7393,1.67109,7.0656600000000003,5.5805400000000001
791.0,69.119399999999999,24.968399999999999,26.127099999999999,87.475999999999999,2.3115899999999998,15.8161,7.6353499999999999
792.0,97.436499999999995,24.776599999999998,40.798499999999997,110.242,0.99658199999999997,32.653399999999998,5.7863499999999997
793.0,99.993200000000002,33.132399999999997,52.999600000000001,109.81100000000001,-0.69156799999999996,41.533900000000003,4.8683399999999999
794.0,90.009,27.624700000000001,39.8795,86.521600000000007,-0.65024999999999999,41.445700000000002,4.0766099999999996
795.0,79.8215,29.527100000000001,34.254199999999997,73.103499999999997,-2.4437700000000002,39.319800000000001,-0.22971
796.0,72.563800000000001,28.645900000000001,28.426500000000001,58.880200000000002,-4.4319499999999996,37.637700000000002,-3.4633099999999999
797.0,68.945499999999996,37.076999999999998,31.073499999999999,55.081800000000001,-6.7237099999999996,36.5642,-6.80002
798.0,65.151399999999995,36.9617,23.929500000000001,43.682299999999998,-9.8896899999999999,33.204900000000002,-10.6614
799.0,60.336300000000001,40.962899999999998,18.884499999999999,36.302199999999999,-13.005599999999999,26.976099999999999,-13.461399999999999
800.0,51.709099999999999,34.3018,4.2797999999999998,20.150200000000002,-14.549200000000001,14.7296,-15.396800000000001
801.0,48.537500000000001,11.3049,-17.731300000000001,-3.8769200000000001,-14.732100000000001,1.8714,-18.810600000000001
802.0,56.000599999999999,5.4004500000000002,-4.6553199999999997,10.119999999999999,-19.608000000000001,3.1397499999999998,-24.3736
803.0,55.517000000000003,79.593299999999999,69.193100000000001,70.681700000000006,-24.675599999999999,4.69963,-19.0991
804.0,52.188299999999998,81.977099999999993,60.228400000000001,58.9617,-23.5122,-3.5437099999999999,-13.232799999999999
805.0,51.387599999999999,53.908900000000003,33.218800000000002,51.999899999999997,-20.4407,-8.3368699999999993,-16.191299999999998
806.0,55.732999999999997,56.169699999999999,27.308299999999999,58.602499999999999,-18.835599999999999,-8.6044800000000006,-17.4223
807.0,100.096,78.055099999999996,-17.4681,82.023499999999999,-0.70875299999999997,-2.0061200000000001,-12.730700000000001
808.0,102.896,89.191699999999997,-10.8307,90.315700000000007,-1.80454,-0.834955,-12.3497
809.0,102.31699999999999,80.958699999999993,-21.717700000000001,76.512200000000007,-2.7838400000000001,0.73328599999999999,-10.617800000000001
810.0,99.968900000000005,86.051400000000001,-18.238099999999999,73.630099999999999,-2.9207200000000002,0.43726599999999999,-8.80213
811.0,98.894800000000004,83.274199999999993,-22.903300000000002,63.7348,-4.8032500000000002,2.2368399999999999,-6.1955799999999996
812.0,92.149900000000002,86.864599999999996,-13.6028,64.599299999999999,-6.2147500000000004,0.70138400000000001,-2.69231
813.0,69.714100000000002,68.576599999999999,-0.346779,65.792199999999994,-1.6231599999999999,-8.6934000000000005,4.4402400000000002
814.0,49.596200000000003,84.447900000000004,52.312399999999997,103.68899999999999,-1.3256399999999999,1.9864299999999999,11.852399999999999
815.0,52.767600000000002,48.8583,35.450000000000003,74.399299999999997,-3.92272,15.5654,16.701499999999999
816.0,52.152799999999999,12.1981,8.4451199999999993,53.1845,0.31948599999999999,11.1996,12.852
817.0,68.691800000000001,-3.8580800000000002,0.66181100000000004,58.996499999999997,3.4988100000000002,15.196300000000001,10.0336
818.0,91.165300000000002,16.4786,37.503300000000003,96.637699999999995,2.27867,31.422799999999999,7.0983200000000002
819.0,95.690100000000001,8.2588500000000007,33.468899999999998,81.089799999999997,0.93170699999999995,40.821300000000001,4.1249700000000002
820.0,82.440899999999999,20.188300000000002,34.0291,72.569599999999994,0.85436299999999998,38.881900000000002,4.0225099999999996
821.0,69.394000000000005,14.940099999999999,19.1036,52.109299999999998,-0.748807,34.493000000000002,0.37206499999999998
822.0,60.165199999999999,22.416799999999999,19.578099999999999,46.356499999999997,-3.1568999999999998,31.122299999999999,-3.41736
823.0,56.866500000000002,11.1845,0.71155999999999997,24.401800000000001,-6.6748500000000002,28.426300000000001,-9.1864100000000004
824.0,56.898699999999998,14.3744,-8.3302399999999999,17.306000000000001,-8.6109100000000005,24.048400000000001,-15.158899999999999
825.0,58.305900000000001,-0.44262699999999999,-33.504899999999999,-7.2098699999999996,-10.142099999999999,18.260000000000002,-19.795100000000001
826.0,59.307000000000002,0.47090399999999999,-39.5824,-14.4663,-12.628299999999999,7.3073300000000003,-23.449300000000001
827.0,61.591099999999997,-26.912600000000001,-66.542000000000002,-39.832999999999998,-16.277000000000001,-6.2766999999999999,-23.4879
828.0,61.377600000000001,-10.2925,-26.115400000000001,2.5589,-22.627800000000001,-3.21428,-22.958600000000001
829.0,54.256399999999999,68.565100000000001,58.638599999999997,66.196700000000007,-25.363299999999999,1.6744600000000001,-17.557700000000001
830.0,53.267699999999998,78.687700000000007,60.834099999999999,60.687399999999997,-24.646599999999999,-5.8805300000000003,-14.023199999999999
831.0,53.804299999999998,45.260599999999997,28.472799999999999,48.210900000000002,-22.321899999999999,-9.8030799999999996,-16.038900000000002
832.0,55.9133,47.837299999999999,23.423999999999999,54.251399999999997,-20.570900000000002,-9.7421900000000008,-16.107399999999998
833.0,103.13500000000001,86.667199999999994,-14.0901,83.7971,-4.1408399999999999,-0.54070099999999999,-15.422000000000001
834.0,106.895,76.974199999999996,-28.8796,72.706400000000002,-5.4993499999999997,0.12088500000000001,-13.7149
835.0,106.44499999999999,83.833200000000005,-24.459099999999999,74.845200000000006,-6.5176100000000003,0.94949700000000004,-11.040800000000001
836.0,104.239,82.537300000000002,-26.7605,67.0578,-7.7418199999999997,1.25268,-7.90402
837.0,100.614,81.771900000000002,-26.191500000000001,62.119199999999999,-7.5399200000000004,1.11093,-3.0789599999999999
838.0,94.0017,79.828900000000004,-22.7468,56.844499999999996,-5.7655900000000004,0.58996800000000005,3.79155
839.0,82.517700000000005,88.522800000000004,10.280099999999999,85.013300000000001,-4.0707000000000004,-1.72478,17.232600000000001
840.0,76.057400000000001,84.243799999999993,55.671999999999997,121.402,-2.0637300000000001,-5.3522499999999997,28.444500000000001
841.0,74.849900000000005,101.105,92.455299999999994,130.84200000000001,-1.8092200000000001,23.7806,29.887799999999999
842.0,54.508099999999999,28.977900000000002,21.3154,63.074199999999998,3.0274999999999999,13.1883,17.694700000000001
843.0,61.185400000000001,21.087499999999999,18.441099999999999,72.938199999999995,5.8673500000000001,10.804399999999999,12.3485
844.0,80.144400000000005,36.066299999999998,51.115099999999998,104.351,4.8513500000000001,27.813400000000001,7.5297599999999996
845.0,88.251499999999993,37.884799999999998,56.947600000000001,103.652,2.3689900000000002,37.934699999999999,2.5406399999999998
846.0,72.478800000000007,34.948500000000003,40.716700000000003,78.286199999999994,2.19231,34.485799999999998,1.7788600000000001
847.0,55.732500000000002,28.881799999999998,24.740200000000002,56.597099999999998,1.2720199999999999,27.048300000000001,-1.4542999999999999
848.0,45.523499999999999,24.318200000000001,9.6416000000000004,36.869700000000002,-1.87632,21.5886,-5.9572200000000004
849.0,47.941600000000001,35.863500000000002,17.375,46.571599999999997,-7.6314099999999998,18.406600000000001,-12.285600000000001
850.0,55.282200000000003,24.545999999999999,-0.47670699999999999,29.835699999999999,-14.4848,17.546600000000002,-15.4549
851.0,59.4206,27.194800000000001,-5.7507400000000004,24.838200000000001,-20.020900000000001,14.3805,-15.215999999999999
852.0,62.3157,15.9404,-21.5305,8.5818100000000008,-25.527000000000001,4.9579199999999997,-14.9682
853.0,63.4129,13.6477,-19.896699999999999,11.905099999999999,-27.9573,-2.6975899999999999,-13.961
854.0,57.510199999999998,39.308799999999998,24.991900000000001,51.411000000000001,-26.7498,-0.220281,-14.559200000000001
855.0,51.983800000000002,80.969499999999996,70.330200000000005,77.402600000000007,-25.571000000000002,-0.37202400000000002,-14.745699999999999
856.0,54.788899999999998,63.345999999999997,50.514499999999998,56.914099999999998,-25.653400000000001,-8.1576900000000006,-15.3233
857.0,56.921799999999998,51.964100000000002,38.224200000000003,60.226500000000001,-23.9237,-11.9923,-15.503
858.0,59.086799999999997,47.993000000000002,27.359999999999999,59.840800000000002,-22.966000000000001,-11.171900000000001,-15.5344
859.0,108.974,78.196200000000005,-28.722899999999999,69.718000000000004,-7.4630700000000001,0.55930100000000005,-19.236699999999999
860.0,113.741,93.4816,-20.322900000000001,82.749700000000004,-9.6904000000000003,1.12958,-16.393000000000001
861.0,114.16800000000001,81.604799999999997,-34.361199999999997,69.893299999999996,-11.579599999999999,0.93909100000000001,-11.579800000000001
862.0,110.04000000000001,88.957700000000003,-25.0047,74.682900000000004,-12.175599999999999,1.08657,-5.6591199999999997
863.0,103.485,80.766499999999994,-26.803699999999999,66.132900000000006,-12.7605,0.88667899999999999,1.51915
864.0,97.230000000000004,92.742599999999996,-5.7811700000000004,75.828000000000003,-14.9381,-0.33643299999999998,12.347
865.0,94.850999999999999,60.223100000000002,-19.184000000000001,61.905099999999997,-12.6767,3.0244200000000001,26.110700000000001
866.0,97.487700000000004,90.399299999999997,53.957500000000003,129.80099999999999,3.6022799999999999,-4.7216699999999996,41.156799999999997
867.0,80.513900000000007,88.317800000000005,64.318700000000007,102.75,7.8949999999999996,24.9861,33.125900000000001
868.0,47.939,20.315200000000001,-3.93235,35.336300000000001,5.2268400000000002,9.9609000000000005,15.7133
869.0,53.352499999999999,-7.6361600000000003,-26.324400000000001,25.531500000000001,5.8169199999999996,6.1844900000000003,13.6753
870.0,69.088099999999997,16.541899999999998,14.1005,69.358900000000006,6.17347,22.571000000000002,8.2849699999999995
871.0,76.157300000000006,11.153499999999999,15.620799999999999,65.218599999999995,3.87704,31.898,0.55644199999999999
872.0,60.9925,15.232699999999999,4.0160999999999998,46.889200000000002,1.1016699999999999,27.185400000000001,-2.3301699999999999
873.0,46.275399999999998,12.824400000000001,-10.9693,29.954899999999999,-0.878112,16.613600000000002,-3.8239999999999998
874.0,40.715800000000002,6.5886100000000001,-26.5138,6.3863399999999997,-4.3096899999999998,10.782500000000001,-7.3971600000000004
875.0,43.756799999999998,-2.8034699999999999,-23.296600000000002,10.662000000000001,-9.0441900000000004,10.8643,-12.082100000000001
876.0,54.344099999999997,47.828099999999999,38.951099999999997,62.694400000000002,-18.9526,18.431999999999999,-11.898
877.0,62.967500000000001,70.319500000000005,55.5488,68.793700000000001,-26.171600000000002,21.8949,-9.5556599999999996
878.0,59.481099999999998,74.271500000000003,58.8857,71.517399999999995,-28.395299999999999,14.3469,-9.9947099999999995
879.0,58.6633,76.025800000000004,62.982700000000001,72.1096,-29.288399999999999,9.8868200000000002,-12.1151
880.0,53.366100000000003,80.7286,72.440200000000004,78.763400000000004,-25.711099999999998,7.2305200000000003,-14.738300000000001
881.0,52.6447,73.767399999999995,64.985299999999995,68.575800000000001,-25.3645,-1.8397699999999999,-16.049399999999999
882.0,56.534100000000002,49.442399999999999,41.391500000000001,54.311999999999998,-25.721800000000002,-10.2685,-15.9918
883.0,58.9833,44.519100000000002,35.251199999999997,58.535400000000003,-24.5943,-13.921099999999999,-14.9526
884.0,60.529299999999999,32.492600000000003,15.968299999999999,49.3583,-24.295999999999999,-11.8086,-14.5875
885.0,116.34999999999999,87.982299999999995,-24.605,74.543300000000002,-11.4777,0.83982900000000005,-24.4709
886.0,119.199,75.020200000000003,-42.233499999999999,62.148099999999999,-15.135899999999999,0.42307699999999998,-19.284300000000002
887.0,119.964,81.796800000000005,-36.261499999999998,73.138499999999993,-17.326499999999999,-0.19403200000000001,-12.9095
888.0,114.739,82.081199999999995,-30.711600000000001,75.984399999999994,-18.835000000000001,-0.568465,-3.0579299999999998
889.0,102.795,76.418400000000005,-17.764099999999999,82.034800000000004,-17.139600000000002,0.53484699999999996,9.1991599999999991
890.0,92.289599999999993,82.050600000000003,3.5794700000000002,80.444999999999993,-11.2027,4.1846500000000004,26.1663
891.0,91.245099999999994,98.394800000000004,18.4817,87.630799999999994,-2.4853200000000002,7.9692400000000001,28.721800000000002
892.0,104.95699999999999,85.458500000000001,17.065200000000001,94.203100000000006,11.1853,-3.49532,41.840200000000003
893.0,71.236500000000007,89.367099999999994,33.630600000000001,78.254900000000006,7.1316499999999996,15.0695,23.310199999999998
894.0,52.441499999999998,22.104099999999999,-23.270800000000001,22.212399999999999,1.70279,6.1681600000000003,13.704800000000001
895.0,54.829700000000003,28.7197,-9.8401999999999994,44.629399999999997,2.67028,3.5745800000000001,14.060700000000001
896.0,63.791400000000003,37.770000000000003,1.69374,66.937899999999999,3.3627600000000002,14.2348,8.6214899999999997
897.0,65.073400000000007,43.1858,15.6531,79.262799999999999,0.43820799999999999,19.766300000000001,-1.7269600000000001
898.0,57.592399999999998,30.1479,-2.5644999999999998,51.640000000000001,-3.30125,17.8307,-5.6369499999999997
899.0,48.849800000000002,19.7422,-19.837900000000001,27.915600000000001,-3.3058999999999998,9.5375300000000003,-6.4221399999999997
900.0,44.345199999999998,7.8825599999999998,-33.698599999999999,3.8565,-6.85093,4.48977,-7.9041499999999996
901.0,41.576900000000002,36.505200000000002,16.886700000000001,53.983400000000003,-9.4859299999999998,7.31745,-9.3948099999999997
902.0,51.307299999999998,114.25,111.873,129.78100000000001,-12.2645,21.1022,-13.680899999999999
903.0,62.179499999999997,141.00700000000001,135.11000000000001,131.86500000000001,-15.8407,26.603899999999999,-17.566700000000001
904.0,57.976300000000002,119.218,114.902,112.087,-17.605899999999998,19.0547,-20.843900000000001
905.0,61.2014,120.241,115.70999999999999,110.083,-23.0655,12.343500000000001,-23.200500000000002
906.0,65.499200000000002,83.951300000000003,75.562299999999993,77.402500000000003,-28.991399999999999,4.36374,-23.474799999999998
907.0,74.113799999999998,71.956000000000003,57.633699999999997,72.983199999999997,-34.429600000000001,-6.8900600000000001,-22.9008
908.0,66.470100000000002,46.9848,34.668999999999997,60.384500000000003,-28.400099999999998,-14.190200000000001,-17.3034
909.0,64.874099999999999,44.079799999999999,36.132800000000003,65.596800000000002,-26.2075,-16.257200000000001,-14.811199999999999
910.0,62.892099999999999,42.417499999999997,27.996600000000001,65.071299999999994,-25.0413,-12.910600000000001,-13.2456
911.0,123.48,78.317099999999996,-38.930300000000003,60.147599999999997,-15.5526,0.65104200000000001,-29.2898
912.0,126.901,93.832099999999997,-27.261600000000001,82.681799999999996,-18.977699999999999,-0.76470499999999997,-22.977399999999999
913.0,124.631,83.364199999999997,-34.782499999999999,81.215500000000006,-20.4224,-1.41873,-13.739699999999999
914.0,112.139,82.084699999999998,-17.1571,94.456100000000006,-21.103300000000001,-1.7013199999999999,0.44976300000000002
915.0,87.274100000000004,87.231200000000001,22.502800000000001,110.68300000000001,-18.578900000000001,-1.6286099999999999,10.254899999999999
916.0,61.465899999999998,108.65000000000001,62.6235,111.123,-12.876099999999999,8.6078299999999999,16.532800000000002
917.0,52.536999999999999,47.027700000000003,-2.60955,28.967600000000001,-9.7388399999999997,4.1766899999999998,13.287800000000001
918.0,96.538600000000002,42.492699999999999,-13.8201,44.711500000000001,-5.7730100000000002,-7.78165,43.730499999999999
919.0,74.626599999999996,47.462499999999999,-11.9604,38.443300000000001,-9.8034700000000008,11.4727,24.559200000000001
920.0,63.926400000000001,21.9678,-32.422499999999999,19.945699999999999,-5.6942500000000003,5.2884900000000004,18.734999999999999
921.0,57.015599999999999,-7.7890499999999996,-56.601700000000001,-0.80856799999999995,-2.17625,3.19062,12.026400000000001
922.0,67.497,2.1921599999999999,-55.764099999999999,13.647500000000001,-1.20103,7.9605699999999997,8.3136500000000009
923.0,65.417100000000005,-9.0001099999999994,-57.414900000000003,12.9331,-2.27312,11.144399999999999,-1.2045999999999999
924.0,58.137300000000003,3.3892799999999998,-34.2361,23.817299999999999,-6.7628500000000003,13.0063,-6.6749499999999999
925.0,51.168399999999998,11.3424,-26.761299999999999,21.9499,-11.0044,9.1395400000000002,-3.4510900000000002
926.0,43.973799999999997,20.903300000000002,-11.718400000000001,25.748699999999999,-13.042299999999999,7.5486000000000004,-1.4978400000000001
927.0,36.637300000000003,42.734999999999999,29.128499999999999,60.524500000000003,-8.8714600000000008,10.3865,-3.6004999999999998
928.0,45.502800000000001,87.022999999999996,79.8947,95.766800000000003,-9.3263300000000005,19.529800000000002,-12.592700000000001
929.0,53.332799999999999,75.873999999999995,64.921499999999995,70.289199999999994,-14.711,18.7698,-18.692799999999998
930.0,53.452800000000003,66.132400000000004,54.916499999999999,63.0473,-19.456199999999999,11.196,-20.370000000000001
931.0,62.424500000000002,58.423900000000003,45.817,55.904800000000002,-26.220800000000001,3.47417,-23.5548
932.0,78.553899999999999,59.257899999999999,41.835000000000001,64.758399999999995,-34.678800000000003,-7.1063400000000003,-25.701599999999999
933.0,102.029,38.763599999999997,19.7013,55.696300000000001,-45.733699999999999,-17.172999999999998,-27.553699999999999
934.0,98.427899999999994,29.002300000000002,12.0549,55.879199999999997,-42.381700000000002,-20.6629,-22.7559
935.0,88.792599999999993,27.3645,15.6784,56.893500000000003,-38.323799999999999,-18.9422,-18.690200000000001
936.0,68.745000000000005,25.316099999999999,12.4099,52.128700000000002,-28.126000000000001,-13.973000000000001,-13.359
937.0,126.422,88.783000000000001,-27.133900000000001,70.385099999999994,-19.781300000000002,-1.65272,-32.4435
938.0,122.15900000000001,65.853700000000003,-39.596600000000002,63.951900000000002,-26.056100000000001,-6.5518700000000001,-24.728100000000001
939.0,118.527,78.164100000000005,-7.8382699999999996,97.823599999999999,-34.693100000000001,-11.7142,-13.5692
940.0,106.373,75.568899999999999,5.00129,106.82899999999999,-32.359099999999998,-1.63445,1.0098199999999999
941.0,79.090599999999995,100.547,30.7654,103.898,-15.2675,1.05925,12.0853
942.0,75.897499999999994,82.450800000000001,7.2431099999999997,51.131599999999999,-5.0976600000000003,17.575299999999999,12.5718
943.0,59.946100000000001,76.451400000000007,10.631,38.515999999999998,-5.7236500000000001,-1.27227,8.48339
944.0,84.094300000000004,92.0227,43.920999999999999,98.061099999999996,-8.3233800000000002,-10.715,35.957799999999999
945.0,69.200900000000004,112.803,69.013199999999998,119.366,-14.305099999999999,18.507899999999999,17.313400000000001
946.0,63.1982,56.991799999999998,9.0812600000000003,60.744500000000002,-8.6223200000000002,8.1171600000000002,19.009
947.0,55.800800000000002,53.543100000000003,8.2617200000000004,60.950499999999998,-8.4474499999999999,5.0411700000000002,11.2948
948.0,60.832500000000003,25.497,-17.7148,42.812100000000001,-9.5314099999999993,8.4526299999999992,9.9734300000000005
949.0,61.756799999999998,35.598300000000002,-1.2934099999999999,61.084699999999998,-9.6929400000000001,12.6907,5.7177699999999998
950.0,57.233400000000003,40.7669,15.9459,71.761099999999999,-11.1364,13.6289,0.32751799999999998
951.0,51.756300000000003,92.843100000000007,73.291899999999998,117.50700000000001,-13.375500000000001,14.8515,1.58751
952.0,43.6051,110.232,92.094300000000004,122.66200000000001,-11.469099999999999,16.291799999999999,0.72444299999999995
953.0,33.718200000000003,118.955,102.764,130.63999999999999,-5.8457100000000004,11.3773,-4.4038000000000004
954.0,41.549100000000003,112.164,88.826599999999999,116.289,-10.236499999999999,8.1296400000000002,-13.6111
955.0,54.438099999999999,107.377,76.427099999999996,108.303,-17.427299999999999,2.5573999999999999,-18.666799999999999
956.0,61.990200000000002,100.22799999999999,66.703800000000001,102.81,-21.762,-4.0955199999999996,-19.618200000000002
957.0,78.259900000000002,86.433499999999995,55.541499999999999,96.864500000000007,-30.7774,-11.7294,-22.2469
958.0,100.28700000000001,46.942500000000003,18.343900000000001,67.847700000000003,-40.697200000000002,-21.0868,-25.179300000000001
959.0,111.38500000000001,31.249600000000001,10.477600000000001,62.933300000000003,-45.259799999999998,-26.6785,-26.029599999999999
960.0,110.715,28.398099999999999,6.5843400000000001,66.6083,-44.880200000000002,-24.350000000000001,-23.5731
961.0,109.68000000000001,26.816400000000002,2.1576900000000001,62.289200000000001,-46.701000000000001,-20.835899999999999,-21.9331
962.0,90.850800000000007,46.725200000000001,22.0959,81.012299999999996,-36.892800000000001,-15.9297,-16.1524
963.0,12700.200000000001,-7842.6400000000003,-2902.3800000000001,727.90300000000002,4607.8000000000002,-3362.8699999999999,1648.53
964.0,12614.299999999999,-8077.3299999999999,-2873.3800000000001,1290.5599999999999,4704.4899999999998,-2688.8000000000002,1284.25
965.0,12399.700000000001,-8215.6499999999996,-2846.5,1584.6300000000001,4697.9300000000003,-2059.5999999999999,923.90200000000004
966.0,12202.9,-8433.7000000000007,-2839.5100000000002,1764.0599999999999,4637.4099999999999,-1337.4000000000001,512.15200000000004
967.0,11857.9,-8408.4599999999991,-2834.3800000000001,1914.8099999999999,4464.7200000000003,-477.78500000000003,95.279899999999998
968.0,10922.9,-7512.96,-2519.8299999999999,2131.6300000000001,4044.9400000000001,317.67099999999999,-207.703
969.0,9357.2199999999993,-6066.2299999999996,-1922.03,2067.8499999999999,3419.5799999999999,860.72900000000004,-456.79399999999998
970.0,7959.6099999999997,-5031.5699999999997,-1551.6800000000001,1587.6400000000001,2856.3499999999999,1237.73,-681.61099999999999
971.0,7083.1700000000001,-4366.7799999999997,-1396.03,1220.5,2469.8899999999999,1466.54,-811.05499999999995
972.0,6473.1099999999997,-3911.48,-1331.52,966.56100000000004,2198.1999999999998,1560.74,-862.33299999999997
973.0,6290.3599999999997,-3674.2800000000002,-1273.3599999999999,844.25199999999995,2051.4200000000001,1722.6800000000001,-950.07399999999996
974.0,6673.6499999999996,-3610.6999999999998,-1240.6700000000001,852.65999999999997,2032.1500000000001,2100.1399999999999,-1148.4200000000001
975.0,7456.2399999999998,-3640.8400000000001,-1242.4000000000001,882.28399999999999,2079.2199999999998,2642.8899999999999,-1450.1500000000001
976.0,8477.8199999999997,-3620.8099999999999,-1253.9100000000001,942.67399999999998,2095.6399999999999,3342.8800000000001,-1783.96
977.0,9324.9400000000005,-3335.0500000000002,-1147.3800000000001,812.52999999999997,1956.8399999999999,4071.5,-2067.25
978.0,9665.7999999999993,-2646.7800000000002,-1003.6799999999999,205.95699999999999,1625.4300000000001,4624.6099999999997,-2250.1900000000001
979.0,9962.9799999999996,-1596.1900000000001,-752.70600000000002,-238.97200000000001,1261.48,5012.3100000000004,-2429.5700000000002
980.0,10357.299999999999,-897.04399999999998,-707.346,-797.64099999999996,997.04600000000005,5306.46,-2568.25
981.0,10524.1,-194.261,-614.16099999999994,-1590.3499999999999,755.00099999999998,5402.1700000000001,-2579.2199999999998
982.0,10277.700000000001,665.77499999999998,-457.03399999999999,-2456.3099999999999,411.79000000000002,5132.4499999999998,-2489.5500000000002
983.0,9573.1000000000004,1529.27,-285.82100000000003,-3011.1799999999998,53.933100000000003,4498.5200000000004,-2255.1100000000001
984.0,8635.2600000000002,2131.1100000000001,-159.12,-3075.71,-211.708,3774.4699999999998,-1937.53
985.0,7714.9899999999998,2368.48,-145.68000000000001,-2965.0999999999999,-370.92000000000002,3151.5500000000002,-1628.1800000000001
986.0,6904.0200000000004,2467.3099999999999,-102.28100000000001,-2846.5100000000002,-439.45600000000002,2604.0100000000002,-1361.1600000000001
987.0,6279.1300000000001,2480.5,-43.897399999999998,-2860.77,-452.291,2096.79,-1184.05
988.0,5879.5299999999997,2387.9200000000001,-68.819500000000005,-2969.4000000000001,-439.83499999999998,1716.0799999999999,-1092.22
989.0,10639.700000000001,-6209.7399999999998,-2839.9299999999998,575.79100000000005,4218.3199999999997,-2517.0599999999999,1446.8800000000001
990.0,10372.200000000001,-6427.1599999999999,-2827.1599999999999,861.53700000000003,4224.8100000000004,-1906.6600000000001,1046.28
991.0,10016.299999999999,-6431.2600000000002,-2663.3800000000001,1143.8599999999999,4131.96,-1265.4300000000001,649.76400000000001
992.0,9605.6800000000003,-6151.1099999999997,-2348.4299999999998,1477.78,3981.9400000000001,-546.32899999999995,228.012
993.0,9058.1100000000006,-5627.9499999999998,-2040.4400000000001,1624.72,3765.9299999999998,55.152999999999999,-116.911
994.0,8386.7800000000007,-5215.3699999999999,-1883.8299999999999,1474.55,3467.73,374.28100000000001,-303.32299999999998
995.0,7768.8800000000001,-5101.8900000000003,-1823.5999999999999,1138.1600000000001,3120.6500000000001,651.50800000000004,-461.15499999999997
996.0,7070.79,-4812.2600000000002,-1730.49,686.024,2732.6100000000001,1089.55,-645.30499999999995
997.0,6175.96,-4037.4400000000001,-1415.6199999999999,471.97800000000001,2327.5500000000002,1293.4100000000001,-703.66200000000003
998.0,5350.1099999999997,-3304.7600000000002,-1056.25,402.721,1947.02,1326.3699999999999,-709.05499999999995
999.0,4959.79,-2818.9499999999998,-842.50800000000004,275.65699999999998,1698.47,1478.9100000000001,-819.95399999999995
1000.0,5109.5500000000002,-2665.9099999999999,-873.36500000000001,103.455,1652.6800000000001,1729.6400000000001,-1003.34
1001.0,5618.6599999999999,-2713.21,-1000.55,-52.216799999999999,1714.3900000000001,2067.5599999999999,-1220.76
1002.0,6277.4899999999998,-2743.0599999999999,-1134.54,-202.58099999999999,1774.73,2483.27,-1472.3099999999999
1003.0,7026.4899999999998,-2610.0900000000001,-1087.6099999999999,-218.047,1737.9200000000001,2999.3899999999999,-1724.6800000000001
1004.0,7881.6700000000001,-2217.1100000000001,-998.553,-554.07299999999998,1510.52,3684.77,-2026.4000000000001
1005.0,8477.9699999999993,-1565.3,-941.30999999999995,-1083.03,1290.3900000000001,4134.2600000000002,-2257.0900000000001
1006.0,8588.2199999999993,-983.81600000000003,-887.70399999999995,-1481.26,1162.46,4212.5299999999997,-2321.1300000000001
1007.0,8438.3999999999996,-388.221,-767.10900000000004,-1917.1400000000001,950.18600000000004,4111.0500000000002,-2301.73
1008.0,8074.1000000000004,186.61600000000001,-646.93299999999999,-2426.0500000000002,659.58600000000001,3827.3499999999999,-2205.8400000000001
1009.0,7519.9499999999998,704.06500000000005,-508.01499999999999,-2832.8600000000001,371.36399999999998,3370.1100000000001,-2030.6800000000001
1010.0,6869.7299999999996,1067.97,-432.77499999999998,-3020.0599999999999,164.983,2848.52,-1820.28
1011.0,6149.8500000000004,1251.76,-380.79399999999998,-2942.1700000000001,24.199400000000001,2365.0300000000002,-1594.9200000000001
1012.0,5428.71,1342.3599999999999,-330.59199999999998,-2825.0999999999999,-87.363900000000001,1888.0599999999999,-1361.28
1013.0,4635.2600000000002,1344.46,-270.54599999999999,-2609.7800000000002,-117.771,1388.1099999999999,-1126.24
1014.0,3794.2199999999998,1204.23,-209.898,-2274.5900000000001,-126.30500000000001,951.37800000000004,-903.77499999999998
1015.0,8051.1400000000003,-4514.04,-2423.8200000000002,308.74599999999998,3371.1100000000001,-1773.4100000000001,1117.3099999999999
1016.0,7934.5799999999999,-4664.6999999999998,-2350.9099999999999,594.37699999999995,3397.6999999999998,-1355.5999999999999,810.029
1017.0,7768.29,-4784.1000000000004,-2301.2600000000002,740.31500000000005,3375.02,-906.77999999999997,496.65100000000001
1018.0,7519.9899999999998,-4974.1000000000004,-2443.0300000000002,550.154,3314.02,-423.11200000000002,203.02699999999999
1019.0,7122.3599999999997,-5055.3299999999999,-2570.2800000000002,135.464,3188.6799999999998,-38.073300000000003,-7.0287300000000004
1020.0,6793.1300000000001,-4918.0699999999997,-2417.8800000000001,15.686500000000001,3031.6399999999999,259.45400000000001,-195.40899999999999
1021.0,6577.2399999999998,-4547.1499999999996,-1992.05,279.09199999999998,2844.8699999999999,587.14400000000001,-390.03800000000001
1022.0,6269.75,-4022.52,-1535.71,406.11799999999999,2614.98,975.96000000000004,-620.25999999999999
1023.0,5918.9499999999998,-3727.9699999999998,-1428.6400000000001,120.501,2415.0500000000002,1226.5799999999999,-769.04899999999998
1024.0,5625.6800000000003,-3523.0100000000002,-1363.4200000000001,-91.076599999999999,2233.1799999999998,1362.01,-834.93700000000001
1025.0,5283.5600000000004,-3205.9000000000001,-1260.6800000000001,-361.637,1992.0999999999999,1536.0599999999999,-929.34900000000005
1026.0,4938.3400000000001,-2747.54,-1155.55,-637.66800000000001,1762.52,1658.24,-1031.4200000000001
1027.0,4707.8400000000001,-2325.25,-1064.0799999999999,-786.79300000000001,1597.2,1722.24,-1094.7
1028.0,4737.1599999999999,-2018.24,-916.55100000000004,-888.87199999999996,1465.27,1857.52,-1211.54
1029.0,5476.5299999999997,-1931.29,-947.85799999999995,-1137.3900000000001,1392.29,2333.3800000000001,-1530.3800000000001
1030.0,6625.1400000000003,-1535.99,-875.48800000000006,-1180.71,1396.0,2963.6399999999999,-1946.6900000000001
1031.0,7093.71,-1346.8900000000001,-990.79399999999998,-1423.6800000000001,1403.1800000000001,3223.7800000000002,-2087.71
1032.0,6866.0600000000004,-1052.9000000000001,-979.00400000000002,-1813.05,1218.49,3156.0900000000001,-2013.8299999999999
1033.0,6551.04,-558.16499999999996,-823.34000000000003,-2138.0100000000002,934.52700000000004,2982.3499999999999,-1954.96
1034.0,6296.1300000000001,-100.78700000000001,-687.81500000000005,-2432.0300000000002,713.12300000000005,2761.77,-1899.3599999999999
1035.0,5943.2399999999998,300.33699999999999,-520.67200000000003,-2604.6799999999998,531.68100000000004,2457.4299999999998,-1791.55
1036.0,5410.5799999999999,500.29899999999998,-438.68299999999999,-2708.5700000000002,363.279,2067.3000000000002,-1621.9200000000001
1037.0,4842.3599999999997,614.90300000000002,-376.00299999999999,-2660.8099999999999,218.892,1714.25,-1416.8599999999999
1038.0,4238.6400000000003,801.44200000000001,-209.77600000000001,-2418.02,86.990099999999998,1357.0699999999999,-1195.3399999999999
1039.0,3548.4099999999999,830.60799999999995,-66.2136,-2081.98,39.848199999999999,1012.23,-972.49599999999998
1040.0,3049.25,772.15800000000002,-7.2796599999999998,-1897.75,4.5616300000000001,754.73599999999999,-802.92399999999998
1041.0,6201.8900000000003,-3429.9699999999998,-2107.54,-36.9011,2739.8099999999999,-1256.99,899.83199999999999
1042.0,6254.7700000000004,-3642.3000000000002,-2097.7600000000002,193.56,2806.7800000000002,-996.73400000000004,666.524
1043.0,6176.9499999999998,-3765.8800000000001,-2063.6199999999999,349.21699999999998,2790.4899999999998,-681.29399999999998,437.81599999999997
1044.0,5770.0299999999997,-3417.8600000000001,-1669.7,606.73800000000006,2615.2399999999998,-361.13099999999997,234.98500000000001
1045.0,5247.9499999999998,-3005.4000000000001,-1254.47,731.75699999999995,2383.6100000000001,-43.454000000000001,25.343599999999999
1046.0,5046.3699999999999,-2817.0,-1086.01,745.05600000000004,2276.8699999999999,288.50400000000002,-219.899
1047.0,5243.0200000000004,-3087.0700000000002,-1382.6900000000001,514.36500000000001,2338.0500000000002,533.98400000000004,-407.17099999999999
1048.0,5425.8100000000004,-3395.2399999999998,-1654.28,223.73099999999999,2400.21,709.13400000000001,-522.90099999999995
1049.0,5352.9300000000003,-3425.3200000000002,-1674.95,-94.996099999999998,2328.4299999999998,952.83299999999997,-668.31700000000001
1050.0,5279.8299999999999,-3174.3400000000001,-1493.3299999999999,-182.26900000000001,2190.4400000000001,1233.1400000000001,-850.88900000000001
1051.0,5107.5699999999997,-2876.23,-1346.45,-303.59300000000002,1986.47,1464.6600000000001,-964.39499999999998
1052.0,4530.0799999999999,-2287.8699999999999,-1030.2,-490.86500000000001,1667.05,1506.5,-970.38
1053.0,3987.73,-1844.74,-864.21400000000006,-872.86099999999999,1365.5799999999999,1465.8800000000001,-984.55899999999997
1054.0,4138.7399999999998,-1576.8699999999999,-740.79100000000005,-1179.0899999999999,1229.2,1629.45,-1169.95
1055.0,4925.6499999999996,-1349.4000000000001,-845.125,-1591.8299999999999,1213.0699999999999,2019.76,-1546.3699999999999
1056.0,5280.1599999999999,-1354.9100000000001,-1178.98,-1883.78,1264.74,2153.0999999999999,-1709.79
1057.0,5144.9799999999996,-1247.72,-1171.9200000000001,-1899.8399999999999,1183.28,2114.3299999999999,-1671.21
1058.0,5141.1800000000003,-738.49000000000001,-804.77999999999997,-1786.73,1008.96,2147.7399999999998,-1683.8
1059.0,5133.9399999999996,-439.34500000000003,-726.39499999999998,-2010.3900000000001,862.70600000000002,2114.4299999999998,-1694.3499999999999
1060.0,4874.54,-172.053,-632.16399999999999,-2153.96,715.33900000000006,1930.0599999999999,-1614.8099999999999
1061.0,4491.4200000000001,-43.143000000000001,-637.10400000000004,-2378.23,532.678,1652.6400000000001,-1495.49
1062.0,4151.3800000000001,228.20500000000001,-434.73000000000002,-2323.5599999999999,383.84500000000003,1384.6199999999999,-1388.1800000000001
1063.0,3825.96,265.57299999999998,-417.428,-2336.0900000000001,307.279,1162.3499999999999,-1270.6099999999999
1064.0,3507.1300000000001,309.32499999999999,-300.245,-2184.6900000000001,264.86799999999999,998.15200000000004,-1158.9000000000001
1065.0,3283.1700000000001,111.91,-362.25400000000002,-2295.0599999999999,242.37299999999999,890.505,-1056.24
1066.0,3200.0599999999999,222.369,-231.428,-2345.3899999999999,164.952,742.50699999999995,-978.21600000000001
1067.0,4841.1999999999998,-2532.27,-1879.3800000000001,-138.13399999999999,2239.4699999999998,-859.49300000000005,725.76599999999996
1068.0,4804.3000000000002,-2591.25,-1761.0899999999999,53.993600000000001,2269.9400000000001,-652.18200000000002,534.42399999999998
1069.0,4720.9799999999996,-2683.5,-1752.5799999999999,76.949700000000007,2270.5599999999999,-430.69400000000002,340.53100000000001
1070.0,4695.1499999999996,-2779.96,-1776.4200000000001,51.5334,2274.79,-271.64499999999998,196.756
1071.0,4747.0299999999997,-3094.73,-1949.3099999999999,-129.67400000000001,2294.9099999999999,-86.750799999999998,39.0852
1072.0,4798.7200000000003,-3154.2600000000002,-1896.3299999999999,-98.446299999999994,2293.0,181.53899999999999,-162.232
1073.0,4775.6599999999999,-3055.8400000000001,-1805.03,-40.972700000000003,2241.6599999999999,419.29500000000002,-327.32999999999998
1074.0,4628.7399999999998,-2711.0900000000001,-1462.97,199.161,2132.2800000000002,549.56600000000003,-401.76999999999998
1075.0,4428.0600000000004,-2521.3899999999999,-1263.8099999999999,125.179,1965.8399999999999,778.43899999999996,-559.346
1076.0,4359.9099999999999,-2263.3899999999999,-1128.53,-10.882999999999999,1821.1900000000001,1070.47,-777.94000000000005
1077.0,4409.5799999999999,-2163.9899999999998,-1158.79,-194.19800000000001,1751.1300000000001,1260.52,-925.16399999999999
1078.0,4330.8100000000004,-2068.71,-1095.48,-375.322,1659.9300000000001,1360.4200000000001,-961.06299999999999
1079.0,4128.9099999999999,-1858.03,-924.13099999999997,-736.26999999999998,1471.4000000000001,1444.3299999999999,-1034.6800000000001
1080.0,4237.8500000000004,-1519.3399999999999,-892.79399999999998,-1265.3699999999999,1254.46,1640.1700000000001,-1274.0999999999999
1081.0,4048.3899999999999,-1181.29,-1045.1300000000001,-1739.3,1031.6099999999999,1585.01,-1323.3900000000001
1082.0,3336.1399999999999,-590.69399999999996,-613.88999999999999,-1322.8099999999999,828.41999999999996,1243.1900000000001,-1142.3499999999999
1083.0,3205.21,-450.73399999999998,-495.74299999999999,-1173.4400000000001,735.08399999999995,1190.6099999999999,-1141.3299999999999
1084.0,3482.0999999999999,-597.97400000000005,-737.33100000000002,-1517.5,745.66899999999998,1295.8599999999999,-1249.3199999999999
1085.0,3588.02,-585.60699999999997,-847.24199999999996,-1859.1700000000001,695.61300000000006,1292.23,-1298.1400000000001
1086.0,3476.3600000000001,-329.93599999999998,-669.61500000000001,-1850.04,595.70600000000002,1199.29,-1264.3699999999999
1087.0,3304.6599999999999,-74.063800000000001,-471.68200000000002,-1808.6500000000001,471.13400000000001,1062.7,-1209.6500000000001
1088.0,3147.52,-24.659199999999998,-464.12,-1888.0599999999999,389.76900000000001,919.02099999999996,-1164.8699999999999
1089.0,3038.77,-61.6768,-515.79100000000005,-1985.97,351.50099999999998,809.49599999999998,-1134.6600000000001
1090.0,3014.2600000000002,-40.156999999999996,-497.51400000000001,-2025.3800000000001,333.36799999999999,754.649,-1125.7
1091.0,3056.8099999999999,25.3992,-446.29399999999998,-2111.7199999999998,310.62200000000001,713.92999999999995,-1117.1099999999999
1092.0,3089.52,146.44399999999999,-338.43099999999998,-2242.4000000000001,231.69800000000001,577.38800000000003,-1095.53
1093.0,3786.3600000000001,-1877.3800000000001,-1511.0699999999999,-135.68299999999999,1794.47,-617.08500000000004,578.51599999999996
1094.0,3794.21,-2111.3099999999999,-1689.04,-246.791,1840.45,-492.52999999999997,461.56200000000001
1095.0,3842.7199999999998,-2089.6500000000001,-1575.78,-120.44499999999999,1896.22,-392.00400000000002,359.90899999999999
1096.0,4048.3800000000001,-2422.5500000000002,-1715.77,-204.255,2009.96,-279.50900000000001,246.74700000000001
1097.0,4314.9700000000003,-2491.4499999999998,-1551.2,36.073999999999998,2136.5100000000002,-68.581999999999994,70.406999999999996
1098.0,4342.7600000000002,-2658.52,-1614.8699999999999,-83.098100000000002,2128.4200000000001,233.38499999999999,-154.37299999999999
1099.0,4108.8400000000001,-2311.23,-1366.47,-7.1670100000000003,1992.23,452.87599999999998,-334.62400000000002
1100.0,3998.4699999999998,-2394.9699999999998,-1536.8599999999999,-232.91999999999999,1914.96,535.46199999999999,-436.23200000000003
1101.0,4108.1700000000001,-2347.25,-1453.01,-187.78700000000001,1902.05,711.46900000000005,-569.57500000000005
1102.0,4135.5,-2379.1399999999999,-1515.47,-511.03300000000002,1829.71,960.85500000000002,-745.38499999999999
1103.0,4120.5799999999999,-2135.9000000000001,-1364.3,-607.93600000000004,1755.27,1098.1300000000001,-888.36699999999996
1104.0,4308.5,-2201.96,-1463.4100000000001,-832.78099999999995,1744.5799999999999,1255.6600000000001,-1047.79
1105.0,4530.6999999999998,-1957.1500000000001,-1298.76,-958.053,1637.6500000000001,1527.8,-1252.3599999999999
1106.0,4103.3199999999997,-1365.97,-1121.6600000000001,-1364.02,1230.5,1573.54,-1265.9000000000001
1107.0,3058.1999999999998,-374.46899999999999,-372.10700000000003,-969.37900000000002,801.351,1143.6800000000001,-1024.1800000000001
1108.0,2556.7600000000002,-472.48399999999998,-549.149,-1278.1300000000001,582.96400000000006,899.98400000000004,-911.84400000000005
1109.0,2331.73,-426.86399999999998,-554.27800000000002,-1154.54,541.86199999999997,791.79700000000003,-860.66800000000001
1110.0,1985.22,-280.65499999999997,-447.56099999999998,-943.14400000000001,475.42599999999999,634.64499999999998,-752.44200000000001
1111.0,1797.78,50.041499999999999,-145.42400000000001,-604.56799999999998,403.214,546.24199999999996,-709.54100000000005
1112.0,1918.2,-185.268,-400.66199999999998,-950.60599999999999,390.76799999999997,579.31399999999996,-763.17200000000003
1113.0,2151.48,-179.11099999999999,-423.40899999999999,-1167.6500000000001,381.68000000000001,635.89099999999996,-853.10599999999999
1114.0,2175.4899999999998,-273.17599999999999,-512.46100000000001,-1357.1099999999999,368.76799999999997,626.48800000000006,-851.37599999999998
1115.0,2087.8299999999999,-22.399899999999999,-243.399,-1155.6099999999999,311.52800000000002,574.40800000000002,-815.57000000000005
1116.0,2156.0500000000002,-78.446299999999994,-377.286,-1411.97,253.01400000000001,540.47500000000002,-838.86099999999999
1117.0,2422.7800000000002,135.048,-286.36500000000001,-1521.1600000000001,226.73599999999999,533.85199999999998,-937.726
1118.0,2704.6599999999999,-6.0889499999999996,-529.76099999999997,-2011.1600000000001,206.10900000000001,477.721,-1042.2
1119.0,3040.9099999999999,-1484.8299999999999,-1408.0799999999999,-278.029,1473.77,-465.58600000000001,486.89299999999997
1120.0,3142.8699999999999,-1518.98,-1339.73,-104.946,1542.1400000000001,-402.33999999999997,399.68299999999999
1121.0,3203.9000000000001,-1694.7,-1417.9200000000001,-116.876,1591.25,-294.29199999999997,305.21499999999997
1122.0,3209.7600000000002,-1625.53,-1314.6900000000001,30.495799999999999,1616.1300000000001,-146.18000000000001,161.80699999999999
1123.0,3238.4000000000001,-1751.03,-1463.7,-62.814500000000002,1636.95,-5.5670700000000002,15.297700000000001
1124.0,3315.9400000000001,-1714.8699999999999,-1401.7,6.6161799999999999,1671.4000000000001,130.40100000000001,-117.265
1125.0,3438.79,-1961.49,-1536.6199999999999,-199.25399999999999,1719.25,276.75,-252.184
1126.0,3602.4000000000001,-1972.3499999999999,-1420.6500000000001,-168.03800000000001,1765.6900000000001,447.80599999999998,-390.81700000000001
1127.0,3758.8000000000002,-2112.8299999999999,-1495.72,-338.25,1783.8299999999999,648.87,-542.98599999999999
1128.0,3809.1599999999999,-1936.03,-1348.0899999999999,-386.19799999999998,1729.96,850.61300000000006,-712.81700000000001
1129.0,3729.23,-1843.6500000000001,-1340.75,-609.18799999999999,1612.5699999999999,972.28499999999997,-839.43600000000004
1130.0,3692.3699999999999,-1570.8900000000001,-1152.51,-612.63699999999994,1485.8599999999999,1079.73,-969.61400000000003
1131.0,3649.21,-1436.6500000000001,-1208.1700000000001,-936.25699999999995,1294.6099999999999,1216.3699999999999,-1104.8
1132.0,3324.9499999999998,-831.75,-844.06299999999999,-1020.1,1017.15,1199.97,-1095.21
1133.0,3071.1100000000001,-878.34500000000003,-934.67700000000002,-1553.45,778.28499999999997,1084.98,-1104.8499999999999
1134.0,2732.6599999999999,-578.43399999999997,-747.96400000000006,-1521.55,612.91899999999998,910.50099999999998,-1015.72
1135.0,1943.27,-237.589,-425.803,-1010.15,450.245,577.74099999999999,-748.30799999999999
1136.0,1373.7,-114.05,-284.66699999999997,-768.154,289.70800000000003,360.73200000000003,-547.57600000000002
1137.0,1116.3499999999999,-154.215,-317.53699999999998,-687.06500000000005,238.934,281.41000000000003,-452.33300000000003
1138.0,1033.71,-21.295400000000001,-193.21700000000001,-503.98399999999998,226.47900000000001,254.43100000000001,-424.62
1139.0,1074.0799999999999,31.7483,-140.13300000000001,-427.26999999999998,239.81999999999999,255.44900000000001,-456.06999999999999
1140.0,1267.78,-36.445,-201.315,-524.26800000000003,288.04000000000002,327.49700000000001,-532.87699999999995
1141.0,1492.3599999999999,-188.05099999999999,-323.11099999999999,-796.798,318.721,402.49700000000001,-613.67399999999998
1142.0,1694.51,-109.913,-270.92700000000002,-977.55499999999995,297.13200000000001,421.00400000000002,-691.79399999999998
1143.0,1962.3,-159.154,-390.10899999999998,-1334.1500000000001,262.36099999999999,435.49900000000002,-798.44299999999998
1144.0,2222.5,-56.831600000000002,-369.48099999999999,-1560.8,224.23400000000001,399.96699999999998,-898.01300000000003
1145.0,2458.7199999999998,-1083.3299999999999,-1167.25,-206.18100000000001,1206.99,-336.21100000000001,402.35500000000002
1146.0,2529.21,-1228.1400000000001,-1252.55,-209.92500000000001,1261.5,-283.68000000000001,326.14499999999998
1147.0,2621.0500000000002,-1264.05,-1231.01,-106.61199999999999,1321.78,-221.14099999999999,244.554
1148.0,2696.8400000000001,-1435.4000000000001,-1329.99,-147.52799999999999,1370.1099999999999,-128.41300000000001,138.96799999999999
1149.0,2737.75,-1416.8599999999999,-1237.0999999999999,-50.138599999999997,1395.0699999999999,-12.6792,22.5974
1150.0,2822.8000000000002,-1547.6300000000001,-1314.3599999999999,-114.191,1429.76,108.11199999999999,-92.582800000000006
1151.0,2911.3400000000001,-1493.01,-1242.1700000000001,-52.411900000000003,1459.04,244.83699999999999,-210.36099999999999
1152.0,2969.4200000000001,-1515.53,-1294.3699999999999,-168.262,1461.3199999999999,394.315,-355.23500000000001
1153.0,3045.1799999999998,-1426.1600000000001,-1249.27,-188.441,1451.0599999999999,533.5,-502.71499999999997
1154.0,3127.1300000000001,-1424.01,-1283.72,-335.98700000000002,1414.1300000000001,688.45699999999999,-660.03399999999999
1155.0,3171.2600000000002,-1274.4300000000001,-1187.0599999999999,-396.36200000000002,1332.8599999999999,832.39599999999996,-805.56200000000001
1156.0,3049.0700000000002,-1083.95,-1105.4100000000001,-523.92700000000002,1171.97,910.803,-887.22199999999998
1157.0,2710.1500000000001,-708.17200000000003,-818.51900000000001,-516.84299999999996,975.827,859.78499999999997,-856.46699999999998
1158.0,2597.48,-752.83000000000004,-840.90300000000002,-833.69000000000005,863.279,861.33699999999999,-871.45100000000002
1159.0,2667.8099999999999,-560.48299999999995,-743.37199999999996,-1057.4200000000001,716.06399999999996,896.05600000000004,-996.78300000000002
1160.0,2163.98,-315.72800000000001,-577.23400000000004,-957.654,524.31399999999996,659.39800000000002,-864.30700000000002
1161.0,1522.0899999999999,-170.08099999999999,-376.07900000000001,-744.577,349.07499999999999,422.29599999999999,-622.37900000000002
1162.0,1209.6400000000001,-51.889499999999998,-220.375,-639.59400000000005,242.18600000000001,314.387,-488.529
1163.0,1014.55,44.372100000000003,-88.607900000000001,-506.38,198.523,234.84899999999999,-407.36399999999998
1164.0,861.66600000000005,-21.2058,-126.547,-502.71899999999999,169.53700000000001,172.01900000000001,-353.666
1165.0,749.50199999999995,-120.078,-199.73699999999999,-486.43799999999999,177.99600000000001,135.80099999999999,-316.22699999999998
1166.0,841.42100000000005,-144.33600000000001,-218.95599999999999,-453.78399999999999,228.364,168.916,-359.49299999999999
1167.0,1174.8499999999999,-247.084,-335.351,-640.22000000000003,306.98200000000003,275.78699999999998,-497.23700000000002
1168.0,1448.5,-286.93599999999998,-434.77199999999999,-928.08399999999995,319.904,315.053,-620.54499999999996
1169.0,1562.52,-177.27500000000001,-371.43900000000002,-990.22199999999998,279.92599999999999,287.22399999999999,-687.54700000000003
1170.0,1658.21,-163.917,-399.51799999999997,-1117.73,233.64500000000001,253.072,-742.34100000000001
1171.0,2018.3099999999999,-839.29600000000005,-1072.72,-214.61000000000001,993.88099999999997,-244.40899999999999,336.87400000000002
1172.0,2091.6599999999999,-847.24300000000005,-1042.53,-125.95099999999999,1049.7,-213.81299999999999,278.702
1173.0,2197.6100000000001,-997.86099999999999,-1147.96,-145.41999999999999,1115.9200000000001,-172.221,206.16499999999999
1174.0,2301.6999999999998,-1000.3,-1094.3499999999999,-12.4155,1174.25,-107.753,127.441
1175.0,2376.54,-1146.29,-1184.9000000000001,-64.075199999999995,1215.4300000000001,-9.0510999999999999,21.812100000000001
1176.0,2412.1900000000001,-1092.4200000000001,-1107.1700000000001,12.9503,1228.23,99.341700000000003,-91.447299999999998
1177.0,2433.04,-1195.9100000000001,-1194.95,-109.529,1227.3199999999999,196.83500000000001,-187.38
1178.0,2457.21,-1148.8800000000001,-1127.48,-130.13999999999999,1217.99,311.565,-305.31
1179.0,2491.0799999999999,-1199.6199999999999,-1182.9400000000001,-288.54199999999997,1190.9300000000001,430.65800000000002,-439.31700000000001
1180.0,2551.1599999999999,-1065.0899999999999,-1079.6800000000001,-295.286,1149.54,559.61300000000006,-577.51400000000001
1181.0,2605.1500000000001,-1046.1300000000001,-1119.9300000000001,-472.923,1078.6500000000001,682.46900000000005,-712.43899999999996
1182.0,2587.4899999999998,-856.53499999999997,-980.22199999999998,-505.86900000000003,988.38199999999995,742.29899999999998,-802.02599999999995
1183.0,2526.9099999999999,-896.85199999999998,-1041.52,-752.95100000000002,909.96900000000005,786.10500000000002,-813.39300000000003
1184.0,2401.5500000000002,-582.34500000000003,-820.78399999999999,-803.30100000000004,758.95600000000002,798.90599999999995,-830.99900000000002
1185.0,2071.0999999999999,-401.78300000000002,-741.70699999999999,-951.221,528.55999999999995,633.04300000000001,-820.255
1186.0,1559.8499999999999,-276.392,-510.52999999999997,-658.27099999999996,408.88400000000001,432.23200000000003,-648.03499999999997
1187.0,1253.5899999999999,-148.274,-311.00200000000001,-537.07299999999998,305.00099999999998,356.98200000000003,-515.01599999999996
1188.0,1068.3900000000001,-11.674899999999999,-199.239,-520.80200000000002,217.55199999999999,277.17599999999999,-435.928
1189.0,909.99900000000002,-116.626,-277.358,-624.69399999999996,175.94499999999999,186.65199999999999,-377.892
1190.0,797.78700000000003,-49.117400000000004,-148.76599999999999,-466.29399999999998,167.345,137.06899999999999,-343.36200000000002
1191.0,744.49800000000005,-50.9206,-121.863,-393.89400000000001,174.285,134.738,-321.63900000000001
1192.0,734.68899999999996,-12.1631,-99.508399999999995,-344.89800000000002,174.99000000000001,132.07499999999999,-319.52699999999999
1193.0,789.84199999999998,-41.783900000000003,-174.61799999999999,-380.25599999999997,181.755,139.43199999999999,-355.51499999999999
1194.0,915.50800000000004,25.612500000000001,-168.66999999999999,-374.38299999999998,187.64699999999999,164.995,-420.64299999999997
1195.0,1031.3399999999999,-46.217199999999998,-293.86399999999998,-555.721,176.40799999999999,170.12700000000001,-479.142
1196.0,1088.9100000000001,-14.730399999999999,-285.88299999999998,-600.09199999999998,156.24700000000001,158.84299999999999,-509.69
1197.0,1699.79,-593.32100000000003,-917.19899999999996,-120.325,826.19299999999998,-194.41399999999999,286.52100000000002
1198.0,1764.8,-725.20799999999997,-1015.5599999999999,-167.358,876.06200000000001,-168.16300000000001,237.87899999999999
1199.0,1836.4300000000001,-718.07600000000002,-970.79999999999995,-69.766999999999996,926.625,-131.988,179.16900000000001
1200.0,1926.9100000000001,-880.45000000000005,-1094.1400000000001,-130.51900000000001,981.17100000000005,-82.063199999999995,110.14
1201.0,2006.9000000000001,-878.58500000000004,-1051.95,-46.874600000000001,1026.4100000000001,-3.4530099999999999,18.832599999999999
1202.0,2046.47,-986.02499999999998,-1128.0,-131.446,1044.72,85.780000000000001,-81.261399999999995
1203.0,2074.9699999999998,-902.15200000000004,-1027.8699999999999,-56.455599999999997,1047.0599999999999,170.077,-175.46199999999999
1204.0,2077.77,-931.17200000000003,-1051.1099999999999,-145.56800000000001,1029.9400000000001,256.25099999999998,-265.83100000000002
1205.0,2055.5599999999999,-806.38800000000003,-921.53599999999994,-136.63900000000001,987.38499999999999,342.48200000000003,-369.55099999999999
1206.0,2052.9699999999998,-824.97799999999995,-950.16099999999994,-307.02499999999998,929.43299999999999,435.767,-484.654
1207.0,2070.4000000000001,-674.82799999999997,-829.08900000000006,-334.35599999999999,860.67499999999995,525.495,-589.80600000000004
1208.0,2121.5599999999999,-674.14300000000003,-829.96000000000004,-465.63,816.91899999999998,578.87,-681.52099999999996
1209.0,2198.98,-532.17999999999995,-763.16499999999996,-474.048,774.471,660.92600000000004,-742.85199999999998
1210.0,2080.6100000000001,-488.5,-800.83600000000001,-672.16700000000003,664.44000000000005,653.05999999999995,-741.87300000000005
1211.0,1739.51,-354.53800000000001,-639.87800000000004,-747.14400000000001,482.35399999999998,492.19499999999999,-701.80399999999997
1212.0,1319.1099999999999,-282.11599999999999,-483.60000000000002,-549.77599999999995,378.67200000000003,346.08600000000001,-545.35699999999997
1213.0,1074.8199999999999,-136.21100000000001,-315.12700000000001,-458.63900000000001,271.88099999999997,287.57299999999998,-449.851
1214.0,944.53700000000003,-22.715900000000001,-219.404,-454.04399999999998,199.68700000000001,228.18199999999999,-398.50999999999999
1215.0,843.51700000000005,41.840299999999999,-139.31100000000001,-403.91300000000001,165.15000000000001,163.00700000000001,-364.79199999999997
1216.0,747.15200000000004,-21.230699999999999,-171.029,-412.41899999999998,148.899,117.596,-333.351
1217.0,679.40599999999995,-38.649299999999997,-172.428,-374.93200000000002,138.99799999999999,105.06999999999999,-307.959
1218.0,640.35799999999995,-28.845199999999998,-164.85900000000001,-348.53500000000003,121.185,99.663200000000003,-293.81599999999997
1219.0,598.09400000000005,29.654499999999999,-122.203,-276.87900000000002,100.53,92.590999999999994,-277.61200000000002
1220.0,586.97199999999998,14.8908,-159.08000000000001,-283.09199999999998,89.189400000000006,102.352,-272.04500000000002
1221.0,612.18799999999999,128.512,-86.901200000000003,-213.34899999999999,71.995699999999999,108.11199999999999,-279.601
1222.0,627.82100000000003,145.36500000000001,-97.965599999999995,-230.33099999999999,57.373600000000003,98.919200000000004,-286.351
1223.0,1446.3399999999999,-501.00700000000001,-857.23800000000006,-120.76300000000001,691.54200000000003,-157.98500000000001,241.78399999999999
1224.0,1499.4100000000001,-484.19299999999998,-821.851,-36.058900000000001,733.76999999999998,-129.054,197.36799999999999
1225.0,1552.46,-600.13199999999995,-916.78399999999999,-95.068100000000001,775.26599999999996,-93.885800000000003,147.52000000000001
1226.0,1602.3,-556.43100000000004,-852.18299999999999,0.90646099999999996,811.68399999999997,-49.573900000000002,82.839600000000004
1227.0,1655.28,-658.10299999999995,-936.33799999999997,-53.801400000000001,842.40700000000004,3.9836299999999998,8.3465699999999998
1228.0,1704.5799999999999,-610.81500000000005,-870.58500000000004,23.347200000000001,863.971,71.085999999999999,-74.687299999999993
1229.0,1737.6900000000001,-715.15499999999997,-959.30999999999995,-84.966099999999997,870.23000000000002,141.08699999999999,-160.571
1230.0,1755.04,-665.41899999999998,-893.73099999999999,-66.354799999999997,861.31399999999996,210.995,-240.31399999999999
1231.0,1731.6800000000001,-717.096,-929.34500000000003,-217.471,825.55999999999995,286.298,-320.12700000000001
1232.0,1677.8599999999999,-565.00999999999999,-767.221,-225.11000000000001,761.70799999999997,345.33800000000002,-404.846
1233.0,1676.1800000000001,-565.91499999999996,-794.30200000000002,-406.03800000000001,698.74599999999998,398.87900000000002,-501.10300000000001
1234.0,1776.1199999999999,-428.726,-723.33600000000001,-409.29199999999997,663.35000000000002,455.65499999999997,-610.66499999999996
1235.0,1812.72,-480.255,-856.18700000000001,-532.03599999999994,630.43399999999997,491.44799999999998,-644.07799999999997
1236.0,1680.0699999999999,-320.70800000000003,-711.178,-452.041,562.21799999999996,469.096,-604.36400000000003
1237.0,1410.79,-317.87299999999999,-639.24599999999998,-569.15499999999997,419.779,370.37400000000002,-567.00900000000001
1238.0,1083.8399999999999,-159.18600000000001,-377.74299999999999,-334.79899999999998,322.58800000000002,264.56599999999997,-451.77999999999997
1239.0,929.50699999999995,-102.64700000000001,-306.70499999999998,-365.99200000000002,238.321,233.31100000000001,-397.089
1240.0,841.26499999999999,24.2669,-197.084,-340.31900000000002,177.14500000000001,192.06200000000001,-365.92599999999999
1241.0,748.005,-67.532799999999995,-267.64400000000001,-442.58600000000001,140.916,140.68799999999999,-334.11700000000002
1242.0,669.98400000000004,29.7393,-138.61500000000001,-314.029,126.209,105.122,-305.12
1243.0,613.49599999999998,-2.7762199999999999,-150.18100000000001,-314.13400000000001,112.98099999999999,87.918899999999994,-284.08800000000002
1244.0,572.54100000000005,59.813600000000001,-80.875299999999996,-234.04300000000001,93.742599999999996,81.153300000000002,-268.87400000000002
1245.0,541.31899999999996,29.2258,-115.724,-267.49299999999999,75.352099999999993,79.350099999999998,-252.36199999999999
1246.0,511.88400000000001,119.28,-31.322500000000002,-183.47300000000001,56.473999999999997,70.573800000000006,-237.185
1247.0,481.24700000000001,62.137,-99.280699999999996,-232.572,39.4831,64.463399999999993,-222.94800000000001
1248.0,472.762,106.465,-68.274900000000002,-188.345,34.9129,66.895600000000002,-216.40199999999999
1249.0,1221.8699999999999,-333.58800000000002,-716.83299999999997,-46.783000000000001,572.07799999999997,-124.289,204.72900000000001
1250.0,1258.8800000000001,-421.56,-789.17600000000004,-77.555700000000002,605.673,-97.438900000000004,159.00299999999999
1251.0,1299.1500000000001,-404.34800000000001,-762.06399999999996,-17.118300000000001,637.75400000000002,-65.293000000000006,113.10299999999999
1252.0,1337.51,-499.02300000000002,-839.12,-76.757400000000004,667.76900000000001,-29.013999999999999,60.787199999999999
1253.0,1381.4100000000001,-492.13999999999999,-810.23599999999999,-37.704799999999999,696.53399999999999,13.6037,-1.4430000000000001
1254.0,1423.3399999999999,-572.00999999999999,-871.529,-97.810400000000001,717.08399999999995,64.763099999999994,-68.498400000000004
1255.0,1447.6700000000001,-513.56799999999998,-800.35500000000002,-49.283200000000001,721.33699999999999,119.946,-142.167
1256.0,1457.1800000000001,-523.74199999999996,-809.13400000000001,-94.309399999999997,707.303,175.61799999999999,-217.25800000000001
1257.0,1451.21,-429.0,-727.73900000000003,-79.4011,677.50099999999998,229.86600000000001,-291.29899999999998
1258.0,1432.4400000000001,-426.303,-749.25699999999995,-210.012,628.98599999999999,283.64999999999998,-366.37700000000001
1259.0,1384.51,-318.428,-628.28999999999996,-252.136,565.774,305.57900000000001,-430.29899999999998
1260.0,1465.28,-308.76900000000001,-656.97299999999996,-397.18400000000003,508.12099999999998,364.23200000000003,-540.44000000000005
1261.0,1407.0999999999999,-257.21899999999999,-635.29200000000003,-335.048,485.565,353.70499999999998,-509.15699999999998
1262.0,1248.98,-235.30799999999999,-588.30499999999995,-355.50299999999999,409.947,328.43700000000001,-460.26799999999997
1263.0,1087.49,-212.38499999999999,-511.42399999999998,-350.43799999999999,332.35700000000003,274.59199999999998,-431.22000000000003
1264.0,897.45600000000002,-172.268,-384.68799999999999,-264.17599999999999,272.084,213.28899999999999,-370.952
1265.0,794.82899999999995,-43.460000000000001,-260.81400000000002,-247.19300000000001,193.62299999999999,195.476,-346.49799999999999
1266.0,727.85500000000002,41.945799999999998,-198.17699999999999,-251.01400000000001,147.53899999999999,167.226,-320.12400000000002
1267.0,657.41600000000005,65.985500000000002,-144.93000000000001,-247.964,121.245,124.304,-297.15699999999998
1268.0,592.64400000000001,28.433900000000001,-147.65100000000001,-267.517,106.542,88.048400000000001,-275.339
1269.0,545.02099999999996,8.1452600000000004,-148.453,-265.75700000000001,91.299999999999997,71.773099999999999,-258.15600000000001
1270.0,514.10699999999997,19.714300000000001,-127.148,-247.756,78.530500000000004,63.584400000000002,-244.846
1271.0,488.49799999999999,41.155900000000003,-101.02200000000001,-224.37700000000001,64.734200000000001,55.166400000000003,-233.78
1272.0,464.85500000000002,20.8246,-118.166,-235.339,51.8658,49.348999999999997,-224.63300000000001
1273.0,445.72300000000001,66.504400000000004,-74.792299999999997,-185.88800000000001,43.662500000000001,49.298000000000002,-214.208
1274.0,428.97899999999998,74.619299999999996,-67.475200000000001,-175.07900000000001,39.771900000000002,46.298400000000001,-204.76599999999999
1275.0,1021.38,-264.34500000000003,-653.10500000000002,-55.033000000000001,466.73700000000002,-93.400499999999994,170.48699999999999
1276.0,1044.9100000000001,-242.917,-612.02800000000002,12.5474,493.50299999999999,-71.585099999999997,129.12100000000001
1277.0,1081.8499999999999,-330.899,-685.61199999999997,-34.056199999999997,523.96699999999998,-44.185200000000002,85.008099999999999
1278.0,1127.8299999999999,-296.435,-645.37800000000004,34.674599999999998,553.80499999999995,-13.5787,38.307400000000001
1279.0,1160.0799999999999,-362.73000000000002,-709.14499999999998,-19.434799999999999,573.57100000000003,22.642199999999999,-13.0947
1280.0,1178.99,-311.96199999999999,-655.20600000000002,23.5883,583.35799999999995,58.289700000000003,-66.623000000000005
1281.0,1189.52,-386.64100000000002,-723.85500000000002,-67.966499999999996,582.43100000000004,95.697100000000006,-125.277
1282.0,1196.73,-336.68000000000001,-666.77599999999995,-43.2348,571.52800000000002,135.191,-187.50299999999999
1283.0,1199.3399999999999,-396.73500000000001,-711.87099999999998,-128.28299999999999,549.03499999999997,176.15000000000001,-248.34999999999999
1284.0,1185.54,-283.85000000000002,-600.31200000000001,-109.65000000000001,504.91899999999998,227.69200000000001,-315.97500000000002
1285.0,1185.71,-296.92500000000001,-608.83000000000004,-231.17599999999999,454.52600000000001,263.88,-389.49299999999999
1286.0,1170.8699999999999,-99.2196,-461.56700000000001,-235.006,354.36399999999998,299.642,-456.19200000000001
1287.0,942.69899999999996,-127.062,-462.142,-214.14099999999999,307.35000000000002,223.03999999999999,-348.983
1288.0,886.66499999999996,-52.218000000000004,-365.60599999999999,-147.56999999999999,259.858,229.92599999999999,-340.38099999999997
1289.0,821.25999999999999,-149.87700000000001,-439.01999999999998,-201.99700000000001,258.21100000000001,191.822,-312.41699999999997
1290.0,725.245,-101.14700000000001,-322.82900000000001,-142.143,221.16499999999999,163.58600000000001,-292.815
1291.0,679.13900000000001,-11.721399999999999,-232.15199999999999,-155.62899999999999,151.42599999999999,169.73099999999999,-299.13
1292.0,626.66399999999999,76.398499999999999,-165.53,-160.435,116.384,149.68000000000001,-275.40100000000001
1293.0,571.13999999999999,1.4087499999999999,-215.56800000000001,-262.81200000000001,100.622,107.343,-259.29199999999997
1294.0,523.17700000000002,43.204000000000001,-135.32599999999999,-206.697,90.347300000000004,72.903700000000001,-247.36799999999999
1295.0,487.72899999999998,34.241900000000001,-128.19300000000001,-205.624,76.627899999999997,57.225200000000001,-234.863
1296.0,460.32100000000003,61.207299999999996,-95.720799999999997,-173.798,65.315399999999997,43.169699999999999,-224.00299999999999
1297.0,435.85899999999998,31.067299999999999,-121.008,-190.80500000000001,52.508499999999998,35.1492,-215.548
1298.0,410.35300000000001,88.816999999999993,-63.167499999999997,-124.527,41.562399999999997,33.028399999999998,-203.09700000000001
1299.0,385.21199999999999,50.613799999999998,-96.9131,-154.702,37.682600000000001,29.775300000000001,-189.595
1300.0,371.38799999999998,57.837000000000003,-79.355900000000005,-134.61000000000001,36.796799999999998,29.126899999999999,-184.27000000000001
1301.0,850.23900000000003,-149.202,-535.49599999999998,-0.26239499999999999,375.089,-67.484899999999996,139.31700000000001
1302.0,871.44299999999998,-212.02799999999999,-581.48299999999995,-28.3964,401.04000000000002,-48.590000000000003,102.90900000000001
1303.0,905.70799999999997,-201.327,-562.79499999999996,14.703900000000001,428.90699999999998,-26.296500000000002,60.364699999999999
1304.0,946.60500000000002,-267.20800000000003,-627.62900000000002,-20.986000000000001,452.99700000000001,-4.48583,19.2316
1305.0,972.68299999999999,-253.005,-610.25400000000002,8.6681000000000008,466.762,22.6065,-21.581099999999999
1306.0,976.024,-286.26299999999998,-637.24900000000002,-34.020400000000002,468.61599999999999,48.3964,-61.763500000000001
1307.0,975.73599999999999,-242.53100000000001,-582.70500000000004,-3.73949,464.88499999999999,74.570899999999995,-104.965
1308.0,981.77800000000002,-253.70500000000001,-582.803,-35.395200000000003,458.85700000000003,103.943,-154.93700000000001
1309.0,991.86800000000005,-214.77000000000001,-533.41899999999998,-13.792999999999999,442.63600000000002,140.92500000000001,-208.54499999999999
1310.0,970.19100000000003,-204.27099999999999,-502.13099999999997,-57.555,407.858,173.226,-257.07299999999998
1311.0,973.88099999999997,-150.60400000000001,-441.584,-97.878699999999995,341.59399999999999,216.38999999999999,-344.05500000000001
1312.0,883.05899999999997,-75.611800000000002,-388.50200000000001,-191.501,235.71899999999999,225.11600000000001,-358.702
1313.0,691.77499999999998,-6.4602599999999999,-278.65100000000001,-97.1738,195.209,167.24600000000001,-272.45499999999998
1314.0,687.91600000000005,-111.607,-391.495,-205.94499999999999,171.071,176.88200000000001,-277.33100000000002
1315.0,614.66200000000003,-85.499899999999997,-332.173,-108.35599999999999,190.21000000000001,137.27699999999999,-228.767
1316.0,585.46400000000006,-83.736900000000006,-283.46199999999999,-108.721,170.35499999999999,138.16800000000001,-233.03
1317.0,582.52700000000004,18.5273,-187.20599999999999,-85.329599999999999,123.54000000000001,150.24799999999999,-254.34999999999999
1318.0,548.50199999999995,65.828900000000004,-157.87299999999999,-121.554,94.176100000000005,132.55000000000001,-243.78999999999999
1319.0,502.34199999999998,113.291,-102.682,-106.61799999999999,81.796000000000006,93.998199999999997,-229.68000000000001
1320.0,459.68700000000001,45.279200000000003,-142.71700000000001,-166.87299999999999,72.846000000000004,61.951799999999999,-218.64099999999999
1321.0,424.02800000000002,48.1342,-118.426,-152.05600000000001,62.477400000000003,43.984200000000001,-206.40600000000001
1322.0,394.55500000000001,29.409500000000001,-124.48099999999999,-160.36199999999999,50.0107,33.259500000000003,-195.244
1323.0,368.88999999999999,68.967699999999994,-78.174499999999995,-113.042,38.3414,29.430800000000001,-183.55199999999999
1324.0,348.37700000000001,32.360700000000001,-109.374,-146.56899999999999,33.052900000000001,26.048100000000002,-172.53899999999999
1325.0,335.72899999999998,64.629999999999995,-70.130700000000004,-105.57599999999999,32.0199,21.833400000000001,-167.346
1326.0,328.40499999999997,44.240200000000002,-88.777799999999999,-114.84699999999999,30.379100000000001,22.534700000000001,-165.042
1327.0,694.30799999999999,-104.908,-463.10399999999998,6.2770999999999999,293.911,-48.473799999999997,108.58499999999999
1328.0,725.46799999999996,-99.008099999999999,-458.23500000000001,38.414999999999999,320.41399999999999,-34.162399999999998,76.402000000000001
1329.0,757.72500000000002,-143.83799999999999,-506.512,17.198,342.82900000000001,-16.637899999999998,40.222000000000001
1330.0,785.89499999999998,-122.45399999999999,-486.10899999999998,58.938099999999999,358.85199999999998,-0.58263200000000004,8.0031300000000005
1331.0,806.95500000000004,-156.63900000000001,-515.76400000000001,37.572899999999997,370.69299999999998,17.590499999999999,-22.895099999999999
1332.0,818.85299999999995,-140.33000000000001,-489.50900000000001,56.425699999999999,377.22699999999998,39.3185,-56.686199999999999
1333.0,819.21600000000001,-175.86699999999999,-512.58799999999997,9.3950999999999993,375.35899999999998,62.502099999999999,-94.209900000000005
1334.0,816.65300000000002,-158.399,-483.745,8.3898299999999999,366.19600000000003,86.736800000000002,-134.31399999999999
1335.0,808.98099999999999,-173.07900000000001,-492.27100000000002,-39.522599999999997,347.74700000000001,110.114,-176.011
1336.0,812.92999999999995,-134.012,-444.00599999999997,-26.668800000000001,322.50599999999997,137.92599999999999,-224.24600000000001
1337.0,760.57000000000005,-89.664599999999993,-366.22199999999998,-44.3782,245.29400000000001,164.613,-274.23099999999999
1338.0,617.38099999999997,49.875500000000002,-189.84,14.568199999999999,166.10499999999999,148.33699999999999,-246.393
1339.0,536.43299999999999,-34.754100000000001,-261.88499999999999,-80.888900000000007,139.69900000000001,135.15199999999999,-209.107
1340.0,482.31099999999998,19.285699999999999,-201.68299999999999,-36.218699999999998,109.248,120.848,-194.39099999999999
1341.0,437.12099999999998,-40.979599999999998,-236.53800000000001,-40.680399999999999,126.605,98.064899999999994,-158.99199999999999
1342.0,486.05700000000002,-44.793700000000001,-238.93199999999999,-67.388900000000007,132.071,118.926,-189.45500000000001
1343.0,503.024,-19.325099999999999,-218.477,-102.93000000000001,104.562,125.261,-218.44999999999999
1344.0,476.24200000000002,52.7181,-152.84100000000001,-82.255700000000004,75.470600000000005,110.892,-216.102
1345.0,434.63499999999999,44.393700000000003,-165.33500000000001,-127.143,60.710999999999999,84.256900000000002,-199.26300000000001
1346.0,397.17500000000001,79.048900000000003,-114.107,-97.150300000000001,55.268799999999999,57.424399999999999,-186.52099999999999
1347.0,365.613,54.826000000000001,-111.643,-108.21899999999999,49.466500000000003,38.932400000000001,-177.60599999999999
1348.0,339.91699999999997,69.410300000000007,-78.924099999999996,-85.072100000000006,41.219499999999996,29.7788,-168.16
1349.0,320.31900000000002,43.017899999999997,-94.743600000000001,-109.14100000000001,34.015900000000002,23.590699999999998,-159.47200000000001
1350.0,305.78500000000003,76.156099999999995,-55.446599999999997,-70.2697,29.130400000000002,17.2685,-153.37799999999999
1351.0,293.80900000000003,41.7256,-87.043599999999998,-94.607500000000002,25.252700000000001,15.8774,-148.37100000000001
1352.0,286.22300000000001,61.981000000000002,-67.631799999999998,-70.593199999999996,23.6036,19.204899999999999,-143.70500000000001
1353.0,575.154,-41.376899999999999,-365.44600000000003,49.246000000000002,232.505,-39.397799999999997,84.397800000000004
1354.0,609.73599999999999,-86.276399999999995,-418.22699999999998,29.925899999999999,256.005,-29.389900000000001,58.603099999999998
1355.0,634.75900000000001,-75.160300000000007,-408.66899999999998,61.190899999999999,273.48599999999999,-14.06,29.7088
1356.0,650.35799999999995,-116.583,-447.54700000000003,30.271599999999999,284.74000000000001,1.3358699999999999,2.7037599999999999
1357.0,663.13599999999997,-103.741,-430.33199999999999,48.865600000000001,293.03300000000002,16.122299999999999,-22.9084
1358.0,675.57399999999996,-131.333,-454.67899999999997,21.210899999999999,298.53500000000003,33.346699999999998,-53.381799999999998
1359.0,688.06600000000003,-100.377,-421.92599999999999,46.698799999999999,299.59199999999998,53.287599999999998,-88.189499999999995
1360.0,687.42100000000005,-103.361,-422.04000000000002,21.697399999999998,290.57999999999998,74.460700000000003,-123.227
1361.0,671.09100000000001,-59.328899999999997,-366.14699999999999,39.284599999999998,272.38299999999998,89.234499999999997,-152.50999999999999
1362.0,657.45299999999997,-56.514699999999998,-348.85500000000002,7.21882,240.54499999999999,111.65900000000001,-194.16399999999999
1363.0,634.82000000000005,-9.9792400000000008,-278.28899999999999,14.050000000000001,187.85599999999999,127.108,-237.797
1364.0,558.73900000000003,-7.01105,-249.56899999999999,-35.6066,139.94499999999999,130.166,-223.524
1365.0,445.084,48.680900000000001,-162.595,-15.4551,104.803,110.268,-176.51300000000001
1366.0,360.40899999999999,-34.290399999999998,-205.92099999999999,-79.525999999999996,77.381200000000007,86.257999999999996,-148.178
1367.0,349.63999999999999,-32.617600000000003,-198.99299999999999,-39.110700000000001,91.224199999999996,79.647999999999996,-131.15899999999999
1368.0,401.68900000000002,-29.452999999999999,-226.31899999999999,-62.261400000000002,100.273,94.1203,-154.09999999999999
1369.0,424.59699999999998,-13.4735,-216.72900000000001,-76.941000000000003,80.593500000000006,96.808499999999995,-182.79300000000001
1370.0,404.84199999999998,46.038899999999998,-151.80199999999999,-40.793100000000003,54.466799999999999,88.669600000000003,-184.30799999999999
1371.0,372.09899999999999,131.786,-71.099900000000005,4.0769900000000003,41.744700000000002,76.915099999999995,-167.25200000000001
1372.0,341.33699999999999,86.7029,-101.69199999999999,-56.329900000000002,40.780799999999999,56.8904,-155.786
1373.0,316.17700000000002,68.412499999999994,-93.583200000000005,-65.252799999999993,38.823799999999999,38.630099999999999,-151.12200000000001
1374.0,295.858,47.003999999999998,-97.868799999999993,-82.611999999999995,34.463000000000001,25.113600000000002,-144.99000000000001
1375.0,279.57400000000001,60.128399999999999,-71.968400000000003,-63.313400000000001,29.404800000000002,14.9968,-139.65600000000001
1376.0,267.00900000000001,27.9542,-95.444400000000002,-86.931299999999993,24.980399999999999,11.380699999999999,-135.13499999999999
1377.0,258.66899999999998,57.424599999999998,-63.674300000000002,-53.718499999999999,22.6233,13.760899999999999,-130.69999999999999
1378.0,253.12700000000001,43.218699999999998,-77.714399999999998,-65.712999999999994,22.2117,15.343500000000001,-127.239
1379.0,495.98200000000003,-30.448899999999998,-336.25,46.838700000000003,187.92599999999999,-33.2791,67.341800000000006
1380.0,521.45100000000002,-17.851700000000001,-325.596,82.367999999999995,206.49700000000001,-24.3979,46.940399999999997
1381.0,535.745,-57.463500000000003,-361.46800000000002,55.503999999999998,220.33500000000001,-10.338900000000001,22.633299999999998
1382.0,543.48099999999999,-30.910799999999998,-332.899,82.597800000000007,228.74199999999999,3.4926699999999999,-1.57673
1383.0,553.80899999999997,-60.081499999999998,-363.02699999999999,52.440399999999997,234.85900000000001,16.024999999999999,-25.3734
1384.0,567.56700000000001,-34.1571,-336.52300000000002,79.110900000000001,240.34299999999999,29.002099999999999,-51.029899999999998
1385.0,579.88499999999999,-74.322400000000002,-374.11399999999998,37.843299999999999,240.51300000000001,45.502000000000002,-82.529300000000006
1386.0,579.53999999999996,-44.888399999999997,-340.05700000000002,53.314100000000003,232.65299999999999,60.9818,-110.416
1387.0,569.26999999999998,-75.894499999999994,-360.798,0.96068600000000004,215.31200000000001,77.548199999999994,-139.01599999999999
1388.0,546.72000000000003,-15.6113,-281.01999999999998,29.4054,188.16999999999999,91.053799999999995,-166.72399999999999
1389.0,517.5,-39.717399999999998,-269.07299999999998,-6.9997400000000001,151.13900000000001,95.351799999999997,-192.19999999999999
1390.0,463.03699999999998,53.088900000000002,-158.03800000000001,50.500300000000003,115.88800000000001,104.029,-180.381
1391.0,379.15100000000001,5.9046399999999997,-182.59299999999999,-47.7363,93.836100000000002,88.099400000000003,-148.05199999999999
1392.0,315.24599999999998,-7.0175599999999996,-158.483,-44.1233,75.813800000000001,66.640000000000001,-129.249
1393.0,306.49700000000001,-26.816099999999999,-177.185,-37.388199999999998,72.140699999999995,66.777699999999996,-120.85299999999999
1394.0,334.541,6.9406100000000004,-174.328,-25.823399999999999,70.255200000000002,78.141999999999996,-130.12700000000001
1395.0,352.07400000000001,-11.0367,-197.75700000000001,-58.695,60.397500000000001,81.250600000000006,-147.16300000000001
1396.0,345.31200000000001,48.671700000000001,-119.867,-8.4285599999999992,45.645600000000002,81.009600000000006,-154.12200000000001
1397.0,322.334,64.650000000000006,-107.11,-25.179300000000001,32.5777,75.550299999999993,-143.12
1398.0,297.19299999999998,100.614,-76.192700000000002,-13.223100000000001,29.663599999999999,56.623399999999997,-131.62200000000001
1399.0,275.46899999999999,70.464299999999994,-89.4255,-41.927399999999999,30.9038,35.867600000000003,-127.71299999999999
1400.0,257.73500000000001,71.668499999999995,-67.425899999999999,-34.151200000000003,28.896599999999999,20.0611,-125.018
1401.0,244.053,38.969099999999997,-85.995699999999999,-59.736899999999999,24.677499999999998,10.564299999999999,-121.622
1402.0,235.435,65.889499999999998,-51.708599999999997,-27.087199999999999,21.929400000000001,7.4936299999999996,-118.71299999999999
1403.0,231.964,33.6676,-82.835700000000003,-56.201099999999997,20.314599999999999,8.5837500000000002,-117.145
1404.0,227.958,52.587200000000003,-65.108500000000006,-33.663800000000002,22.609300000000001,12.9087,-113.712
1405.0,426.95800000000003,9.2363800000000005,-267.85500000000002,81.296199999999999,152.40199999999999,-27.5792,52.892699999999998
1406.0,441.64100000000002,-21.245799999999999,-301.41399999999999,63.844900000000003,164.34800000000001,-18.084499999999998,33.961300000000001
1407.0,449.37099999999998,-6.2131699999999999,-287.47500000000002,81.354500000000002,173.001,-6.4288100000000004,14.338900000000001
1408.0,452.50900000000001,-34.698999999999998,-314.19900000000001,48.790900000000001,179.05799999999999,4.3811900000000001,-5.6516799999999998
1409.0,461.07400000000001,-21.3705,-300.61000000000001,59.921799999999998,184.94900000000001,14.126899999999999,-26.384799999999998
1410.0,477.31099999999998,-47.546999999999997,-329.75799999999998,34.850299999999997,190.59399999999999,25.246400000000001,-49.154800000000002
1411.0,488.637,-18.970300000000002,-300.46800000000002,60.4694,191.50399999999999,37.403300000000002,-74.4636
1412.0,489.25599999999997,-28.6172,-302.18099999999998,43.128999999999998,186.06100000000001,49.785400000000003,-97.412800000000004
1413.0,483.76900000000001,10.404500000000001,-249.982,65.376900000000006,173.999,63.904800000000002,-123.581
1414.0,482.38999999999999,-4.1330799999999996,-252.53399999999999,31.462900000000001,154.387,78.390799999999999,-153.78299999999999
1415.0,438.29500000000002,44.206200000000003,-170.17599999999999,70.812600000000003,112.102,79.3322,-166.483
1416.0,362.173,66.793899999999994,-121.657,54.554900000000004,77.358400000000003,80.216999999999999,-142.07400000000001
1417.0,309.94200000000001,49.081800000000001,-127.35299999999999,9.5996600000000001,70.747600000000006,66.206900000000005,-118.56999999999999
1418.0,269.24599999999998,-17.0913,-168.25,-38.922400000000003,56.283499999999997,51.863900000000001,-107.849
1419.0,256.61700000000002,-9.7956400000000006,-152.41999999999999,-13.1731,48.683,55.1952,-99.551299999999998
1420.0,278.24099999999999,13.183999999999999,-144.92400000000001,-2.4866299999999999,45.506300000000003,67.683899999999994,-107.54300000000001
1421.0,296.44999999999999,15.6435,-156.10599999999999,-27.603899999999999,43.238199999999999,73.192099999999996,-118.69
1422.0,297.57100000000003,9.3983699999999999,-150.233,-38.990200000000002,39.198599999999999,71.196100000000001,-127.32299999999999
1423.0,282.99000000000001,73.345799999999997,-75.485500000000002,20.135000000000002,25.3962,67.434600000000003,-125.756
1424.0,257.40699999999998,100.761,-60.046799999999998,16.168900000000001,19.7926,53.840600000000002,-111.017
1425.0,235.352,84.071399999999997,-70.744299999999996,-10.7456,22.6477,33.2014,-103.70699999999999
1426.0,220.17099999999999,54.095300000000002,-77.699399999999997,-29.155200000000001,22.875,16.646599999999999,-104.476
1427.0,211.089,56.215000000000003,-62.275500000000001,-21.952000000000002,19.739799999999999,7.6543900000000002,-103.804
1428.0,206.316,32.788800000000002,-79.574399999999997,-41.944699999999997,17.977799999999998,3.97262,-102.85299999999999
1429.0,204.827,46.301400000000001,-63.444499999999998,-24.335100000000001,17.549499999999998,4.34511,-102.78100000000001
1430.0,207.244,37.817599999999999,-75.376099999999994,-30.977900000000002,20.210899999999999,8.1104699999999994,-102.90600000000001
1431.0,364.15800000000002,12.6654,-239.88499999999999,75.072800000000001,119.89,-22.1587,39.073
1432.0,372.36700000000002,31.9377,-221.065,102.72,128.46600000000001,-14.0288,23.2913
1433.0,375.37099999999998,1.99072,-250.065,72.727199999999996,134.53999999999999,-4.6553100000000001,7.5266900000000003
1434.0,377.80200000000002,28.029199999999999,-222.98699999999999,94.587100000000007,139.392,4.32768,-8.9582999999999995
1435.0,383.60199999999998,3.0562499999999999,-248.416,65.784700000000001,143.24100000000001,12.436,-26.985199999999999
1436.0,393.90199999999999,29.975200000000001,-223.48400000000001,91.290099999999995,145.97800000000001,20.8049,-46.151200000000003
1437.0,403.47399999999999,-7.0602099999999997,-261.36500000000001,49.881599999999999,146.78399999999999,30.823599999999999,-65.601500000000001
1438.0,406.28300000000002,17.5459,-233.381,62.588900000000002,144.251,39.543700000000001,-84.959199999999996
1439.0,413.72800000000001,-17.5122,-262.77999999999997,15.172000000000001,137.636,51.908700000000003,-111.078
1440.0,415.05700000000002,30.796199999999999,-205.43799999999999,46.039499999999997,119.422,63.103499999999997,-138.92599999999999
1441.0,381.37599999999998,3.4708600000000001,-199.12299999999999,26.760000000000002,92.286199999999994,58.717399999999998,-145.19999999999999
1442.0,323.23200000000003,64.998000000000005,-119.785,49.4148,66.413399999999996,67.244299999999996,-124.06100000000001
1443.0,259.94299999999998,5.4504200000000003,-155.13499999999999,-20.7117,52.1374,50.290199999999999,-99.259299999999996
1444.0,230.78,3.0537100000000001,-131.38,4.3505099999999999,39.565100000000001,47.714500000000001,-88.477900000000005
1445.0,221.97800000000001,-3.1781000000000001,-129.964,1.49417,31.056699999999999,53.708500000000001,-83.741900000000001
1446.0,233.76900000000001,28.4377,-105.72499999999999,21.410900000000002,22.718800000000002,61.668599999999998,-90.5244
1447.0,254.839,20.700099999999999,-140.97999999999999,-15.809100000000001,22.940799999999999,65.631100000000004,-98.1006
1448.0,260.99200000000002,14.2354,-155.11799999999999,-34.992800000000003,27.428999999999998,58.925600000000003,-104.36499999999999
1449.0,250.68000000000001,5.4619400000000002,-135.52699999999999,-25.945699999999999,20.1568,55.472499999999997,-109.474
1450.0,225.17500000000001,95.215400000000002,-45.146900000000002,38.792400000000001,13.700200000000001,49.438699999999997,-96.337699999999998
1451.0,202.096,89.802099999999996,-55.1265,8.87852,16.900200000000002,32.999200000000002,-83.455399999999997
1452.0,187.739,70.883399999999995,-50.359499999999997,3.1961400000000002,19.1099,16.071200000000001,-86.218500000000006
1453.0,182.244,42.976399999999998,-64.579800000000006,-18.7409,17.7483,6.2752699999999999,-88.337500000000006
1454.0,181.23400000000001,57.7239,-45.587600000000002,-1.47933,15.408899999999999,1.9674700000000001,-89.554500000000004
1455.0,183.428,31.4313,-71.408299999999997,-24.575299999999999,16.642299999999999,1.9089,-91.014499999999998
1456.0,199.69,41.010199999999998,-70.340900000000005,-17.295500000000001,22.8474,7.4135999999999997,-98.045900000000003
1457.0,310.78800000000001,43.817500000000003,-183.19,98.210499999999996,93.701999999999998,-18.077500000000001,28.459599999999998
1458.0,314.88200000000001,19.369800000000001,-206.80799999999999,78.667100000000005,99.901399999999995,-11.183,15.8125
1459.0,314.99099999999999,36.253599999999999,-187.535,94.665400000000005,104.236,-3.71515,2.3728199999999999
1460.0,317.31900000000002,12.792400000000001,-209.81,69.399199999999993,107.76300000000001,3.56359,-12.348599999999999
1461.0,321.14100000000002,27.176400000000001,-194.85499999999999,80.190299999999993,110.479,11.088699999999999,-27.4894
1462.0,325.61599999999999,6.50136,-214.21700000000001,54.875900000000001,111.94499999999999,18.356200000000001,-43.536299999999997
1463.0,330.18200000000002,35.0471,-186.28800000000001,75.996600000000001,111.30200000000001,25.423300000000001,-58.272100000000002
1464.0,334.57900000000001,23.254999999999999,-199.42500000000001,53.436199999999999,109.482,30.642700000000001,-72.914400000000001
1465.0,346.56900000000002,55.4574,-168.31100000000001,71.159199999999998,103.816,41.147199999999998,-98.090800000000002
1466.0,352.565,35.312199999999997,-182.87299999999999,41.4131,92.1267,47.412300000000002,-119.893
1467.0,314.63499999999999,58.2485,-120.395,89.685000000000002,72.548500000000004,43.637300000000003,-113.98099999999999
1468.0,260.19299999999998,74.250600000000006,-79.1875,83.096400000000003,51.598700000000001,54.067900000000002,-93.031199999999998
1469.0,220.48400000000001,54.941699999999997,-81.0124,54.316499999999998,43.4071,44.340800000000002,-78.873900000000006
1470.0,199.52099999999999,-5.9813200000000002,-120.67400000000001,10.6943,31.825299999999999,45.417499999999997,-71.266599999999997
1471.0,195.12200000000001,9.9626400000000004,-96.727400000000003,25.626999999999999,20.323699999999999,52.124899999999997,-71.607799999999997
1472.0,209.816,24.775300000000001,-89.643299999999996,28.671700000000001,7.7026599999999998,61.261200000000002,-79.652299999999997
1473.0,221.08699999999999,46.063600000000001,-92.814599999999999,22.784400000000002,5.0645600000000002,63.436100000000003,-81.922499999999999
1474.0,223.90700000000001,29.426400000000001,-127.746,-20.061199999999999,14.3721,54.3611,-84.212599999999995
1475.0,218.499,32.204500000000003,-99.742099999999994,5.52738,15.212,47.478299999999997,-92.526300000000006
1476.0,199.34999999999999,76.482399999999998,-44.003300000000003,44.056199999999997,9.7643699999999995,44.540900000000001,-85.325299999999999
1477.0,178.58000000000001,104.52500000000001,-30.920400000000001,35.080800000000004,12.2768,32.488999999999997,-69.546599999999998
1478.0,165.876,55.679299999999998,-61.280900000000003,-3.0523500000000001,16.049900000000001,14.7402,-72.641999999999996
1479.0,161.84999999999999,59.150500000000001,-42.436599999999999,11.4,16.873000000000001,4.5775100000000002,-76.440299999999993
1480.0,160.01599999999999,26.264399999999998,-69.7012,-17.525200000000002,15.192600000000001,0.72502999999999995,-77.430700000000002
1481.0,170.36500000000001,46.832900000000002,-52.8643,3.83832,16.268899999999999,-0.183001,-83.123599999999996
1482.0,209.375,29.7393,-96.5154,-28.962399999999999,17.575299999999999,3.2807300000000001,-101.496
1483.0,266.64600000000002,37.1036,-165.03700000000001,85.759,73.517200000000003,-14.5223,19.915600000000001
1484.0,266.96100000000001,59.349800000000002,-141.08199999999999,108.876,77.878900000000002,-8.6670300000000005,9.9110700000000005
1485.0,267.738,32.344999999999999,-165.976,82.377399999999994,81.409800000000004,-3.2843399999999998,-1.9713000000000001
1486.0,269.36599999999999,58.436399999999999,-138.11199999999999,108.154,83.696100000000001,2.7879299999999998,-14.658099999999999
1487.0,271.04000000000002,34.7941,-161.07499999999999,79.690100000000001,84.933800000000005,9.9740000000000002,-27.9831
1488.0,273.63099999999997,63.587499999999999,-133.136,98.791499999999999,85.267399999999995,16.382999999999999,-42.396000000000001
1489.0,277.98899999999998,29.4328,-169.148,57.197899999999997,84.411900000000003,20.874099999999999,-54.392299999999999
1490.0,280.14299999999997,54.934100000000001,-142.16,77.455600000000004,82.763499999999993,24.735700000000001,-64.038700000000006
1491.0,283.99200000000002,19.419,-172.02500000000001,32.376800000000003,75.780299999999997,32.648600000000002,-83.5184
1492.0,281.56299999999999,61.232700000000001,-121.762,64.573300000000003,62.643599999999999,35.312199999999997,-99.423400000000001
1493.0,258.61700000000002,30.753399999999999,-125.52500000000001,65.941299999999998,48.331200000000003,31.771999999999998,-92.531899999999993
1494.0,227.45699999999999,93.367800000000003,-52.373199999999997,118.18000000000001,37.786299999999997,46.417400000000001,-71.919799999999995
1495.0,187.691,-3.0348199999999999,-130.226,8.2626000000000008,35.106000000000002,36.845700000000001,-56.908900000000003
1496.0,170.64599999999999,11.4124,-92.076300000000003,34.830500000000001,24.857700000000001,38.6023,-55.118499999999997
1497.0,177.672,-7.5521799999999999,-104.22199999999999,18.542200000000001,11.675700000000001,48.816800000000001,-61.8078
1498.0,195.43799999999999,43.902799999999999,-57.057299999999998,62.971499999999999,-2.6186600000000002,62.609699999999997,-68.151300000000006
1499.0,194.37200000000001,27.944099999999999,-87.3142,17.546199999999999,-5.8784200000000002,64.147000000000006,-66.177300000000002
1500.0,184.035,40.994900000000001,-91.940299999999993,0.60899599999999998,-0.34045999999999998,49.662100000000002,-64.640799999999999
1501.0,179.327,-17.021999999999998,-139.25700000000001,-38.259399999999999,1.0246500000000001,39.872999999999998,-69.734800000000007
1502.0,167.45099999999999,68.355800000000002,-38.620899999999999,53.608199999999997,-1.6879299999999999,38.1753,-67.268799999999999
1503.0,154.16,92.506600000000006,-31.631399999999999,37.170299999999997,1.1050899999999999,31.206600000000002,-55.489199999999997
1504.0,146.58099999999999,87.237499999999997,-29.950099999999999,34.308399999999999,9.0226199999999999,14.9405,-58.424300000000002
1505.0,143.34299999999999,40.9422,-59.359999999999999,3.4131200000000002,14.1913,4.3973300000000002,-63.719200000000001
1506.0,143.506,59.747900000000001,-33.7072,27.726199999999999,14.8728,1.18998,-66.230699999999999
1507.0,155.976,27.448699999999999,-71.936800000000005,-6.7210000000000001,14.5152,0.75951199999999996,-73.133700000000005
1508.0,192.61699999999999,49.3797,-76.556799999999996,-2.8674599999999999,5.8421399999999997,-1.0211600000000001,-91.261499999999998
1509.0,226.13300000000001,59.6389,-117.422,102.14700000000001,56.236899999999999,-11.933199999999999,13.385899999999999
1510.0,227.81800000000001,43.852200000000003,-133.274,86.5154,60.353400000000001,-7.1440700000000001,4.8287500000000003
1511.0,231.05099999999999,55.122599999999998,-122.056,98.848500000000001,63.800800000000002,-3.1119599999999998,-5.5517000000000003
1512.0,232.14099999999999,40.7149,-134.565,84.429599999999994,65.471400000000003,2.3096199999999998,-15.463900000000001
1513.0,229.78800000000001,49.362900000000003,-122.904,86.548900000000003,65.592799999999997,8.3977699999999995,-27.197199999999999
1514.0,229.97399999999999,38.297699999999999,-133.42599999999999,66.283199999999994,64.609499999999997,13.4305,-39.7727
1515.0,232.744,56.162500000000001,-116.38,76.0261,62.863199999999999,17.4087,-51.030099999999997
1516.0,237.78399999999999,53.490000000000002,-118.919,71.631399999999999,61.270400000000002,21.152100000000001,-59.875
1517.0,235.44,72.806299999999993,-88.239500000000007,89.510300000000001,52.1325,27.738399999999999,-73.178600000000003
1518.0,217.65100000000001,73.928700000000006,-70.658000000000001,87.752799999999993,37.687199999999997,25.583600000000001,-77.572299999999998
1519.0,206.75800000000001,63.6678,-65.619600000000005,112.16200000000001,30.433499999999999,21.7911,-66.355199999999996
1520.0,189.81299999999999,83.852099999999993,-45.689799999999998,118.883,24.791,39.590400000000002,-48.086100000000002
1521.0,152.08500000000001,54.060699999999997,-54.135300000000001,71.925299999999993,19.690999999999999,31.393599999999999,-41.034500000000001
1522.0,145.24700000000001,5.6776499999999999,-83.713099999999997,32.994900000000001,13.140700000000001,35.663899999999998,-43.143099999999997
1523.0,165.94900000000001,13.852,-70.000600000000006,50.688099999999999,3.92387,49.433900000000001,-53.804900000000004
1524.0,187.25800000000001,39.742199999999997,-47.823799999999999,70.106700000000004,-8.69116,66.255200000000002,-58.937600000000003
1525.0,176.697,50.360799999999998,-48.868699999999997,49.685600000000001,-9.9432399999999994,65.041499999999999,-53.084600000000002
1526.0,152.54499999999999,37.943600000000004,-66.5672,12.552,-5.4042599999999998,47.967100000000002,-49.552399999999999
1527.0,140.91300000000001,36.524799999999999,-59.307200000000002,21.686699999999998,-2.2630400000000002,37.747100000000003,-50.280999999999999
1528.0,136.04499999999999,69.096000000000004,-15.596399999999999,63.356900000000003,-3.6740400000000002,35.155200000000001,-51.7697
1529.0,132.351,113.69,11.5807,75.168099999999995,-6.53512,33.327100000000002,-45.017099999999999
1530.0,127.19199999999999,83.288700000000006,-27.0045,33.863799999999998,1.0554600000000001,19.746400000000001,-44.153399999999998
1531.0,125.598,69.724500000000006,-28.689699999999998,35.164299999999997,10.3873,6.9446199999999996,-51.081800000000001
1532.0,130.035,37.991399999999999,-54.037799999999997,10.759399999999999,12.363300000000001,2.8156699999999999,-56.9268
1533.0,140.10300000000001,58.666899999999998,-40.394500000000001,25.314,8.3638200000000005,2.9451499999999999,-62.640099999999997
1534.0,146.90000000000001,53.889499999999998,-50.935099999999998,10.493600000000001,-2.9510200000000002,-0.95809800000000001,-66.403700000000001
1535.0,190.821,55.105499999999999,-98.069599999999994,92.179699999999997,42.396000000000001,-10.2783,7.9083100000000002
1536.0,196.40000000000001,73.265699999999995,-83.298900000000003,112.131,45.8658,-7.1305500000000004,0.68138799999999999
1537.0,200.03899999999999,51.991500000000002,-106.193,91.4572,48.335799999999999,-3.13761,-7.1697499999999996
1538.0,199.43600000000001,71.238399999999999,-85.260099999999994,108.262,49.531199999999998,1.7051799999999999,-15.801500000000001
1539.0,197.08000000000001,54.685600000000001,-98.874499999999998,85.752700000000004,49.804600000000001,6.5859899999999998,-25.511800000000001
1540.0,193.38,76.233699999999999,-72.300600000000003,99.138099999999994,48.369399999999999,10.9861,-36.631999999999998
1541.0,191.71799999999999,53.604900000000001,-91.928299999999993,68.422700000000006,45.724699999999999,13.9948,-45.970799999999997
1542.0,196.50899999999999,68.092699999999994,-76.365799999999993,81.385300000000001,41.7819,17.1084,-56.377600000000001
1543.0,203.59899999999999,47.325299999999999,-91.484499999999997,66.343599999999995,34.753799999999998,22.948599999999999,-68.263199999999998
1544.0,192.60400000000001,68.206800000000001,-53.016800000000003,101.376,22.872,22.901399999999999,-68.646799999999999
1545.0,152.56999999999999,61.226900000000001,-26.893599999999999,114.56399999999999,11.342700000000001,22.1252,-45.139800000000001
1546.0,124.577,103.001,26.273700000000002,135.49100000000001,11.1143,34.326500000000003,-26.946400000000001
1547.0,120.839,8.3705300000000005,-61.099899999999998,41.2134,14.991300000000001,30.593599999999999,-31.270199999999999
1548.0,133.03399999999999,12.2508,-58.584800000000001,46.928400000000003,7.2865900000000003,37.924300000000002,-38.933500000000002
1549.0,161.84700000000001,7.0875500000000002,-68.416600000000003,48.679200000000002,-3.5962700000000001,51.794499999999999,-50.121299999999998
1550.0,182.71899999999999,45.640099999999997,-33.793999999999997,83.799999999999997,-13.725899999999999,68.016599999999997,-52.106299999999997
1551.0,166.76900000000001,36.512799999999999,-52.208500000000001,41.585000000000001,-15.0342,65.756699999999995,-44.025700000000001
1552.0,134.97900000000001,38.398200000000003,-49.2502,24.2545,-10.409599999999999,47.211399999999998,-39.0077
1553.0,113.20999999999999,-5.13462,-84.291799999999995,-20.4816,-2.6718799999999998,34.940100000000001,-35.805599999999998
1554.0,111.011,42.946399999999997,-25.288699999999999,36.610300000000002,2.68689,32.552700000000002,-40.244500000000002
1555.0,114.364,82.853099999999998,6.60562,63.872100000000003,-1.7562500000000001,33.390000000000001,-40.819000000000003
1556.0,111.306,106.51000000000001,11.2685,65.088099999999997,-1.93818,23.7255,-35.812100000000001
1557.0,109.514,60.218299999999999,-35.098999999999997,24.8887,4.3255400000000002,9.9664099999999998,-39.4681
1558.0,116.087,71.918599999999998,-19.404,44.9039,6.9514899999999997,3.4321299999999999,-47.234200000000001
1559.0,122.81399999999999,43.912799999999997,-48.621899999999997,12.2643,0.52661400000000003,1.8578399999999999,-53.029200000000003
1560.0,118.58799999999999,68.163499999999999,-20.473299999999998,31.8735,-7.8927699999999996,-1.1265499999999999,-51.366599999999998
1561.0,167.44200000000001,72.594800000000006,-64.717399999999998,107.131,31.178599999999999,-9.8955599999999997,3.5201899999999999
1562.0,170.88499999999999,57.354199999999999,-81.314099999999996,93.880300000000005,33.7164,-7.0894300000000001,-2.0398999999999998
1563.0,171.815,69.062299999999993,-69.193899999999999,105.53,35.682099999999998,-3.1445400000000001,-7.8441999999999998
1564.0,169.71299999999999,56.2575,-80.037999999999997,88.397999999999996,36.933399999999999,0.98954699999999995,-15.4628
1565.0,168.03200000000001,64.829300000000003,-69.084699999999998,91.7607,37.054499999999997,5.2807899999999997,-24.270399999999999
1566.0,164.25899999999999,53.509,-76.288200000000003,71.616600000000005,35.740400000000001,8.8156499999999998,-33.616900000000001
1567.0,160.87299999999999,70.2286,-54.257100000000001,82.241900000000001,32.543500000000002,11.337,-41.555999999999997
1568.0,157.45400000000001,66.313699999999997,-50.288600000000002,77.447999999999993,28.361000000000001,11.897,-48.082799999999999
1569.0,172.77500000000001,81.501099999999994,-27.9312,108.562,22.4895,17.344000000000001,-62.616
1570.0,163.65899999999999,74.345399999999998,-15.5047,118.315,14.7065,23.8245,-59.091900000000003
1571.0,115.328,91.351500000000001,35.304000000000002,129.84999999999999,13.3751,24.902100000000001,-37.069699999999997
1572.0,95.210599999999999,71.079999999999998,22.090399999999999,96.886700000000005,13.118499999999999,27.989999999999998,-24.954799999999999
1573.0,102.533,16.377600000000001,-34.4846,59.391399999999997,9.8071800000000007,26.0837,-22.7925
1574.0,126.706,7.6395999999999997,-52.7151,52.968699999999998,2.14167,38.063099999999999,-32.970300000000002
1575.0,158.422,28.9788,-38.494599999999998,78.280900000000003,-8.9974299999999996,53.836799999999997,-44.157200000000003
1576.0,173.40899999999999,44.080300000000001,-24.331399999999999,88.8596,-18.160900000000002,67.928899999999999,-42.776200000000003
1577.0,158.672,58.3108,-16.4374,69.191400000000002,-21.5549,66.245999999999995,-36.960500000000003
1578.0,126.401,47.009099999999997,-25.601400000000002,40.452300000000001,-17.472100000000001,48.9191,-31.848600000000001
1579.0,100.179,40.984900000000003,-31.531700000000001,23.235700000000001,-8.3389299999999995,33.017499999999998,-27.508199999999999
1580.0,94.200999999999993,14.443899999999999,-55.554499999999997,-3.9878300000000002,0.58061499999999999,26.943899999999999,-30.252199999999998
1581.0,96.576300000000003,48.389699999999998,-9.9816099999999999,41.545699999999997,1.4390000000000001,27.364000000000001,-36.6053
1582.0,94.055899999999994,82.180999999999997,10.075799999999999,59.472299999999997,-1.76416,23.499500000000001,-32.1614
1583.0,94.476200000000006,92.369900000000001,4.3495400000000002,54.802500000000002,-0.53800300000000001,12.6531,-29.396100000000001
1584.0,98.996300000000005,56.2117,-28.3278,27.144600000000001,0.57906400000000002,3.87141,-37.504600000000003
1585.0,105.199,66.850800000000007,-15.193899999999999,39.887700000000002,-3.9218299999999999,-0.067967399999999997,-43.8733
1586.0,105.95099999999999,56.951300000000003,-23.3276,26.018899999999999,-8.4186999999999994,-0.89037900000000003,-45.063899999999997
1587.0,150.91,63.581600000000002,-59.302100000000003,98.446399999999997,25.051600000000001,-9.8381000000000007,0.41993999999999998
1588.0,150.441,78.667699999999996,-43.162999999999997,113.93300000000001,26.276499999999999,-6.3774699999999998,-4.3286800000000003
1589.0,148.52600000000001,63.563499999999998,-57.2958,96.083600000000004,27.070399999999999,-2.8364500000000001,-8.9942899999999995
1590.0,146.62,76.985299999999995,-42.973399999999998,104.81,27.775500000000001,0.58682999999999996,-15.0541
1591.0,143.91499999999999,67.019800000000004,-50.892800000000001,87.697400000000002,27.763000000000002,4.40388,-22.890899999999998
1592.0,142.536,82.183300000000003,-33.310000000000002,95.743099999999998,26.7789,6.7696300000000003,-31.3004
1593.0,138.57900000000001,64.094399999999993,-44.346899999999998,73.657399999999996,23.358499999999999,9.18262,-38.411099999999998
1594.0,131.52199999999999,75.504999999999995,-20.0319,91.089799999999997,19.1144,8.5803200000000004,-41.319800000000001
1595.0,137.90799999999999,56.994599999999998,-17.7639,95.322900000000004,6.2897999999999996,10.6639,-53.651899999999998
1596.0,113.372,80.892300000000006,20.247800000000002,117.227,1.9318599999999999,23.771599999999999,-36.2637
1597.0,87.972399999999993,22.104500000000002,-29.049800000000001,42.335500000000003,13.059100000000001,21.095700000000001,-24.708200000000001
1598.0,85.3874,-4.6104900000000004,-48.262900000000002,29.5701,13.9117,16.2438,-21.236000000000001
1599.0,99.314700000000002,-18.919499999999999,-63.210500000000003,33.930900000000001,6.8712900000000001,24.3415,-16.8186
1600.0,125.261,11.513,-42.292299999999997,67.621600000000001,-1.0000100000000001,40.024799999999999,-24.6248
1601.0,147.51300000000001,18.507300000000001,-34.207599999999999,77.787800000000004,-11.01,54.533200000000001,-31.921199999999999
1602.0,156.839,39.707700000000003,-11.7378,87.506299999999996,-18.731400000000001,66.140100000000004,-31.790600000000001
1603.0,147.602,38.935099999999998,-15.9129,57.6387,-23.9694,65.689099999999996,-30.186
1604.0,123.255,44.885599999999997,-10.883900000000001,43.5456,-22.572900000000001,53.509399999999999,-26.052499999999998
1605.0,95.705500000000001,12.3771,-49.706400000000002,-2.7073900000000002,-15.1554,35.137500000000003,-23.246099999999998
1606.0,83.977000000000004,12.2279,-61.090699999999998,-16.218699999999998,-6.8709899999999999,21.206600000000002,-22.077000000000002
1607.0,80.890000000000001,-9.3152600000000003,-64.716200000000001,-14.3902,-4.3996300000000002,19.004200000000001,-29.370000000000001
1608.0,79.520799999999994,73.462500000000006,22.053799999999999,68.969399999999993,-4.0685200000000004,20.053899999999999,-29.6387
1609.0,81.191100000000006,81.215999999999994,4.8645500000000004,43.718600000000002,-2.7085400000000002,12.582700000000001,-23.960999999999999
1610.0,84.245999999999995,79.446600000000004,4.6495800000000003,49.809199999999997,-3.8005200000000001,3.67496,-30.3171
1611.0,90.531899999999993,49.664099999999998,-21.869199999999999,26.4117,-7.2241299999999997,-1.93187,-36.6693
1612.0,93.8065,65.8048,-5.9228899999999998,40.748399999999997,-11.9252,-2.9293300000000002,-38.174300000000002
1613.0,135.791,79.055899999999994,-32.059899999999999,111.962,19.059000000000001,-8.9512800000000006,-2.7758600000000002
1614.0,135.08099999999999,62.5169,-47.921999999999997,94.670299999999997,20.304500000000001,-5.8499299999999996,-6.4743300000000001
1615.0,131.97399999999999,77.292699999999996,-31.8626,105.738,20.5274,-2.5861399999999999,-10.0654
1616.0,128.398,63.543799999999997,-44.076799999999999,86.564099999999996,20.552900000000001,0.38933000000000001,-14.4762
1617.0,125.113,75.398700000000005,-30.699999999999999,90.212400000000002,20.412400000000002,3.2878599999999998,-20.9985
1618.0,121.922,58.359900000000003,-43.112200000000001,67.752600000000001,18.8019,5.1008199999999997,-28.2163
1619.0,118.81699999999999,82.194000000000003,-13.019500000000001,86.930400000000006,15.472,6.4783299999999997,-35.281500000000001
1620.0,115.01000000000001,64.3245,-11.3566,89.376000000000005,8.8688500000000001,4.3852200000000003,-39.507599999999996
1621.0,110.13800000000001,99.292299999999997,58.119799999999998,146.24799999999999,-2.5602900000000002,10.1938,-44.593200000000003
1622.0,77.0488,75.463099999999997,35.738100000000003,97.730800000000002,-2.80139,24.633900000000001,-19.4419
1623.0,64.844800000000006,34.082799999999999,-11.710900000000001,51.6721,0.71327799999999997,13.085100000000001,-12.619199999999999
1624.0,81.498500000000007,-12.4435,-56.855200000000004,33.866599999999998,3.0540600000000002,8.2588500000000007,-8.8632100000000005
1625.0,104.69799999999999,28.876899999999999,-15.6318,91.079300000000003,3.7593200000000002,26.406500000000001,-8.3384
1626.0,124.304,10.536799999999999,-31.382300000000001,77.378299999999996,-2.77034,43.408700000000003,-15.797599999999999
1627.0,133.51499999999999,40.5595,4.5314399999999999,103.008,-10.757300000000001,54.1374,-20.321400000000001
1628.0,136.328,30.531300000000002,-4.1312300000000004,77.468599999999995,-16.831499999999998,61.319299999999998,-21.785399999999999
1629.0,133.06899999999999,60.647199999999998,23.4618,85.300299999999993,-22.5913,62.308799999999998,-23.251799999999999
1630.0,121.80500000000001,47.570799999999998,4.8061100000000003,50.236899999999999,-24.808399999999999,56.438400000000001,-22.242799999999999
1631.0,94.573300000000003,61.623800000000003,14.0457,49.034500000000001,-20.716999999999999,39.165999999999997,-20.260100000000001
1632.0,74.489999999999995,23.5823,-37.162300000000002,-7.2427000000000001,-14.0595,21.244199999999999,-16.675000000000001
1633.0,68.356899999999996,15.8194,-33.987400000000001,8.1149000000000004,-11.781700000000001,15.1136,-21.7151
1634.0,68.797899999999998,42.4116,2.2118600000000002,44.982300000000002,-10.119999999999999,16.793299999999999,-24.858899999999998
1635.0,67.974500000000006,100.379,37.263500000000001,68.071100000000001,-6.6489500000000001,10.4947,-19.7424
1636.0,72.465199999999996,59.761400000000002,-5.9386400000000004,31.4876,-6.9443200000000003,2.3624000000000001,-24.708100000000002
1637.0,78.044600000000003,72.530500000000004,10.9391,53.078899999999997,-9.5250699999999995,-3.4613499999999999,-30.599699999999999
1638.0,82.791300000000007,49.213299999999997,-12.3956,31.822500000000002,-12.660500000000001,-4.5578399999999997,-33.088500000000003
1639.0,122.008,69.979900000000001,-30.899999999999999,99.455399999999997,13.9572,-7.9437899999999999,-5.5761700000000003
1640.0,123.265,82.001099999999994,-20.697800000000001,110.20999999999999,14.774699999999999,-5.4153799999999999,-8.3957599999999992
1641.0,120.48999999999999,70.9803,-30.641300000000001,95.843000000000004,15.2219,-2.4137400000000002,-10.5451
1642.0,115.017,79.709900000000005,-19.3141,98.117800000000003,15.4109,0.42777999999999999,-13.521699999999999
1643.0,110.56,74.771500000000003,-22.0212,84.881399999999999,15.027200000000001,2.1123799999999999,-19.001200000000001
1644.0,104.066,84.001000000000005,-5.2985699999999998,89.989900000000006,13.297499999999999,3.9193600000000002,-23.860800000000001
1645.0,94.211699999999993,72.283199999999994,-3.5308199999999998,76.6982,9.6636399999999991,3.4686699999999999,-28.621700000000001
1646.0,95.200100000000006,70.476500000000001,22.217500000000001,106.56100000000001,1.7340100000000001,-2.9317899999999999,-34.9084
1647.0,88.721299999999999,79.734300000000005,55.613700000000001,122.194,-3.2553000000000001,18.2257,-33.834499999999998
1648.0,56.8767,47.492699999999999,23.150300000000001,65.550399999999996,3.1237900000000001,21.183599999999998,-12.9261
1649.0,53.043100000000003,-9.3566699999999994,-33.754199999999997,22.6965,2.1040299999999998,8.6151800000000005,-7.5930999999999997
1650.0,79.178899999999999,-3.4277000000000002,-31.039400000000001,54.119599999999998,1.35103,13.8644,-2.8331900000000001
1651.0,106.839,-1.6104700000000001,-32.488500000000002,69.564099999999996,0.83685699999999996,32.504199999999997,-2.94353
1652.0,121.47,16.241599999999998,-10.5288,89.784999999999997,-4.1284299999999998,46.073399999999999,-8.9723000000000006
1653.0,120.56,17.450900000000001,-5.7054600000000004,78.106800000000007,-9.0017600000000009,52.392200000000003,-12.068300000000001
1654.0,116.256,29.196400000000001,8.6465399999999999,73.194299999999998,-13.8628,55.170400000000001,-13.481400000000001
1655.0,117.592,27.231000000000002,4.8479099999999997,54.706000000000003,-19.913599999999999,57.467300000000002,-16.930299999999999
1656.0,115.849,43.240699999999997,13.733599999999999,50.229799999999997,-24.4255,56.381399999999999,-17.971900000000002
1657.0,93.348699999999994,23.837700000000002,-10.4565,13.2149,-23.141200000000001,41.982900000000001,-17.273399999999999
1658.0,70.186800000000005,24.6175,-19.4681,-5.5875899999999996,-18.7148,23.945499999999999,-14.5031
1659.0,59.341900000000003,0.55000199999999999,-33.170499999999997,-8.8223699999999994,-17.671399999999998,16.4176,-17.0014
1660.0,60.643099999999997,57.675800000000002,30.155799999999999,61.5062,-17.7254,17.343,-17.844100000000001
1661.0,58.007800000000003,80.320899999999995,28.793800000000001,50.0657,-13.502599999999999,9.2070500000000006,-13.5669
1662.0,61.851399999999998,79.215500000000006,24.116900000000001,54.023800000000001,-10.643000000000001,0.33716200000000002,-20.024899999999999
1663.0,69.527500000000003,51.399000000000001,-2.6965300000000001,35.738799999999998,-11.830299999999999,-4.57057,-25.994299999999999
1664.0,71.332899999999995,58.851900000000001,5.9314299999999998,46.819899999999997,-13.0388,-5.1085200000000004,-27.0275
1665.0,110.735,84.471699999999998,-8.5187100000000004,109.819,10.5184,-6.9864800000000002,-6.7610299999999999
1666.0,113.20699999999999,66.3904,-29.773099999999999,90.119399999999999,11.3284,-4.7355299999999998,-9.5078099999999992
1667.0,112.295,82.807100000000005,-14.567500000000001,102.929,11.484999999999999,-2.0674800000000002,-10.8879
1668.0,107.815,68.798900000000003,-27.157399999999999,82.436300000000003,11.479799999999999,0.50835600000000003,-13.237299999999999
1669.0,100.20699999999999,81.375399999999999,-9.5511999999999997,87.3249,11.091699999999999,1.55535,-16.544799999999999
1670.0,90.701099999999997,63.223500000000001,-18.288900000000002,64.284300000000002,9.2521199999999997,3.1877300000000002,-20.0627
1671.0,76.482500000000002,85.991299999999995,25.404299999999999,95.666499999999999,5.1066099999999999,-2.0000900000000001,-21.669899999999998
1672.0,73.618700000000004,73.220100000000002,42.938699999999997,108.741,4.98637,-1.06243,-26.378
1673.0,66.418300000000002,96.157700000000006,75.658500000000004,122.947,3.9855900000000002,21.9038,-20.309000000000001
1674.0,45.669199999999996,14.479900000000001,-5.0506500000000001,36.469000000000001,2.19869,13.1258,-9.3074399999999997
1675.0,54.558500000000002,15.5898,2.15381,60.546500000000002,0.40432299999999999,6.6877300000000002,-3.4778799999999999
1676.0,81.597800000000007,15.4002,5.35093,83.199299999999994,-1.5732600000000001,20.546900000000001,1.31968
1677.0,109.94799999999999,29.074000000000002,13.5105,108.40600000000001,-1.6173,37.877099999999999,1.4237899999999999
1678.0,117.167,25.720400000000001,9.5847899999999999,100.214,-4.27318,46.964500000000001,-3.8605100000000001
1679.0,107.68000000000001,32.012500000000003,19.305800000000001,88.430300000000003,-8.1151199999999992,49.070099999999996,-6.12608
1680.0,100.501,31.109400000000001,20.466000000000001,71.016199999999998,-11.626099999999999,49.514400000000002,-8.3543199999999995
1681.0,103.741,46.606999999999999,35.283099999999997,75.037999999999997,-16.773700000000002,52.440800000000003,-11.6835
1682.0,105.955,50.138800000000003,32.152099999999997,60.096699999999998,-21.257300000000001,54.043399999999998,-12.999599999999999
1683.0,88.651300000000006,60.619199999999999,36.545000000000002,53.0702,-21.808700000000002,42.472799999999999,-13.7302
1684.0,67.072999999999993,34.789400000000001,2.6165600000000002,6.5648999999999997,-20.121600000000001,25.530200000000001,-11.620799999999999
1685.0,57.247,22.985900000000001,4.8411200000000001,16.3782,-21.4499,19.055199999999999,-13.5969
1686.0,59.290999999999997,66.803200000000004,53.855499999999999,71.427499999999995,-22.8005,19.778500000000001,-13.3337
1687.0,54.661499999999997,107.761,66.967600000000004,74.041799999999995,-18.799900000000001,9.3478899999999996,-8.9417299999999997
1688.0,53.082799999999999,62.995899999999999,19.572099999999999,40.578000000000003,-14.369,-0.88700699999999999,-16.138000000000002
1689.0,60.432299999999998,69.108800000000002,24.951699999999999,57.316299999999998,-14.357699999999999,-5.3461299999999996,-21.4453
1690.0,62.385399999999997,54.158900000000003,9.2554999999999996,44.694099999999999,-14.927099999999999,-5.2104900000000001,-22.069199999999999
1691.0,104.396,71.002099999999999,-19.010400000000001,91.962900000000005,7.8093399999999997,-5.6931399999999996,-7.9595000000000002
1692.0,105.068,88.603399999999993,-4.2046200000000002,106.02200000000001,7.8140599999999996,-3.58297,-9.7355999999999998
1693.0,105.455,71.370999999999995,-23.949000000000002,85.144999999999996,7.6675700000000004,-1.6601900000000001,-10.763
1694.0,103.571,86.306200000000004,-9.8571600000000004,93.903999999999996,7.9081999999999999,0.43282799999999999,-12.947900000000001
1695.0,96.823899999999995,73.526499999999999,-18.702000000000002,73.850499999999997,6.7275700000000001,1.5277499999999999,-15.2315
1696.0,83.9893,95.240200000000002,13.7303,89.653700000000001,4.1438100000000002,2.24729,-15.998100000000001
1697.0,71.794700000000006,65.128399999999999,8.3636700000000008,75.591300000000004,4.3166900000000004,-8.3534100000000002,-17.9221
1698.0,59.019599999999997,86.399299999999997,55.739400000000003,108.044,1.94415,7.0318899999999998,-20.424900000000001
1699.0,44.468600000000002,28.107700000000001,7.8089899999999997,43.485700000000001,-0.85982199999999998,15.6822,-9.6051000000000002
1700.0,41.390300000000003,6.9216300000000004,-8.1821699999999993,35.481000000000002,-2.0874199999999998,7.5045000000000002,-4.3209499999999998
1701.0,60.858199999999997,-18.732600000000001,-24.8459,36.842100000000002,-0.92751899999999998,8.8370899999999999,0.63195800000000002
1702.0,89.286299999999997,14.0436,17.537700000000001,92.113200000000006,-1.48095,26.451499999999999,3.2727400000000002
1703.0,110.084,-2.5992299999999999,-4.4621000000000004,79.262200000000007,-2.5013000000000001,41.651299999999999,3.5539700000000001
1704.0,108.52200000000001,22.678599999999999,18.563700000000001,93.765299999999996,-4.22281,46.045400000000001,-0.21565300000000001
1705.0,96.097300000000004,9.1469900000000006,5.9766700000000004,60.288899999999998,-6.4584900000000003,45.789400000000001,-3.25902
1706.0,90.057500000000005,26.482099999999999,22.749199999999998,63.488599999999998,-9.0720200000000002,45.597700000000003,-5.9000700000000004
1707.0,92.063199999999995,14.6797,10.574299999999999,41.866199999999999,-12.5213,48.120199999999997,-7.98034
1708.0,94.286699999999996,37.1066,27.6235,47.383299999999998,-16.9803,49.767000000000003,-10.0288
1709.0,81.093199999999996,21.068100000000001,5.0847199999999999,15.214600000000001,-18.555700000000002,40.608499999999999,-11.544700000000001
1710.0,62.970100000000002,27.721499999999999,2.7061199999999999,1.21055,-18.040600000000001,25.544899999999998,-11.042299999999999
1711.0,54.842599999999997,4.2912400000000002,-5.9502699999999997,-3.0146099999999998,-19.005099999999999,19.875,-14.7834
1712.0,57.113399999999999,80.967799999999997,79.339200000000005,82.387900000000002,-20.302099999999999,19.979199999999999,-16.542200000000001
1713.0,53.173900000000003,91.257599999999996,63.677900000000001,57.544400000000003,-20.0425,9.3070199999999996,-11.4756
1714.0,48.914499999999997,79.330600000000004,46.386099999999999,57.402700000000003,-17.802900000000001,-1.95597,-13.982699999999999
1715.0,52.526699999999998,51.139200000000002,16.9923,42.319899999999997,-15.891500000000001,-6.1784800000000004,-17.741399999999999
1716.0,56.114199999999997,60.051200000000001,21.9406,52.987200000000001,-15.504799999999999,-5.1673400000000003,-19.273499999999999
1717.0,102.078,84.526200000000003,-6.2777799999999999,101.05500000000001,4.56867,-4.6201100000000004,-9.5540900000000004
1718.0,100.401,73.114800000000002,-19.097000000000001,84.694400000000002,4.4212199999999999,-2.2708400000000002,-10.0223
1719.0,100.21299999999999,83.427499999999995,-11.0191,90.725999999999999,4.4146999999999998,-0.77699700000000005,-10.322800000000001
1720.0,99.902600000000007,77.539100000000005,-20.034600000000001,77.797499999999999,4.3275100000000002,-0.26350000000000001,-11.228400000000001
1721.0,95.503299999999996,79.702100000000002,-15.549200000000001,73.257400000000004,5.4045199999999998,2.77136,-13.035
1722.0,82.873099999999994,68.890000000000001,-14.471500000000001,60.949800000000003,6.0091299999999999,1.47898,-11.587
1723.0,67.552800000000005,83.887200000000007,26.2911,88.913700000000006,4.9656399999999996,-12.234299999999999,-11.666
1724.0,46.104599999999998,83.632300000000001,49.841799999999999,92.162300000000002,-1.5727100000000001,9.3558400000000006,-10.8447
1725.0,37.380000000000003,58.768099999999997,39.597299999999997,74.421199999999999,-2.52386,11.7529,-4.1288900000000002
1726.0,41.736899999999999,7.3347899999999999,-2.52257,41.681800000000003,-0.50650099999999998,6.4533899999999997,-0.519123
1727.0,67.805000000000007,28.310400000000001,29.973800000000001,92.862200000000001,0.62792800000000004,12.6934,4.1090600000000004
1728.0,96.869799999999998,21.320900000000002,33.063299999999998,106.962,-0.82108300000000001,30.864100000000001,4.3706699999999996
1729.0,104.955,36.379100000000001,45.957099999999997,115.788,-2.4892699999999999,42.025199999999998,4.5353300000000001
1730.0,97.949299999999994,26.0746,31.257999999999999,90.434399999999997,-3.0880100000000001,43.645600000000002,2.2504599999999999
1731.0,87.390900000000002,34.609000000000002,35.974400000000003,81.472499999999997,-4.7051499999999997,42.5304,-1.84104
1732.0,81.826899999999995,28.2044,26.9436,62.449199999999998,-6.6722799999999998,42.000700000000002,-4.1802700000000002
1733.0,80.877300000000005,46.970300000000002,44.192799999999998,70.282200000000003,-8.7352699999999999,43.154800000000002,-6.0364199999999997
1734.0,80.251400000000004,41.047600000000003,34.5105,49.970100000000002,-12.2613,43.044600000000003,-9.1303599999999996
1735.0,71.224000000000004,56.944499999999998,43.442599999999999,51.194099999999999,-14.519,36.059800000000003,-11.573
1736.0,57.8934,32.8095,9.9742899999999999,10.329599999999999,-16.032399999999999,23.047899999999998,-12.5624
1737.0,51.011899999999997,25.592700000000001,12.437799999999999,12.188000000000001,-16.637699999999999,15.7066,-16.884699999999999
1738.0,54.788800000000002,42.564100000000003,43.104799999999997,42.745800000000003,-17.932200000000002,14.763999999999999,-21.470600000000001
1739.0,50.712400000000002,93.943899999999999,79.156700000000001,73.132400000000004,-20.923999999999999,6.8575499999999998,-16.053899999999999
1740.0,49.142000000000003,69.3947,43.582700000000003,47.038800000000002,-20.819099999999999,-3.8168799999999998,-12.6744
1741.0,50.570399999999999,65.799599999999998,38.755400000000002,59.278599999999997,-18.3857,-7.5595800000000004,-16.065200000000001
1742.0,55.079099999999997,54.040599999999998,20.644500000000001,51.472999999999999,-17.2317,-6.6813700000000003,-18.007899999999999
1743.0,100.24299999999999,73.563100000000006,-18.7318,84.533900000000003,2.0477400000000001,-3.41317,-10.7997
1744.0,100.355,90.680899999999994,-4.3091200000000001,97.279899999999998,1.5682499999999999,-1.33423,-11.0281
1745.0,99.161100000000005,75.357900000000001,-21.599,76.530199999999994,0.95857999999999999,0.376278,-10.2316
1746.0,98.753399999999999,88.057400000000001,-12.581899999999999,80.999499999999998,0.86341000000000001,-0.55130599999999996,-9.6836199999999995
1747.0,95.111999999999995,76.892600000000002,-22.9116,63.048000000000002,0.89234500000000005,3.8072499999999998,-8.7484800000000007
1748.0,84.909400000000005,90.483599999999996,1.4201299999999999,78.710700000000003,1.6984600000000001,0.75937399999999999,-7.6779299999999999
1749.0,66.395099999999999,70.035799999999995,8.0672800000000002,68.873699999999999,2.6724199999999998,-13.7141,-4.2117399999999998
1750.0,36.170999999999999,80.825900000000004,49.391599999999997,84.9619,0.33369700000000002,7.4766500000000002,1.30097
1751.0,38.195599999999999,26.848800000000001,15.6952,50.319200000000002,-0.022153599999999999,12.735799999999999,3.42808
1752.0,48.008400000000002,1.7721,-1.4610799999999999,44.9694,0.37064999999999998,8.5772099999999991,4.7456699999999996
1753.0,73.034999999999997,-6.9034000000000004,-1.5688599999999999,62.304200000000002,1.9417500000000001,15.5017,7.1398000000000001
1754.0,97.990899999999996,9.6896400000000007,26.453299999999999,96.581599999999995,0.85032700000000006,32.262799999999999,5.8537600000000003
1755.0,98.630200000000002,4.8273099999999998,23.285499999999999,79.674099999999996,-0.99092599999999997,41.188099999999999,4.9790799999999997
1756.0,89.288200000000003,15.2159,26.3504,72.713700000000003,-0.89495499999999995,41.369199999999999,3.9147599999999998
1757.0,79.872600000000006,12.216100000000001,16.556100000000001,55.252200000000002,-2.4982500000000001,39.4816,-0.33752500000000002
1758.0,72.819500000000005,20.186599999999999,20.110099999999999,50.026899999999998,-4.2120600000000001,37.957000000000001,-3.3925999999999998
1759.0,69.367599999999996,11.316000000000001,6.3671199999999999,28.914899999999999,-5.9865199999999996,37.175800000000002,-6.7557799999999997
1760.0,65.651700000000005,22.206099999999999,10.9427,27.954499999999999,-8.6507900000000006,34.238900000000001,-10.7095
1761.0,60.838000000000001,11.2828,-8.3251000000000008,5.1601699999999999,-11.781599999999999,28.446899999999999,-13.604699999999999
1762.0,53.416800000000002,20.762799999999999,-6.8753299999999999,2.8818999999999999,-14.247299999999999,17.5869,-15.568199999999999
1763.0,50.079700000000003,-1.0671999999999999,-26.074100000000001,-21.257899999999999,-15.0335,6.9844900000000001,-19.625699999999998
1764.0,56.284599999999998,10.0281,7.3403999999999998,15.601800000000001,-18.652899999999999,6.7788899999999996,-25.383900000000001
1765.0,52.151000000000003,63.163499999999999,57.764099999999999,58.748600000000003,-22.838799999999999,3.3274300000000001,-19.121300000000002
1766.0,51.141599999999997,83.935400000000001,62.142600000000002,61.507399999999997,-22.524899999999999,-6.4044600000000003,-12.6639
1767.0,51.400599999999997,46.555700000000002,24.9709,43.506500000000003,-20.3887,-8.7155299999999993,-15.8918
1768.0,55.556100000000001,52.462600000000002,23.4786,54.6982,-19.0198,-8.3225700000000007,-17.1616
1769.0,100.20099999999999,87.668899999999994,-7.9758800000000001,91.727099999999993,-0.472914,-1.8178399999999999,-12.6105
1770.0,102.95699999999999,75.398200000000003,-24.724599999999999,76.5749,-1.5071600000000001,-0.600159,-12.2258
1771.0,102.416,86.260000000000005,-16.445799999999998,82.013499999999993,-2.4784600000000001,0.98926400000000003,-10.604699999999999
1772.0,99.726100000000002,81.406400000000005,-22.753699999999998,68.833399999999997,-2.7359200000000001,0.68781999999999999,-8.6338699999999999
1773.0,98.077799999999996,83.997,-21.199100000000001,65.219700000000003,-4.7648900000000003,2.38408,-5.49533
1774.0,90.968800000000002,70.338499999999996,-27.975000000000001,50.9283,-6.2423999999999999,0.20701600000000001,-2.84504
1775.0,70.693600000000004,88.858999999999995,18.487400000000001,82.988600000000005,-1.4395800000000001,-10.7057,4.9675700000000003
1776.0,49.530900000000003,83.411600000000007,48.225999999999999,94.931700000000006,-1.2654799999999999,-0.36682300000000001,14.966900000000001
1777.0,52.0002,80.853700000000003,70.721699999999998,107.251,-5.5435100000000004,15.749599999999999,16.337599999999998
1778.0,56.213500000000003,17.157,18.785900000000002,65.914599999999993,-1.3515699999999999,13.1089,10.620799999999999
1779.0,72.781599999999997,32.332700000000003,39.519799999999996,101.34699999999999,3.2850299999999999,15.343299999999999,8.94299
1780.0,90.931200000000004,28.2681,48.3765,109.119,2.1280700000000001,30.5581,6.7860399999999998
1781.0,93.613600000000005,40.0456,62.478099999999998,110.238,0.58935099999999996,40.240600000000001,4.0388900000000003
1782.0,81.683800000000005,32.219000000000001,44.095599999999997,82.833100000000002,0.77672099999999999,38.828000000000003,3.9101699999999999
1783.0,69.694500000000005,37.525199999999998,40.786499999999997,73.671199999999999,-0.36268099999999998,34.916400000000003,0.23979300000000001
1784.0,60.7485,29.4725,26.526599999999998,52.935400000000001,-2.4343300000000001,31.671600000000002,-3.4169900000000002
1785.0,57.514099999999999,44.523499999999999,35.175800000000002,57.162399999999998,-5.5376500000000002,29.610900000000001,-8.5674100000000006
1786.0,56.488300000000002,30.9116,11.7494,32.502800000000001,-6.9740099999999998,26.0762,-14.1999
1787.0,56.513199999999998,38.590499999999999,11.576599999999999,30.242100000000001,-8.38809,20.9892,-19.036000000000001
1788.0,56.3964,21.755400000000002,-11.6815,2.8136199999999998,-11.507199999999999,11.584899999999999,-22.636299999999999
1789.0,55.5002,9.0612200000000005,-23.0076,-8.4125300000000003,-16.733599999999999,0.214945,-22.1112
1790.0,59.641100000000002,-6.2046099999999997,-12.334,9.2787100000000002,-24.020099999999999,1.0123,-21.991499999999998
1791.0,54.139400000000002,73.838499999999996,70.051000000000002,76.418999999999997,-25.6495,0.153724,-17.574000000000002
1792.0,53.360100000000003,69.526499999999999,52.038400000000003,51.855699999999999,-23.998200000000001,-8.7100500000000007,-13.9392
1793.0,53.727200000000003,57.971600000000002,40.312899999999999,59.9407,-22.2471,-10.137,-15.738
1794.0,55.979999999999997,51.016199999999998,26.222799999999999,57.471600000000002,-20.721800000000002,-9.56663,-15.8596
1795.0,102.96899999999999,78.712599999999995,-21.871099999999998,76.005700000000004,-3.8004899999999999,-0.40696100000000002,-15.347
1796.0,107.05,89.867500000000007,-16.166799999999999,85.665599999999998,-5.2871699999999997,0.36897099999999999,-13.6629
1797.0,106.29600000000001,81.017099999999999,-27.120000000000001,72.233900000000006,-6.3082399999999996,1.1458299999999999,-10.872400000000001
1798.0,103.691,85.027500000000003,-23.6113,70.0441,-7.5573899999999998,1.3691599999999999,-7.6536900000000001
1799.0,100.88500000000001,84.343999999999994,-23.8446,64.800600000000003,-7.75359,1.0087900000000001,-2.7103700000000002
1800.0,94.240799999999993,92.5578,-9.9987700000000004,70.236099999999993,-6.1205299999999996,0.2656,3.7355999999999998
1801.0,83.4101,71.523499999999999,-7.6109499999999999,67.484300000000005,-3.8924699999999999,-3.6274000000000002,17.448699999999999
1802.0,79.712400000000002,78.338499999999996,37.7836,103.02,-2.8655400000000002,-9.4152100000000001,30.597899999999999
1803.0,73.098799999999997,65.674800000000005,46.446599999999997,86.4846,-3.2350099999999999,22.5092,29.377700000000001
1804.0,58.419400000000003,28.889700000000001,23.573899999999998,69.307199999999995,2.89615,16.361799999999999,15.3607
1805.0,65.521299999999997,-21.197700000000001,-19.315899999999999,37.883899999999997,6.6900300000000001,11.853899999999999,10.8665
1806.0,80.474400000000003,20.4968,36.7149,90.677599999999998,5.7609000000000004,26.996300000000002,6.8311500000000001
1807.0,87.3596,0.98427299999999995,19.272600000000001,64.780900000000003,3.02427,38.078299999999999,2.3574999999999999
1808.0,73.061599999999999,22.523,28.511800000000001,64.587400000000002,3.0279799999999999,35.346699999999998,1.7288699999999999
1809.0,57.014499999999998,4.1646299999999998,0.89880000000000004,30.627300000000002,2.3709199999999999,28.459800000000001,-1.47661
1810.0,47.186300000000003,18.288799999999998,5.7792300000000001,30.918800000000001,-0.083646100000000001,23.4194,-5.97553
1811.0,47.966099999999997,0.83641699999999997,-13.892799999999999,12.4704,-5.3973199999999997,21.127700000000001,-10.809900000000001
1812.0,52.037500000000001,12.740399999999999,-6.1101799999999997,18.939900000000002,-13.399699999999999,20.250399999999999,-11.949400000000001
1813.0,55.760199999999998,-6.52522,-31.879999999999999,-8.5525699999999993,-20.546099999999999,17.087700000000002,-11.1241
1814.0,59.722200000000001,6.7535499999999997,-23.659500000000001,-1.40608,-27.3369,8.8282000000000007,-10.764799999999999
1815.0,63.279800000000002,-6.0875500000000002,-33.093400000000003,-7.5395300000000001,-31.569299999999998,1.7793399999999999,-10.2104
1816.0,62.076900000000002,40.938600000000001,32.994199999999999,56.944200000000002,-30.967099999999999,1.1575899999999999,-13.2438
1817.0,54.962699999999998,61.081899999999997,54.059199999999997,60.207799999999999,-27.3597,-2.7743699999999998,-15.364599999999999
1818.0,55.642800000000001,69.859899999999996,57.350200000000001,63.126399999999997,-25.356100000000001,-10.1975,-15.681800000000001
1819.0,56.677399999999999,39.179699999999997,24.913499999999999,46.682899999999997,-23.776,-12.1945,-15.312799999999999
1820.0,58.703400000000002,46.403300000000002,25.674299999999999,57.796199999999999,-22.896899999999999,-11.0459,-15.401199999999999
1821.0,108.52800000000001,89.591300000000004,-16.888400000000001,81.413300000000007,-7.0588499999999996,0.71481799999999995,-19.090800000000002
1822.0,112.592,76.971100000000007,-35.460099999999997,67.096100000000007,-9.2842099999999999,1.1709099999999999,-16.1891
1823.0,112.901,88.4846,-26.058499999999999,77.502200000000002,-11.276400000000001,0.71891000000000005,-11.2684
1824.0,108.93899999999999,83.648700000000005,-28.8919,70.207899999999995,-12.1561,1.0136700000000001,-5.4139299999999997
1825.0,103.126,83.201899999999995,-23.861799999999999,68.724800000000002,-12.983599999999999,0.34655000000000002,1.49095
1826.0,100.40000000000001,76.511899999999997,-26.210699999999999,57.015300000000003,-15.9017,-1.05515,11.386200000000001
1827.0,100.726,88.890500000000003,-0.94067500000000004,85.576999999999998,-14.1815,0.65259400000000001,24.2087
1828.0,101.54600000000001,91.374899999999997,35.221800000000002,114.636,2.6154299999999999,-8.3367199999999997,41.158700000000003
1829.0,85.594099999999997,111.374,72.2667,113.51000000000001,9.2160600000000006,25.267600000000002,34.344700000000003
1830.0,52.959499999999998,40.356200000000001,17.086300000000001,60.391199999999998,7.1246099999999997,13.788600000000001,14.9772
1831.0,55.898899999999998,26.2559,12.6372,66.763000000000005,7.0093500000000004,7.3056599999999996,12.1
1832.0,69.866699999999994,43.621699999999997,43.0122,99.121899999999997,7.6717899999999997,21.899799999999999,7.1067400000000003
1833.0,76.268699999999995,38.895299999999999,42.897399999999998,91.397000000000006,5.2509699999999997,32.513500000000001,0.40693400000000002
1834.0,62.004600000000003,44.734900000000003,34.513500000000001,75.123900000000006,2.8779400000000002,28.6737,-2.2062200000000001
1835.0,46.424399999999999,32.284300000000002,10.412000000000001,47.773699999999998,1.2607900000000001,18.670200000000001,-3.984
1836.0,40.4587,29.2287,-0.368894,29.547699999999999,-1.88344,13.870100000000001,-7.3837400000000004
1837.0,43.451000000000001,30.8063,14.7037,48.636499999999998,-7.1915699999999996,13.570399999999999,-10.2639
1838.0,53.9343,72.702299999999994,65.505499999999998,92.386399999999995,-19.827300000000001,17.8828,-7.9423300000000001
1839.0,64.515799999999999,98.470100000000002,81.203199999999995,98.788200000000003,-29.503799999999998,19.6404,-5.4737099999999996
1840.0,64.777500000000003,99.655199999999994,80.028000000000006,98.766599999999997,-32.585799999999999,12.9267,-6.8495100000000004
1841.0,65.660600000000002,93.017499999999998,75.674099999999996,91.487200000000001,-34.102200000000003,8.3638100000000009,-10.5829
1842.0,59.420000000000002,84.720799999999997,73.993499999999997,83.967600000000004,-29.5883,4.6596099999999998,-15.6167
1843.0,56.468899999999998,76.706400000000002,67.506399999999999,71.049199999999999,-26.898299999999999,-4.3987699999999998,-17.2775
1844.0,57.479799999999997,52.183500000000002,44.0379,56.5426,-25.858899999999998,-11.454499999999999,-16.159600000000001
1845.0,59.0306,48.442799999999998,38.769599999999997,62.374200000000002,-24.597100000000001,-14.013199999999999,-14.8102
1846.0,60.944699999999997,46.506399999999999,29.361000000000001,63.597499999999997,-24.415900000000001,-11.8979,-14.399699999999999
1847.0,115.717,76.849699999999999,-35.250700000000002,63.792700000000004,-11.0359,1.02484,-24.143000000000001
1848.0,118.467,93.506299999999996,-23.069800000000001,81.253600000000006,-14.6105,0.69117399999999996,-18.981300000000001
1849.0,119.294,77.041200000000003,-40.5122,68.857500000000002,-16.612300000000001,-0.16267200000000001,-12.6412
1850.0,114.771,87.149299999999997,-25.954499999999999,80.643000000000001,-18.659500000000001,-0.61165999999999998,-3.0396399999999999
1851.0,105.002,77.429599999999994,-19.632999999999999,80.237399999999994,-19.4604,-0.50832699999999997,7.8957699999999997
1852.0,95.888199999999998,95.416399999999996,10.0525,88.667199999999994,-15.9657,4.0457299999999998,23.268799999999999
1853.0,93.910799999999995,60.830500000000001,-24.590499999999999,48.093200000000003,-5.4821099999999996,7.5425399999999998,27.0029
1854.0,107.768,82.866200000000006,12.2906,86.984399999999994,13.4482,-4.0470600000000001,43.717700000000001
1855.0,75.895600000000002,53.626199999999997,-0.60919199999999996,39.124200000000002,11.905200000000001,17.018000000000001,26.462800000000001
1856.0,51.941600000000001,20.5792,-17.277000000000001,27.284800000000001,4.4659899999999997,9.5803799999999999,14.500999999999999
1857.0,52.625700000000002,-21.9664,-51.243000000000002,1.94112,4.57925,5.3887799999999997,12.790800000000001
1858.0,62.964399999999998,20.0854,-8.6057900000000007,54.2483,6.6033499999999998,15.468299999999999,6.9626799999999998
1859.0,65.363699999999994,0.0050218700000000003,-22.819500000000001,37.152700000000003,4.1774300000000002,22.030799999999999,-2.25163
1860.0,56.227400000000003,14.936999999999999,-13.074999999999999,36.128500000000003,-0.46539000000000003,20.465,-5.0679400000000001
1861.0,45.030900000000003,-10.423400000000001,-43.759500000000003,-2.5973999999999999,-1.09592,12.829599999999999,-5.6847899999999996
1862.0,39.248800000000003,1.8116300000000001,-31.5152,0.700345,-5.2675900000000002,8.9100400000000004,-6.93269
1863.0,42.505699999999997,-9.0130300000000005,-21.839400000000001,15.5715,-9.1168499999999995,9.3299800000000008,-8.4062199999999994
1864.0,49.967399999999998,85.040400000000005,81.268500000000003,105.044,-12.8912,17.838899999999999,-13.5853
1865.0,58.728299999999997,86.228700000000003,71.518799999999999,75.860600000000005,-16.765599999999999,21.637599999999999,-18.527699999999999
1866.0,58.812199999999997,93.190100000000001,79.437799999999996,85.447199999999995,-18.333400000000001,15.394299999999999,-23.072199999999999
1867.0,64.440600000000003,78.311599999999999,65.748900000000006,67.656300000000002,-24.043099999999999,8.9683399999999995,-26.074100000000001
1868.0,69.621700000000004,83.129599999999996,69.746899999999997,74.671400000000006,-29.734300000000001,1.6274299999999999,-26.136900000000001
1869.0,76.356399999999994,56.336300000000001,39.9696,54.158499999999997,-34.361199999999997,-8.5673999999999992,-24.705300000000001
1870.0,66.503200000000007,55.386299999999999,42.5518,66.096299999999999,-27.919899999999998,-15.125500000000001,-18.082100000000001
1871.0,64.346100000000007,30.034600000000001,22.043500000000002,50.290199999999999,-25.845500000000001,-16.424800000000001,-15.177899999999999
1872.0,62.744799999999998,38.051699999999997,23.7087,60.479900000000001,-24.995100000000001,-12.9267,-13.3032
1873.0,123.184,90.955699999999993,-26.111899999999999,72.757300000000001,-15.6791,0.56551499999999999,-29.042100000000001
1874.0,126.521,74.000399999999999,-45.777200000000001,62.906199999999998,-20.740400000000001,-1.76112,-22.8536
1875.0,124.515,88.586799999999997,-27.083400000000001,86.741900000000001,-23.897600000000001,-2.8666999999999998,-14.1004
1876.0,115.69199999999999,77.713899999999995,-23.8627,87.216399999999993,-25.679500000000001,-3.0598299999999998,-1.2645999999999999
1877.0,93.337599999999995,84.578900000000004,9.9275099999999998,99.792000000000002,-23.150200000000002,-1.85822,7.1599500000000003
1878.0,65.961299999999994,91.352199999999996,36.215000000000003,88.357100000000003,-13.923999999999999,11.2033,13.022600000000001
1879.0,52.703400000000002,91.328800000000001,44.498399999999997,79.154499999999999,-8.7865300000000008,7.8930699999999998,13.999599999999999
1880.0,99.337400000000002,58.424100000000003,10.7713,63.202199999999998,-4.8429099999999998,-5.8251999999999997,48.902700000000003
1881.0,73.298299999999998,82.976799999999997,31.0748,72.482799999999997,-8.8587600000000002,12.924799999999999,28.146999999999998
1882.0,60.545000000000002,41.020000000000003,-5.0353599999999998,43.897399999999998,-4.9112200000000001,7.9685499999999996,19.5017
1883.0,52.471699999999998,39.384399999999999,-0.53977299999999995,52.5152,-0.34328700000000001,5.5799799999999999,11.089499999999999
1884.0,62.755600000000001,36.459099999999999,-11.4892,53.741100000000003,1.71255,10.811,7.1293800000000003
1885.0,62.562399999999997,32.968299999999999,-6.3279899999999998,59.954900000000002,0.67599500000000001,13.8283,-1.4217599999999999
1886.0,55.178600000000003,34.502899999999997,3.87046,58.1492,-5.52182,14.839,-4.8572800000000003
1887.0,48.864400000000003,41.030299999999997,10.189399999999999,54.970399999999998,-12.1831,11.0543,-0.38508700000000001
1888.0,46.0535,44.267000000000003,18.2288,54.442300000000003,-16.468299999999999,9.2472999999999992,1.1976899999999999
1889.0,41.524799999999999,83.324399999999997,71.582800000000006,107.059,-12.397399999999999,9.0853400000000004,-3.4490099999999999
1890.0,45.266800000000003,113.492,101.11199999999999,123.48399999999999,-10.795500000000001,14.8062,-14.8881
1891.0,53.850299999999997,117.857,97.951700000000002,109.867,-14.745200000000001,14.1837,-21.1585
1892.0,56.134099999999997,98.903499999999994,80.264499999999998,95.188400000000001,-19.458600000000001,8.2114600000000006,-22.515699999999999
1893.0,65.332300000000004,91.314400000000006,73.238200000000006,87.773200000000003,-25.9983,1.4731300000000001,-25.552399999999999
1894.0,80.886700000000005,69.289900000000003,47.969799999999999,72.426500000000004,-33.878500000000003,-8.7024799999999995,-27.934000000000001
1895.0,104.105,48.9069,26.977799999999998,63.866199999999999,-45.317900000000002,-18.683599999999998,-29.4206
1896.0,99.785200000000003,31.815000000000001,12.7576,57.024299999999997,-41.927500000000002,-21.925699999999999,-24.235099999999999
1897.0,89.746499999999997,36.069400000000002,23.4068,64.730199999999996,-38.117199999999997,-19.761800000000001,-19.827400000000001
1898.0,69.102199999999996,39.621600000000001,26.092400000000001,66.224900000000005,-28.133199999999999,-14.180300000000001,-13.4998
1899.0,126.197,77.928399999999996,-38.441200000000002,59.418599999999998,-18.972799999999999,-1.2574700000000001,-32.200299999999999
1900.0,124.79000000000001,87.828000000000003,-25.017399999999999,83.525999999999996,-21.642199999999999,-3.8904800000000002,-24.864999999999998
1901.0,125.517,80.665599999999998,-26.3369,89.753600000000006,-28.215800000000002,-7.0861599999999996,-15.393000000000001
1902.0,117.41,79.510900000000007,-17.5227,95.906000000000006,-28.743600000000001,1.35534,-2.93886
1903.0,91.005600000000001,103.718,14.174899999999999,94.089799999999997,-15.8459,0.85410600000000003,9.6264099999999999
1904.0,76.668499999999995,88.383499999999998,12.244400000000001,60.093200000000003,-6.5475199999999996,15.8569,13.56
1905.0,52.718499999999999,38.555799999999998,-12.556800000000001,18.402899999999999,-7.31053,-3.95614,13.944900000000001
1906.0,92.811899999999994,66.6708,23.361499999999999,74.906300000000002,-8.4531799999999997,-15.1966,42.452599999999997
1907.0,68.864599999999996,73.022300000000001,27.383400000000002,72.2363,-14.0709,17.097300000000001,20.196899999999999
1908.0,62.582700000000003,40.3309,-1.30776,47.566000000000003,-9.8750699999999991,9.8913600000000006,20.356300000000001
1909.0,53.639099999999999,0.75289600000000001,-33.287999999999997,16.239000000000001,-10.3307,6.9507399999999997,12.7315
1910.0,58.964399999999998,-7.5592300000000003,-37.253900000000002,18.090499999999999,-11.444100000000001,11.285600000000001,11.553599999999999
1911.0,60.394799999999996,-5.8722000000000003,-30.823899999999998,26.141999999999999,-10.3878,15.9138,6.2649400000000002
1912.0,57.0227,7.5571000000000002,-12.2225,40.651299999999999,-11.9046,15.066700000000001,1.2063999999999999
1913.0,53.1479,59.088099999999997,37.905900000000003,83.565399999999997,-14.9907,13.7258,2.5191499999999998
1914.0,45.439900000000002,81.742900000000006,58.609200000000001,91.453400000000002,-13.7483,14.6457,-0.21530099999999999
1915.0,35.786700000000003,66.662700000000001,46.470100000000002,75.758099999999999,-7.8841200000000002,9.5065600000000003,-7.0465400000000002
1916.0,43.749600000000001,72.143600000000006,46.965699999999998,74.050200000000004,-11.2142,6.2121599999999999,-15.6569
1917.0,54.827300000000001,58.232300000000002,26.877199999999998,57.640300000000003,-17.423500000000001,1.7809900000000001,-19.3292
1918.0,61.039900000000003,60.840899999999998,27.444900000000001,62.058300000000003,-20.721599999999999,-3.86267,-20.293900000000001
1919.0,77.3078,50.7943,18.785900000000002,57.628300000000003,-29.091999999999999,-11.821099999999999,-24.001799999999999
1920.0,101.04000000000001,37.452199999999998,7.31426,56.126399999999997,-40.021000000000001,-21.954599999999999,-26.697600000000001
1921.0,111.712,18.5565,-2.3100399999999999,50.744,-45.486899999999999,-26.667400000000001,-25.792999999999999
1922.0,110.43300000000001,25.685199999999998,4.1767899999999996,64.820099999999996,-44.907899999999998,-23.939800000000002,-23.0229
1923.0,108.774,15.3393,-8.7876700000000003,50.948,-46.369599999999998,-20.327999999999999,-21.851800000000001
1924.0,88.254099999999994,35.087499999999999,11.0525,66.478099999999998,-35.790799999999997,-15.817299999999999,-17.1052
1925.0,7301.7799999999997,1438.25,-178.42400000000001,-4514.4700000000003,-996.05100000000004,2440.54,1161.3299999999999
1926.0,7578.4499999999998,1729.8699999999999,-184.93299999999999,-4873.2700000000004,-1075.79,2184.73,1293.26
1927.0,7263.3900000000003,1771.49,-161.62200000000001,-4943.4899999999998,-908.73199999999997,1676.9400000000001,1413.74
1928.0,7454.8199999999997,2077.29,-294.76100000000002,-5248.9300000000003,-779.75,1189.75,1589.76
1929.0,8100.1199999999999,2799.2800000000002,-357.44999999999999,-5511.4899999999998,-766.48299999999995,574.928,1831.1099999999999
1930.0,7921.79,2745.23,-464.96699999999998,-5369.3900000000003,-657.86800000000005,-90.647199999999998,1943.27
1931.0,7189.4300000000003,2441.6100000000001,-447.495,-4787.4200000000001,-444.52600000000001,-518.70799999999997,1876.8299999999999
1932.0,7045.4399999999996,2630.0300000000002,-471.90699999999998,-4390.9700000000003,-387.42700000000002,-764.24599999999998,1852.73
1933.0,7285.9300000000003,2986.1999999999998,-410.13200000000001,-4234.6199999999999,-527.88199999999995,-902.91099999999994,1884.3199999999999
1934.0,6905.5200000000004,2679.1399999999999,-286.87400000000002,-4039.2600000000002,-536.36699999999996,-1033.79,1789.76
1935.0,6041.6899999999996,2031.6500000000001,-207.178,-3528.9299999999998,-324.12599999999998,-1263.78,1624.01
1936.0,5529.8299999999999,1698.6400000000001,-238.90700000000001,-2949.52,-45.705599999999997,-1541.1400000000001,1537.75
1937.0,5371.7799999999997,1149.01,-594.53099999999995,-2809.8600000000001,211.691,-1779.8199999999999,1571.4200000000001
1938.0,5581.6099999999997,1024.01,-759.12400000000002,-2671.8200000000002,320.85300000000001,-1992.71,1701.4000000000001
1939.0,6008.4300000000003,1299.3299999999999,-703.04700000000003,-2540.77,281.39499999999998,-2209.5,1839.51
1940.0,6335.6000000000004,1254.6199999999999,-638.05999999999995,-2588.52,388.63600000000002,-2420.5700000000002,1917.5599999999999
1941.0,7178.5100000000002,803.60900000000004,-912.51300000000003,-2870.8899999999999,759.22299999999996,-2951.6799999999998,2123.1500000000001
1942.0,8879.0599999999995,402.52600000000001,-1272.99,-2982.6799999999998,1194.5699999999999,-3929.6500000000001,2558.3400000000001
1943.0,10281.4,-405.20299999999997,-1604.4100000000001,-2625.0100000000002,1657.99,-4771.75,2912.48
1944.0,10530.5,-1455.1400000000001,-1779.9000000000001,-2005.8900000000001,2105.5300000000002,-4876.3999999999996,2945.3000000000002
1945.0,10355.0,-2354.8899999999999,-1971.27,-1657.74,2488.5799999999999,-4645.7799999999997,2800.6700000000001
1946.0,10860.299999999999,-3025.5599999999999,-2169.6799999999998,-1365.9000000000001,2873.6300000000001,-4767.46,2764.1300000000001
1947.0,11702.799999999999,-4019.9000000000001,-2436.3499999999999,-1104.23,3302.4200000000001,-4993.1999999999998,2771.9000000000001
1948.0,12170.0,-5230.6700000000001,-2631.9000000000001,-797.54300000000001,3716.0900000000001,-4859.2600000000002,2643.1300000000001
1949.0,12405.700000000001,-6279.6599999999999,-2731.6199999999999,-375.30200000000002,4074.2800000000002,-4494.79,2379.8899999999999
1950.0,12596.700000000001,-7191.1199999999999,-2825.1199999999999,136.041,4384.8299999999999,-3997.9000000000001,2023.8499999999999
1951.0,6685.5,128.69499999999999,-506.39299999999997,-4806.46,-853.69299999999998,2085.0,1616.9100000000001
1952.0,6897.6199999999999,263.69299999999998,-571.75900000000001,-5058.8599999999997,-830.75800000000004,2009.78,1713.5
1953.0,7253.0900000000001,388.83100000000002,-709.51199999999994,-5690.1499999999996,-741.36300000000006,1741.3099999999999,1859.97
1954.0,7390.9700000000003,694.39300000000003,-826.05700000000002,-5997.6400000000003,-605.81399999999996,1126.04,2065.6999999999998
1955.0,7266.0299999999997,1036.1300000000001,-831.14200000000005,-5726.4099999999999,-482.74400000000003,581.24000000000001,2197.8299999999999
1956.0,7050.5299999999997,1011.98,-885.40200000000004,-5590.71,-358.18299999999999,244.06200000000001,2196.8699999999999
1957.0,6787.21,888.72799999999995,-903.94500000000005,-5414.8500000000004,-170.321,-230.41499999999999,2173.4299999999998
1958.0,6385.0299999999997,794.548,-942.35500000000002,-4952.4099999999999,-26.062899999999999,-601.79300000000001,2130.5500000000002
1959.0,6143.3999999999996,876.24300000000005,-917.94200000000001,-4577.2200000000003,3.7979599999999998,-664.77700000000004,2100.8499999999999
1960.0,6437.4200000000001,898.70799999999997,-979.26099999999997,-4843.3599999999997,16.237400000000001,-743.26700000000005,2165.46
1961.0,6642.6099999999997,654.84000000000003,-1087.6700000000001,-4974.5200000000004,128.91999999999999,-1141.9000000000001,2254.3099999999999
1962.0,6081.5,456.45699999999999,-914.37400000000002,-4294.25,248.101,-1358.29,2107.8499999999999
1963.0,5160.8900000000003,249.08099999999999,-684.25900000000001,-3376.9699999999998,403.36399999999998,-1393.98,1796.49
1964.0,4743.5699999999997,134.47,-676.34900000000005,-2870.8000000000002,542.31399999999996,-1426.3299999999999,1659.6700000000001
1965.0,5299.0299999999997,223.696,-911.23500000000001,-3180.3099999999999,592.59699999999998,-1602.9200000000001,1853.48
1966.0,6420.3900000000003,183.85499999999999,-1165.22,-3886.6199999999999,664.11900000000003,-2040.96,2198.8099999999999
1967.0,7185.04,-176.476,-1355.22,-3875.1799999999998,950.90499999999997,-2603.8699999999999,2440.0700000000002
1968.0,7780.2700000000004,-376.66800000000001,-1518.97,-3405.5500000000002,1253.0999999999999,-3063.73,2623.1900000000001
1969.0,8301.8600000000006,-709.61300000000006,-1719.5599999999999,-3075.4899999999998,1538.26,-3415.9899999999998,2743.9099999999999
1970.0,8672.1100000000006,-1384.9100000000001,-1920.96,-2913.04,1864.3599999999999,-3649.23,2770.3200000000002
1971.0,8927.7700000000004,-2224.8499999999999,-2110.0900000000001,-2574.6399999999999,2239.0,-3761.5300000000002,2710.6500000000001
1972.0,9196.4599999999991,-2838.27,-2251.1999999999998,-2071.0900000000001,2595.5599999999999,-3784.3699999999999,2640.5100000000002
1973.0,9677.7099999999991,-3418.9899999999998,-2414.75,-1683.5899999999999,2951.3299999999999,-3872.71,2598.4699999999998
1974.0,10255.700000000001,-4281.1400000000003,-2605.6999999999998,-1225.3699999999999,3374.5799999999999,-3891.6300000000001,2487.1399999999999
1975.0,10665.200000000001,-5166.1700000000001,-2764.2399999999998,-593.00099999999998,3789.3099999999999,-3649.29,2237.4299999999998
1976.0,10773.9,-5827.3999999999996,-2846.6799999999998,49.740900000000003,4080.75,-3149.0799999999999,1867.47
1977.0,6098.3900000000003,-532.83699999999999,-674.89099999999996,-4558.0900000000001,-768.83600000000001,1872.04,1756.1800000000001
1978.0,6186.0699999999997,-380.98500000000001,-725.33900000000006,-4724.79,-708.72799999999995,1718.2,1863.01
1979.0,6403.0299999999997,-68.664100000000005,-721.13900000000001,-4948.54,-648.11900000000003,1501.78,1993.1300000000001
1980.0,6402.2299999999996,125.908,-805.69500000000005,-5118.7600000000002,-502.178,1043.8800000000001,2119.3200000000002
1981.0,6132.9200000000001,122.157,-896.81700000000001,-5009.4700000000003,-322.80000000000001,606.67100000000005,2164.3400000000001
1982.0,5920.8699999999999,176.995,-899.78399999999999,-4802.9300000000003,-184.11799999999999,341.41199999999998,2160.9000000000001
1983.0,5829.3100000000004,211.35900000000001,-937.51599999999996,-4697.0799999999999,-54.552599999999998,44.576799999999999,2175.04
1984.0,5645.5500000000002,148.95099999999999,-949.17600000000004,-4494.4899999999998,77.387500000000003,-227.173,2162.6399999999999
1985.0,5494.8299999999999,40.351700000000001,-987.64400000000001,-4392.71,165.083,-345.38400000000001,2129.3099999999999
1986.0,5654.1599999999999,83.046800000000005,-1034.6600000000001,-4467.2799999999997,221.38399999999999,-476.14100000000002,2181.25
1987.0,5963.2700000000004,121.8,-1099.3499999999999,-4566.0799999999999,322.31299999999999,-729.81700000000001,2302.77
1988.0,6157.7799999999997,-84.635099999999994,-1238.6800000000001,-4656.6800000000003,481.78699999999998,-1026.22,2387.6999999999998
1989.0,6102.8199999999997,-462.10199999999998,-1374.5599999999999,-4553.6000000000004,675.03099999999995,-1300.24,2378.0900000000001
1990.0,5864.9899999999998,-721.39499999999998,-1406.8499999999999,-4205.7299999999996,834.29700000000003,-1456.29,2289.5100000000002
1991.0,5854.0299999999997,-640.56500000000005,-1368.52,-3885.5799999999999,923.88900000000001,-1570.49,2281.2199999999998
1992.0,6288.6499999999996,-508.01999999999998,-1411.5699999999999,-3856.8899999999999,998.95399999999995,-1833.5,2412.6599999999999
1993.0,6608.6599999999999,-750.53599999999994,-1540.9000000000001,-3631.6199999999999,1194.99,-2177.48,2484.48
1994.0,6629.0799999999999,-1007.95,-1644.0699999999999,-3247.8899999999999,1382.1500000000001,-2319.96,2454.2399999999998
1995.0,6793.3299999999999,-1156.0599999999999,-1727.3099999999999,-3054.8299999999999,1534.48,-2459.2199999999998,2455.96
1996.0,7188.3900000000003,-1485.4300000000001,-1829.24,-2845.75,1774.3299999999999,-2715.5500000000002,2490.2800000000002
1997.0,7505.6000000000004,-1999.4100000000001,-1928.4300000000001,-2417.3000000000002,2085.8400000000001,-2891.0799999999999,2449.3099999999999
1998.0,7642.7299999999996,-2556.5,-2067.5799999999999,-1977.99,2378.0500000000002,-2887.6700000000001,2319.4200000000001
1999.0,7787.1099999999997,-2985.5,-2185.4699999999998,-1530.23,2640.1900000000001,-2830.7199999999998,2167.54
2000.0,7995.8800000000001,-3406.3699999999999,-2299.5700000000002,-1032.71,2895.3699999999999,-2745.8000000000002,1994.52
2001.0,8129.54,-3843.4200000000001,-2374.8000000000002,-504.13900000000001,3118.6199999999999,-2537.9699999999998,1749.73
2002.0,8119.5900000000001,-4227.79,-2415.46,-46.3005,3278.52,-2184.48,1434.6300000000001
2003.0,5079.9899999999998,-525.96600000000001,-610.35299999999995,-3568.8099999999999,-707.87300000000005,1598.22,1594.8699999999999
2004.0,5119.6099999999997,-346.50799999999998,-658.69200000000001,-3735.3099999999999,-628.322,1370.45,1719.3199999999999
2005.0,5071.54,-310.14100000000002,-789.41300000000001,-3859.6999999999998,-537.54899999999998,1145.6700000000001,1806.3
2006.0,5003.46,-151.13300000000001,-775.99699999999996,-3818.1700000000001,-425.97300000000001,916.31799999999998,1864.1400000000001
2007.0,4915.1199999999999,-110.863,-845.55899999999997,-3846.48,-290.06700000000001,652.78300000000002,1904.1700000000001
2008.0,4809.7700000000004,-64.278800000000004,-884.25999999999999,-3779.0900000000001,-158.12100000000001,395.61599999999999,1929.01
2009.0,4728.1899999999996,-87.823099999999997,-962.71100000000001,-3739.3600000000001,-55.389400000000002,197.10400000000001,1942.98
2010.0,4704.8599999999997,-75.167500000000004,-962.88099999999997,-3686.3600000000001,37.475900000000003,32.392299999999999,1958.3399999999999
2011.0,4728.1599999999999,-140.90600000000001,-1027.0,-3714.8299999999999,131.38300000000001,-137.256,1987.96
2012.0,4743.0799999999999,-120.43000000000001,-1008.89,-3622.6300000000001,212.77000000000001,-264.66500000000002,2017.23
2013.0,4895.0600000000004,-148.56899999999999,-1106.8299999999999,-3750.2199999999998,286.52199999999999,-361.15899999999999,2072.46
2014.0,5299.9300000000003,-108.473,-1172.95,-3966.1100000000001,407.13099999999997,-603.577,2205.3699999999999
2015.0,5693.3800000000001,-301.58100000000002,-1331.21,-4140.7399999999998,606.47299999999996,-1001.41,2342.0999999999999
2016.0,5777.4300000000003,-538.22299999999996,-1368.9200000000001,-3836.5100000000002,861.33799999999997,-1362.52,2363.2399999999998
2017.0,5559.2399999999998,-844.69500000000005,-1494.78,-3462.3499999999999,1041.27,-1487.3499999999999,2268.8299999999999
2018.0,5381.3599999999997,-837.60699999999997,-1478.6500000000001,-3106.77,1116.51,-1505.4300000000001,2184.4099999999999
2019.0,5441.4300000000003,-903.83600000000001,-1558.0899999999999,-2964.7199999999998,1204.6199999999999,-1621.5699999999999,2163.3499999999999
2020.0,5566.3999999999996,-1017.7,-1571.2,-2732.4000000000001,1342.78,-1773.6700000000001,2147.9000000000001
2021.0,5685.1999999999998,-1260.0,-1686.6500000000001,-2543.0900000000001,1493.1199999999999,-1895.79,2126.8400000000001
2022.0,5805.1000000000004,-1431.02,-1724.0699999999999,-2215.6100000000001,1660.8299999999999,-1982.8299999999999,2094.2600000000002
2023.0,5918.6400000000003,-1750.1900000000001,-1868.72,-1964.9000000000001,1859.6700000000001,-2031.5999999999999,2019.75
2024.0,6046.6199999999999,-2008.71,-1903.3099999999999,-1569.1300000000001,2079.4499999999998,-2048.3499999999999,1901.24
2025.0,6165.5799999999999,-2405.98,-2051.1700000000001,-1251.04,2286.8099999999999,-2009.98,1746.98
2026.0,6248.6099999999997,-2678.6399999999999,-2081.5799999999999,-846.14499999999998,2453.8499999999999,-1906.6099999999999,1576.4000000000001
2027.0,6274.3599999999997,-3011.0,-2162.71,-573.90999999999997,2579.1399999999999,-1741.75,1380.71
2028.0,6221.9899999999998,-3185.1599999999999,-2089.0999999999999,-238.67400000000001,2668.2600000000002,-1505.71,1140.0599999999999
2029.0,4060.5,-609.09400000000005,-684.95899999999995,-2782.8800000000001,-624.77300000000002,1264.25,1408.95
2030.0,4070.6100000000001,-471.64400000000001,-674.91399999999999,-2848.3400000000001,-566.25599999999997,1149.9300000000001,1464.47
2031.0,4041.3000000000002,-446.20699999999999,-758.95399999999995,-2994.21,-473.05200000000002,986.84000000000003,1521.6199999999999
2032.0,4013.1599999999999,-358.57900000000001,-797.94299999999998,-3049.5300000000002,-372.851,803.05499999999995,1581.3199999999999
2033.0,3979.0999999999999,-315.89499999999998,-872.75300000000004,-3102.48,-272.142,617.28999999999996,1627.3199999999999
2034.0,3947.9699999999998,-191.142,-831.64200000000005,-3039.9899999999998,-172.81299999999999,431.81599999999997,1656.9100000000001
2035.0,3921.7399999999998,-243.876,-917.34500000000003,-3103.25,-76.918800000000005,262.774,1678.4200000000001
2036.0,3917.8499999999999,-196.607,-899.94500000000005,-3032.1799999999998,19.269200000000001,108.346,1710.01
2037.0,3953.5500000000002,-260.67099999999999,-999.49300000000005,-3076.5799999999999,105.331,-17.778400000000001,1751.3399999999999
2038.0,4080.6799999999998,-263.73000000000002,-1040.0699999999999,-3141.1999999999998,184.63900000000001,-134.58699999999999,1811.7
2039.0,4262.6599999999999,-345.452,-1163.55,-3298.29,277.45800000000003,-297.69400000000002,1888.6199999999999
2040.0,4403.5500000000002,-274.55799999999999,-1148.1600000000001,-3195.0900000000001,398.54399999999998,-494.02999999999997,1952.8900000000001
2041.0,4557.8199999999997,-297.53300000000002,-1240.76,-3114.0799999999999,548.173,-714.029,2014.6700000000001
2042.0,4685.6700000000001,-384.36200000000002,-1306.4300000000001,-2974.96,725.19399999999996,-939.69299999999998,2045.8099999999999
2043.0,4706.3900000000003,-618.58600000000001,-1416.1400000000001,-2853.8099999999999,902.255,-1111.98,2012.3599999999999
2044.0,4649.0200000000004,-763.02599999999995,-1434.1700000000001,-2616.6399999999999,1037.1500000000001,-1211.23,1944.47
2045.0,4588.8699999999999,-923.62400000000002,-1521.73,-2453.3800000000001,1131.0899999999999,-1270.1199999999999,1879.46
2046.0,4600.8500000000004,-954.42399999999998,-1498.3399999999999,-2186.6599999999999,1229.99,-1341.95,1833.28
2047.0,4654.8800000000001,-1123.3,-1583.0899999999999,-2031.96,1344.0899999999999,-1414.0999999999999,1791.6300000000001
2048.0,4717.25,-1258.5999999999999,-1608.3199999999999,-1798.1400000000001,1475.05,-1469.5999999999999,1734.0899999999999
2049.0,4784.6599999999999,-1502.6199999999999,-1724.01,-1596.4200000000001,1624.75,-1502.72,1649.4400000000001
2050.0,4829.9200000000001,-1677.8299999999999,-1747.04,-1261.75,1773.1900000000001,-1491.1300000000001,1529.54
2051.0,4856.7700000000004,-1909.72,-1812.46,-982.76599999999996,1904.71,-1433.97,1385.29
2052.0,4878.8299999999999,-2052.3899999999999,-1793.79,-662.30799999999999,2019.8299999999999,-1337.05,1233.02
2053.0,4891.3299999999999,-2263.1999999999998,-1870.95,-469.49400000000003,2116.9099999999999,-1205.3499999999999,1073.1600000000001
2054.0,4864.9799999999996,-2354.04,-1846.49,-235.453,2187.0900000000001,-1034.0,901.81200000000001
2055.0,3239.5100000000002,-496.649,-549.70299999999997,-2051.04,-525.59100000000001,984.87,1213.71
2056.0,3298.5500000000002,-548.84199999999998,-692.976,-2269.0900000000001,-499.67599999999999,940.27499999999998,1257.9100000000001
2057.0,3247.7199999999998,-304.85000000000002,-534.57600000000002,-2150.8800000000001,-429.73399999999998,828.77999999999997,1277.5699999999999
2058.0,3212.0100000000002,-342.762,-666.75900000000001,-2316.7199999999998,-347.24700000000001,701.76800000000003,1305.8699999999999
2059.0,3224.2600000000002,-185.66499999999999,-608.49199999999996,-2304.8099999999999,-259.43200000000002,555.173,1353.48
2060.0,3236.5100000000002,-313.57900000000001,-818.77700000000004,-2508.98,-170.00899999999999,400.79399999999998,1407.1800000000001
2061.0,3234.9499999999998,-146.69,-701.53300000000002,-2352.0599999999999,-87.950000000000003,274.774,1445.3699999999999
2062.0,3234.21,-307.01600000000002,-890.83600000000001,-2517.23,-3.39059,154.40100000000001,1466.6300000000001
2063.0,3290.8299999999999,-178.892,-805.45000000000005,-2411.9000000000001,88.066100000000006,24.351299999999998,1508.28
2064.0,3397.9099999999999,-289.5,-970.70500000000004,-2538.3600000000001,173.19499999999999,-94.225800000000007,1574.77
2065.0,3532.5100000000002,-143.28700000000001,-889.96400000000006,-2404.1799999999998,268.14100000000002,-209.14400000000001,1648.3
2066.0,3713.98,-347.33100000000002,-1173.9400000000001,-2632.6300000000001,381.70299999999997,-358.358,1727.6600000000001
2067.0,3852.1900000000001,-342.57400000000001,-1199.6900000000001,-2550.3099999999999,513.25699999999995,-530.21600000000001,1778.5
2068.0,3930.9699999999998,-546.33900000000006,-1401.8900000000001,-2568.3699999999999,655.21000000000004,-690.31799999999998,1792.98
2069.0,3939.25,-464.23399999999998,-1282.02,-2258.4400000000001,772.88199999999995,-804.01300000000003,1766.8900000000001
2070.0,3880.46,-666.56799999999998,-1398.3800000000001,-2187.8699999999999,881.64499999999998,-888.77999999999997,1695.0599999999999
2071.0,3842.9200000000001,-622.65300000000002,-1266.9100000000001,-1874.0,979.54600000000005,-958.74300000000005,1628.6199999999999
2072.0,3811.6900000000001,-907.41899999999998,-1462.3800000000001,-1875.5,1071.28,-1004.11,1565.6199999999999
2073.0,3811.3000000000002,-885.98099999999999,-1374.1500000000001,-1569.3,1170.9200000000001,-1049.51,1498.53
2074.0,3852.9499999999998,-1114.03,-1533.3800000000001,-1501.6700000000001,1272.4200000000001,-1102.5999999999999,1434.96
2075.0,3883.3400000000001,-1107.6700000000001,-1413.8499999999999,-1153.05,1374.1300000000001,-1131.96,1352.74
2076.0,3896.3400000000001,-1414.3399999999999,-1571.52,-1068.7,1481.78,-1119.75,1242.9000000000001
2077.0,3893.6799999999998,-1473.8499999999999,-1486.47,-743.77300000000002,1582.8900000000001,-1059.9100000000001,1115.28
2078.0,3871.0,-1747.3800000000001,-1643.73,-699.43299999999999,1662.25,-971.07799999999997,977.43200000000002
2079.0,3841.7199999999998,-1720.78,-1518.96,-396.34899999999999,1718.71,-872.30700000000002,833.99300000000005
2080.0,3802.1900000000001,-1930.1600000000001,-1639.1800000000001,-375.28500000000003,1755.51,-751.96100000000001,698.80700000000002
2081.0,2250.2800000000002,-511.48899999999998,-526.33600000000001,-1439.26,-408.673,687.42399999999998,875.19100000000003
2082.0,2461.8800000000001,-433.10599999999999,-557.26599999999996,-1593.75,-397.48099999999999,699.30999999999995,983.42499999999995
2083.0,2652.6199999999999,-511.15499999999997,-703.46799999999996,-1891.71,-385.19799999999998,686.39800000000002,1080.1900000000001
2084.0,2666.9699999999998,-389.702,-649.32899999999995,-1895.6099999999999,-313.613,582.28599999999994,1133.77
2085.0,2666.5599999999999,-354.45699999999999,-720.25300000000004,-1958.8099999999999,-229.434,462.69900000000001,1181.73
2086.0,2661.2600000000002,-226.22800000000001,-650.95100000000002,-1883.04,-170.52000000000001,376.18099999999998,1203.99
2087.0,2638.48,-325.89999999999998,-790.97900000000004,-2002.6700000000001,-84.553600000000003,264.99299999999999,1222.22
2088.0,2707.54,-189.63300000000001,-739.92200000000003,-1920.3,-0.42360999999999999,146.636,1280.7
2089.0,2777.6500000000001,-266.82600000000002,-860.60900000000004,-2022.55,58.2639,59.1785,1329.4200000000001
2090.0,2814.6300000000001,-253.77600000000001,-875.31500000000005,-2011.3699999999999,135.874,-18.718,1351.8699999999999
2091.0,2908.3099999999999,-378.37299999999999,-1067.77,-2155.6999999999998,224.631,-127.499,1396.3299999999999
2092.0,3022.3299999999999,-277.08499999999998,-1032.3599999999999,-2037.8900000000001,320.01100000000002,-260.41899999999998,1447.1700000000001
2093.0,3131.8600000000001,-292.24099999999999,-1103.3199999999999,-2004.7,419.86799999999999,-390.69299999999998,1485.52
2094.0,3176.04,-291.89499999999998,-1090.46,-1866.3900000000001,523.94000000000005,-490.935,1492.3399999999999
2095.0,3204.8400000000001,-501.459,-1260.45,-1899.0799999999999,641.78200000000004,-584.28700000000003,1476.77
2096.0,3238.6999999999998,-523.61000000000001,-1242.6600000000001,-1733.05,746.60900000000004,-672.23199999999997,1455.0
2097.0,3170.9899999999998,-705.64200000000005,-1339.27,-1701.76,817.74699999999996,-701.11300000000006,1391.8599999999999
2098.0,3090.9200000000001,-669.36400000000003,-1209.3199999999999,-1414.5799999999999,902.649,-731.35799999999995,1298.75
2099.0,3102.1399999999999,-812.98299999999995,-1301.26,-1311.01,999.37699999999995,-785.822,1228.98
2100.0,3162.98,-834.59000000000003,-1280.1700000000001,-1102.04,1086.51,-837.02800000000002,1184.6500000000001
2101.0,3207.27,-1032.6099999999999,-1403.4400000000001,-1040.7,1172.4000000000001,-860.56500000000005,1126.45
2102.0,3200.0999999999999,-1063.1300000000001,-1339.3900000000001,-789.12199999999996,1254.8299999999999,-834.279,1033.0699999999999
2103.0,3161.79,-1219.8299999999999,-1413.51,-690.59699999999998,1324.5799999999999,-771.70299999999997,917.73400000000004
2104.0,3123.6900000000001,-1210.3499999999999,-1335.9200000000001,-464.76799999999997,1379.48,-698.12400000000002,800.23500000000001
2105.0,3077.4200000000001,-1360.0,-1417.3199999999999,-427.23099999999999,1413.1500000000001,-615.63900000000001,686.94600000000003
2106.0,3020.6900000000001,-1321.53,-1317.3299999999999,-259.839,1432.03,-528.30999999999995,580.89599999999996
2107.0,1519.05,-136.31100000000001,-220.49700000000001,-727.81799999999998,-307.80000000000001,468.45499999999998,593.79200000000003
2108.0,1638.99,-196.34100000000001,-359.99900000000002,-901.48400000000004,-295.036,450.77499999999998,684.82500000000005
2109.0,1879.8299999999999,-181.393,-379.15600000000001,-1034.6800000000001,-311.12299999999999,494.26499999999999,798.33399999999995
2110.0,2092.5799999999999,-244.006,-520.745,-1325.51,-279.00599999999997,469.161,919.79499999999996
2111.0,2176.4299999999998,-229.256,-581.07899999999995,-1433.9200000000001,-214.92599999999999,386.59100000000001,999.78999999999996
2112.0,2208.4099999999999,-268.17500000000001,-671.57600000000002,-1526.53,-157.13900000000001,329.00999999999999,1039.1800000000001
2113.0,2249.0,-129.90299999999999,-590.36300000000006,-1456.04,-101.087,259.327,1074.79
2114.0,2243.0999999999999,-256.452,-751.28899999999999,-1582.3099999999999,-25.3826,165.17099999999999,1095.5999999999999
2115.0,2281.6300000000001,-190.58699999999999,-764.34699999999998,-1540.1800000000001,47.108899999999998,73.3369,1126.47
2116.0,2330.4099999999999,-131.85900000000001,-781.94299999999998,-1524.04,88.237099999999998,5.24817,1147.6900000000001
2117.0,2303.5100000000002,-37.327599999999997,-691.33399999999995,-1383.77,151.392,-70.562200000000004,1134.6700000000001
2118.0,2376.9000000000001,-126.203,-831.66899999999998,-1438.22,253.417,-186.95400000000001,1163.1300000000001
2119.0,2493.3800000000001,-188.102,-945.07299999999998,-1496.6300000000001,319.31400000000002,-275.02499999999998,1209.5999999999999
2120.0,2483.02,-281.09500000000003,-989.74900000000002,-1495.6600000000001,382.85599999999999,-335.62299999999999,1193.1900000000001
2121.0,2471.8499999999999,-272.40800000000002,-942.99900000000002,-1293.1199999999999,503.06999999999999,-417.84699999999998,1157.5799999999999
2122.0,2505.2600000000002,-401.40600000000001,-1069.0999999999999,-1281.9100000000001,585.31799999999998,-466.495,1149.27
2123.0,2498.71,-373.14800000000002,-985.20100000000002,-1113.71,652.40700000000004,-502.74400000000003,1116.3399999999999
2124.0,2510.6999999999998,-554.452,-1103.48,-1092.04,751.42700000000002,-554.08900000000006,1063.54
2125.0,2548.9400000000001,-596.84799999999996,-1111.2,-955.94399999999996,839.62,-593.05100000000004,1019.52
2126.0,2588.9200000000001,-700.27599999999995,-1185.9400000000001,-882.47500000000002,917.71699999999998,-622.07600000000002,972.00300000000004
2127.0,2638.1300000000001,-706.83000000000004,-1165.99,-708.48400000000004,987.69600000000003,-641.89999999999998,928.60599999999999
2128.0,2645.4899999999998,-848.53999999999996,-1245.8699999999999,-655.721,1049.4400000000001,-627.68499999999995,864.29499999999996
2129.0,2596.77,-887.92200000000003,-1203.1099999999999,-511.964,1096.8800000000001,-580.13699999999994,767.00300000000004
2130.0,2529.7399999999998,-1009.1799999999999,-1246.1300000000001,-471.50999999999999,1129.6700000000001,-516.63800000000003,657.70500000000004
2131.0,2475.3299999999999,-998.00599999999997,-1179.6500000000001,-331.72399999999999,1149.6300000000001,-451.88600000000002,563.24699999999996
2132.0,2437.5900000000001,-1080.29,-1219.53,-323.22300000000001,1168.05,-389.92899999999997,481.214
2133.0,1273.8299999999999,-299.70600000000002,-358.697,-709.96799999999996,-289.36799999999999,417.79899999999998,483.10899999999998
2134.0,1184.5999999999999,-178.428,-282.279,-616.81500000000005,-243.09899999999999,342.495,488.75400000000002
2135.0,1252.6500000000001,-227.05699999999999,-389.99000000000001,-733.80700000000002,-227.226,329.78699999999998,543.81200000000001
2136.0,1480.5999999999999,-176.56800000000001,-442.97899999999998,-867.63300000000004,-230.714,343.98099999999999,661.58500000000004
2137.0,1647.0799999999999,-168.643,-502.57100000000003,-1014.5599999999999,-205.09999999999999,316.10899999999998,762.07899999999995
2138.0,1767.71,-121.40300000000001,-516.53999999999996,-1091.5899999999999,-163.12899999999999,277.18400000000003,836.745
2139.0,1805.9200000000001,-285.25999999999999,-704.10699999999997,-1306.9300000000001,-120.572,221.69200000000001,871.58399999999995
2140.0,1742.4400000000001,-91.361199999999997,-524.24300000000005,-1100.98,-45.4617,139.577,856.69500000000005
2141.0,1757.0699999999999,-93.317300000000003,-618.43200000000002,-1124.8599999999999,32.427,47.946800000000003,871.60699999999997
2142.0,1868.03,-88.928600000000003,-698.83100000000002,-1196.4400000000001,49.355499999999999,11.309900000000001,923.53599999999994
2143.0,1920.5599999999999,-164.208,-790.03899999999999,-1289.3,89.278800000000004,-56.773000000000003,948.96400000000006
2144.0,1854.9400000000001,-147.08000000000001,-751.72500000000002,-1150.9400000000001,167.28999999999999,-140.86699999999999,918.50599999999997
2145.0,1821.1199999999999,-136.43000000000001,-743.15099999999995,-1048.47,229.99000000000001,-181.02699999999999,896.82899999999995
2146.0,1918.4200000000001,-81.775999999999996,-742.971,-990.46799999999996,291.709,-242.47800000000001,928.54300000000001
2147.0,1871.8900000000001,-235.56299999999999,-852.18299999999999,-1007.87,343.51100000000002,-276.00299999999999,898.32799999999997
2148.0,1762.55,-204.851,-744.61699999999996,-801.81500000000005,409.73599999999999,-283.77300000000002,823.78499999999997
2149.0,1923.02,-385.41500000000002,-961.82799999999997,-898.553,523.41499999999996,-374.80599999999998,847.524
2150.0,2092.4499999999998,-378.714,-958.66899999999998,-784.98900000000003,619.72699999999998,-446.01900000000001,887.61199999999997
2151.0,2114.0999999999999,-479.72699999999998,-1017.74,-748.63099999999997,694.16499999999996,-458.10399999999998,851.89400000000001
2152.0,2126.25,-494.43799999999999,-1007.6799999999999,-635.46199999999999,758.35199999999998,-468.185,801.48599999999999
2153.0,2152.79,-610.70000000000005,-1100.5899999999999,-615.76400000000001,814.81600000000003,-479.19299999999998,756.37599999999998
2154.0,2168.7199999999998,-612.31200000000001,-1063.9400000000001,-480.80599999999998,860.63499999999999,-474.82900000000001,712.79700000000003
2155.0,2134.21,-708.29600000000005,-1096.54,-437.98200000000003,900.52200000000005,-436.923,637.85199999999998
2156.0,2078.8000000000002,-686.71500000000003,-1018.36,-293.98200000000003,930.45299999999997,-381.57299999999998,545.56399999999996
2157.0,2032.3499999999999,-770.60799999999995,-1064.6500000000001,-289.45400000000001,947.82399999999996,-330.76100000000002,464.63499999999999
2158.0,2003.79,-732.86699999999996,-998.53499999999997,-183.636,962.40499999999997,-285.98200000000003,397.06599999999997
2159.0,956.66899999999998,-100.498,-147.523,-355.67000000000002,-231.61199999999999,302.33800000000002,376.26900000000001
2160.0,905.80200000000002,-116.827,-223.328,-447.09500000000003,-190.053,258.11099999999999,377.274
2161.0,903.57899999999995,9.6593199999999992,-164.01599999999999,-384.50799999999998,-162.905,213.42699999999999,401.29500000000002
2162.0,978.16300000000001,-39.341099999999997,-256.08699999999999,-475.90199999999999,-164.74100000000001,218.56,443.14699999999999
2163.0,1144.4300000000001,-28.459800000000001,-329.80799999999999,-591.90200000000004,-159.38900000000001,217.94900000000001,533.08100000000002
2164.0,1258.02,-64.873800000000003,-432.25,-716.07600000000002,-132.77500000000001,182.95400000000001,608.14599999999996
2165.0,1343.5899999999999,122.30800000000001,-285.71199999999999,-592.57399999999996,-97.200400000000002,164.32900000000001,660.81299999999999
2166.0,1497.3900000000001,-23.1492,-541.37599999999998,-879.82000000000005,-59.7455,125.22,736.19100000000003
2167.0,1490.8,18.412199999999999,-503.76400000000001,-826.67499999999995,-25.301300000000001,65.210300000000004,744.37
2168.0,1436.9100000000001,24.661300000000001,-473.024,-777.98699999999997,27.417400000000001,20.755199999999999,723.11599999999999
2169.0,1541.47,54.342500000000001,-514.25800000000004,-795.82299999999998,89.166399999999996,-60.188800000000001,770.005
2170.0,1543.5699999999999,42.473300000000002,-525.82500000000005,-750.81399999999996,141.91200000000001,-111.05800000000001,771.09199999999998
2171.0,1478.8099999999999,35.505899999999997,-524.20299999999997,-678.91899999999998,181.87100000000001,-130.90000000000001,733.13099999999997
2172.0,1451.5899999999999,-94.665400000000005,-668.26199999999994,-759.72299999999996,203.47900000000001,-146.56899999999999,713.81700000000001
2173.0,1394.8900000000001,-14.5921,-540.98199999999997,-611.58500000000004,225.49299999999999,-165.136,681.21100000000001
2174.0,1388.9300000000001,-137.648,-615.72500000000002,-600.78499999999997,312.09300000000002,-228.666,647.66499999999996
2175.0,1508.47,-127.45,-631.74000000000001,-475.291,417.37099999999998,-288.32400000000001,659.19600000000003
2176.0,1678.3699999999999,-278.86599999999999,-841.83500000000004,-605.26199999999994,489.17200000000003,-337.72300000000001,711.14400000000001
2177.0,1757.1099999999999,-304.07299999999998,-850.79999999999995,-532.94899999999996,561.00199999999995,-364.52499999999998,711.45000000000005
2178.0,1754.25,-406.75299999999999,-917.29700000000003,-522.63499999999999,616.49300000000005,-361.05500000000001,666.13400000000001
2179.0,1748.3199999999999,-377.83999999999997,-861.47799999999995,-387.03399999999999,661.08500000000004,-355.18599999999998,615.77099999999996
2180.0,1748.5999999999999,-473.36799999999999,-936.73099999999999,-395.97399999999999,693.92200000000003,-347.04199999999997,575.94799999999998
2181.0,1745.8,-474.62900000000002,-902.42899999999997,-292.18200000000002,731.42100000000005,-328.976,524.04600000000005
2182.0,1722.55,-585.58600000000001,-972.69899999999996,-302.72699999999998,763.80700000000002,-292.108,455.20800000000003
2183.0,1694.21,-547.98500000000001,-910.18200000000002,-191.43899999999999,782.88,-254.16900000000001,387.46699999999998
2184.0,1675.6400000000001,-623.54200000000003,-970.13,-213.47,795.68100000000004,-221.16200000000001,332.322
2185.0,693.81799999999998,-115.983,-195.697,-281.05799999999999,-185.762,227.09100000000001,259.93900000000002
2186.0,726.09799999999996,-23.492699999999999,-165.66200000000001,-287.755,-165.81700000000001,207.71899999999999,295.98099999999999
2187.0,734.05799999999999,-57.765799999999999,-247.40000000000001,-381.83600000000001,-140.40899999999999,173.113,321.59300000000002
2188.0,744.86900000000003,0.39283499999999999,-208.71299999999999,-344.16300000000001,-129.72,155.56,337.31999999999999
2189.0,794.58699999999999,-2.1472600000000002,-239.71100000000001,-374.16500000000002,-122.446,152.68799999999999,369.68099999999998
2190.0,947.04399999999998,11.6294,-291.12599999999998,-451.40899999999999,-124.821,167.553,447.233
2191.0,1171.27,-149.523,-560.35599999999999,-769.548,-126.84,172.05199999999999,558.66399999999999
2192.0,1256.1800000000001,-34.849800000000002,-492.00599999999997,-708.92700000000002,-92.384900000000002,125.614,619.09500000000003
2193.0,1234.9000000000001,-62.113,-505.755,-719.27099999999996,-42.685699999999997,77.343199999999996,623.01400000000001
2194.0,1229.6900000000001,-66.749600000000001,-529.09000000000003,-694.86000000000001,30.483499999999999,10.326700000000001,630.12099999999998
2195.0,1296.6800000000001,-74.763000000000005,-598.77300000000002,-715.78300000000002,70.611500000000007,-12.2906,662.41300000000001
2196.0,1400.6600000000001,-130.554,-712.62900000000002,-848.35900000000004,79.704800000000006,-21.743600000000001,708.31299999999999
2197.0,1284.47,-151.35900000000001,-670.22900000000004,-755.62800000000004,116.959,-62.675899999999999,652.23099999999999
2198.0,1067.3499999999999,-11.773400000000001,-436.63499999999999,-471.24599999999998,139.96700000000001,-67.949799999999996,538.58199999999999
2199.0,1116.75,-86.685599999999994,-542.89800000000002,-548.86099999999999,187.58500000000001,-126.581,542.404
2200.0,1281.1500000000001,-110.46599999999999,-613.14800000000002,-512.64700000000005,282.20699999999999,-218.68899999999999,590.67200000000003
2201.0,1296.6300000000001,-227.06100000000001,-702.00900000000001,-488.19200000000001,354.959,-233.89099999999999,568.45000000000005
2202.0,1333.1800000000001,-150.03999999999999,-654.78999999999996,-377.89600000000002,397.73500000000001,-241.06800000000001,558.79499999999996
2203.0,1429.24,-232.452,-765.66600000000005,-436.65300000000002,441.87099999999998,-273.23000000000002,581.91899999999998
2204.0,1449.77,-232.643,-733.85000000000002,-336.791,495.697,-276.536,555.40599999999995
2205.0,1428.3800000000001,-344.04899999999998,-817.07100000000003,-374.15600000000001,529.50999999999999,-260.74200000000002,511.44900000000001
2206.0,1421.1900000000001,-304.077,-759.47799999999995,-271.56999999999999,560.50199999999995,-252.20599999999999,470.18200000000002
2207.0,1438.75,-389.69600000000003,-832.36800000000005,-280.387,594.17100000000005,-249.57599999999999,435.02199999999999
2208.0,1441.7,-356.94,-773.52800000000002,-164.03100000000001,625.51300000000003,-231.17400000000001,388.69999999999999
2209.0,1430.0599999999999,-446.80799999999999,-837.27599999999995,-184.792,647.80600000000004,-206.68299999999999,333.94
2210.0,1422.8,-402.00099999999998,-774.91899999999998,-85.786799999999999,664.17600000000004,-183.465,284.61099999999999
2211.0,593.72199999999998,-12.5366,-93.341800000000006,-149.23599999999999,-170.874,197.625,211.00899999999999
2212.0,621.78099999999995,-20.9483,-157.65199999999999,-235.02500000000001,-155.92599999999999,179.75399999999999,245.958
2213.0,631.26599999999996,50.482199999999999,-127.584,-212.047,-132.59299999999999,153.05600000000001,271.77999999999997
2214.0,651.52200000000005,15.974600000000001,-192.15199999999999,-277.26299999999998,-119.218,135.97300000000001,293.315
2215.0,681.58500000000004,21.117100000000001,-204.67400000000001,-294.45800000000003,-117.875,135.221,310.21699999999998
2216.0,742.72400000000005,44.692500000000003,-242.76300000000001,-335.41800000000001,-109.742,118.59699999999999,344.221
2217.0,795.56700000000001,186.804,-151.41900000000001,-234.94300000000001,-94.783500000000004,91.686099999999996,379.09300000000002
2218.0,826.93499999999995,79.774799999999999,-269.02199999999999,-346.15100000000001,-74.014499999999998,76.801400000000001,406.27600000000001
2219.0,937.88699999999994,92.079899999999995,-316.13,-397.61399999999998,-42.229399999999998,56.041600000000003,468.44499999999999
2220.0,1072.1400000000001,39.753,-441.39299999999997,-507.77100000000002,5.6787099999999997,10.545999999999999,541.97199999999998
2221.0,1055.73,24.441500000000001,-450.25200000000001,-474.67000000000002,37.818300000000001,-14.579000000000001,539.16800000000001
2222.0,929.97900000000004,103.221,-325.44900000000001,-327.68900000000002,40.757300000000001,-12.196999999999999,474.23899999999998
2223.0,836.78499999999997,103.502,-278.04599999999999,-285.57400000000001,57.174900000000001,-25.2773,424.255
2224.0,872.22299999999996,-0.52402199999999999,-389.37799999999999,-379.53100000000001,111.91,-72.740300000000005,431.99299999999999
2225.0,1021.28,12.811400000000001,-444.89800000000002,-348.88999999999999,184.07599999999999,-141.232,485.37099999999998
2226.0,1121.9400000000001,-46.357900000000001,-536.47400000000005,-376.36700000000002,239.13900000000001,-174.79900000000001,519.02300000000002
2227.0,1144.5,-70.141999999999996,-541.52800000000002,-307.05599999999998,306.26600000000002,-195.47900000000001,499.06099999999998
2228.0,1135.23,-162.08500000000001,-622.84000000000003,-326.51400000000001,342.40300000000002,-189.38,471.12
2229.0,1158.8599999999999,-132.58600000000001,-619.05999999999995,-289.82100000000003,360.37299999999999,-191.767,468.37799999999999
2230.0,1192.3099999999999,-201.75899999999999,-690.26999999999998,-307.32900000000001,393.33300000000003,-203.13300000000001,460.24299999999999
2231.0,1179.1700000000001,-169.60400000000001,-633.46600000000001,-215.65000000000001,422.21300000000002,-192.74199999999999,427.49700000000001
2232.0,1177.8299999999999,-244.262,-695.346,-238.24199999999999,452.06999999999999,-188.05199999999999,392.36599999999999
2233.0,1192.1300000000001,-227.69,-674.28899999999999,-169.39500000000001,479.27699999999999,-187.98400000000001,363.85300000000001
2234.0,1207.6300000000001,-307.81099999999998,-742.27700000000004,-182.38300000000001,507.23700000000002,-181.64599999999999,330.92700000000002
2235.0,1212.0699999999999,-290.00900000000001,-708.05600000000004,-101.562,531.50300000000004,-164.53999999999999,289.45699999999999
2236.0,1207.99,-352.05700000000002,-755.35799999999995,-119.416,548.57100000000003,-145.53,246.51599999999999
2237.0,500.85599999999999,-46.603099999999998,-145.38399999999999,-159.74100000000001,-149.268,155.792,182.40899999999999
2238.0,528.25800000000004,7.8170000000000002,-131.74000000000001,-157.691,-142.28100000000001,150.37100000000001,205.523
2239.0,534.57399999999996,-7.9264000000000001,-187.613,-220.505,-122.833,127.89400000000001,225.208
2240.0,537.63900000000001,48.688299999999998,-157.49600000000001,-189.06399999999999,-107.20399999999999,111.432,236.15600000000001
2241.0,558.49699999999996,63.6295,-174.72499999999999,-211.69399999999999,-98.315399999999997,96.550299999999993,250.309
2242.0,543.13599999999997,91.672700000000006,-165.197,-185.001,-77.578000000000003,68.069100000000006,252.70500000000001
2243.0,546.24599999999998,-5.2655399999999997,-267.49599999999998,-272.64600000000002,-75.483999999999995,69.412899999999993,256.05700000000002
2244.0,645.58299999999997,78.413600000000002,-231.63399999999999,-260.18599999999998,-81.746799999999993,78.264099999999999,301.41699999999997
2245.0,750.10599999999999,63.290599999999998,-324.84699999999998,-339.39699999999999,-54.404200000000003,39.021000000000001,361.80200000000002
2246.0,757.70100000000002,85.023099999999999,-325.334,-292.036,-22.091000000000001,4.9251399999999999,372.709
2247.0,663.17399999999998,61.771799999999999,-295.05099999999999,-238.41300000000001,3.7387299999999999,-3.29508,331.363
2248.0,618.08199999999999,24.198,-302.97699999999998,-264.375,8.9108999999999998,4.5895700000000001,308.66399999999999
2249.0,714.46299999999997,28.553899999999999,-342.64800000000002,-339.14699999999999,13.059900000000001,-9.5963999999999992,352.68799999999999
2250.0,834.92700000000002,72.104900000000001,-354.32400000000001,-302.50999999999999,75.943899999999999,-74.517799999999994,408.53800000000001
2251.0,912.39999999999998,-39.284599999999998,-494.88900000000001,-328.76600000000002,160.869,-123.706,427.95699999999999
2252.0,971.81899999999996,-35.2759,-515.15700000000004,-294.76100000000002,202.72200000000001,-136.40000000000001,444.30900000000003
2253.0,989.50900000000001,-97.592600000000004,-575.34900000000005,-300.92700000000002,249.435,-149.101,429.46899999999999
2254.0,962.46299999999997,-66.311099999999996,-519.82600000000002,-214.72800000000001,272.84300000000002,-143.50200000000001,400.346
2255.0,940.76499999999999,-114.682,-553.89099999999996,-226.59999999999999,288.94999999999999,-138.047,374.66300000000001
2256.0,952.72699999999998,-77.155199999999994,-523.76999999999998,-174.292,303.18000000000001,-143.982,367.072
2257.0,976.16999999999996,-155.02699999999999,-600.327,-205.30000000000001,333.90800000000002,-150.96000000000001,351.95800000000003
2258.0,987.25999999999999,-128.267,-569.51499999999999,-132.62799999999999,360.80700000000002,-147.52199999999999,329.673
2259.0,994.75900000000001,-185.87200000000001,-619.41099999999994,-151.44,383.71699999999998,-144.346,306.18799999999999
2260.0,1008.98,-157.81899999999999,-582.83600000000001,-73.984800000000007,410.42899999999997,-140.61799999999999,276.923
2261.0,1021.55,-228.69,-645.16099999999994,-90.223100000000002,433.46499999999997,-130.14500000000001,244.12100000000001
2262.0,1017.47,-194.07300000000001,-598.47900000000004,-19.930099999999999,448.53699999999998,-111.556,208.21899999999999
2263.0,423.63799999999998,29.347100000000001,-87.897400000000005,-71.307400000000001,-132.18100000000001,125.991,149.84
2264.0,441.58199999999999,20.371400000000001,-123.70099999999999,-118.01600000000001,-123.551,118.23999999999999,170.57599999999999
2265.0,452.28399999999999,72.070800000000006,-103.59999999999999,-103.267,-108.607,104.88800000000001,187.41
2266.0,450.49299999999999,65.435299999999998,-134.40700000000001,-135.006,-92.980900000000005,87.596699999999998,194.87700000000001
2267.0,445.02499999999998,82.874799999999993,-130.517,-128.20099999999999,-82.864099999999993,73.526399999999995,196.79300000000001
2268.0,452.00099999999998,65.706000000000003,-149.66999999999999,-155.18100000000001,-73.886799999999994,66.177000000000007,205.90000000000001
2269.0,484.221,134.04599999999999,-99.787499999999994,-109.346,-62.2684,54.502800000000001,228.70699999999999
2270.0,540.34400000000005,95.480000000000004,-184.25399999999999,-184.697,-61.256599999999999,45.444299999999998,255.69800000000001
2271.0,546.68200000000002,128.73400000000001,-181.023,-151.33500000000001,-41.744999999999997,20.651399999999999,261.22699999999998
2272.0,495.90100000000001,103.099,-179.739,-135.16200000000001,-27.216100000000001,13.5871,240.66999999999999
2273.0,495.75299999999999,88.801699999999997,-177.988,-153.21299999999999,-21.382899999999999,20.210799999999999,243.58000000000001
2274.0,592.56700000000001,100.446,-206.399,-196.78100000000001,-8.0381999999999998,8.4646600000000003,294.06999999999999
2275.0,718.02800000000002,103.14700000000001,-280.22500000000002,-242.92500000000001,20.130299999999998,-27.565200000000001,354.96699999999998
2276.0,771.74099999999999,41.092700000000001,-379.0,-272.50099999999998,67.918899999999994,-72.218000000000004,375.50799999999998
2277.0,776.95500000000004,67.273799999999994,-354.75700000000001,-166.274,131.542,-98.3352,359.93000000000001
2278.0,827.58199999999999,3.4419499999999998,-450.55900000000003,-202.411,169.404,-112.53,367.77499999999998
2279.0,837.90899999999999,10.120100000000001,-442.38299999999998,-164.04900000000001,191.72200000000001,-117.637,362.41000000000003
2280.0,791.32500000000005,-39.433,-457.577,-161.732,210.43899999999999,-111.92100000000001,325.11599999999999
2281.0,767.58600000000001,-27.533799999999999,-430.31900000000002,-119.785,220.63800000000001,-106.837,302.93799999999999
2282.0,776.35400000000004,-63.169699999999999,-468.87799999999999,-142.26599999999999,235.36600000000001,-107.729,296.05900000000003
2283.0,809.07399999999996,-44.114400000000003,-461.02600000000001,-95.982799999999997,261.18700000000001,-117.86199999999999,290.625
2284.0,827.42499999999995,-98.998500000000007,-514.48299999999995,-108.504,287.14400000000001,-118.649,274.637
2285.0,835.54899999999998,-90.636399999999995,-502.66399999999999,-63.075000000000003,307.99400000000003,-113.136,253.82400000000001
2286.0,844.428,-143.84100000000001,-552.10599999999999,-79.320499999999996,330.55399999999997,-106.126,226.78
2287.0,851.01599999999996,-126.11499999999999,-530.255,-25.660900000000002,347.93700000000001,-97.397199999999998,198.80600000000001
2288.0,847.27300000000002,-167.119,-565.76599999999996,-43.218299999999999,358.77100000000002,-83.008300000000006,170.67400000000001
2289.0,349.49700000000001,17.362100000000002,-98.0398,-73.146699999999996,-109.322,102.495,120.71299999999999
2290.0,365.94099999999997,51.128900000000002,-96.846900000000005,-69.281700000000001,-104.521,91.867599999999996,138.13300000000001
2291.0,382.35399999999998,25.785399999999999,-145.416,-122.553,-94.499700000000004,82.323800000000006,156.15600000000001
2292.0,390.21199999999999,59.657800000000002,-128.00399999999999,-107.819,-82.796700000000001,72.303399999999996,167.511
2293.0,391.21899999999999,57.7622,-138.803,-119.273,-73.584900000000005,61.768999999999998,173.37899999999999
2294.0,393.13400000000001,83.448800000000006,-122.65600000000001,-99.911699999999996,-66.917199999999994,53.959000000000003,177.08500000000001
2295.0,399.26299999999998,40.240000000000002,-186.148,-151.59100000000001,-57.166899999999998,41.424700000000001,182.42500000000001
2296.0,408.75099999999998,92.873699999999999,-150.00899999999999,-104.87,-51.744599999999998,31.319199999999999,188.00299999999999
2297.0,396.81999999999999,64.310400000000001,-167.35499999999999,-123.59999999999999,-43.565600000000003,28.084499999999998,186.154
2298.0,406.68599999999998,69.984499999999997,-154.64500000000001,-126.083,-39.432299999999998,30.654199999999999,194.12299999999999
2299.0,467.81400000000002,65.563199999999995,-190.34100000000001,-165.661,-35.896599999999999,23.5044,226.23400000000001
2300.0,538.24900000000002,54.8354,-249.446,-196.40299999999999,-17.988700000000001,5.4169600000000004,264.19200000000001
2301.0,619.59100000000001,52.189500000000002,-310.54399999999998,-216.142,10.737399999999999,-19.097799999999999,303.42899999999997
2302.0,689.327,74.379800000000003,-335.61599999999999,-187.81999999999999,58.1995,-54.562100000000001,330.01799999999997
2303.0,710.00300000000004,7.2151100000000001,-417.10199999999998,-196.57599999999999,112.577,-86.560000000000002,320.678
2304.0,689.50699999999995,30.885300000000001,-385.80099999999999,-124.71599999999999,132.57499999999999,-90.447199999999995,297.29199999999997
2305.0,678.54600000000005,9.9963899999999999,-401.85500000000002,-136.61799999999999,135.221,-90.469300000000004,288.83800000000002
2306.0,664.77099999999996,16.558900000000001,-374.08199999999999,-89.486199999999997,157.84299999999999,-92.569199999999995,270.21600000000001
2307.0,650.58799999999997,-18.0733,-393.14299999999997,-98.414400000000001,172.64500000000001,-87.481800000000007,254.22300000000001
2308.0,656.68200000000002,-7.9434699999999996,-382.70999999999998,-69.448499999999996,187.767,-88.6768,245.417
2309.0,668.24900000000002,-47.291800000000002,-424.52699999999999,-86.775800000000004,204.30500000000001,-90.167299999999997,236.625
2310.0,682.88599999999997,-31.510999999999999,-410.93599999999998,-43.4358,224.893,-91.819000000000003,223.405
2311.0,697.70000000000005,-67.853200000000001,-448.52199999999999,-45.729500000000002,246.09999999999999,-90.408500000000004,205.548
2312.0,704.94500000000005,-51.776000000000003,-432.45699999999999,3.4595400000000001,263.15600000000001,-82.998000000000005,182.14699999999999
2313.0,699.38999999999999,-84.446700000000007,-461.93799999999999,-8.1347299999999994,271.42399999999998,-73.248099999999994,158.01499999999999
2314.0,687.11800000000005,-62.9771,-429.721,28.354900000000001,277.024,-61.558599999999998,134.41
2315.0,286.98599999999999,31.963999999999999,-62.728900000000003,-38.373699999999999,-89.083299999999994,86.821299999999994,97.785799999999995
2316.0,300.90300000000002,62.788400000000003,-76.932000000000002,-46.258099999999999,-82.633700000000005,75.309399999999997,110.854
2317.0,321.375,95.734700000000004,-74.2453,-34.6419,-80.592299999999994,64.894400000000005,125.742
2318.0,333.577,77.483900000000006,-104.81399999999999,-62.305100000000003,-75.242500000000007,56.972200000000001,138.15600000000001
2319.0,338.77699999999999,84.301599999999993,-104.13200000000001,-61.979799999999997,-68.195499999999996,52.218200000000003,145.255
2320.0,343.19499999999999,74.280799999999999,-122.617,-81.693600000000004,-61.807899999999997,45.514699999999998,150.24600000000001
2321.0,336.06200000000001,124.22199999999999,-79.248500000000007,-35.538400000000003,-50.780900000000003,32.212600000000002,150.191
2322.0,316.59399999999999,89.269300000000001,-104.42400000000001,-57.493899999999996,-45.189500000000002,26.363299999999999,143.05099999999999
2323.0,328.13600000000002,99.628299999999996,-90.453100000000006,-51.976300000000002,-49.289000000000001,32.664900000000003,149.31700000000001
2324.0,368.53300000000002,85.484800000000007,-125.986,-86.775099999999995,-46.748800000000003,28.867599999999999,172.041
2325.0,418.71600000000001,95.713999999999999,-146.56899999999999,-97.117599999999996,-40.269199999999998,21.5303,199.91900000000001
2326.0,467.11900000000003,89.891300000000001,-190.20400000000001,-112.485,-16.809799999999999,3.4462199999999998,227.00299999999999
2327.0,517.71799999999996,90.530000000000001,-233.38,-112.102,10.0284,-17.308800000000002,249.32499999999999
2328.0,581.471,63.931899999999999,-315.87599999999998,-143.833,43.111499999999999,-45.7288,269.41199999999998
2329.0,613.91499999999996,88.744699999999995,-312.86200000000002,-88.342799999999997,83.387299999999996,-75.013199999999998,269.33300000000003
2330.0,589.32000000000005,51.136099999999999,-329.04700000000003,-83.295500000000004,102.104,-78.690799999999996,248.96000000000001
2331.0,571.04899999999998,67.236400000000003,-300.334,-53.416200000000003,104.38800000000001,-77.332899999999995,238.15100000000001
2332.0,566.09699999999998,25.173400000000001,-330.73599999999999,-69.739999999999995,119.15000000000001,-79.619600000000005,228.73400000000001
2333.0,556.67999999999995,28.318100000000001,-315.47899999999998,-36.218899999999998,137.53700000000001,-76.701099999999997,212.38399999999999
2334.0,554.95299999999997,0.40581699999999998,-340.77300000000002,-45.374600000000001,149.00200000000001,-74.832899999999995,201.40199999999999
2335.0,558.16300000000001,18.2437,-321.714,-8.6976399999999998,161.22999999999999,-72.564099999999996,192.03
2336.0,566.995,-18.673400000000001,-360.97500000000002,-26.218499999999999,176.768,-71.018600000000006,180.708
2337.0,579.28200000000004,-9.9787800000000004,-355.71100000000001,6.97105,194.244,-71.009799999999998,164.89400000000001
2338.0,584.19500000000005,-45.659599999999998,-389.90699999999998,-1.3994200000000001,206.50899999999999,-67.545100000000005,146.011
2339.0,571.95799999999997,-27.221,-359.99700000000001,35.071599999999997,210.523,-58.804600000000001,127.086
2340.0,558.49900000000002,-52.857999999999997,-374.07600000000002,19.7255,215.50800000000001,-48.034399999999998,106.309
2341.0,242.35900000000001,-12.2705,-100.376,-63.177,-82.484800000000007,72.3994,74.682900000000004
2342.0,240.88800000000001,39.8386,-86.320099999999996,-47.7117,-64.469899999999996,68.050899999999999,79.852099999999993
2343.0,263.59800000000001,70.652600000000007,-89.342399999999998,-43.399000000000001,-68.444100000000006,53.788800000000002,93.793499999999995
2344.0,283.64999999999998,79.756100000000004,-93.938500000000005,-43.819699999999997,-69.110600000000005,45.141599999999997,109.60299999999999
2345.0,295.65800000000002,67.287499999999994,-110.129,-58.274799999999999,-63.931600000000003,44.268900000000002,121.52800000000001
2346.0,296.29399999999998,84.699799999999996,-97.293000000000006,-45.235300000000002,-58.0428,38.675600000000003,124.95099999999999
2347.0,283.61599999999999,51.888500000000001,-126.96299999999999,-74.908000000000001,-50.624000000000002,30.715599999999998,121.836
2348.0,276.005,78.132599999999996,-92.838999999999999,-45.707599999999999,-47.863300000000002,28.634699999999999,120.349
2349.0,290.99200000000002,67.559700000000007,-108.54000000000001,-63.784500000000001,-50.687899999999999,28.267700000000001,128.37299999999999
2350.0,319.49900000000002,76.648700000000005,-118.563,-65.372299999999996,-48.219700000000003,24.0181,144.70599999999999
2351.0,351.858,64.434399999999997,-156.63300000000001,-85.587100000000007,-38.064700000000002,16.866599999999998,163.69900000000001
2352.0,381.63099999999997,65.200900000000004,-188.33000000000001,-89.084199999999996,-20.7303,3.8372099999999998,178.27199999999999
2353.0,422.14499999999998,81.923500000000004,-214.34700000000001,-81.163200000000003,-1.2379199999999999,-18.246700000000001,192.482
2354.0,478.11700000000002,118.301,-228.636,-44.795499999999997,26.610399999999998,-48.4373,207.40600000000001
2355.0,507.78699999999998,79.2988,-286.35199999999998,-67.945400000000006,48.435200000000002,-61.530299999999997,214.40700000000001
2356.0,502.99400000000003,76.917599999999993,-275.57100000000003,-44.918700000000001,66.931899999999999,-63.887999999999998,209.10300000000001
2357.0,493.51400000000001,44.536000000000001,-294.44299999999998,-56.965899999999998,78.686899999999994,-64.630399999999995,201.369
2358.0,486.30799999999999,61.008200000000002,-270.20100000000002,-19.338000000000001,90.523200000000003,-65.383600000000001,191.08799999999999
2359.0,478.90600000000001,31.994599999999998,-290.541,-20.616900000000001,105.61,-64.732299999999995,176.53299999999999
2360.0,473.55099999999999,40.3703,-275.72300000000001,6.3788600000000004,116.301,-61.637700000000002,165.27699999999999
2361.0,474.37700000000001,6.6276599999999997,-306.79300000000001,-11.680400000000001,126.697,-59.686799999999998,156.376
2362.0,478.33199999999999,24.234300000000001,-289.36799999999999,22.550599999999999,138.73400000000001,-57.002499999999998,145.477
2363.0,484.65100000000001,-2.0857199999999998,-317.803,14.3415,151.17599999999999,-55.343499999999999,131.65799999999999
2364.0,483.70800000000003,17.1434,-293.44499999999999,50.188499999999998,159.447,-51.439700000000002,118.244
2365.0,476.01600000000002,-11.823700000000001,-314.52199999999999,31.452100000000002,164.29499999999999,-45.372999999999998,104.622
2366.0,476.721,6.3406599999999997,-294.63900000000001,62.852200000000003,172.405,-39.041400000000003,87.042599999999993
2367.0,253.143,29.564800000000002,-87.5929,-27.874600000000001,-90.508799999999994,68.889099999999999,70.646600000000007
2368.0,229.5,70.168400000000005,-55.364600000000003,-1.9895499999999999,-66.562600000000003,67.6815,67.648700000000005
2369.0,219.488,101.601,-29.069299999999998,10.9933,-64.247500000000002,47.896999999999998,71.797399999999996
2370.0,238.392,95.587299999999999,-57.963200000000001,-10.9941,-61.354399999999998,40.260300000000001,85.835499999999996
2371.0,255.303,87.4298,-76.866299999999995,-19.003499999999999,-61.270299999999999,38.104500000000002,97.855099999999993
2372.0,257.62599999999998,72.615399999999994,-89.438599999999994,-32.229599999999998,-58.295099999999998,35.650100000000002,103.441
2373.0,252.78899999999999,97.860200000000006,-60.100000000000001,-6.7610400000000004,-52.236499999999999,31.291499999999999,105.527
2374.0,251.28,76.4649,-80.810900000000004,-28.823399999999999,-48.575800000000001,27.5657,107.271
2375.0,261.46300000000002,87.141800000000003,-77.735600000000005,-23.333300000000001,-47.007300000000001,23.932400000000001,113.785
2376.0,277.51499999999999,81.260499999999993,-97.420100000000005,-35.0261,-44.263100000000001,19.401599999999998,122.932
2377.0,293.37099999999998,96.577699999999993,-98.447000000000003,-24.8386,-38.037500000000001,14.6304,131.63900000000001
2378.0,316.03699999999998,99.081800000000001,-123.958,-30.8505,-23.401599999999998,0.40866799999999998,142.11099999999999
2379.0,359.88600000000002,120.98699999999999,-148.37799999999999,-21.304500000000001,-4.5339999999999998,-27.357500000000002,155.708
2380.0,414.25700000000001,102.907,-214.03399999999999,-39.493200000000002,17.569199999999999,-50.962699999999998,170.58099999999999
2381.0,437.37900000000002,107.968,-219.154,-21.315899999999999,28.178599999999999,-53.219200000000001,181.649
2382.0,427.72300000000001,80.762900000000002,-234.59,-22.084800000000001,44.286099999999998,-52.363199999999999,174.399
2383.0,421.35700000000003,88.069000000000003,-221.26300000000001,0.79207899999999998,54.0854,-52.103000000000002,167.64599999999999
2384.0,418.935,56.7746,-246.97200000000001,-12.4275,66.617599999999996,-54.776499999999999,160.375
2385.0,412.63400000000001,58.908299999999997,-235.852,14.559100000000001,80.631600000000006,-55.5501,148.017
2386.0,406.61000000000001,36.843699999999998,-250.95599999999999,11.5084,91.091399999999993,-53.136299999999999,136.369
2387.0,406.517,52.142400000000002,-234.45500000000001,40.706699999999998,99.587900000000005,-51.301499999999997,127.3
2388.0,408.57999999999998,25.439599999999999,-260.23000000000002,29.227699999999999,108.812,-49.1706,117.56
2389.0,407.358,32.298699999999997,-249.91300000000001,51.718699999999998,117.825,-44.711100000000002,104.553
2390.0,402.90300000000002,7.7677500000000004,-270.56900000000002,33.9786,122.55800000000001,-38.7986,95.393199999999993
2391.0,403.09199999999998,22.329000000000001,-253.798,54.182600000000001,129.078,-36.262900000000002,86.599299999999999
2392.0,412.30399999999997,-1.3515699999999999,-277.16500000000002,48.818600000000004,139.97999999999999,-34.265999999999998,71.323899999999995
2393.0,268.50999999999999,49.2682,-104.45099999999999,-18.0349,-94.627300000000005,68.7821,66.403300000000002
2394.0,260.94,74.067099999999996,-74.588200000000001,-0.47022999999999998,-86.673299999999998,67.878799999999998,71.078000000000003
2395.0,208.006,50.977800000000002,-65.366399999999999,-17.320699999999999,-67.638199999999998,44.076000000000001,66.980199999999996
2396.0,202.88399999999999,70.474900000000005,-58.431899999999999,-4.8357999999999999,-55.830300000000001,37.972900000000003,70.485500000000002
2397.0,216.358,62.618400000000001,-77.8292,-20.763300000000001,-58.043599999999998,34.639299999999999,77.753600000000006
2398.0,221.64400000000001,78.709999999999994,-64.563999999999993,-5.9243100000000002,-56.882100000000001,31.2959,83.499399999999994
2399.0,221.423,43.056800000000003,-98.183999999999997,-39.445599999999999,-53.026499999999999,29.0992,87.462900000000005
2400.0,222.11699999999999,69.502899999999997,-73.497699999999995,-14.9765,-48.009999999999998,25.3123,91.275599999999997
2401.0,229.809,58.6586,-92.8292,-30.420200000000001,-44.238300000000002,21.235900000000001,96.951700000000002
2402.0,244.148,72.784400000000005,-91.901899999999998,-23.792400000000001,-42.326900000000002,17.165299999999998,104.572
2403.0,256.15800000000002,62.063200000000002,-113.661,-40.425899999999999,-37.3645,12.234999999999999,111.962
2404.0,275.16300000000001,79.074100000000001,-124.452,-32.680900000000001,-22.4147,-3.31785,119.732
2405.0,333.94299999999998,108.964,-157.53800000000001,-21.642700000000001,-5.3717899999999998,-33.744599999999998,135.08199999999999
2406.0,370.577,131.221,-166.95400000000001,6.8665599999999998,6.7137099999999998,-47.351700000000001,145.11199999999999
2407.0,366.23899999999998,95.195800000000006,-192.542,-10.8383,10.388,-42.8705,146.93199999999999
2408.0,360.43599999999998,94.404600000000002,-186.59299999999999,5.3791399999999996,23.813300000000002,-43.770400000000002,142.12200000000001
2409.0,356.64100000000002,65.871200000000002,-209.245,-7.09253,34.392800000000001,-43.9313,137.738
2410.0,355.87799999999999,81.502899999999997,-189.72300000000001,24.762499999999999,45.976199999999999,-46.343200000000003,132.251
2411.0,353.17099999999999,56.842199999999998,-208.88200000000001,19.794599999999999,59.528700000000001,-47.295200000000001,122.815
2412.0,350.791,65.647199999999998,-195.739,45.497,69.840699999999998,-46.536999999999999,113.229
2413.0,350.471,36.294600000000003,-222.291,29.741299999999999,78.091300000000004,-45.461100000000002,105.072
2414.0,349.185,52.040300000000002,-202.005,60.417999999999999,86.033100000000005,-43.252299999999998,95.524900000000002
2415.0,341.76900000000001,29.2422,-217.904,49.6312,91.932199999999995,-37.466999999999999,83.075000000000003
2416.0,337.60899999999998,50.444499999999998,-194.46100000000001,75.095799999999997,95.222399999999993,-32.565300000000001,75.216800000000006
2417.0,344.767,25.1846,-223.06299999999999,58.3063,101.59999999999999,-30.970700000000001,68.490200000000002
2418.0,353.99799999999999,42.827599999999997,-208.11199999999999,90.582800000000006,110.648,-27.8978,54.820900000000002
2419.0,241.88499999999999,95.398799999999994,-50.493499999999997,20.170200000000001,-84.374600000000001,63.8872,54.582299999999996
2420.0,260.46899999999999,87.270799999999994,-71.203400000000002,2.2507899999999998,-92.111500000000007,63.775500000000001,61.425600000000003
2421.0,216.46000000000001,86.463800000000006,-45.686399999999999,13.9617,-74.840500000000006,42.985199999999999,61.5608
2422.0,167.46199999999999,57.347900000000003,-49.747799999999998,6.6122300000000003,-48.952100000000002,29.2928,56.775300000000001
2423.0,173.86500000000001,70.992800000000003,-44.416200000000003,12.067600000000001,-48.822400000000002,27.733799999999999,59.943899999999999
2424.0,189.09,63.628500000000003,-60.866599999999998,-3.9764900000000001,-53.055700000000002,27.6051,66.761700000000005
2425.0,192.19800000000001,83.496600000000001,-40.049500000000002,17.8888,-51.1417,25.3779,72.339600000000004
2426.0,194.84800000000001,64.696299999999994,-63.041699999999999,-2.39933,-45.837000000000003,22.436199999999999,77.253699999999995
2427.0,202.24799999999999,75.529899999999998,-61.262900000000002,3.7747600000000001,-41.630899999999997,19.003699999999998,82.817400000000006
2428.0,213.59999999999999,74.402299999999997,-75.129599999999996,-4.3713199999999999,-39.116500000000002,14.5618,88.718199999999996
2429.0,229.607,91.638400000000004,-72.160399999999996,3.3944999999999999,-36.706800000000001,10.4567,96.930199999999999
2430.0,264.22300000000001,104.95,-102.64700000000001,-2.3432900000000001,-22.445900000000002,-9.0354799999999997,109.122
2431.0,315.06999999999999,132.375,-132.42599999999999,15.275600000000001,-5.8553300000000004,-36.2864,118.873
2432.0,325.06200000000001,102.938,-167.24199999999999,-2.8652299999999999,-3.3086600000000002,-38.728400000000001,123.19
2433.0,313.74599999999998,110.423,-143.97800000000001,22.047899999999998,2.19828,-36.374600000000001,121.66200000000001
2434.0,307.637,92.535799999999995,-155.267,16.6126,10.224600000000001,-37.439700000000002,117.98999999999999
2435.0,301.02300000000002,98.304599999999994,-142.13200000000001,38.886099999999999,21.1496,-37.847200000000001,112.43000000000001
2436.0,302.798,71.898799999999994,-168.292,26.201899999999998,31.206199999999999,-39.658799999999999,108.387
2437.0,303.81,75.7179,-163.69399999999999,45.975999999999999,42.979300000000002,-40.434899999999999,101.279
2438.0,303.61000000000001,57.409500000000001,-179.22999999999999,42.489899999999999,52.590299999999999,-40.392499999999998,93.625299999999996
2439.0,301.928,69.737200000000001,-162.59200000000001,68.280100000000004,60.609299999999998,-38.850200000000001,85.579599999999999
2440.0,298.13299999999998,47.814999999999998,-179.31,57.870600000000003,66.858599999999996,-36.027200000000001,76.611800000000002
2441.0,290.84699999999998,57.044600000000003,-163.221,75.325599999999994,71.072199999999995,-31.726500000000001,67.183599999999998
2442.0,289.017,37.8735,-180.65899999999999,62.043700000000001,74.6965,-28.815200000000001,59.660600000000002
2443.0,297.77199999999999,50.625100000000003,-172.56899999999999,85.212299999999999,80.065799999999996,-27.596699999999998,52.980200000000004
2444.0,305.41699999999997,30.392800000000001,-195.71000000000001,76.829499999999996,86.882800000000003,-23.406199999999998,41.680599999999998
2445.0,214.018,69.382199999999997,-62.247500000000002,3.45478,-76.230800000000002,55.264299999999999,45.508899999999997
2446.0,226.684,91.543099999999995,-53.783999999999999,9.8322000000000003,-81.5154,54.1282,47.399099999999997
2447.0,209.42400000000001,80.977000000000004,-54.017099999999999,-1.6805600000000001,-75.568399999999997,43.144799999999996,49.142499999999998
2448.0,149.02199999999999,68.483199999999997,-38.416699999999999,10.8324,-41.092799999999997,21.283300000000001,48.970999999999997
2449.0,142.98599999999999,48.021299999999997,-51.659799999999997,2.2683,-38.675600000000003,19.722799999999999,49.4024
2450.0,158.90700000000001,63.788800000000002,-39.887799999999999,14.206300000000001,-47.542299999999997,23.996400000000001,53.778799999999997
2451.0,164.41999999999999,40.547400000000003,-67.729299999999995,-11.443099999999999,-46.780900000000003,21.502199999999998,58.548999999999999
2452.0,170.25200000000001,62.3767,-53.1008,8.0838099999999997,-43.893500000000003,19.318999999999999,63.437399999999997
2453.0,176.38399999999999,51.378399999999999,-71.659999999999997,-4.8984300000000003,-39.868200000000002,16.349699999999999,68.700999999999993
2454.0,189.38999999999999,65.330299999999994,-70.511499999999998,3.0168400000000002,-36.760300000000001,14.2234,76.018699999999995
2455.0,224.25200000000001,65.375200000000007,-104.633,-18.469999999999999,-36.117899999999999,7.8781800000000004,90.390000000000001
2456.0,268.56700000000001,104.032,-120.569,-2.1531899999999999,-26.000499999999999,-14.8025,102.586
2457.0,282.12200000000001,108.024,-137.34,9.4853900000000007,-11.815300000000001,-32.037799999999997,100.598
2458.0,273.221,120.54600000000001,-112.542,34.637900000000002,-10.722899999999999,-30.7973,99.621600000000001
2459.0,268.28100000000001,88.2804,-136.89500000000001,15.2837,-3.8271799999999998,-31.853899999999999,98.811499999999995
2460.0,262.85300000000001,96.344300000000004,-121.714,34.458599999999997,2.2235299999999998,-32.270899999999997,96.726200000000006
2461.0,257.44400000000002,72.123099999999994,-140.79900000000001,24.438300000000002,12.1191,-33.396500000000003,91.349999999999994
2462.0,257.98099999999999,88.753699999999995,-123.23999999999999,53.027700000000003,20.337,-34.3399,87.809700000000007
2463.0,260.49799999999999,68.593800000000002,-143.929,46.417000000000002,30.863800000000001,-35.876600000000003,82.0471
2464.0,260.35899999999998,79.124700000000004,-131.31800000000001,70.293800000000005,39.003900000000002,-35.097099999999998,75.3245
2465.0,258.346,53.270000000000003,-154.28899999999999,55.311,45.261600000000001,-33.025100000000002,67.864000000000004
2466.0,255.47200000000001,70.081999999999994,-134.071,80.522400000000005,49.839199999999998,-30.177600000000002,61.000500000000002
2467.0,253.07400000000001,49.802700000000002,-150.99100000000001,66.467799999999997,53.773400000000002,-27.551200000000001,55.232999999999997
2468.0,253.86799999999999,68.596900000000005,-131.00399999999999,92.224500000000006,58.220300000000002,-25.8018,48.882199999999997
2469.0,258.75,45.291800000000002,-155.31800000000001,78.906400000000005,63.037300000000002,-24.226500000000001,41.439500000000002
2470.0,263.75,62.947499999999998,-138.94399999999999,106.405,68.513499999999993,-20.158000000000001,30.771000000000001
2471.0,192.185,79.850700000000003,-44.6404,22.002400000000002,-69.080699999999993,47.272599999999997,37.735100000000003
2472.0,189.89400000000001,87.148099999999999,-42.503500000000003,19.713100000000001,-67.625799999999998,41.147500000000001,39.3568
2473.0,194.983,91.534599999999998,-36.180900000000001,21.554099999999998,-71.774699999999996,41.398600000000002,41.436599999999999
2474.0,165.26499999999999,78.186999999999998,-46.118200000000002,11.2096,-48.213999999999999,24.1647,48.218200000000003
2475.0,128.25700000000001,57.546599999999998,-36.439599999999999,21.736999999999998,-33.623100000000001,13.9474,43.6828
2476.0,129.80500000000001,48.688499999999998,-37.590299999999999,16.347999999999999,-39.7973,18.532900000000001,42.300199999999997
2477.0,142.22800000000001,73.182199999999995,-23.5944,30.635999999999999,-42.257399999999997,18.501799999999999,47.561700000000002
2478.0,150.02699999999999,64.438999999999993,-40.116999999999997,17.7559,-41.856499999999997,16.240400000000001,52.378799999999998
2479.0,156.88900000000001,69.856200000000001,-41.132399999999997,21.5931,-40.078899999999997,14.158300000000001,57.453000000000003
2480.0,176.59399999999999,67.529499999999999,-61.565600000000003,13.462,-37.745199999999997,13.5029,67.713499999999996
2481.0,222.53999999999999,93.365799999999993,-86.322500000000005,13.5952,-35.962200000000003,3.2580800000000001,84.251199999999997
2482.0,254.95400000000001,116.562,-106.32299999999999,21.052600000000002,-25.167899999999999,-19.025400000000001,90.376099999999994
2483.0,242.59299999999999,118.089,-99.042299999999997,37.331400000000002,-12.767300000000001,-28.771100000000001,81.130300000000005
2484.0,226.85599999999999,97.667500000000004,-101.87,31.062899999999999,-11.453900000000001,-27.646999999999998,77.062200000000004
2485.0,225.84,108.64400000000001,-87.204400000000007,49.107100000000003,-8.2767800000000005,-28.686800000000002,77.649299999999997
2486.0,223.86799999999999,95.693899999999999,-95.991699999999994,44.788800000000002,-4.9599399999999996,-28.6435,77.470200000000006
2487.0,219.59200000000001,100.88500000000001,-86.857600000000005,62.590699999999998,3.9181300000000001,-30.2638,72.807199999999995
2488.0,219.39699999999999,80.183599999999998,-106.218,53.969099999999997,12.0533,-31.395800000000001,68.789500000000004
2489.0,221.22300000000001,84.874300000000005,-102.256,69.926199999999994,19.709900000000001,-31.922999999999998,63.960900000000002
2490.0,221.58699999999999,69.896000000000001,-115.91800000000001,65.900899999999993,26.545500000000001,-31.006799999999998,58.600900000000003
2491.0,220.874,80.280500000000004,-103.075,85.188100000000006,32.166400000000003,-29.307300000000001,53.420900000000003
2492.0,219.91499999999999,63.9422,-117.199,75.512600000000006,36.371000000000002,-27.334399999999999,48.685699999999997
2493.0,221.03200000000001,71.750100000000003,-108.80200000000001,89.852500000000006,39.6404,-25.8553,44.498899999999999
2494.0,222.52000000000001,55.839300000000001,-123.676,81.631200000000007,43.854199999999999,-23.6934,38.903599999999997
2495.0,224.161,64.632000000000005,-113.715,97.831900000000005,48.506399999999999,-21.086300000000001,31.751999999999999
2496.0,225.29599999999999,50.9375,-126.598,90.233199999999997,52.692100000000003,-17.3584,22.254999999999999
2497.0,164.77199999999999,68.852599999999995,-45.148499999999999,18.254799999999999,-59.947400000000002,38.5428,26.607199999999999
2498.0,163.625,79.131500000000003,-34.275199999999998,26.769500000000001,-60.234999999999999,34.604500000000002,29.615200000000002
2499.0,179.62299999999999,69.329700000000003,-53.724200000000003,5.4810999999999996,-67.029899999999998,35.812399999999997,34.524299999999997
2500.0,161.83799999999999,88.016499999999994,-34.026299999999999,21.4041,-53.9651,25.628699999999998,37.781199999999998
2501.0,110.58799999999999,41.886400000000002,-45.498899999999999,7.3647099999999996,-28.915500000000002,9.9360900000000001,34.708399999999997
2502.0,106.73999999999999,61.6875,-17.476099999999999,33.668300000000002,-31.162800000000001,11.8985,32.769100000000002
2503.0,123.551,39.718299999999999,-47.788699999999999,3.8778299999999999,-38.822299999999998,14.9862,37.700000000000003
2504.0,132.80699999999999,64.301299999999998,-31.8583,23.976500000000001,-38.7027,13.3895,43.247599999999998
2505.0,145.661,56.783999999999999,-51.087600000000002,10.032,-39.816400000000002,11.008699999999999,49.392200000000003
2506.0,162.589,73.602199999999996,-53.342199999999998,19.640799999999999,-37.3795,7.3778800000000002,57.456400000000002
2507.0,190.07900000000001,79.468199999999996,-87.725999999999999,8.6925100000000004,-29.408799999999999,-5.5152200000000002,64.069000000000003
2508.0,215.80199999999999,114.477,-85.201400000000007,32.171100000000003,-22.527799999999999,-22.195499999999999,66.730800000000002
2509.0,207.59100000000001,103.41500000000001,-87.1357,32.602899999999998,-16.705300000000001,-26.6677,64.012100000000004
2510.0,193.49700000000001,107.97,-66.894400000000005,53.426600000000001,-11.166600000000001,-24.800999999999998,61.119900000000001
2511.0,195.88200000000001,84.660300000000007,-89.520700000000005,36.542499999999997,-10.222099999999999,-25.280799999999999,62.890500000000003
2512.0,191.81999999999999,95.037800000000004,-71.244,53.186,-9.1831899999999997,-26.2637,63.326000000000001
2513.0,185.84200000000001,79.657899999999998,-82.647900000000007,47.756700000000002,-0.729572,-29.038,57.222000000000001
2514.0,186.88499999999999,92.036000000000001,-69.644599999999997,72.892399999999995,5.7107999999999999,-30.224799999999998,53.7759
2515.0,187.75899999999999,76.506299999999996,-84.623000000000005,67.232200000000006,12.5924,-30.2685,49.9161
2516.0,188.68199999999999,85.737200000000001,-74.618200000000002,85.549599999999998,18.561599999999999,-29.267099999999999,45.876100000000001
2517.0,189.88999999999999,65.133300000000006,-94.857200000000006,72.603899999999996,22.889399999999998,-27.674900000000001,42.193100000000001
2518.0,191.13300000000001,79.507900000000006,-80.2453,93.124499999999998,26.1751,-26.044499999999999,38.985599999999998
2519.0,192.785,63.051600000000001,-96.013499999999993,83.410399999999996,29.6435,-24.779399999999999,35.276200000000003
2520.0,194.40100000000001,77.811999999999998,-80.645200000000003,105.605,33.513199999999998,-22.204699999999999,29.765000000000001
2521.0,195.22300000000001,58.312899999999999,-99.781499999999994,91.805300000000003,37.100299999999997,-18.7546,22.488099999999999
2522.0,192.80799999999999,73.961399999999998,-81.087400000000002,110.953,39.790999999999997,-14.5291,14.6935
2523.0,138.101,75.857200000000006,-23.3414,32.642899999999997,-50.934199999999997,31.248999999999999,17.685600000000001
2524.0,140.63,82.895499999999998,-18.5198,35.989699999999999,-52.366700000000002,28.995799999999999,20.811800000000002
2525.0,151.93700000000001,96.745599999999996,-21.733699999999999,32.7622,-54.124499999999998,26.385100000000001,23.504899999999999
2526.0,141.26400000000001,101.15000000000001,-7.2445899999999996,38.112499999999997,-51.079099999999997,22.3352,24.095199999999998
2527.0,102.185,71.136200000000002,-14.419499999999999,28.0139,-28.852900000000002,9.6642600000000005,26.920200000000001
2528.0,95.150000000000006,61.716799999999999,-14.555,31.5871,-26.979399999999998,8.3987599999999993,27.270800000000001
2529.0,109.077,68.415700000000001,-11.5421,36.770000000000003,-35.243899999999996,11.8279,31.023599999999998
2530.0,119.745,67.918800000000005,-21.450299999999999,31.915199999999999,-36.406199999999998,10.9816,36.218800000000002
2531.0,135.59999999999999,75.580200000000005,-31.9084,30.5654,-36.945500000000003,7.6745400000000004,42.3245
2532.0,152.47200000000001,89.4315,-40.4741,34.107399999999998,-34.5595,1.4139900000000001,47.991100000000003
2533.0,165.822,111.09399999999999,-41.593699999999998,45.251300000000001,-28.548100000000002,-9.1528100000000006,49.007899999999999
2534.0,179.91399999999999,123.17400000000001,-47.126399999999997,52.7286,-23.786899999999999,-20.578800000000001,49.777000000000001
2535.0,178.66,113.52500000000001,-51.410600000000002,51.648699999999998,-20.828499999999998,-24.440799999999999,51.637099999999997
2536.0,166.11500000000001,97.495800000000003,-55.495100000000001,49.586500000000001,-12.607100000000001,-23.431100000000001,48.6434
2537.0,160.04900000000001,95.801900000000003,-48.6571,58.715299999999999,-11.673,-22.148700000000002,47.7806
2538.0,161.989,95.0518,-48.375799999999998,61.494100000000003,-11.036300000000001,-25.335699999999999,48.5274
2539.0,162.125,103.116,-41.0944,76.335700000000003,-3.4938199999999999,-28.869,45.076700000000002
2540.0,160.80500000000001,85.481200000000001,-54.575899999999997,72.175899999999999,2.3231600000000001,-28.990100000000002,42.392400000000002
2541.0,162.28399999999999,89.670199999999994,-51.001300000000001,84.1905,7.5890399999999998,-28.955300000000001,39.159500000000001
2542.0,163.23599999999999,76.828400000000002,-63.810699999999997,79.123999999999995,11.925800000000001,-27.527200000000001,35.7699
2543.0,165.27199999999999,86.950999999999993,-54.013399999999997,96.272199999999998,15.1431,-26.395499999999998,32.988999999999997
2544.0,166.93899999999999,71.872900000000001,-68.807400000000001,87.529300000000006,18.289999999999999,-24.568100000000001,30.635100000000001
2545.0,169.26300000000001,79.212800000000001,-61.9726,100.825,21.986899999999999,-22.757300000000001,27.044599999999999
2546.0,170.44800000000001,64.523499999999999,-76.220100000000002,91.791799999999995,25.447099999999999,-20.219999999999999,22.310700000000001
2547.0,170.08199999999999,74.0899,-65.137200000000007,106.554,28.538,-17.032399999999999,14.7918
2548.0,167.56899999999999,61.8279,-75.184100000000001,96.515100000000004,29.591999999999999,-12.873799999999999,8.7000799999999998
2549.0,110.175,53.248600000000003,-25.724499999999999,16.956099999999999,-41.491700000000002,25.767199999999999,9.9029600000000002
2550.0,115.41200000000001,90.443700000000007,1.26918,43.326999999999998,-41.817,23.369599999999998,12.449400000000001
2551.0,124.13200000000001,74.3429,-28.669599999999999,17.291599999999999,-43.077199999999998,20.3475,14.2646
2552.0,132.202,95.181100000000001,-11.257999999999999,37.609900000000003,-47.716500000000003,19.4404,18.2301
2553.0,115.297,67.737200000000001,-30.045999999999999,15.6371,-36.881500000000003,11.5771,23.303000000000001
2554.0,87.336799999999997,65.831599999999995,-5.1460100000000004,36.181800000000003,-27.484100000000002,6.5657199999999998,21.7547
2555.0,94.506100000000004,43.994999999999997,-28.377199999999998,16.371400000000001,-31.3889,9.3570499999999992,23.884
2556.0,111.211,67.314700000000002,-19.148599999999998,32.811700000000002,-34.8996,8.1972900000000006,30.709099999999999
2557.0,126.57599999999999,64.770399999999995,-39.208799999999997,21.412700000000001,-35.256399999999999,5.4057899999999997,36.612499999999997
2558.0,149.48599999999999,86.238600000000005,-45.471899999999998,28.814299999999999,-35.280500000000004,-0.90633399999999997,42.924799999999998
2559.0,156.47399999999999,85.243200000000002,-59.018999999999998,22.466799999999999,-30.4466,-10.8535,43.410600000000002
2560.0,146.191,100.471,-38.973799999999997,44.983600000000003,-21.101099999999999,-18.059200000000001,37.733899999999998
2561.0,148.41900000000001,94.600899999999996,-45.299399999999999,43.595300000000002,-20.136900000000001,-21.7867,38.078000000000003
2562.0,142.43100000000001,105.913,-28.6463,66.433400000000006,-12.488799999999999,-22.3154,36.388199999999998
2563.0,130.267,79.422300000000007,-39.8489,51.354399999999998,-11.6374,-19.111000000000001,35.597999999999999
2564.0,136.87899999999999,99.003699999999995,-24.409099999999999,70.247600000000006,-12.1684,-24.489999999999998,36.439599999999999
2565.0,143.221,82.381100000000004,-45.637900000000002,60.8964,-6.7597399999999999,-29.013100000000001,35.354700000000001
2566.0,141.14099999999999,94.641300000000001,-29.745999999999999,84.945599999999999,-1.14053,-28.063600000000001,32.628999999999998
2567.0,142.01900000000001,79.899799999999999,-44.5137,77.176699999999997,2.6265200000000002,-27.656400000000001,30.0382
2568.0,143.422,90.286900000000003,-33.903500000000001,94.819000000000003,6.4191000000000003,-26.664899999999999,27.7285
2569.0,143.97300000000001,71.662400000000005,-51.285200000000003,82.821799999999996,9.5482800000000001,-24.9832,25.622800000000002
2570.0,146.15199999999999,83.729600000000005,-39.8506,100.66,12.801399999999999,-23.0307,23.284400000000002
2571.0,148.45400000000001,69.072299999999998,-55.884799999999998,90.777100000000004,15.6579,-20.807300000000001,20.055199999999999
2572.0,149.375,81.648099999999999,-43.239800000000002,107.94,18.241199999999999,-18.2684,15.7241
2573.0,148.53200000000001,66.559799999999996,-56.528300000000002,96.621600000000001,21.015000000000001,-15.289300000000001,9.6753900000000002
2574.0,148.708,78.296300000000002,-43.967399999999998,110.809,23.080500000000001,-12.3889,4.9991000000000003
2575.0,82.556600000000003,78.471299999999999,19.7728,47.700200000000002,-30.802499999999998,21.265499999999999,2.9653399999999999
2576.0,96.052199999999999,80.730000000000004,3.6438999999999999,34.981299999999997,-33.085799999999999,21.120699999999999,5.6310399999999996
2577.0,104.562,100.98999999999999,19.0962,47.674500000000002,-39.251100000000001,15.806800000000001,11.235300000000001
2578.0,122.324,88.128699999999995,-7.9061599999999999,26.707799999999999,-44.003900000000002,19.770299999999999,17.173100000000002
2579.0,120.59099999999999,103.938,3.3239299999999998,44.046999999999997,-41.277700000000003,14.6381,19.179600000000001
2580.0,89.760400000000004,63.702100000000002,-11.6533,28.606999999999999,-30.127199999999998,3.4757099999999999,18.549499999999998
2581.0,83.984200000000001,79.094300000000004,13.581899999999999,55.882300000000001,-28.7683,7.5263499999999999,19.066199999999998
2582.0,102.404,61.663800000000002,-21.415299999999998,30.126000000000001,-32.520499999999998,6.2614299999999998,25.295400000000001
2583.0,124.19199999999999,95.546000000000006,-12.613799999999999,50.042200000000001,-34.276400000000002,2.1647599999999998,31.820399999999999
2584.0,137.846,91.010199999999998,-34.595500000000001,36.180799999999998,-33.527500000000003,-4.4884899999999996,34.988500000000002
2585.0,134.51900000000001,123.249,-2.3365399999999998,65.683400000000006,-29.684699999999999,-12.752599999999999,32.186500000000002
2586.0,119.268,104.227,-11.116400000000001,55.249499999999998,-19.901800000000001,-17.7882,26.037199999999999
2587.0,117.04600000000001,111.45099999999999,0.491207,69.658199999999994,-19.165199999999999,-20.227,25.4893
2588.0,113.27,84.860500000000002,-22.029199999999999,53.388100000000001,-14.546799999999999,-19.063700000000001,26.161000000000001
2589.0,109.354,87.223100000000002,-15.492699999999999,64.975700000000003,-9.40306,-16.9941,26.2439
2590.0,121.465,94.825699999999998,-17.476400000000002,70.1738,-9.3605300000000007,-24.1938,27.591000000000001
2591.0,128.13499999999999,107.926,-5.5345500000000003,90.6494,-8.8824500000000004,-28.583400000000001,28.978100000000001
2592.0,126.178,87.962100000000007,-22.977399999999999,79.904200000000003,-3.4797600000000002,-28.050799999999999,26.112200000000001
2593.0,126.759,95.008799999999994,-15.391400000000001,94.189999999999998,0.21963299999999999,-27.2349,24.110399999999998
2594.0,126.816,78.981899999999996,-30.339600000000001,85.087500000000006,3.3940199999999998,-25.3432,22.0989
2595.0,127.151,90.285300000000007,-18.4711,102.316,6.4531900000000002,-23.245899999999999,19.495799999999999
2596.0,129.30199999999999,74.4161,-35.626100000000001,91.352500000000006,8.7073499999999999,-21.290700000000001,17.046500000000002
2597.0,130.905,84.410300000000007,-26.278500000000001,105.65000000000001,10.8537,-19.0349,14.6251
2598.0,131.01900000000001,69.128100000000003,-40.869199999999999,93.972999999999999,13.193099999999999,-16.613600000000002,11.0486
2599.0,131.07400000000001,80.667400000000001,-28.505600000000001,108.75,15.4366,-14.0703,5.7218999999999998
2600.0,133.13200000000001,67.001099999999994,-42.801600000000001,98.048199999999994,17.2287,-11.5686,0.90115000000000001
2601.0,65.683400000000006,51.278100000000002,5.3071299999999999,26.140000000000001,-24.5885,17.069600000000001,-3.50129
2602.0,83.880799999999994,92.855500000000006,30.392299999999999,54.369300000000003,-30.1921,20.9648,-1.13361
2603.0,95.697699999999998,65.624600000000001,-3.6714000000000002,14.8439,-40.168700000000001,10.7659,6.0008600000000003
2604.0,107.43600000000001,94.591099999999997,11.588200000000001,35.920999999999999,-40.193600000000004,18.212,8.9249399999999994
2605.0,113.488,76.527199999999993,-17.669499999999999,17.323599999999999,-39.465299999999999,16.823399999999999,13.6212
2606.0,102.172,88.297399999999996,4.93201,44.6706,-35.8001,1.1409,21.402799999999999
2607.0,81.698700000000002,42.1479,-22.077200000000001,16.9391,-26.820900000000002,6.7957700000000001,20.303799999999999
2608.0,92.924199999999999,73.650899999999993,-4.7845800000000001,41.040300000000002,-29.195499999999999,4.7632899999999996,21.2286
2609.0,117.64400000000001,76.440799999999996,-31.050000000000001,30.526299999999999,-32.174100000000003,-0.86451299999999998,25.854299999999999
2610.0,121.238,85.620099999999994,-27.648399999999999,39.4741,-29.886199999999999,-6.2400099999999998,26.895299999999999
2611.0,115.173,93.863699999999994,-13.825699999999999,40.529299999999999,-27.966899999999999,-13.8055,23.442299999999999
2612.0,102.18600000000001,101.023,3.5758100000000002,52.492899999999999,-18.972899999999999,-19.545300000000001,19.095400000000001
2613.0,90.221100000000007,91.506799999999998,7.3227599999999997,55.901800000000001,-15.0504,-20.167200000000001,17.154900000000001
2614.0,83.245999999999995,96.266400000000004,18.790700000000001,70.904200000000003,-13.086499999999999,-16.8706,17.1416
2615.0,87.592600000000004,79.109300000000005,-3.4950899999999998,58.886200000000002,-10.0883,-16.499099999999999,18.1525
2616.0,104.898,96.424000000000007,-0.79335500000000003,74.653499999999994,-9.4307800000000004,-23.7652,20.279
2617.0,115.005,83.183000000000007,-18.429500000000001,68.102400000000003,-8.9346399999999999,-28.2988,22.833200000000001
2618.0,116.556,96.971000000000004,-4.8976899999999999,90.540199999999999,-4.3866699999999996,-28.3752,21.2029
2619.0,115.248,80.961200000000005,-18.7226,81.830699999999993,-1.66083,-26.174199999999999,19.951499999999999
2620.0,112.34699999999999,90.212199999999996,-6.9190199999999997,96.638000000000005,1.17127,-23.2043,17.345300000000002
2621.0,113.625,73.979100000000003,-23.722100000000001,85.814599999999999,3.79792,-21.4543,14.6569
2622.0,115.22199999999999,85.002799999999993,-13.269,101.369,5.7381599999999997,-19.647099999999998,12.7249
2623.0,115.32599999999999,72.189999999999998,-25.9542,91.976600000000005,7.3038100000000004,-17.018000000000001,10.0901
2624.0,115.619,82.667699999999996,-14.935600000000001,105.92,9.3036200000000004,-14.6424,6.5371300000000003
2625.0,116.96299999999999,71.5167,-25.629899999999999,98.146799999999999,11.7158,-13.188700000000001,2.0817600000000001
2626.0,119.762,80.866799999999998,-17.323499999999999,110.498,13.3444,-10.957599999999999,-2.55301
2627.0,58.519599999999997,69.858800000000002,33.253300000000003,44.199100000000001,-23.151800000000001,15.3376,-4.1513200000000001
2628.0,75.707700000000003,83.164699999999996,37.813800000000001,49.2714,-30.707899999999999,19.922499999999999,-3.8151299999999999
2629.0,91.495500000000007,87.552800000000005,24.757300000000001,44.4938,-40.732500000000002,9.9702500000000001,-0.88621300000000003
2630.0,103.23099999999999,85.780699999999996,9.6169200000000004,42.3339,-43.159399999999998,15.154400000000001,-0.073031799999999994
2631.0,103.711,88.538499999999999,2.0006400000000002,42.484699999999997,-38.074800000000003,13.879,8.25962
2632.0,105.533,81.357600000000005,-9.1506699999999999,40.903500000000001,-36.5991,1.56159,17.7437
2633.0,96.065200000000004,73.3459,-7.9226700000000001,45.546900000000001,-31.499099999999999,6.2026899999999996,18.424199999999999
2634.0,94.487300000000005,77.438699999999997,-5.8809800000000001,44.882899999999999,-29.564699999999998,2.8118099999999999,18.187999999999999
2635.0,97.9679,91.251599999999996,2.04182,55.788400000000003,-28.4406,-2.0352899999999998,19.203600000000002
2636.0,97.058499999999995,82.060400000000001,-12.471399999999999,45.6494,-21.406300000000002,-6.1823699999999997,19.2438
2637.0,105.598,122.07599999999999,19.097999999999999,70.408199999999994,-21.815300000000001,-15.249499999999999,18.904499999999999
2638.0,96.650999999999996,109.65600000000001,16.933,63.234299999999998,-16.991099999999999,-20.212900000000001,16.344799999999999
2639.0,75.758899999999997,102.745,32.431100000000001,73.896500000000003,-13.7403,-16.863,13.81
2640.0,67.640500000000003,77.297499999999999,14.6448,56.692599999999999,-12.0867,-12.960900000000001,13.8329
2641.0,76.307299999999998,92.887100000000004,21.022600000000001,74.666799999999995,-9.9102399999999999,-15.0266,14.873699999999999
2642.0,88.038499999999999,92.708500000000001,12.495200000000001,75.116600000000005,-10.574,-20.835000000000001,16.129799999999999
2643.0,101.30800000000001,111.697,23.312200000000001,97.567099999999996,-10.8477,-26.574999999999999,18.519500000000001
2644.0,109.136,90.774500000000003,-4.84701,84.947000000000003,-6.1868100000000004,-27.535900000000002,17.330500000000001
2645.0,107.17700000000001,96.545199999999994,2.8598499999999998,98.643600000000006,-3.90062,-23.7211,16.075600000000001
2646.0,102.038,80.043199999999999,-8.8285999999999998,86.521199999999993,-1.6666000000000001,-20.832899999999999,13.9693
2647.0,101.96899999999999,91.809899999999999,3.1359599999999999,103.015,1.89029,-19.182200000000002,10.0136
2648.0,103.52500000000001,75.513499999999993,-13.654500000000001,90.848600000000005,2.7638600000000002,-17.305,8.9914500000000004
2649.0,99.189099999999996,87.069100000000006,2.3846500000000002,105.133,4.3852200000000003,-14.718,5.8720800000000004
2650.0,100.41200000000001,71.907300000000006,-12.2852,93.697699999999998,6.7300700000000004,-13.447699999999999,1.46204
2651.0,107.84699999999999,85.834000000000003,-3.0083099999999998,111.959,8.9077000000000002,-12.6875,-2.1202000000000001
2652.0,110.562,70.958299999999994,-20.471900000000002,98.041300000000007,9.8387600000000006,-10.095700000000001,-4.4182699999999997
2653.0,60.707000000000001,53.5428,18.442799999999998,24.0471,-24.724299999999999,15.575799999999999,-4.3564499999999997
2654.0,72.293099999999995,82.936599999999999,47.089500000000001,51.496699999999997,-32.066099999999999,17.335899999999999,-5.5838099999999997
2655.0,84.233599999999996,62.418900000000001,9.80091,25.833400000000001,-38.255600000000001,13.199999999999999,-0.0909779
2656.0,100.258,83.597200000000001,19.458100000000002,44.425899999999999,-45.827300000000001,13.8352,3.70614
2657.0,94.687299999999993,66.409300000000002,0.16930799999999999,28.218299999999999,-41.695999999999998,10.0014,6.6685499999999998
2658.0,98.741799999999998,76.274299999999997,-3.6023999999999998,43.827800000000003,-38.323799999999999,4.9698700000000002,11.949299999999999
2659.0,107.80500000000001,51.357700000000001,-38.584800000000001,20.751999999999999,-38.724600000000002,4.0614499999999998,16.331399999999999
2660.0,89.947699999999998,75.373599999999996,-9.19618,44.766300000000001,-24.973700000000001,-1.0469299999999999,15.447100000000001
2661.0,75.772400000000005,59.6965,-12.9816,35.311500000000002,-18.609200000000001,-2.7084800000000002,13.8569
2662.0,78.200299999999999,77.906300000000002,-0.95664000000000005,49.374000000000002,-15.7121,-4.8559999999999999,13.173299999999999
2663.0,98.850999999999999,90.901300000000006,-6.6754100000000003,43.569899999999997,-21.0595,-14.2737,15.129899999999999
2664.0,95.740300000000005,100.58,8.6438400000000009,57.667000000000002,-18.743200000000002,-18.922899999999998,15.161099999999999
2665.0,71.088800000000006,75.069699999999997,8.9108400000000003,51.354300000000002,-13.657500000000001,-14.2431,13.102399999999999
2666.0,62.151899999999998,86.418099999999995,29.3734,69.547799999999995,-12.048999999999999,-11.0045,12.7499
2667.0,64.7834,70.0,8.3650500000000001,56.283099999999997,-9.2352600000000002,-11.3133,11.7681
2668.0,77.2577,86.072199999999995,13.857100000000001,72.344399999999993,-9.0589200000000005,-16.676300000000001,12.5983
2669.0,92.463200000000001,80.281499999999994,-1.07436,69.0989,-10.3187,-23.939599999999999,15.0184
2670.0,98.721800000000002,96.490099999999998,10.745799999999999,91.967699999999994,-7.9860199999999999,-25.223700000000001,14.845700000000001
2671.0,95.546899999999994,75.412899999999993,-8.2047100000000004,77.605099999999993,-4.9177400000000002,-21.260100000000001,13.174099999999999
2672.0,93.529300000000006,90.415999999999997,9.1158300000000008,97.206000000000003,-1.9670799999999999,-19.8048,10.825699999999999
2673.0,91.856399999999994,73.101699999999994,-6.5990399999999996,84.050200000000004,0.73595299999999997,-17.788799999999998,6.8789300000000004
2674.0,86.337800000000001,84.638400000000004,9.7354199999999995,97.941500000000005,1.0674300000000001,-14.148999999999999,4.7025499999999996
2675.0,85.2714,72.859999999999999,0.91656599999999999,89.783100000000005,3.4016099999999998,-13.586399999999999,0.99596300000000004
2676.0,91.125699999999995,87.748500000000007,12.3857,108.512,5.4964700000000004,-13.229200000000001,-2.0613000000000001
2677.0,101.398,72.562799999999996,-11.2675,96.904600000000002,6.69339,-11.8666,-4.6229699999999996
2678.0,104.839,85.280699999999996,-3.3049599999999999,108.946,7.0892900000000001,-8.9281900000000007,-5.7007099999999999
2679.0,63.369900000000001,73.440899999999999,35.674399999999999,43.704500000000003,-25.876300000000001,14.7524,-7.45174
2680.0,77.351100000000002,82.837999999999994,42.730699999999999,48.738199999999999,-35.385599999999997,15.3804,-6.1470000000000002
2681.0,71.754599999999996,77.206800000000001,40.558100000000003,51.301400000000001,-35.219799999999999,10.847899999999999,-1.7852699999999999
2682.0,77.666499999999999,75.275800000000004,24.778600000000001,42.027200000000001,-35.599200000000003,9.0104600000000001,1.8391900000000001
2683.0,87.615700000000004,100.925,35.356299999999997,55.657600000000002,-36.852600000000002,6.6743399999999999,5.4244199999999996
2684.0,76.147900000000007,71.409999999999997,4.7401400000000002,39.848700000000001,-27.128599999999999,2.5081699999999998,8.8496900000000007
2685.0,85.682599999999994,95.285499999999999,15.593299999999999,60.636400000000002,-26.673999999999999,-0.038315500000000002,11.787800000000001
2686.0,81.027100000000004,84.974999999999994,2.5573299999999999,49.537100000000002,-18.070900000000002,-3.53376,11.8384
2687.0,67.032799999999995,81.392899999999997,14.7906,60.999200000000002,-14.622400000000001,-2.7435200000000002,10.5809
2688.0,70.015600000000006,74.831100000000006,3.0211199999999998,50.8583,-13.1,-4.2693399999999997,10.3729
2689.0,85.870199999999997,111.264,23.960999999999999,71.148399999999995,-15.823399999999999,-13.396100000000001,10.8825
2690.0,87.394099999999995,109.122,25.343599999999999,69.194999999999993,-17.674700000000001,-18.2318,12.047499999999999
2691.0,70.379199999999997,98.864599999999996,32.1267,74.664500000000004,-12.959199999999999,-15.0321,10.7547
2692.0,59.754800000000003,79.880700000000004,24.654299999999999,65.152500000000003,-11.727499999999999,-11.4915,10.1387
2693.0,53.836199999999998,85.037300000000002,34.372300000000003,74.877499999999998,-8.8988600000000009,-9.4086400000000001,8.9402000000000008
2694.0,62.245100000000001,85.997200000000007,27.255700000000001,75.217200000000005,-8.1771200000000004,-12.8979,8.9674999999999994
2695.0,82.140000000000001,104.10599999999999,29.791899999999998,94.469999999999999,-8.0558099999999992,-21.140999999999998,10.2005
2696.0,89.480999999999995,91.179400000000001,12.067299999999999,88.5244,-6.78362,-22.482900000000001,9.9435699999999994
2697.0,84.309100000000001,96.361000000000004,21.9603,98.910899999999998,-5.92441,-18.348600000000001,9.3281799999999997
2698.0,86.448300000000003,84.511200000000002,8.9681300000000004,91.481700000000004,-3.3974600000000001,-18.4788,6.6426600000000002
2699.0,80.785499999999999,91.543000000000006,21.911300000000001,102.626,-1.17188,-15.767799999999999,3.3268
2700.0,69.424599999999998,78.302599999999998,18.454699999999999,89.825299999999999,0.66756899999999997,-11.706300000000001,1.0281100000000001
2701.0,76.818899999999999,89.853499999999997,25.067299999999999,104.617,2.8010100000000002,-12.9115,-1.3917900000000001
2702.0,90.633600000000001,77.209699999999998,0.98862899999999998,96.322100000000006,4.3683899999999998,-12.614100000000001,-4.0061499999999999
2703.0,96.447100000000006,86.589299999999994,4.34938,106.767,4.6050500000000003,-9.7267200000000003,-6.4460100000000002
2704.0,99.6661,77.187700000000007,-9.7540499999999994,96.024299999999997,4.2445300000000001,-7.3994799999999996,-7.3861100000000004
2705.0,62.997300000000003,58.523400000000002,21.527000000000001,27.686900000000001,-26.415800000000001,13.9299,-6.1741099999999998
2706.0,66.679400000000001,89.683899999999994,47.881999999999998,54.868600000000001,-28.831700000000001,11.244999999999999,-4.7899900000000004
2707.0,49.157200000000003,47.956600000000002,16.332699999999999,25.540199999999999,-22.345600000000001,6.3350400000000002,-1.2092499999999999
2708.0,55.045499999999997,74.176400000000001,33.603099999999998,46.806100000000001,-23.431899999999999,5.7109800000000002,0.234404
2709.0,79.384299999999996,78.412700000000001,14.3908,33.931699999999999,-31.431100000000001,5.4150200000000002,2.6173799999999998
2710.0,63.722499999999997,77.029700000000005,17.688700000000001,46.955199999999998,-21.077999999999999,0.98597599999999996,5.2792199999999996
2711.0,66.050299999999993,63.465400000000002,-0.061077300000000001,33.432299999999998,-20.435300000000002,-0.83772899999999995,5.0996300000000003
2712.0,77.436300000000003,87.558599999999998,10.449400000000001,51.314300000000003,-21.095700000000001,-3.2584300000000002,7.4103599999999998
2713.0,64.777699999999996,59.346499999999999,-5.8007099999999996,37.944499999999998,-14.672000000000001,-4.0278999999999998,8.0364699999999996
2714.0,59.982199999999999,79.589200000000005,17.079999999999998,57.744799999999998,-11.0852,-5.0902200000000004,6.6430100000000003
2715.0,68.264300000000006,77.257900000000006,5.8132099999999998,44.848300000000002,-11.027200000000001,-10.8537,5.8475200000000003
2716.0,79.868300000000005,100.935,23.806899999999999,64.691599999999994,-16.604099999999999,-16.708200000000001,9.0824599999999993
2717.0,72.128100000000003,80.095200000000006,12.588699999999999,54.773699999999998,-14.7912,-15.8756,10.017899999999999
2718.0,57.311999999999998,85.994200000000006,32.539000000000001,72.380799999999994,-10.525600000000001,-11.8454,8.49085
2719.0,51.078899999999997,68.982600000000005,20.396899999999999,59.655000000000001,-7.9837100000000003,-9.4731799999999993,7.1700699999999999
2720.0,51.451300000000003,79.6858,31.624199999999998,71.751800000000003,-7.6655499999999996,-10.749000000000001,6.6532799999999996
2721.0,64.962699999999998,77.230900000000005,19.493400000000001,69.6374,-8.3848199999999995,-17.344100000000001,7.1633100000000001
2722.0,73.921300000000002,88.664699999999996,22.635999999999999,85.720399999999998,-7.2721200000000001,-18.1355,6.9517300000000004
2723.0,77.410300000000007,72.403099999999995,3.4739300000000002,74.854799999999997,-5.34504,-16.910799999999998,6.3895
2724.0,74.521799999999999,87.816000000000003,23.2364,94.694800000000001,-2.5451000000000001,-16.791399999999999,2.9512900000000002
2725.0,66.426100000000005,73.084400000000002,15.7258,81.809299999999993,-0.269013,-13.470700000000001,-0.64436099999999996
2726.0,67.291899999999998,86.556899999999999,27.8782,96.668199999999999,1.0218799999999999,-11.2219,-1.6870799999999999
2727.0,77.916899999999998,75.125900000000001,7.3882599999999998,88.296099999999996,1.76081,-11.2986,-2.8755199999999999
2728.0,88.699700000000007,87.719700000000003,10.023199999999999,103.053,2.2692199999999998,-10.114000000000001,-5.2318499999999997
2729.0,93.209000000000003,73.723699999999994,-9.3742599999999996,88.171499999999995,2.6826099999999999,-7.3769900000000002,-7.9262800000000002
2730.0,96.804299999999998,86.712900000000005,-0.92022199999999998,99.805300000000003,2.35798,-5.3878700000000004,-9.4690300000000001
2731.0,53.980400000000003,81.099000000000004,43.541899999999998,51.024000000000001,-20.8384,11.579499999999999,-2.7926500000000001
2732.0,43.398200000000003,70.786699999999996,39.347499999999997,45.399000000000001,-17.285399999999999,6.6660899999999996,-2.5129999999999999
2733.0,43.964100000000002,74.252799999999993,42.534700000000001,53.238999999999997,-18.598099999999999,6.0906000000000002,-0.96338500000000005
2734.0,49.457500000000003,75.154799999999994,35.956299999999999,48.667900000000003,-19.8371,4.67767,-0.11490400000000001
2735.0,61.960500000000003,91.189400000000006,41.090800000000002,57.267099999999999,-24.7499,3.5464899999999999,0.925535
2736.0,62.791800000000002,77.147000000000006,19.6172,47.520699999999998,-21.554600000000001,1.49498,4.4465000000000003
2737.0,60.686,88.728099999999998,29.140699999999999,60.382100000000001,-17.6114,-1.33535,5.22384
2738.0,65.179599999999994,88.089699999999993,24.076000000000001,56.9833,-18.7455,-3.40096,5.3345700000000003
2739.0,62.082000000000001,87.5792,23.912800000000001,62.964700000000001,-14.0472,-4.78362,5.8130600000000001
2740.0,55.8384,81.669899999999998,23.186,60.317,-10.2822,-5.8223799999999999,4.8834200000000001
2741.0,55.6783,95.958699999999993,38.728900000000003,71.240499999999997,-10.9717,-8.1144800000000004,4.8231099999999998
2742.0,67.050299999999993,98.759699999999995,32.870899999999999,70.300399999999996,-13.887700000000001,-13.113,6.4592599999999996
2743.0,70.747699999999995,103.486,35.756100000000004,78.973200000000006,-13.7622,-15.4682,7.9860899999999999
2744.0,59.8857,86.582999999999998,29.183599999999998,72.296899999999994,-9.6592300000000009,-12.780099999999999,6.7729299999999997
2745.0,51.2971,87.846100000000007,39.212200000000003,79.478200000000001,-8.7380600000000008,-9.3971499999999999,6.03057
2746.0,49.165599999999998,84.435100000000006,37.968200000000003,77.9773,-6.66038,-10.205399999999999,4.8620200000000002
2747.0,51.432400000000001,97.439300000000003,51.256,92.871399999999994,-6.4844200000000001,-13.1875,4.2670899999999996
2748.0,54.700899999999997,88.638900000000007,40.188699999999997,86.772900000000007,-6.9019500000000003,-13.322100000000001,4.3337399999999997
2749.0,63.098599999999998,97.976100000000002,42.391399999999997,99.947999999999993,-5.0255799999999997,-15.053599999999999,2.7490399999999999
2750.0,63.0246,88.945700000000002,35.101700000000001,94.810199999999995,-3.2435399999999999,-15.081099999999999,1.7204699999999999
2751.0,58.131500000000003,93.830500000000001,42.668999999999997,100.21299999999999,-1.8084199999999999,-11.3088,0.57935099999999995
2752.0,68.647599999999997,81.569000000000003,19.546299999999999,89.517399999999995,-0.64311799999999997,-9.9799000000000007,-1.77864
2753.0,82.845399999999998,88.939800000000005,14.263,99.7209,0.62112599999999996,-9.3600200000000005,-5.8142899999999997
2754.0,87.718400000000003,79.864400000000003,-0.317436,90.1892,0.33095200000000002,-6.7377399999999996,-8.0501400000000007
2755.0,91.645799999999994,88.075199999999995,2.9073899999999999,96.516099999999994,0.26251600000000003,-4.70085,-9.8107600000000001
2756.0,96.188800000000001,79.363100000000003,-11.164999999999999,85.870000000000005,0.15417500000000001,-3.01118,-11.5221
2757.0,40.343600000000002,60.460799999999999,26.577200000000001,36.855800000000002,-12.979799999999999,8.0848499999999994,-2.62155
2758.0,35.196399999999997,64.686000000000007,36.469299999999997,45.0901,-13.162100000000001,5.3924799999999999,-1.2344200000000001
2759.0,42.700400000000002,57.0871,24.142700000000001,36.418300000000002,-17.4026,5.1652199999999997,-1.0206
2760.0,46.167999999999999,69.950500000000005,31.332799999999999,45.309100000000001,-17.6754,3.96652,-0.17680899999999999
2761.0,50.586500000000001,65.828900000000004,25.1935,40.170400000000001,-20.6004,2.4571999999999998,0.51866599999999996
2762.0,58.040599999999998,76.375699999999995,25.297699999999999,48.776499999999999,-21.5335,0.89766199999999996,2.1798999999999999
2763.0,56.310099999999998,68.783500000000004,13.228899999999999,41.437399999999997,-16.5304,-1.6121399999999999,3.0739700000000001
2764.0,55.315399999999997,77.496799999999993,23.327300000000001,51.7624,-16.2135,-3.24579,3.51085
2765.0,57.684800000000003,70.752099999999999,13.0159,46.784100000000002,-15.111800000000001,-4.61043,4.2648000000000001
2766.0,54.828499999999998,77.090599999999995,20.127400000000002,55.813299999999998,-11.0503,-5.9355099999999998,4.02698
2767.0,49.799199999999999,71.729299999999995,20.839200000000002,51.589500000000001,-9.9615200000000002,-7.5536099999999999,3.67902
2768.0,50.183500000000002,80.815899999999999,31.737500000000001,60.940899999999999,-11.358700000000001,-9.2156500000000001,4.0106799999999998
2769.0,63.230899999999998,80.757300000000001,20.607900000000001,60.010100000000001,-14.214,-12.6568,6.0822500000000002
2770.0,65.337199999999996,85.985799999999998,22.407399999999999,71.228899999999996,-11.167199999999999,-12.563700000000001,5.7597100000000001
2771.0,53.877299999999998,72.028099999999995,20.201799999999999,64.925399999999996,-8.2436900000000009,-9.4428099999999997,4.5853900000000003
2772.0,47.728999999999999,79.913799999999995,34.094999999999999,74.343599999999995,-5.3961499999999996,-9.8971900000000002,2.6876000000000002
2773.0,43.675199999999997,68.8489,27.9038,65.727800000000002,-4.6050599999999999,-9.5220199999999995,2.1169600000000002
2774.0,42.897100000000002,78.968699999999998,39.746600000000001,78.187600000000003,-5.0070800000000002,-8.9428800000000006,2.3575300000000001
2775.0,49.648899999999998,71.451800000000006,25.604500000000002,72.101399999999998,-4.2717299999999998,-9.6110199999999999,0.57059300000000002
2776.0,60.720700000000001,83.259100000000004,27.8857,86.987899999999996,-5.0533000000000001,-10.3186,1.20787
2777.0,65.284499999999994,73.9071,13.6241,79.438999999999993,-4.1102800000000004,-8.3846000000000007,0.88712800000000003
2778.0,70.146199999999993,85.088800000000006,19.269300000000001,90.905000000000001,-2.1540900000000001,-6.5543300000000002,-3.1002800000000001
2779.0,81.607399999999998,77.018699999999995,0.61891799999999997,83.260199999999998,-1.2436199999999999,-6.1551400000000003,-7.9317500000000001
2780.0,88.523300000000006,83.6905,-0.107928,88.343800000000002,-1.3707,-3.9153199999999999,-10.8162
2781.0,92.915499999999994,76.681899999999999,-11.8574,79.200800000000001,-1.74213,-2.0372300000000001,-13.4556
2782.0,97.320400000000006,84.668999999999997,-9.3226999999999993,84.522199999999998,-2.7881200000000002,-0.77180099999999996,-14.439399999999999
2783.0,33.944000000000003,76.420599999999993,47.031599999999997,57.263199999999998,-10.646599999999999,6.5319500000000001,-2.34138
2784.0,35.728499999999997,64.417699999999996,34.906799999999997,46.432600000000001,-13.1119,5.4062799999999998,-1.77776
2785.0,39.453800000000001,77.897300000000001,45.521799999999999,59.496600000000001,-15.5709,3.51491,-0.619286
2786.0,43.491300000000003,70.227400000000003,34.548699999999997,50.703000000000003,-17.264199999999999,3.6117400000000002,0.45708900000000002
2787.0,46.9163,83.4285,44.694800000000001,62.0413,-18.7392,2.36788,0.71604400000000001
2788.0,51.129300000000001,76.260400000000004,31.504999999999999,52.911499999999997,-19.211600000000001,-0.071478899999999998,1.1122099999999999
2789.0,51.680900000000001,88.818700000000007,39.8489,65.852099999999993,-16.847799999999999,-1.46871,2.00502
2790.0,51.521700000000003,80.093100000000007,29.7315,58.549599999999998,-15.1936,-2.9140899999999998,2.6475399999999998
2791.0,53.152900000000002,90.495900000000006,37.578600000000002,69.5261,-14.2621,-4.4991899999999996,2.82633
2792.0,51.225700000000003,83.2423,30.7652,63.9634,-11.462400000000001,-5.7433500000000004,2.3895300000000002
2793.0,45.988700000000001,92.842799999999997,46.108899999999998,76.343299999999999,-9.7614800000000006,-6.5226199999999999,2.3281900000000002
2794.0,44.583399999999997,85.630399999999995,42.735199999999999,71.173199999999994,-11.1953,-7.0693099999999998,3.3108399999999998
2795.0,51.899700000000003,95.829400000000007,48.064399999999999,81.413300000000007,-13.492699999999999,-9.8243399999999994,4.3643000000000001
2796.0,58.090000000000003,88.227000000000004,32.672899999999998,75.564499999999995,-12.162699999999999,-10.7662,3.6410100000000001
2797.0,55.681600000000003,89.737300000000005,35.314900000000002,82.320800000000006,-8.1321600000000007,-9.5637799999999995,2.1957200000000001
2798.0,49.561300000000003,88.648700000000005,40.081499999999998,83.832099999999997,-4.5009399999999999,-9.0781399999999994,0.29730000000000001
2799.0,42.067799999999998,92.052099999999996,51.357700000000001,90.174999999999997,-4.3975499999999998,-6.5443199999999999,0.100507
2800.0,39.402700000000003,85.643199999999993,48.603400000000001,86.008899999999997,-5.3399700000000001,-5.0754900000000003,1.1713
2801.0,43.026899999999998,91.042299999999997,49.948599999999999,91.469800000000006,-5.23156,-4.5516300000000003,0.44983200000000001
2802.0,54.391199999999998,82.232699999999994,30.696000000000002,84.345299999999995,-6.18675,-4.95458,-0.42942999999999998
2803.0,69.366100000000003,90.694900000000004,24.719100000000001,94.200000000000003,-6.0370699999999999,-5.5411599999999996,-2.1493600000000002
2804.0,78.121300000000005,79.502099999999999,4.4097400000000002,82.279200000000003,-3.41934,-3.63314,-7.5971700000000002
2805.0,82.350800000000007,89.186099999999996,10.1037,90.271299999999997,-3.09266,-1.90242,-11.5626
2806.0,88.104600000000005,81.228099999999998,-4.0153100000000004,79.727199999999996,-3.7317900000000002,-0.73331999999999997,-13.883699999999999
2807.0,95.170699999999997,89.494200000000006,-2.59192,85.491600000000005,-4.0295300000000003,0.315027,-17.138300000000001
2808.0,101.348,81.358500000000006,-17.532499999999999,74.469899999999996,-5.5820400000000001,0.85306000000000004,-18.529399999999999
2809.0,32.2119,55.664900000000003,29.1938,39.186399999999999,-11.159000000000001,6.1343899999999998,-2.2423899999999999
2810.0,34.373899999999999,62.346899999999998,34.101599999999998,46.942500000000003,-12.942600000000001,4.6656199999999997,-2.13998
2811.0,37.379800000000003,55.234400000000001,23.8142,39.180199999999999,-14.5526,2.3166199999999999,-1.3265499999999999
2812.0,40.385599999999997,57.124400000000001,24.181699999999999,41.680700000000002,-16.295100000000001,2.2979500000000002,-1.09432
2813.0,43.562800000000003,60.668599999999998,24.6404,42.732199999999999,-17.415700000000001,2.1057700000000001,-0.56648799999999999
2814.0,45.799900000000001,70.948599999999999,31.014900000000001,51.224800000000002,-17.318999999999999,-0.60093700000000005,0.45493
2815.0,46.6282,64.161699999999996,20.8611,44.668799999999997,-15.8314,-1.7432099999999999,0.87676699999999996
2816.0,46.886699999999998,72.683899999999994,27.505099999999999,54.556600000000003,-14.3642,-2.83785,1.21953
2817.0,48.549900000000001,67.726500000000001,19.581800000000001,49.656599999999997,-13.212,-4.1605600000000003,1.53112
2818.0,46.8508,74.858800000000002,27.594999999999999,58.441200000000002,-11.3028,-5.1055400000000004,1.4256200000000001
2819.0,43.143300000000004,66.373000000000005,23.462399999999999,52.785499999999999,-10.204499999999999,-5.7502300000000002,1.5124599999999999
2820.0,41.359299999999998,74.0518,34.455800000000004,62.708799999999997,-10.5655,-6.1948499999999997,2.09823
2821.0,43.218000000000004,70.133899999999997,30.037700000000001,59.492699999999999,-11.092000000000001,-7.8490399999999996,2.5564800000000001
2822.0,46.907899999999998,82.440299999999993,39.231900000000003,73.624499999999998,-11.7258,-8.2707800000000002,2.5092699999999999
2823.0,51.316200000000002,72.010099999999994,22.638400000000001,65.741299999999995,-9.4533400000000007,-8.0487900000000003,1.08724
2824.0,52.023499999999999,78.9803,27.810400000000001,74.826700000000002,-5.9252000000000002,-7.6363599999999998,-1.0178
2825.0,44.479300000000002,62.876399999999997,19.5655,62.1783,-5.23447,-3.8556699999999999,-1.3573299999999999
2826.0,41.039900000000003,72.117000000000004,32.782200000000003,73.021799999999999,-5.1844700000000001,-2.27149,-1.22719
2827.0,40.923299999999998,66.350200000000001,27.197199999999999,67.173599999999993,-5.5423999999999998,-1.8787100000000001,-1.42625
2828.0,45.703800000000001,79.665999999999997,36.165399999999998,80.963999999999999,-6.1146099999999999,-1.3743799999999999,-2.6177100000000002
2829.0,63.328000000000003,73.390199999999993,12.763299999999999,74.853499999999997,-7.1570299999999998,-2.4907499999999998,-4.8879400000000004
2830.0,80.838300000000004,82.605999999999995,4.34171,82.093500000000006,-6.1844799999999998,-1.1576599999999999,-10.4978
2831.0,86.676400000000001,73.376400000000004,-10.5649,69.111699999999999,-5.2406800000000002,1.6674800000000001,-15.4457
2832.0,90.978899999999996,83.182900000000004,-5.1918800000000003,74.9221,-5.7626299999999997,2.8107099999999998,-18.308
2833.0,98.972700000000003,75.0351,-21.131399999999999,63.605899999999998,-6.7382999999999997,2.9247800000000002,-21.246200000000002
2834.0,107.34,86.878699999999995,-17.858699999999999,72.876199999999997,-8.4234899999999993,2.14561,-23.063700000000001
2835.0,29.6418,61.9846,37.947299999999998,49.491100000000003,-10.8932,4.7077600000000004,-2.7444099999999998
2836.0,31.949100000000001,72.021000000000001,45.155999999999999,59.360999999999997,-11.890599999999999,3.5673300000000001,-2.34659
2837.0,35.166899999999998,69.576099999999997,40.118699999999997,55.668900000000001,-13.5717,1.8506199999999999,-2.7316199999999999
2838.0,37.3172,74.666499999999999,44.202800000000003,61.447699999999998,-14.853899999999999,1.1132899999999999,-2.99194
2839.0,40.011699999999998,76.061300000000003,43.243600000000001,60.827800000000003,-16.109500000000001,0.95404599999999995,-1.87361
2840.0,41.247500000000002,79.9953,44.163899999999998,63.5501,-15.638,-0.82783600000000002,-0.43849199999999999
2841.0,42.198500000000003,83.006399999999999,44.5227,66.644599999999997,-14.736700000000001,-1.83849,-0.086715100000000003
2842.0,42.725200000000001,82.014700000000005,41.360100000000003,66.6828,-13.3714,-2.8575400000000002,0.051756299999999998
2843.0,43.579700000000003,85.853300000000004,43.200800000000001,71.204700000000003,-12.1997,-3.8155399999999999,0.022289900000000001
2844.0,43.1175,84.497,42.201300000000003,71.376800000000003,-11.424300000000001,-4.5165699999999998,0.279727
2845.0,40.0334,89.323700000000002,50.149000000000001,78.439300000000003,-9.9825300000000006,-5.0545999999999998,0.33496999999999999
2846.0,37.670999999999999,85.747600000000006,50.045900000000003,77.347399999999993,-9.8475800000000007,-5.2143199999999998,0.66969500000000004
2847.0,38.771900000000002,90.665199999999999,54.899900000000002,82.893500000000003,-10.3574,-6.1939000000000002,1.2574099999999999
2848.0,40.512799999999999,83.887500000000003,47.715899999999998,78.383600000000001,-11.055300000000001,-6.4673999999999996,1.7842199999999999
2849.0,44.3005,88.402299999999997,47.241599999999998,84.173599999999993,-9.8261599999999998,-6.6922199999999998,0.40215600000000001
2850.0,46.744500000000002,87.675799999999995,43.360199999999999,85.263499999999993,-8.2231000000000005,-6.0994400000000004,-1.6112299999999999
2851.0,42.168599999999998,90.650199999999998,50.7699,90.989099999999993,-6.7397,-2.4982199999999999,-2.5252699999999999
2852.0,40.227699999999999,86.018199999999993,47.7498,86.605099999999993,-5.4184099999999997,-0.73391300000000004,-3.7101899999999999
2853.0,40.798200000000001,89.817899999999995,51.093400000000003,90.351200000000006,-5.9439500000000001,-0.17729800000000001,-3.5537200000000002
2854.0,44.827199999999998,81.187700000000007,38.2684,81.3429,-5.5025700000000004,0.95217499999999999,-4.7318100000000003
2855.0,60.524099999999997,88.751000000000005,30.494399999999999,87.477900000000005,-6.5988199999999999,1.06009,-8.3243500000000008
2856.0,77.444000000000003,78.904700000000005,4.5597700000000003,75.291499999999999,-8.4055099999999996,2.5409799999999998,-12.8407
2857.0,86.983699999999999,87.928399999999996,4.1195700000000004,78.370999999999995,-7.9696699999999998,4.8677200000000003,-18.168299999999999
2858.0,95.368099999999998,80.906400000000005,-10.6069,65.919399999999996,-8.0736299999999996,5.6531399999999996,-22.9192
2859.0,104.556,90.021299999999997,-10.168200000000001,70.851399999999998,-9.8291900000000005,5.3695700000000004,-26.273399999999999
2860.0,114.756,81.722200000000001,-28.2819,60.986499999999999,-12.2029,2.9073199999999999,-28.5593
2861.0,25.810300000000002,41.082799999999999,19.660599999999999,32.833799999999997,-9.5102100000000007,2.8276500000000002,-2.6208900000000002
2862.0,29.699999999999999,65.181899999999999,39.933,55.201999999999998,-10.8675,2.6632799999999999,-2.6693500000000001
2863.0,31.9788,46.5289,19.5913,35.126399999999997,-12.220599999999999,1.68974,-2.4188399999999999
2864.0,33.711300000000001,67.518600000000006,39.533999999999999,55.550800000000002,-13.295999999999999,0.85838400000000004,-2.0360800000000001
2865.0,35.973100000000002,52.457900000000002,22.453399999999998,39.222900000000003,-14.229699999999999,-0.0049287899999999997,-1.66218
2866.0,37.666499999999999,70.901700000000005,38.023000000000003,57.209299999999999,-14.060700000000001,-0.98955400000000004,-1.21417
2867.0,38.665199999999999,56.127299999999998,21.188199999999998,42.718899999999998,-13.5282,-2.0148700000000002,-0.760158
2868.0,38.870600000000003,73.3827,36.851300000000002,60.721299999999999,-12.321999999999999,-2.7083699999999999,-0.60729
2869.0,39.1068,60.107599999999998,22.453499999999998,48.372999999999998,-11.247299999999999,-3.3877199999999998,-0.75951800000000003
2870.0,38.766300000000001,72.542000000000002,35.552900000000001,62.705199999999998,-10.8162,-4.0516300000000003,-0.70648599999999995
2871.0,36.442100000000003,59.6952,25.155999999999999,52.075099999999999,-9.8458299999999994,-4.0226699999999997,-0.52760799999999997
2872.0,35.078600000000002,70.7654,37.895200000000003,64.891999999999996,-9.2622,-4.1193400000000002,-0.34026299999999998
2873.0,35.360700000000001,63.608199999999997,30.881699999999999,58.756599999999999,-9.1754899999999999,-4.5466600000000001,0.0391653
2874.0,38.3354,78.072599999999994,43.269500000000001,74.621700000000004,-9.9624000000000006,-4.7111200000000002,0.85777599999999998
2875.0,41.591500000000003,70.874799999999993,32.273099999999999,68.181799999999996,-9.2199000000000009,-5.2081900000000001,0.14696200000000001
2876.0,39.156599999999997,74.828800000000001,38.718000000000004,74.488799999999998,-8.0996799999999993,-3.6484200000000002,-1.2468399999999999
2877.0,37.209499999999998,62.103900000000003,27.923100000000002,63.142800000000001,-7.3086399999999996,-1.1401699999999999,-2.2720099999999999
2878.0,38.495800000000003,69.841700000000003,33.905099999999997,70.7089,-5.98848,0.76827299999999998,-4.0501800000000001
2879.0,43.115699999999997,64.536199999999994,24.2148,65.309399999999997,-6.4567100000000002,2.67503,-4.2754399999999997
2880.0,54.286099999999998,77.754999999999995,25.9968,76.3643,-6.5344899999999999,4.7696399999999999,-6.8744500000000004
2881.0,69.312600000000003,69.131,3.3434400000000002,63.9373,-7.3193299999999999,6.58751,-12.910399999999999
2882.0,79.760300000000001,77.349000000000004,2.1330900000000002,68.694299999999998,-9.7457499999999992,8.3483099999999997,-16.189699999999998
2883.0,89.664699999999996,72.416499999999999,-12.5451,56.454700000000003,-9.9913000000000007,9.1348900000000004,-21.3917
2884.0,101.17,78.995999999999995,-16.251100000000001,56.441400000000002,-10.879099999999999,9.0288699999999995,-27.1008
2885.0,111.539,75.541700000000006,-29.325600000000001,48.243299999999998,-12.920299999999999,7.5122600000000004,-31.044599999999999
2886.0,121.59999999999999,82.826300000000003,-30.532499999999999,55.7196,-15.9726,2.6999599999999999,-34.093400000000003
2887.0,7311.7700000000004,1372.1400000000001,-187.96899999999999,-4508.6199999999999,-1052.8399999999999,2427.6799999999998,1240.02
2888.0,7582.0900000000001,1673.4200000000001,-219.41499999999999,-4843.4700000000003,-1066.3299999999999,2199.7800000000002,1395.52
2889.0,7353.96,1805.01,-260.72800000000001,-4933.1499999999996,-929.05600000000004,1719.0599999999999,1513.8399999999999
2890.0,7550.9700000000003,2164.6999999999998,-319.14600000000002,-5179.0299999999997,-862.27099999999996,1191.23,1700.03
2891.0,8104.0500000000002,2692.4499999999998,-447.80900000000003,-5503.9399999999996,-796.08399999999995,573.96299999999997,1956.4300000000001
2892.0,7926.3599999999997,2789.8299999999999,-496.935,-5261.4499999999998,-623.00900000000001,-58.374400000000001,2040.3699999999999
2893.0,7245.8000000000002,2558.7800000000002,-478.34100000000001,-4684.5200000000004,-449.03800000000001,-505.64100000000002,1952.6900000000001
2894.0,7065.3900000000003,2626.0799999999999,-455.11700000000002,-4341.7799999999997,-413.49900000000002,-767.33900000000006,1920.49
2895.0,7245.2700000000004,2840.27,-431.39999999999998,-4286.6700000000001,-485.084,-865.45600000000002,1946.02
2896.0,6950.9399999999996,2675.8699999999999,-383.32600000000002,-4089.9899999999998,-446.46300000000002,-960.64700000000005,1871.8599999999999
2897.0,6194.2200000000003,2090.3899999999999,-347.57999999999998,-3609.1700000000001,-267.58199999999999,-1207.6900000000001,1755.4400000000001
2898.0,5671.5600000000004,1554.1600000000001,-437.17000000000002,-3190.3000000000002,2.7650299999999999,-1498.6700000000001,1673.4100000000001
2899.0,5498.7399999999998,1207.3800000000001,-545.45399999999995,-2841.8299999999999,232.726,-1789.99,1642.21
2900.0,5678.0699999999997,1045.8800000000001,-639.24099999999999,-2676.02,313.16800000000001,-2043.98,1731.3199999999999
2901.0,6073.1099999999997,1132.28,-658.0,-2710.8400000000001,327.375,-2227.2800000000002,1878.3399999999999
2902.0,6477.2399999999998,1057.4200000000001,-712.92899999999997,-2842.79,450.74599999999998,-2443.0100000000002,1999.9400000000001
2903.0,7358.3100000000004,730.75300000000004,-920.48299999999995,-2942.23,748.471,-3001.3800000000001,2257.3499999999999
2904.0,8969.0300000000007,273.71499999999997,-1295.1099999999999,-3009.7399999999998,1161.5899999999999,-3936.54,2696.6399999999999
2905.0,10302.799999999999,-504.47399999999999,-1639.1700000000001,-2685.1900000000001,1674.46,-4733.8699999999999,2996.6199999999999
2906.0,10589.700000000001,-1530.5699999999999,-1860.6300000000001,-2123.5999999999999,2148.6300000000001,-4886.7399999999998,2965.7600000000002
2907.0,10456.200000000001,-2396.6999999999998,-1973.0999999999999,-1676.8499999999999,2503.4099999999999,-4700.7399999999998,2819.4099999999999
2908.0,10897.1,-3166.9099999999999,-2197.0599999999999,-1428.72,2863.02,-4772.6400000000003,2801.48
2909.0,11659.4,-4035.6700000000001,-2451.52,-1094.1600000000001,3286.75,-4956.2299999999996,2789.2199999999998
2910.0,12100.9,-5061.1000000000004,-2658.1700000000001,-652.298,3690.8299999999999,-4828.0200000000004,2646.8899999999999
2911.0,12316.9,-6036.8599999999997,-2797.3499999999999,-196.94499999999999,4053.0500000000002,-4457.2399999999998,2390.5300000000002
2912.0,12497.4,-6926.6000000000004,-2914.9499999999998,295.654,4369.2700000000004,-3964.6300000000001,2039.3900000000001
2913.0,6676.9200000000001,18.514199999999999,-615.53700000000003,-4860.25,-869.96000000000004,2087.27,1646.1700000000001
2914.0,6880.4499999999998,173.608,-666.92399999999998,-5096.5600000000004,-844.45500000000004,2004.22,1741.5699999999999
2915.0,7201.7799999999997,453.19200000000001,-775.97500000000002,-5536.75,-788.72000000000003,1738.5899999999999,1906.45
2916.0,7326.6000000000004,809.00999999999999,-865.05700000000002,-5781.96,-663.98199999999997,1128.8099999999999,2107.46
2917.0,7209.3599999999997,996.21299999999997,-920.52200000000005,-5686.9499999999998,-504.80099999999999,585.24000000000001,2210.1399999999999
2918.0,6993.0600000000004,1021.13,-938.5,-5515.6499999999996,-362.84800000000001,243.874,2203.75
2919.0,6721.7799999999997,928.30499999999995,-987.31600000000003,-5295.9099999999999,-188.44399999999999,-223.49199999999999,2193.8400000000001
2920.0,6330.79,812.64099999999996,-988.22799999999995,-4857.8900000000003,-35.804900000000004,-594.29399999999998,2147.04
2921.0,6098.9499999999998,789.43600000000004,-988.07299999999998,-4598.7299999999996,6.8495699999999999,-660.58199999999999,2103.46
2922.0,6370.1099999999997,912.21900000000005,-1048.1099999999999,-4742.6700000000001,10.021599999999999,-735.80499999999995,2177.0500000000002
2923.0,6561.8500000000004,823.70799999999997,-1130.75,-4707.1999999999998,117.13,-1104.3299999999999,2291.8099999999999
2924.0,6058.0299999999997,492.03699999999998,-1078.72,-4197.3299999999999,280.464,-1295.5999999999999,2186.04
2925.0,5230.8800000000001,117.053,-969.43600000000004,-3512.8299999999999,459.42200000000003,-1330.1099999999999,1915.6099999999999
2926.0,4853.6000000000004,-71.084699999999998,-934.44000000000005,-3085.6599999999999,578.16600000000005,-1390.95,1781.3800000000001
2927.0,5356.6800000000003,62.899900000000002,-1052.6199999999999,-3304.0500000000002,605.53599999999994,-1574.45,1943.5799999999999
2928.0,6411.5699999999997,192.678,-1259.21,-3823.2199999999998,664.452,-1990.6199999999999,2272.3899999999999
2929.0,7185.71,-91.361699999999999,-1450.4100000000001,-3788.0100000000002,930.98500000000001,-2552.77,2516.3499999999999
2930.0,7800.6899999999996,-427.17700000000002,-1602.01,-3468.46,1241.5,-3037.3699999999999,2676.6399999999999
2931.0,8322.8899999999994,-801.07299999999998,-1761.75,-3186.52,1542.8299999999999,-3406.1199999999999,2769.0599999999999
2932.0,8678.7199999999993,-1372.0799999999999,-1938.8800000000001,-2912.3499999999999,1861.4200000000001,-3644.0700000000002,2784.9099999999999
2933.0,8912.3899999999994,-2129.9699999999998,-2119.4000000000001,-2500.02,2219.46,-3750.77,2726.8400000000001
2934.0,9179.7199999999993,-2802.6100000000001,-2254.73,-2068.4499999999998,2567.3000000000002,-3784.4200000000001,2651.5300000000002
2935.0,9664.3400000000001,-3428.6100000000001,-2398.8299999999999,-1709.5799999999999,2916.0700000000002,-3889.73,2598.3299999999999
2936.0,10234.9,-4250.21,-2567.4000000000001,-1183.1700000000001,3327.3299999999999,-3917.3299999999999,2478.2800000000002
2937.0,10638.0,-5141.1199999999999,-2734.5700000000002,-531.78499999999997,3735.8299999999999,-3678.0900000000001,2218.6500000000001
2938.0,10754.5,-5833.5600000000004,-2814.8499999999999,98.084800000000001,4032.21,-3180.0100000000002,1839.8499999999999
2939.0,6067.9399999999996,-449.48000000000002,-616.39599999999996,-4482.1099999999997,-760.49099999999999,1868.54,1731.45
2940.0,6162.8400000000001,-311.94200000000001,-661.03499999999997,-4662.9499999999998,-708.15099999999995,1721.0799999999999,1830.8
2941.0,6387.2299999999996,-38.762799999999999,-696.89400000000001,-4939.2700000000004,-650.45000000000005,1506.5,1957.54
2942.0,6391.3699999999999,172.44200000000001,-774.74300000000005,-5105.9300000000003,-497.75900000000001,1045.24,2087.2600000000002
2943.0,6131.7799999999997,175.05500000000001,-840.86099999999999,-4995.6400000000003,-312.39699999999999,600.81799999999998,2137.5799999999999
2944.0,5929.1499999999996,168.79300000000001,-881.27300000000002,-4844.8800000000001,-177.30600000000001,328.875,2141.7399999999998
2945.0,5837.4399999999996,224.226,-900.07600000000002,-4711.6400000000003,-51.956699999999998,29.656099999999999,2159.29
2946.0,5645.3000000000002,135.279,-939.33299999999997,-4524.9200000000001,80.179199999999994,-240.559,2145.71
2947.0,5483.6199999999999,54.991700000000002,-943.77300000000002,-4383.5699999999997,159.66300000000001,-352.73200000000003,2109.9000000000001
2948.0,5630.9099999999999,112.467,-964.59000000000003,-4444.1700000000001,202.24799999999999,-486.69200000000001,2149.3099999999999
2949.0,5914.7700000000004,147.52799999999999,-1044.29,-4529.6599999999999,301.10599999999999,-759.29399999999998,2255.4200000000001
2950.0,6061.3699999999999,20.638100000000001,-1182.1700000000001,-4479.5,460.86099999999999,-1049.2,2346.3000000000002
2951.0,5972.1899999999996,-258.33600000000001,-1321.73,-4247.7200000000003,648.74000000000001,-1277.0799999999999,2359.9400000000001
2952.0,5747.75,-515.75199999999995,-1364.3199999999999,-3930.9000000000001,803.31899999999996,-1401.23,2289.4699999999998
2953.0,5777.5299999999997,-534.91499999999996,-1337.3499999999999,-3771.9200000000001,886.83500000000004,-1529.6300000000001,2271.3099999999999
2954.0,6230.4799999999996,-438.63600000000002,-1362.8299999999999,-3793.8299999999999,962.72900000000004,-1825.6800000000001,2382.4699999999998
2955.0,6559.25,-654.53200000000004,-1477.5,-3543.4099999999999,1167.9300000000001,-2179.9899999999998,2451.4699999999998
2956.0,6602.2600000000002,-969.524,-1603.54,-3223.48,1367.3099999999999,-2326.52,2428.3000000000002
2957.0,6785.8299999999999,-1162.6099999999999,-1703.28,-3085.4000000000001,1520.3699999999999,-2469.7800000000002,2440.1900000000001
2958.0,7190.6599999999999,-1476.3199999999999,-1801.0599999999999,-2867.5799999999999,1753.24,-2733.02,2482.3800000000001
2959.0,7512.8999999999996,-1996.1900000000001,-1906.3099999999999,-2438.2600000000002,2069.8000000000002,-2914.8200000000002,2439.9299999999998
2960.0,7660.9200000000001,-2559.1500000000001,-2032.0699999999999,-1991.2,2373.9299999999998,-2914.4899999999998,2309.3499999999999
2961.0,7823.4099999999999,-3045.5799999999999,-2179.27,-1583.9400000000001,2642.8600000000001,-2860.8099999999999,2166.27
2962.0,8048.9899999999998,-3501.9400000000001,-2304.8899999999999,-1102.8,2901.6500000000001,-2781.6199999999999,1999.8699999999999
2963.0,8189.3599999999997,-3952.1700000000001,-2378.7199999999998,-563.21400000000006,3126.1799999999998,-2573.6300000000001,1755.71
2964.0,8173.5500000000002,-4317.0500000000002,-2390.3800000000001,-66.703800000000001,3283.9000000000001,-2212.6399999999999,1435.1800000000001
2965.0,5098.8999999999996,-549.63699999999994,-620.09100000000001,-3638.1199999999999,-699.74300000000005,1607.4400000000001,1576.0899999999999
2966.0,5135.71,-417.41000000000003,-717.61900000000003,-3858.7600000000002,-614.827,1377.8499999999999,1697.6600000000001
2967.0,5096.8100000000004,-332.78100000000001,-791.36400000000003,-3937.5799999999999,-523.05799999999999,1149.3800000000001,1792.73
2968.0,5039.5600000000004,-269.29500000000002,-861.25300000000004,-3989.8600000000001,-413.28300000000002,915.50400000000002,1860.0899999999999
2969.0,4952.29,-180.39400000000001,-875.40599999999995,-3965.4899999999998,-280.26799999999997,646.62800000000004,1902.27
2970.0,4839.1800000000003,-149.239,-930.202,-3909.8699999999999,-152.03399999999999,386.69099999999997,1922.1900000000001
2971.0,4748.9200000000001,-133.934,-973.27800000000002,-3828.0599999999999,-52.398800000000001,187.81200000000001,1931.1300000000001
2972.0,4719.4700000000003,-136.80099999999999,-995.798,-3788.3600000000001,37.751899999999999,23.368500000000001,1943.5699999999999
2973.0,4740.6400000000003,-158.35499999999999,-1016.11,-3769.4099999999999,132.583,-143.73699999999999,1973.23
2974.0,4765.4499999999998,-245.482,-1095.3199999999999,-3784.1999999999998,217.14599999999999,-267.51400000000001,2009.6400000000001
2975.0,4918.8999999999996,-234.398,-1149.3599999999999,-3867.2800000000002,282.214,-363.38900000000001,2069.5799999999999
2976.0,5291.0500000000002,-187.351,-1226.78,-4069.9000000000001,381.44499999999999,-615.38599999999997,2183.5500000000002
2977.0,5640.6999999999998,-245.79900000000001,-1281.71,-4090.0500000000002,571.33199999999999,-1024.0699999999999,2296.5900000000001
2978.0,5704.8999999999996,-539.36500000000001,-1394.1600000000001,-3826.71,834.18100000000004,-1378.8299999999999,2311.3800000000001
2979.0,5506.1300000000001,-803.52800000000002,-1463.1700000000001,-3418.1900000000001,1028.05,-1497.4000000000001,2226.6100000000001
2980.0,5362.4399999999996,-918.04700000000003,-1536.03,-3191.96,1111.24,-1519.8299999999999,2158.25
2981.0,5435.6099999999997,-954.09100000000001,-1568.8599999999999,-3014.77,1199.1900000000001,-1640.53,2144.77
2982.0,5559.4099999999999,-1080.01,-1595.0699999999999,-2791.5300000000002,1332.79,-1796.1300000000001,2128.1300000000001
2983.0,5685.0299999999997,-1238.96,-1625.99,-2524.6799999999998,1485.0999999999999,-1921.23,2107.4699999999998
2984.0,5825.2600000000002,-1511.51,-1752.8699999999999,-2303.4499999999998,1665.4100000000001,-2010.3499999999999,2081.1900000000001
2985.0,5960.4700000000003,-1826.1600000000001,-1874.76,-2041.79,1877.05,-2058.04,2017.5999999999999
2986.0,6096.9099999999999,-2173.02,-1981.74,-1720.49,2098.1999999999998,-2074.52,1906.0699999999999
2987.0,6213.96,-2476.77,-2026.1400000000001,-1294.71,2299.02,-2039.3599999999999,1752.3499999999999
2988.0,6295.1499999999996,-2785.5799999999999,-2087.6500000000001,-916.97900000000004,2462.8099999999999,-1939.0999999999999,1578.77
2989.0,6323.46,-3067.5300000000002,-2121.0,-593.90599999999995,2592.21,-1770.9200000000001,1383.9200000000001
2990.0,6273.6800000000003,-3320.2600000000002,-2127.1900000000001,-336.541,2684.54,-1530.3199999999999,1147.02
2991.0,4071.9899999999998,-556.86900000000003,-614.13199999999995,-2771.5900000000001,-614.58100000000002,1272.1700000000001,1391.79
2992.0,4086.7399999999998,-481.19299999999998,-658.90300000000002,-2904.6199999999999,-555.27800000000002,1156.45,1448.03
2993.0,4049.48,-380.86500000000001,-661.81399999999996,-2975.98,-462.08300000000003,987.04300000000001,1500.05
2994.0,4009.0799999999999,-322.41300000000001,-732.00999999999999,-3054.3299999999999,-363.76600000000002,797.31799999999998,1555.25
2995.0,3968.3099999999999,-236.75299999999999,-769.90099999999995,-3055.2399999999998,-268.55700000000002,610.22900000000004,1600.8900000000001
2996.0,3934.9400000000001,-188.15100000000001,-809.173,-3066.0999999999999,-173.126,426.51900000000001,1629.6300000000001
2997.0,3907.8299999999999,-140.46600000000001,-797.41899999999998,-3030.6500000000001,-78.107900000000001,257.411,1650.05
2998.0,3902.96,-191.18100000000001,-876.86199999999997,-3056.6100000000001,18.2012,101.26000000000001,1681.79
2999.0,3941.0900000000001,-204.274,-919.89200000000005,-3050.0999999999999,104.776,-27.568000000000001,1724.5899999999999
3000.0,4069.4099999999999,-225.13300000000001,-976.90899999999999,-3132.7800000000002,182.666,-144.34700000000001,1785.48
3001.0,4262.3100000000004,-219.05199999999999,-1015.04,-3208.0599999999999,275.83600000000001,-303.839,1868.46
3002.0,4437.6599999999999,-273.76400000000001,-1123.48,-3243.3099999999999,404.24799999999999,-500.94400000000002,1952.1600000000001
3003.0,4618.7799999999997,-329.964,-1242.22,-3196.2800000000002,561.83699999999999,-727.88699999999994,2030.0699999999999
3004.0,4746.1899999999996,-479.05500000000001,-1362.02,-3104.04,740.53200000000004,-961.14400000000001,2062.1500000000001
3005.0,4747.0900000000001,-630.59500000000003,-1381.97,-2879.02,912.48400000000004,-1135.8499999999999,2019.5699999999999
3006.0,4667.6300000000001,-782.55100000000004,-1404.4100000000001,-2637.98,1040.4200000000001,-1234.73,1939.95
3007.0,4599.8100000000004,-866.00599999999997,-1414.6099999999999,-2397.0799999999999,1130.7,-1294.9400000000001,1869.6700000000001
3008.0,4610.6199999999999,-1002.15,-1496.3900000000001,-2234.5100000000002,1228.1700000000001,-1367.5799999999999,1822.8099999999999
3009.0,4662.71,-1136.6400000000001,-1541.79,-2037.3599999999999,1343.3199999999999,-1439.1300000000001,1779.8399999999999
3010.0,4721.9899999999998,-1317.8,-1604.04,-1839.73,1474.97,-1491.8399999999999,1721.3299999999999
3011.0,4784.5900000000001,-1480.4100000000001,-1633.26,-1553.4100000000001,1620.9200000000001,-1522.04,1637.3599999999999
3012.0,4827.1499999999996,-1702.0799999999999,-1703.4100000000001,-1267.0599999999999,1764.3399999999999,-1510.5,1519.6500000000001
3013.0,4853.1899999999996,-1904.8599999999999,-1738.26,-956.96799999999996,1892.8,-1454.6400000000001,1377.0899999999999
3014.0,4874.5100000000002,-2123.8499999999999,-1787.76,-703.53700000000003,2006.99,-1358.1900000000001,1223.3699999999999
3015.0,4887.1400000000003,-2281.7800000000002,-1802.51,-447.00099999999998,2103.8299999999999,-1224.8800000000001,1062.72
3016.0,4864.1000000000004,-2434.1599999999999,-1836.71,-272.959,2175.21,-1054.1099999999999,893.45799999999997
3017.0,3199.3299999999999,-571.18399999999997,-616.77499999999998,-2164.9000000000001,-510.47399999999999,982.33199999999999,1167.5699999999999
3018.0,3264.48,-458.86700000000002,-602.74599999999998,-2213.6599999999999,-486.10000000000002,935.55700000000002,1221.28
3019.0,3231.1500000000001,-440.75599999999997,-664.20899999999995,-2308.9000000000001,-423.09300000000002,828.22199999999998,1254.72
3020.0,3202.02,-321.58800000000002,-630.25300000000004,-2315.96,-343.51600000000002,703.03399999999999,1285.6800000000001
3021.0,3210.1999999999998,-292.91800000000001,-702.85400000000004,-2435.3499999999999,-257.56299999999999,554.21699999999998,1329.8
3022.0,3218.1500000000001,-222.78299999999999,-718.53999999999996,-2443.5100000000002,-168.50800000000001,397.74299999999999,1380.8499999999999
3023.0,3218.6599999999999,-291.19600000000003,-833.73000000000002,-2523.0900000000001,-85.404499999999999,269.13,1420.77
3024.0,3227.04,-235.054,-802.75900000000001,-2472.1700000000001,-0.90211200000000002,147.66900000000001,1448.1500000000001
3025.0,3285.6599999999999,-277.32999999999998,-885.39099999999996,-2537.48,89.174199999999999,17.121700000000001,1490.76
3026.0,3393.3099999999999,-255.38499999999999,-915.65899999999999,-2531.4699999999998,176.94,-104.483,1557.1500000000001
3027.0,3534.27,-345.93799999999999,-1068.3099999999999,-2631.6999999999998,273.86500000000001,-224.01400000000001,1635.05
3028.0,3714.1700000000001,-334.91500000000002,-1133.53,-2637.48,384.351,-373.96800000000002,1715.77
3029.0,3851.9499999999998,-425.726,-1252.8199999999999,-2650.8200000000002,513.34000000000003,-545.68499999999995,1766.25
3030.0,3934.9899999999998,-457.79399999999998,-1278.5999999999999,-2499.6500000000001,654.91300000000001,-706.40099999999995,1782.6400000000001
3031.0,3949.4499999999998,-598.721,-1378.24,-2410.98,773.61699999999996,-820.76900000000001,1760.9200000000001
3032.0,3894.23,-654.37599999999998,-1348.53,-2189.6399999999999,880.99300000000005,-905.30499999999995,1693.5799999999999
3033.0,3846.9699999999998,-790.404,-1397.9200000000001,-2049.73,974.38800000000003,-976.49599999999998,1622.79
3034.0,3806.6799999999998,-840.03499999999997,-1352.3399999999999,-1808.03,1064.6500000000001,-1023.16,1554.1600000000001
3035.0,3803.2800000000002,-992.07899999999995,-1426.46,-1665.1800000000001,1164.3599999999999,-1069.02,1485.48
3036.0,3841.71,-1056.1099999999999,-1422.1700000000001,-1428.9200000000001,1263.0899999999999,-1120.5799999999999,1422.3099999999999
3037.0,3868.8000000000002,-1240.78,-1501.8599999999999,-1272.51,1360.73,-1148.3,1341.1800000000001
3038.0,3878.9099999999999,-1359.1400000000001,-1475.97,-1001.48,1466.3199999999999,-1134.3399999999999,1231.8099999999999
3039.0,3876.04,-1575.1500000000001,-1542.6900000000001,-830.87800000000004,1567.9300000000001,-1073.4200000000001,1104.6800000000001
3040.0,3854.6700000000001,-1667.5,-1511.9000000000001,-599.79700000000003,1647.98,-982.755,968.75800000000004
3041.0,3822.6100000000001,-1819.28,-1560.51,-465.33999999999997,1700.01,-882.91399999999999,827.41499999999996
3042.0,3778.29,-1834.27,-1483.9100000000001,-242.14099999999999,1732.5799999999999,-762.89700000000005,688.99000000000001
3043.0,2242.25,-423.62299999999999,-397.93099999999998,-1401.55,-388.75299999999999,696.71900000000005,843.78599999999994
3044.0,2439.4200000000001,-424.01299999999998,-522.76400000000001,-1640.03,-377.96300000000002,699.68499999999995,946.06899999999996
3045.0,2620.0599999999999,-352.19,-543.06700000000001,-1773.7,-371.70699999999999,680.78200000000004,1044.6700000000001
3046.0,2645.5,-357.27699999999999,-619.42700000000002,-1886.1400000000001,-305.45699999999999,579.35599999999999,1111.52
3047.0,2658.4400000000001,-284.517,-641.90099999999995,-1909.24,-224.98099999999999,462.55700000000002,1167.1600000000001
3048.0,2662.5999999999999,-275.13200000000001,-682.28599999999994,-1958.98,-164.84200000000001,373.77800000000002,1193.49
3049.0,2644.8000000000002,-208.49000000000001,-655.31399999999996,-1913.0799999999999,-79.272099999999995,259.71199999999999,1215.2
3050.0,2707.8299999999999,-229.88800000000001,-767.36000000000001,-1986.3099999999999,2.63089,140.07400000000001,1270.6400000000001
3051.0,2779.8600000000001,-221.76400000000001,-798.45299999999997,-2003.4100000000001,63.147799999999997,52.904600000000002,1320.0899999999999
3052.0,2820.1799999999998,-274.85300000000001,-865.87400000000002,-2057.1999999999998,140.55500000000001,-27.666699999999999,1344.02
3053.0,2901.8000000000002,-231.458,-883.20399999999995,-2032.0799999999999,225.09200000000001,-142.446,1380.1099999999999
3054.0,3009.0799999999999,-251.13499999999999,-968.61800000000005,-2036.8299999999999,317.87400000000002,-280.69900000000001,1425.0999999999999
3055.0,3115.9200000000001,-251.19200000000001,-1023.33,-1985.6700000000001,414.834,-411.47899999999998,1462.8099999999999
3056.0,3154.73,-355.48899999999998,-1109.95,-1949.48,516.89099999999996,-511.40499999999997,1467.28
3057.0,3179.8299999999999,-415.94900000000001,-1130.22,-1825.6900000000001,633.346,-605.65099999999995,1451.0699999999999
3058.0,3215.3600000000001,-529.03599999999994,-1209.51,-1749.6600000000001,736.23299999999995,-692.16899999999998,1432.1099999999999
3059.0,3158.6300000000001,-597.47799999999995,-1189.71,-1605.53,811.21600000000001,-720.28099999999995,1375.55
3060.0,3087.6700000000001,-736.84799999999996,-1230.96,-1485.3199999999999,900.12199999999996,-747.51499999999999,1289.98
3061.0,3097.1300000000001,-788.82899999999995,-1230.23,-1281.3599999999999,994.41399999999999,-801.13999999999999,1222.04
3062.0,3154.0300000000002,-890.85500000000002,-1291.4200000000001,-1147.7,1078.4400000000001,-854.48500000000001,1175.4200000000001
3063.0,3200.7399999999998,-964.81700000000001,-1296.6500000000001,-961.774,1165.5,-877.43799999999999,1117.8499999999999
3064.0,3199.3899999999999,-1118.75,-1356.77,-834.90200000000004,1251.6099999999999,-848.83699999999999,1027.97
3065.0,3163.02,-1202.0699999999999,-1349.99,-660.17899999999997,1322.78,-784.63199999999995,915.21199999999999
3066.0,3121.9299999999998,-1312.6600000000001,-1385.6900000000001,-548.88400000000001,1375.03,-711.15200000000004,798.46199999999999
3067.0,3073.4400000000001,-1349.8499999999999,-1351.8299999999999,-394.726,1406.49,-628.87099999999998,685.74400000000003
3068.0,3015.6700000000001,-1434.1800000000001,-1373.97,-346.59800000000001,1425.21,-539.42600000000004,579.27700000000004
3069.0,1547.0699999999999,-255.34100000000001,-308.46100000000001,-868.51499999999999,-302.517,480.52699999999999,599.98000000000002
3070.0,1660.3199999999999,-223.79499999999999,-342.06299999999999,-968.35500000000002,-283.84199999999998,465.34100000000001,679.46600000000001
3071.0,1887.25,-289.39999999999998,-452.82299999999998,-1198.9000000000001,-295.68599999999998,500.61500000000001,783.64999999999998
3072.0,2087.6199999999999,-255.06800000000001,-517.29499999999996,-1380.4300000000001,-268.23899999999998,467.72000000000003,902.94399999999996
3073.0,2166.6599999999999,-264.25400000000002,-600.45100000000002,-1503.1700000000001,-207.03399999999999,382.464,982.43899999999996
3074.0,2198.1199999999999,-236.32300000000001,-626.02599999999995,-1518.8399999999999,-151.86500000000001,323.54599999999999,1024.95
3075.0,2234.46,-253.26499999999999,-705.81100000000004,-1593.3199999999999,-101.64700000000001,256.27100000000002,1059.98
3076.0,2224.9200000000001,-215.876,-692.71100000000001,-1562.3399999999999,-25.230899999999998,158.97,1076.1500000000001
3077.0,2262.5599999999999,-214.04599999999999,-760.54899999999998,-1587.6900000000001,50.128900000000002,59.473799999999997,1105.47
3078.0,2318.1100000000001,-153.785,-776.10699999999997,-1568.99,89.822699999999998,-7.5030099999999997,1131.3499999999999
3079.0,2300.9499999999998,-174.86699999999999,-801.87099999999998,-1546.5,150.16900000000001,-79.280799999999999,1124.48
3080.0,2362.8299999999999,-176.625,-852.75800000000004,-1512.6600000000001,246.62700000000001,-197.989,1146.5999999999999
3081.0,2467.1300000000001,-203.511,-925.17600000000004,-1534.25,312.16800000000001,-292.76900000000001,1184.05
3082.0,2466.8800000000001,-231.57499999999999,-907.87300000000005,-1463.3399999999999,381.05599999999998,-352.82799999999997,1174.0
3083.0,2459.7399999999998,-349.464,-979.34900000000005,-1387.3499999999999,498.62799999999999,-435.73000000000002,1142.3099999999999
3084.0,2487.1300000000001,-400.76600000000002,-1010.45,-1293.22,581.71199999999999,-492.93700000000001,1128.0699999999999
3085.0,2490.27,-486.71499999999997,-1052.5,-1229.6400000000001,654.88599999999997,-525.24300000000005,1100.8299999999999
3086.0,2512.6799999999998,-551.23400000000004,-1066.0699999999999,-1092.3800000000001,753.78899999999999,-567.90300000000002,1058.6300000000001
3087.0,2551.4299999999998,-648.60799999999995,-1124.5899999999999,-1009.37,840.06200000000001,-605.98299999999995,1017.52
3088.0,2590.0300000000002,-698.58299999999997,-1141.9000000000001,-874.14999999999998,916.61800000000005,-637.23800000000006,969.52499999999998
3089.0,2636.4400000000001,-790.56799999999998,-1206.5699999999999,-778.32799999999997,985.35699999999997,-658.43299999999999,923.60199999999998
3090.0,2643.0100000000002,-849.86500000000001,-1207.96,-643.89400000000001,1046.78,-642.56200000000001,859.29999999999995
3091.0,2595.5999999999999,-939.88999999999999,-1217.25,-553.88599999999997,1094.95,-591.92200000000003,765.12599999999998
3092.0,2530.1900000000001,-976.40800000000002,-1173.4000000000001,-426.72899999999998,1128.2,-527.90499999999997,657.78300000000002
3093.0,2477.75,-1041.96,-1179.3399999999999,-359.065,1149.5999999999999,-462.59800000000001,563.76099999999997
3094.0,2442.4499999999998,-1049.73,-1144.1700000000001,-274.44299999999998,1169.9400000000001,-399.44900000000001,482.142
3095.0,1268.21,-200.28999999999999,-256.71100000000001,-614.74900000000002,-288.43400000000003,419.17700000000002,476.11799999999999
3096.0,1190.52,-188.369,-274.76999999999998,-638.86699999999996,-237.74100000000001,349.30900000000003,486.565
3097.0,1264.1400000000001,-147.25899999999999,-280.66699999999997,-680.79300000000001,-219.185,338.642,541.17200000000003
3098.0,1484.25,-158.56800000000001,-398.47500000000002,-889.90200000000004,-221.36799999999999,348.54700000000003,651.81399999999996
3099.0,1647.4200000000001,-126.91200000000001,-440.11599999999999,-1010.85,-197.07400000000001,316.31200000000001,751.60500000000002
3100.0,1762.8699999999999,-144.792,-519.01999999999998,-1152.1600000000001,-156.06999999999999,275.95400000000001,822.26400000000001
3101.0,1803.3599999999999,-116.98399999999999,-512.00800000000004,-1178.02,-111.654,216.81200000000001,858.48000000000002
3102.0,1756.8299999999999,-143.185,-551.82000000000005,-1178.5,-37.459200000000003,134.215,858.75999999999999
3103.0,1766.53,-70.8887,-564.92899999999997,-1127.51,33.872399999999999,41.403700000000001,870.54399999999998
3104.0,1854.74,-45.264899999999997,-630.04499999999996,-1180.1300000000001,48.781399999999998,-1.90865,906.76400000000001
3105.0,1904.8099999999999,-21.863399999999999,-640.16899999999998,-1165.71,87.2684,-65.634500000000003,932.57799999999997
3106.0,1856.3299999999999,-87.133700000000005,-666.96900000000005,-1118.04,169.28,-148.31100000000001,911.54899999999998
3107.0,1833.5699999999999,-105.099,-667.625,-1047.45,239.059,-196.898,894.40300000000002
3108.0,1921.9200000000001,-146.45500000000001,-771.346,-1073.97,296.52600000000001,-260.92000000000002,922.779
3109.0,1876.53,-171.268,-749.625,-961.28099999999995,347.81200000000001,-293.33999999999997,894.16700000000003
3110.0,1776.28,-253.56999999999999,-745.10500000000002,-864.10599999999999,419.70499999999998,-301.36700000000002,824.61800000000005
3111.0,1921.6900000000001,-298.06700000000001,-832.99699999999996,-812.89200000000005,526.45899999999995,-393.04899999999998,841.06200000000001
3112.0,2082.4299999999998,-406.65300000000002,-956.51300000000003,-811.76400000000001,617.42200000000003,-462.20699999999999,877.16800000000001
3113.0,2111.0999999999999,-465.29599999999999,-972.99900000000002,-735.45500000000004,694.36300000000006,-469.57999999999998,847.59000000000003
3114.0,2124.3499999999999,-543.45899999999995,-1021.17,-681.37099999999998,757.64999999999998,-479.35199999999998,800.01900000000001
3115.0,2147.1500000000001,-562.53399999999999,-1012.91,-557.01599999999996,811.03399999999999,-493.30200000000002,753.10799999999995
3116.0,2160.8600000000001,-643.005,-1055.6400000000001,-497.411,856.51400000000001,-489.56,706.61300000000006
3117.0,2130.21,-690.86400000000003,-1044.1800000000001,-407.90600000000001,899.22900000000004,-448.29599999999999,633.55100000000004
3118.0,2080.79,-766.58100000000002,-1064.3699999999999,-362.69499999999999,932.83100000000002,-390.46199999999999,544.58600000000001
3119.0,2038.52,-777.39499999999998,-1035.49,-282.37400000000002,952.54700000000003,-338.44299999999998,465.64600000000002
3120.0,2012.2,-823.45500000000004,-1053.45,-258.63799999999998,968.41499999999996,-292.98500000000001,398.37200000000001
3121.0,954.61699999999996,-187.44300000000001,-219.524,-463.983,-223.953,306.29899999999998,370.01799999999997
3122.0,906.96900000000005,-104.976,-202.61000000000001,-448.666,-185.26599999999999,259.983,375.38900000000001
3123.0,909.125,-85.627600000000001,-244.00999999999999,-493.91899999999998,-158.70599999999999,218.60900000000001,400.18900000000002
3124.0,988.44399999999996,-56.099299999999999,-248.791,-519.505,-157.95500000000001,224.95400000000001,442.63499999999999
3125.0,1151.0799999999999,-67.212800000000001,-345.85000000000002,-664.23699999999997,-151.50700000000001,220.50200000000001,529.95000000000005
3126.0,1270.72,-39.7697,-385.09800000000001,-724.69600000000003,-123.407,182.988,610.12199999999996
3127.0,1364.9300000000001,-77.495400000000004,-469.73599999999999,-814.04499999999996,-89.718800000000002,161.679,671.56799999999998
3128.0,1504.77,-9.8741800000000008,-522.47400000000005,-875.03399999999999,-60.880000000000003,122.444,739.47199999999998
3129.0,1496.3800000000001,-28.3523,-543.10299999999995,-887.322,-27.392800000000001,66.596800000000002,744.52800000000002
3130.0,1452.72,-21.908799999999999,-504.03500000000003,-848.19799999999998,30.916899999999998,20.283300000000001,727.89099999999996
3131.0,1553.2,-48.567500000000003,-604.48900000000003,-919.25999999999999,95.259399999999999,-67.808800000000005,772.07100000000003
3132.0,1559.75,-45.615600000000001,-611.93899999999996,-844.01999999999998,147.809,-115.70099999999999,779.12199999999996
3133.0,1496.3199999999999,-62.435200000000002,-614.15999999999997,-782.16800000000001,184.69200000000001,-130.56999999999999,743.90099999999995
3134.0,1459.0,-50.623399999999997,-594.27599999999995,-733.83500000000004,206.624,-157.26900000000001,715.42100000000005
3135.0,1401.6600000000001,-99.117999999999995,-600.32000000000005,-704.33699999999999,232.989,-177.93199999999999,681.33900000000006
3136.0,1399.75,-140.61600000000001,-613.58699999999999,-608.40800000000002,317.31299999999999,-230.32900000000001,652.38099999999997
3137.0,1514.55,-233.40700000000001,-717.41200000000003,-593.12599999999998,418.85300000000001,-296.48500000000001,661.88800000000003
3138.0,1674.4300000000001,-253.96299999999999,-782.18399999999997,-581.32299999999998,489.83100000000002,-353.77800000000002,705.96600000000001
3139.0,1749.8399999999999,-343.38600000000002,-862.30600000000004,-569.51800000000003,559.84500000000003,-376.81400000000002,705.36800000000005
3140.0,1749.6199999999999,-380.87299999999999,-863.50300000000004,-495.37799999999999,615.46699999999998,-371.03199999999998,663.57799999999997
3141.0,1744.54,-453.517,-905.03200000000004,-457.59300000000002,659.88999999999999,-366.202,614.46500000000003
3142.0,1744.53,-462.29700000000003,-890.851,-372.50200000000001,693.52099999999996,-358.35000000000002,573.00900000000001
3143.0,1741.8199999999999,-526.77599999999995,-923.69200000000001,-329.75799999999998,731.47699999999998,-337.70100000000002,520.27599999999995
3144.0,1719.45,-541.53499999999997,-900.21199999999999,-245.44300000000001,764.26599999999996,-298.21499999999997,452.73099999999999
3145.0,1691.25,-590.56100000000004,-922.88,-220.21799999999999,783.32600000000002,-258.97699999999998,386.29300000000001
3146.0,1672.1800000000001,-577.23199999999997,-893.21799999999996,-151.94800000000001,795.59699999999998,-225.87299999999999,331.20999999999998
3147.0,701.94899999999996,-58.878100000000003,-129.86699999999999,-234.58199999999999,-184.09,229.22399999999999,264.57299999999998
3148.0,730.19299999999998,-34.069899999999997,-172.21700000000001,-304.15899999999999,-165.55000000000001,208.64699999999999,297.56799999999998
3149.0,736.726,15.633900000000001,-170.79400000000001,-315.18000000000001,-139.15700000000001,174.15299999999999,322.05799999999999
3150.0,750.59400000000005,3.3709799999999999,-198.86000000000001,-347.88,-127.331,158.24799999999999,339.79500000000002
3151.0,804.26400000000001,8.3236299999999996,-214.953,-376.685,-119.136,155.727,373.89299999999997
3152.0,946.553,-16.046900000000001,-303.322,-493.09199999999998,-121.95999999999999,165.72399999999999,445.67899999999997
3153.0,1151.97,23.7408,-375.82299999999998,-610.60699999999997,-126.64400000000001,168.43799999999999,543.20799999999997
3154.0,1234.9000000000001,-2.1448,-445.14800000000002,-703.58900000000006,-92.400099999999995,121.01300000000001,599.41800000000001
3155.0,1223.76,-8.7907299999999999,-442.48200000000003,-684.45100000000002,-38.289999999999999,71.717200000000005,612.697
3156.0,1230.71,-40.373699999999999,-501.27800000000002,-671.79899999999998,33.4681,10.669,630.03700000000003
3157.0,1297.0799999999999,-19.857900000000001,-532.68499999999995,-669.53399999999999,70.4422,-14.617599999999999,662.06600000000003
3158.0,1379.3499999999999,-33.865499999999997,-596.67899999999997,-761.36699999999996,75.837800000000001,-32.915399999999998,694.14700000000005
3159.0,1262.4400000000001,-57.927500000000002,-552.779,-672.13300000000004,114.075,-74.216800000000006,637.70699999999999
3160.0,1068.3,-68.796300000000002,-470.17000000000002,-538.03499999999997,145.36699999999999,-75.676500000000004,537.81700000000001
3161.0,1119.0699999999999,-31.8992,-479.25599999999997,-496.68000000000001,189.785,-131.02000000000001,542.99699999999996
3162.0,1272.74,-96.687899999999999,-600.54300000000001,-501.226,277.81599999999997,-221.14099999999999,585.35199999999998
3163.0,1294.3,-147.56800000000001,-617.77599999999995,-416.40699999999998,354.37200000000001,-236.59899999999999,566.74000000000001
3164.0,1336.3800000000001,-197.05000000000001,-680.63900000000001,-430.75700000000001,400.76299999999998,-249.024,560.529
3165.0,1428.52,-206.32400000000001,-715.09500000000003,-409.12299999999999,443.74299999999999,-284.48399999999998,580.33500000000004
3166.0,1449.5999999999999,-280.74599999999998,-761.84000000000003,-383.70299999999997,497.24400000000003,-285.56700000000001,554.50699999999995
3167.0,1430.9000000000001,-298.87,-748.83299999999997,-327.185,533.07299999999998,-268.40899999999999,512.61400000000003
3168.0,1423.3499999999999,-349.65100000000001,-779.51800000000003,-309.84500000000003,563.86000000000001,-259.108,471.59500000000003
3169.0,1437.0699999999999,-363.767,-780.452,-242.45599999999999,595.40599999999995,-256.18200000000002,434.30500000000001
3170.0,1437.1700000000001,-425.06700000000001,-817.15999999999997,-219.78,624.90300000000002,-236.68700000000001,387.08600000000001
3171.0,1423.6500000000001,-429.10500000000002,-795.53499999999997,-155.57300000000001,645.93700000000001,-210.578,333.024
3172.0,1413.5899999999999,-467.76400000000001,-816.40800000000002,-138.643,660.23599999999999,-187.09,283.36200000000002
3173.0,592.18700000000001,-58.212400000000002,-136.77199999999999,-196.928,-170.60300000000001,198.35599999999999,208.81999999999999
3174.0,620.47299999999996,-18.127300000000002,-152.756,-235.34999999999999,-155.27600000000001,180.749,243.97900000000001
3175.0,629.17499999999995,-8.0676600000000001,-183.02699999999999,-275.29300000000001,-131.61799999999999,153.56700000000001,269.49099999999999
3176.0,646.779,10.367599999999999,-193.38800000000001,-289.34699999999998,-117.336,135.80799999999999,289.48899999999998
3177.0,676.73800000000006,9.7254699999999996,-210.77199999999999,-310.72500000000002,-116.91800000000001,135.209,306.30599999999998
3178.0,741.35699999999997,61.916600000000003,-211.68600000000001,-331.59399999999999,-108.509,121.691,340.49799999999999
3179.0,800.45500000000004,56.998100000000001,-260.15600000000001,-396.47399999999999,-89.4786,94.3904,377.52600000000001
3180.0,836.49400000000003,58.870699999999999,-272.46699999999998,-396.00799999999998,-66.438699999999997,75.039000000000001,409.71800000000002
3181.0,942.28499999999997,40.045099999999998,-355.38099999999997,-466.09699999999998,-37.024500000000003,52.746099999999998,470.12200000000001
3182.0,1062.8599999999999,24.417400000000001,-442.74599999999998,-540.053,7.1099699999999997,5.2521699999999996,534.24900000000002
3183.0,1046.3,-11.017200000000001,-458.90199999999999,-535.99400000000003,40.460799999999999,-22.314699999999998,531.43200000000002
3184.0,937.65599999999995,15.199999999999999,-377.69499999999999,-449.298,50.7318,-23.178999999999998,476.87900000000002
3185.0,851.86500000000001,17.037700000000001,-339.05000000000001,-389.505,68.581299999999999,-35.991500000000002,432.19099999999997
3186.0,878.03800000000001,21.024000000000001,-362.983,-358.24200000000002,114.99299999999999,-75.180999999999997,435.37799999999999
3187.0,1019.1900000000001,-29.361999999999998,-487.69900000000001,-397.53899999999999,181.69200000000001,-142.23099999999999,483.78500000000003
3188.0,1121.3299999999999,-59.017899999999997,-543.35000000000002,-396.702,239.43600000000001,-179.51900000000001,517.57899999999995
3189.0,1143.8800000000001,-132.26300000000001,-595.53700000000003,-371.471,307.68099999999998,-199.101,498.16399999999999
3190.0,1135.6300000000001,-147.041,-594.78800000000001,-315.38999999999999,344.48599999999999,-194.25299999999999,471.52100000000002
3191.0,1159.6300000000001,-164.68799999999999,-631.57100000000003,-322.38299999999998,362.97899999999998,-200.05099999999999,469.11099999999999
3192.0,1191.5999999999999,-180.96700000000001,-648.76400000000001,-283.488,395.858,-211.89099999999999,459.60500000000002
3193.0,1181.21,-228.667,-673.07299999999998,-272.07299999999998,426.57400000000001,-199.37,428.18799999999999
3194.0,1181.23,-240.17099999999999,-671.46299999999997,-230.762,456.40600000000001,-193.45599999999999,394.94799999999998
3195.0,1193.4300000000001,-268.51799999999997,-693.721,-202.83799999999999,481.94200000000001,-193.50800000000001,366.10599999999999
3196.0,1206.0,-274.74900000000002,-688.63599999999997,-139.89400000000001,508.13,-187.0,331.47500000000002
3197.0,1209.1600000000001,-318.98200000000003,-717.19399999999996,-121.941,531.71199999999999,-169.08000000000001,289.988
3198.0,1204.27,-320.75400000000002,-703.84000000000003,-78.810599999999994,548.14599999999996,-149.76599999999999,247.392
3199.0,498.32400000000001,-6.9729900000000002,-103.985,-124.968,-147.255,156.85599999999999,180.34700000000001
3200.0,527.52599999999995,7.4336200000000003,-129.99199999999999,-161.541,-141.22,151.44399999999999,204.476
3201.0,534.72000000000003,42.340400000000002,-133.66300000000001,-173.81100000000001,-122.048,129.05500000000001,224.809
3202.0,538.346,53.391500000000001,-146.506,-191.36799999999999,-106.19,112.63500000000001,235.929
3203.0,558.125,79.523799999999994,-152.03100000000001,-205.309,-96.516900000000007,97.4786,249.17099999999999
3204.0,545.71299999999997,74.901899999999998,-176.92400000000001,-210.75399999999999,-75.115399999999994,69.418400000000005,253.863
3205.0,553.15099999999995,93.055800000000005,-164.191,-180.06200000000001,-73.281300000000002,70.183899999999994,261.137
3206.0,649.71600000000001,83.642499999999998,-222.13300000000001,-258.608,-80.794300000000007,78.086600000000004,304.56200000000001
3207.0,750.80499999999995,109.65600000000001,-270.69400000000002,-304.26499999999999,-53.326300000000003,38.268500000000003,361.58100000000002
3208.0,762.30999999999995,97.417199999999994,-296.041,-302.36500000000001,-16.164300000000001,1.6039300000000001,375.49400000000003
3209.0,674.37199999999996,84.677499999999995,-253.93199999999999,-234.256,13.354200000000001,-8.8784500000000008,339.423
3210.0,629.11599999999999,65.809299999999993,-253.15799999999999,-225.834,15.0786,1.5579700000000001,316.92599999999999
3211.0,718.97900000000004,84.091899999999995,-290.31400000000002,-279.32799999999997,12.226699999999999,-9.0087499999999991,355.92700000000002
3212.0,833.67499999999995,47.633299999999998,-383.25999999999999,-328.077,71.853999999999999,-73.642200000000003,407.56200000000001
3213.0,910.80600000000004,12.8276,-438.685,-284.61099999999999,160.822,-126.459,426.60000000000002
3214.0,973.53099999999995,-36.197400000000002,-509.88999999999999,-300.86200000000002,206.06,-140.06399999999999,444.39699999999999
3215.0,992.72799999999995,-52.914700000000003,-522.93100000000004,-259.24200000000002,251.99100000000001,-152.24100000000001,431.65199999999999
3216.0,964.66200000000003,-95.5792,-535.30399999999997,-246.898,276.26499999999999,-148.86699999999999,402.24599999999998
3217.0,943.43600000000004,-99.941699999999997,-521.26099999999997,-213.86799999999999,293.11500000000001,-144.988,377.16800000000001
3218.0,955.226,-116.738,-543.60000000000002,-211.226,307.99400000000003,-151.154,369.01999999999998
3219.0,976.79600000000005,-118.40900000000001,-547.11800000000005,-164.715,337.34399999999999,-156.602,352.64299999999997
3220.0,987.65300000000002,-159.126,-584.30799999999999,-160.50200000000001,363.608,-152.834,330.935
3221.0,995.84400000000005,-166.452,-584.05899999999997,-129.0,386.5,-149.25999999999999,308.375
3222.0,1009.35,-210.31399999999999,-619.36099999999999,-120.88,412.471,-145.29400000000001,278.77600000000001
3223.0,1021.1799999999999,-212.845,-612.66600000000005,-67.384,435.36399999999998,-134.66900000000001,245.35300000000001
3224.0,1018.08,-247.62700000000001,-635.99900000000002,-66.788700000000006,451.16000000000003,-115.91200000000001,209.58099999999999
3225.0,417.29199999999997,8.94815,-109.014,-99.7821,-128.72300000000001,126.753,145.274
3226.0,437.51900000000001,20.5883,-122.258,-123.217,-121.345,118.97199999999999,167.57400000000001
3227.0,449.87400000000002,31.290400000000002,-142.41200000000001,-147.61199999999999,-107.36799999999999,105.27,185.70099999999999
3228.0,449.52600000000001,57.378900000000002,-140.59899999999999,-146.041,-92.379900000000006,87.971999999999994,194.03800000000001
3229.0,445.98700000000002,68.841899999999995,-142.226,-145.381,-82.170500000000004,74.178399999999996,197.41300000000001
3230.0,451.66300000000001,75.696100000000001,-136.94200000000001,-148.78999999999999,-72.948499999999996,66.226200000000006,205.75299999999999
3231.0,480.93700000000001,54.855400000000003,-174.14099999999999,-194.101,-61.573,54.222299999999997,226.34700000000001
3232.0,538.096,87.7423,-185.34299999999999,-200.62700000000001,-59.813000000000002,45.325299999999999,254.07900000000001
3233.0,548.32799999999997,92.120400000000004,-208.82300000000001,-199.376,-38.293199999999999,19.7285,262.85899999999998
3234.0,499.55900000000003,79.995599999999996,-193.65700000000001,-167.30699999999999,-22.569900000000001,11.2417,244.46000000000001
3235.0,495.93700000000001,56.578899999999997,-204.49199999999999,-187.214,-19.8598,18.3386,244.82400000000001
3236.0,585.76900000000001,60.683399999999999,-241.495,-237.57499999999999,-10.830500000000001,6.38727,290.12
3237.0,708.74800000000005,70.6922,-310.25799999999998,-279.00099999999998,16.1921,-30.054600000000001,348.63299999999998
3238.0,768.41200000000003,69.0167,-352.911,-247.95400000000001,66.861900000000006,-72.958600000000004,372.524
3239.0,780.10000000000002,16.5776,-403.74700000000001,-221.37799999999999,134.06700000000001,-99.0745,361.43700000000001
3240.0,828.07600000000002,-3.2046199999999998,-446.17399999999998,-213.75,172.42400000000001,-117.30200000000001,368.76100000000002
3241.0,837.23000000000002,-34.4206,-474.041,-211.483,194.49000000000001,-123.15600000000001,362.94900000000001
3242.0,793.60900000000004,-31.9605,-438.88,-156.262,213.89500000000001,-116.23,327.404
3243.0,770.39599999999996,-52.288899999999998,-443.65800000000002,-146.15600000000001,224.65899999999999,-111.125,305.39800000000002
3244.0,777.86500000000001,-52.436399999999999,-445.98200000000003,-131.42599999999999,238.52000000000001,-111.986,298.18599999999998
3245.0,807.447,-83.863799999999998,-486.89800000000002,-133.239,262.71100000000001,-122.66200000000001,291.43700000000001
3246.0,824.20799999999997,-88.104399999999998,-488.85399999999998,-93.752399999999994,288.06999999999999,-123.773,274.49200000000002
3247.0,834.01300000000003,-116.489,-515.03700000000003,-85.957400000000007,309.99099999999999,-117.73399999999999,254.14599999999999
3248.0,845.28300000000002,-121.245,-516.60900000000004,-53.296700000000001,333.55399999999997,-110.265,228.37100000000001
3249.0,852.673,-149.59700000000001,-539.49000000000001,-43.7438,351.64100000000002,-101.425,200.61699999999999
3250.0,848.89099999999996,-147.66200000000001,-531.18499999999995,-17.145900000000001,362.827,-86.9482,172.071
3251.0,344.98099999999999,54.4754,-63.918799999999997,-42.963200000000001,-107.348,102.02800000000001,117.241
3252.0,361.68299999999999,60.011899999999997,-88.893100000000004,-67.471400000000003,-101.52800000000001,92.090599999999995,135.40899999999999
3253.0,380.48200000000003,67.379499999999993,-103.232,-85.818899999999999,-92.503399999999999,82.891599999999997,154.965
3254.0,389.37400000000002,67.356999999999999,-118.669,-103.65000000000001,-81.862099999999998,72.529700000000005,167.02199999999999
3255.0,390.10300000000001,73.473299999999995,-120.96899999999999,-106.94499999999999,-72.618600000000001,61.935099999999998,172.79499999999999
3256.0,393.40199999999999,72.157200000000003,-132.12200000000001,-113.932,-66.124899999999997,54.141800000000003,177.49100000000001
3257.0,401.90199999999999,106.79300000000001,-116.846,-88.833100000000002,-56.167400000000001,41.770800000000001,184.654
3258.0,411.53399999999999,94.282799999999995,-142.57599999999999,-109.63200000000001,-49.320300000000003,31.2712,191.26300000000001
3259.0,398.90699999999998,90.046499999999995,-135.803,-102.822,-40.997199999999999,27.435300000000002,189.01400000000001
3260.0,406.29500000000002,83.407200000000003,-136.988,-114.435,-39.1372,29.349900000000002,194.751
3261.0,465.19299999999998,96.981700000000004,-156.351,-136.56899999999999,-37.1053,22.6891,224.47900000000001
3262.0,537.18799999999999,93.343800000000002,-209.952,-162.821,-18.926100000000002,5.0179900000000002,262.99900000000002
3263.0,619.471,84.853200000000001,-275.50999999999999,-188.572,11.295400000000001,-20.378399999999999,303.32900000000001
3264.0,686.82799999999997,53.8996,-354.01299999999998,-208.809,58.9741,-56.357100000000003,328.392
3265.0,706.86599999999999,45.956800000000001,-376.09199999999998,-157.624,112.53400000000001,-87.922799999999995,318.762
3266.0,689.12199999999996,30.360700000000001,-377.95999999999998,-128.63200000000001,134.55799999999999,-94.022800000000004,298.31
3267.0,678.70799999999997,38.5488,-362.649,-110.071,138.357,-94.936199999999999,290.262
3268.0,663.37400000000002,2.4955599999999998,-379.971,-104.955,159.34899999999999,-95.917699999999996,270.529
3269.0,648.48099999999999,-5.8935700000000004,-372.14100000000002,-87.325900000000004,173.78999999999999,-90.907700000000006,254.416
3270.0,654.74300000000005,-24.7744,-389.67200000000003,-87.011300000000006,188.97999999999999,-92.424800000000005,246.041
3271.0,667.38800000000003,-22.7805,-389.29000000000002,-62.192900000000002,206.197,-94.236199999999997,237.88999999999999
3272.0,682.0,-49.2697,-417.38099999999997,-59.061500000000002,227.05500000000001,-95.624899999999997,224.375
3273.0,695.98099999999999,-55.740000000000002,-424.55500000000001,-29.684899999999999,248.04499999999999,-94.049300000000002,205.72
3274.0,703.476,-83.266099999999994,-451.25599999999997,-23.511800000000001,265.43900000000002,-86.802099999999996,182.506
3275.0,698.61599999999999,-80.964500000000001,-443.85599999999999,0.92143699999999995,274.52100000000002,-77.131900000000002,159.185
3276.0,686.87699999999995,-94.5565,-446.43200000000002,2.8627799999999999,280.77800000000002,-65.203400000000002,135.339
3277.0,288.40199999999999,11.7347,-82.546499999999995,-58.055199999999999,-91.098100000000002,85.546499999999995,98.564400000000006
3278.0,299.15899999999999,62.711399999999998,-79.646600000000007,-52.114699999999999,-81.067999999999998,73.956999999999994,109.949
3279.0,320.37099999999998,68.893699999999995,-102.114,-68.778000000000006,-78.537000000000006,64.802899999999994,125.008
3280.0,333.35399999999998,69.193200000000004,-112.05200000000001,-75.727199999999996,-73.919700000000006,57.623699999999999,138.06399999999999
3281.0,339.01600000000002,71.110399999999998,-115.233,-77.889600000000002,-67.460599999999999,52.400700000000001,145.92400000000001
3282.0,342.72199999999998,81.185900000000004,-113.53100000000001,-77.569800000000001,-61.077500000000001,45.214300000000001,150.47499999999999
3283.0,334.858,67.760199999999998,-132.63,-95.341300000000004,-49.794600000000003,31.7288,150.108
3284.0,316.10599999999999,82.099699999999999,-107.187,-68.452200000000005,-43.812800000000003,26.002500000000001,143.91900000000001
3285.0,327.279,73.665999999999997,-112.164,-81.293199999999999,-48.568600000000004,32.201500000000003,149.63800000000001
3286.0,367.01600000000002,75.343400000000003,-133.035,-100.35899999999999,-47.150300000000001,28.4681,171.191
3287.0,417.70699999999999,69.803299999999993,-170.959,-127.376,-40.319499999999998,21.2471,199.06
3288.0,466.63999999999999,62.428699999999999,-215.73500000000001,-145.215,-16.296399999999998,2.5100500000000001,226.71899999999999
3289.0,518.57299999999998,60.234400000000001,-258.90800000000002,-147.197,11.837899999999999,-18.752199999999998,250.84
3290.0,582.38699999999994,77.441599999999994,-295.53899999999999,-133.77099999999999,45.496899999999997,-47.823300000000003,271.512
3291.0,612.96400000000006,56.295499999999997,-337.36399999999998,-123.277,85.241500000000002,-78.463700000000003,270.14400000000001
3292.0,587.14400000000001,49.268900000000002,-323.10899999999998,-86.739400000000003,103.413,-82.362899999999996,248.85599999999999
3293.0,568.54899999999998,37.371400000000001,-323.09399999999999,-84.537000000000006,105.17400000000001,-80.4482,237.90299999999999
3294.0,564.08799999999997,36.649500000000003,-313.13499999999999,-59.832999999999998,120.051,-82.460899999999995,228.50899999999999
3295.0,555.64300000000003,13.098800000000001,-324.209,-52.625,138.94,-79.4696,212.88
3296.0,554.66700000000003,11.043699999999999,-323.06700000000001,-35.455399999999997,150.97399999999999,-77.844700000000003,202.35300000000001
3297.0,558.68100000000004,-11.2173,-344.29300000000001,-38.626199999999997,163.715,-75.412800000000004,193.30000000000001
3298.0,568.26800000000003,-12.195399999999999,-347.495,-19.622900000000001,179.79599999999999,-73.4816,182.35499999999999
3299.0,580.13,-30.824200000000001,-368.30500000000001,-11.5777,197.059,-73.421700000000001,166.45599999999999
3300.0,583.65700000000004,-26.405799999999999,-360.399,22.114100000000001,208.80099999999999,-70.507000000000005,147.012
3301.0,571.38400000000001,-41.310099999999998,-363.67500000000001,25.344200000000001,213.126,-61.625,127.762
3302.0,559.25400000000002,-36.884500000000003,-349.89800000000002,38.953200000000002,218.834,-49.839399999999998,106.741
3303.0,252.15899999999999,-12.6225,-93.222899999999996,-52.729999999999997,-86.466899999999995,72.619799999999998,82.585499999999996
3304.0,245.465,39.425899999999999,-85.566500000000005,-49.132300000000001,-66.520099999999999,66.1952,84.530500000000004
3305.0,265.36200000000002,106.983,-54.467500000000001,-15.350099999999999,-68.297300000000007,53.346499999999999,94.1721
3306.0,283.46300000000002,91.246099999999998,-82.640799999999999,-38.294800000000002,-67.658299999999997,46.089700000000001,109.169
3307.0,295.209,79.381699999999995,-96.162499999999994,-49.014299999999999,-63.057699999999997,44.450600000000001,121.833
3308.0,296.21699999999998,77.888900000000007,-102.145,-53.9666,-57.584800000000001,38.540100000000002,125.54000000000001
3309.0,283.59500000000003,99.608199999999997,-77.338800000000006,-28.655999999999999,-50.085000000000001,30.435700000000001,122.55
3310.0,274.98000000000002,83.773600000000002,-85.255099999999999,-41.403799999999997,-47.564500000000002,28.152699999999999,120.233
3311.0,290.09500000000003,90.433099999999996,-84.070599999999999,-42.840800000000002,-50.645699999999998,28.211300000000001,127.953
3312.0,319.82400000000001,86.745000000000005,-106.883,-58.676000000000002,-47.704700000000003,24.168800000000001,145.17400000000001
3313.0,353.05799999999999,88.399900000000002,-130.624,-66.0779,-36.690800000000003,16.6158,165.10900000000001
3314.0,383.82400000000001,87.570999999999998,-163.14400000000001,-70.683800000000005,-19.148499999999999,2.6234299999999999,180.71600000000001
3315.0,424.07400000000001,101.691,-189.80099999999999,-63.353999999999999,0.57434499999999999,-19.702100000000002,195.42699999999999
3316.0,479.66500000000002,97.934100000000001,-244.251,-67.652799999999999,28.827500000000001,-49.405299999999997,210.09100000000001
3317.0,509.47300000000001,100.30500000000001,-261.55200000000002,-50.0931,50.4465,-62.988900000000001,216.709
3318.0,503.43400000000003,75.540899999999993,-272.51900000000001,-48.533900000000003,68.272599999999997,-66.067400000000006,210.565
3319.0,493.09399999999999,69.927800000000005,-264.21699999999998,-33.045099999999998,80.096800000000002,-66.950599999999994,202.155
3320.0,486.00200000000001,47.0015,-279.94900000000001,-33.997399999999999,91.984800000000007,-67.418099999999995,191.66300000000001
3321.0,478.68000000000001,41.796100000000003,-276.37200000000001,-11.537599999999999,107.14100000000001,-66.753,177.22200000000001
3322.0,473.63799999999998,24.188400000000001,-286.90699999999998,-10.341799999999999,118.28400000000001,-63.872300000000003,166.22300000000001
3323.0,474.99799999999999,27.6173,-280.74200000000002,9.0719499999999993,129.196,-61.777700000000003,157.46799999999999
3324.0,479.41399999999999,8.0632199999999994,-300.32999999999998,6.3787200000000004,141.53100000000001,-58.938800000000001,146.89500000000001
3325.0,485.59199999999998,8.3146000000000004,-301.23399999999998,25.613600000000002,153.834,-57.447899999999997,133.45400000000001
3326.0,484.20400000000001,-10.2273,-313.798,24.870200000000001,161.989,-53.792299999999997,119.736
3327.0,476.048,-5.2382200000000001,-301.25400000000002,40.823999999999998,166.72999999999999,-46.939599999999999,105.249
3328.0,475.94099999999997,-20.333600000000001,-315.16899999999998,38.935499999999998,174.19399999999999,-39.882100000000001,87.182299999999998
3329.0,259.26999999999998,-11.3034,-120.274,-56.259500000000003,-92.318299999999994,68.482900000000001,78.711299999999994
3330.0,236.923,48.652799999999999,-73.7059,-17.0274,-70.974199999999996,66.840900000000005,73.865799999999993
3331.0,224.209,83.518299999999996,-49.101500000000001,-10.5268,-66.469399999999993,48.613100000000003,72.9499
3332.0,239.34700000000001,87.0655,-67.1738,-23.360600000000002,-60.994300000000003,40.677999999999997,86.043599999999998
3333.0,255.18000000000001,79.672499999999999,-83.270200000000003,-30.135100000000001,-60.4666,38.286099999999998,98.378900000000002
3334.0,257.0,75.150700000000001,-84.910799999999995,-31.947900000000001,-57.895499999999998,35.699800000000003,103.63800000000001
3335.0,251.215,58.4146,-97.426900000000003,-47.636299999999999,-52.103099999999998,31.090900000000001,104.974
3336.0,249.50299999999999,70.819100000000006,-84.619500000000002,-36.058700000000002,-48.566400000000002,27.223600000000001,106.429
3337.0,259.84500000000003,70.556399999999996,-92.939499999999995,-41.997900000000001,-46.7134,23.636099999999999,112.989
3338.0,276.42099999999999,72.179199999999994,-105.01300000000001,-46.199399999999997,-43.715699999999998,19.02,122.68600000000001
3339.0,292.76400000000001,73.795500000000004,-119.34699999999999,-49.8917,-37.311199999999999,14.0318,131.94800000000001
3340.0,315.03199999999998,79.025800000000004,-141.18100000000001,-52.650100000000002,-23.392299999999999,-1.1705300000000001,142.321
3341.0,358.84300000000002,100.797,-165.26400000000001,-40.883899999999997,-4.5285900000000003,-28.279599999999999,156.143
3342.0,413.01600000000002,116.505,-197.017,-27.4741,18.279900000000001,-51.592700000000001,170.98699999999999
3343.0,435.66699999999997,91.531899999999993,-231.36199999999999,-41.186399999999999,29.059000000000001,-54.997599999999998,181.822
3344.0,426.73399999999998,79.247200000000007,-231.93100000000001,-26.1233,45.358400000000003,-54.254800000000003,175.07499999999999
3345.0,420.72800000000001,62.998800000000003,-241.69900000000001,-25.569900000000001,55.5565,-54.030200000000001,168.619
3346.0,417.69,65.344300000000004,-233.66,-4.2694700000000001,67.618200000000002,-56.809800000000003,160.864
3347.0,410.98500000000001,49.642600000000002,-240.28899999999999,5.0671900000000001,81.569500000000005,-57.612200000000001,148.17400000000001
3348.0,404.93200000000002,46.478999999999999,-236.06899999999999,21.2896,92.301900000000003,-55.198599999999999,136.52799999999999
3349.0,404.61399999999998,30.886500000000002,-249.881,20.179600000000001,100.83499999999999,-53.334499999999998,127.459
3350.0,406.36000000000001,32.951099999999997,-246.52799999999999,37.749499999999998,109.78400000000001,-51.344999999999999,117.741
3351.0,405.44299999999998,20.039999999999999,-255.54400000000001,40.524700000000003,119.117,-47.104900000000001,105.119
3352.0,401.98700000000002,23.107900000000001,-248.75899999999999,50.590200000000003,124.714,-40.966500000000003,96.1935
3353.0,402.55099999999999,11.3581,-259.04500000000002,44.9846,131.148,-37.439500000000002,87.371099999999998
3354.0,410.98599999999999,14.1851,-255.755,66.947500000000005,141.178,-35.1753,71.902500000000003
3355.0,264.33499999999998,60.457799999999999,-85.970600000000005,-4.2844499999999996,-93.185100000000006,67.595799999999997,68.221299999999999
3356.0,261.69200000000001,72.181799999999996,-72.675899999999999,2.7584499999999998,-88.403000000000006,68.581999999999994,71.133799999999994
3357.0,211.46199999999999,74.116500000000002,-43.879300000000001,8.0658100000000008,-69.754800000000003,45.842199999999998,66.639399999999995
3358.0,204.292,71.075999999999993,-57.603400000000001,-4.9113199999999999,-56.565100000000001,38.2288,71.174499999999995
3359.0,216.10499999999999,80.0505,-59.449100000000001,-6.53118,-57.832900000000002,34.663600000000002,77.855500000000006
3360.0,221.233,70.682299999999998,-71.119399999999999,-16.410900000000002,-56.439599999999999,31.622599999999998,83.754800000000003
3361.0,221.583,82.310500000000005,-57.324800000000003,-1.60947,-52.783499999999997,29.4589,88.156499999999994
3362.0,222.155,70.053799999999995,-71.530799999999999,-15.4465,-47.794499999999999,25.442299999999999,91.845500000000001
3363.0,229.58699999999999,77.9636,-72.354900000000001,-12.4734,-43.797699999999999,21.126999999999999,97.359099999999998
3364.0,243.53399999999999,78.218100000000007,-84.913200000000003,-19.937200000000001,-41.746600000000001,16.7073,104.895
3365.0,255.346,86.518000000000001,-88.130200000000002,-17.779900000000001,-37.083199999999998,11.725899999999999,111.80200000000001
3366.0,274.89699999999999,95.957300000000004,-106.62,-15.2285,-23.110800000000001,-4.4306299999999998,119.765
3367.0,333.20699999999999,125.2,-139.268,-3.22411,-5.5427099999999996,-34.1038,135.369
3368.0,369.98500000000001,115.16500000000001,-180.816,-11.509499999999999,7.6652899999999997,-47.798000000000002,145.71799999999999
3369.0,366.42399999999998,112.309,-172.55699999999999,3.0985299999999998,11.9076,-44.155299999999997,148.35400000000001
3370.0,360.30599999999998,91.086699999999993,-186.63499999999999,-0.042137800000000003,25.2607,-45.055300000000003,143.40000000000001
3371.0,355.92899999999997,89.910700000000006,-181.23500000000001,15.4564,35.6511,-45.6081,138.75200000000001
3372.0,355.01999999999998,69.2256,-198.31999999999999,11.4671,47.031599999999997,-47.950400000000002,132.96899999999999
3373.0,352.154,67.204300000000003,-194.90700000000001,29.8324,60.481400000000001,-48.788800000000002,123.28100000000001
3374.0,349.33600000000001,51.360799999999998,-205.85599999999999,31.412500000000001,70.716899999999995,-48.093299999999999,113.53
3375.0,348.44600000000003,57.038899999999998,-196.667,51.084000000000003,78.753600000000006,-47.215400000000002,105.244
3376.0,346.90300000000002,40.3964,-208.37700000000001,49.677500000000002,86.648499999999999,-45.207999999999998,95.5745
3377.0,339.851,42.044600000000003,-199.52099999999999,63.555100000000003,93.168599999999998,-39.403500000000001,83.240600000000001
3378.0,336.26400000000001,28.328900000000001,-210.85499999999999,54.541499999999999,97.096900000000005,-34.228499999999997,75.520499999999998
3379.0,344.00200000000001,34.378900000000002,-209.072,68.882199999999997,103.43600000000001,-32.101999999999997,69.016400000000004
3380.0,353.70999999999998,18.776399999999999,-228.03999999999999,68.098699999999994,112.27,-28.852,55.602899999999998
3381.0,235.26499999999999,83.825699999999998,-57.869199999999999,5.6247199999999999,-82.322199999999995,62.868299999999998,51.798900000000003
3382.0,255.66800000000001,90.3095,-63.621299999999998,3.09931,-91.056600000000003,64.641599999999997,57.967100000000002
3383.0,214.07499999999999,66.506500000000003,-63.766599999999997,-5.5380900000000004,-74.139200000000002,44.927100000000003,59.179900000000004
3384.0,166.90100000000001,54.488999999999997,-50.779000000000003,2.5062899999999999,-48.7301,30.706800000000001,56.544499999999999
3385.0,173.435,59.580199999999998,-54.073,-2.2286299999999999,-48.904800000000002,27.870999999999999,60.170900000000003
3386.0,188.05199999999999,70.668099999999995,-52.440100000000001,0.580399,-52.656399999999998,27.714500000000001,66.587299999999999
3387.0,191.12,50.4998,-71.616299999999995,-16.9238,-50.731400000000001,25.557400000000001,72.160499999999999
3388.0,194.357,61.256799999999998,-65.067099999999996,-6.6574400000000002,-45.507899999999999,22.637,77.531400000000005
3389.0,201.86600000000001,58.492899999999999,-77.035399999999996,-14.125400000000001,-41.328600000000002,18.938600000000001,83.167199999999994
3390.0,213.054,68.953000000000003,-79.261600000000001,-11.165699999999999,-38.732199999999999,14.2744,89.010300000000001
3391.0,229.33600000000001,70.376499999999993,-93.045699999999997,-18.8096,-36.820799999999998,9.8054799999999993,96.873099999999994
3392.0,263.767,90.247299999999996,-116.602,-14.741899999999999,-23.5139,-10.079800000000001,108.807
3393.0,313.827,113.535,-148.649,-2.4493999999999998,-5.9277600000000001,-36.664999999999999,119.116
3394.0,323.71199999999999,118.256,-149.517,9.7022399999999998,-2.4328099999999999,-39.543100000000003,123.372
3395.0,312.40699999999998,95.728099999999998,-156.26599999999999,5.3826900000000002,2.68825,-37.490499999999997,121.742
3396.0,306.40699999999998,93.614699999999999,-151.631,15.886100000000001,10.850300000000001,-38.399999999999999,118.29900000000001
3397.0,300.101,77.239500000000007,-160.411,16.367899999999999,21.949100000000001,-39.089399999999998,113.011
3398.0,301.98000000000002,79.838800000000006,-157.535,33.177599999999998,32.167099999999998,-40.864100000000001,108.98099999999999
3399.0,303.01499999999999,66.205299999999994,-170.33799999999999,35.952500000000001,43.907800000000002,-41.6312,101.854
3400.0,302.74299999999999,66.754800000000003,-166.73699999999999,51.602600000000002,53.520400000000002,-41.699300000000001,94.222300000000004
3401.0,301.22000000000003,51.749499999999998,-177.489,50.1661,61.680500000000002,-40.193100000000001,86.185100000000006
3402.0,297.82900000000001,54.126600000000003,-170.08500000000001,64.417500000000004,68.2363,-37.228400000000001,77.226399999999998
3403.0,290.77600000000001,44.9711,-172.54900000000001,63.784199999999998,72.680499999999995,-32.635300000000001,67.693700000000007
3404.0,288.75,50.944699999999997,-164.392,76.300799999999995,76.261499999999998,-29.5793,60.087600000000002
3405.0,297.12799999999999,41.291800000000002,-178.25399999999999,77.335300000000004,81.474500000000006,-28.428599999999999,53.334800000000001
3406.0,304.851,44.314599999999999,-178.24799999999999,92.132400000000004,88.2483,-24.353200000000001,42.1447
3407.0,210.624,88.644599999999997,-41.880600000000001,20.358699999999999,-75.080299999999994,54.939100000000003,43.2423
3408.0,223.90799999999999,94.877799999999993,-48.044899999999998,10.190799999999999,-80.725200000000001,54.317,45.6038
3409.0,206.976,102.551,-31.465,20.335599999999999,-73.9375,44.202800000000003,47.872799999999998
3410.0,148.578,69.380600000000001,-38.283000000000001,12.2842,-40.525300000000001,22.854099999999999,47.879399999999997
3411.0,142.82499999999999,62.9405,-35.680199999999999,15.773300000000001,-38.790500000000002,20.1661,49.5503
3412.0,158.482,56.838200000000001,-45.635899999999999,5.6024099999999999,-47.305900000000001,24.156700000000001,54.088500000000003
3413.0,164.06700000000001,73.532300000000006,-33.870399999999997,20.351400000000002,-46.302300000000002,21.5837,58.982399999999998
3414.0,170.06,61.3444,-53.013599999999997,6.1452499999999999,-43.392699999999998,19.465699999999998,64.0899
3415.0,176.33699999999999,68.629300000000001,-53.164200000000001,11.616199999999999,-39.514800000000001,16.463000000000001,69.4191
3416.0,189.33199999999999,66.850899999999996,-68.225099999999998,3.9348800000000002,-36.682200000000002,13.987,76.414699999999996
3417.0,223.91,88.450599999999994,-81.371499999999997,5.7491700000000003,-37.0274,6.8501799999999999,89.902299999999997
3418.0,267.83499999999998,112.76000000000001,-111.072,8.8559000000000001,-26.9436,-15.551,101.96899999999999
3419.0,281.36799999999999,124.95,-118.459,25.4009,-11.2569,-32.230899999999998,101.233
3420.0,272.67500000000001,105.67400000000001,-125.066,16.7866,-9.5178799999999999,-31.515599999999999,100.777
3421.0,267.608,106.10899999999999,-116.71599999999999,30.814299999999999,-2.75556,-32.8476,99.685299999999998
3422.0,262.42599999999999,92.704400000000007,-123.396,29.160799999999998,3.30558,-33.128399999999999,97.530299999999997
3423.0,257.339,94.493799999999993,-116.85899999999999,45.469799999999999,13.148899999999999,-34.112400000000001,92.198800000000006
3424.0,257.95800000000003,77.571299999999994,-132.654,40.862200000000001,21.5029,-35.183599999999998,88.725700000000003
3425.0,260.52699999999999,80.149299999999997,-130.57499999999999,57.220199999999998,32.053899999999999,-36.716799999999999,82.963399999999993
3426.0,260.62299999999999,65.524500000000003,-143.19399999999999,56.133699999999997,40.370100000000001,-36.015300000000003,76.272499999999994
3427.0,258.851,71.397199999999998,-134.52099999999999,73.076700000000002,46.908499999999997,-33.8232,68.846999999999994
3428.0,256.048,57.141500000000001,-145.255,67.587199999999996,51.652099999999997,-30.929099999999998,61.912300000000002
3429.0,253.465,62.196399999999997,-136.81,79.087999999999994,55.439500000000002,-28.117100000000001,55.982100000000003
3430.0,253.78800000000001,48.801600000000001,-148.47399999999999,73.231300000000005,59.507199999999997,-26.380400000000002,49.542099999999998
3431.0,258.03100000000001,56.939,-140.54400000000001,91.798100000000005,64.130499999999998,-24.954899999999999,41.931699999999999
3432.0,262.65300000000002,42.414400000000001,-155.79300000000001,87.507199999999997,69.509799999999998,-21.121700000000001,31.0702
3433.0,191.24700000000001,74.602599999999995,-48.966999999999999,15.0299,-68.617099999999994,47.599299999999999,37.400100000000002
3434.0,188.83500000000001,81.730699999999999,-46.654200000000003,12.632899999999999,-67.066199999999995,41.536999999999999,39.169899999999998
3435.0,192.90100000000001,77.616500000000002,-49.606000000000002,7.5423600000000004,-70.949299999999994,41.102800000000002,40.249499999999998
3436.0,162.88800000000001,75.408699999999996,-49.633800000000001,8.3887599999999996,-47.319800000000001,24.724699999999999,45.585099999999997
3437.0,127.01600000000001,49.510100000000001,-44.030200000000001,11.501899999999999,-33.0745,14.803599999999999,43.030200000000001
3438.0,129.172,50.234299999999998,-34.339599999999997,16.433,-39.534500000000001,18.629100000000001,42.890599999999999
3439.0,141.255,48.245600000000003,-47.259099999999997,4.7278200000000004,-41.840899999999998,18.372,47.712699999999998
3440.0,149.10300000000001,60.634599999999999,-42.808599999999998,12.8332,-41.477200000000003,16.064399999999999,52.459000000000003
3441.0,156.15100000000001,57.714399999999998,-52.041800000000002,8.5153099999999995,-39.819800000000001,14.1767,57.6083
3442.0,175.51900000000001,61.585999999999999,-66.086100000000002,6.5716700000000001,-38.029699999999998,12.998799999999999,67.4739
3443.0,220.61600000000001,77.838300000000004,-99.554400000000001,-2.1418200000000001,-36.636099999999999,1.8316399999999999,83.581400000000002
3444.0,252.82900000000001,104.98999999999999,-115.30800000000001,9.0595999999999997,-25.143000000000001,-19.998899999999999,89.861900000000006
3445.0,241.25,107.063,-108.23,24.1097,-11.8756,-29.212,81.333299999999994
3446.0,226.51900000000001,107.054,-91.233400000000003,38.264600000000002,-10.4902,-28.0915,77.896199999999993
3447.0,225.881,95.9268,-98.852999999999994,34.782400000000003,-7.38706,-29.051200000000001,78.651899999999998
3448.0,223.44900000000001,94.2149,-95.768799999999999,42.187600000000003,-4.0601799999999999,-29.3171,78.284400000000005
3449.0,219.05699999999999,83.234200000000001,-102.746,43.858800000000002,4.9678100000000001,-31.010999999999999,73.509
3450.0,219.221,84.764300000000006,-100.035,57.616300000000003,13.216799999999999,-32.188299999999998,69.652799999999999
3451.0,221.09399999999999,76.143500000000003,-109.291,60.489400000000003,20.9741,-32.6845,64.884299999999996
3452.0,221.459,76.211600000000004,-107.767,71.769800000000004,27.911100000000001,-31.876000000000001,59.464599999999997
3453.0,220.72300000000001,65.933999999999997,-115.54600000000001,70.632000000000005,33.595500000000001,-30.049700000000001,54.202800000000003
3454.0,219.72900000000001,68.597800000000007,-110.47799999999999,80.397900000000007,37.783900000000003,-28.045000000000002,49.389200000000002
3455.0,220.70400000000001,62.885100000000001,-115.401,81.4298,40.993200000000002,-26.543900000000001,45.163499999999999
3456.0,222.25200000000001,65.470299999999995,-111.90300000000001,91.704400000000007,45.079500000000003,-24.4633,39.586599999999997
3457.0,224.024,57.856699999999996,-118.622,91.449100000000001,49.720300000000002,-21.712700000000002,32.427599999999998
3458.0,225.083,60.187100000000001,-115.042,100.422,54.004899999999999,-18.059799999999999,22.805099999999999
3459.0,165.13900000000001,79.2941,-33.823,27.827000000000002,-59.991900000000001,39.012999999999998,27.5991
3460.0,163.84999999999999,79.262600000000006,-33.1875,25.856400000000001,-60.0839,35.25,30.536000000000001
3461.0,179.14699999999999,88.1511,-33.155200000000001,23.736599999999999,-67.028700000000001,35.7761,35.236800000000002
3462.0,160.828,88.138000000000005,-33.003799999999998,20.832899999999999,-52.845700000000001,26.791699999999999,37.781500000000001
3463.0,109.748,61.358800000000002,-26.164200000000001,23.659199999999998,-28.0139,11.0128,34.372599999999998
3464.0,106.056,53.714500000000001,-23.911000000000001,24.365500000000001,-30.7959,11.8469,33.530299999999997
3465.0,123.185,67.900599999999997,-18.5413,31.511500000000002,-38.394599999999997,15.1822,38.339300000000001
3466.0,132.33799999999999,63.051200000000001,-32.316800000000001,21.9603,-38.490400000000001,13.1434,43.534300000000002
3467.0,145.327,73.894900000000007,-33.374200000000002,26.328099999999999,-39.668399999999998,11.0021,49.5627
3468.0,162.90299999999999,74.737300000000005,-51.5929,19.803599999999999,-37.447000000000003,7.29556,58.119300000000003
3469.0,190.83099999999999,100.25,-65.347499999999997,28.930599999999998,-29.186199999999999,-6.1117400000000002,65.955299999999994
3470.0,216.24100000000001,118.598,-79.273799999999994,35.8825,-21.5733,-22.482700000000001,68.846800000000002
3471.0,207.399,119.114,-70.432400000000001,46.6464,-15.672599999999999,-26.7424,65.034700000000001
3472.0,192.85499999999999,97.143500000000003,-76.539199999999994,40.863199999999999,-10.3855,-25.4451,61.559699999999999
3473.0,195.16900000000001,100.149,-72.441800000000001,50.620600000000003,-9.5503400000000003,-25.917000000000002,63.534500000000001
3474.0,191.42699999999999,93.073700000000002,-71.918300000000002,50.419600000000003,-8.4495799999999992,-26.5928,64.042699999999996
3475.0,185.64500000000001,99.701400000000007,-61.619300000000003,67.138300000000001,0.20672699999999999,-29.420000000000002,57.837899999999998
3476.0,186.631,84.709800000000001,-75.683800000000005,64.794600000000003,6.6406900000000002,-30.973500000000001,54.443800000000003
3477.0,187.40199999999999,88.2316,-71.518100000000004,78.3048,13.5488,-30.863600000000002,50.5916
3478.0,188.44999999999999,75.786799999999999,-83.2196,75.205500000000001,19.630099999999999,-29.884,46.502499999999998
3479.0,189.697,81.178200000000004,-77.370599999999996,88.516000000000005,24.063800000000001,-28.221499999999999,42.831200000000003
3480.0,190.83000000000001,69.395499999999998,-88.690100000000001,83.137900000000002,27.273399999999999,-26.625900000000001,39.603999999999999
3481.0,192.33000000000001,74.862899999999996,-82.370500000000007,95.575500000000005,30.5916,-25.383800000000001,35.788200000000003
3482.0,194.024,63.256399999999999,-93.553200000000004,91.348299999999995,34.447200000000002,-22.896999999999998,30.1617
3483.0,195.17099999999999,68.5398,-88.2834,102.16500000000001,38.265599999999999,-19.328299999999999,22.953800000000001
3484.0,193.29900000000001,57.819899999999997,-96.499499999999998,94.757000000000005,41.2849,-15.022,15.2239
3485.0,137.63900000000001,73.191400000000002,-24.646100000000001,28.825099999999999,-50.6631,31.878599999999999,18.2165
3486.0,140.47200000000001,75.525300000000001,-24.914100000000001,27.053999999999998,-52.205100000000002,29.5198,21.392099999999999
3487.0,151.809,85.481499999999997,-31.327100000000002,21.298400000000001,-54.0167,26.7075,25.0745
3488.0,141.67599999999999,88.195700000000002,-19.913799999999998,26.0334,-50.630299999999998,23.563199999999998,25.065200000000001
3489.0,102.71599999999999,66.947100000000006,-19.744399999999999,22.835100000000001,-28.6328,10.5777,26.572399999999998
3490.0,94.538300000000007,59.441699999999997,-16.083200000000001,28.126200000000001,-26.6631,8.2603299999999997,27.570799999999998
3491.0,108.214,50.979199999999999,-27.755199999999999,18.776,-34.834699999999998,11.910600000000001,31.323899999999998
3492.0,119.093,60.942399999999999,-27.587499999999999,24.1816,-36.294199999999996,10.6784,36.307600000000001
3493.0,134.881,68.188500000000005,-38.545299999999997,22.427900000000001,-36.8523,7.2705000000000002,42.261200000000002
3494.0,152.31800000000001,80.323499999999996,-49.3292,24.893999999999998,-34.707799999999999,0.89798299999999998,47.9193
3495.0,166.13399999999999,95.189999999999998,-56.722900000000003,30.393999999999998,-28.7104,-9.74953,49.697899999999997
3496.0,179.84399999999999,109.422,-59.490699999999997,39.020899999999997,-23.3901,-20.743400000000001,51.040900000000001
3497.0,178.58199999999999,104.628,-59.759799999999998,41.688299999999998,-20.2027,-24.104600000000001,52.553899999999999
3498.0,166.25299999999999,102.208,-50.608499999999999,52.576000000000001,-11.8522,-23.530000000000001,49.416699999999999
3499.0,160.01400000000001,88.751599999999996,-54.510899999999999,49.984499999999997,-10.5326,-22.863299999999999,49.093299999999999
3500.0,161.78800000000001,89.627600000000001,-52.4925,55.793300000000002,-9.9357600000000001,-25.500900000000001,49.6449
3501.0,161.99700000000001,87.915300000000002,-55.7241,60.486499999999999,-2.8072300000000001,-29.015699999999999,45.639400000000002
3502.0,160.75,88.398399999999995,-50.917299999999997,74.389099999999999,2.9779599999999999,-29.614599999999999,42.931800000000003
3503.0,162.16200000000001,80.974800000000002,-58.988199999999999,74.925200000000004,8.4835999999999991,-29.224599999999999,39.744100000000003
3504.0,163.173,81.572500000000005,-58.168599999999998,83.612499999999997,12.897600000000001,-27.925699999999999,36.377299999999998
3505.0,165.00399999999999,74.191800000000001,-65.491200000000006,83.438999999999993,16.1462,-26.867899999999999,33.615000000000002
3506.0,166.619,76.910200000000003,-62.473199999999999,92.518799999999999,19.1965,-25.122,31.177499999999998
3507.0,169.036,70.456299999999999,-69.635900000000007,92.058800000000005,22.861599999999999,-23.1965,27.5198
3508.0,170.374,73.133799999999994,-66.672799999999995,100.53,26.346499999999999,-20.649000000000001,22.651
3509.0,170.084,67.006100000000004,-71.291600000000003,99.653499999999994,29.612500000000001,-17.3963,15.084899999999999
3510.0,167.72,70.654300000000006,-65.636700000000005,105.41200000000001,30.809699999999999,-13.206899999999999,8.9159600000000001
3511.0,109.771,79.409000000000006,1.56718,42.049799999999998,-41.1785,26.266500000000001,10.739000000000001
3512.0,115.621,78.654300000000006,-9.9584600000000005,30.008700000000001,-41.8142,23.591100000000001,13.4817
3513.0,123.182,101.758,0.80886599999999997,43.784599999999998,-42.934899999999999,20.667899999999999,14.865500000000001
3514.0,130.54499999999999,89.704999999999998,-15.237399999999999,31.2042,-47.241700000000002,19.535599999999999,17.376100000000001
3515.0,114.78100000000001,89.471100000000007,-8.8730200000000004,36.845700000000001,-36.335500000000003,12.2395,22.351600000000001
3516.0,87.742000000000004,55.441400000000002,-15.791700000000001,24.843399999999999,-27.258099999999999,7.0244799999999996,22.292000000000002
3517.0,94.4285,71.241200000000006,-0.20846300000000001,43.500300000000003,-31.138999999999999,9.3554600000000008,24.850999999999999
3518.0,111.193,63.517600000000002,-22.581099999999999,28.7044,-34.866500000000002,8.1008700000000005,31.050899999999999
3519.0,126.48699999999999,82.644499999999994,-20.8904,39.2196,-35.278799999999997,5.0087299999999999,36.881799999999998
3520.0,148.89400000000001,87.153999999999996,-43.560099999999998,29.409300000000002,-35.323500000000003,-1.8101799999999999,42.9876
3521.0,155.47999999999999,109.422,-33.3949,46.302500000000002,-30.268999999999998,-11.4802,43.450600000000001
3522.0,145.85599999999999,105.199,-33.304000000000002,48.644599999999997,-20.4559,-18.157699999999998,38.647500000000001
3523.0,148.35599999999999,109.40900000000001,-29.650099999999998,57.912700000000001,-19.293399999999998,-21.628599999999999,39.417299999999997
3524.0,142.68000000000001,94.748900000000006,-40.161000000000001,53.592399999999998,-11.899800000000001,-21.994299999999999,37.145400000000002
3525.0,130.87200000000001,93.672899999999998,-25.843699999999998,64.786100000000005,-11.015599999999999,-19.298400000000001,36.423699999999997
3526.0,137.13499999999999,95.092799999999997,-27.811299999999999,66.879300000000001,-11.327299999999999,-24.3353,37.464399999999998
3527.0,143.453,102.88500000000001,-25.044499999999999,80.693200000000004,-6.1257599999999996,-29.0032,36.162799999999997
3528.0,141.36500000000001,87.829400000000007,-36.383099999999999,77.5501,-0.47813,-28.346499999999999,33.243099999999998
3529.0,142.053,92.289500000000004,-31.7666,89.153000000000006,3.4631500000000002,-27.786300000000001,30.6389
3530.0,143.374,81.545500000000004,-42.052799999999998,85.769900000000007,7.1810900000000002,-26.9438,28.3262
3531.0,143.88499999999999,87.025300000000001,-35.288600000000002,97.865399999999994,10.3284,-25.3294,26.1663
3532.0,146.143,75.176400000000001,-47.885300000000001,91.832899999999995,13.616400000000001,-23.360800000000001,23.756499999999999
3533.0,148.47999999999999,80.144099999999995,-44.290799999999997,101.678,16.568899999999999,-21.0825,20.510400000000001
3534.0,149.36600000000001,69.906199999999998,-54.352200000000003,96.205299999999994,19.157399999999999,-18.549099999999999,16.096299999999999
3535.0,148.41,75.644599999999997,-46.688200000000002,105.818,21.886399999999998,-15.5481,9.9389500000000002
3536.0,148.31100000000001,66.597700000000003,-54.4908,99.513499999999993,23.824999999999999,-12.672499999999999,5.1568699999999996
3537.0,82.716899999999995,60.984400000000001,2.5114800000000002,29.726900000000001,-31.161100000000001,20.779399999999999,4.6649799999999999
3538.0,97.060299999999998,86.568799999999996,9.3930799999999994,38.869100000000003,-33.582299999999996,21.324000000000002,6.4073900000000004
3539.0,104.70999999999999,81.044200000000004,1.1982699999999999,27.718399999999999,-40.082099999999997,16.346399999999999,11.281000000000001
3540.0,120.461,91.884,-2.0943700000000001,31.2986,-43.472299999999997,19.206399999999999,17.568100000000001
3541.0,120.148,88.499499999999998,-13.037100000000001,26.975000000000001,-40.072099999999999,14.858000000000001,19.2178
3542.0,89.870800000000003,72.8947,-3.0036700000000001,36.228999999999999,-30.037199999999999,4.2234600000000002,18.206900000000001
3543.0,83.113100000000003,52.602200000000003,-11.8102,29.109200000000001,-28.5365,7.6524599999999996,19.1614
3544.0,101.81999999999999,65.680400000000006,-16.592400000000001,33.669800000000002,-32.403300000000002,5.7487899999999996,25.5501
3545.0,124.10599999999999,76.5214,-31.351199999999999,30.968900000000001,-34.2393,1.88127,32.025799999999997
3546.0,138.14400000000001,91.608599999999996,-33.497900000000001,36.328699999999998,-33.609299999999998,-4.9060800000000002,35.7363
3547.0,134.30600000000001,98.963999999999999,-25.597899999999999,41.096600000000002,-29.158200000000001,-12.9171,33.319899999999997
3548.0,118.849,100.48099999999999,-14.101599999999999,50.325400000000002,-19.054200000000002,-17.8735,26.954799999999999
3549.0,116.404,95.696899999999999,-13.8879,52.9452,-18.180099999999999,-20.447099999999999,26.786799999999999
3550.0,112.78700000000001,95.741900000000001,-10.6496,61.9801,-13.5837,-19.011199999999999,27.178799999999999
3551.0,108.917,74.965800000000002,-26.608799999999999,52.1755,-8.8046900000000008,-17.571200000000001,26.971
3552.0,120.696,94.925200000000004,-15.711,71.009699999999995,-8.9306999999999999,-24.481100000000001,28.0703
3553.0,127.702,89.112499999999997,-23.711400000000001,71.139099999999999,-8.5499100000000006,-28.840499999999999,29.2623
3554.0,125.85899999999999,92.791899999999998,-17.562100000000001,84.266999999999996,-3.0502899999999999,-28.299700000000001,26.458500000000001
3555.0,126.292,83.029300000000006,-26.554099999999998,81.842399999999998,0.71030899999999997,-27.5458,24.439699999999998
3556.0,126.361,86.259,-22.239599999999999,92.032200000000003,3.8985500000000002,-25.712399999999999,22.4084
3557.0,126.86,76.040800000000004,-32.104300000000002,87.802300000000002,7.0117799999999999,-23.5562,19.7971
3558.0,129.09800000000001,81.394599999999997,-28.067799999999998,98.1828,9.3811099999999996,-21.564900000000002,17.3752
3559.0,130.739,73.3673,-36.769500000000001,94.475099999999998,11.5588,-19.313500000000001,14.972300000000001
3560.0,130.773,78.810599999999994,-30.522300000000001,103.657,13.850099999999999,-16.849299999999999,11.355399999999999
3561.0,130.68199999999999,71.293899999999994,-36.968299999999999,99.541799999999995,16.104399999999998,-14.3309,5.9628100000000002
3562.0,132.732,76.613299999999995,-32.177900000000001,107.95399999999999,17.927299999999999,-11.867699999999999,1.12558
3563.0,65.352099999999993,69.251499999999993,23.9556,43.532899999999998,-25.4452,15.998100000000001,-2.0396999999999998
3564.0,85.465000000000003,87.905600000000007,24.815999999999999,46.193399999999997,-30.857199999999999,21.270900000000001,-0.77979799999999999
3565.0,97.026700000000005,88.001999999999995,18.150600000000001,39.3523,-40.915300000000002,11.1562,7.5463100000000001
3566.0,107.666,72.119699999999995,-11.167999999999999,20.699300000000001,-40.556399999999996,17.538799999999998,12.0617
3567.0,115.36199999999999,99.728999999999999,3.1818599999999999,40.311700000000002,-39.736499999999999,16.7194,14.3476
3568.0,102.934,81.397000000000006,-3.6841400000000002,36.659300000000002,-35.962600000000002,2.2149399999999999,20.549399999999999
3569.0,82.459999999999994,66.472700000000003,1.62009,43.044199999999996,-26.769400000000001,7.5011900000000002,20.377199999999998
3570.0,93.532499999999999,70.721299999999999,-7.6230399999999996,39.046100000000003,-29.310199999999998,3.8883299999999998,22.1068
3571.0,117.706,93.690899999999999,-13.647500000000001,47.185000000000002,-31.967700000000001,-0.86665599999999998,26.4207
3572.0,121.462,87.758399999999995,-25.327300000000001,40.839500000000001,-29.860399999999998,-6.5787300000000002,27.473099999999999
3573.0,115.114,113.18300000000001,5.9491500000000004,60.644799999999996,-27.6981,-13.7118,24.2224
3574.0,102.25,107.21599999999999,9.4694299999999991,58.071199999999997,-18.5261,-19.097200000000001,19.710999999999999
3575.0,90.247900000000001,106.37,22.1311,69.901200000000003,-14.379200000000001,-19.913,18.080400000000001
3576.0,83.461600000000004,88.352599999999995,10.388500000000001,61.488100000000003,-12.376099999999999,-16.540800000000001,18.073
3577.0,87.998999999999995,90.739800000000002,8.5244400000000002,70.8065,-9.4539600000000004,-16.718900000000001,19.3155
3578.0,104.825,95.480900000000005,-0.613259,74.639300000000006,-8.7459199999999999,-23.867000000000001,21.480799999999999
3579.0,114.863,102.986,1.8237399999999999,87.6965,-8.4290800000000008,-28.381599999999999,23.402200000000001
3580.0,116.584,93.266999999999996,-8.7960799999999999,86.322400000000002,-4.0846099999999996,-28.3521,21.400099999999998
3581.0,115.45,93.900400000000005,-6.1550799999999999,94.206800000000001,-1.3372599999999999,-26.1403,20.2605
3582.0,112.517,84.165999999999997,-13.192,90.184299999999993,1.59978,-23.1937,17.6814
3583.0,113.71599999999999,87.293099999999995,-10.412699999999999,98.899000000000001,4.3082599999999998,-21.518999999999998,14.9603
3584.0,115.205,79.051299999999998,-19.053899999999999,95.197299999999998,6.2719300000000002,-19.7927,13.034800000000001
3585.0,115.117,82.228800000000007,-15.381600000000001,101.937,7.9060699999999997,-17.305599999999998,10.4254
3586.0,115.315,74.654300000000006,-22.4117,97.760099999999994,9.9069900000000004,-14.880100000000001,6.8396400000000002
3587.0,116.771,79.281599999999997,-17.436499999999999,105.90900000000001,12.225099999999999,-13.321199999999999,2.2987000000000002
3588.0,119.60599999999999,73.621899999999997,-24.155200000000001,103.241,13.912699999999999,-11.164400000000001,-2.39893
3589.0,58.146599999999999,64.315899999999999,29.2654,38.009300000000003,-23.788599999999999,14.6218,-3.8051900000000001
3590.0,76.334599999999995,81.748500000000007,35.801400000000001,45.031100000000002,-30.7178,19.845400000000001,-3.7628200000000001
3591.0,90.568200000000004,77.298500000000004,13.4489,34.148099999999999,-39.677199999999999,9.9291099999999997,0.36893700000000001
3592.0,102.351,72.433000000000007,-2.3204199999999999,33.006900000000002,-43.308900000000001,14.6647,1.65954
3593.0,105.015,81.939899999999994,-4.4556699999999996,34.9178,-39.313499999999998,13.7514,8.3943200000000004
3594.0,106.042,79.298500000000004,-12.3529,37.816400000000002,-36.588200000000001,2.0628000000000002,17.293399999999998
3595.0,96.522800000000004,50.636299999999999,-30.974399999999999,24.719899999999999,-31.6631,6.3441900000000002,17.9939
3596.0,94.617000000000004,73.371499999999997,-9.5048600000000008,41.779400000000003,-30.007999999999999,2.1411199999999999,18.1554
3597.0,97.803799999999995,77.499799999999993,-11.610200000000001,40.6524,-28.279399999999999,-1.54312,19.531400000000001
3598.0,97.017399999999995,80.486800000000002,-13.475,43.140000000000001,-21.261299999999999,-6.7699299999999996,20.035900000000002
3599.0,105.08,101.20099999999999,-0.75583,50.776299999999999,-21.6555,-15.514900000000001,19.288
3600.0,96.426000000000002,103.46599999999999,10.3262,56.651000000000003,-16.979700000000001,-19.665800000000001,15.984299999999999
3601.0,75.628799999999998,87.537000000000006,16.924099999999999,58.061399999999999,-13.674799999999999,-16.584099999999999,13.6623
3602.0,67.446899999999999,84.856200000000001,22.3049,63.863199999999999,-12.056699999999999,-13.0007,13.731999999999999
3603.0,76.093299999999999,79.918800000000005,8.7260399999999994,62.294400000000003,-9.8716299999999997,-15.335000000000001,14.922599999999999
3604.0,88.072699999999998,91.275800000000004,11.625500000000001,74.584100000000007,-10.383699999999999,-20.898099999999999,16.631900000000002
3605.0,101.26600000000001,90.121799999999993,2.0875400000000002,76.629999999999995,-10.5131,-26.389199999999999,19.058599999999998
3606.0,108.92,94.495099999999994,-0.990811,88.210400000000007,-5.92136,-27.5853,17.499099999999999
3607.0,106.887,81.570400000000006,-11.825900000000001,83.192700000000002,-3.6763300000000001,-23.948799999999999,16.193200000000001
3608.0,101.70699999999999,86.270399999999995,-2.30145,92.408500000000004,-1.43607,-20.9313,14.112399999999999
3609.0,101.637,76.771199999999993,-11.4148,87.820700000000002,2.2309999999999999,-19.396899999999999,10.2165
3610.0,103.116,82.9435,-5.6033200000000001,98.098299999999995,3.2248399999999999,-17.616299999999999,9.2835199999999993
3611.0,98.854100000000003,74.322400000000002,-9.7776499999999995,92.247699999999995,5.0234699999999997,-15.0358,6.2332799999999997
3612.0,100.238,82.131299999999996,-1.6951099999999999,103.82899999999999,7.4680400000000002,-13.5952,1.7707200000000001
3613.0,107.81399999999999,73.467699999999994,-15.357699999999999,99.395799999999994,9.3542000000000005,-12.7095,-1.95953
3614.0,110.565,81.634200000000007,-9.86388,108.449,10.1442,-10.2568,-4.3167299999999997
3615.0,60.431100000000001,71.664000000000001,37.029899999999998,42.878500000000003,-25.1873,14.9567,-3.9347799999999999
3616.0,72.091700000000003,73.852599999999995,37.459200000000003,42.300899999999999,-32.173299999999998,16.735099999999999,-5.1622899999999996
3617.0,82.963700000000003,88.180499999999995,35.717100000000002,49.894799999999996,-37.259700000000002,13.019399999999999,0.070119000000000001
3618.0,98.665800000000004,81.683000000000007,20.307600000000001,41.185299999999998,-45.481900000000003,13.7913,3.5165299999999999
3619.0,94.396100000000004,88.984800000000007,24.275400000000001,49.260599999999997,-41.862699999999997,10.5197,6.4902899999999999
3620.0,97.796400000000006,71.978899999999996,-7.4329499999999999,37.353700000000003,-37.756599999999999,5.2239300000000002,12.248799999999999
3621.0,106.187,80.606300000000005,-7.8208700000000002,48.630099999999999,-38.322600000000001,4.1967699999999999,16.357900000000001
3622.0,88.953000000000003,74.199799999999996,-9.3910800000000005,42.584000000000003,-24.886600000000001,-0.61734199999999995,15.3759
3623.0,75.566000000000003,80.312399999999997,7.5512499999999996,54.7639,-18.474599999999999,-2.1302599999999998,13.960599999999999
3624.0,78.438299999999998,76.316699999999997,-2.3670599999999999,47.937100000000001,-15.7156,-5.6403699999999999,13.572800000000001
3625.0,98.408799999999999,112.2,15.7178,66.561999999999998,-20.897300000000001,-14.8171,15.5692
3626.0,95.268699999999995,104.471,12.481,60.762500000000003,-18.5855,-18.364599999999999,15.013400000000001
3627.0,70.888000000000005,94.653800000000004,28.232299999999999,69.797200000000004,-13.559100000000001,-13.997999999999999,13.001099999999999
3628.0,61.951799999999999,78.264700000000005,21.288799999999998,60.927399999999999,-11.930999999999999,-10.9366,12.8209
3629.0,64.509600000000006,85.864900000000006,24.819400000000002,72.209000000000003,-8.9779599999999995,-11.631600000000001,12.033200000000001
3630.0,76.883799999999994,85.517499999999998,14.4055,72.694500000000005,-8.8517499999999991,-17.055,12.831799999999999
3631.0,92.165099999999995,102.41,21.4907,91.734099999999998,-10.262700000000001,-23.793299999999999,15.0783
3632.0,98.721800000000002,92.743300000000005,6.6097599999999996,87.479500000000002,-7.7887599999999999,-25.094799999999999,15.0715
3633.0,95.595399999999998,94.279399999999995,10.5047,95.855699999999999,-4.4633000000000003,-21.385400000000001,13.588699999999999
3634.0,93.508300000000006,83.683499999999995,2.3372000000000002,90.290099999999995,-1.70336,-19.7471,11.059699999999999
3635.0,91.742500000000007,90.083200000000005,10.2943,100.396,1.13615,-17.901599999999998,7.2101800000000003
3636.0,86.154200000000003,76.921499999999995,2.4279199999999999,90.075100000000006,1.88114,-14.458,5.24871
3637.0,85.215500000000006,86.992000000000004,15.0783,103.727,3.9963199999999999,-13.5868,1.2678499999999999
3638.0,91.350300000000004,76.977000000000004,1.27407,97.570599999999999,5.7128699999999997,-13.166499999999999,-2.07152
3639.0,101.46599999999999,86.112399999999994,2.0321799999999999,110.154,6.9079499999999996,-11.848699999999999,-4.5518599999999996
3640.0,104.943,74.198700000000002,-14.645799999999999,97.529799999999994,7.2565,-9.1069800000000001,-5.6500199999999996
3641.0,62.9893,63.9133,26.511800000000001,34.118499999999997,-26.091200000000001,14.328799999999999,-6.7630999999999997
3642.0,76.737200000000001,79.164599999999993,39.659799999999997,46.3354,-35.395000000000003,15.154500000000001,-5.76539
3643.0,71.559799999999996,63.2988,27.095600000000001,36.798000000000002,-34.776200000000003,11.9476,-1.90412
3644.0,77.4803,72.863900000000001,23.621500000000001,37.991100000000003,-35.730600000000003,8.8750300000000006,2.0947800000000001
3645.0,86.917199999999994,85.235799999999998,20.696899999999999,40.269300000000001,-36.5884,7.5345800000000001,5.2600300000000004
3646.0,76.062899999999999,73.406700000000001,6.90069,40.038800000000002,-26.921600000000002,3.60426,9.2189399999999999
3647.0,85.1905,74.047600000000003,-4.65991,38.349600000000002,-26.447299999999998,0.090924000000000005,12.903499999999999
3648.0,80.685400000000001,82.054900000000004,-0.141789,46.234999999999999,-17.791499999999999,-2.84179,12.1272
3649.0,66.864999999999995,65.252899999999997,-1.3857200000000001,44.100700000000003,-14.460000000000001,-2.5033300000000001,10.7437
3650.0,69.642399999999995,73.625399999999999,2.50929,49.424999999999997,-12.9594,-5.0322899999999997,10.7723
3651.0,85.363200000000006,91.472099999999998,5.3206499999999997,52.167499999999997,-15.457100000000001,-13.9048,11.6805
3652.0,87.033500000000004,102.053,18.3078,61.5503,-17.363199999999999,-17.701000000000001,12.4975
3653.0,70.254999999999995,83.934200000000004,16.9026,58.687600000000003,-12.8331,-14.7582,10.801
3654.0,59.530799999999999,83.125100000000003,27.839700000000001,67.6995,-11.6388,-11.3306,10.1778
3655.0,53.717199999999998,72.717299999999994,22.165299999999998,62.145400000000002,-8.72743,-9.4945299999999992,9.1968700000000005
3656.0,61.974499999999999,81.637699999999995,24.001000000000001,71.831699999999998,-7.70059,-13.3134,9.6305499999999995
3657.0,81.455100000000002,84.6447,11.5716,75.692300000000003,-7.5361399999999996,-21.271899999999999,10.668200000000001
3658.0,88.994900000000001,90.3429,11.4519,86.810299999999998,-6.5009300000000003,-22.584700000000002,10.0915
3659.0,84.140900000000002,80.294200000000004,6.0005899999999999,82.394400000000005,-5.7870600000000003,-18.552600000000002,9.4277700000000006
3660.0,86.021799999999999,85.993099999999998,10.9534,92.899500000000003,-3.1806299999999998,-18.562999999999999,6.8003900000000002
3661.0,80.487200000000001,78.481899999999996,8.6797699999999995,88.461500000000001,-0.67915599999999998,-16.000900000000001,3.6597300000000001
3662.0,69.695099999999996,82.155799999999999,21.905000000000001,93.363699999999994,1.1649400000000001,-11.7896,1.3287500000000001
3663.0,76.971100000000007,78.6631,13.627800000000001,93.518000000000001,2.9381400000000002,-12.6035,-1.3857299999999999
3664.0,90.506799999999998,82.816699999999997,6.7027900000000002,101.875,4.2037000000000004,-12.6424,-4.1570099999999996
3665.0,96.290899999999993,77.259100000000004,-4.8860000000000001,97.244900000000001,4.6312899999999999,-9.8786400000000008,-6.4765699999999997
3666.0,99.597700000000003,82.233699999999999,-4.6906600000000003,100.895,4.3532200000000003,-7.5777900000000002,-7.4027799999999999
3667.0,62.571800000000003,80.968400000000003,44.0381,49.475700000000003,-25.9818,14.019,-5.9965299999999999
3668.0,66.019400000000005,79.867500000000007,39.005800000000001,46.680500000000002,-28.6584,11.8148,-4.5058199999999999
3669.0,49.853200000000001,71.758099999999999,40.376100000000001,49.900300000000001,-22.510000000000002,7.7960200000000004,-1.4441299999999999
3670.0,55.547800000000002,71.6374,30.8977,43.801600000000001,-23.846399999999999,5.0541499999999999,0.90183800000000003
3671.0,78.959800000000001,97.626900000000006,33.946899999999999,54.442500000000003,-31.3019,5.7613899999999996,2.9213
3672.0,64.3566,73.361400000000003,13.204499999999999,42.795000000000002,-21.1313,1.8045599999999999,5.0998299999999999
3673.0,66.550600000000003,87.673199999999994,23.800599999999999,58.186,-20.456199999999999,-1.42031,5.8248300000000004
3674.0,77.370900000000006,85.118200000000002,8.0501000000000005,49.466999999999999,-20.942699999999999,-2.90347,7.7940199999999997
3675.0,64.997699999999995,81.263300000000001,15.7121,59.259799999999998,-14.6409,-3.6311200000000001,8.2325999999999997
3676.0,60.339100000000002,76.854299999999995,14.2362,55.3611,-10.9465,-5.3585000000000003,7.2587999999999999
3677.0,68.382800000000003,100.10299999999999,28.959399999999999,68.843199999999996,-10.756399999999999,-11.2935,6.6292200000000001
3678.0,79.741,102.767,25.719100000000001,67.209699999999998,-16.526,-16.499300000000002,9.3360299999999992
3679.0,72.148799999999994,100.753,32.654699999999998,74.5989,-14.8444,-15.3773,9.9101199999999992
3680.0,57.3538,81.128200000000007,27.247599999999998,66.799800000000005,-10.4815,-11.613099999999999,8.5415299999999998
3681.0,51.200299999999999,85.701999999999998,36.778599999999997,76.020099999999999,-7.9958600000000004,-9.3307900000000004,7.1860299999999997
3682.0,51.785400000000003,80.829899999999995,32.825499999999998,73.780900000000003,-7.5872099999999998,-10.823399999999999,6.8765999999999998
3683.0,65.023300000000006,98.770099999999999,41.034100000000002,92.0779,-7.9420700000000002,-17.008900000000001,7.7253299999999996
3684.0,73.906199999999998,89.013300000000001,22.7956,85.689999999999998,-6.7348999999999997,-18.0701,7.5430200000000003
3685.0,77.198700000000002,93.523099999999999,24.9391,95.897400000000005,-4.9741299999999997,-17.0822,6.7766500000000001
3686.0,74.329599999999999,85.070800000000006,20.4239,91.488799999999998,-1.95166,-16.7621,3.4281100000000002
3687.0,66.501900000000006,90.296300000000002,32.475700000000003,98.386700000000005,0.34603699999999998,-13.484,-0.2777
3688.0,67.500200000000007,80.217500000000001,21.283100000000001,90.287000000000006,0.89313299999999995,-11.1806,-1.89483
3689.0,78.081100000000006,88.793899999999994,20.7468,101.855,1.26393,-11.1302,-3.1866500000000002
3690.0,88.808099999999996,80.131500000000003,2.08725,95.096299999999999,2.02528,-10.122,-5.3055099999999999
3691.0,93.170500000000004,86.983500000000006,3.8371900000000001,101.235,2.5386799999999998,-7.4892300000000001,-7.9942599999999997
3692.0,96.585099999999997,78.683999999999997,-8.7342399999999998,91.688100000000006,2.2052999999999998,-5.5809199999999999,-9.5358900000000002
3693.0,53.872700000000002,64.935599999999994,27.077000000000002,35.019100000000002,-20.2623,12.2049,-3.0571899999999999
3694.0,43.2547,73.234099999999998,42.414999999999999,48.034100000000002,-17.172599999999999,7.2830000000000004,-2.5123899999999999
3695.0,44.092100000000002,55.7074,24.421299999999999,34.405799999999999,-18.731200000000001,6.3666099999999997,-1.1269899999999999
3696.0,49.330300000000001,73.102400000000003,34.046100000000003,46.3444,-19.854900000000001,4.2566199999999998,0.223192
3697.0,61.713299999999997,72.987300000000005,23.311900000000001,39.530900000000003,-24.7315,3.7625199999999999,1.4262300000000001
3698.0,62.721299999999999,77.301400000000001,19.899699999999999,47.247500000000002,-21.541699999999999,1.73167,4.4642200000000001
3699.0,60.440399999999997,69.177099999999996,9.8323199999999993,40.267400000000002,-17.4344,-1.5718300000000001,5.5321400000000001
3700.0,64.863900000000001,84.3065,20.682600000000001,53.178899999999999,-18.557300000000001,-3.1664300000000001,5.9902100000000003
3701.0,62.0032,70.870500000000007,7.1769999999999996,45.7333,-13.9476,-4.5503099999999996,6.0828899999999999
3702.0,55.703200000000002,78.333299999999994,20.074400000000001,57.021099999999997,-10.1584,-6.0477400000000001,5.06121
3703.0,55.421900000000001,76.301100000000005,19.618500000000001,51.9206,-10.7294,-8.5285499999999992,5.24864
3704.0,66.594300000000004,91.751800000000003,26.661200000000001,63.6464,-13.5718,-13.349600000000001,7.0775300000000003
3705.0,70.447699999999998,86.261499999999998,18.611599999999999,61.2879,-13.724299999999999,-15.2125,8.0170399999999997
3706.0,59.8675,87.401899999999998,29.604299999999999,72.430999999999997,-9.8008100000000002,-12.535,6.4590500000000004
3707.0,51.267699999999998,73.304199999999994,24.561699999999998,64.537899999999993,-8.75075,-9.3791799999999999,6.0372500000000002
3708.0,48.959000000000003,79.465299999999999,33.392000000000003,73.234700000000004,-6.5056900000000004,-10.3422,4.9874200000000002
3709.0,51.175800000000002,76.052199999999999,30.0474,71.526700000000005,-6.2079300000000002,-13.076700000000001,4.5322399999999998
3710.0,54.696899999999999,84.091700000000003,35.4818,82.024299999999997,-6.4924799999999996,-13.252800000000001,4.8886200000000004
3711.0,63.292700000000004,78.256299999999996,22.370799999999999,80.390900000000002,-4.4503000000000004,-14.910299999999999,3.2943099999999998
3712.0,63.3611,87.274299999999997,32.576599999999999,92.841800000000006,-3.03593,-14.715999999999999,1.81918
3713.0,58.490699999999997,78.878299999999996,27.1784,85.158199999999994,-1.9923200000000001,-11.1318,0.41475099999999998
3714.0,68.500500000000002,84.700999999999993,23.0748,93.022499999999994,-0.84825700000000004,-9.97729,-1.9717899999999999
3715.0,82.397900000000007,77.394800000000004,3.2320799999999998,88.078400000000002,0.35150399999999998,-9.5534599999999994,-6.0182000000000002
3716.0,87.453999999999994,83.617999999999995,3.5929600000000002,93.591300000000004,0.079040700000000005,-6.9967800000000002,-8.15944
3717.0,91.472399999999993,76.769400000000005,-8.2966899999999999,85.006900000000002,0.042236999999999997,-4.88192,-9.8465299999999996
3718.0,95.980900000000005,84.192800000000005,-6.1798999999999999,90.527699999999996,-0.059654899999999997,-3.2116199999999999,-11.568899999999999
3719.0,41.060600000000001,71.375600000000006,36.971299999999999,48.121000000000002,-13.181100000000001,8.5691799999999994,-2.5874999999999999
3720.0,35.5015,68.700199999999995,40.4178,48.993899999999996,-13.333600000000001,5.5188800000000002,-1.2560800000000001
3721.0,42.825200000000002,71.703000000000003,38.839199999999998,51.158200000000001,-17.569099999999999,5.1017999999999999,-0.993197
3722.0,45.994,76.463700000000003,37.926200000000001,52.1282,-17.634599999999999,3.78355,-0.11676499999999999
3723.0,50.616700000000002,80.838800000000006,40.064,55.457000000000001,-20.575900000000001,2.49681,0.672346
3724.0,58.3611,79.413899999999998,28.050699999999999,52.366100000000003,-21.6419,0.89155899999999999,2.4512399999999999
3725.0,56.709899999999998,87.079999999999998,31.077200000000001,60.030200000000001,-16.567299999999999,-1.5898600000000001,3.2583600000000001
3726.0,55.502600000000001,82.531099999999995,28.166399999999999,57.260599999999997,-16.207999999999998,-3.23685,3.6844199999999998
3727.0,57.901600000000002,87.050600000000003,29.085799999999999,63.301099999999998,-15.123900000000001,-4.5023400000000002,4.4073399999999996
3728.0,55.002699999999997,82.246700000000004,25.152000000000001,61.243000000000002,-11.0069,-5.9861800000000001,4.1865800000000002
3729.0,49.994199999999999,90.8172,39.713299999999997,71.006399999999999,-9.91282,-7.4829499999999998,3.8722599999999998
3730.0,50.4711,88.388400000000004,39.114899999999999,69.241699999999994,-11.257400000000001,-9.2530599999999996,4.4439000000000002
3731.0,63.228099999999998,97.832400000000007,37.835299999999997,77.901499999999999,-14.1206,-12.6206,6.3424699999999996
3732.0,65.201800000000006,87.404799999999994,23.6753,72.158000000000001,-11.262600000000001,-12.3498,5.5056700000000003
3733.0,54.063000000000002,87.812100000000001,35.649999999999999,80.332800000000006,-8.4553999999999991,-9.4186399999999999,4.3012800000000002
3734.0,48.024799999999999,85.782399999999996,39.494700000000002,80.266099999999994,-5.5120500000000003,-9.6306899999999995,2.5385599999999999
3735.0,44.009999999999998,91.226399999999998,49.685899999999997,87.963300000000004,-4.6243600000000002,-9.2824100000000005,2.1238899999999998
3736.0,43.255800000000001,85.296599999999998,45.591700000000003,84.639499999999998,-5.0689399999999996,-8.6874699999999994,2.3627400000000001
3737.0,50.021900000000002,91.726699999999994,45.592199999999998,92.768600000000006,-4.3777100000000004,-9.42666,0.43214900000000001
3738.0,60.699199999999998,85.440600000000003,30.299299999999999,89.508099999999999,-5.4665299999999997,-10.187900000000001,0.80900700000000003
3739.0,65.180099999999996,88.772599999999997,28.664000000000001,94.045199999999994,-4.9882,-8.4819899999999997,0.25934499999999999
3740.0,70.360100000000003,82.6006,16.6264,88.248599999999996,-2.9113600000000002,-6.5828800000000003,-3.55904
3741.0,81.764600000000002,88.573599999999999,11.9168,94.521500000000003,-1.58693,-6.1588700000000003,-8.0937800000000006
3742.0,88.481700000000004,82.2804,-1.5636699999999999,86.590199999999996,-1.6371500000000001,-4.1117400000000002,-10.962
3743.0,92.963800000000006,87.542199999999994,-1.1347499999999999,89.719300000000004,-2.0680000000000001,-2.2549199999999998,-13.574299999999999
3744.0,97.635400000000004,81.458200000000005,-13.0404,80.753900000000002,-3.13829,-0.92038900000000001,-14.5678
3745.0,34.363300000000002,57.533700000000003,28.3613,37.892600000000002,-10.993,6.8121200000000002,-2.2551399999999999
3746.0,35.889099999999999,66.991399999999999,37.545499999999997,48.655900000000003,-13.250500000000001,5.4430399999999999,-1.7398199999999999
3747.0,39.493099999999998,56.462299999999999,24.2667,38.248100000000001,-15.6881,3.5628099999999998,-0.67701900000000004
3748.0,43.223100000000002,67.318700000000007,31.8306,48.293500000000002,-17.210599999999999,3.3200400000000001,0.34799600000000003
3749.0,46.705800000000004,63.160400000000003,24.466000000000001,41.651800000000001,-18.594200000000001,2.2319800000000001,0.73790900000000004
3750.0,51.0,75.25,30.626300000000001,51.666499999999999,-19.1554,-0.0529373,1.3085
3751.0,51.492600000000003,66.257099999999994,17.510300000000001,43.074100000000001,-16.805499999999999,-1.4771099999999999,2.1658400000000002
3752.0,51.2273,77.090599999999995,27.037500000000001,55.400799999999997,-15.090199999999999,-2.9916800000000001,2.8354599999999999
3753.0,52.9163,70.350899999999996,17.638000000000002,49.202399999999997,-14.16,-4.4891899999999998,3.0030199999999998
3754.0,51.039000000000001,79.163600000000002,26.843499999999999,59.787100000000002,-11.334300000000001,-5.7830399999999997,2.59402
3755.0,45.756999999999998,70.402900000000002,23.908799999999999,53.808700000000002,-9.6337600000000005,-6.6052600000000004,2.5068100000000002
3756.0,44.283700000000003,78.369,35.885800000000003,63.945099999999996,-11.0547,-7.2544199999999996,3.4857200000000002
3757.0,51.6417,75.254199999999997,27.8446,61.2166,-13.239699999999999,-9.8623799999999999,4.82986
3758.0,57.874400000000001,86.420900000000003,30.8291,73.510999999999996,-11.8614,-10.5755,4.1795200000000001
3759.0,55.428699999999999,73.119299999999996,18.882400000000001,65.372799999999998,-7.9925600000000001,-9.7178100000000001,2.3010700000000002
3760.0,49.1751,81.0501,32.760899999999999,75.898200000000003,-4.51159,-9.0824599999999993,0.125971
3761.0,41.737699999999997,68.219399999999993,27.713699999999999,65.864999999999995,-4.40482,-6.6566799999999997,0.026160599999999999
3762.0,38.9818,76.870599999999996,40.3371,77.294700000000006,-5.3333700000000004,-5.1647800000000004,1.1339900000000001
3763.0,42.435600000000001,68.625500000000002,28.126300000000001,69.067899999999995,-4.9848600000000003,-4.7129200000000004,0.65825900000000004
3764.0,53.712299999999999,79.279600000000002,28.448599999999999,81.697999999999993,-5.6427199999999997,-5.06358,-0.016126399999999999
3765.0,68.734399999999994,74.643000000000001,9.2271900000000002,77.925899999999999,-5.9776199999999999,-5.7171900000000004,-2.1914600000000002
3766.0,77.646100000000004,82.487499999999997,7.9597800000000003,84.929100000000005,-3.9380099999999998,-4.0143700000000004,-7.9945399999999998
3767.0,82.142099999999999,74.907600000000002,-3.9617399999999998,75.706400000000002,-3.4772799999999999,-2.13706,-11.7379
3768.0,87.973699999999994,83.145300000000006,-2.05972,81.2928,-3.9479000000000002,-0.93460399999999999,-13.958299999999999
3769.0,95.034099999999995,75.845399999999998,-16.0793,71.626999999999995,-4.2556000000000003,0.067376099999999994,-17.2912
3770.0,101.36799999999999,85.790099999999995,-13.117900000000001,78.558999999999997,-5.8838200000000001,0.58199999999999996,-18.715599999999998
3771.0,32.479599999999998,69.7376,43.247900000000001,53.3367,-11.3795,6.1547299999999998,-2.3498700000000001
3772.0,34.768700000000003,66.766300000000001,38.1113,51.251100000000001,-13.104900000000001,4.5983400000000003,-2.0792799999999998
3773.0,37.764099999999999,71.861500000000007,40.064100000000003,56.642200000000003,-14.665800000000001,2.4145500000000002,-1.2401899999999999
3774.0,40.831699999999998,62.392099999999999,29.0562,48.296599999999998,-16.453099999999999,2.04298,-0.91595099999999996
3775.0,43.959699999999998,78.220200000000006,41.780299999999997,60.996200000000002,-17.5595,1.83531,-0.38718799999999998
3776.0,46.153100000000002,76.837299999999999,36.546999999999997,57.256700000000002,-17.417400000000001,-0.57748200000000005,0.63517599999999996
3777.0,46.907800000000002,84.875699999999995,41.310400000000001,65.781000000000006,-15.897500000000001,-1.6310500000000001,1.0781700000000001
3778.0,47.195900000000002,78.610299999999995,33.150399999999998,60.939900000000002,-14.403600000000001,-2.8072699999999999,1.3987799999999999
3779.0,48.784100000000002,87.096800000000002,38.723599999999998,69.416700000000006,-13.2112,-4.0978599999999998,1.6928700000000001
3780.0,47.078400000000002,81.417000000000002,33.909799999999997,65.259699999999995,-11.2844,-5.0498700000000003,1.57666
3781.0,43.388399999999997,89.011300000000006,45.833100000000002,75.686499999999995,-10.1808,-5.6731999999999996,1.6815800000000001
3782.0,41.648699999999998,82.924400000000006,43.000799999999998,71.8964,-10.537800000000001,-6.0742900000000004,2.27718
3783.0,43.454900000000002,91.389899999999997,51.034599999999998,81.298599999999993,-11.0421,-7.6862199999999996,2.7178800000000001
3784.0,47.1755,84.696700000000007,41.124600000000001,76.126999999999995,-11.7262,-8.0169599999999992,2.6854200000000001
3785.0,51.580500000000001,91.008600000000001,41.509500000000003,85.099500000000006,-9.4877699999999994,-8.04861,1.0909500000000001
3786.0,52.118000000000002,87.188599999999994,35.9681,83.124300000000005,-6.0764300000000002,-7.5043699999999998,-1.24986
3787.0,44.584299999999999,90.059100000000001,46.544400000000003,88.9846,-5.4271399999999996,-3.84016,-1.55284
3788.0,41.234299999999998,82.337299999999999,42.898400000000002,83.251800000000003,-5.39229,-2.19217,-1.44824
3789.0,41.4482,91.155299999999997,51.479399999999998,91.7547,-5.8572800000000003,-1.6881699999999999,-1.6496599999999999
3790.0,46.3992,83.4542,39.313600000000001,84.768299999999996,-6.2932199999999998,-1.1268400000000001,-2.7162500000000001
3791.0,63.827399999999997,89.802999999999997,28.554300000000001,90.975899999999996,-7.3000600000000002,-2.2471700000000001,-4.9765199999999998
3792.0,80.952200000000005,80.813599999999994,2.3761000000000001,79.877899999999997,-6.4759900000000004,-1.29034,-10.6853
3793.0,86.670299999999997,88.674599999999998,4.8109900000000003,84.102400000000003,-5.6474000000000002,1.4169099999999999,-15.699999999999999
3794.0,91.243099999999998,82.275300000000001,-6.3479299999999999,73.499399999999994,-6.2831999999999999,2.6244999999999998,-18.555
3795.0,99.403199999999998,89.249200000000002,-7.2595200000000002,77.374499999999998,-7.2723199999999997,2.81596,-21.522300000000001
3796.0,107.852,82.938100000000006,-22.1264,68.559600000000003,-8.9620599999999992,1.9781299999999999,-23.414999999999999
3797.0,29.510899999999999,52.694699999999997,29.041899999999998,40.110500000000002,-10.898400000000001,4.8146699999999996,-2.8788200000000002
3798.0,31.874600000000001,61.759500000000003,34.873699999999999,48.5989,-11.842700000000001,3.48115,-2.35744
3799.0,34.934100000000001,56.0533,26.671800000000001,42.188899999999997,-13.429600000000001,2.0299399999999999,-2.5051800000000002
3800.0,37.065100000000001,61.284399999999998,31.121300000000002,48.393000000000001,-14.879300000000001,1.0442400000000001,-2.5303399999999998
3801.0,39.880600000000001,60.176299999999998,27.734000000000002,45.032499999999999,-16.220800000000001,0.85458299999999998,-1.67164
3802.0,41.0899,69.009,33.446599999999997,52.204500000000003,-15.659800000000001,-0.91110100000000005,-0.49557899999999999
3803.0,41.835799999999999,63.825699999999998,25.713100000000001,47.204599999999999,-14.654400000000001,-1.87974,-0.101325
3804.0,42.334400000000002,71.527600000000007,31.248100000000001,55.9559,-13.2719,-2.94584,0.116941
3805.0,43.209600000000002,67.333799999999997,25.0213,52.525199999999998,-12.0968,-3.8713000000000002,0.13397800000000001
3806.0,42.729500000000002,73.806700000000006,31.8947,60.462600000000002,-11.3271,-4.6589999999999998,0.35483300000000001
3807.0,39.572200000000002,67.5886,28.834900000000001,56.403199999999998,-9.8680099999999999,-5.1622899999999996,0.36116900000000002
3808.0,37.231400000000001,72.735200000000006,37.4619,64.092299999999994,-9.7347999999999999,-5.3688900000000004,0.67352199999999995
3809.0,38.2791,69.369600000000005,34.152200000000001,61.616399999999999,-10.210800000000001,-6.3185799999999999,1.3424700000000001
3810.0,40.053699999999999,77.618099999999998,41.821300000000001,71.819400000000002,-10.9156,-6.5065299999999997,2.0317500000000002
3811.0,43.785400000000003,69.853700000000003,29.116,65.5501,-9.5424199999999999,-6.8148999999999997,0.79505499999999996
3812.0,46.029400000000003,75.195800000000006,31.247599999999998,72.459100000000007,-7.8044000000000002,-6.1490400000000003,-1.1376299999999999
3813.0,41.406599999999997,63.765599999999999,24.264199999999999,63.640000000000001,-6.4087399999999999,-2.6707399999999999,-2.1968000000000001
3814.0,39.439100000000003,71.428299999999993,33.773800000000001,71.923900000000003,-5.1225199999999997,-0.94462999999999997,-3.5249999999999999
3815.0,39.906500000000001,63.726900000000001,25.689399999999999,64.135499999999993,-5.6389699999999996,-0.38112200000000002,-3.3738100000000002
3816.0,44.334800000000001,74.408299999999997,31.864599999999999,74.338999999999999,-5.3997799999999998,0.802033,-4.8009000000000004
3817.0,60.514299999999999,71.691000000000003,13.375299999999999,70.016199999999998,-6.7822399999999998,1.00332,-8.46767
3818.0,77.307599999999994,79.028700000000001,4.6371700000000002,74.980400000000003,-8.5531299999999995,2.3845800000000001,-12.788
3819.0,86.635499999999993,71.876099999999994,-11.6487,62.0428,-8.0431899999999992,4.5965800000000003,-18.225200000000001
3820.0,95.018799999999999,79.989599999999996,-11.1111,64.694199999999995,-8.2806099999999994,5.2940199999999997,-23.086300000000001
3821.0,104.46299999999999,74.091399999999993,-25.821100000000001,54.561999999999998,-10.1816,5.0790100000000002,-26.529599999999999
3822.0,114.977,84.106899999999996,-25.760300000000001,63.163400000000003,-12.631399999999999,2.7119800000000001,-28.929099999999998
3823.0,26.225899999999999,65.115700000000004,43.482100000000003,57.479700000000001,-9.7871299999999994,2.86368,-2.21366
3824.0,30.053899999999999,63.762700000000002,38.092399999999998,54.201099999999997,-11.0396,2.5010400000000002,-2.1541299999999999
3825.0,32.230200000000004,73.512100000000004,46.235500000000002,62.492800000000003,-12.294499999999999,1.79366,-1.8975900000000001
3826.0,33.907400000000003,70.282300000000006,42.149799999999999,58.858499999999999,-13.430300000000001,0.88997099999999996,-1.37331
3827.0,36.4114,80.2102,49.950800000000001,67.775599999999997,-14.480399999999999,0.238677,-0.92883599999999999
3828.0,38.3005,73.996499999999997,40.5276,61.124600000000001,-14.2576,-0.76208500000000001,-0.31827800000000001
3829.0,39.343499999999999,85.690600000000003,50.043199999999999,73.138099999999994,-13.6485,-1.6475599999999999,0.17027900000000001
3830.0,39.5167,77.137100000000004,39.885800000000003,65.2423,-12.359999999999999,-2.3821400000000001,0.25022499999999998
3831.0,39.668500000000002,87.645799999999994,49.291400000000003,76.510199999999998,-11.223800000000001,-3.0376799999999999,0.085767499999999997
3832.0,39.328800000000001,78.279799999999994,40.539900000000003,68.962500000000006,-10.733599999999999,-3.72113,0.18323
3833.0,37.052799999999998,89.365499999999997,53.966700000000003,82.265600000000006,-9.6736699999999995,-3.6374900000000001,0.32779700000000001
3834.0,35.775399999999998,80.429599999999994,46.591799999999999,75.078199999999995,-9.0133399999999995,-3.7820900000000002,0.47902
3835.0,36.187399999999997,91.529399999999995,57.764299999999999,87.238600000000005,-9.0240799999999997,-4.1021999999999998,0.61265700000000001
3836.0,39.440800000000003,81.853200000000001,46.039499999999997,79.069400000000002,-10.100099999999999,-4.3392600000000003,0.889683
3837.0,43.004399999999997,94.8215,54.975999999999999,92.862300000000005,-9.5002300000000002,-4.6609699999999998,-0.0350525
3838.0,40.982799999999997,86.311599999999999,48.2363,86.280500000000004,-8.2192100000000003,-2.8882300000000001,-1.0565599999999999
3839.0,39.192900000000002,94.520600000000002,58.240400000000001,95.793300000000002,-7.3019499999999997,-0.35530400000000001,-1.97499
3840.0,40.454300000000003,85.019599999999997,47.046900000000001,85.863600000000005,-6.0558300000000003,1.4780199999999999,-3.8855200000000001
3841.0,45.284999999999997,95.512,53.409500000000001,96.097800000000007,-7.0772700000000004,3.32552,-4.8189500000000001
3842.0,56.175199999999997,84.996300000000005,32.2286,83.007800000000003,-8.06996,5.0130400000000002,-8.1941400000000009
3843.0,70.341899999999995,87.943200000000004,21.712599999999998,82.015100000000004,-8.6983200000000007,6.4445100000000002,-13.7524
3844.0,80.673500000000004,77.963300000000004,2.0559599999999998,68.651200000000003,-10.594099999999999,8.3212700000000002,-16.552900000000001
3845.0,90.837699999999998,89.323899999999995,3.4291999999999998,72.5184,-10.8713,9.1650100000000005,-21.818200000000001
3846.0,102.21599999999999,81.799300000000002,-14.1881,58.710999999999999,-11.5786,9.0103799999999996,-27.518699999999999
3847.0,112.72,91.249200000000002,-14.500999999999999,63.392699999999998,-13.4193,7.6734999999999998,-31.494700000000002
3848.0,122.485,81.536100000000005,-32.510599999999997,54.360799999999998,-16.073599999999999,3.0016600000000002,-34.421199999999999
3849.0,114299.0,110150.0,10699.9,62307.5,-30238.400000000001,-18719.299999999999,-24823.200000000001
3850.0,96423.600000000006,83725.5,2923.1500000000001,31883.799999999999,-28196.099999999999,-14484.5,-20456.400000000001
3851.0,82503.600000000006,62521.0,-10429.700000000001,18935.599999999999,-26731.5,-10859.6,-9441.3700000000008
3852.0,73663.300000000003,66727.100000000006,-4662.1899999999996,28931.099999999999,-22524.799999999999,-5016.7399999999998,-802.83600000000001
3853.0,69190.199999999997,77844.300000000003,6550.9099999999999,41306.5,-17238.099999999999,-2163.5700000000002,-4793.0900000000001
3854.0,66294.5,75689.0,7060.0500000000002,42825.199999999997,-14347.6,5.8294699999999997,-8997.1499999999996
3855.0,60744.5,68168.199999999997,6138.5699999999997,37437.0,-12629.6,3327.1300000000001,-9871.25
3856.0,55287.800000000003,60586.300000000003,5300.4200000000001,31067.900000000001,-11600.4,5859.8800000000001,-9203.3500000000004
3857.0,50650.099999999999,53540.099999999999,4296.3500000000004,25168.299999999999,-10831.9,7636.5500000000002,-8280.7999999999993
3858.0,46881.900000000001,47685.599999999999,3525.9200000000001,20183.799999999999,-10158.4,8816.4899999999998,-7375.3400000000001
3859.0,43798.900000000001,42786.5,2852.1300000000001,16127.6,-9591.9699999999993,9554.4599999999991,-6522.1300000000001
3860.0,41135.099999999999,38657.400000000001,2267.5900000000001,12812.5,-9032.5300000000007,9890.4899999999998,-5836.3999999999996
3861.0,38621.0,34988.5,1826.79,9937.6499999999996,-8412.2800000000007,9984.0799999999999,-5282.6400000000003
3862.0,36118.0,31525.700000000001,1451.8900000000001,7385.0699999999997,-7786.46,9918.0900000000001,-4701.4899999999998
3863.0,33567.699999999997,28287.400000000001,1114.48,5297.3199999999997,-7168.8699999999999,9669.0100000000002,-4079.9899999999998
3864.0,30996.700000000001,25301.599999999999,837.06899999999996,3660.3800000000001,-6544.1599999999999,9269.3899999999994,-3518.25
3865.0,28510.400000000001,22570.599999999999,630.65599999999995,2353.7600000000002,-5991.8599999999997,8774.0400000000009,-3036.3000000000002
3866.0,26265.799999999999,20226.400000000001,470.93599999999998,1250.78,-5527.4200000000001,8206.7299999999996,-2627.1599999999999
3867.0,24311.099999999999,18242.0,348.84100000000001,185.77000000000001,-5037.1599999999999,7658.6899999999996,-2297.4400000000001
3868.0,22491.599999999999,16301.799999999999,235.376,-867.87800000000004,-4527.3699999999999,7208.9300000000003,-1949.52
3869.0,20708.0,14410.0,95.370999999999995,-1653.3099999999999,-4119.5900000000001,6777.4399999999996,-1539.51
3870.0,19056.299999999999,12804.4,-28.035900000000002,-2144.79,-3793.1999999999998,6302.1700000000001,-1226.1300000000001
3871.0,17614.700000000001,11454.4,-106.157,-2572.6999999999998,-3490.2199999999998,5843.21,-1009.63
3872.0,16363.299999999999,10290.700000000001,-162.422,-2959.6799999999998,-3211.0,5433.4700000000003,-800.89800000000002
3873.0,15263.9,9279.8099999999995,-216.36600000000001,-3267.4200000000001,-2947.8200000000002,5078.0299999999997,-605.58799999999997
3874.0,14272.700000000001,8377.3199999999997,-244.13499999999999,-3471.5700000000002,-2711.1500000000001,4779.3400000000001,-432.60700000000003
3875.0,13366.799999999999,7588.21,-258.685,-3553.8000000000002,-2520.6500000000001,4512.6300000000001,-277.52800000000002
3876.0,12562.0,6938.1700000000001,-274.28699999999998,-3549.4899999999998,-2355.96,4269.8299999999999,-172.49799999999999
3877.0,11873.0,6380.5200000000004,-270.262,-3548.0100000000002,-2196.5700000000002,4069.1999999999998,-119.34099999999999
3878.0,11288.200000000001,5853.8400000000001,-263.75799999999998,-3582.52,-2058.8200000000002,3913.77,-62.881900000000002
3879.0,10770.9,5373.1099999999997,-265.07400000000001,-3595.9099999999999,-1950.5599999999999,3783.0900000000001,2.77935
3880.0,10295.0,4947.9399999999996,-265.048,-3579.9299999999998,-1854.73,3661.23,54.756900000000002
3881.0,9855.0499999999993,4561.0200000000004,-262.23599999999999,-3554.1100000000001,-1764.0999999999999,3548.6700000000001,98.164400000000001
3882.0,9451.0200000000004,4222.1800000000003,-246.626,-3505.8600000000001,-1683.71,3444.9200000000001,137.86099999999999
3883.0,9091.4200000000001,3930.9699999999998,-225.97800000000001,-3450.6700000000001,-1612.6400000000001,3350.6100000000001,171.828
3884.0,8780.9500000000007,3678.9099999999999,-206.19200000000001,-3398.1999999999998,-1548.3800000000001,3271.4699999999998,200.886
3885.0,8513.3600000000006,3452.4699999999998,-186.839,-3355.1900000000001,-1490.8800000000001,3206.4099999999999,225.309
3886.0,8280.8899999999994,3245.4099999999999,-167.471,-3325.6300000000001,-1441.21,3149.29,250.14400000000001
3887.0,8079.2200000000003,3064.79,-143.29400000000001,-3302.2199999999998,-1399.04,3096.4099999999999,279.18099999999998
3888.0,7901.6000000000004,2891.7399999999998,-138.071,-3300.0599999999999,-1363.01,3044.9200000000001,310.47800000000001
3889.0,7745.6499999999996,2752.1100000000001,-118.845,-3294.29,-1328.51,2994.8800000000001,341.57900000000001
3890.0,7605.5,2610.2399999999998,-117.958,-3310.5599999999999,-1295.9100000000001,2945.9499999999998,375.82499999999999
3891.0,7480.0500000000002,2495.1399999999999,-101.072,-3317.98,-1263.9300000000001,2898.8800000000001,411.315
3892.0,7367.6300000000001,2372.8299999999999,-105.199,-3342.52,-1235.98,2854.6399999999999,450.61500000000001
3893.0,7268.1000000000004,2283.9099999999999,-88.185599999999994,-3346.9400000000001,-1209.77,2813.5799999999999,486.346
3894.0,7183.4399999999996,2165.6100000000001,-103.762,-3393.5300000000002,-1185.72,2777.04,519.58799999999997
3895.0,7114.5699999999997,2073.8499999999999,-88.982100000000003,-3425.6999999999998,-1165.23,2743.6199999999999,557.70799999999997
3896.0,7048.0799999999999,1951.0899999999999,-116.55200000000001,-3488.25,-1149.28,2708.4099999999999,603.16300000000001
3897.0,6986.2600000000002,1879.9200000000001,-98.272900000000007,-3504.71,-1127.98,2676.5100000000002,643.94299999999998
3898.0,6937.3500000000004,1766.74,-122.613,-3568.1599999999999,-1105.0999999999999,2652.8800000000001,682.78499999999997
3899.0,6911.1999999999998,1689.8,-101.456,-3612.4499999999998,-1081.99,2636.1599999999999,725.69399999999996
3900.0,6893.6999999999998,1552.1500000000001,-144.32900000000001,-3736.3699999999999,-1058.45,2615.5799999999999,766.77599999999995
3901.0,6910.5500000000002,1479.4000000000001,-97.021600000000007,-3799.0799999999999,-1041.26,2599.0700000000002,858.524
3902.0,6781.5299999999997,1258.4100000000001,-267.91800000000001,-3983.5100000000002,-983.601,2519.6999999999998,862.84199999999998
3903.0,117135.0,128529.0,11580.299999999999,74600.699999999997,-25125.200000000001,-5542.6300000000001,-22032.599999999999
3904.0,99522.100000000006,104766.0,6365.5600000000004,52398.199999999997,-22894.599999999999,-2133.8800000000001,-18676.400000000001
3905.0,85884.300000000003,88279.600000000006,2098.8400000000001,41078.099999999999,-20921.599999999999,189.12700000000001,-12591.299999999999
3906.0,75474.699999999997,81477.100000000006,4022.4200000000001,40143.599999999999,-18217.599999999999,2488.0900000000001,-7659.4300000000003
3907.0,68063.199999999997,77743.5,7600.3500000000004,40414.300000000003,-15113.6,4633.3999999999996,-7911.8000000000002
3908.0,62751.900000000001,70557.899999999994,6865.5799999999999,36943.0,-12897.700000000001,6494.5500000000002,-9426.2000000000007
3909.0,57567.300000000003,62110.900000000001,5244.7600000000002,31790.0,-11726.200000000001,8428.2299999999996,-9300.2999999999993
3910.0,52949.400000000001,54802.5,4361.9099999999999,26638.799999999999,-10879.1,10055.299999999999,-8725.4200000000001
3911.0,49169.0,48538.099999999999,3508.0999999999999,21975.400000000001,-10171.799999999999,11203.200000000001,-8031.2600000000002
3912.0,45943.5,43276.699999999997,2870.9299999999998,17951.0,-9540.9300000000003,11968.299999999999,-7240.71
3913.0,43251.5,38903.400000000001,2261.0900000000001,14680.200000000001,-8990.3500000000004,12370.0,-6514.9499999999998
3914.0,40860.300000000003,35192.0,1834.4400000000001,11883.5,-8417.9699999999993,12527.5,-5990.7200000000003
3915.0,38528.699999999997,31709.200000000001,1471.77,9268.5699999999997,-7844.4200000000001,12528.700000000001,-5465.7600000000002
3916.0,36193.0,28489.0,1191.9200000000001,7057.1700000000001,-7330.9899999999998,12346.299999999999,-4898.5500000000002
3917.0,33832.400000000001,25501.0,949.08699999999999,5158.1700000000001,-6856.2700000000004,11959.9,-4370.8699999999999
3918.0,31487.0,22804.599999999999,759.36699999999996,3576.46,-6431.0100000000002,11419.299999999999,-3843.9099999999999
3919.0,29282.900000000001,20508.599999999999,562.67200000000003,2279.6599999999999,-6018.8999999999996,10772.299999999999,-3373.3699999999999
3920.0,27219.400000000001,18509.900000000001,390.33600000000001,1089.3499999999999,-5504.9200000000001,10119.299999999999,-2980.0700000000002
3921.0,25130.799999999999,16469.900000000001,240.83600000000001,-9.3064300000000006,-4937.5600000000004,9514.5400000000009,-2538.5900000000001
3922.0,22988.5,14501.700000000001,146.21299999999999,-733.51999999999998,-4486.1300000000001,8867.7099999999991,-2057.7199999999998
3923.0,20968.900000000001,12870.700000000001,51.741199999999999,-1152.97,-4149.4099999999999,8130.0299999999997,-1686.46
3924.0,19247.700000000001,11637.799999999999,3.8126899999999999,-1475.6500000000001,-3828.2399999999998,7425.5799999999999,-1453.8900000000001
3925.0,17853.400000000001,10593.299999999999,-35.643500000000003,-1841.3800000000001,-3523.6100000000001,6860.2799999999997,-1275.25
3926.0,16653.700000000001,9644.7900000000009,-66.265699999999995,-2201.2199999999998,-3254.5799999999999,6387.2200000000003,-1093.03
3927.0,15534.9,8736.2299999999996,-115.914,-2557.71,-2996.0799999999999,5944.4099999999999,-905.15499999999997
3928.0,14518.1,7917.3900000000003,-162.22200000000001,-2849.5900000000001,-2755.2399999999998,5546.4700000000003,-706.51099999999997
3929.0,13636.299999999999,7221.9899999999998,-209.417,-3036.0300000000002,-2552.29,5208.21,-519.20699999999999
3930.0,12861.1,6635.21,-250.96000000000001,-3123.1900000000001,-2380.8800000000001,4916.9499999999998,-377.04700000000003
3931.0,12173.799999999999,6115.8599999999997,-268.29000000000002,-3165.46,-2226.5799999999999,4670.25,-287.363
3932.0,11564.299999999999,5637.0799999999999,-262.411,-3191.8699999999999,-2090.8899999999999,4465.2600000000002,-210.703
3933.0,11000.5,5206.1700000000001,-250.17400000000001,-3168.5500000000002,-1975.55,4283.21,-131.29300000000001
3934.0,10462.9,4812.5,-240.80199999999999,-3107.96,-1872.25,4110.7700000000004,-73.553600000000003
3935.0,9965.2600000000002,4466.5500000000002,-212.73099999999999,-3034.7800000000002,-1778.1400000000001,3947.6900000000001,-34.840499999999999
3936.0,9533.5200000000004,4150.21,-199.36000000000001,-2993.0799999999999,-1693.6800000000001,3803.8200000000002,-2.4077299999999999
3937.0,9176.9200000000001,3876.0500000000002,-181.99199999999999,-2968.79,-1616.03,3689.4400000000001,28.534500000000001
3938.0,8870.9899999999998,3611.2800000000002,-178.03299999999999,-2957.8099999999999,-1550.74,3598.48,66.464299999999994
3939.0,8587.6200000000008,3381.0700000000002,-163.59899999999999,-2924.9499999999998,-1496.5,3512.8299999999999,101.395
3940.0,8327.9699999999993,3163.9200000000001,-156.54900000000001,-2914.0500000000002,-1445.1199999999999,3427.9899999999998,130.58199999999999
3941.0,8096.7200000000003,2975.8299999999999,-140.32300000000001,-2907.9200000000001,-1397.05,3347.9400000000001,164.60400000000001
3942.0,7888.6999999999998,2804.8299999999999,-128.07900000000001,-2906.9499999999998,-1352.6099999999999,3273.5500000000002,200.19399999999999
3943.0,7703.7200000000003,2649.8200000000002,-112.467,-2910.54,-1311.1400000000001,3206.0799999999999,234.31200000000001
3944.0,7539.9200000000001,2497.73,-106.41500000000001,-2931.1599999999999,-1274.3800000000001,3143.48,269.09300000000002
3945.0,7396.8800000000001,2369.4200000000001,-89.117599999999996,-2949.8299999999999,-1241.97,3084.5799999999999,306.09899999999999
3946.0,7267.1999999999998,2236.23,-94.089200000000005,-2988.3200000000002,-1214.9300000000001,3026.0700000000002,346.97899999999998
3947.0,7145.54,2133.8099999999999,-83.441299999999998,-3010.5500000000002,-1188.25,2966.4699999999998,386.774
3948.0,7030.2799999999997,2022.5599999999999,-90.0501,-3052.3299999999999,-1159.9000000000001,2906.77,426.00900000000001
3949.0,6921.29,1941.0599999999999,-69.299000000000007,-3069.6100000000001,-1130.1600000000001,2848.2600000000002,468.928
3950.0,6806.25,1825.99,-86.990300000000005,-3113.1900000000001,-1097.74,2788.0999999999999,510.90300000000002
3951.0,6694.0299999999997,1733.4000000000001,-65.780199999999994,-3124.1199999999999,-1061.2,2734.1599999999999,551.25699999999995
3952.0,6574.1300000000001,1566.9100000000001,-114.188,-3188.8899999999999,-1027.98,2680.8499999999999,588.60799999999995
3953.0,6469.8500000000004,1477.79,-68.225800000000007,-3175.98,-997.94799999999998,2634.77,630.40200000000004
3954.0,6334.71,1268.8399999999999,-164.37700000000001,-3279.3600000000001,-959.35500000000002,2574.0100000000002,650.45399999999995
3955.0,6271.6999999999998,1196.5899999999999,-29.697600000000001,-3239.4299999999998,-920.721,2547.8899999999999,724.245
3956.0,6071.9399999999996,773.07799999999997,-294.37200000000001,-3553.0900000000001,-827.67600000000004,2470.29,650.44200000000001
3957.0,113447.0,124184.0,9402.3700000000008,77129.5,-22694.799999999999,5288.4700000000003,-20438.799999999999
3958.0,98514.5,105796.0,7921.1400000000003,60910.900000000001,-21068.400000000001,7305.1300000000001,-18370.099999999999
3959.0,86469.100000000006,89184.600000000006,3633.8000000000002,47642.599999999999,-18852.900000000001,8698.5400000000009,-15197.4
3960.0,75916.600000000006,78238.199999999997,2668.3600000000001,40637.599999999999,-16068.1,10060.1,-11576.299999999999
3961.0,66966.800000000003,70754.0,4871.8999999999996,36853.800000000003,-13451.6,11157.0,-10198.4
3962.0,60431.300000000003,62650.0,4923.4399999999996,32608.099999999999,-11839.0,12094.4,-9865.3400000000001
3963.0,55444.5,54892.199999999997,3872.5900000000001,27942.200000000001,-10855.4,13064.1,-9205.6599999999999
3964.0,51371.400000000001,48542.0,3329.6799999999998,23728.700000000001,-10027.200000000001,13914.1,-8536.0400000000009
3965.0,47998.300000000003,42975.900000000001,2676.3000000000002,19828.299999999999,-9361.5499999999993,14491.5,-7829.1499999999996
3966.0,45088.900000000001,38409.400000000001,2233.8899999999999,16547.0,-8805.2700000000004,14753.299999999999,-7110.5100000000002
3967.0,42531.800000000003,34509.5,1753.6800000000001,13727.4,-8229.1599999999999,14781.5,-6486.3800000000001
3968.0,40187.5,31048.799999999999,1428.8099999999999,11257.5,-7632.2799999999997,14727.5,-5965.5200000000004
3969.0,37942.900000000001,27817.299999999999,1132.7,9054.2600000000002,-7144.2700000000004,14551.299999999999,-5412.4700000000003
3970.0,35793.300000000003,25015.099999999999,947.41899999999998,7285.7299999999996,-6746.54,14203.9,-4915.2299999999996
3971.0,33753.699999999997,22527.200000000001,770.601,5698.2700000000004,-6407.4799999999996,13731.200000000001,-4475.54
3972.0,31814.299999999999,20472.599999999999,651.96500000000003,4378.0200000000004,-6100.5900000000001,13142.799999999999,-4058.5599999999999
3973.0,29846.200000000001,18559.700000000001,497.346,3043.8299999999999,-5673.4300000000003,12465.200000000001,-3712.5700000000002
3974.0,27737.5,16549.900000000001,387.01999999999998,1751.27,-5178.0600000000004,11766.799999999999,-3291.9200000000001
3975.0,25552.200000000001,14534.200000000001,283.29700000000003,738.596,-4801.9799999999996,11007.5,-2795.1700000000001
3976.0,23439.599999999999,12917.6,187.392,94.489400000000003,-4526.3400000000001,10134.0,-2352.5700000000002
3977.0,21544.400000000001,11737.1,110.25700000000001,-395.62599999999998,-4203.4799999999996,9260.4500000000007,-2046.6700000000001
3978.0,19898.799999999999,10729.5,68.547300000000007,-874.86500000000001,-3818.4200000000001,8526.1800000000003,-1782.3199999999999
3979.0,18418.900000000001,9727.75,-8.1310500000000001,-1244.4100000000001,-3456.9899999999998,7921.7399999999998,-1504.4400000000001
3980.0,17048.900000000001,8760.9300000000003,-91.644800000000004,-1478.21,-3161.7800000000002,7374.6599999999999,-1284.95
3981.0,15810.200000000001,7908.3100000000004,-109.607,-1715.4200000000001,-2919.25,6850.79,-1133.7
3982.0,14728.9,7181.6899999999996,-112.465,-2007.5899999999999,-2722.9299999999998,6357.7200000000003,-968.64099999999996
3983.0,13801.4,6593.8699999999999,-141.833,-2264.71,-2561.2199999999998,5909.3199999999997,-788.029
3984.0,13015.0,6127.6499999999996,-161.84800000000001,-2440.2600000000002,-2402.9699999999998,5530.1999999999998,-642.97699999999998
3985.0,12326.4,5691.0200000000004,-174.363,-2560.8499999999999,-2244.1799999999998,5225.29,-524.01099999999997
3986.0,11684.700000000001,5258.75,-181.685,-2632.0999999999999,-2098.2800000000002,4962.0600000000004,-417.31099999999998
3987.0,11084.700000000001,4841.0200000000004,-199.99700000000001,-2683.3299999999999,-1969.5,4719.8199999999997,-319.41300000000001
3988.0,10551.200000000001,4487.6499999999996,-203.96799999999999,-2691.25,-1859.1300000000001,4506.3000000000002,-238.12100000000001
3989.0,10097.0,4169.8000000000002,-213.24600000000001,-2705.9699999999998,-1763.22,4327.3500000000004,-177.25899999999999
3990.0,9692.1900000000005,3895.8899999999999,-199.97800000000001,-2697.2800000000002,-1677.46,4171.79,-121.157
3991.0,9307.0400000000009,3622.5700000000002,-191.52199999999999,-2686.8899999999999,-1596.54,4027.7199999999998,-70.535799999999995
3992.0,8944.8299999999999,3374.6900000000001,-171.416,-2655.6199999999999,-1526.6700000000001,3892.7800000000002,-20.0351
3993.0,8614.1299999999992,3149.8200000000002,-163.86600000000001,-2626.0,-1468.1300000000001,3765.3800000000001,21.452999999999999
3994.0,8327.1399999999994,2965.5300000000002,-141.56800000000001,-2605.71,-1412.1099999999999,3650.0799999999999,50.018000000000001
3995.0,8086.4300000000003,2784.7399999999998,-127.73,-2622.3800000000001,-1358.8599999999999,3552.4000000000001,83.113500000000002
3996.0,7875.3299999999999,2614.1199999999999,-116.03100000000001,-2640.0100000000002,-1312.8699999999999,3468.3499999999999,124.521
3997.0,7679.0699999999997,2449.71,-112.092,-2656.3800000000001,-1274.1400000000001,3389.29,165.11500000000001
3998.0,7494.6099999999997,2308.5,-99.541799999999995,-2664.8899999999999,-1238.0799999999999,3311.2199999999998,200.83199999999999
3999.0,7324.6099999999997,2167.3099999999999,-96.407700000000006,-2690.8000000000002,-1201.96,3236.21,236.84899999999999
4000.0,7162.46,2049.1799999999998,-82.715199999999996,-2699.5700000000002,-1167.5599999999999,3162.8200000000002,276.44499999999999
4001.0,7004.3999999999996,1928.3599999999999,-79.322299999999998,-2712.9400000000001,-1133.0699999999999,3090.9200000000001,313.38999999999999
4002.0,6850.6199999999999,1812.52,-74.222399999999993,-2721.3600000000001,-1099.47,3021.1900000000001,346.43700000000001
4003.0,6706.79,1686.6199999999999,-77.024699999999996,-2742.3400000000001,-1066.78,2956.6199999999999,377.24200000000002
4004.0,6570.96,1559.74,-80.954899999999995,-2761.8400000000001,-1036.45,2897.29,405.92599999999999
4005.0,6447.2700000000004,1434.1600000000001,-74.501300000000001,-2776.98,-1009.76,2844.8000000000002,437.13600000000002
4006.0,6313.96,1304.8900000000001,-80.3994,-2781.2199999999998,-985.255,2789.8499999999999,465.24200000000002
4007.0,6185.6700000000001,1184.0899999999999,-53.685200000000002,-2761.4299999999998,-956.65300000000002,2742.3800000000001,496.46600000000001
4008.0,6020.0900000000001,994.21199999999999,-95.990600000000001,-2776.2800000000002,-916.66200000000003,2688.5300000000002,497.17000000000002
4009.0,5949.9399999999996,851.43600000000004,24.534800000000001,-2744.0500000000002,-892.10599999999999,2675.6500000000001,547.36199999999997
4010.0,5784.96,426.88999999999999,-216.81399999999999,-3037.6500000000001,-825.5,2618.9200000000001,468.28300000000002
4011.0,103304.0,115841.0,13659.0,80836.300000000003,-18959.799999999999,12349.5,-18673.900000000001
4012.0,90483.899999999994,100149.0,12474.0,66694.899999999994,-16781.0,13564.0,-17488.299999999999
4013.0,79524.199999999997,85141.199999999997,9586.2800000000007,53972.699999999997,-14918.6,14347.200000000001,-15425.0
4014.0,70254.800000000003,72568.600000000006,7561.9200000000001,44122.300000000003,-13433.799999999999,15229.6,-13072.4
4015.0,63174.800000000003,62415.300000000003,5748.1899999999996,36483.900000000001,-11916.5,15917.200000000001,-11414.0
4016.0,57750.900000000001,54327.699999999997,4170.4899999999998,30808.0,-10668.200000000001,16304.799999999999,-10115.200000000001
4017.0,53349.400000000001,47491.400000000001,3100.6500000000001,26039.5,-9724.5,16633.799999999999,-9200.6800000000003
4018.0,49665.599999999999,41831.5,2512.1999999999998,22056.299999999999,-9001.3999999999996,16881.200000000001,-8349.5599999999995
4019.0,46607.699999999997,37096.599999999999,1970.3499999999999,18670.799999999999,-8450.7700000000004,16914.799999999999,-7606.1899999999996
4020.0,43938.300000000003,33199.900000000001,1617.8299999999999,15808.0,-7894.6400000000003,16786.299999999999,-7014.8999999999996
4021.0,41437.199999999997,29615.200000000001,1252.8399999999999,13142.5,-7327.29,16565.900000000001,-6432.0500000000002
4022.0,39118.0,26455.400000000001,1034.6600000000001,10952.9,-6867.9200000000001,16264.299999999999,-5850.1499999999996
4023.0,37011.0,23689.400000000001,782.55499999999995,9080.5499999999993,-6514.7600000000002,15851.5,-5328.3999999999996
4024.0,35112.900000000001,21440.5,650.11400000000003,7565.6499999999996,-6195.1400000000003,15379.200000000001,-4896.3500000000004
4025.0,33311.699999999997,19454.299999999999,468.95999999999998,6165.0299999999997,-5872.6400000000003,14845.6,-4482.7200000000003
4026.0,31469.099999999999,17690.200000000001,324.24700000000001,4959.1199999999999,-5464.5600000000004,14229.4,-4111.9099999999999
4027.0,29523.200000000001,15776.299999999999,214.773,3675.52,-4997.2299999999996,13581.0,-3789.8299999999999
4028.0,27523.0,13892.5,173.14400000000001,2557.0999999999999,-4676.29,12874.1,-3341.0599999999999
4029.0,25628.700000000001,12410.6,100.003,1770.2,-4475.1000000000004,12073.700000000001,-2923.7399999999998
4030.0,23907.099999999999,11326.5,26.456399999999999,1116.9300000000001,-4234.7399999999998,11260.799999999999,-2631.54
4031.0,22274.900000000001,10331.799999999999,-29.7516,453.40199999999999,-3912.5300000000002,10500.5,-2371.6399999999999
4032.0,20647.299999999999,9294.9799999999996,-52.229599999999998,-141.52099999999999,-3590.54,9775.8199999999997,-2059.4299999999998
4033.0,19029.5,8297.7199999999993,-111.79600000000001,-554.87699999999995,-3336.9000000000001,9037.8400000000001,-1734.73
4034.0,17525.700000000001,7503.1199999999999,-148.09100000000001,-787.54300000000001,-3117.6399999999999,8314.5100000000002,-1500.71
4035.0,16216.1,6863.9499999999998,-146.01300000000001,-1050.8800000000001,-2892.1500000000001,7663.3699999999999,-1339.6900000000001
4036.0,15079.4,6325.2200000000003,-137.577,-1352.53,-2670.9299999999998,7090.6999999999998,-1162.76
4037.0,14070.200000000001,5836.7200000000003,-161.24199999999999,-1604.3900000000001,-2451.2800000000002,6593.3599999999997,-968.46000000000004
4038.0,13161.299999999999,5347.1899999999996,-193.185,-1769.25,-2238.3600000000001,6174.1700000000001,-799.05899999999997
4039.0,12331.9,4849.8299999999999,-234.184,-1876.74,-2071.2600000000002,5802.1999999999998,-661.30999999999995
4040.0,11597.4,4437.6599999999999,-238.203,-1951.6099999999999,-1946.04,5457.9200000000001,-565.55200000000002
4041.0,10987.799999999999,4107.6499999999996,-221.815,-2053.1999999999998,-1843.0799999999999,5157.71,-486.06599999999997
4042.0,10483.9,3831.6300000000001,-210.179,-2154.6399999999999,-1754.21,4906.6700000000001,-398.92099999999999
4043.0,10040.799999999999,3587.8499999999999,-196.80799999999999,-2221.4000000000001,-1668.72,4693.0600000000004,-318.52699999999999
4044.0,9634.7999999999993,3333.5700000000002,-197.08199999999999,-2284.75,-1586.78,4505.4099999999999,-248.23699999999999
4045.0,9260.2900000000009,3096.8600000000001,-183.22200000000001,-2323.9499999999998,-1515.1400000000001,4336.0,-182.61099999999999
4046.0,8915.4300000000003,2876.1799999999998,-179.35400000000001,-2354.9099999999999,-1458.01,4177.25,-119.03
4047.0,8604.7700000000004,2703.9299999999998,-166.739,-2361.02,-1405.4100000000001,4031.0599999999999,-67.155000000000001
4048.0,8337.1399999999994,2538.4400000000001,-159.29400000000001,-2379.9000000000001,-1350.3699999999999,3908.77,-28.479800000000001
4049.0,8102.1199999999999,2376.0999999999999,-141.39599999999999,-2397.2600000000002,-1301.78,3805.8899999999999,10.1746
4050.0,7884.2200000000003,2216.0100000000002,-128.67699999999999,-2413.5700000000002,-1263.01,3709.9699999999998,51.726900000000001
4051.0,7681.0200000000004,2075.6300000000001,-115.556,-2418.98,-1227.8,3619.23,90.7149
4052.0,7492.4399999999996,1939.6900000000001,-107.767,-2426.6599999999999,-1192.1800000000001,3535.96,124.746
4053.0,7313.8100000000004,1816.6700000000001,-88.896600000000007,-2422.4200000000001,-1159.8199999999999,3457.2800000000002,157.65100000000001
4054.0,7139.8000000000002,1682.0799999999999,-88.626000000000005,-2432.4299999999998,-1131.01,3379.02,188.82499999999999
4055.0,6972.9300000000003,1566.6400000000001,-76.353899999999996,-2428.1399999999999,-1102.73,3303.3800000000001,217.97300000000001
4056.0,6812.0900000000001,1444.2,-75.655500000000004,-2430.3499999999999,-1074.79,3231.3099999999999,246.065
4057.0,6653.75,1343.05,-53.934399999999997,-2407.75,-1046.8099999999999,3161.3099999999999,272.70499999999998
4058.0,6496.6700000000001,1218.6600000000001,-53.292700000000004,-2403.4499999999998,-1018.66,3092.8800000000001,297.57499999999999
4059.0,6347.5299999999997,1115.6400000000001,-31.495799999999999,-2375.1100000000001,-991.97400000000005,3029.3699999999999,321.92700000000002
4060.0,6211.5500000000002,970.55200000000002,-52.331499999999998,-2386.8499999999999,-964.07600000000002,2975.8299999999999,338.72399999999999
4061.0,6110.4799999999996,858.21100000000001,-22.080500000000001,-2363.71,-940.67600000000004,2942.9400000000001,356.5
4062.0,6027.6199999999999,656.98400000000004,-70.649699999999996,-2424.0999999999999,-915.20299999999997,2924.5999999999999,355.464
4063.0,6033.9499999999998,522.95100000000002,22.264500000000002,-2421.3600000000001,-911.53300000000002,2943.8800000000001,396.30399999999997
4064.0,5943.3400000000001,253.84299999999999,-98.836799999999997,-2500.6599999999999,-928.32299999999998,2916.5900000000001,399.23599999999999
4065.0,93124.800000000003,101133.0,12630.1,78125.399999999994,-13940.299999999999,17217.299999999999,-17069.099999999999
4066.0,83028.399999999994,86630.300000000003,9935.2999999999993,64576.800000000003,-12240.9,18176.099999999999,-16083.1
4067.0,73678.199999999997,73009.0,7228.9799999999996,52429.900000000001,-11199.1,18857.0,-14007.6
4068.0,65663.0,63110.699999999997,7019.3699999999999,43871.300000000003,-10453.0,19160.299999999999,-12182.6
4069.0,59816.199999999997,53861.199999999997,5230.6000000000004,36147.900000000001,-9826.1800000000003,19046.799999999999,-11294.299999999999
4070.0,55180.400000000001,46090.199999999997,3267.9000000000001,29975.599999999999,-9169.1700000000001,18950.299999999999,-10197.299999999999
4071.0,51113.900000000001,39984.900000000001,2289.9299999999998,25092.700000000001,-8464.1499999999996,18870.0,-9094.9200000000001
4072.0,47703.5,35160.300000000003,1791.5,21285.799999999999,-7912.6700000000001,18683.400000000001,-8115.4200000000001
4073.0,44853.0,31215.900000000001,1387.45,18216.900000000001,-7364.7299999999996,18383.299999999999,-7399.8400000000001
4074.0,42294.400000000001,27760.400000000001,1120.3699999999999,15526.700000000001,-6829.0900000000001,18036.299999999999,-6820.0200000000004
4075.0,39948.900000000001,24641.799999999999,888.54899999999998,13137.9,-6440.6499999999996,17622.099999999999,-6233.0799999999999
4076.0,37847.599999999999,22116.099999999999,740.39200000000005,11255.9,-6147.2799999999997,17115.099999999999,-5703.2299999999996
4077.0,35972.099999999999,19983.5,563.55499999999995,9613.2399999999998,-5847.1199999999999,16583.200000000001,-5264.1000000000004
4078.0,34230.900000000001,18165.799999999999,444.02100000000002,8225.6700000000001,-5531.2200000000003,16047.200000000001,-4855.3100000000004
4079.0,32498.700000000001,16430.099999999999,300.26499999999999,6942.3699999999999,-5178.2299999999996,15468.6,-4499.6199999999999
4080.0,30726.0,14666.5,228.90799999999999,5714.29,-4805.0200000000004,14863.6,-4191.6999999999998
4081.0,29004.900000000001,12921.0,193.55099999999999,4521.5699999999997,-4539.0699999999997,14252.799999999999,-3847.5599999999999
4082.0,27396.0,11558.5,158.98500000000001,3559.0300000000002,-4396.7799999999997,13589.0,-3454.9299999999998
4083.0,25862.0,10543.4,69.293899999999994,2746.4000000000001,-4200.1800000000003,12881.6,-3124.0700000000002
4084.0,24331.299999999999,9603.0100000000002,-9.5624500000000001,2007.8599999999999,-3915.8200000000002,12178.200000000001,-2828.8600000000001
4085.0,22743.299999999999,8600.2600000000002,-57.229100000000003,1327.8599999999999,-3637.2199999999998,11451.200000000001,-2536.3499999999999
4086.0,21121.200000000001,7657.96,-93.431299999999993,750.22400000000005,-3425.77,10674.1,-2223.5100000000002
4087.0,19573.599999999999,6955.8000000000002,-115.333,362.57499999999999,-3237.9099999999999,9890.8400000000001,-1943.8499999999999
4088.0,18180.799999999999,6382.5,-155.506,53.841099999999997,-3024.9099999999999,9177.1800000000003,-1733.04
4089.0,16921.400000000001,5863.2399999999998,-155.22800000000001,-228.37299999999999,-2798.4099999999999,8540.4500000000007,-1565.6800000000001
4090.0,15744.6,5306.6499999999996,-157.51599999999999,-583.91700000000003,-2562.4299999999998,7957.3500000000004,-1398.29
4091.0,14606.299999999999,4726.6599999999999,-160.82499999999999,-907.31799999999998,-2349.04,7405.0200000000004,-1182.3499999999999
4092.0,13484.6,4184.8800000000001,-195.91399999999999,-1111.6600000000001,-2187.9000000000001,6846.1599999999999,-970.09299999999996
4093.0,12458.799999999999,3820.4899999999998,-197.81899999999999,-1211.5,-2050.6799999999998,6307.1400000000003,-820.404
4094.0,11629.0,3557.1100000000001,-197.48400000000001,-1343.53,-1904.48,5861.6700000000001,-721.34900000000005
4095.0,10978.5,3315.5,-192.90100000000001,-1497.6300000000001,-1762.0699999999999,5521.54,-622.47900000000004
4096.0,10423.1,3052.54,-200.02199999999999,-1633.23,-1641.0999999999999,5243.4700000000003,-511.66800000000001
4097.0,9916.6200000000008,2791.8000000000002,-210.47300000000001,-1726.5899999999999,-1543.45,4993.71,-415.178
4098.0,9477.2800000000007,2568.1999999999998,-199.172,-1799.6099999999999,-1465.0,4774.0900000000001,-344.21600000000001
4099.0,9124.9599999999991,2381.46,-184.422,-1879.3800000000001,-1410.3299999999999,4591.7600000000002,-282.291
4100.0,8845.2000000000007,2238.3400000000001,-170.06299999999999,-1951.1199999999999,-1369.97,4441.9499999999998,-225.20699999999999
4101.0,8604.0100000000002,2110.3499999999999,-157.95099999999999,-2008.75,-1328.99,4315.5100000000002,-173.79400000000001
4102.0,8377.3299999999999,1971.49,-145.65600000000001,-2054.1199999999999,-1286.2,4203.3400000000001,-125.70999999999999
4103.0,8160.1000000000004,1833.95,-130.50999999999999,-2080.6999999999998,-1248.8099999999999,4098.6499999999996,-78.344800000000006
4104.0,7953.9099999999999,1699.8299999999999,-120.59,-2099.5999999999999,-1215.3299999999999,3999.8699999999999,-35.1432
4105.0,7754.4700000000003,1579.1400000000001,-105.881,-2101.3000000000002,-1185.3499999999999,3904.4099999999999,3.57117
4106.0,7563.9799999999996,1460.53,-94.956299999999999,-2103.1100000000001,-1156.6600000000001,3813.1599999999999,35.203899999999997
4107.0,7386.71,1346.1199999999999,-85.844700000000003,-2103.8200000000002,-1129.5599999999999,3728.75,64.7363
4108.0,7216.9799999999996,1242.29,-69.433800000000005,-2089.9699999999998,-1102.52,3649.5900000000001,93.320400000000006
4109.0,7045.5200000000004,1134.4200000000001,-56.3337,-2071.3499999999999,-1076.52,3570.3000000000002,121.12
4110.0,6871.2299999999996,1024.3299999999999,-47.186300000000003,-2052.9499999999998,-1050.76,3488.9099999999999,145.41399999999999
4111.0,6705.3000000000002,910.09000000000003,-44.235999999999997,-2044.6400000000001,-1024.3800000000001,3411.21,165.96700000000001
4112.0,6558.1499999999996,801.67399999999998,-36.259799999999998,-2035.4000000000001,-1001.6,3342.71,186.81700000000001
4113.0,6425.8699999999999,693.40599999999995,-36.060699999999997,-2031.96,-982.14700000000005,3281.25,205.374
4114.0,6318.3400000000001,602.548,-13.5159,-2019.5699999999999,-962.17999999999995,3233.04,221.11000000000001
4115.0,6240.3599999999997,484.303,-17.111899999999999,-2041.4100000000001,-947.976,3199.4699999999998,239.518
4116.0,6213.4799999999996,391.26999999999998,10.4099,-2067.8600000000001,-927.07600000000002,3193.3600000000001,245.28399999999999
4117.0,6297.1000000000004,217.53899999999999,8.2706599999999995,-2204.1199999999999,-911.23699999999997,3242.29,273.005
4118.0,6370.1199999999999,152.715,12.6586,-2076.1399999999999,-1030.3299999999999,3278.1199999999999,400.14600000000002
4119.0,82154.399999999994,81483.800000000003,8369.3899999999994,69689.5,-9552.3700000000008,19634.099999999999,-15238.200000000001
4120.0,74151.100000000006,68773.399999999994,5676.6700000000001,57693.800000000003,-9057.4500000000007,20555.599999999999,-13902.1
4121.0,67078.199999999997,58706.199999999997,4594.54,48431.199999999997,-9079.8199999999997,21008.200000000001,-12253.9
4122.0,61094.699999999997,51530.599999999999,4967.7299999999996,41725.199999999997,-9038.0200000000004,20964.299999999999,-10974.6
4123.0,56205.300000000003,45271.599999999999,4913.4499999999998,35732.0,-8451.2299999999996,20522.700000000001,-10746.200000000001
4124.0,52194.199999999997,38484.099999999999,2946.73,29666.400000000001,-7731.6400000000003,20070.299999999999,-10151.299999999999
4125.0,48546.099999999999,32824.5,1491.8099999999999,24597.799999999999,-7237.9799999999996,19791.0,-8810.1200000000008
4126.0,45405.0,28870.900000000001,1274.75,20988.799999999999,-6733.6700000000001,19447.299999999999,-7849.3199999999997
4127.0,42725.300000000003,25310.700000000001,879.63699999999994,17932.400000000001,-6256.04,19001.5,-7160.2700000000004
4128.0,40345.400000000001,22378.299999999999,723.87400000000002,15471.200000000001,-5912.5900000000001,18514.599999999999,-6517.8299999999999
4129.0,38281.599999999999,19986.5,534.41200000000003,13464.5,-5652.2600000000002,17959.599999999999,-5998.3100000000004
4130.0,36422.199999999997,18030.400000000001,394.83100000000002,11741.6,-5362.6899999999996,17396.5,-5559.6499999999996
4131.0,34686.699999999997,16279.0,253.876,10213.299999999999,-5055.0,16839.0,-5146.6999999999998
4132.0,33022.800000000003,14660.799999999999,146.666,8895.9500000000007,-4745.9899999999998,16273.5,-4769.1099999999997
4133.0,31443.5,13066.4,54.666800000000002,7686.9899999999998,-4448.96,15718.9,-4465.1899999999996
4134.0,29998.099999999999,11589.0,51.762700000000002,6565.1499999999996,-4237.04,15199.799999999999,-4185.1800000000003
4135.0,28643.599999999999,10379.0,30.769300000000001,5520.5200000000004,-4120.8299999999999,14656.9,-3856.6199999999999
4136.0,27298.099999999999,9475.3999999999996,-16.5763,4611.7399999999998,-3969.48,14057.700000000001,-3534.21
4137.0,25903.900000000001,8612.1700000000001,-64.578100000000006,3745.8899999999999,-3745.3099999999999,13425.299999999999,-3238.8000000000002
4138.0,24448.200000000001,7711.1300000000001,-93.2958,2970.04,-3540.8000000000002,12751.9,-2937.1300000000001
4139.0,23013.900000000001,6911.6000000000004,-95.148200000000003,2325.6999999999998,-3384.73,12054.700000000001,-2666.2600000000002
4140.0,21669.599999999999,6269.8699999999999,-112.08499999999999,1753.47,-3249.1399999999999,11373.700000000001,-2416.3600000000001
4141.0,20391.900000000001,5743.1800000000003,-145.98400000000001,1266.26,-3089.6599999999999,10717.4,-2178.98
4142.0,19150.5,5214.1000000000004,-194.12700000000001,854.86599999999999,-2905.6900000000001,10087.700000000001,-1953.72
4143.0,17900.400000000001,4671.75,-227.029,547.39400000000001,-2711.0,9457.5200000000004,-1754.8499999999999
4144.0,16610.799999999999,4107.4899999999998,-197.70699999999999,260.935,-2504.5,8808.7800000000007,-1586.0699999999999
4145.0,15309.9,3588.5999999999999,-164.29400000000001,-15.770200000000001,-2348.8899999999999,8135.8000000000002,-1380.6199999999999
4146.0,14099.799999999999,3267.4099999999999,-145.84399999999999,-200.328,-2227.48,7478.5299999999997,-1196.52
4147.0,13067.200000000001,3039.5799999999999,-144.57599999999999,-422.46499999999997,-2065.0500000000002,6913.8199999999997,-1072.9100000000001
4148.0,12182.700000000001,2786.4299999999998,-149.18899999999999,-661.47900000000004,-1882.29,6447.9799999999996,-944.21400000000006
4149.0,11391.5,2481.6799999999998,-164.75899999999999,-868.50300000000004,-1727.3,6042.1499999999996,-802.375
4150.0,10684.4,2195.7199999999998,-178.07599999999999,-1032.97,-1617.0999999999999,5673.1899999999996,-673.41499999999996
4151.0,10086.200000000001,2000.7,-170.12700000000001,-1159.74,-1531.6700000000001,5349.54,-577.55100000000004
4152.0,9620.3899999999994,1846.27,-170.816,-1308.3499999999999,-1454.3099999999999,5092.5900000000001,-498.68200000000002
4153.0,9258.8099999999995,1733.9300000000001,-156.44399999999999,-1424.1199999999999,-1384.4200000000001,4894.7399999999998,-417.65300000000002
4154.0,8959.9099999999999,1610.04,-155.09399999999999,-1520.1199999999999,-1318.4300000000001,4737.3699999999999,-341.00900000000001
4155.0,8698.7999999999993,1481.98,-146.40299999999999,-1581.71,-1265.99,4603.9200000000001,-273.18299999999999
4156.0,8463.2399999999998,1355.8,-139.34999999999999,-1627.6400000000001,-1231.3,4481.7799999999997,-218.68899999999999
4157.0,8249.7700000000004,1247.0999999999999,-126.474,-1663.5599999999999,-1205.72,4368.21,-175.93100000000001
4158.0,8057.2799999999997,1152.52,-109.88,-1693.05,-1182.54,4264.8999999999996,-138.774
4159.0,7882.8900000000003,1057.4400000000001,-98.325199999999995,-1717.1600000000001,-1158.3599999999999,4173.5299999999997,-103.59999999999999
4160.0,7713.5600000000004,963.59100000000001,-81.3476,-1715.6900000000001,-1132.8399999999999,4089.1700000000001,-69.312299999999993
4161.0,7536.7600000000002,859.46900000000005,-67.395099999999999,-1701.9400000000001,-1106.25,4003.3800000000001,-38.537300000000002
4162.0,7356.5500000000002,748.78700000000003,-58.527000000000001,-1690.3,-1081.1400000000001,3914.9299999999998,-11.176299999999999
4163.0,7186.0200000000004,641.32500000000005,-54.8797,-1685.0599999999999,-1058.9300000000001,3829.5900000000001,12.599500000000001
4164.0,7035.3599999999997,553.33100000000002,-37.247,-1669.3399999999999,-1038.52,3754.1599999999999,33.0974
4165.0,6904.1000000000004,459.84300000000002,-24.1371,-1661.51,-1020.9400000000001,3688.9000000000001,52.190199999999997
4166.0,6788.1000000000004,376.041,-3.4605399999999999,-1647.4100000000001,-1006.86,3630.9200000000001,72.468800000000002
4167.0,6687.5200000000004,278.48099999999999,-1.6272200000000001,-1655.28,-991.32000000000005,3581.1700000000001,89.7654
4168.0,6615.0200000000004,187.73500000000001,13.680199999999999,-1667.52,-979.60699999999997,3544.6399999999999,110.877
4169.0,6561.1000000000004,88.605400000000003,1.1258999999999999,-1709.3499999999999,-978.73000000000002,3513.5900000000001,135.87899999999999
4170.0,6540.3199999999997,12.5747,7.8500100000000002,-1778.6500000000001,-967.17499999999995,3497.6999999999998,150.28299999999999
4171.0,6600.1499999999996,-122.524,-3.3148599999999999,-1952.4200000000001,-953.72199999999998,3519.2600000000002,179.63200000000001
4172.0,6658.4899999999998,-55.541400000000003,38.988300000000002,-1818.05,-1082.03,3519.29,358.24000000000001
4173.0,71243.899999999994,60914.5,3653.6700000000001,59026.199999999997,-7139.96,20336.700000000001,-13009.799999999999
4174.0,65407.5,52164.5,2795.79,50595.599999999999,-7635.6700000000001,21024.099999999999,-11760.200000000001
4175.0,60229.599999999999,46047.699999999997,3412.9099999999999,44562.099999999999,-8029.1099999999997,21166.700000000001,-10544.0
4176.0,55703.400000000001,42324.800000000003,5333.7299999999996,40554.400000000001,-7768.4799999999996,20954.0,-9977.0799999999999
4177.0,51984.199999999997,37700.599999999999,5248.5200000000004,35419.199999999997,-6897.7700000000004,20542.099999999999,-10155.1
4178.0,48835.900000000001,31587.700000000001,2694.8600000000001,29234.5,-6278.2399999999998,20099.200000000001,-9702.7099999999991
4179.0,45792.300000000003,26453.400000000001,976.41499999999996,24271.799999999999,-5988.6400000000003,19818.599999999999,-8421.2999999999993
4180.0,43044.699999999997,22980.299999999999,814.73299999999995,20854.0,-5608.8100000000004,19491.0,-7529.3500000000004
4181.0,40648.900000000001,19997.299999999999,572.33799999999997,18026.900000000001,-5333.0799999999999,18998.0,-6862.9200000000001
4182.0,38536.0,17752.799999999999,465.06299999999999,15887.299999999999,-5120.25,18429.200000000001,-6254.8599999999997
4183.0,36659.5,15880.4,276.964,14052.9,-4845.1099999999997,17830.799999999999,-5813.3500000000004
4184.0,34923.400000000001,14250.0,197.11099999999999,12444.1,-4560.75,17263.5,-5409.46
4185.0,33296.900000000001,12724.700000000001,101.905,11012.5,-4303.1899999999996,16698.099999999999,-5033.2600000000002
4186.0,31805.700000000001,11321.1,45.899099999999997,9768.0200000000004,-4071.2800000000002,16158.700000000001,-4709.3199999999997
4187.0,30476.5,10046.9,11.7341,8637.3500000000004,-3894.4699999999998,15664.700000000001,-4420.5
4188.0,29264.900000000001,8998.9599999999991,-8.8632100000000005,7612.2700000000004,-3777.2800000000002,15186.700000000001,-4129.0200000000004
4189.0,28056.799999999999,8152.0799999999999,-56.958399999999997,6648.0200000000004,-3646.6300000000001,14670.200000000001,-3844.5999999999999
4190.0,26802.700000000001,7376.4300000000003,-78.033199999999994,5725.7399999999998,-3467.6199999999999,14117.5,-3578.3600000000001
4191.0,25559.5,6589.9399999999996,-100.227,4850.3599999999997,-3314.4899999999998,13557.0,-3306.7199999999998
4192.0,24404.400000000001,5939.75,-90.417199999999994,4130.3699999999999,-3213.0300000000002,13011.9,-3052.3499999999999
4193.0,23317.900000000001,5394.5299999999997,-121.08499999999999,3457.1500000000001,-3121.52,12479.1,-2817.7399999999998
4194.0,22221.900000000001,4964.4799999999996,-133.749,2865.4000000000001,-3009.96,11929.6,-2581.21
4195.0,21075.299999999999,4539.0699999999997,-155.483,2330.0599999999999,-2878.29,11347.9,-2341.02
4196.0,19871.5,4127.9099999999999,-128.17699999999999,1913.1400000000001,-2724.0799999999999,10734.299999999999,-2109.23
4197.0,18649.400000000001,3651.77,-129.613,1549.99,-2552.0,10108.6,-1909.8499999999999
4198.0,17490.900000000001,3175.5300000000002,-111.67700000000001,1230.8299999999999,-2411.48,9507.6599999999999,-1741.8800000000001
4199.0,16388.799999999999,2775.4099999999999,-141.59200000000001,905.24300000000005,-2321.25,8916.3500000000004,-1567.6700000000001
4200.0,15307.0,2531.5700000000002,-158.167,658.12099999999998,-2200.25,8329.7199999999993,-1404.9300000000001
4201.0,14265.1,2275.5300000000002,-141.82300000000001,406.16199999999998,-2029.46,7778.9200000000001,-1262.5799999999999
4202.0,13257.6,1972.46,-106.899,161.471,-1882.8199999999999,7247.1000000000004,-1114.8900000000001
4203.0,12305.799999999999,1694.8,-104.831,-76.625600000000006,-1774.5,6731.29,-977.71699999999998
4204.0,11481.1,1534.3299999999999,-94.697000000000003,-272.76999999999998,-1679.3199999999999,6275.9700000000003,-859.38199999999995
4205.0,10812.0,1408.6700000000001,-104.748,-471.80500000000001,-1576.45,5908.3800000000001,-760.79100000000005
4206.0,10267.1,1292.76,-90.2059,-634.75199999999995,-1475.55,5615.2200000000003,-664.94500000000005
4207.0,9786.3700000000008,1130.8499999999999,-104.833,-794.86300000000006,-1392.9100000000001,5358.0799999999999,-568.50099999999998
4208.0,9342.0499999999993,997.35799999999995,-105.297,-910.23199999999997,-1332.9200000000001,5115.1499999999996,-482.50700000000001
4209.0,8956.4200000000001,895.94399999999996,-110.95099999999999,-1020.5599999999999,-1285.8900000000001,4898.6000000000004,-412.73099999999999
4210.0,8656.8899999999994,849.798,-94.628600000000006,-1099.1099999999999,-1242.8099999999999,4728.6099999999997,-355.52499999999998
4211.0,8441.0200000000004,800.452,-84.181899999999999,-1167.6700000000001,-1202.8399999999999,4608.4700000000003,-306.25099999999998
4212.0,8270.8199999999997,734.18299999999999,-69.690799999999996,-1202.1099999999999,-1167.8599999999999,4519.2600000000002,-261.34100000000001
4213.0,8106.8800000000001,635.12300000000005,-58.265999999999998,-1214.9400000000001,-1134.4300000000001,4438.1700000000001,-222.03100000000001
4214.0,7934.0500000000002,513.95299999999997,-50.569200000000002,-1217.1600000000001,-1107.96,4352.2600000000002,-184.09800000000001
4215.0,7751.3199999999997,397.899,-46.775100000000002,-1210.8299999999999,-1091.8299999999999,4257.0500000000002,-151.65799999999999
4216.0,7572.7299999999996,316.17599999999999,-30.475100000000001,-1198.5999999999999,-1076.1300000000001,4160.6000000000004,-129.87100000000001
4217.0,7419.8100000000004,244.49700000000001,-10.824,-1204.5599999999999,-1053.99,4077.9899999999998,-109.503
4218.0,7294.1300000000001,159.84399999999999,-2.2441,-1226.49,-1033.3699999999999,4010.71,-81.348600000000005
4219.0,7184.6000000000004,67.889700000000005,-2.77671,-1251.79,-1016.0700000000001,3952.23,-50.7346
4220.0,7086.0699999999997,-25.0336,-1.7402500000000001,-1276.6500000000001,-1001.54,3898.96,-20.101700000000001
4221.0,6990.7299999999996,-118.318,-1.4725999999999999,-1307.4400000000001,-993.75300000000004,3844.5100000000002,10.3719
4222.0,6898.1599999999999,-186.73099999999999,8.5388099999999998,-1342.4300000000001,-991.49300000000005,3787.3099999999999,40.290700000000001
4223.0,6807.6099999999997,-250.90100000000001,3.6076299999999999,-1404.0699999999999,-989.13199999999995,3728.4200000000001,75.325900000000004
4224.0,6707.1199999999999,-280.50999999999999,16.985900000000001,-1466.03,-978.21500000000003,3662.0900000000001,108.515
4225.0,6605.2600000000002,-340.18799999999999,12.452400000000001,-1595.75,-968.01199999999994,3586.5599999999999,167.90899999999999
4226.0,6403.9200000000001,-331.10399999999998,-41.076500000000003,-1679.53,-944.80499999999995,3455.4299999999998,270.08999999999997
4227.0,61945.900000000001,44615.900000000001,1218.22,50627.400000000001,-6206.3900000000003,19852.299999999999,-10939.5
4228.0,57928.800000000003,39700.900000000001,1671.8800000000001,45426.099999999999,-6567.1099999999997,20290.900000000001,-9907.8299999999999
4229.0,54281.099999999999,37001.5,3499.4200000000001,42220.400000000001,-6530.3400000000001,20456.099999999999,-8919.5400000000009
4230.0,51048.099999999999,34580.699999999997,4973.7200000000003,38849.099999999999,-5777.6999999999998,20366.099999999999,-8949.0400000000009
4231.0,48314.300000000003,29888.0,3427.0599999999999,33507.199999999997,-5031.6400000000003,20003.400000000001,-9107.9500000000007
4232.0,45579.400000000001,24859.400000000001,1634.6199999999999,28232.700000000001,-4810.5,19660.599999999999,-8550.2900000000009
4233.0,43043.300000000003,20621.099999999999,610.654,23950.299999999999,-4750.5900000000001,19365.299999999999,-7785.7600000000002
4234.0,40783.699999999997,17606.599999999999,365.41199999999998,20868.900000000001,-4626.1999999999998,19014.099999999999,-7079.1099999999997
4235.0,38720.199999999997,15340.200000000001,246.72900000000001,18406.400000000001,-4466.1800000000003,18521.900000000001,-6499.6000000000004
4236.0,36824.900000000001,13572.0,133.00200000000001,16439.700000000001,-4260.6999999999998,17944.400000000001,-6006.46
4237.0,35072.699999999997,11989.5,21.081099999999999,14683.6,-4010.1999999999998,17367.400000000001,-5604.2299999999996
4238.0,33460.099999999999,10603.1,-23.986499999999999,13189.200000000001,-3796.8800000000001,16807.599999999999,-5219.8199999999997
4239.0,32006.0,9331.5300000000007,-101.876,11850.700000000001,-3612.3200000000002,16272.6,-4890.3199999999997
4240.0,30705.900000000001,8260.2700000000004,-113.34,10700.9,-3466.73,15779.200000000001,-4594.8699999999999
4241.0,29520.5,7344.1000000000004,-151.30199999999999,9638.6200000000008,-3355.48,15310.700000000001,-4312.0299999999997
4242.0,28392.299999999999,6620.1700000000001,-161.33199999999999,8710.6399999999994,-3240.1799999999998,14842.9,-4047.6599999999999
4243.0,27294.900000000001,5929.1800000000003,-177.07900000000001,7805.7299999999996,-3100.5300000000002,14376.200000000001,-3824.5799999999999
4244.0,26248.200000000001,5267.8599999999997,-158.11699999999999,6927.5,-2986.23,13927.5,-3609.5500000000002
4245.0,25262.0,4702.79,-144.011,6100.0600000000004,-2914.3600000000001,13496.299999999999,-3367.79
4246.0,24303.5,4265.0,-162.50999999999999,5374.9700000000003,-2857.6399999999999,13056.1,-3110.5799999999999
4247.0,23317.400000000001,3917.9200000000001,-172.56200000000001,4729.8400000000001,-2777.1199999999999,12580.9,-2887.71
4248.0,22278.099999999999,3577.1700000000001,-174.77799999999999,4098.6000000000004,-2671.6599999999999,12071.9,-2670.9400000000001
4249.0,21214.799999999999,3224.4299999999998,-177.44800000000001,3538.9200000000001,-2554.5900000000001,11544.0,-2446.73
4250.0,20188.900000000001,2840.7399999999998,-170.21199999999999,3050.46,-2433.3099999999999,11028.200000000001,-2252.73
4251.0,19243.0,2465.1500000000001,-152.24199999999999,2610.9200000000001,-2345.1599999999999,10543.700000000001,-2084.4400000000001
4252.0,18374.5,2172.7800000000002,-146.87299999999999,2222.96,-2301.4499999999998,10086.0,-1919.28
4253.0,17516.900000000001,1988.78,-137.185,1894.96,-2247.4299999999998,9626.4300000000003,-1765.79
4254.0,16600.5,1766.29,-145.87899999999999,1548.3,-2145.2600000000002,9138.0,-1630.3900000000001
4255.0,15635.200000000001,1499.02,-126.71899999999999,1216.8599999999999,-2050.27,8623.4899999999998,-1470.8199999999999
4256.0,14686.9,1314.95,-70.2727,965.476,-1982.8900000000001,8106.5100000000002,-1317.21
4257.0,13805.299999999999,1212.71,-49.054099999999998,725.44799999999998,-1903.95,7618.9099999999999,-1204.6700000000001
4258.0,13002.1,1098.01,-73.109499999999997,457.291,-1800.4300000000001,7181.3299999999999,-1092.99
4259.0,12245.200000000001,961.11900000000003,-78.276499999999999,243.31999999999999,-1692.5,6775.1300000000001,-965.05399999999997
4260.0,11505.0,797.15099999999995,-86.479900000000001,61.388599999999997,-1596.9000000000001,6374.4099999999999,-845.221
4261.0,10810.4,694.46600000000001,-65.170400000000001,-73.540800000000004,-1517.4200000000001,5991.8699999999999,-745.38900000000001
4262.0,10215.799999999999,632.43299999999999,-51.846299999999999,-199.29499999999999,-1448.28,5661.5900000000001,-662.74099999999999
4263.0,9724.2700000000004,612.53800000000001,-29.172799999999999,-293.416,-1384.99,5388.3000000000002,-592.86599999999999
4264.0,9313.3500000000004,579.44000000000005,-37.882899999999999,-409.52600000000001,-1315.8199999999999,5161.8999999999996,-535.40899999999999
4265.0,8994.5599999999995,515.71900000000005,-31.777899999999999,-525.78700000000003,-1230.99,4995.4099999999999,-475.916
4266.0,8732.0400000000009,378.142,-35.869,-601.22799999999995,-1171.3299999999999,4862.6599999999999,-396.25900000000001
4267.0,8460.2900000000009,243.09399999999999,-43.5749,-609.48699999999997,-1142.8099999999999,4717.1899999999996,-335.70999999999998
4268.0,8204.7299999999996,146.97300000000001,-34.243000000000002,-621.75400000000002,-1115.1900000000001,4576.04,-306.39999999999998
4269.0,8001.25,87.273300000000006,-12.058400000000001,-639.34400000000005,-1095.3199999999999,4462.04,-274.27499999999998
4270.0,7837.1800000000003,29.115400000000001,-7.6518300000000004,-666.03399999999999,-1075.45,4370.75,-246.47200000000001
4271.0,7696.4899999999998,-50.908000000000001,-0.40738200000000002,-707.13099999999997,-1050.8199999999999,4293.7799999999997,-221.578
4272.0,7550.1099999999997,-148.26400000000001,8.6603700000000003,-749.50599999999997,-1032.3900000000001,4211.9499999999998,-186.851
4273.0,7384.8599999999997,-233.73500000000001,22.856400000000001,-782.22900000000004,-1017.92,4117.1899999999996,-148.88800000000001
4274.0,7215.8000000000002,-312.70999999999998,20.2454,-842.29600000000005,-1004.23,4018.1300000000001,-113.438
4275.0,7067.7700000000004,-353.29899999999998,32.710999999999999,-901.61000000000001,-988.89099999999996,3930.27,-75.699399999999997
4276.0,6933.0500000000002,-420.34899999999999,11.7689,-989.91399999999999,-964.13699999999994,3852.1599999999999,-35.288200000000003
4277.0,6793.7200000000003,-470.596,41.776299999999999,-1023.47,-940.35900000000004,3770.4699999999998,17.806899999999999
4278.0,6576.4700000000003,-598.94100000000003,-28.226299999999998,-1113.53,-917.35900000000004,3643.5900000000001,67.745800000000003
4279.0,6294.4300000000003,-600.33000000000004,63.165999999999997,-1058.0799999999999,-901.98800000000006,3472.23,137.30799999999999
4280.0,5832.2600000000002,-833.98299999999995,-131.709,-1342.8099999999999,-741.87300000000005,3226.3600000000001,94.084299999999999
4281.0,55224.099999999999,33086.199999999997,-69.855000000000004,44833.599999999999,-5543.4799999999996,18792.200000000001,-9508.7399999999998
4282.0,52474.900000000001,30554.900000000001,867.06799999999998,41486.099999999999,-5492.6499999999996,19241.400000000001,-8699.2099999999991
4283.0,49856.099999999999,28511.299999999999,1971.8299999999999,38614.900000000001,-5087.1800000000003,19447.099999999999,-8141.6199999999999
4284.0,47304.800000000003,25952.400000000001,2413.1100000000001,35044.0,-4377.1199999999999,19358.200000000001,-8272.1200000000008
4285.0,45035.900000000001,21703.599999999999,922.60500000000002,30360.400000000001,-4031.52,19052.400000000001,-8242.2999999999993
4286.0,42707.300000000003,18051.599999999999,248.28299999999999,26528.400000000001,-3991.9200000000001,18820.099999999999,-7610.9899999999998
4287.0,40543.5,15298.700000000001,225.649,23511.799999999999,-3882.6799999999998,18519.900000000001,-7097.7399999999998
4288.0,38622.800000000003,13046.6,89.352699999999999,20986.400000000001,-3793.3299999999999,18119.200000000001,-6578.4799999999996
4289.0,36842.0,11310.4,22.973400000000002,18883.200000000001,-3640.6199999999999,17650.299999999999,-6130.2200000000003
4290.0,35159.800000000003,9816.3099999999995,-52.335799999999999,17047.299999999999,-3453.5900000000001,17131.900000000001,-5741.2799999999997
4291.0,33582.699999999997,8493.1200000000008,-94.381399999999999,15423.700000000001,-3282.5300000000002,16608.200000000001,-5375.2200000000003
4292.0,32130.099999999999,7353.5100000000002,-138.08600000000001,14015.5,-3144.6799999999998,16087.5,-5027.7799999999997
4293.0,30818.700000000001,6408.1599999999999,-163.232,12810.799999999999,-3026.0300000000002,15589.5,-4724.8000000000002
4294.0,29627.799999999999,5614.0600000000004,-188.07599999999999,11733.4,-2924.0500000000002,15122.299999999999,-4453.1099999999997
4295.0,28518.900000000001,4970.4899999999998,-193.86799999999999,10784.4,-2824.1300000000001,14673.4,-4202.2600000000002
4296.0,27491.599999999999,4369.5299999999997,-217.262,9889.0799999999999,-2714.7399999999998,14249.799999999999,-3986.98
4297.0,26556.799999999999,3814.1199999999999,-210.072,9034.6399999999994,-2617.0700000000002,13868.5,-3797.23
4298.0,25674.599999999999,3312.9400000000001,-205.81999999999999,8177.6700000000001,-2546.1900000000001,13513.700000000001,-3592.1700000000001
4299.0,24772.599999999999,2918.0100000000002,-184.643,7377.4799999999996,-2498.1300000000001,13139.6,-3349.6399999999999
4300.0,23815.700000000001,2603.5700000000002,-203.82499999999999,6666.4499999999998,-2457.27,12708.0,-3098.3099999999999
4301.0,22862.0,2360.77,-197.41900000000001,6064.4200000000001,-2375.1599999999999,12255.9,-2909.1300000000001
4302.0,21959.099999999999,2058.04,-196.45699999999999,5433.3000000000002,-2281.4299999999998,11830.9,-2744.46
4303.0,21105.0,1772.1600000000001,-169.99700000000001,4856.8000000000002,-2216.1500000000001,11425.1,-2569.8499999999999
4304.0,20319.299999999999,1511.48,-158.18899999999999,4311.3299999999999,-2174.5300000000002,11045.700000000001,-2405.8899999999999
4305.0,19585.5,1346.8900000000001,-136.85900000000001,3824.3299999999999,-2154.5599999999999,10687.4,-2235.4299999999998
4306.0,18846.700000000001,1244.8900000000001,-141.501,3388.9899999999998,-2117.4499999999998,10319.799999999999,-2062.3000000000002
4307.0,18105.700000000001,1125.1199999999999,-143.02000000000001,3003.7199999999998,-2037.98,9947.8199999999997,-1911.3800000000001
4308.0,17411.5,940.36900000000003,-133.42599999999999,2638.02,-1962.8199999999999,9593.7000000000007,-1791.27
4309.0,16768.599999999999,783.995,-101.121,2292.8499999999999,-1938.5699999999999,9258.8099999999995,-1667.26
4310.0,16123.4,708.33600000000001,-90.687799999999996,1963.4000000000001,-1922.02,8919.4699999999993,-1526.8800000000001
4311.0,15434.6,655.90499999999997,-105.32899999999999,1657.0999999999999,-1854.02,8558.0400000000009,-1396.5699999999999
4312.0,14692.1,535.17700000000002,-112.867,1366.8399999999999,-1764.3900000000001,8167.3599999999997,-1258.25
4313.0,13889.700000000001,398.03100000000001,-107.235,1137.6199999999999,-1707.04,7731.3999999999996,-1108.0599999999999
4314.0,13082.9,354.39999999999998,-84.174599999999998,975.93100000000004,-1661.97,7281.3599999999997,-995.20500000000004
4315.0,12360.200000000001,358.59300000000002,-56.601100000000002,806.88699999999994,-1600.5899999999999,6880.79,-911.49699999999996
4316.0,11725.6,374.899,-3.5680200000000002,665.61699999999996,-1531.8099999999999,6534.0500000000002,-822.85799999999995
4317.0,11123.200000000001,359.67200000000003,-6.4201699999999997,533.81299999999999,-1472.3699999999999,6201.6899999999996,-732.68799999999999
4318.0,10531.700000000001,346.697,-19.255299999999998,421.12900000000002,-1391.0999999999999,5876.5500000000002,-669.05899999999997
4319.0,9986.0100000000002,251.648,4.7997800000000002,266.21100000000001,-1279.9300000000001,5586.1999999999998,-612.13499999999999
4320.0,9483.4099999999999,99.4208,17.926300000000001,126.32899999999999,-1225.73,5311.3299999999999,-512.40200000000004
4321.0,9021.1100000000006,54.436399999999999,23.975200000000001,94.450800000000001,-1208.2,5047.4399999999996,-434.935
4322.0,8656.3799999999992,48.584200000000003,17.376000000000001,44.979199999999999,-1168.6300000000001,4841.6599999999999,-412.31799999999998
4323.0,8393.0,39.405299999999997,27.7332,-33.371099999999998,-1123.27,4697.5100000000002,-388.58499999999998
4324.0,8189.5,-9.7845999999999993,33.227600000000002,-112.43000000000001,-1076.97,4590.0299999999997,-349.42099999999999
4325.0,8015.8299999999999,-100.489,48.346299999999999,-155.16499999999999,-1035.3199999999999,4499.0100000000002,-306.18000000000001
4326.0,7843.79,-240.143,53.160899999999998,-188.06700000000001,-1010.84,4403.6800000000003,-263.89699999999999
4327.0,7638.2600000000002,-348.51400000000001,59.363900000000001,-192.31200000000001,-1014.6900000000001,4280.7799999999997,-225.06800000000001
4328.0,7401.3400000000001,-401.255,48.702399999999997,-222.191,-1000.55,4142.8400000000001,-210.74700000000001
4329.0,7191.1300000000001,-451.48000000000002,72.933400000000006,-281.05700000000002,-948.34299999999996,4028.6599999999999,-190.98699999999999
4330.0,6980.8800000000001,-586.04999999999995,61.344499999999996,-365.37799999999999,-903.95000000000005,3911.29,-143.61099999999999
4331.0,6741.1700000000001,-707.47400000000005,76.186899999999994,-391.517,-879.89499999999998,3769.6599999999999,-88.3874
4332.0,6441.5200000000004,-848.26400000000001,28.702400000000001,-431.02499999999998,-838.41200000000003,3596.1300000000001,-59.713900000000002
4333.0,6154.0299999999997,-960.05200000000002,122.768,-357.19400000000002,-804.68100000000004,3417.9099999999999,-5.5071899999999996
4334.0,5715.3500000000004,-1331.8900000000001,-76.553700000000006,-586.56100000000004,-642.49199999999996,3172.9099999999999,-98.477800000000002
4335.0,50587.900000000001,25491.599999999999,-412.78199999999998,41339.699999999997,-4861.1999999999998,17590.400000000001,-8703.2000000000007
4336.0,48242.099999999999,23700.700000000001,615.86800000000005,38460.599999999999,-4548.6300000000001,18014.200000000001,-8169.1700000000001
4337.0,46091.5,21346.0,773.17600000000004,35239.699999999997,-4003.79,18138.0,-7900.5600000000004
4338.0,43968.599999999999,18538.0,559.16099999999994,31806.0,-3576.4000000000001,18070.900000000001,-7689.25
4339.0,41953.300000000003,15520.799999999999,162.21199999999999,28467.200000000001,-3400.2800000000002,17865.0,-7429.2600000000002
4340.0,40092.0,12928.299999999999,4.5787699999999996,25645.799999999999,-3331.5700000000002,17649.200000000001,-6987.2799999999997
4341.0,38372.099999999999,10853.299999999999,-76.653000000000006,23202.400000000001,-3202.1700000000001,17373.599999999999,-6562.2299999999996
4342.0,36735.699999999997,9204.1700000000001,-134.38800000000001,21131.200000000001,-3070.04,16998.299999999999,-6152.6300000000001
4343.0,35193.800000000003,7777.0900000000001,-199.93700000000001,19296.099999999999,-2919.79,16570.299999999999,-5805.04
4344.0,33732.400000000001,6522.1800000000003,-234.03100000000001,17639.599999999999,-2781.8099999999999,16125.799999999999,-5482.5900000000001
4345.0,32347.299999999999,5464.5200000000004,-245.75800000000001,16177.4,-2676.4000000000001,15665.9,-5165.6999999999998
4346.0,31049.200000000001,4576.0100000000002,-271.94600000000003,14878.5,-2588.0900000000001,15203.6,-4862.1400000000003
4347.0,29847.099999999999,3870.0100000000002,-285.005,13770.1,-2508.9299999999998,14749.0,-4580.8400000000001
4348.0,28736.799999999999,3281.1799999999998,-302.54899999999998,12785.700000000001,-2426.8200000000002,14311.700000000001,-4336.6899999999996
4349.0,27711.700000000001,2772.1500000000001,-307.584,11891.799999999999,-2344.6700000000001,13901.200000000001,-4122.1199999999999
4350.0,26766.099999999999,2321.73,-301.05599999999998,11055.700000000001,-2268.8600000000001,13523.0,-3928.3200000000002
4351.0,25875.299999999999,1922.8199999999999,-285.63799999999998,10245.200000000001,-2198.1799999999998,13171.6,-3743.7199999999998
4352.0,25000.700000000001,1560.8299999999999,-257.84199999999998,9444.4099999999999,-2139.79,12827.9,-3551.6500000000001
4353.0,24121.599999999999,1252.9300000000001,-243.185,8693.8700000000008,-2111.3800000000001,12465.799999999999,-3344.4200000000001
4354.0,23254.799999999999,1035.4200000000001,-230.40899999999999,8039.6400000000003,-2072.4000000000001,12089.6,-3156.75
4355.0,22438.5,807.05499999999995,-229.75899999999999,7407.6199999999999,-2003.54,11733.0,-2998.46
4356.0,21683.799999999999,582.88099999999997,-195.55500000000001,6807.2600000000002,-1944.25,11407.6,-2843.3699999999999
4357.0,20973.700000000001,374.52999999999997,-179.82599999999999,6216.4700000000003,-1912.96,11101.5,-2678.0
4358.0,20283.5,245.351,-158.971,5679.3000000000002,-1889.79,10800.1,-2509.1900000000001
4359.0,19606.599999999999,143.42699999999999,-160.80099999999999,5171.1400000000003,-1854.29,10499.299999999999,-2344.8000000000002
4360.0,18968.900000000001,44.058799999999998,-157.07300000000001,4716.5500000000002,-1801.6500000000001,10209.799999999999,-2202.2399999999998
4361.0,18404.099999999999,-96.454800000000006,-146.05000000000001,4279.1899999999996,-1753.76,9952.2199999999993,-2079.8000000000002
4362.0,17898.700000000001,-213.971,-124.973,3881.6900000000001,-1739.0599999999999,9720.6399999999994,-1949.3099999999999
4363.0,17408.700000000001,-279.673,-121.499,3513.9000000000001,-1730.71,9492.7900000000009,-1818.71
4364.0,16883.200000000001,-326.029,-121.79000000000001,3150.6100000000001,-1698.6300000000001,9244.5900000000001,-1691.26
4365.0,16297.9,-409.33199999999999,-110.81399999999999,2787.2600000000002,-1645.52,8959.4400000000005,-1563.3499999999999
4366.0,15677.5,-519.48000000000002,-93.758099999999999,2449.0799999999999,-1622.55,8641.1599999999999,-1431.4000000000001
4367.0,15046.200000000001,-538.26400000000001,-84.492699999999999,2176.8299999999999,-1643.8199999999999,8302.8500000000004,-1306.9100000000001
4368.0,14420.0,-450.42500000000001,-75.850800000000007,1950.4400000000001,-1637.0799999999999,7969.0600000000004,-1207.3499999999999
4369.0,13796.6,-343.70699999999999,-23.7773,1755.3299999999999,-1591.49,7643.0299999999997,-1105.0799999999999
4370.0,13138.9,-257.93000000000001,26.715399999999999,1576.29,-1552.54,7292.8100000000004,-986.74300000000005
4371.0,12434.200000000001,-160.06299999999999,43.744,1419.3299999999999,-1500.04,6911.5200000000004,-882.70899999999995
4372.0,11735.5,-124.944,37.884999999999998,1252.3,-1401.6099999999999,6536.3800000000001,-807.82500000000005
4373.0,11110.6,-187.93700000000001,63.2774,1066.9400000000001,-1309.6600000000001,6200.3900000000003,-740.06299999999999
4374.0,10544.9,-240.19499999999999,78.671099999999996,892.20799999999997,-1285.72,5886.2700000000004,-650.471
4375.0,10015.700000000001,-188.791,71.061499999999995,775.44000000000005,-1269.9100000000001,5590.6899999999996,-566.423
4376.0,9551.4699999999993,-112.295,60.613799999999998,697.70000000000005,-1217.8599999999999,5337.0799999999999,-510.53800000000001
4377.0,9164.9899999999998,-65.5184,81.027500000000003,642.01900000000001,-1142.3800000000001,5131.0799999999999,-475.97199999999998
4378.0,8850.3099999999995,-140.66399999999999,81.528300000000002,535.75400000000002,-1064.0,4966.5500000000002,-437.85899999999998
4379.0,8577.8199999999997,-274.61200000000002,89.4846,460.375,-1012.09,4818.6499999999996,-384.07900000000001
4380.0,8335.1599999999999,-422.25700000000001,89.345399999999998,423.91500000000002,-992.88400000000001,4677.5500000000002,-333.75200000000001
4381.0,8109.2299999999996,-492.88200000000001,95.389099999999999,458.28199999999998,-999.803,4539.1099999999997,-293.71699999999998
4382.0,7873.6300000000001,-546.226,77.093500000000006,489.63900000000001,-964.52800000000002,4402.1599999999999,-288.791
4383.0,7645.4499999999998,-668.49699999999996,114.633,490.35700000000003,-898.13300000000004,4271.4200000000001,-288.24200000000002
4384.0,7388.29,-880.95699999999999,102.861,429.71600000000001,-874.80899999999997,4110.7399999999998,-258.24299999999999
4385.0,7107.6899999999996,-967.46299999999997,165.37799999999999,475.25799999999998,-858.50999999999999,3933.46,-231.98099999999999
4386.0,6852.2600000000002,-1204.6800000000001,83.576999999999998,382.19499999999999,-793.95000000000005,3775.3299999999999,-237.66200000000001
4387.0,6745.0600000000004,-1363.3399999999999,244.17099999999999,475.17000000000002,-751.64599999999996,3680.9200000000001,-219.52199999999999
4388.0,6665.79,-1815.78,38.642000000000003,363.44200000000001,-760.88400000000001,3575.7399999999998,-252.58000000000001
4389.0,47382.699999999997,20636.799999999999,17.390899999999998,39605.199999999997,-4075.25,16481.299999999999,-8252.8600000000006
4390.0,45266.0,18561.5,412.40699999999998,36471.400000000001,-3614.9200000000001,16821.900000000001,-7867.1999999999998
4391.0,43370.400000000001,15915.1,101.43899999999999,33136.699999999997,-3242.3000000000002,16890.400000000001,-7629.0
4392.0,41560.0,13315.4,-113.444,30177.599999999999,-3032.6700000000001,16824.0,-7289.1000000000004
4393.0,39834.5,11042.5,-166.69300000000001,27599.799999999999,-2844.9699999999998,16681.5,-6887.3999999999996
4394.0,38213.300000000003,9140.7700000000004,-161.59100000000001,25345.599999999999,-2676.6300000000001,16457.5,-6489.54
4395.0,36700.099999999999,7473.8199999999997,-240.03299999999999,23300.0,-2540.3899999999999,16154.5,-6125.8400000000001
4396.0,35267.0,6077.9099999999999,-287.267,21502.0,-2415.3800000000001,15803.5,-5785.46
4397.0,33907.5,4874.2799999999997,-326.28500000000003,19884.400000000001,-2291.5799999999999,15418.799999999999,-5487.3800000000001
4398.0,32617.400000000001,3847.9499999999998,-334.07100000000003,18425.0,-2194.2800000000002,15025.0,-5204.3000000000002
4399.0,31385.799999999999,2985.02,-351.03699999999998,17095.099999999999,-2120.2800000000002,14621.1,-4931.3699999999999
4400.0,30208.0,2299.0599999999999,-348.06799999999998,15917.6,-2060.0599999999999,14211.700000000001,-4667.3800000000001
4401.0,29087.5,1740.1400000000001,-357.77600000000001,14862.6,-2007.25,13800.4,-4416.3800000000001
4402.0,28035.099999999999,1295.6300000000001,-359.464,13933.299999999999,-1950.4100000000001,13397.1,-4192.96
4403.0,27052.700000000001,912.92600000000004,-352.53500000000003,13075.0,-1887.73,13018.1,-3993.2199999999998
4404.0,26122.099999999999,568.09000000000003,-349.22300000000001,12262.4,-1825.5699999999999,12657.4,-3803.79
4405.0,25236.099999999999,246.47999999999999,-335.10899999999998,11486.200000000001,-1760.25,12313.4,-3628.5700000000002
4406.0,24399.099999999999,-49.756300000000003,-316.30900000000003,10751.1,-1720.1500000000001,11986.9,-3453.04
4407.0,23604.700000000001,-264.86399999999998,-294.04199999999997,10094.299999999999,-1694.1400000000001,11670.299999999999,-3284.7399999999998
4408.0,22856.099999999999,-467.02199999999999,-286.65499999999997,9457.3500000000004,-1649.1500000000001,11371.799999999999,-3138.5599999999999
4409.0,22156.200000000001,-667.74300000000005,-258.101,8842.2600000000002,-1603.8699999999999,11097.299999999999,-3000.77
4410.0,21497.200000000001,-871.68499999999995,-236.893,8227.7199999999993,-1574.55,10843.4,-2859.4499999999998
4411.0,20864.400000000001,-1029.8599999999999,-210.57300000000001,7652.2299999999996,-1561.03,10599.0,-2711.8200000000002
4412.0,20254.5,-1155.0999999999999,-194.661,7112.0699999999997,-1548.78,10358.4,-2571.1999999999998
4413.0,19675.0,-1256.26,-172.87899999999999,6610.6000000000004,-1533.3699999999999,10126.1,-2442.4400000000001
4414.0,19131.5,-1347.1099999999999,-149.827,6137.75,-1520.6199999999999,9906.5799999999999,-2320.9400000000001
4415.0,18623.0,-1414.5799999999999,-121.92400000000001,5695.9099999999999,-1516.73,9701.0499999999993,-2201.98
4416.0,18122.0,-1458.8699999999999,-107.783,5269.9099999999999,-1518.0,9496.0300000000007,-2078.3800000000001
4417.0,17599.599999999999,-1484.0699999999999,-96.293400000000005,4877.2600000000002,-1504.24,9272.1399999999994,-1955.9200000000001
4418.0,17070.799999999999,-1536.8099999999999,-84.315399999999997,4504.7700000000004,-1469.9100000000001,9033.2900000000009,-1852.27
4419.0,16574.299999999999,-1619.8800000000001,-56.672499999999999,4136.1099999999997,-1448.54,8803.9099999999999,-1761.5599999999999
4420.0,16102.1,-1645.77,-29.582000000000001,3795.2600000000002,-1472.23,8585.1299999999992,-1657.1500000000001
4421.0,15610.700000000001,-1560.22,-19.8096,3506.9400000000001,-1493.6500000000001,8358.9599999999991,-1542.7
4422.0,15087.6,-1445.6099999999999,9.0330600000000008,3248.1799999999998,-1465.54,8118.1199999999999,-1433.1400000000001
4423.0,14524.700000000001,-1387.3599999999999,26.724299999999999,2975.3099999999999,-1433.55,7846.8900000000003,-1318.8399999999999
4424.0,13913.0,-1297.0799999999999,49.001100000000001,2747.5300000000002,-1419.5999999999999,7538.1199999999999,-1201.5
4425.0,13280.1,-1199.25,59.319499999999998,2531.0700000000002,-1366.7,7216.5100000000002,-1113.4000000000001
4426.0,12689.700000000001,-1170.1600000000001,79.568600000000004,2299.4499999999998,-1291.71,6916.3999999999996,-1040.6800000000001
4427.0,12162.5,-1176.73,113.116,2083.52,-1267.3399999999999,6640.8000000000002,-952.16300000000001
4428.0,11658.299999999999,-1109.6900000000001,130.34299999999999,1905.46,-1270.2,6374.8100000000004,-870.024
4429.0,11169.299999999999,-988.23400000000004,133.89699999999999,1741.5799999999999,-1250.01,6123.8800000000001,-798.35000000000002
4430.0,10695.200000000001,-891.39999999999998,130.91999999999999,1597.45,-1208.74,5880.75,-720.96000000000004
4431.0,10225.1,-853.99000000000001,116.755,1480.6099999999999,-1151.4300000000001,5632.2700000000004,-653.68600000000004
4432.0,9785.7600000000002,-873.54899999999998,130.96299999999999,1374.9300000000001,-1081.78,5395.6499999999996,-606.97799999999995
4433.0,9401.3299999999999,-936.55399999999997,156.547,1266.3900000000001,-1038.79,5182.71,-555.72199999999998
4434.0,9062.9300000000003,-980.09299999999996,167.97,1195.28,-1028.8199999999999,4988.9899999999998,-496.13900000000001
4435.0,8747.8099999999995,-998.20000000000005,153.37700000000001,1173.75,-1008.77,4807.2799999999997,-446.91000000000003
4436.0,8466.5300000000007,-1053.22,148.107,1190.8900000000001,-953.23400000000004,4641.3999999999996,-426.23200000000003
4437.0,8263.9099999999999,-1184.54,167.87700000000001,1210.3499999999999,-902.10400000000004,4508.3500000000004,-428.01100000000002
4438.0,8142.4899999999998,-1334.48,197.31299999999999,1232.5899999999999,-886.84699999999998,4411.6499999999996,-427.68000000000001
4439.0,8063.6000000000004,-1518.1600000000001,179.27699999999999,1220.95,-874.96400000000006,4337.5600000000004,-427.10300000000001
4440.0,8041.4499999999998,-1709.1800000000001,215.797,1228.22,-842.00999999999999,4292.7200000000003,-438.22199999999998
4441.0,8107.1000000000004,-2049.3499999999999,190.589,1113.22,-839.52200000000005,4286.5200000000004,-429.19299999999998
4442.0,8159.2200000000003,-2110.8000000000002,280.87799999999999,1321.1500000000001,-1010.45,4238.3800000000001,-330.63
4443.0,45304.599999999999,17025.700000000001,219.137,38602.199999999997,-3223.6500000000001,15494.5,-7968.0299999999997
4444.0,43462.400000000001,14705.9,53.506900000000002,35424.599999999999,-2872.5900000000001,15743.200000000001,-7596.9099999999999
4445.0,41674.0,12292.6,-43.828099999999999,32571.5,-2606.6700000000001,15777.5,-7210.0600000000004
4446.0,39975.300000000003,10052.799999999999,-91.275899999999993,30024.599999999999,-2391.8800000000001,15671.5,-6824.2299999999996
4447.0,38419.5,7974.3500000000004,-248.017,27643.700000000001,-2223.9099999999999,15491.799999999999,-6455.1899999999996
4448.0,36958.599999999999,6225.4499999999998,-347.73200000000003,25555.400000000001,-2087.0500000000002,15243.5,-6106.5299999999997
4449.0,35560.5,4752.4799999999996,-412.74000000000001,23697.5,-1963.3800000000001,14937.200000000001,-5778.6000000000004
4450.0,34236.5,3522.0,-440.45299999999997,22062.400000000001,-1855.74,14592.9,-5478.3500000000004
4451.0,32991.0,2472.0799999999999,-466.49700000000001,20582.200000000001,-1765.25,14234.700000000001,-5207.25
4452.0,31807.900000000001,1608.3099999999999,-471.24900000000002,19249.200000000001,-1697.3900000000001,13871.299999999999,-4954.75
4453.0,30673.599999999999,904.43899999999996,-472.38,18033.900000000001,-1646.71,13504.200000000001,-4716.8199999999997
4454.0,29579.900000000001,347.56900000000002,-465.226,16933.099999999999,-1608.96,13134.1,-4489.7799999999997
4455.0,28525.900000000001,-95.319400000000002,-465.37099999999998,15931.5,-1577.5699999999999,12761.299999999999,-4273.21
4456.0,27517.099999999999,-436.57999999999998,-454.65800000000002,15034.200000000001,-1538.3699999999999,12391.799999999999,-4074.1399999999999
4457.0,26562.5,-753.08100000000002,-456.96499999999997,14181.5,-1487.98,12038.6,-3891.6199999999999
4458.0,25666.400000000001,-1030.76,-437.47300000000001,13403.5,-1437.03,11702.799999999999,-3722.46
4459.0,24834.400000000001,-1302.98,-414.13600000000002,12659.4,-1392.1099999999999,11393.6,-3566.5999999999999
4460.0,24052.900000000001,-1531.53,-386.71300000000002,11964.200000000001,-1369.99,11107.1,-3406.5500000000002
4461.0,23314.0,-1719.72,-374.34100000000001,11312.9,-1345.1199999999999,10834.6,-3256.9299999999998
4462.0,22628.900000000001,-1898.05,-352.13900000000001,10693.799999999999,-1309.5,10585.5,-3124.3099999999999
4463.0,21994.900000000001,-2077.3600000000001,-324.69099999999997,10090.0,-1280.8099999999999,10361.799999999999,-2997.7800000000002
4464.0,21400.5,-2238.4299999999998,-289.66000000000003,9504.4599999999991,-1264.4100000000001,10159.299999999999,-2871.8400000000001
4465.0,20833.799999999999,-2374.3899999999999,-262.72699999999998,8936.7800000000007,-1261.48,9969.8799999999992,-2742.4499999999998
4466.0,20288.099999999999,-2473.3299999999999,-238.21299999999999,8402.0,-1261.02,9787.2000000000007,-2614.5900000000001
4467.0,19757.299999999999,-2550.8299999999999,-218.798,7890.1899999999996,-1258.99,9607.2800000000007,-2489.4699999999998
4468.0,19230.599999999999,-2609.0999999999999,-200.767,7395.8699999999999,-1254.8,9425.6800000000003,-2363.4299999999998
4469.0,18697.400000000001,-2652.6100000000001,-189.126,6920.8699999999999,-1246.6300000000001,9235.1599999999999,-2230.9499999999998
4470.0,18162.700000000001,-2679.6399999999999,-169.84200000000001,6494.8400000000001,-1230.02,9031.0100000000002,-2099.48
4471.0,17646.0,-2723.3400000000001,-157.352,6102.2799999999997,-1207.1199999999999,8820.3199999999997,-1981.97
4472.0,17165.5,-2778.4899999999998,-140.435,5736.8599999999997,-1185.74,8618.1599999999999,-1880.6600000000001
4473.0,16720.0,-2811.71,-108.675,5397.3199999999997,-1179.8299999999999,8433.0799999999999,-1781.9200000000001
4474.0,16272.0,-2813.6799999999998,-98.780600000000007,5058.9200000000001,-1183.22,8250.2099999999991,-1673.8499999999999
4475.0,15795.9,-2789.1900000000001,-91.956599999999995,4741.6899999999996,-1168.01,8049.54,-1565.8099999999999
4476.0,15312.1,-2802.8400000000001,-89.6614,4430.2399999999998,-1142.9200000000001,7832.1899999999996,-1467.23
4477.0,14828.6,-2782.5700000000002,-55.784799999999997,4183.6199999999999,-1140.3499999999999,7601.3000000000002,-1375.6800000000001
4478.0,14343.299999999999,-2734.6399999999999,-33.742400000000004,3959.79,-1144.26,7365.0299999999997,-1296.55
4479.0,13870.9,-2670.5100000000002,1.92859,3742.8600000000001,-1117.3399999999999,7139.21,-1240.51
4480.0,13426.6,-2649.0799999999999,32.881599999999999,3488.6100000000001,-1099.21,6929.7200000000003,-1180.6300000000001
4481.0,12991.5,-2581.4000000000001,87.383899999999997,3259.4400000000001,-1117.4200000000001,6727.0900000000001,-1098.8199999999999
4482.0,12534.6,-2448.29,112.28700000000001,3055.8400000000001,-1126.8099999999999,6517.6400000000003,-1018.0700000000001
4483.0,12066.799999999999,-2325.96,110.471,2854.6900000000001,-1108.76,6300.4700000000003,-944.99800000000005
4484.0,11586.4,-2229.8000000000002,116.233,2666.7199999999998,-1084.6400000000001,6067.2799999999997,-873.19399999999996
4485.0,11092.5,-2130.73,129.648,2505.9499999999998,-1063.49,5818.5900000000001,-807.19500000000005
4486.0,10632.799999999999,-2057.29,146.297,2347.6300000000001,-1028.8099999999999,5585.8000000000002,-758.34699999999998
4487.0,10235.9,-2018.6600000000001,171.87,2190.0700000000002,-998.71900000000005,5384.6000000000004,-708.952
4488.0,9867.2199999999993,-1982.73,181.57599999999999,2055.1599999999999,-983.18200000000002,5194.6899999999996,-647.57799999999997
4489.0,9521.6900000000005,-1939.73,190.30600000000001,1974.6500000000001,-959.12,5010.5699999999997,-595.47500000000002
4490.0,9249.7900000000009,-1950.78,190.96899999999999,1916.5999999999999,-926.78300000000002,4856.79,-564.46900000000005
4491.0,9076.4300000000003,-1994.72,202.42699999999999,1896.1900000000001,-901.64700000000005,4748.1000000000004,-545.125
4492.0,8988.0400000000009,-2099.5,193.06200000000001,1865.6099999999999,-881.48299999999995,4680.4399999999996,-531.173
4493.0,8956.5799999999999,-2208.73,219.685,1863.6800000000001,-876.74000000000001,4637.4799999999996,-517.53099999999995
4494.0,8943.1700000000001,-2388.3099999999999,174.80000000000001,1763.51,-875.86500000000001,4609.1999999999998,-509.60500000000002
4495.0,8946.9899999999998,-2515.46,235.572,1690.01,-871.31600000000003,4597.3100000000004,-476.31599999999997
4496.0,8823.4699999999993,-2628.8699999999999,179.953,1585.9100000000001,-975.04899999999998,4503.3800000000001,-338.99700000000001
4497.0,44237.400000000001,14767.9,232.51599999999999,38466.800000000003,-2598.4200000000001,14652.799999999999,-7641.6599999999999
4498.0,42589.900000000001,12190.5,-134.86000000000001,35512.400000000001,-2283.5799999999999,14761.799999999999,-7331.3900000000003
4499.0,40863.800000000003,9832.1599999999999,-182.29599999999999,32951.400000000001,-2081.1599999999999,14690.799999999999,-6906.0200000000004
4500.0,39225.400000000001,7560.8400000000001,-405.61799999999999,30374.0,-1873.4000000000001,14541.299999999999,-6534.9700000000003
4501.0,37669.699999999997,5709.4899999999998,-408.64600000000002,28209.599999999999,-1723.5899999999999,14320.1,-6152.2399999999998
4502.0,36227.900000000001,4080.21,-477.00400000000002,26226.799999999999,-1588.3399999999999,14039.6,-5813.5299999999997
4503.0,34896.699999999997,2734.9000000000001,-494.78199999999998,24505.5,-1487.1400000000001,13729.700000000001,-5505.6499999999996
4504.0,33650.0,1593.76,-535.81100000000004,22941.700000000001,-1401.01,13398.200000000001,-5233.4799999999996
4505.0,32470.799999999999,672.80100000000004,-539.28899999999999,21560.700000000001,-1336.3900000000001,13056.5,-4982.9700000000003
4506.0,31348.599999999999,-83.468000000000004,-548.98599999999999,20299.0,-1285.77,12712.4,-4754.0699999999997
4507.0,30272.400000000001,-678.221,-543.64200000000005,19159.400000000001,-1248.6900000000001,12370.0,-4539.1700000000001
4508.0,29234.900000000001,-1147.9100000000001,-537.08299999999997,18114.5,-1219.02,12030.299999999999,-4335.6599999999999
4509.0,28233.0,-1509.2,-524.44899999999996,17164.700000000001,-1194.74,11691.6,-4140.9799999999996
4510.0,27271.099999999999,-1810.0599999999999,-522.27300000000002,16279.1,-1161.4400000000001,11357.9,-3961.6999999999998
4511.0,26359.5,-2066.3200000000002,-499.15699999999998,15462.6,-1120.6199999999999,11039.6,-3794.3800000000001
4512.0,25506.0,-2320.4200000000001,-488.12,14679.700000000001,-1084.1400000000001,10741.9,-3635.5999999999999
4513.0,24710.5,-2544.6599999999999,-465.90199999999999,13946.700000000001,-1055.55,10468.6,-3487.4699999999998
4514.0,23962.700000000001,-2747.9699999999998,-449.75700000000001,13241.200000000001,-1035.29,10218.6,-3344.2199999999998
4515.0,23258.799999999999,-2914.8400000000001,-423.22899999999998,12586.200000000001,-1014.6,9986.5400000000009,-3205.3099999999999
4516.0,22602.599999999999,-3087.1999999999998,-406.32100000000003,11949.299999999999,-989.26199999999994,9774.1599999999999,-3075.0100000000002
4517.0,21989.700000000001,-3248.96,-377.733,11339.0,-968.20299999999997,9582.2600000000002,-2949.9899999999998
4518.0,21411.400000000001,-3409.4400000000001,-358.82400000000001,10732.0,-955.399,9409.3299999999999,-2825.96
4519.0,20855.299999999999,-3535.96,-330.58600000000001,10154.9,-950.62800000000004,9247.2600000000002,-2699.6799999999998
4520.0,20310.799999999999,-3644.6799999999998,-310.06999999999999,9595.3500000000004,-948.654,9087.0,-2571.7800000000002
4521.0,19772.700000000001,-3723.8899999999999,-285.83600000000001,9071.8299999999999,-947.625,8921.1100000000006,-2446.0700000000002
4522.0,19243.599999999999,-3794.3400000000001,-265.03199999999998,8568.25,-939.255,8751.2099999999991,-2328.2199999999998
4523.0,18728.099999999999,-3862.0599999999999,-234.66900000000001,8088.6199999999999,-928.63800000000003,8579.3999999999996,-2214.3400000000001
4524.0,18226.799999999999,-3949.4699999999998,-223.518,7614.7799999999997,-923.19899999999996,8404.2000000000007,-2100.8000000000002
4525.0,17742.900000000001,-4014.5500000000002,-202.41499999999999,7188.8699999999999,-920.69899999999996,8226.5699999999997,-1991.46
4526.0,17282.400000000001,-4071.3899999999999,-183.03200000000001,6789.8500000000004,-917.34699999999998,8053.9799999999996,-1888.75
4527.0,16833.299999999999,-4122.6999999999998,-172.21799999999999,6404.6400000000003,-916.50599999999997,7882.7600000000002,-1787.4300000000001
4528.0,16383.1,-4151.04,-152.98099999999999,6050.3199999999997,-911.61000000000001,7704.2700000000004,-1690.8800000000001
4529.0,15943.1,-4186.04,-135.52799999999999,5710.2799999999997,-901.428,7522.9700000000003,-1602.3099999999999
4530.0,15521.299999999999,-4203.7299999999996,-99.479900000000001,5409.5299999999997,-901.45699999999999,7343.54,-1515.1500000000001
4531.0,15104.1,-4214.1000000000004,-93.394300000000001,5121.6899999999996,-917.61300000000006,7160.8299999999999,-1426.8199999999999
4532.0,14686.799999999999,-4162.1899999999996,-65.577100000000002,4891.4200000000001,-926.59400000000005,6976.6700000000001,-1347.1300000000001
4533.0,14276.6,-4112.5100000000002,-44.869100000000003,4653.3100000000004,-917.50800000000004,6798.0299999999997,-1281.6300000000001
4534.0,13877.0,-4047.02,-6.2881,4415.3900000000003,-916.52099999999996,6629.9200000000001,-1216.21
4535.0,13479.200000000001,-3963.3699999999999,17.623000000000001,4159.1800000000003,-919.51099999999997,6474.25,-1142.72
4536.0,13064.700000000001,-3881.0300000000002,5.9873099999999999,3888.0999999999999,-916.66800000000001,6312.4200000000001,-1057.6300000000001
4537.0,12628.6,-3780.5100000000002,20.8827,3667.3200000000002,-916.06700000000001,6124.7200000000003,-969.27300000000002
4538.0,12179.0,-3675.3200000000002,34.350499999999997,3474.6799999999998,-916.26700000000005,5916.8000000000002,-898.95000000000005
4539.0,11740.9,-3563.3800000000001,37.183500000000002,3296.2399999999998,-911.41899999999998,5712.1599999999999,-846.654
4540.0,11338.700000000001,-3442.4899999999998,73.480900000000005,3146.0500000000002,-898.89800000000002,5526.3599999999997,-798.69200000000001
4541.0,10972.0,-3325.9499999999998,143.66300000000001,3015.6500000000001,-887.88199999999995,5356.5299999999997,-750.97900000000004
4542.0,10626.5,-3236.1500000000001,172.84200000000001,2860.3299999999999,-878.02999999999997,5198.8900000000003,-711.76900000000001
4543.0,10315.799999999999,-3157.4699999999998,169.708,2703.0700000000002,-878.59100000000001,5060.7799999999997,-670.452
4544.0,10043.0,-3088.8200000000002,162.54400000000001,2564.21,-877.29700000000003,4940.7200000000003,-625.09100000000001
4545.0,9784.8099999999995,-3020.21,176.245,2459.7199999999998,-868.255,4821.7700000000004,-577.93600000000004
4546.0,9528.0100000000002,-2997.1999999999998,162.94200000000001,2335.1500000000001,-849.84900000000005,4697.2200000000003,-533.94600000000003
4547.0,9295.8299999999999,-2970.8699999999999,199.16,2250.3499999999999,-836.85000000000002,4577.2299999999996,-482.91899999999998
4548.0,9042.0200000000004,-2992.5,150.666,2116.73,-810.15800000000002,4445.0200000000004,-443.39800000000002
4549.0,8851.2700000000004,-3030.4000000000001,252.15000000000001,2035.6900000000001,-762.80999999999995,4332.4499999999998,-399.27999999999997
4550.0,8606.9500000000007,-3282.6700000000001,81.581999999999994,1714.6300000000001,-730.93100000000004,4187.6000000000004,-360.40199999999999
4551.0,8443.9899999999998,-3990.5900000000001,4.7801799999999997,1912.96,-628.95100000000002,3765.9499999999998,-336.17000000000002
4552.0,8628.1200000000008,-4460.6000000000004,156.78399999999999,2481.9499999999998,-688.54899999999998,3424.6199999999999,-353.69
4553.0,8437.3999999999996,-4783.3699999999999,108.712,2678.3299999999999,-673.47699999999998,2968.1100000000001,-312.96899999999999
4554.0,7400.8000000000002,-4769.8800000000001,-54.523000000000003,2252.54,-471.166,2276.0900000000001,-206.81999999999999
4555.0,6249.3599999999997,-4625.0200000000004,-150.35499999999999,1796.51,-260.86900000000003,1444.6700000000001,-146.79599999999999
4556.0,5574.0799999999999,-4450.6000000000004,-129.53100000000001,1570.1400000000001,-201.88,814.19899999999996,-134.68600000000001
4557.0,5259.3000000000002,-4343.6199999999999,-105.346,1455.8599999999999,-179.28100000000001,404.642,-135.93000000000001
4558.0,5115.9799999999996,-4269.54,-62.218699999999998,1405.3099999999999,-154.09800000000001,103.626,-115.705
4559.0,5139.0299999999997,-4352.4799999999996,-75.6267,1330.72,-144.363,-102.10599999999999,-102.902
4560.0,5308.2700000000004,-4535.71,-80.764300000000006,1285.9000000000001,-130.51400000000001,-317.98700000000002,-82.837400000000002
4561.0,5553.5900000000001,-4801.1400000000003,-105.00700000000001,1184.6900000000001,-113.879,-582.68399999999997,-61.481900000000003
4562.0,5860.54,-5080.2600000000002,-121.98099999999999,1058.75,-94.331699999999998,-909.41899999999998,-41.210900000000002
4563.0,6197.46,-5362.1499999999996,-165.864,859.10500000000002,-69.644000000000005,-1292.97,-14.767200000000001
4564.0,8758.8500000000004,-3728.52,253.447,2293.6999999999998,-654.90999999999997,3954.6399999999999,-351.37200000000001
4565.0,8863.3099999999995,-4554.0100000000002,148.10300000000001,2515.7399999999998,-579.66499999999996,3568.0999999999999,-411.37599999999998
4566.0,8898.7700000000004,-5185.75,45.9223,2801.1799999999998,-562.92999999999995,3074.1599999999999,-412.161
4567.0,8286.0,-5280.1000000000004,11.859299999999999,2717.8099999999999,-555.58100000000002,2439.3899999999999,-278.72500000000002
4568.0,7114.4099999999999,-4960.29,65.126499999999993,2335.6199999999999,-431.12200000000001,1650.8,-143.44200000000001
4569.0,6243.75,-4775.4200000000001,52.125300000000003,1937.8399999999999,-299.11099999999999,950.96100000000001,-113.413
4570.0,5744.2600000000002,-4617.21,63.835299999999997,1704.1199999999999,-216.84,417.77600000000001,-130.24799999999999
4571.0,5470.0600000000004,-4528.8599999999997,35.985500000000002,1515.4000000000001,-177.32499999999999,61.630000000000003,-109.57599999999999
4572.0,5453.3599999999997,-4569.6800000000003,33.0762,1427.9100000000001,-158.84299999999999,-159.22999999999999,-110.081
4573.0,5605.7700000000004,-4740.71,25.183399999999999,1366.3299999999999,-139.477,-382.387,-88.483599999999996
4574.0,5840.8800000000001,-4990.8800000000001,6.7898899999999998,1256.8800000000001,-124.035,-650.04399999999998,-70.780500000000004
4575.0,6146.0600000000004,-5240.3400000000001,9.8706399999999999,1157.23,-112.22499999999999,-969.95399999999995,-54.3523
4576.0,6488.3699999999999,-5489.46,-6.8171299999999997,985.86900000000003,-108.69,-1362.9000000000001,-35.1464
4577.0,8999.2700000000004,-3785.6799999999998,91.196399999999997,2343.75,-694.41800000000001,4092.04,-395.39999999999998
4578.0,9099.2000000000007,-4576.4399999999996,142.85599999999999,2717.9099999999999,-614.41800000000001,3651.75,-447.94200000000001
4579.0,9338.0799999999999,-5434.6199999999999,37.909500000000001,3016.0500000000002,-567.29399999999998,3191.6700000000001,-431.34199999999998
4580.0,8994.0300000000007,-5801.0500000000002,-23.634,2955.9000000000001,-531.75400000000002,2599.21,-319.64800000000002
4581.0,7875.4700000000003,-5556.8100000000004,-39.936399999999999,2527.9499999999998,-441.23099999999999,1837.1199999999999,-197.715
4582.0,6858.9799999999996,-5239.8000000000002,-40.889499999999998,2140.2600000000002,-309.08600000000001,1091.3,-142.09200000000001
4583.0,6151.1700000000001,-4982.2600000000002,-35.9923,1815.02,-198.398,453.55700000000002,-134.417
4584.0,5748.1300000000001,-4783.4700000000003,-10.657999999999999,1584.5799999999999,-146.53200000000001,41.183500000000002,-105.113
4585.0,5682.4200000000001,-4820.9399999999996,-33.279400000000003,1430.5799999999999,-121.05,-211.512,-113.65000000000001
4586.0,5798.1199999999999,-4950.8699999999999,-32.774900000000002,1360.98,-94.131100000000004,-440.75999999999999,-89.411799999999999
4587.0,6005.4399999999996,-5185.9799999999996,-63.623399999999997,1229.0799999999999,-74.542199999999994,-707.97900000000004,-67.430400000000006
4588.0,6305.2799999999997,-5431.1199999999999,-65.613200000000006,1127.05,-64.591700000000003,-1020.73,-51.700699999999998
4589.0,6660.79,-5706.29,-104.953,943.53599999999994,-60.188000000000002,-1414.8499999999999,-29.235399999999998
4590.0,9355.8999999999996,-3774.02,205.631,2589.1199999999999,-732.01800000000003,4256.9799999999996,-430.27699999999999
4591.0,9451.3999999999996,-4757.9700000000003,116.59999999999999,2862.6700000000001,-652.64400000000001,3773.2399999999998,-465.79899999999998
4592.0,9735.0400000000009,-5618.9300000000003,59.553100000000001,3200.5300000000002,-573.721,3327.7399999999998,-452.76299999999998
4593.0,9581.2700000000004,-6174.5299999999997,-15.771599999999999,3173.1300000000001,-498.53800000000001,2764.3800000000001,-360.911
4594.0,8655.5300000000007,-6028.3500000000004,41.006399999999999,2875.3400000000001,-424.01499999999999,2010.3299999999999,-245.886
4595.0,7570.96,-5731.75,-13.4345,2416.9899999999998,-303.40600000000001,1217.9000000000001,-172.601
4596.0,6665.7799999999997,-5314.6499999999996,18.264099999999999,2059.3099999999999,-200.47300000000001,504.77199999999999,-137.87
4597.0,6114.3299999999999,-5084.7299999999996,-23.4879,1697.05,-144.96000000000001,41.674100000000003,-103.842
4598.0,5951.9799999999996,-5002.8599999999997,1.5775999999999999,1545.5799999999999,-100.47499999999999,-260.00599999999997,-112.209
4599.0,5999.6300000000001,-5108.0699999999997,-31.438700000000001,1413.0799999999999,-71.103899999999996,-504.483,-90.849599999999995
4600.0,6177.3400000000001,-5284.7200000000003,-30.913499999999999,1298.8199999999999,-55.308700000000002,-770.27200000000005,-67.351299999999995
4601.0,6479.4899999999998,-5557.0100000000002,-58.206899999999997,1166.4300000000001,-43.036299999999997,-1080.03,-52.335599999999999
4602.0,6842.8599999999997,-5783.8699999999999,-49.550199999999997,1035.24,-31.148299999999999,-1476.45,-28.128499999999999
4603.0,9697.9400000000005,-3916.5300000000002,134.398,2693.0300000000002,-750.00900000000001,4410.4300000000003,-478.00700000000001
4604.0,9843.5400000000009,-4949.6400000000003,92.513199999999998,3021.5799999999999,-661.69000000000005,3919.5500000000002,-490.44299999999998
4605.0,10105.700000000001,-5867.8199999999997,33.919499999999999,3284.5300000000002,-567.00599999999997,3458.6599999999999,-480.47500000000002
4606.0,10068.5,-6457.79,-11.0694,3362.8800000000001,-464.10700000000003,2915.1500000000001,-424.18599999999998
4607.0,9355.2299999999996,-6504.96,-37.176600000000001,3151.23,-375.02300000000002,2175.3099999999999,-306.84899999999999
4608.0,8212.7800000000007,-6154.5500000000002,-45.266399999999997,2713.8299999999999,-272.17399999999998,1330.6400000000001,-202.97300000000001
4609.0,7179.5500000000002,-5712.1599999999999,-35.883200000000002,2247.9299999999998,-184.458,570.94000000000005,-148.89500000000001
4610.0,6523.6599999999999,-5388.3299999999999,-38.367699999999999,1868.46,-133.065,56.870399999999997,-109.38200000000001
4611.0,6238.6899999999996,-5253.9099999999999,-52.109000000000002,1624.4200000000001,-102.669,-297.24200000000002,-106.75700000000001
4612.0,6200.5500000000002,-5292.04,-74.693299999999994,1442.79,-77.061999999999998,-566.08000000000004,-94.792400000000001
4613.0,6347.6199999999999,-5444.5100000000002,-70.519999999999996,1308.6600000000001,-46.031799999999997,-832.10000000000002,-71.044600000000003
4614.0,6638.3900000000003,-5697.6400000000003,-94.042900000000003,1178.1500000000001,-21.079499999999999,-1141.8199999999999,-51.755400000000002
4615.0,7002.5200000000004,-5942.1499999999996,-114.42100000000001,1027.6400000000001,-6.6161399999999997,-1539.52,-28.317399999999999
4616.0,10072.299999999999,-4021.8600000000001,153.58799999999999,2875.4000000000001,-760.21199999999999,4570.3500000000004,-530.98900000000003
4617.0,10252.5,-5159.3199999999997,47.155099999999997,3155.5999999999999,-642.54700000000003,4085.46,-531.78700000000003
4618.0,10445.0,-6042.0600000000004,43.515099999999997,3425.54,-533.721,3576.8600000000001,-518.91800000000001
4619.0,10479.6,-6674.96,-2.7730100000000002,3568.48,-442.44200000000001,3022.8699999999999,-490.14800000000002
4620.0,10014.6,-6838.6499999999996,-19.121400000000001,3530.7199999999998,-378.02300000000002,2321.04,-358.63900000000001
4621.0,8899.8899999999994,-6610.5200000000004,-73.956299999999999,3013.2199999999998,-310.11599999999999,1453.8199999999999,-217.423
4622.0,7754.29,-6120.8699999999999,-54.421999999999997,2483.9499999999998,-230.80000000000001,644.52800000000002,-162.23500000000001
4623.0,7012.4200000000001,-5777.0900000000001,-82.781899999999993,2040.0,-175.357,84.255700000000004,-117.446
4624.0,6653.5799999999999,-5585.9200000000001,-43.4499,1750.0599999999999,-141.78999999999999,-318.03800000000001,-100.387
4625.0,6517.1000000000004,-5556.4700000000003,-57.2196,1495.05,-87.499300000000005,-640.755,-100.67100000000001
4626.0,6555.3800000000001,-5594.25,-52.909799999999997,1355.1800000000001,-29.326799999999999,-906.024,-72.799300000000002
4627.0,6810.3500000000004,-5823.3500000000004,-102.27200000000001,1214.9100000000001,-5.3817700000000004,-1207.1900000000001,-49.915399999999998
4628.0,7179.6700000000001,-6020.5500000000002,-90.633700000000005,1112.47,16.659600000000001,-1612.26,-31.6265
4629.0,10451.799999999999,-4188.8199999999997,115.307,3027.6300000000001,-771.62300000000005,4721.0200000000004,-590.77200000000005
4630.0,10645.200000000001,-5306.4200000000001,44.632599999999996,3346.7399999999998,-636.95000000000005,4238.3400000000001,-579.04999999999995
4631.0,10781.9,-6217.4700000000003,16.019400000000001,3581.1900000000001,-513.59299999999996,3684.0700000000002,-563.04899999999998
4632.0,10860.6,-6886.9700000000003,-17.550000000000001,3769.4000000000001,-430.48399999999998,3109.0599999999999,-533.19200000000001
4633.0,10619.700000000001,-7233.0,-51.5563,3771.6799999999998,-360.25299999999999,2466.3299999999999,-405.77600000000001
4634.0,9671.8899999999994,-7135.6000000000004,-61.592799999999997,3311.3400000000001,-289.36099999999999,1616.6500000000001,-241.60900000000001
4635.0,8496.4300000000003,-6701.0,-37.593800000000002,2712.46,-247.36099999999999,739.428,-160.21600000000001
4636.0,7662.3199999999997,-6300.8999999999996,-44.499699999999997,2225.8400000000001,-198.00200000000001,122.34099999999999,-125.732
4637.0,7181.4899999999998,-6042.9200000000001,-48.444400000000002,1877.8599999999999,-87.223200000000006,-327.93599999999998,-110.765
4638.0,6858.1499999999996,-5843.1599999999999,-80.843100000000007,1569.98,7.6700400000000002,-723.13199999999995,-87.818399999999997
4639.0,6745.6300000000001,-5750.3199999999997,-72.228999999999999,1386.05,20.742699999999999,-973.93700000000001,-54.967799999999997
4640.0,7007.7299999999996,-5988.0200000000004,-124.19799999999999,1244.8299999999999,18.4162,-1266.8299999999999,-46.102800000000002
4641.0,7382.4499999999998,-6179.5900000000001,-142.88999999999999,1132.8499999999999,50.654400000000003,-1704.74,-35.835700000000003
4642.0,10832.9,-4346.54,104.86799999999999,3216.0999999999999,-774.70799999999997,4862.5500000000002,-651.69500000000005
4643.0,11029.799999999999,-5481.2700000000004,19.7073,3526.8299999999999,-638.91800000000001,4373.8500000000004,-628.82000000000005
4644.0,11139.9,-6376.4200000000001,10.4635,3790.7800000000002,-513.745,3785.0100000000002,-605.32600000000002
4645.0,11245.0,-7093.5799999999999,-21.837700000000002,3974.2600000000002,-421.84899999999999,3201.04,-559.26499999999999
4646.0,11100.200000000001,-7494.79,-40.823700000000002,4008.2199999999998,-316.25,2589.48,-469.08699999999999
4647.0,10342.4,-7509.4899999999998,-65.988600000000005,3655.5500000000002,-182.26400000000001,1790.0599999999999,-314.38400000000001
4648.0,9229.1000000000004,-7207.9899999999998,-57.083399999999997,3025.75,-89.438000000000002,889.74300000000005,-176.154
4649.0,8305.6399999999994,-6810.8199999999997,-66.9773,2453.3499999999999,-45.3245,176.238,-136.678
4650.0,7655.3800000000001,-6357.4499999999998,-80.192899999999995,2129.6900000000001,11.398,-361.41899999999998,-132.87
4651.0,7116.8900000000003,-5948.1300000000001,-101.761,1783.8399999999999,45.5593,-789.45899999999995,-70.0488
4652.0,6902.5600000000004,-5866.0500000000002,-108.501,1457.4000000000001,47.172899999999998,-1002.84,-38.203699999999998
4653.0,7216.6499999999996,-6113.0100000000002,-129.30099999999999,1351.0599999999999,75.898399999999995,-1316.8399999999999,-45.417200000000001
4654.0,7575.8699999999999,-6245.3699999999999,-154.821,1235.4300000000001,109.964,-1812.99,-24.5657
4655.0,11203.299999999999,-4522.04,90.075400000000002,3390.73,-767.58799999999997,4995.1800000000003,-707.65800000000002
4656.0,11425.700000000001,-5656.9200000000001,21.110900000000001,3740.3699999999999,-635.904,4500.3800000000001,-678.90499999999997
4657.0,11524.299999999999,-6584.0600000000004,-15.0633,3977.5500000000002,-513.05999999999995,3892.8699999999999,-642.03800000000001
4658.0,11630.700000000001,-7311.3699999999999,-32.157899999999998,4164.7700000000004,-400.94999999999999,3295.71,-592.48500000000001
4659.0,11500.799999999999,-7750.2700000000004,-79.494399999999999,4200.9099999999999,-290.983,2656.3400000000001,-531.702
4660.0,10849.4,-7731.8400000000001,-104.30200000000001,4014.0999999999999,-170.85400000000001,1876.75,-408.63099999999997
4661.0,9798.3199999999997,-7431.7799999999997,-134.74100000000001,3482.3899999999999,-63.558700000000002,1014.78,-245.536
4662.0,8848.6700000000001,-7052.3900000000003,-128.536,2897.4200000000001,-12.9879,238.40799999999999,-163.73699999999999
4663.0,8145.6800000000003,-6653.5100000000002,-142.595,2436.1500000000001,-5.9945599999999999,-394.37299999999999,-133.35900000000001
4664.0,7468.2399999999998,-6214.7799999999997,-153.13,1922.5699999999999,-16.186800000000002,-842.50099999999998,-57.9114
4665.0,7129.6700000000001,-6049.1400000000003,-149.11099999999999,1542.28,15.6812,-1028.1500000000001,-56.800699999999999
4666.0,7433.29,-6228.2200000000003,-174.46700000000001,1494.49,98.042900000000003,-1375.5,-63.758499999999998
4667.0,7743.9399999999996,-6306.4300000000003,-207.84299999999999,1329.7,135.905,-1913.0599999999999,-5.36456
4668.0,11555.4,-4675.1400000000003,67.122399999999999,3567.3299999999999,-766.69600000000003,5122.1999999999998,-755.96000000000004
4669.0,11819.9,-5848.1899999999996,8.8109900000000003,3943.98,-629.00699999999995,4622.5299999999997,-726.26300000000003
4670.0,11926.9,-6789.9399999999996,-24.306100000000001,4178.9300000000003,-499.83999999999997,4009.6500000000001,-681.01499999999999
4671.0,12008.299999999999,-7514.9700000000003,-42.493899999999996,4370.7399999999998,-373.245,3379.7199999999998,-637.97199999999998
4672.0,11898.1,-7967.8400000000001,-78.099800000000002,4454.1999999999998,-262.11500000000001,2696.1799999999998,-577.79100000000005
4673.0,11367.4,-8059.8699999999999,-115.69799999999999,4302.0600000000004,-200.87799999999999,1892.4100000000001,-458.37599999999998
4674.0,10499.5,-7858.1800000000003,-146.28,3863.04,-170.90600000000001,1063.4400000000001,-312.05099999999999
4675.0,9608.4899999999998,-7531.1300000000001,-163.48699999999999,3308.54,-109.438,287.48399999999998,-201.16200000000001
4676.0,8783.1000000000004,-7089.6300000000001,-152.87100000000001,2747.77,-28.802600000000002,-383.17000000000002,-124.381
4677.0,7957.3999999999996,-6594.8100000000004,-136.03999999999999,2085.7399999999998,-6.0541299999999998,-878.02999999999997,-41.614199999999997
4678.0,7540.5600000000004,-6361.5699999999997,-141.29900000000001,1663.03,3.8141500000000002,-1106.1400000000001,-78.725899999999996
4679.0,7743.0600000000004,-6405.6499999999996,-187.86500000000001,1639.3800000000001,89.270099999999999,-1477.3199999999999,-86.8626
4680.0,7913.2299999999996,-6361.2799999999997,-221.12899999999999,1428.25,141.20599999999999,-2000.8,10.824299999999999
4681.0,11904.299999999999,-4819.8299999999999,18.450700000000001,3722.8099999999999,-754.33299999999997,5259.29,-810.57500000000005
4682.0,12202.700000000001,-6027.0500000000002,-11.974500000000001,4135.8299999999999,-608.55600000000004,4749.0900000000001,-774.40599999999995
4683.0,12338.4,-6988.6499999999996,-32.262099999999997,4397.0600000000004,-478.08600000000001,4128.4300000000003,-729.46600000000001
4684.0,12393.799999999999,-7724.4700000000003,-65.952399999999997,4593.6000000000004,-344.81799999999998,3454.1599999999999,-684.91899999999998
4685.0,12292.200000000001,-8188.3199999999997,-94.046000000000006,4703.5600000000004,-231.221,2735.2600000000002,-612.71699999999998
4686.0,11881.9,-8397.7000000000007,-112.593,4563.0200000000004,-141.98699999999999,1928.6099999999999,-489.471
4687.0,11244.1,-8368.1299999999992,-126.636,4199.8900000000003,-79.399299999999997,1112.51,-365.06700000000001
4688.0,10445.1,-8073.9899999999998,-141.179,3729.1399999999999,-29.456099999999999,328.83199999999999,-232.43299999999999
4689.0,9445.8500000000004,-7545.8500000000004,-165.73099999999999,3068.3899999999999,28.669,-354.57400000000001,-129.929
4690.0,8471.1700000000001,-6973.2700000000004,-166.80500000000001,2312.1900000000001,65.735200000000006,-893.69899999999996,-41.199300000000001
4691.0,8051.3100000000004,-6726.3400000000001,-180.714,1867.48,81.206400000000002,-1202.99,-71.079800000000006
4692.0,8100.71,-6639.2600000000002,-214.846,1754.3499999999999,127.828,-1607.8599999999999,-71.021699999999996
4693.0,8084.8000000000002,-6476.6800000000003,-242.208,1448.72,138.792,-2084.46,21.328800000000001
4694.0,12262.6,-4935.0600000000004,3.1884399999999999,3901.6799999999998,-750.80799999999999,5403.6300000000001,-865.18100000000004
4695.0,12582.0,-6169.6199999999999,-23.3828,4341.7700000000004,-588.05200000000002,4883.9200000000001,-826.65700000000004
4696.0,12749.299999999999,-7171.1700000000001,-47.934100000000001,4636.5,-443.52300000000002,4243.9700000000003,-789.31700000000001
4697.0,12791.200000000001,-7901.8800000000001,-77.040199999999999,4862.8900000000003,-305.084,3533.4099999999999,-729.03800000000001
4698.0,12673.700000000001,-8391.5100000000002,-108.821,4946.4099999999999,-185.52799999999999,2783.4000000000001,-645.23400000000004
4699.0,12325.799999999999,-8642.8199999999997,-141.137,4839.3800000000001,-75.662499999999994,1965.5999999999999,-544.71400000000006
4700.0,11821.799999999999,-8645.8299999999999,-164.06100000000001,4610.1800000000003,12.6463,1150.45,-430.137
4701.0,11120.4,-8435.2199999999993,-190.93299999999999,4174.7299999999996,62.018799999999999,375.53899999999999,-264.125
4702.0,10070.9,-7934.0900000000001,-206.084,3427.1799999999998,93.011799999999994,-332.54899999999998,-147.50899999999999
4703.0,9025.8199999999997,-7310.79,-206.732,2644.21,91.664199999999994,-927.09699999999998,-66.075699999999998
4704.0,8600.2199999999993,-7021.3299999999999,-227.58500000000001,2232.8099999999999,101.53,-1289.8299999999999,-77.303700000000006
4705.0,8449.9200000000001,-6832.46,-243.733,1932.9000000000001,169.46799999999999,-1714.75,-34.535600000000002
4706.0,8263.3299999999999,-6602.7299999999996,-244.11000000000001,1460.3499999999999,185.001,-2160.1100000000001,46.260399999999997
4707.0,12625.5,-5064.25,-13.9977,4074.5500000000002,-741.14400000000001,5547.6700000000001,-922.80799999999999
4708.0,12957.9,-6281.9899999999998,-29.0792,4572.3000000000002,-562.279,5017.0799999999999,-894.54200000000003
4709.0,13148.299999999999,-7310.3900000000003,-72.413799999999995,4912.3400000000001,-404.91000000000003,4354.6300000000001,-852.67100000000005
4710.0,13176.5,-8038.5900000000001,-94.982200000000006,5151.5699999999997,-267.04599999999999,3620.3600000000001,-770.83500000000004
4711.0,13032.700000000001,-8557.1499999999996,-139.791,5195.6899999999996,-137.76599999999999,2837.25,-686.85900000000004
4712.0,12763.6,-8838.1800000000003,-154.07599999999999,5170.71,-34.661499999999997,1984.53,-600.60900000000004
4713.0,12370.700000000001,-8928.4099999999999,-215.82900000000001,4987.9099999999999,28.891400000000001,1157.05,-479.327
4714.0,11729.1,-8730.4099999999999,-218.953,4602.8999999999996,90.879199999999997,417.09500000000003,-309.91199999999998
4715.0,10702.9,-8281.2800000000007,-242.66800000000001,3838.4899999999998,142.827,-321.52999999999997,-182.328
4716.0,9730.8899999999994,-7711.7600000000002,-199.608,3071.73,110.136,-987.37800000000004,-82.156099999999995
4717.0,9306.5900000000001,-7466.1700000000001,-257.13,2595.8400000000001,123.39400000000001,-1398.3399999999999,-89.497100000000003
4718.0,8825.9699999999993,-6992.1499999999996,-243.38499999999999,2182.1500000000001,234.43899999999999,-1819.72,-11.351699999999999
4719.0,8387.0599999999995,-6659.4099999999999,-300.512,1531.6400000000001,262.44499999999999,-2211.5,84.189400000000006
4720.0,12988.5,-5155.0100000000002,-22.146699999999999,4291.6899999999996,-717.82299999999998,5689.9300000000003,-988.62400000000002
4721.0,13313.9,-6365.3699999999999,-46.270099999999999,4830.5900000000001,-535.97299999999996,5133.0600000000004,-969.61400000000003
4722.0,13530.200000000001,-7396.3500000000004,-94.281700000000001,5218.8800000000001,-376.30399999999997,4464.79,-911.33399999999995
4723.0,13551.9,-8156.8999999999996,-124.571,5434.2399999999998,-234.27500000000001,3716.0500000000002,-814.94100000000003
4724.0,13400.299999999999,-8683.0799999999999,-157.25899999999999,5494.0799999999999,-100.19799999999999,2892.0700000000002,-738.77300000000002
4725.0,13214.200000000001,-9020.2700000000004,-179.47399999999999,5526.2399999999998,12.828099999999999,2016.22,-648.20600000000002
4726.0,12905.299999999999,-9167.3600000000006,-217.78700000000001,5386.9099999999999,78.440899999999999,1167.1300000000001,-508.44999999999999
4727.0,12291.200000000001,-9008.3600000000006,-235.721,4987.8800000000001,136.64599999999999,429.154,-362.91899999999998
4728.0,11327.6,-8559.9599999999991,-254.33799999999999,4306.3599999999997,212.392,-338.46499999999997,-239.774
4729.0,10481.0,-8092.5699999999997,-245.86199999999999,3592.9200000000001,242.446,-1035.29,-99.817099999999996
4730.0,9960.6700000000001,-7742.9899999999998,-296.90800000000002,3090.0100000000002,304.57600000000002,-1503.97,-73.358000000000004
4731.0,9126.2000000000007,-7036.9700000000003,-304.97500000000002,2476.54,328.411,-1930.49,26.1035
4732.0,8500.6900000000005,-6635.5600000000004,-329.58999999999997,1734.02,266.18700000000001,-2234.25,110.819
4733.0,13364.299999999999,-5210.1700000000001,-35.9495,4559.4799999999996,-701.14700000000005,5833.96,-1057.49
4734.0,13656.799999999999,-6438.5500000000002,-83.115300000000005,5095.3699999999999,-523.077,5240.1999999999998,-1031.1500000000001
4735.0,13893.6,-7449.8900000000003,-104.378,5526.9200000000001,-361.80399999999997,4575.4200000000001,-966.56299999999999
4736.0,13926.0,-8257.7600000000002,-158.952,5723.0500000000002,-203.816,3816.9499999999998,-870.86500000000001
4737.0,13794.9,-8783.5499999999993,-164.57400000000001,5847.9200000000001,-61.6252,2951.4400000000001,-795.03300000000002
4738.0,13651.9,-9171.4200000000001,-219.33099999999999,5890.7200000000003,60.082599999999999,2060.96,-695.38
4739.0,13397.299999999999,-9347.4799999999996,-237.88,5790.8599999999997,146.578,1195.6199999999999,-542.82600000000002
4740.0,12809.1,-9249.4300000000003,-284.67500000000001,5364.4399999999996,213.928,412.66500000000002,-409.58499999999998
4741.0,11899.4,-8747.4699999999993,-278.55500000000001,4802.21,277.93799999999999,-411.85599999999999,-311.01900000000001
4742.0,11154.200000000001,-8273.4799999999996,-332.09199999999998,4242.0100000000002,300.26600000000002,-1118.6300000000001,-162.35300000000001
4743.0,10473.700000000001,-7763.7700000000004,-365.98099999999999,3717.0599999999999,325.35700000000003,-1608.0999999999999,-78.996099999999998
4744.0,9404.8099999999995,-7046.0200000000004,-363.36599999999999,2825.6900000000001,283.85700000000003,-2005.0799999999999,52.633000000000003
4745.0,8731.6399999999994,-6761.6000000000004,-367.80900000000003,1940.4000000000001,236.77600000000001,-2241.0,116.184
4746.0,13759.299999999999,-5269.4899999999998,-54.072600000000001,4845.4200000000001,-702.42499999999995,5980.7799999999997,-1120.9200000000001
4747.0,14013.1,-6493.7299999999996,-102.77800000000001,5371.8900000000003,-517.55600000000004,5361.9099999999999,-1081.25
4748.0,14244.6,-7521.3000000000002,-129.428,5797.04,-345.54899999999998,4684.3999999999996,-1024.3900000000001
4749.0,14301.9,-8319.8600000000006,-173.60300000000001,6055.4099999999999,-172.75800000000001,3911.0500000000002,-941.59199999999998
4750.0,14207.299999999999,-8880.2399999999998,-201.18100000000001,6221.04,-20.494399999999999,3019.6399999999999,-852.96600000000001
4751.0,14071.9,-9261.4500000000007,-237.679,6290.9200000000001,107.28400000000001,2110.3000000000002,-743.91499999999996
4752.0,13852.9,-9473.5799999999999,-278.98200000000003,6204.3100000000004,211.49299999999999,1228.3699999999999,-593.59799999999996
4753.0,13305.6,-9372.2399999999998,-300.50200000000001,5841.5900000000001,284.685,379.34199999999998,-455.49299999999999
4754.0,12506.200000000001,-8950.0900000000001,-317.49900000000002,5314.5799999999999,307.30099999999999,-535.26800000000003,-365.23500000000001
4755.0,11919.5,-8533.6200000000008,-360.55700000000002,4870.75,260.31299999999999,-1267.77,-206.352
4756.0,11110.700000000001,-8030.6300000000001,-402.77800000000002,4183.54,251.172,-1735.3299999999999,-86.312100000000001
4757.0,9858.3299999999999,-7276.5299999999997,-370.89400000000001,3126.21,245.77199999999999,-2076.02,53.447099999999999
4758.0,9087.0799999999999,-6952.1800000000003,-386.39299999999997,2202.6199999999999,263.66000000000003,-2274.4400000000001,109.06999999999999
4759.0,14155.5,-5334.0299999999997,-65.282700000000006,5124.0200000000004,-703.72699999999998,6128.4499999999998,-1181.75
4760.0,14387.799999999999,-6558.4799999999996,-128.697,5632.96,-505.02600000000001,5500.54,-1138.8399999999999
4761.0,14593.0,-7566.0100000000002,-140.05000000000001,6089.5,-318.13900000000001,4791.8299999999999,-1088.3399999999999
4762.0,14676.1,-8376.0100000000002,-201.69999999999999,6403.2799999999997,-144.25899999999999,3991.4299999999998,-1015.79
4763.0,14623.4,-8929.4500000000007,-219.17500000000001,6639.5100000000002,12.0207,3092.52,-913.18600000000004
4764.0,14485.6,-9338.8600000000006,-282.714,6694.8999999999996,147.34299999999999,2157.79,-797.72799999999995
4765.0,14283.6,-9523.9699999999993,-300.96899999999999,6666.3299999999999,255.93299999999999,1250.9100000000001,-649.45500000000004
4766.0,13809.4,-9491.6800000000003,-350.62900000000002,6328.7600000000002,339.87799999999999,337.26100000000002,-510.53100000000001
4767.0,13194.200000000001,-9159.7700000000004,-341.52800000000002,5910.54,369.97500000000002,-639.41399999999999,-394.61700000000002
4768.0,12718.700000000001,-8878.8700000000008,-383.94499999999999,5444.1700000000001,332.92899999999997,-1376.53,-189.685
4769.0,11745.700000000001,-8303.0400000000009,-384.70999999999998,4622.6899999999996,349.25400000000002,-1839.8499999999999,-73.164699999999996
4770.0,10357.0,-7481.4799999999996,-391.73500000000001,3486.6199999999999,341.11500000000001,-2168.3800000000001,58.114400000000003
4771.0,9490.5900000000001,-7111.6999999999998,-436.28399999999999,2524.5799999999999,321.63200000000001,-2354.4899999999998,111.386
4772.0,14545.299999999999,-5388.46,-78.272999999999996,5389.2200000000003,-697.84699999999998,6280.1499999999996,-1246.3299999999999
4773.0,14763.200000000001,-6606.3199999999997,-152.45099999999999,5908.3199999999997,-488.29000000000002,5637.71,-1208.8099999999999
4774.0,14948.700000000001,-7591.75,-162.94900000000001,6408.4799999999996,-290.14299999999997,4898.9499999999998,-1158.1900000000001
4775.0,15051.6,-8417.0100000000002,-231.376,6769.1300000000001,-115.68600000000001,4069.2199999999998,-1083.26
4776.0,15038.5,-8973.7099999999991,-244.38900000000001,7056.6700000000001,43.240900000000003,3164.1599999999999,-978.91700000000003
4777.0,14919.799999999999,-9394.1100000000006,-314.58600000000001,7142.4300000000003,181.19399999999999,2203.3600000000001,-853.60699999999997
4778.0,14723.6,-9573.0200000000004,-323.73399999999998,7137.1700000000001,294.17599999999999,1267.27,-703.56100000000004
4779.0,14330.200000000001,-9571.2900000000009,-383.07900000000001,6869.3800000000001,390.666,286.92599999999999,-574.45899999999995
4780.0,13876.799999999999,-9303.2900000000009,-375.65699999999998,6571.9899999999998,426.00200000000001,-702.90599999999995,-424.221
4781.0,13387.200000000001,-9079.8199999999997,-445.85700000000003,6038.6499999999996,433.916,-1410.1400000000001,-186.595
4782.0,12259.6,-8419.7800000000007,-450.64999999999998,5097.3299999999999,458.03500000000003,-1927.9300000000001,-76.816299999999998
4783.0,10840.5,-7578.3299999999999,-452.62200000000001,3946.1399999999999,392.58199999999999,-2278.54,58.524500000000003
4784.0,9942.0799999999999,-7225.3100000000004,-478.18700000000001,2937.1900000000001,352.93400000000003,-2462.8699999999999,118.101
4785.0,14940.700000000001,-5447.54,-112.83,5639.5799999999999,-690.75099999999998,6437.8900000000003,-1318.6199999999999
4786.0,15140.700000000001,-6629.5100000000002,-164.27799999999999,6218.4099999999999,-475.13200000000001,5768.6300000000001,-1281.6300000000001
4787.0,15318.9,-7613.0799999999999,-193.75999999999999,6747.8999999999996,-273.19999999999999,5005.8599999999997,-1229.1800000000001
4788.0,15432.9,-8424.6200000000008,-246.61099999999999,7164.6800000000003,-88.237300000000005,4154.29,-1148.9100000000001
4789.0,15451.1,-9009.8500000000004,-281.48700000000002,7476.4700000000003,77.200500000000005,3232.02,-1048.3499999999999
4790.0,15368.299999999999,-9420.4300000000003,-334.28699999999998,7627.8999999999996,222.53299999999999,2253.7399999999998,-912.62099999999998
4791.0,15181.5,-9625.8999999999996,-369.85599999999999,7619.3500000000004,346.05900000000003,1280.6099999999999,-763.096
4792.0,14874.799999999999,-9621.7600000000002,-401.72699999999998,7461.1300000000001,436.13400000000001,238.61600000000001,-629.64200000000005
4793.0,14539.799999999999,-9470.4899999999998,-441.20499999999998,7182.6800000000003,460.70699999999999,-745.48500000000001,-451.85000000000002
4794.0,13984.9,-9184.6900000000005,-483.88,6643.1000000000004,483.84399999999999,-1439.5999999999999,-222.71000000000001
4795.0,12781.299999999999,-8470.3899999999994,-494.26900000000001,5644.9099999999999,493.69999999999999,-2027.24,-93.794799999999995
4796.0,11409.1,-7698.5600000000004,-487.92000000000002,4473.3599999999997,411.06599999999997,-2399.3499999999999,55.127000000000002
4797.0,10480.299999999999,-7371.2799999999997,-532.14300000000003,3396.1399999999999,383.97899999999998,-2599.96,121.946
4798.0,15345.0,-5468.4499999999998,-122.425,5932.2700000000004,-678.05200000000002,6597.9300000000003,-1400.46
4799.0,15533.0,-6656.8500000000004,-191.00299999999999,6536.6400000000003,-455.52999999999997,5903.7799999999997,-1356.47
4800.0,15701.4,-7619.3000000000002,-211.89599999999999,7112.1899999999996,-250.797,5115.3500000000004,-1301.5
4801.0,15824.4,-8435.8500000000004,-280.47300000000001,7558.4300000000003,-59.605600000000003,4244.6400000000003,-1219.5899999999999
4802.0,15868.200000000001,-9010.2199999999993,-304.88999999999999,7930.9200000000001,112.145,3301.75,-1118.1900000000001
4803.0,15817.1,-9431.8400000000001,-371.49200000000002,8121.9200000000001,264.14999999999998,2303.2199999999998,-979.173
4804.0,15658.200000000001,-9619.9099999999999,-396.23099999999999,8176.9899999999998,393.61200000000002,1291.76,-828.005
4805.0,15432.0,-9671.5599999999995,-442.85199999999998,8059.3500000000004,488.37400000000002,221.60499999999999,-673.69399999999996
4806.0,15175.799999999999,-9570.6299999999992,-465.88999999999999,7822.9399999999996,520.91600000000005,-762.71900000000005,-475.34899999999999
4807.0,14561.4,-9270.8999999999996,-520.65200000000004,7224.8000000000002,541.34299999999996,-1485.8099999999999,-258.19900000000001
4808.0,13342.6,-8524.9899999999998,-520.42700000000002,6219.5200000000004,539.60699999999997,-2134.1999999999998,-110.88200000000001
4809.0,12043.0,-7813.0900000000001,-528.07100000000003,5068.2200000000003,471.839,-2529.8800000000001,48.919600000000003
4810.0,11080.799999999999,-7455.04,-557.726,3972.4499999999998,445.83199999999999,-2756.2399999999998,135.911
4811.0,15748.299999999999,-5480.6300000000001,-158.15299999999999,6231.1700000000001,-660.77800000000002,6754.96,-1488.8099999999999
4812.0,15929.1,-6631.6300000000001,-202.136,6902.2700000000004,-432.911,6041.21,-1437.1600000000001
4813.0,16088.299999999999,-7611.0500000000002,-248.19300000000001,7485.3400000000001,-223.197,5229.0699999999997,-1377.8199999999999
4814.0,16221.700000000001,-8402.4200000000001,-295.70400000000001,7994.71,-28.181799999999999,4337.9099999999999,-1294.9100000000001
4815.0,16290.4,-8998.25,-344.726,8394.1700000000001,150.678,3374.8699999999999,-1192.6300000000001
4816.0,16276.299999999999,-9403.3799999999992,-396.303,8661.1700000000001,308.63499999999999,2350.5999999999999,-1050.1900000000001
4817.0,16152.0,-9610.6100000000006,-442.09800000000001,8748.8799999999992,437.06400000000002,1306.9100000000001,-891.67499999999995
4818.0,15974.1,-9655.6000000000004,-473.10199999999998,8695.0100000000002,540.29700000000003,233.81999999999999,-723.93600000000004
4819.0,15769.5,-9623.0699999999997,-528.62800000000004,8456.9699999999993,590.41999999999996,-751.73400000000004,-505.31
4820.0,15106.5,-9273.3999999999996,-551.37699999999995,7844.6899999999996,618.63099999999997,-1528.8299999999999,-288.24599999999998
4821.0,13905.0,-8521.0699999999997,-569.08600000000001,6840.5799999999999,616.41899999999998,-2243.4899999999998,-131.23500000000001
4822.0,12682.299999999999,-7826.8500000000004,-583.51300000000003,5751.8000000000002,545.10599999999999,-2674.1300000000001,38.616700000000002
4823.0,11694.799999999999,-7480.0100000000002,-619.548,4628.8299999999999,516.505,-2903.0,150.11799999999999
4824.0,16152.0,-5430.5500000000002,-165.50299999999999,6591.7200000000003,-654.26800000000003,6908.8500000000004,-1575.74
4825.0,16327.0,-6608.46,-243.19499999999999,7262.6400000000003,-420.51600000000002,6177.2399999999998,-1520.5
4826.0,16485.299999999999,-7558.1499999999996,-266.04300000000001,7905.9799999999996,-203.934,5345.2700000000004,-1458.0
4827.0,16624.299999999999,-8367.2800000000007,-340.411,8429.75,0.0056858100000000003,4432.9899999999998,-1374.8099999999999
4828.0,16715.200000000001,-8930.1399999999994,-367.55599999999998,8909.8400000000001,186.089,3445.0900000000001,-1273.1300000000001
4829.0,16740.299999999999,-9350.0799999999999,-444.70800000000003,9219.6100000000006,350.71800000000002,2401.6300000000001,-1125.03
4830.0,16645.400000000001,-9539.1200000000008,-469.78500000000003,9370.3099999999995,482.44799999999998,1330.9300000000001,-954.67600000000004
4831.0,16502.0,-9618.2700000000004,-530.12,9324.2700000000004,584.03999999999996,257.041,-781.38499999999999
4832.0,16315.700000000001,-9554.5200000000004,-554.65099999999995,9147.4899999999998,652.79499999999996,-724.101,-548.34500000000003
4833.0,15634.4,-9224.1200000000008,-621.05100000000004,8483.6299999999992,688.02099999999996,-1576.3900000000001,-327.35199999999998
4834.0,14487.200000000001,-8434.5,-609.29399999999998,7549.9499999999998,661.399,-2368.9899999999998,-157.21600000000001
4835.0,13330.1,-7786.9099999999999,-651.71600000000001,6474.7200000000003,574.77300000000002,-2837.4400000000001,22.331700000000001
4836.0,12299.700000000001,-7391.4700000000003,-658.01999999999998,5380.3199999999997,564.77700000000004,-3044.4699999999998,139.68000000000001
4837.0,16566.599999999999,-5391.1499999999996,-191.31800000000001,6949.0699999999997,-653.27999999999997,7064.5299999999997,-1662.97
4838.0,16737.099999999999,-6557.9099999999999,-265.81400000000002,7658.1099999999997,-410.93099999999998,6314.8900000000003,-1607.6199999999999
4839.0,16896.700000000001,-7501.3599999999997,-291.64999999999998,8341.6700000000001,-186.86000000000001,5461.8800000000001,-1542.74
4840.0,17040.799999999999,-8298.6800000000003,-369.79899999999998,8908.0599999999995,23.088799999999999,4527.3199999999997,-1459.26
4841.0,17153.900000000001,-8852.1599999999999,-399.89999999999998,9446.0300000000007,210.97999999999999,3512.9299999999998,-1353.6400000000001
4842.0,17210.400000000001,-9267.0300000000007,-485.21300000000002,9805.1599999999999,376.34500000000003,2453.6500000000001,-1201.8299999999999
4843.0,17144.0,-9446.5699999999997,-506.40600000000001,10006.9,513.12,1359.5799999999999,-1021.89
4844.0,17022.0,-9531.3999999999996,-577.75099999999998,9982.1399999999994,621.52499999999998,284.47000000000003,-840.34299999999996
4845.0,16815.299999999999,-9434.0200000000004,-603.41399999999999,9821.1299999999992,703.42899999999997,-699.93200000000002,-603.87599999999998
4846.0,16174.700000000001,-9092.4200000000001,-663.16899999999998,9204.3400000000001,739.10299999999995,-1629.8,-373.23200000000003
4847.0,15135.299999999999,-8366.7900000000009,-661.04300000000001,8300.8299999999999,692.822,-2502.9099999999999,-175.33199999999999
4848.0,14034.0,-7747.8199999999997,-698.51099999999997,7233.0799999999999,597.87699999999995,-3020.2800000000002,12.250400000000001
4849.0,12918.700000000001,-7282.3500000000004,-715.56100000000004,6112.0100000000002,586.41999999999996,-3227.4099999999999,114.41200000000001
4850.0,16993.5,-5333.5600000000004,-206.18600000000001,7334.3199999999997,-651.65800000000002,7221.4099999999999,-1755.52
4851.0,17158.299999999999,-6495.96,-292.077,8074.2200000000003,-399.42399999999998,6451.4200000000001,-1700.76
4852.0,17320.799999999999,-7427.5600000000004,-318.548,8803.4799999999996,-168.52199999999999,5577.7399999999998,-1632.1099999999999
4853.0,17473.900000000001,-8220.2900000000009,-405.71699999999998,9409.5400000000009,44.353499999999997,4620.5100000000002,-1546.5699999999999
4854.0,17611.599999999999,-8762.9699999999993,-433.24700000000001,10003.299999999999,236.02199999999999,3586.6300000000001,-1434.3299999999999
4855.0,17694.0,-9174.0400000000009,-521.55100000000004,10404.799999999999,406.48399999999998,2508.3699999999999,-1279.99
4856.0,17659.299999999999,-9348.4400000000005,-545.673,10656.1,547.19399999999996,1390.78,-1091.75
4857.0,17536.799999999999,-9409.3600000000006,-624.16899999999998,10656.4,656.28999999999996,308.46699999999998,-899.83299999999997
4858.0,17289.200000000001,-9244.6800000000003,-639.80200000000002,10516.5,745.63699999999994,-686.72900000000004,-665.23000000000002
4859.0,16727.700000000001,-8931.4599999999991,-714.50800000000004,9953.5799999999999,791.67200000000003,-1674.5799999999999,-422.83499999999998
4860.0,15842.0,-8273.5900000000001,-702.15800000000002,9132.6700000000001,743.25699999999995,-2626.1900000000001,-189.92099999999999
4861.0,14795.799999999999,-7689.1499999999996,-748.64200000000005,8057.8699999999999,649.702,-3204.3099999999999,13.0733
4862.0,13598.4,-7144.5,-754.61199999999997,6880.6800000000003,608.19899999999996,-3456.98,111.19199999999999
4863.0,17433.200000000001,-5286.3299999999999,-240.37899999999999,7726.1099999999997,-648.68700000000001,7375.8199999999997,-1854.75
4864.0,17588.700000000001,-6406.8900000000003,-308.37900000000002,8528.1499999999996,-389.87,6584.0200000000004,-1797.5799999999999
4865.0,17758.0,-7347.9300000000003,-358.178,9280.6800000000003,-153.67699999999999,5692.5100000000002,-1724.78
4866.0,17925.200000000001,-8113.6999999999998,-426.82999999999998,9952.1000000000004,61.622700000000002,4714.8000000000002,-1635.0899999999999
4867.0,18082.299999999999,-8662.9799999999996,-475.18000000000001,10573.4,259.23700000000002,3663.7199999999998,-1519.26
4868.0,18185.0,-9044.0200000000004,-553.89700000000005,11036.6,439.10000000000002,2563.3299999999999,-1363.4000000000001
4869.0,18177.900000000001,-9210.6000000000004,-588.41899999999998,11332.1,587.60599999999999,1427.46,-1164.29
4870.0,18049.700000000001,-9246.6100000000006,-669.726,11354.700000000001,693.00400000000002,326.70999999999998,-957.31600000000003
4871.0,17753.299999999999,-9027.5100000000002,-695.04300000000001,11210.1,775.495,-688.173,-728.65899999999999
4872.0,17261.900000000001,-8676.3199999999997,-756.30399999999997,10753.700000000001,845.41600000000005,-1707.76,-487.267
4873.0,16570.299999999999,-8124.3999999999996,-771.23299999999995,10028.5,814.649,-2728.6799999999998,-210.73599999999999
4874.0,15601.799999999999,-7568.7299999999996,-799.13699999999994,8981.6200000000008,710.60900000000004,-3376.29,15.936299999999999
4875.0,14364.700000000001,-7016.6199999999999,-808.61599999999999,7722.7600000000002,638.73000000000002,-3687.0300000000002,132.68299999999999
4876.0,17883.200000000001,-5218.4799999999996,-262.27499999999998,8158.2600000000002,-646.86900000000003,7524.7700000000004,-1956.49
4877.0,18032.799999999999,-6316.1400000000003,-332.18799999999999,8998.8099999999995,-385.00900000000001,6714.1999999999998,-1896.0799999999999
4878.0,18209.799999999999,-7249.4700000000003,-389.93400000000003,9788.1700000000001,-142.18000000000001,5806.2700000000004,-1819.77
4879.0,18394.599999999999,-8004.6099999999997,-458.11799999999999,10506.9,80.013400000000004,4811.8900000000003,-1727.3900000000001
4880.0,18569.799999999999,-8547.3799999999992,-517.27599999999995,11168.200000000001,284.14499999999998,3739.8499999999999,-1609.0599999999999
4881.0,18683.599999999999,-8885.6399999999994,-586.596,11695.200000000001,467.661,2612.4000000000001,-1449.23
4882.0,18690.299999999999,-9039.2900000000009,-647.40499999999997,12017.5,619.72900000000004,1465.5699999999999,-1241.6199999999999
4883.0,18567.599999999999,-9031.8400000000001,-705.24099999999999,12093.4,726.37599999999998,347.90600000000001,-1016.6900000000001
4884.0,18240.900000000001,-8793.4500000000007,-744.09500000000003,11930.299999999999,798.39400000000001,-707.82100000000003,-787.91399999999999
4885.0,17785.299999999999,-8370.8500000000004,-801.32100000000003,11563.9,869.36699999999996,-1760.22,-565.71799999999996
4886.0,17270.099999999999,-7850.1300000000001,-833.67999999999995,10992.5,862.83399999999995,-2814.5500000000002,-252.12200000000001
4887.0,16422.599999999999,-7378.4799999999996,-867.20799999999997,9980.7800000000007,765.12099999999998,-3522.98,10.779299999999999
4888.0,15206.700000000001,-6869.4899999999998,-862.72699999999998,8682.5,675.13300000000004,-3884.8600000000001,155.03399999999999
4889.0,18344.900000000001,-5141.1999999999998,-284.96199999999999,8614.1000000000004,-642.17600000000004,7672.0200000000004,-2059.5700000000002
4890.0,18492.700000000001,-6225.0299999999997,-361.529,9484.7299999999996,-379.00799999999998,6843.8299999999999,-1997.5599999999999
4891.0,18676.700000000001,-7133.0600000000004,-415.12799999999999,10324.1,-130.86699999999999,5919.6300000000001,-1917.8499999999999
4892.0,18878.5,-7884.6199999999999,-497.29599999999999,11080.1,97.369200000000006,4906.9799999999996,-1825.7
4893.0,19072.599999999999,-8384.7399999999998,-542.25699999999995,11816.0,310.125,3813.0100000000002,-1703.78
4894.0,19190.299999999999,-8722.0799999999999,-643.721,12357.0,492.517,2657.7199999999998,-1532.47
4895.0,19199.599999999999,-8805.0300000000007,-669.52800000000002,12749.4,638.56100000000004,1499.1700000000001,-1321.0899999999999
4896.0,19088.900000000001,-8813.7399999999998,-773.89099999999996,12820.0,754.952,369.28500000000003,-1086.53
4897.0,18772.799999999999,-8518.0100000000002,-779.29600000000005,12719.4,833.12699999999995,-735.66700000000003,-846.21799999999996
4898.0,18341.900000000001,-8082.2399999999998,-868.32399999999996,12370.200000000001,883.86099999999999,-1834.3199999999999,-628.53899999999999
4899.0,17940.0,-7528.0600000000004,-876.03899999999999,11949.1,863.57899999999995,-2902.6999999999998,-306.65199999999999
4900.0,17226.599999999999,-7143.6599999999999,-936.13699999999994,10990.5,773.024,-3658.3499999999999,-17.6387
4901.0,16097.700000000001,-6706.9200000000001,-909.60400000000004,9725.3899999999994,691.40300000000002,-4052.4000000000001,152.59
4902.0,18819.200000000001,-5059.5799999999999,-322.44200000000001,9082.8999999999996,-639.78599999999994,7819.1899999999996,-2164.7800000000002
4903.0,18966.200000000001,-6105.5900000000001,-377.18000000000001,10009.200000000001,-374.04899999999998,6972.8100000000004,-2101.5799999999999
4904.0,19160.700000000001,-7023.75,-457.81,10865.700000000001,-121.42700000000001,6032.2200000000003,-2020.0999999999999
4905.0,19381.299999999999,-7730.7799999999997,-517.68299999999999,11702.799999999999,113.084,4997.7700000000004,-1927.6099999999999
4906.0,19585.799999999999,-8233.3199999999997,-602.21600000000001,12455.6,327.09699999999998,3881.0100000000002,-1799.0999999999999
4907.0,19711.599999999999,-8501.6399999999994,-661.42999999999995,13079.200000000001,508.47199999999998,2704.7199999999998,-1614.8
4908.0,19716.5,-8611.3400000000001,-744.73699999999997,13437.6,654.03499999999997,1526.77,-1399.7
4909.0,19613.200000000001,-8508.8299999999999,-786.58199999999999,13617.799999999999,776.51999999999998,377.834,-1167.1900000000001
4910.0,19338.0,-8239.0499999999993,-852.02599999999995,13525.5,856.96199999999999,-769.71500000000003,-910.76199999999994
4911.0,18952.0,-7752.9300000000003,-887.57399999999996,13265.200000000001,884.78499999999997,-1902.49,-677.15099999999995
4912.0,18629.099999999999,-7279.0699999999997,-941.25999999999999,12848.700000000001,859.29200000000003,-2984.7600000000002,-352.82299999999998
4913.0,18015.700000000001,-6902.8199999999997,-955.76800000000003,11976.6,767.81399999999996,-3797.73,-42.5503
4914.0,17005.400000000001,-6606.5900000000001,-975.47299999999996,10726.0,701.10000000000002,-4208.6000000000004,124.843
4915.0,19312.599999999999,-4956.3199999999997,-341.13799999999998,9590.8600000000006,-645.45699999999999,7968.1099999999997,-2271.0700000000002
4916.0,19459.299999999999,-5999.9099999999999,-410.97899999999998,10536.9,-372.548,7102.4300000000003,-2208.4899999999998
4917.0,19665.200000000001,-6883.3299999999999,-480.56700000000001,11455.0,-111.47199999999999,6143.54,-2127.6799999999998
4918.0,19903.200000000001,-7584.7399999999998,-563.66600000000005,12330.5,126.70699999999999,5087.1300000000001,-2030.0899999999999
4919.0,20111.5,-8031.46,-621.21299999999997,13150.6,339.08199999999999,3948.1599999999999,-1891.77
4920.0,20250.5,-8321.7000000000007,-725.98400000000004,13766.1,523.25199999999995,2755.77,-1701.48
4921.0,20257.299999999999,-8344.5100000000002,-753.21799999999996,14214.799999999999,668.06700000000001,1546.6600000000001,-1477.4200000000001
4922.0,20150.700000000001,-8254.5100000000002,-868.45299999999997,14364.299999999999,787.18299999999999,370.17099999999999,-1249.0799999999999
4923.0,19922.299999999999,-7897.4200000000001,-873.39499999999998,14399.0,864.45000000000005,-804.04600000000005,-976.39700000000005
4924.0,19615.400000000001,-7520.4499999999998,-968.23199999999997,14116.9,887.827,-1956.3399999999999,-726.65200000000004
4925.0,19359.799999999999,-6995.5600000000004,-955.38599999999997,13822.1,880.08600000000001,-3049.0300000000002,-397.89400000000001
4926.0,18793.599999999999,-6698.2799999999997,-1019.1,12907.200000000001,790.81799999999998,-3917.3099999999999,-43.312600000000003
4927.0,17875.700000000001,-6444.3699999999999,-997.36900000000003,11733.799999999999,742.83199999999999,-4349.6499999999996,91.799800000000005
4928.0,19829.299999999999,-4858.9799999999996,-360.98500000000001,10115.4,-647.37,8119.7700000000004,-2383.54
4929.0,19974.200000000001,-5886.9099999999999,-443.35599999999999,11092.6,-367.71699999999998,7231.8500000000004,-2320.6700000000001
4930.0,20190.700000000001,-6731.1599999999999,-505.96300000000002,12072.5,-105.206,6253.96,-2237.6700000000001
4931.0,20440.799999999999,-7417.8900000000003,-602.91999999999996,12985.9,136.58799999999999,5177.8599999999997,-2131.5300000000002
4932.0,20653.400000000001,-7842.3999999999996,-660.43899999999996,13839.200000000001,349.36000000000001,4017.4899999999998,-1984.9100000000001
4933.0,20803.400000000001,-8095.0500000000002,-759.58399999999995,14501.0,537.63900000000001,2806.1900000000001,-1793.78
4934.0,20830.099999999999,-8117.1999999999998,-810.34000000000003,14974.6,683.34699999999998,1565.0799999999999,-1554.9100000000001
4935.0,20721.299999999999,-7967.0799999999999,-896.58000000000004,15174.5,784.37,355.89499999999998,-1322.49
4936.0,20522.799999999999,-7592.6099999999997,-912.49000000000001,15244.200000000001,858.49599999999998,-836.23699999999997,-1046.03
4937.0,20305.099999999999,-7231.0699999999997,-1005.36,15036.200000000001,903.31899999999996,-2002.9300000000001,-785.88499999999999
4938.0,20109.0,-6717.5100000000002,-1018.26,14787.299999999999,904.99400000000003,-3104.9000000000001,-453.04899999999998
4939.0,19578.599999999999,-6429.4700000000003,-1061.95,13899.799999999999,809.97299999999996,-4015.6300000000001,-44.9756
4940.0,18693.900000000001,-6246.8199999999997,-1063.1700000000001,12686.200000000001,778.96299999999997,-4488.6999999999998,55.080500000000001
4941.0,20362.799999999999,-4751.6099999999997,-386.678,10666.200000000001,-645.28300000000002,8269.1599999999999,-2503.0
4942.0,20510.400000000001,-5749.2399999999998,-467.59300000000002,11689.5,-364.70699999999999,7361.75,-2435.1900000000001
4943.0,20736.5,-6577.2399999999998,-541.57100000000003,12703.6,-100.068,6367.3100000000004,-2347.7199999999998
4944.0,20993.799999999999,-7233.71,-637.46199999999999,13662.1,144.03100000000001,5272.3299999999999,-2233.8699999999999
4945.0,21214.700000000001,-7635.8800000000001,-694.21299999999997,14553.6,359.68900000000002,4088.7600000000002,-2080.8499999999999
4946.0,21374.799999999999,-7874.0,-809.54200000000003,15240.0,546.67600000000004,2853.3400000000001,-1887.45
4947.0,21427.900000000001,-7845.9799999999996,-830.84699999999998,15791.4,691.40700000000004,1590.6300000000001,-1634.4100000000001
4948.0,21336.900000000001,-7740.0200000000004,-957.90800000000002,15966.9,789.60400000000004,348.24099999999999,-1389.8599999999999
4949.0,21162.599999999999,-7318.75,-946.76800000000003,16095.5,855.31200000000001,-874.23000000000002,-1115.3800000000001
4950.0,21005.5,-6956.25,-1066.29,15935.5,898.05399999999997,-2060.9200000000001,-852.43499999999995
4951.0,20864.0,-6401.5699999999997,-1051.28,15777.1,896.68499999999995,-3174.1199999999999,-519.99699999999996
4952.0,20396.0,-6171.5500000000002,-1119.29,14901.200000000001,813.47299999999996,-4118.0100000000002,-68.520499999999998
4953.0,19513.200000000001,-5984.1899999999996,-1102.71,13651.5,780.49000000000001,-4668.8699999999999,28.030799999999999
4954.0,20911.700000000001,-4625.4300000000003,-413.90899999999999,11247.4,-646.31500000000005,8417.1200000000008,-2624.8699999999999
4955.0,21068.0,-5604.0,-500.59800000000001,12304.5,-363.28500000000003,7495.9399999999996,-2551.4899999999998
4956.0,21299.5,-6399.6800000000003,-570.72299999999996,13362.5,-98.437899999999999,6485.4300000000003,-2458.23
4957.0,21566.299999999999,-7040.8500000000004,-672.46699999999998,14354.299999999999,147.84,5371.8100000000004,-2339.25
4958.0,21800.200000000001,-7425.1300000000001,-732.75,15287.0,366.41899999999998,4162.0799999999999,-2179.1700000000001
4959.0,21968.299999999999,-7629.3999999999996,-840.06700000000001,16016.6,550.34400000000005,2902.1199999999999,-1978.3199999999999
4960.0,22045.200000000001,-7613.8199999999997,-887.19399999999996,16578.0,696.02599999999995,1624.8499999999999,-1718.0
4961.0,21992.299999999999,-7480.2399999999998,-979.30700000000002,16824.799999999999,796.13699999999994,347.447,-1461.46
4962.0,21865.799999999999,-7088.5200000000004,-986.82500000000005,16970.400000000001,852.23699999999997,-910.83500000000004,-1180.96
4963.0,21745.299999999999,-6701.04,-1087.4100000000001,16861.599999999999,883.12800000000004,-2129.1500000000001,-909.50699999999995
4964.0,21645.400000000001,-6168.2399999999998,-1095.8199999999999,16710.599999999999,874.38999999999999,-3270.54,-582.72000000000003
4965.0,21255.5,-5926.6800000000003,-1154.27,15915.9,806.66499999999996,-4249.4700000000003,-110.67700000000001
4966.0,20394.200000000001,-5768.5200000000004,-1141.26,14605.6,751.27099999999996,-4898.5699999999997,30.167400000000001
4967.0,21477.599999999999,-4483.0699999999997,-443.00799999999998,11851.6,-652.274,8567.5699999999997,-2747.7800000000002
4968.0,21644.099999999999,-5434.9399999999996,-526.298,12948.9,-368.63999999999999,7635.1899999999996,-2667.8699999999999
4969.0,21883.799999999999,-6221.96,-605.70100000000002,14031.5,-102.02,6609.3800000000001,-2570.5
4970.0,22162.799999999999,-6835.04,-704.21799999999996,15070.700000000001,150.995,5476.3599999999997,-2449.6900000000001
4971.0,22411.299999999999,-7203.6499999999996,-769.71900000000005,16045.6,372.74099999999999,4240.6599999999999,-2277.4699999999998
4972.0,22587.200000000001,-7402.9200000000001,-881.33199999999999,16794.299999999999,548.41399999999999,2957.0700000000002,-2066.7600000000002
4973.0,22683.799999999999,-7355.1599999999999,-908.721,17405.400000000001,694.19000000000005,1662.54,-1806.5799999999999
4974.0,22685.299999999999,-7265.0100000000002,-1031.3499999999999,17671.200000000001,801.44899999999996,353.27100000000002,-1537.5599999999999
4975.0,22629.400000000001,-6889.3800000000001,-1022.66,17879.0,859.85000000000002,-934.745,-1247.52
4976.0,22554.200000000001,-6518.71,-1127.5799999999999,17795.700000000001,888.84100000000001,-2190.0,-959.32100000000003
4977.0,22487.5,-5973.2299999999996,-1109.47,17678.900000000001,872.76900000000001,-3375.52,-626.529
4978.0,22166.5,-5758.6000000000004,-1198.4000000000001,16911.200000000001,806.29499999999996,-4396.8900000000003,-149.22
4979.0,21354.700000000001,-5618.4300000000003,-1146.3900000000001,15598.4,731.24300000000005,-5136.0500000000002,61.2346
4980.0,22064.0,-4332.4499999999998,-475.70600000000002,12469.4,-664.45100000000002,8725.7900000000009,-2869.4000000000001
4981.0,22242.5,-5260.4200000000001,-550.39400000000001,13607.0,-377.99900000000002,7782.8100000000004,-2786.1799999999998
4982.0,22494.200000000001,-6037.1800000000003,-639.38800000000003,14721.6,-104.629,6739.79,-2687.5300000000002
4983.0,22783.0,-6611.7200000000003,-730.35299999999995,15817.0,149.68100000000001,5584.8599999999997,-2562.3400000000001
4984.0,23045.900000000001,-6978.3500000000004,-810.428,16818.599999999999,371.053,4328.5600000000004,-2375.6999999999998
4985.0,23238.799999999999,-7175.0100000000002,-906.36000000000001,17600.900000000001,545.00999999999999,3021.3899999999999,-2154.9299999999998
4986.0,23356.299999999999,-7154.8199999999997,-961.88999999999999,18209.5,687.74900000000002,1701.3499999999999,-1896.45
4987.0,23409.5,-7025.1599999999999,-1044.6600000000001,18570.299999999999,800.26300000000003,364.44400000000002,-1619.03
4988.0,23428.799999999999,-6703.9899999999998,-1070.1900000000001,18803.799999999999,869.03300000000002,-950.73199999999997,-1323.27
4989.0,23424.799999999999,-6323.8900000000003,-1149.03,18802.299999999999,903.54700000000003,-2241.8000000000002,-1018.65
4990.0,23402.5,-5842.4799999999996,-1164.72,18666.700000000001,885.63599999999997,-3467.6300000000001,-663.02999999999997
4991.0,23125.700000000001,-5612.2200000000003,-1218.3800000000001,17959.200000000001,823.77599999999995,-4520.9099999999999,-181.22200000000001
4992.0,22383.599999999999,-5570.4200000000001,-1186.03,16609.599999999999,744.62099999999998,-5335.4200000000001,100.52500000000001
4993.0,22678.200000000001,-4169.1199999999999,-502.07900000000001,13106.4,-679.08100000000002,8897.6599999999999,-2992.98
4994.0,22866.700000000001,-5079.5600000000004,-575.00900000000001,14282.700000000001,-387.21199999999999,7938.4399999999996,-2910.2199999999998
4995.0,23130.299999999999,-5836.1099999999997,-670.29700000000003,15441.6,-110.17700000000001,6875.3599999999997,-2807.9200000000001
4996.0,23427.299999999999,-6390.54,-762.72400000000005,16575.299999999999,142.126,5700.3100000000004,-2673.5599999999999
4997.0,23708.0,-6757.9099999999999,-844.65499999999997,17605.099999999999,363.55799999999999,4428.1400000000003,-2475.8899999999999
4998.0,23929.0,-6973.0500000000002,-937.71600000000001,18416.200000000001,541.07799999999997,3097.3800000000001,-2245.8800000000001
4999.0,24075.299999999999,-6957.1700000000001,-980.80100000000004,19063.099999999999,683.17700000000002,1745.1600000000001,-1984.9400000000001
5000.0,24174.0,-6851.2700000000004,-1081.6800000000001,19451.700000000001,793.83600000000001,377.02699999999999,-1702.02
5001.0,24260.799999999999,-6530.3699999999999,-1098.3800000000001,19753.400000000001,866.36599999999999,-972.98400000000004,-1405.4000000000001
5002.0,24341.200000000001,-6168.6199999999999,-1184.73,19817.799999999999,905.78499999999997,-2298.6399999999999,-1089.8499999999999
5003.0,24369.400000000001,-5696.4499999999998,-1182.48,19730.099999999999,893.84900000000005,-3552.4699999999998,-707.16399999999999
5004.0,24110.400000000001,-5494.1800000000003,-1259.45,19019.900000000001,845.36000000000001,-4617.3199999999997,-222.542
5005.0,23456.799999999999,-5500.2399999999998,-1201.3800000000001,17735.200000000001,788.07899999999995,-5472.1499999999996,122.70399999999999
5006.0,23327.200000000001,-4001.4200000000001,-529.35799999999995,13764.0,-696.28700000000003,9082.6900000000005,-3121.5599999999999
5007.0,23520.599999999999,-4889.1899999999996,-599.17999999999995,14985.1,-401.41699999999997,8102.0699999999997,-3037.2399999999998
5008.0,23793.200000000001,-5635.8199999999997,-703.774,16178.5,-123.56399999999999,7018.0900000000001,-2927.52
5009.0,24098.400000000001,-6168.2299999999996,-784.52999999999997,17353.799999999999,128.11199999999999,5824.9099999999999,-2784.3099999999999
5010.0,24400.400000000001,-6548.8999999999996,-876.28800000000001,18402.5,353.67200000000003,4539.6899999999996,-2579.8499999999999
5011.0,24659.700000000001,-6781.9399999999996,-963.197,19256.0,538.54399999999998,3186.6100000000001,-2341.4099999999999
5012.0,24846.0,-6814.6499999999996,-1026.4100000000001,19916.299999999999,681.63199999999995,1799.1099999999999,-2073.2199999999998
5013.0,24993.799999999999,-6698.3400000000001,-1096.8299999999999,20376.799999999999,792.31899999999996,396.60399999999998,-1784.71
5014.0,25142.700000000001,-6410.5100000000002,-1132.72,20711.200000000001,867.47400000000005,-998.02700000000004,-1484.3199999999999
5015.0,25298.700000000001,-6035.9399999999996,-1205.1400000000001,20859.599999999999,910.303,-2360.27,-1161.6500000000001
5016.0,25364.099999999999,-5580.4700000000003,-1226.9400000000001,20787.700000000001,909.24000000000001,-3637.7600000000002,-756.572
5017.0,25096.400000000001,-5337.5600000000004,-1284.4400000000001,20111.5,861.38,-4706.5,-269.05200000000002
5018.0,24519.299999999999,-5391.0100000000002,-1243.8699999999999,18906.5,843.50300000000004,-5544.5799999999999,105.38500000000001
5019.0,24015.400000000001,-3823.1999999999998,-549.55499999999995,14454.5,-716.15800000000002,9282.6200000000008,-3252.8800000000001
5020.0,24211.0,-4706.8400000000001,-625.89499999999998,15703.9,-420.77100000000002,8279.2900000000009,-3164.5900000000001
5021.0,24487.900000000001,-5432.0900000000001,-722.726,16941.700000000001,-139.291,7172.8999999999996,-3046.79
5022.0,24800.299999999999,-5972.6099999999997,-817.673,18130.700000000001,112.937,5960.4300000000003,-2894.8699999999999
5023.0,25126.0,-6350.8999999999996,-900.57100000000003,19217.0,339.61399999999998,4662.9399999999996,-2687.79
5024.0,25431.599999999999,-6612.75,-989.74400000000003,20111.599999999999,533.50400000000002,3290.4400000000001,-2442.4099999999999
5025.0,25672.299999999999,-6673.3800000000001,-1035.03,20830.299999999999,681.73299999999995,1868.1400000000001,-2163.3099999999999
5026.0,25880.700000000001,-6607.6800000000003,-1124.5,21319.200000000001,795.06799999999998,428.47500000000002,-1871.8399999999999
5027.0,26093.0,-6312.0,-1141.97,21730.5,875.81299999999999,-1015.64,-1561.72
5028.0,26306.0,-5944.6000000000004,-1229.1800000000001,21920.599999999999,921.995,-2421.6799999999998,-1231.9000000000001
5029.0,26385.0,-5417.54,-1231.9100000000001,21908.099999999999,925.95600000000002,-3732.6100000000001,-809.12800000000004
5030.0,26075.299999999999,-5153.9700000000003,-1312.1500000000001,21204.200000000001,864.92899999999997,-4800.9899999999998,-305.36599999999999
5031.0,25509.799999999999,-5152.0699999999997,-1263.78,20114.700000000001,893.18299999999999,-5569.8299999999999,43.244199999999999
5032.0,24748.799999999999,-3645.5300000000002,-574.61699999999996,15164.299999999999,-736.495,9503.7800000000007,-3387.9200000000001
5033.0,24940.400000000001,-4513.8699999999999,-641.99400000000003,16455.099999999999,-436.60700000000003,8472.9899999999998,-3295.3899999999999
5034.0,25216.599999999999,-5246.3000000000002,-757.625,17706.599999999999,-153.28,7343.04,-3167.1199999999999
5035.0,25541.200000000001,-5774.8299999999999,-827.721,18942.299999999999,95.769900000000007,6112.5299999999997,-3005.6500000000001
5036.0,25893.400000000001,-6188.0900000000001,-928.49800000000005,20038.599999999999,323.82999999999998,4799.2200000000003,-2798.3499999999999
5037.0,26242.400000000001,-6451.4799999999996,-1007.77,20993.700000000001,529.60199999999998,3408.7399999999998,-2548.9899999999998
5038.0,26551.0,-6578.8500000000004,-1080.9100000000001,21743.799999999999,693.60400000000004,1958.6099999999999,-2259.7199999999998
5039.0,26837.0,-6519.7700000000004,-1139.1300000000001,22328.599999999999,817.43499999999995,477.67700000000002,-1964.45
5040.0,27117.299999999999,-6255.8400000000001,-1183.1700000000001,22783.5,904.86800000000005,-1018.38,-1640.3
5041.0,27373.799999999999,-5837.5299999999997,-1245.5,23054.099999999999,958.39400000000001,-2473.5300000000002,-1300.3099999999999
5042.0,27451.400000000001,-5264.2600000000002,-1287.3900000000001,23044.599999999999,960.31500000000005,-3829.3499999999999,-855.62699999999995
5043.0,27055.5,-4881.6599999999999,-1313.1199999999999,22358.900000000001,875.08900000000006,-4892.8900000000003,-320.221
5044.0,26400.299999999999,-4782.1099999999997,-1313.21,21286.900000000001,943.32000000000005,-5570.8299999999999,-47.510300000000001
5045.0,25530.5,-3446.77,-598.01900000000001,15911.799999999999,-754.84799999999996,9746.2900000000009,-3531.0700000000002
5046.0,25709.299999999999,-4317.04,-665.27999999999997,17229.0,-454.85599999999999,8683.6599999999999,-3427.6199999999999
5047.0,25984.400000000001,-5047.6800000000003,-773.21000000000004,18508.099999999999,-173.952,7532.1400000000003,-3288.4000000000001
5048.0,26329.400000000001,-5612.5,-857.90499999999997,19753.299999999999,81.960599999999999,6286.46,-3121.5500000000002
5049.0,26710.400000000001,-6034.9200000000001,-946.01800000000003,20895.599999999999,316.38999999999999,4953.6000000000004,-2911.23
5050.0,27095.799999999999,-6306.8800000000001,-1022.9299999999999,21900.0,524.07000000000005,3541.8899999999999,-2659.5300000000002
5051.0,27477.400000000001,-6438.8299999999999,-1080.9200000000001,22741.299999999999,702.76199999999994,2068.46,-2369.5799999999999
5052.0,27856.900000000001,-6416.9200000000001,-1159.75,23403.400000000001,847.00800000000004,544.70500000000004,-2069.3499999999999
5053.0,28212.099999999999,-6123.3000000000002,-1186.2,23967.200000000001,947.97199999999998,-1002.38,-1727.9000000000001
5054.0,28501.799999999999,-5664.5200000000004,-1265.9200000000001,24287.0,1010.75,-2511.2600000000002,-1374.76
5055.0,28572.299999999999,-4960.8800000000001,-1289.0699999999999,24348.599999999999,1004.6,-3915.8099999999999,-901.32600000000002
5056.0,28057.599999999999,-4499.4200000000001,-1339.3699999999999,23587.700000000001,898.91200000000003,-4979.0299999999997,-324.49799999999999
5057.0,27210.799999999999,-4121.6899999999996,-1331.76,22529.799999999999,980.75999999999999,-5590.0200000000004,-145.13
5058.0,26360.099999999999,-3226.7399999999998,-621.39200000000005,16701.0,-781.23800000000006,10007.799999999999,-3677.4200000000001
5059.0,26522.5,-4107.6599999999999,-679.88400000000001,18036.900000000001,-478.23099999999999,8915.9899999999998,-3561.0900000000001
5060.0,26801.700000000001,-4875.8000000000002,-802.09500000000003,19315.200000000001,-192.39400000000001,7745.4200000000001,-3415.1500000000001
5061.0,27169.900000000001,-5431.1599999999999,-859.16600000000005,20621.299999999999,70.373500000000007,6482.5200000000004,-3245.3699999999999
5062.0,27578.700000000001,-5885.3000000000002,-967.48800000000006,21786.900000000001,312.88099999999997,5129.1499999999996,-3028.6599999999999
5063.0,28004.200000000001,-6167.9899999999998,-1042.28,22845.099999999999,527.54999999999995,3695.6799999999998,-2775.21
5064.0,28456.299999999999,-6314.4899999999998,-1119.29,23757.900000000001,722.17999999999995,2195.71,-2491.5700000000002
5065.0,28929.099999999999,-6249.6000000000004,-1188.29,24561.299999999999,889.15899999999999,627.77300000000002,-2187.2600000000002
5066.0,29364.099999999999,-5917.54,-1233.8699999999999,25232.5,1005.83,-966.66499999999996,-1829.54
5067.0,29683.0,-5351.6099999999997,-1308.03,25649.0,1074.6900000000001,-2530.23,-1457.8
5068.0,29743.0,-4537.1899999999996,-1349.0799999999999,25752.299999999999,1057.25,-3980.02,-952.00400000000002
5069.0,29118.200000000001,-3885.0799999999999,-1364.3900000000001,24999.599999999999,938.65099999999995,-5066.7799999999997,-336.14600000000002
5070.0,28030.400000000001,-3181.0900000000001,-1362.77,23873.700000000001,969.40899999999999,-5676.54,-215.542
5071.0,27239.299999999999,-2980.8699999999999,-628.76099999999997,17538.299999999999,-810.428,10291.299999999999,-3828.3800000000001
5072.0,27385.799999999999,-3910.1999999999998,-707.71600000000001,18859.299999999999,-500.33499999999998,9171.3099999999995,-3701.77
5073.0,27671.799999999999,-4657.8599999999997,-794.971,20196.0,-206.42500000000001,7981.5200000000004,-3552.3299999999999
5074.0,28063.0,-5272.9200000000001,-903.92499999999995,21492.200000000001,67.939999999999998,6702.5699999999997,-3377.46
5075.0,28502.5,-5695.9200000000001,-966.05399999999997,22750.900000000001,315.11700000000002,5329.5799999999999,-3153.5599999999999
5076.0,28978.299999999999,-6009.0900000000001,-1062.0599999999999,23855.299999999999,537.37800000000004,3872.0100000000002,-2903.1100000000001
5077.0,29497.200000000001,-6070.8000000000002,-1094.02,24926.200000000001,746.01499999999999,2336.9699999999998,-2627.7800000000002
5078.0,30050.700000000001,-5971.5799999999999,-1212.6800000000001,25831.900000000001,924.86699999999996,723.73500000000001,-2320.0599999999999
5079.0,30560.0,-5494.5500000000002,-1217.7,26692.799999999999,1049.1300000000001,-918.654,-1951.1700000000001
5080.0,30909.299999999999,-4831.3999999999996,-1338.3800000000001,27178.799999999999,1117.77,-2537.25,-1557.9000000000001
5081.0,30957.5,-3793.9200000000001,-1326.5999999999999,27413.799999999999,1091.8699999999999,-4026.5300000000002,-1023.53
5082.0,30272.700000000001,-2991.52,-1427.96,26626.200000000001,972.72000000000003,-5158.4499999999998,-375.70699999999999
5083.0,28989.5,-1894.1700000000001,-1332.4400000000001,25501.900000000001,917.11300000000006,-5837.8199999999997,-230.76599999999999
5084.0,28166.599999999999,-2715.6599999999999,-641.86800000000005,18411.799999999999,-834.82299999999998,10592.700000000001,-3991.3000000000002
5085.0,28301.400000000001,-3662.02,-713.649,19752.5,-514.50800000000004,9446.7600000000002,-3853.7399999999998
5086.0,28593.700000000001,-4445.3199999999997,-825.10599999999999,21092.099999999999,-216.922,8238.0699999999997,-3699.04
5087.0,29006.0,-5017.9899999999998,-891.11500000000001,22475.5,60.650599999999997,6945.1400000000003,-3520.0100000000002
5088.0,29488.299999999999,-5480.6700000000001,-991.08500000000004,23763.0,323.267,5556.75,-3294.2399999999998
5089.0,30023.700000000001,-5757.3299999999999,-1074.1500000000001,24981.599999999999,566.37900000000002,4071.8000000000002,-3047.7399999999998
5090.0,30607.5,-5779.3800000000001,-1148.1199999999999,26152.0,785.58299999999997,2494.7399999999998,-2775.8400000000001
5091.0,31231.099999999999,-5524.46,-1231.75,27255.900000000001,967.75199999999995,838.85500000000002,-2462.8800000000001
5092.0,31805.299999999999,-4937.0100000000002,-1282.49,28238.799999999999,1097.45,-852.42499999999995,-2084.6799999999998
5093.0,32184.0,-4044.8699999999999,-1371.3399999999999,28898.299999999999,1156.1400000000001,-2527.6999999999998,-1664.45
5094.0,32226.799999999999,-2839.2600000000002,-1404.0999999999999,29187.200000000001,1113.25,-4055.5,-1113.1099999999999
5095.0,31545.099999999999,-1662.4300000000001,-1435.04,28600.099999999999,985.93399999999997,-5246.6999999999998,-448.286
5096.0,30185.5,-312.69,-1360.3499999999999,27434.400000000001,845.93499999999995,-6022.8000000000002,-205.86799999999999
5097.0,29137.799999999999,-2384.6700000000001,-651.12400000000002,19354.299999999999,-852.86400000000003,10905.799999999999,-4168.04
5098.0,29266.799999999999,-3363.4400000000001,-732.03200000000004,20699.900000000001,-527.02499999999998,9740.4500000000007,-4017.9299999999998
5099.0,29567.599999999999,-4133.5299999999997,-817.88900000000001,22093.5,-224.94200000000001,8516.6100000000006,-3855.6799999999998
5100.0,30004.099999999999,-4746.1000000000004,-926.92499999999995,23483.599999999999,61.915399999999998,7210.5600000000004,-3677.23
5101.0,30538.5,-5137.0699999999997,-987.79200000000003,24908.700000000001,338.44299999999998,5805.0799999999999,-3457.7399999999998
5102.0,31138.599999999999,-5353.8199999999997,-1085.1199999999999,26253.299999999999,595.572,4289.6899999999996,-3216.25
5103.0,31789.799999999999,-5220.2299999999996,-1122.49,27628.0,819.21699999999998,2671.0599999999999,-2942.7399999999998
5104.0,32478.299999999999,-4833.0100000000002,-1239.5699999999999,28879.299999999999,1000.39,976.89200000000005,-2625.8800000000001
5105.0,33111.800000000003,-4001.0799999999999,-1265.1600000000001,30080.400000000001,1127.48,-759.97000000000003,-2240.0999999999999
5106.0,33531.800000000003,-2889.1799999999998,-1371.6400000000001,30889.599999999999,1171.05,-2491.6199999999999,-1788.1300000000001
5107.0,33579.0,-1370.79,-1367.8900000000001,31338.599999999999,1105.76,-4064.5799999999999,-1225.73
5108.0,32952.5,105.01300000000001,-1486.3499999999999,30866.200000000001,960.74699999999996,-5305.29,-554.04700000000003
5109.0,31657.5,1832.1600000000001,-1324.6199999999999,29905.299999999999,777.64599999999996,-6153.3299999999999,-184.589
5110.0,30150.0,-1955.8800000000001,-656.57600000000002,20380.099999999999,-877.14700000000005,11228.1,-4356.6599999999999
5111.0,30279.0,-2961.1100000000001,-741.28399999999999,21735.299999999999,-540.68499999999995,10051.4,-4196.4200000000001
5112.0,30595.599999999999,-3747.4400000000001,-836.37900000000002,23158.599999999999,-230.42699999999999,8815.4300000000003,-4029.5500000000002
5113.0,31064.299999999999,-4301.8800000000001,-912.75099999999998,24656.099999999999,63.765799999999999,7493.71,-3856.0700000000002
5114.0,31653.0,-4648.1499999999996,-1003.86,26179.5,352.56299999999999,6066.0200000000004,-3645.75
5115.0,32318.700000000001,-4743.0600000000004,-1109.2,27689.099999999999,622.45000000000005,4519.1700000000001,-3409.4200000000001
5116.0,33040.900000000001,-4464.6099999999997,-1176.8299999999999,29232.5,849.61099999999999,2864.29,-3130.9099999999999
5117.0,33795.699999999997,-3840.8200000000002,-1273.3900000000001,30706.400000000001,1026.0599999999999,1137.8699999999999,-2810.9200000000001
5118.0,34496.800000000003,-2751.7600000000002,-1321.3900000000001,32107.599999999999,1139.9100000000001,-641.62400000000002,-2417.52
5119.0,34980.300000000003,-1310.8499999999999,-1428.3599999999999,33137.099999999999,1168.3299999999999,-2415.9400000000001,-1939.9200000000001
5120.0,35076.5,550.85000000000002,-1432.95,33756.300000000003,1098.4300000000001,-4033.5799999999999,-1356.1700000000001
5121.0,34537.5,2591.5799999999999,-1441.96,33616.099999999999,922.06100000000004,-5323.6199999999999,-668.26800000000003
5122.0,33395.900000000001,4682.1300000000001,-1365.8599999999999,32842.599999999999,681.55499999999995,-6160.71,-206.10499999999999
5123.0,31204.200000000001,-1412.8800000000001,-663.72500000000002,21491.599999999999,-908.12199999999996,11558.700000000001,-4560.5100000000002
5124.0,31338.5,-2427.02,-745.48099999999999,22871.5,-562.11599999999999,10375.1,-4394.0900000000001
5125.0,31682.900000000001,-3192.0100000000002,-830.95600000000002,24367.5,-239.98400000000001,9128.5900000000001,-4227.1599999999999
5126.0,32196.0,-3724.52,-936.86900000000003,25941.099999999999,65.249600000000001,7788.6899999999996,-4060.27
5127.0,32838.400000000001,-3925.5100000000002,-999.25199999999995,27648.099999999999,357.87799999999999,6330.9499999999998,-3858.5999999999999
5128.0,33562.199999999997,-3832.3899999999999,-1099.6900000000001,29354.599999999999,622.60599999999999,4747.2700000000004,-3628.4299999999998
5129.0,34357.400000000001,-3300.0599999999999,-1145.97,31139.599999999999,840.22199999999998,3061.6900000000001,-3349.0700000000002
5130.0,35181.099999999999,-2396.46,-1259.0,32828.699999999997,1002.9400000000001,1306.45,-3029.5
5131.0,35978.099999999999,-948.96900000000005,-1300.3499999999999,34499.800000000003,1106.77,-495.45100000000002,-2634.1399999999999
5132.0,36579.800000000003,974.202,-1364.3199999999999,35863.400000000001,1150.1300000000001,-2314.0799999999999,-2139.3899999999999
5133.0,36787.900000000001,3436.0100000000002,-1393.4300000000001,36775.900000000001,1060.46,-3961.46,-1528.75
5134.0,36402.900000000001,5955.8599999999997,-1548.46,36802.800000000003,812.33299999999997,-5226.1000000000004,-800.73599999999999
5135.0,35498.5,8693.7600000000002,-1321.48,36494.199999999997,522.38599999999997,-5986.9899999999998,-258.10899999999998
5136.0,32304.599999999999,-714.39499999999998,-660.14599999999996,22719.599999999999,-950.45699999999999,11893.4,-4783.1400000000003
5137.0,32452.400000000001,-1724.75,-741.26400000000001,24137.5,-593.39599999999996,10705.200000000001,-4615.6700000000001
5138.0,32837.099999999999,-2466.0300000000002,-841.74599999999998,25709.5,-259.90600000000001,9448.75,-4453.6800000000003
5139.0,33405.900000000001,-2867.3800000000001,-913.50699999999995,27463.599999999999,52.884,8085.0699999999997,-4294.2399999999998
5140.0,34102.599999999999,-2943.7399999999998,-1013.09,29311.5,346.75700000000001,6592.7799999999997,-4097.8500000000004
5141.0,34886.800000000003,-2621.5900000000001,-1114.0,31229.5,601.95899999999995,4966.7399999999998,-3867.1799999999998
5142.0,35740.699999999997,-1822.9000000000001,-1185.28,33205.099999999999,802.79600000000005,3254.5999999999999,-3589.5799999999999
5143.0,36664.900000000001,-520.46699999999998,-1272.78,35193.400000000001,958.84000000000003,1471.1800000000001,-3273.5300000000002
5144.0,37567.400000000001,1461.28,-1291.51,37190.300000000003,1059.48,-348.50400000000002,-2891.5799999999999
5145.0,38418.5,4014.0999999999999,-1519.1900000000001,38903.300000000003,1078.21,-2180.8200000000002,-2401.1300000000001
5146.0,38888.099999999999,7532.54,-1420.3399999999999,40410.900000000001,1108.0799999999999,-3810.9200000000001,-1782.5599999999999
5147.0,38746.5,11120.700000000001,-1208.95,41152.900000000001,854.48800000000006,-4929.9499999999998,-805.39099999999996
5148.0,38212.699999999997,14090.6,-1243.52,40930.900000000001,274.96499999999997,-5560.1400000000003,-210.268
5149.0,33462.5,165.517,-651.55700000000002,24085.099999999999,-1005.66,12226.5,-5029.2600000000002
5150.0,33632.699999999997,-820.93600000000004,-727.77499999999998,25562.200000000001,-641.11099999999999,11034.799999999999,-4864.9499999999998
5151.0,34068.0,-1479.8299999999999,-823.51700000000005,27261.900000000001,-295.77100000000002,9765.1800000000003,-4712.7600000000002
5152.0,34704.800000000003,-1767.23,-920.93700000000001,29171.0,21.914400000000001,8373.9500000000007,-4558.6300000000001
5153.0,35457.0,-1599.5899999999999,-983.11500000000001,31254.299999999999,307.67899999999997,6837.3800000000001,-4365.0200000000004
5154.0,36310.800000000003,-997.55100000000004,-1087.6300000000001,33399.400000000001,541.88999999999999,5169.0500000000002,-4130.3299999999999
5155.0,37210.0,232.81,-1096.77,35651.300000000003,720.94100000000003,3416.5100000000002,-3858.9899999999998
5156.0,38271.900000000001,2000.0599999999999,-1278.22,37893.300000000003,833.38099999999997,1615.0,-3563.3499999999999
5157.0,39366.199999999997,4825.0100000000002,-1256.53,40352.300000000003,956.11000000000001,-229.203,-3243.6300000000001
5158.0,40579.400000000001,8502.75,-1294.9000000000001,42806.300000000003,1104.6700000000001,-2014.6500000000001,-2709.8600000000001
5159.0,41408.400000000001,13584.0,-195.21299999999999,45634.199999999997,1135.4400000000001,-3617.21,-2067.9200000000001
5160.0,41534.199999999997,18527.599999999999,816.149,47366.0,722.01800000000003,-4661.0699999999997,-862.76300000000003
5161.0,41446.099999999999,21640.799999999999,-21.760100000000001,46742.5,-36.507599999999996,-4988.0,-40.978400000000001
5162.0,34696.199999999997,1261.1500000000001,-626.63800000000003,25627.0,-1082.23,12552.5,-5302.6899999999996
5163.0,34892.800000000003,324.90499999999997,-705.05499999999995,27179.099999999999,-706.70799999999997,11353.4,-5146.1400000000003
5164.0,35390.599999999999,-221.703,-815.98400000000004,29023.0,-356.56,10065.299999999999,-5006.5900000000001
5165.0,36099.900000000001,-279.279,-880.29700000000003,31171.700000000001,-38.878,8641.1299999999992,-4856.7799999999997
5166.0,36930.099999999999,101.371,-992.11199999999997,33440.699999999997,237.03800000000001,7054.9099999999999,-4661.3999999999996
5167.0,37845.400000000001,1069.97,-1068.5999999999999,35836.900000000001,447.77600000000001,5337.8699999999999,-4416.96
5168.0,38827.099999999999,2706.1700000000001,-1123.3399999999999,38294.800000000003,589.87,3530.1199999999999,-4147.6400000000003
5169.0,40040.300000000003,5283.7200000000003,-1178.5,40991.400000000001,731.07799999999997,1679.7,-3899.0700000000002
5170.0,41421.800000000003,9205.2999999999993,-861.14200000000005,44142.300000000003,907.37099999999998,-205.33500000000001,-3631.0599999999999
5171.0,42898.400000000001,14593.200000000001,206.471,47921.699999999997,885.08600000000001,-1952.8299999999999,-3120.9200000000001
5172.0,44199.400000000001,20544.099999999999,1442.3800000000001,51317.099999999999,377.48700000000002,-3443.0599999999999,-2444.4299999999998
5173.0,44988.400000000001,26255.0,2251.5799999999999,53340.5,-316.22300000000001,-4377.3599999999997,-1442.4200000000001
5174.0,45102.199999999997,31013.299999999999,2335.2199999999998,53528.900000000001,-957.87900000000002,-4325.1400000000003,-284.70800000000003
5175.0,36023.099999999999,2607.9299999999998,-588.91899999999998,27377.799999999999,-1175.51,12860.1,-5610.0799999999999
5176.0,36253.300000000003,1755.25,-664.42200000000003,29032.400000000001,-798.85699999999997,11648.299999999999,-5460.0699999999997
5177.0,36819.199999999997,1385.4000000000001,-769.07799999999997,31062.099999999999,-452.81200000000001,10334.700000000001,-5333.5
5178.0,37611.900000000001,1563.75,-845.87300000000005,33427.800000000003,-144.078,8867.3899999999994,-5189.5900000000001
5179.0,38539.900000000001,2301.5799999999999,-927.62900000000002,35987.0,115.744,7224.3999999999996,-4993.1499999999996
5180.0,39518.300000000003,3712.8699999999999,-961.32799999999997,38647.599999999999,288.64600000000002,5440.1899999999996,-4728.8699999999999
5181.0,40636.300000000003,5862.8299999999999,-1038.3599999999999,41365.900000000001,359.40300000000002,3556.5,-4467.4200000000001
5182.0,42007.0,9289.2800000000007,-794.79499999999996,44539.5,380.27499999999998,1589.8800000000001,-4352.5799999999999
5183.0,43626.599999999999,14558.6,293.37900000000002,48628.5,287.89600000000002,-341.214,-4180.0699999999997
5184.0,45429.5,21023.299999999999,1603.1500000000001,52877.199999999997,-107.94,-2020.55,-3702.98
5185.0,47491.400000000001,27698.700000000001,2205.1900000000001,56284.099999999999,-745.62800000000004,-3302.3099999999999,-2901.6500000000001
5186.0,49232.900000000001,34310.699999999997,2700.0799999999999,58627.300000000003,-1420.6600000000001,-3913.8899999999999,-2055.75
5187.0,49637.199999999997,40694.800000000003,4025.4200000000001,59772.300000000003,-2397.3899999999999,-3495.6300000000001,-773.29700000000003
5188.0,37455.099999999999,4261.79,-503.93099999999998,29396.5,-1297.8599999999999,13132.9,-5948.5299999999997
5189.0,37738.900000000001,3487.1999999999998,-637.952,31127.900000000001,-919.17999999999995,11908.1,-5808.9499999999998
5190.0,38374.800000000003,3373.02,-698.38,33390.300000000003,-585.13599999999997,10559.299999999999,-5694.3999999999996
5191.0,39280.199999999997,3840.02,-804.76800000000003,35996.0,-289.84899999999999,9037.9599999999991,-5558.6400000000003
5192.0,40308.5,5003.5900000000001,-860.61099999999999,38841.099999999999,-57.444899999999997,7323.3900000000003,-5356.3800000000001
5193.0,41402.599999999999,6853.3999999999996,-956.52800000000002,41710.300000000003,64.351399999999998,5453.1700000000001,-5057.0500000000002
5194.0,42704.599999999999,9538.8299999999999,-1107.1900000000001,44626.199999999997,34.337400000000002,3468.3099999999999,-4816.1800000000003
5195.0,44314.800000000003,13657.700000000001,-836.82100000000003,48025.199999999997,-191.28899999999999,1418.7,-4771.2799999999997
5196.0,46254.099999999999,19636.799999999999,163.53200000000001,52177.099999999999,-623.56200000000001,-528.37199999999996,-4679.2600000000002
5197.0,48496.699999999997,26988.700000000001,1417.75,56513.199999999997,-1180.4100000000001,-2165.8800000000001,-4208.6300000000001
5198.0,51099.300000000003,34889.300000000003,2510.8800000000001,60489.300000000003,-1861.8499999999999,-3295.8800000000001,-3441.98
5199.0,53280.5,43073.5,4121.8800000000001,63829.099999999999,-2813.4699999999998,-3580.8499999999999,-2589.23
5200.0,54449.099999999999,49621.900000000001,5105.6499999999996,64692.300000000003,-4374.3400000000001,-2775.2199999999998,-1225.1700000000001
5201.0,39018.0,6235.4399999999996,-416.71199999999999,31672.0,-1444.53,13364.299999999999,-6320.71
5202.0,39363.599999999999,5600.0600000000004,-558.45399999999995,33527.5,-1084.45,12125.1,-6192.6999999999998
5203.0,40100.400000000001,5797.6599999999999,-581.21100000000001,36052.900000000001,-762.27999999999997,10735.6,-6095.6800000000003
5204.0,41135.900000000001,6616.4499999999998,-717.96500000000003,38914.699999999997,-492.483,9143.1900000000005,-5966.1099999999997
5205.0,42286.300000000003,8341.0799999999999,-678.76999999999998,42124.800000000003,-320.084,7332.46,-5747.7700000000004
5206.0,43565.300000000003,10664.9,-874.49000000000001,45189.5,-276.60300000000001,5349.5200000000004,-5426.8500000000004
5207.0,45076.199999999997,14031.799999999999,-977.86800000000005,48365.699999999997,-422.27100000000002,3245.27,-5173.1999999999998
5208.0,46938.800000000003,18653.599999999999,-939.44399999999996,51670.099999999999,-800.17100000000005,1103.3399999999999,-5060.0100000000002
5209.0,49199.5,25292.0,-50.641800000000003,55709.0,-1371.8199999999999,-905.04100000000005,-4973.2799999999997
5210.0,51806.699999999997,33437.599999999999,1367.0999999999999,60028.300000000003,-2150.21,-2526.7600000000002,-4566.2399999999998
5211.0,54720.699999999997,42342.5,3092.1399999999999,64242.099999999999,-3333.2199999999998,-3430.6500000000001,-3914.1799999999998
5212.0,57055.400000000001,50432.0,4715.21,66965.800000000003,-4991.8999999999996,-3329.4099999999999,-3057.3899999999999
5213.0,58624.099999999999,56429.300000000003,5471.5900000000001,67283.600000000006,-6927.9799999999996,-2231.8299999999999,-1847.3299999999999
5214.0,40716.400000000001,8512.2199999999993,-305.83100000000002,34185.099999999999,-1655.8399999999999,13551.1,-6719.5200000000004
5215.0,41150.800000000003,8128.1300000000001,-459.73000000000002,36192.0,-1289.1500000000001,12308.299999999999,-6622.5799999999999
5216.0,42047.800000000003,8699.4400000000005,-490.28199999999998,39001.0,-988.80700000000002,10885.700000000001,-6544.4399999999996
5217.0,43250.0,10011.1,-597.46699999999998,42207.599999999999,-754.40099999999995,9211.4300000000003,-6418.4300000000003
5218.0,44609.099999999999,12256.4,-601.14499999999998,45716.099999999999,-615.89700000000005,7288.2399999999998,-6175.3999999999996
5219.0,46136.800000000003,15187.4,-847.90999999999997,49042.5,-626.279,5167.1999999999998,-5806.5699999999997
5220.0,47902.300000000003,19146.900000000001,-1077.9400000000001,52284.099999999999,-883.78899999999999,2924.0700000000002,-5456.71
5221.0,50062.199999999997,24287.900000000001,-1238.3900000000001,55425.900000000001,-1396.3599999999999,643.81799999999998,-5263.8100000000004
5222.0,52608.5,31477.799999999999,-427.55399999999997,59160.900000000001,-2173.1300000000001,-1454.4400000000001,-5150.9799999999996
5223.0,55471.900000000001,40046.300000000003,996.40099999999995,63009.400000000001,-3380.3000000000002,-2997.4699999999998,-4725.2600000000002
5224.0,58216.300000000003,48747.300000000003,2800.1100000000001,66264.699999999997,-5149.0699999999997,-3593.52,-3999.1199999999999
5225.0,60134.599999999999,55415.5,4051.9899999999998,67337.899999999994,-7471.6999999999998,-3045.5599999999999,-3062.2600000000002
5226.0,61611.900000000001,59027.0,3596.54,65620.800000000003,-9772.7399999999998,-1646.8499999999999,-2573.0300000000002
5227.0,42531.900000000001,11045.299999999999,-200.815,36835.199999999997,-1848.95,13705.6,-7154.29
5228.0,43097.099999999999,11191.700000000001,-221.523,39146.599999999999,-1537.9200000000001,12496.9,-7093.4099999999999
5229.0,44250.300000000003,12239.4,-297.05000000000001,42290.300000000003,-1275.6099999999999,11063.299999999999,-7049.0799999999999
5230.0,45732.5,14185.9,-356.69400000000002,45972.5,-1103.03,9295.4799999999996,-6939.2399999999998
5231.0,47415.599999999999,17172.400000000001,-297.44900000000001,49962.199999999997,-1018.92,7228.8800000000001,-6712.0600000000004
5232.0,49274.900000000001,20916.5,-435.95800000000003,53740.300000000003,-1115.6800000000001,4951.3299999999999,-6232.46
5233.0,51372.5,25543.799999999999,-706.33100000000002,57113.099999999999,-1478.27,2503.5100000000002,-5755.8100000000004
5234.0,53887.400000000001,31334.599999999999,-1015.1799999999999,60059.400000000001,-2108.8400000000001,46.3033,-5466.3100000000004
5235.0,56752.0,39045.199999999997,-390.858,63271.099999999999,-3123.8000000000002,-2099.04,-5190.46
5236.0,59444.0,47210.300000000003,760.59500000000003,65822.600000000006,-4824.0,-3444.54,-4459.1700000000001
5237.0,61276.900000000001,53906.699999999997,2055.3200000000002,66682.800000000003,-7406.5900000000001,-3637.0799999999999,-3481.1300000000001
5238.0,62192.5,56744.5,1442.9300000000001,63888.300000000003,-10304.200000000001,-2677.9200000000001,-2798.9200000000001
5239.0,63173.099999999999,57264.900000000001,-861.47400000000005,59199.599999999999,-12413.4,-906.71199999999999,-3225.71
5240.0,44305.599999999999,13863.5,-157.97900000000001,39373.900000000001,-2213.3600000000001,13822.5,-7528.2799999999997
5241.0,45292.199999999997,14722.9,-188.78700000000001,42030.400000000001,-1921.6600000000001,12797.4,-7609.7700000000004
5242.0,46881.5,16517.5,-189.09999999999999,45794.400000000001,-1738.25,11365.299999999999,-7657.8000000000002
5243.0,48825.599999999999,19249.0,-206.535,50120.400000000001,-1563.6099999999999,9487.8799999999992,-7623.7299999999996
5244.0,50978.5,23184.099999999999,-8.5531900000000007,54819.800000000003,-1493.53,7248.6099999999997,-7349.8199999999997
5245.0,53314.400000000001,27791.099999999999,-134.40799999999999,59053.900000000001,-1734.6700000000001,4768.1099999999997,-6707.2799999999997
5246.0,55978.900000000001,32884.400000000001,-859.774,62257.199999999997,-2296.98,2096.0100000000002,-6111.3000000000002
5247.0,58968.900000000001,39427.699999999997,-1222.4400000000001,65038.5,-3053.8899999999999,-570.21400000000006,-5743.3100000000004
5248.0,61754.900000000001,47431.699999999997,-429.85199999999998,67563.800000000003,-4289.21,-2726.9400000000001,-5052.6599999999999
5249.0,63416.0,54240.300000000003,695.41300000000001,68180.199999999997,-6657.1700000000001,-3721.98,-3618.9299999999998
5250.0,63704.900000000001,56308.800000000003,-219.27799999999999,64286.199999999997,-9983.5599999999995,-3395.5799999999999,-2214.0700000000002
5251.0,63295.0,54002.0,-3888.54,56133.300000000003,-12892.4,-2146.9099999999999,-2202.3600000000001
5252.0,63387.300000000003,52047.699999999997,-7689.2700000000004,48394.0,-14273.200000000001,-116.67400000000001,-3791.8899999999999
5253.0,64397.599999999999,45989.099999999999,-17229.900000000001,34932.5,-14971.1,1015.24,-4149.9899999999998
5254.0,67630.199999999997,44698.199999999997,-25728.400000000001,23987.900000000001,-13917.6,2664.3499999999999,-3704.6700000000001
5255.0,73748.300000000003,50843.0,-28606.900000000001,19568.0,-13369.299999999999,4773.4499999999998,-3088.6500000000001
5256.0,82533.699999999997,61834.900000000001,-27291.0,20159.700000000001,-14819.4,7633.9700000000003,-2017.78
5257.0,93576.199999999997,72987.0,-25899.700000000001,20870.0,-18622.0,11128.0,-1094.0599999999999
5258.0,106604.0,83089.899999999994,-26827.0,19743.799999999999,-22322.5,15644.299999999999,-1103.1900000000001
5259.0,122960.0,95000.199999999997,-29920.299999999999,18904.299999999999,-24249.700000000001,22054.700000000001,-1419.29
5260.0,148151.0,116865.0,-32883.800000000003,24687.400000000001,-24904.299999999999,31460.200000000001,-601.61300000000006
5261.0,181214.0,147776.0,-31727.799999999999,37967.300000000003,-30571.099999999999,42686.599999999999,-116.455
5262.0,204373.0,162065.0,-25721.599999999999,45471.800000000003,-48240.5,50990.800000000003,-2802.1100000000001
5263.0,199459.0,117126.0,-29412.200000000001,19148.700000000001,-70780.699999999997,51382.599999999999,-6271.2299999999996
5264.0,157908.0,-8248.1700000000001,-25218.0,-40402.099999999999,-81483.0,37469.300000000003,-3073.1799999999998
5265.0,223941.0,-237874.0,-37338.699999999997,-157437.0,-79188.399999999994,9032.1299999999992,13393.9
5266.0,64374.300000000003,48532.599999999999,-12223.700000000001,44778.599999999999,-14778.9,-1308.96,-1451.6900000000001
5267.0,66661.399999999994,45127.900000000001,-21290.299999999999,33666.699999999997,-14851.200000000001,8.9827100000000009,-429.07499999999999
5268.0,71879.5,48090.900000000001,-27391.599999999999,27080.299999999999,-14182.9,1822.1199999999999,204.703
5269.0,80239.300000000003,59864.099999999999,-27096.0,27815.700000000001,-13899.700000000001,4297.4200000000001,607.327
5270.0,90077.699999999997,75945.899999999994,-21579.5,32519.700000000001,-16350.4,7069.3999999999996,245.03999999999999
5271.0,103203.0,88826.800000000003,-20587.200000000001,33370.0,-20924.099999999999,10919.5,-432.54500000000002
5272.0,121419.0,102562.0,-24782.400000000001,32733.400000000001,-23562.799999999999,17094.5,140.65199999999999
5273.0,149896.0,129711.0,-27342.0,41050.0,-23608.599999999999,26953.900000000001,2249.0900000000001
5274.0,190000.0,172291.0,-23810.799999999999,62462.800000000003,-27942.400000000001,39780.0,3150.8099999999999
5275.0,225319.0,201606.0,-17659.0,82149.100000000006,-46482.800000000003,52055.599999999999,-968.303
5276.0,229072.0,173273.0,-15516.200000000001,75034.800000000003,-71904.100000000006,57924.800000000003,-7113.1199999999999
5277.0,185064.0,55513.599999999999,-9120.6700000000001,30445.700000000001,-87275.800000000003,51099.699999999997,-11228.299999999999
5278.0,198620.0,-157587.0,3747.8200000000002,-58661.400000000001,-77202.5,21347.5,-10758.1
5279.0,65836.199999999997,56319.0,-4021.5999999999999,59302.300000000003,-12636.5,-2853.6500000000001,-584.83000000000004
5280.0,68428.300000000003,54693.199999999997,-10325.6,51776.800000000003,-14401.0,-1911.4100000000001,997.25599999999997
5281.0,72716.100000000006,56050.0,-16525.799999999999,45417.0,-14918.0,-510.88799999999998,1880.0999999999999
5282.0,80111.899999999994,63410.5,-20573.400000000001,42900.599999999999,-14758.5,1288.4300000000001,1637.79
5283.0,89848.399999999994,76372.100000000006,-20230.299999999999,44877.199999999997,-15887.6,3331.1500000000001,498.23500000000001
5284.0,102411.0,90706.600000000006,-19480.799999999999,47103.099999999999,-19400.400000000001,6336.75,-422.202
5285.0,121445.0,108252.0,-22368.299999999999,49105.599999999999,-22266.099999999999,11933.5,225.255
5286.0,153064.0,141050.0,-24298.599999999999,60699.0,-22051.099999999999,21899.599999999999,2623.71
5287.0,200418.0,194586.0,-18752.299999999999,88511.699999999997,-25670.099999999999,36607.5,3411.4699999999998
5288.0,251261.0,242101.0,-11554.0,117720.0,-44762.400000000001,54305.099999999999,-2002.4000000000001
5289.0,267829.0,236165.0,355.76600000000002,125082.0,-72529.5,67736.199999999997,-12044.1
5290.0,226790.0,126225.0,22249.099999999999,82568.699999999997,-95592.0,66376.199999999997,-29582.5
5291.0,241094.0,-118868.0,44833.5,-30757.200000000001,-89186.399999999994,39190.800000000003,-56326.099999999999
5292.0,67479.300000000003,60365.599999999999,385.41699999999997,69707.899999999994,-9180.8500000000004,-3607.9499999999998,-2329.9099999999999
5293.0,71256.600000000006,64183.199999999997,-1323.48,68837.899999999994,-11917.200000000001,-3249.6599999999999,-828.45899999999995
5294.0,75427.5,66411.699999999997,-5193.4300000000003,65392.900000000001,-14307.5,-2570.04,-25.2164
5295.0,82164.699999999997,70173.5,-11621.799999999999,61204.400000000001,-15385.9,-1045.0,306.03300000000002
5296.0,91214.699999999997,79929.199999999997,-14858.0,61026.699999999997,-15972.6,889.04700000000003,849.48000000000002
5297.0,103232.0,94773.699999999997,-14835.4,64233.099999999999,-18446.599999999999,3341.8299999999999,1016.41
5298.0,122579.0,114876.0,-17236.599999999999,68559.5,-21144.099999999999,8118.5100000000002,1509.8299999999999
5299.0,156695.0,151533.0,-19647.700000000001,81924.0,-21262.0,17719.200000000001,2744.48
5300.0,209836.0,212659.0,-15013.200000000001,111507.0,-24075.0,32884.099999999999,1944.6099999999999
5301.0,273449.0,276094.0,-7992.46,141781.0,-43185.599999999999,53097.599999999999,-6647.7299999999996
5302.0,300938.0,295043.0,16679.0,151392.0,-72659.300000000003,71051.600000000006,-21950.299999999999
5303.0,264812.0,187936.0,61537.5,90642.5,-106062.0,72223.0,-50281.400000000001
5304.0,331987.0,-122044.0,72746.899999999994,-105514.0,-115535.0,51851.099999999999,-95058.100000000006
5305.0,67718.899999999994,57216.0,218.13,72846.5,-6064.4200000000001,-2996.9899999999998,-4640.2600000000002
5306.0,72986.300000000003,66325.199999999997,1769.9400000000001,77702.899999999994,-8578.9200000000001,-3234.9499999999998,-3806.9200000000001
5307.0,77949.100000000006,71935.600000000006,1253.6900000000001,79100.399999999994,-12306.799999999999,-3317.9400000000001,-3414.3299999999999
5308.0,84599.199999999997,75206.699999999997,-4936.5100000000002,75982.899999999994,-14500.9,-2364.98,-2809.0900000000001
5309.0,92399.399999999994,84890.100000000006,-7551.8500000000004,76818.0,-14845.4,-818.60400000000004,-1827.1400000000001
5310.0,103572.0,100567.0,-7133.2700000000004,81350.300000000003,-16509.599999999999,1338.27,-1300.8599999999999
5311.0,122828.0,123023.0,-8302.3099999999995,88633.199999999997,-18998.200000000001,5459.8500000000004,-762.73599999999999
5312.0,157904.0,160562.0,-12273.700000000001,101592.0,-20080.400000000001,13739.799999999999,-29.5367
5313.0,214934.0,225268.0,-10635.0,129356.0,-23118.200000000001,28076.099999999999,-1269.0699999999999
5314.0,283929.0,297929.0,-4548.0600000000004,154087.0,-42010.0,45941.400000000001,-10250.799999999999
5315.0,321509.0,326955.0,18247.299999999999,146533.0,-75964.600000000006,61266.5,-29665.799999999999
5316.0,294026.0,214602.0,68267.0,48376.199999999997,-116763.0,59290.699999999997,-58548.599999999999
5317.0,414557.0,-154902.0,61260.699999999997,-240195.0,-148288.0,39867.800000000003,-97779.699999999997
5318.0,65711.800000000003,49659.099999999999,-1277.24,71242.100000000006,-4139.8199999999997,-992.63199999999995,-5887.1999999999998
5319.0,72433.100000000006,61482.800000000003,1057.5599999999999,79091.699999999997,-6021.5200000000004,-1568.0699999999999,-5918.71
5320.0,78620.800000000003,70552.100000000006,2471.79,84505.699999999997,-9655.8400000000001,-2161.1999999999998,-5997.5799999999999
5321.0,85553.5,76515.699999999997,-548.51900000000001,85561.5,-12810.700000000001,-2129.4200000000001,-5646.29
5322.0,93943.699999999997,84527.300000000003,-4957.4499999999998,86306.600000000006,-13832.9,-1264.1900000000001,-5055.0100000000002
5323.0,105070.0,100279.0,-5121.4799999999996,92156.699999999997,-14767.4,349.322,-4689.2700000000004
5324.0,123786.0,123441.0,-6153.7799999999997,100642.0,-16916.400000000001,3920.54,-4409.1300000000001
5325.0,156516.0,163685.0,-6365.4799999999996,116341.0,-18434.299999999999,10403.1,-3896.1799999999998
5326.0,213011.0,226646.0,-8700.6700000000001,137549.0,-22442.900000000001,21721.700000000001,-5460.0799999999999
5327.0,279774.0,307445.0,2504.6700000000001,160641.0,-39422.300000000003,33814.800000000003,-11647.0
5328.0,324908.0,334472.0,11807.700000000001,130859.0,-79065.0,41156.400000000001,-24887.0
5329.0,304188.0,224507.0,51193.699999999997,9062.6399999999994,-124375.0,31438.200000000001,-36713.099999999999
5330.0,435853.0,-168391.0,27230.400000000001,-328924.0,-172306.0,5865.7299999999996,-42248.400000000001
5331.0,62158.099999999999,42661.0,-716.74199999999996,68816.800000000003,-3106.1300000000001,1755.98,-6457.5100000000002
5332.0,69200.100000000006,54509.300000000003,967.40200000000004,76996.800000000003,-4558.1700000000001,1218.2,-6962.4499999999998
5333.0,76245.699999999997,66000.5,3264.8200000000002,84976.399999999994,-7304.7600000000002,472.07600000000002,-7446.1700000000001
5334.0,83623.800000000003,74492.300000000003,2825.3000000000002,89780.699999999997,-10768.9,-107.762,-7733.71
5335.0,92917.199999999997,82285.800000000003,-1905.96,91806.0,-12725.299999999999,207.40899999999999,-7467.1099999999997
5336.0,104432.0,97243.899999999994,-3219.1300000000001,98296.300000000003,-13572.4,1279.3,-7042.6000000000004
5337.0,122798.0,120411.0,-4551.5200000000004,107560.0,-15358.200000000001,3889.3200000000002,-7105.0
5338.0,152425.0,160273.0,-2707.7800000000002,124333.0,-16958.700000000001,8541.9099999999999,-7181.0900000000001
5339.0,202932.0,219635.0,-4466.9200000000001,142328.0,-21602.299999999999,14955.799999999999,-8883.8799999999992
5340.0,265341.0,296880.0,3139.9699999999998,159369.0,-36184.599999999999,19892.400000000001,-12795.799999999999
5341.0,311867.0,333480.0,10951.1,130320.0,-72792.600000000006,16834.299999999999,-15709.0
5342.0,301900.0,246077.0,40509.400000000001,16369.0,-119965.0,-1810.0,-7211.8599999999997
5343.0,404668.0,-97532.300000000003,29313.5,-282909.0,-166834.0,-37286.699999999997,26556.900000000001
5344.0,58604.400000000001,36642.0,426.005,65525.800000000003,-2463.8000000000002,4595.9399999999996,-7325.1300000000001
5345.0,64967.400000000001,47324.599999999999,1623.6800000000001,73022.0,-3652.3699999999999,4176.3500000000004,-8268.3700000000008
5346.0,72041.600000000006,58759.599999999999,3282.1700000000001,80953.399999999994,-5564.7799999999997,3488.4099999999999,-9291.8099999999995
5347.0,79607.800000000003,69081.399999999994,4038.04,87907.199999999997,-8406.7800000000007,2806.2199999999998,-9869.25
5348.0,88908.800000000003,78500.199999999997,1321.9300000000001,92588.600000000006,-10826.9,2736.5700000000002,-9803.9300000000003
5349.0,100896.0,92845.699999999997,-572.06200000000001,99614.0,-12273.0,3408.3800000000001,-9803.7199999999993
5350.0,118897.0,114981.0,-2500.02,109509.0,-13773.1,5109.1400000000003,-10003.0
5351.0,145811.0,152331.0,-259.928,126307.0,-15879.6,7844.3400000000001,-10481.9
5352.0,187911.0,206013.0,533.94100000000003,144185.0,-20304.0,10294.5,-11775.1
5353.0,242975.0,273962.0,3833.9000000000001,157739.0,-32604.700000000001,8587.3799999999992,-13472.1
5354.0,288818.0,318989.0,10023.299999999999,140950.0,-60101.400000000001,-3739.0100000000002,-11369.299999999999
5355.0,289373.0,270087.0,35873.900000000001,61279.800000000003,-101693.0,-31994.799999999999,5496.3800000000001
5356.0,338208.0,20494.0,49754.800000000003,-144365.0,-137028.0,-74287.699999999997,53665.300000000003
5357.0,55452.099999999999,30941.5,746.029,60810.400000000001,-2102.4099999999999,7298.8199999999997,-8083.54
5358.0,60784.099999999999,39948.199999999997,1758.27,67426.199999999997,-3251.1599999999999,7082.2799999999997,-9121.9500000000007
5359.0,67249.0,49592.800000000003,2077.04,73883.699999999997,-4753.1599999999999,6641.7399999999998,-10333.1
5360.0,74554.100000000006,60479.900000000001,2870.48,81190.5,-6509.2799999999997,6159.4499999999998,-11202.5
5361.0,83394.199999999997,72198.100000000006,2747.5599999999999,88570.699999999997,-8629.5400000000009,5958.9200000000001,-11491.1
5362.0,95509.699999999997,86963.800000000003,1486.8900000000001,96780.300000000003,-10821.799999999999,6447.8299999999999,-11608.9
5363.0,112382.0,108593.0,522.19500000000005,107607.0,-12329.5,7601.21,-11926.700000000001
5364.0,136057.0,142075.0,3244.8299999999999,123599.0,-15153.0,8595.2099999999991,-13551.5
5365.0,170905.0,187416.0,3809.71,139485.0,-18879.0,8417.6800000000003,-15472.9
5366.0,214693.0,247465.0,10362.299999999999,156404.0,-27847.0,2363.1700000000001,-16643.900000000001
5367.0,258644.0,290808.0,10669.4,149925.0,-47489.099999999999,-14657.9,-14464.299999999999
5368.0,266757.0,274310.0,32911.0,109417.0,-77526.399999999994,-49898.5,-392.91399999999999
5369.0,273438.0,105064.0,41851.199999999997,-16409.0,-104684.0,-94888.199999999997,35626.099999999999
5370.0,52443.900000000001,25781.599999999999,582.07100000000003,55159.599999999999,-2021.9300000000001,9741.9200000000001,-8465.4500000000007
5371.0,56548.0,33273.199999999997,1788.1600000000001,60654.5,-3070.27,9830.3400000000001,-9597.6700000000001
5372.0,61808.800000000003,41089.400000000001,1619.5,65618.399999999994,-4305.3599999999997,9763.0,-10817.700000000001
5373.0,68334.699999999997,50892.5,1699.6600000000001,71865.5,-5352.5,9557.0100000000002,-11806.1
5374.0,76774.399999999994,63340.699999999997,2287.3000000000002,79952.899999999994,-6757.2799999999997,9513.0400000000009,-12491.6
5375.0,88399.199999999997,79974.199999999997,3220.8600000000001,90216.600000000006,-8852.6700000000001,9916.2399999999998,-12938.4
5376.0,104083.0,101287.0,3746.02,101957.0,-10940.1,10629.799999999999,-13604.5
5377.0,124534.0,130040.0,6251.6099999999997,116280.0,-14518.9,10657.5,-15555.0
5378.0,152822.0,165999.0,5745.8000000000002,128872.0,-18253.099999999999,8791.5699999999997,-18378.799999999999
5379.0,186285.0,213498.0,11516.9,144558.0,-24144.400000000001,1031.0599999999999,-21021.900000000001
5380.0,224024.0,251984.0,10579.0,146744.0,-37103.699999999997,-16389.299999999999,-20854.299999999999
5381.0,236210.0,251300.0,27051.0,135375.0,-57173.199999999997,-51005.099999999999,-12304.9
5382.0,238217.0,133905.0,8444.1299999999992,60282.5,-79821.199999999997,-91992.0,10348.0
5383.0,49761.900000000001,21594.900000000001,324.214,49617.300000000003,-2231.5500000000002,11725.700000000001,-8467.1499999999996
5384.0,52985.400000000001,27206.299999999999,942.45699999999999,53376.900000000001,-3196.6599999999999,12023.200000000001,-9679.8799999999992
5385.0,57173.900000000001,33278.0,432.31299999999999,56795.0,-4086.3899999999999,12378.4,-10874.5
5386.0,62344.900000000001,41766.0,676.23599999999999,61943.0,-4732.5500000000002,12554.200000000001,-11864.9
5387.0,70014.199999999997,53411.400000000001,965.71500000000003,68979.300000000003,-5690.25,12763.799999999999,-12996.6
5388.0,81108.399999999994,70523.699999999997,2585.3899999999999,79797.600000000006,-6991.2299999999996,13235.4,-13841.200000000001
5389.0,95504.600000000006,92006.5,4950.2600000000002,92721.5,-9474.5300000000007,13689.299999999999,-14698.0
5390.0,113009.0,117821.0,8289.9799999999996,106360.0,-13610.0,13245.5,-16490.599999999999
5391.0,135094.0,145492.0,7634.5,116048.0,-18096.599999999999,10732.0,-19232.900000000001
5392.0,160473.0,179425.0,9474.3500000000004,127041.0,-22589.700000000001,3501.8099999999999,-22054.700000000001
5393.0,189017.0,209591.0,8495.3799999999992,132325.0,-30186.0,-12021.4,-23724.799999999999
5394.0,201483.0,214811.0,18741.200000000001,135585.0,-43179.599999999999,-39209.900000000001,-20029.0
5395.0,207037.0,146816.0,-3290.7600000000002,101246.0,-57837.300000000003,-70609.699999999997,-5863.8999999999996
5396.0,47523.599999999999,18824.400000000001,458.84399999999999,45120.699999999997,-2512.1399999999999,13202.200000000001,-8264.9799999999996
5397.0,49968.800000000003,22479.099999999999,152.31999999999999,47006.0,-3477.8200000000002,13668.5,-9173.4300000000003
5398.0,53271.599999999999,27001.299999999999,-790.43299999999999,48910.699999999997,-4180.1700000000001,14353.799999999999,-10100.200000000001
5399.0,57325.5,33843.800000000003,-601.27700000000004,52677.599999999999,-4623.4499999999998,14924.6,-11014.299999999999
5400.0,63970.800000000003,43654.199999999997,-843.48000000000002,58115.199999999997,-5480.79,15485.200000000001,-12249.200000000001
5401.0,74114.0,59436.300000000003,122.54900000000001,67565.800000000003,-6048.5100000000002,16234.200000000001,-13242.299999999999
5402.0,86742.600000000006,81599.800000000003,4820.1499999999996,81510.899999999994,-8097.4200000000001,16523.599999999999,-14378.1
5403.0,101920.0,105350.0,8890.8199999999997,94570.0,-12449.6,15885.200000000001,-16176.299999999999
5404.0,119060.0,128228.0,9691.1499999999996,103228.0,-17435.599999999999,13269.5,-18461.299999999999
5405.0,137851.0,152039.0,9278.7399999999998,109553.0,-21731.799999999999,7289.5500000000002,-20868.0
5406.0,157128.0,174506.0,9481.8500000000004,115267.0,-26302.099999999999,-4935.5600000000004,-22908.400000000001
5407.0,168666.0,180022.0,12474.200000000001,118922.0,-34307.900000000001,-24017.900000000001,-23226.599999999999
5408.0,172749.0,153094.0,8164.5200000000004,113788.0,-40577.099999999999,-47946.400000000001,-19608.0
5409.0,45774.199999999997,16551.5,204.94800000000001,41264.099999999999,-2750.3000000000002,14171.799999999999,-7919.7799999999997
5410.0,47489.900000000001,19376.700000000001,28.405000000000001,42299.599999999999,-3518.5100000000002,14815.9,-8490.8199999999997
5411.0,50083.599999999999,22955.799999999999,-915.60500000000002,43299.599999999999,-4274.7299999999996,15677.1,-9071.7900000000009
5412.0,53562.099999999999,28499.599999999999,-1111.9400000000001,45802.400000000001,-4789.2200000000003,16592.299999999999,-9756.8600000000006
5413.0,59059.199999999997,37095.5,-954.67600000000004,50283.199999999997,-5533.5299999999997,17583.5,-10725.0
5414.0,67522.300000000003,50959.800000000003,39.935400000000001,57960.599999999999,-5949.8400000000001,18529.5,-11898.4
5415.0,78536.300000000003,71431.699999999997,4598.9700000000003,70277.100000000006,-7266.46,18835.5,-13594.6
5416.0,91658.699999999997,94088.899999999994,9547.4500000000007,82883.699999999997,-10967.9,18141.099999999999,-15573.6
5417.0,105320.0,114834.0,12297.6,91694.300000000003,-16016.0,15602.0,-17472.700000000001
5418.0,119233.0,132031.0,11322.5,94771.399999999994,-20691.200000000001,10308.0,-19596.599999999999
5419.0,132440.0,147252.0,10460.200000000001,96957.0,-24143.299999999999,1399.29,-21787.799999999999
5420.0,140815.0,152288.0,11025.9,97473.600000000006,-28768.400000000001,-12356.6,-23604.5
5421.0,142209.0,135707.0,11478.4,95517.100000000006,-32960.5,-30391.200000000001,-26696.900000000001
5422.0,8095.8800000000001,-3066.79,334.87900000000002,2651.4699999999998,-565.66700000000003,3621.4200000000001,-374.69299999999998
5423.0,8423.1700000000001,-3781.29,384.87299999999999,3045.9699999999998,-651.99000000000001,3351.75,-385.95499999999998
5424.0,8344.6499999999996,-4390.5200000000004,266.226,3013.8899999999999,-747.67200000000003,2930.1300000000001,-237.44200000000001
5425.0,7312.6300000000001,-4698.1000000000004,-168.298,2259.77,-670.88400000000001,2213.8400000000001,-50.832000000000001
5426.0,6079.3800000000001,-4285.6899999999996,-117.48699999999999,2011.5599999999999,-469.70299999999997,1355.8099999999999,-20.8005
5427.0,5353.8599999999997,-3950.9400000000001,-36.510599999999997,1876.3599999999999,-383.17000000000002,760.65800000000002,-77.436199999999999
5428.0,5071.4200000000001,-3881.3200000000002,17.569400000000002,1744.3399999999999,-311.98700000000002,391.63099999999997,-131.17599999999999
5429.0,4980.0799999999999,-4039.2199999999998,-71.811199999999999,1511.46,-252.727,97.841499999999996,-132.13499999999999
5430.0,5030.5200000000004,-4071.75,12.258900000000001,1509.3399999999999,-248.93000000000001,-109.864,-128.452
5431.0,5208.21,-4327.2200000000003,-43.587000000000003,1396.8,-238.709,-328.82499999999999,-109.30800000000001
5432.0,5457.2600000000002,-4569.0,-22.133500000000002,1318.8099999999999,-216.93600000000001,-591.57000000000005,-84.514899999999997
5433.0,5754.79,-4892.3699999999999,-85.783900000000003,1137.3599999999999,-193.93199999999999,-915.28099999999995,-65.928100000000001
5434.0,6063.5200000000004,-5047.2399999999998,-32.742800000000003,1042.73,-178.31800000000001,-1287.3099999999999,-39.285800000000002
5435.0,8397.7000000000007,-3293.6100000000001,44.377000000000002,2487.9000000000001,-575.85000000000002,3821.3800000000001,-386.608
5436.0,8533.8400000000001,-3885.6900000000001,167.91399999999999,2933.4000000000001,-555.36000000000001,3462.8200000000002,-461.22899999999998
5437.0,8675.9099999999999,-4803.54,27.954799999999999,3043.0700000000002,-640.03499999999997,2973.3299999999999,-415.75400000000002
5438.0,8213.1200000000008,-5208.96,-84.105599999999995,2774.5700000000002,-684.54399999999998,2371.5500000000002,-173.541
5439.0,6985.9799999999996,-4970.4700000000003,-172.126,2226.3200000000002,-548.62699999999995,1593.28,2.2343500000000001
5440.0,6006.4799999999996,-4429.3800000000001,-20.9695,2074.5100000000002,-405.25700000000001,916.48099999999999,-28.6008
5441.0,5474.4300000000003,-4249.7299999999996,-21.896599999999999,1839.3599999999999,-284.01400000000001,402.649,-104.92700000000001
5442.0,5232.3299999999999,-4128.2700000000004,52.453699999999998,1712.6300000000001,-220.227,63.791499999999999,-121.379
5443.0,5269.6400000000003,-4300.6899999999996,-3.5836600000000001,1545.6099999999999,-199.82900000000001,-156.40000000000001,-133.815
5444.0,5451.1300000000001,-4537.29,-12.670299999999999,1438.51,-175.62,-384.125,-108.76900000000001
5445.0,5698.8199999999997,-4804.8100000000004,-14.3246,1319.46,-147.56399999999999,-651.07000000000005,-86.238399999999999
5446.0,6001.5900000000001,-5096.6400000000003,-44.2746,1168.29,-129.32499999999999,-971.66200000000003,-67.229699999999994
5447.0,6335.54,-5368.5299999999997,-86.419700000000006,963.88499999999999,-125.126,-1358.3900000000001,-40.054000000000002
5448.0,8765.0100000000002,-3248.6300000000001,235.911,2733.0300000000002,-652.90099999999995,3999.2800000000002,-402.03899999999999
5449.0,8875.0400000000009,-4194.3199999999997,88.238600000000005,2928.73,-610.08799999999997,3577.6399999999999,-475.35899999999998
5450.0,9143.9799999999996,-5064.3299999999999,26.428799999999999,3245.4499999999998,-615.16099999999994,3123.1300000000001,-428.17399999999998
5451.0,8802.2199999999993,-5339.4300000000003,62.154699999999998,3303.77,-627.01300000000003,2513.9000000000001,-220.19900000000001
5452.0,7643.1800000000003,-5128.6800000000003,5.8122800000000003,2772.6599999999999,-584.56200000000001,1747.0699999999999,-62.030200000000001
5453.0,6636.5200000000004,-4809.5200000000004,-25.101600000000001,2370.98,-467.22800000000001,1046.6400000000001,-46.300600000000003
5454.0,5888.9899999999998,-4486.9499999999998,4.9710900000000002,2076.3200000000002,-323.11900000000003,438.40800000000002,-77.797600000000003
5455.0,5469.8500000000004,-4353.3000000000002,-35.0321,1770.99,-241.762,42.367400000000004,-100.90000000000001
5456.0,5441.6499999999996,-4322.8999999999996,62.097499999999997,1729.1600000000001,-193.49700000000001,-203.82300000000001,-138.08199999999999
5457.0,5594.8999999999996,-4617.75,-20.072199999999999,1525.99,-145.89699999999999,-432.67599999999999,-115.742
5458.0,5814.6099999999997,-4788.8699999999999,49.365900000000003,1464.4200000000001,-114.84,-704.29999999999995,-90.788300000000007
5459.0,6126.7299999999996,-5156.0799999999999,-40.173400000000001,1243.96,-102.10299999999999,-1016.15,-74.984899999999996
5460.0,6502.54,-5337.3599999999997,53.823300000000003,1164.0699999999999,-98.299300000000002,-1410.04,-45.946399999999997
5461.0,9120.2000000000007,-3505.0799999999999,71.040999999999997,2709.6500000000001,-702.55799999999999,4160.7600000000002,-437.62099999999998
5462.0,9231.7900000000009,-4291.9399999999996,182.047,3174.1700000000001,-653.42999999999995,3691.9699999999998,-482.04399999999998
5463.0,9548.1200000000008,-5380.0,-79.508300000000006,3290.9899999999998,-609.85699999999997,3272.0599999999999,-451.22500000000002
5464.0,9329.3799999999992,-5643.6400000000003,28.632899999999999,3540.4200000000001,-592.64200000000005,2667.0999999999999,-268.51299999999998
5465.0,8314.2900000000009,-5600.7299999999996,-97.922899999999998,3022.48,-595.52499999999998,1900.6500000000001,-111.63200000000001
5466.0,7288.1300000000001,-5152.46,56.6524,2744.1599999999999,-471.56,1165.75,-72.191900000000004
5467.0,6383.5900000000001,-4937.5299999999997,-92.083500000000001,2185.6100000000001,-336.14800000000002,482.072,-61.613900000000001
5468.0,5810.6000000000004,-4531.1899999999996,32.981299999999997,1982.54,-262.56900000000002,45.856099999999998,-80.415199999999999
5469.0,5683.1700000000001,-4608.1800000000003,-52.740600000000001,1718.4300000000001,-189.482,-247.49700000000001,-128.322
5470.0,5767.8400000000001,-4737.9499999999998,-26.364699999999999,1592.9000000000001,-127.774,-493.14800000000002,-114.06100000000001
5471.0,5959.0699999999997,-5027.54,-99.680000000000007,1374.1500000000001,-92.638300000000001,-761.76700000000005,-91.320400000000006
5472.0,6273.4200000000001,-5261.1099999999997,-52.8431,1285.8800000000001,-71.216999999999999,-1069.75,-74.998900000000006
5473.0,6662.3699999999999,-5655.2200000000003,-157.01499999999999,1000.86,-47.203899999999997,-1464.77,-47.294899999999998
5474.0,9488.6100000000006,-3557.1999999999998,137.45500000000001,2917.5500000000002,-730.05899999999997,4324.0699999999997,-479.93099999999998
5475.0,9627.0300000000007,-4505.6199999999999,130.92400000000001,3322.9699999999998,-675.26099999999997,3834.1799999999998,-490.62700000000001
5476.0,9868.5900000000001,-5422.71,44.043700000000001,3547.3499999999999,-587.48599999999999,3383.8800000000001,-480.09899999999999
5477.0,9824.9500000000007,-5940.3400000000001,60.219299999999997,3704.2800000000002,-546.96699999999998,2833.1100000000001,-365.34399999999999
5478.0,9093.8099999999995,-6027.0100000000002,-10.823399999999999,3415.0100000000002,-568.19500000000005,2089.9699999999998,-167.096
5479.0,7968.8999999999996,-5741.8999999999996,-56.908999999999999,2909.7600000000002,-459.666,1274.1099999999999,-67.796300000000002
5480.0,6933.5100000000002,-5304.8400000000001,-56.340600000000002,2431.6300000000001,-353.73399999999998,546.57600000000002,-48.374099999999999
5481.0,6247.75,-4917.9899999999998,-28.368400000000001,2089.0500000000002,-298.16199999999998,57.148000000000003,-65.108199999999997
5482.0,5970.6400000000003,-4822.2299999999996,-76.655600000000007,1833.4300000000001,-213.83600000000001,-284.53199999999998,-108.238
5483.0,5933.2700000000004,-4867.75,-69.102199999999996,1647.78,-138.56999999999999,-546.59500000000003,-110.081
5484.0,6103.2200000000003,-5063.8599999999997,-56.691699999999997,1489.95,-84.343199999999996,-814.71500000000003,-97.624700000000004
5485.0,6419.46,-5324.6199999999999,-33.232300000000002,1368.5699999999999,-50.599299999999999,-1125.9300000000001,-75.776600000000002
5486.0,6801.1499999999996,-5609.7799999999997,-42.069600000000001,1181.49,-6.3112199999999996,-1520.8399999999999,-51.007599999999996
5487.0,9852.9500000000007,-3730.6900000000001,78.807100000000005,3016.5799999999999,-754.67899999999997,4479.04,-533.05799999999999
5488.0,10053.9,-4686.3599999999997,119.501,3495.3099999999999,-661.09400000000005,4009.1999999999998,-526.62099999999998
5489.0,10201.6,-5650.9700000000003,12.385999999999999,3636.7399999999998,-560.86500000000001,3494.6199999999999,-501.71100000000001
5490.0,10271.6,-6333.2799999999997,21.119700000000002,3752.6900000000001,-528.73299999999995,2944.71,-460.93000000000001
5491.0,9877.1399999999994,-6764.0299999999997,-209.58099999999999,3506.8800000000001,-546.39200000000005,2262.8600000000001,-236.88999999999999
5492.0,8661.1100000000006,-6231.4200000000001,-99.036000000000001,3175.2600000000002,-480.54399999999998,1403.26,-52.161200000000001
5493.0,7480.6800000000003,-5799.8000000000002,-193.58099999999999,2547.5999999999999,-393.22399999999999,626.221,-54.0077
5494.0,6738.2299999999996,-5328.3199999999997,-120.872,2243.8099999999999,-342.40899999999999,80.699100000000001,-55.528500000000001
5495.0,6302.1899999999996,-5079.8500000000004,-127.626,1956.53,-273.66899999999998,-307.87200000000001,-79.855099999999993
5496.0,6151.3100000000004,-4949.0600000000004,-20.5243,1803.8299999999999,-175.726,-603.14700000000005,-121.74299999999999
5497.0,6266.3999999999996,-5210.5100000000002,-109.232,1511.9400000000001,-80.472099999999998,-874.41999999999996,-105.173
5498.0,6556.4300000000003,-5433.6899999999996,-78.896100000000004,1394.3,-35.690600000000003,-1187.9200000000001,-74.626300000000001
5499.0,6929.6000000000004,-5810.5500000000002,-205.851,1112.8199999999999,18.439800000000002,-1577.3299999999999,-63.644199999999998
5500.0,10258.200000000001,-3877.6399999999999,96.906400000000005,3198.3600000000001,-774.07000000000005,4640.3900000000003,-603.16700000000003
5501.0,10474.5,-4951.1199999999999,55.470999999999997,3586.46,-650.04399999999998,4173.6099999999997,-571.11300000000006
5502.0,10586.6,-5878.8900000000003,23.075700000000001,3771.27,-541.23000000000002,3620.0999999999999,-541.02499999999998
5503.0,10707.6,-6667.1300000000001,9.5157900000000009,3878.8200000000002,-486.83600000000001,3043.54,-506.27300000000002
5504.0,10527.9,-7073.4899999999998,-49.067100000000003,3896.8299999999999,-466.17200000000003,2401.04,-294.46800000000002
5505.0,9415.0400000000009,-6605.6800000000003,38.479500000000002,3626.6999999999998,-457.46300000000002,1543.1600000000001,-58.423400000000001
5506.0,8098.8599999999997,-6043.9200000000001,-33.930199999999999,3003.6199999999999,-427.70999999999998,692.20000000000005,-30.947199999999999
5507.0,7265.1000000000004,-5595.8199999999997,-30.429400000000001,2577.3400000000001,-381.90800000000002,121.783,-64.270300000000006
5508.0,6780.2399999999998,-5272.7399999999998,50.737000000000002,2308.4299999999998,-275.03199999999998,-296.76100000000002,-91.857100000000003
5509.0,6505.3299999999999,-5107.5299999999997,104.479,2017.02,-137.733,-693.39700000000005,-98.429299999999998
5510.0,6459.1800000000003,-5322.6800000000003,-80.955100000000002,1585.6300000000001,-51.969200000000001,-950.18700000000001,-71.455799999999996
5511.0,6710.7799999999997,-5473.6499999999996,-33.916699999999999,1513.3599999999999,-19.4131,-1240.51,-71.2012
5512.0,7115.1499999999996,-5763.8000000000002,-73.622100000000003,1331.1700000000001,44.525199999999998,-1658.8099999999999,-80.383399999999995
5513.0,10675.1,-4081.27,77.941400000000002,3366.7399999999998,-776.149,4794.79,-679.846
5514.0,10872.700000000001,-5158.9399999999996,49.705399999999997,3734.3099999999999,-642.495,4317.8400000000001,-618.83399999999995
5515.0,11001.1,-6186.1499999999996,-31.249199999999998,3880.1199999999999,-534.62699999999995,3736.1199999999999,-587.41300000000001
5516.0,11117.4,-6940.8199999999997,-28.557300000000001,4027.6900000000001,-456.88799999999998,3155.4499999999998,-525.81299999999999
5517.0,10995.0,-7410.1899999999996,-93.349900000000005,4013.79,-376.43799999999999,2552.3800000000001,-393.36500000000001
5518.0,10197.0,-7241.29,-45.158299999999997,3817.2199999999998,-343.149,1738.6199999999999,-141.28899999999999
5519.0,8918.0799999999999,-6535.7200000000003,112.324,3419.0300000000002,-340.67899999999997,830.55600000000004,12.9215
5520.0,7922.8100000000004,-5948.2200000000003,180.459,2967.1500000000001,-308.30500000000001,156.81999999999999,-47.7806
5521.0,7398.6800000000003,-5922.9700000000003,-77.141099999999994,2347.8600000000001,-208.97,-337.24200000000002,-112.193
5522.0,6958.6400000000003,-5837.0799999999999,-249.71199999999999,1773.5699999999999,-110.11799999999999,-766.76499999999999,-41.802500000000002
5523.0,6687.8500000000004,-5559.4700000000003,-112.422,1586.8199999999999,-55.223300000000002,-983.49900000000002,-30.127700000000001
5524.0,6950.1700000000001,-5700.0,-87.503399999999999,1540.7,9.0256000000000007,-1290.23,-83.995099999999994
5525.0,7361.8999999999996,-5973.0799999999999,-153.17599999999999,1330.1500000000001,95.397599999999997,-1775.0699999999999,-66.609899999999996
5526.0,11049.9,-4205.2600000000002,127.346,3588.8899999999999,-764.30499999999995,4930.1099999999997,-747.91399999999999
5527.0,11283.6,-5408.0100000000002,4.0887700000000002,3886.3899999999999,-631.98299999999995,4449.6999999999998,-670.36699999999996
5528.0,11390.6,-6356.5,-1.63378,4102.4300000000003,-514.62800000000004,3850.0999999999999,-625.16200000000003
5529.0,11500.1,-7115.3900000000003,-13.2483,4253.5100000000002,-411.37099999999998,3257.5,-566.52499999999998
5530.0,11386.700000000001,-7604.7799999999997,-20.8749,4262.3800000000001,-326.91899999999998,2600.3099999999999,-485.25200000000001
5531.0,10850.6,-7910.6700000000001,-226.40799999999999,3842.9099999999999,-273.697,1858.26,-302.82999999999998
5532.0,9779.5300000000007,-7628.8999999999996,-336.661,3255.98,-263.37900000000002,1021.12,-83.300899999999999
5533.0,8742.9200000000001,-7051.6400000000003,-279.779,2788.8699999999999,-260.63799999999998,241.404,-39.742899999999999
5534.0,8077.3900000000003,-6590.0799999999999,-206.709,2442.3000000000002,-192.89099999999999,-386.74900000000002,-56.669899999999998
5535.0,7378.3000000000002,-6084.8999999999996,-175.399,1983.29,-134.64099999999999,-825.80600000000004,9.1972400000000007
5536.0,6942.9099999999999,-5798.3199999999997,-155.78299999999999,1636.6900000000001,-80.404799999999994,-1001.74,-54.6877
5537.0,7273.1700000000001,-6024.3500000000004,-189.25299999999999,1558.51,35.255299999999998,-1360.8499999999999,-112.681
5538.0,7628.5200000000004,-6155.3900000000003,-176.39400000000001,1376.9200000000001,126.35899999999999,-1888.21,-25.303699999999999
5539.0,11398.4,-4392.0299999999997,100.786,3739.6199999999999,-750.67100000000005,5052.6700000000001,-789.60500000000002
5540.0,11684.9,-5602.3199999999997,-7.2546499999999998,4089.1399999999999,-608.94600000000003,4576.5100000000002,-727.28599999999994
5541.0,11763.1,-6499.7399999999998,0.168875,4331.1999999999998,-489.14299999999997,3965.1500000000001,-664.98500000000001
5542.0,11854.299999999999,-7299.6000000000004,-46.007399999999997,4447.21,-371.54899999999998,3343.73,-625.30899999999997
5543.0,11794.5,-7874.0900000000001,-72.9345,4460.5299999999997,-267.42599999999999,2660.5799999999999,-542.59299999999996
5544.0,11346.5,-8161.2700000000004,-127.801,4207.8400000000001,-229.53299999999999,1826.1300000000001,-372.68599999999998
5545.0,10538.299999999999,-8072.4700000000003,-204.56200000000001,3683.5300000000002,-298.86099999999999,1010.89,-191.929
5546.0,9644.8299999999999,-7597.1800000000003,-165.59299999999999,3263.6100000000001,-304.16000000000003,289.77800000000002,-83.554100000000005
5547.0,8735.5,-6974.8800000000001,-147.48400000000001,2832.73,-168.691,-356.56299999999999,-3.4398599999999999
5548.0,7740.04,-6214.0200000000004,-106.627,2284.2399999999998,-121.729,-863.52599999999995,52.718000000000004
5549.0,7247.3199999999997,-5882.6400000000003,-87.592100000000002,1891.23,-119.374,-1078.23,-95.517499999999998
5550.0,7605.6499999999996,-6259.4099999999999,-232.23400000000001,1678.04,44.702800000000003,-1447.8099999999999,-143.71299999999999
5551.0,7846.6300000000001,-6358.4799999999996,-258.28199999999998,1365.75,156.60300000000001,-1978.1199999999999,11.5694
5552.0,11757.6,-4559.2600000000002,42.8934,3876.5100000000002,-715.60799999999995,5198.8999999999996,-836.59699999999998
5553.0,12040.700000000001,-5718.4899999999998,15.1525,4328.6899999999996,-568.59400000000005,4689.4799999999996,-779.05999999999995
5554.0,12159.6,-6674.3199999999997,-25.0091,4552.3699999999999,-460.14999999999998,4085.0999999999999,-719.57299999999998
5555.0,12214.799999999999,-7425.8500000000004,-15.8499,4726.5699999999997,-333.327,3413.4499999999998,-676.74800000000005
5556.0,12184.799999999999,-8080.6999999999998,-113.44199999999999,4715.7799999999997,-212.60599999999999,2709.6599999999999,-586.39499999999998
5557.0,11784.0,-8284.7099999999991,-67.099599999999995,4597.8699999999999,-140.39500000000001,1888.6500000000001,-398.40600000000001
5558.0,11158.4,-8200.0300000000007,13.9114,4286.3699999999999,-154.465,1068.9200000000001,-253.82499999999999
5559.0,10402.1,-7910.25,-43.7836,3858.2399999999998,-158.55500000000001,308.03800000000001,-116.38500000000001
5560.0,9314.3099999999995,-7276.1999999999998,-142.94999999999999,3234.3600000000001,-89.870000000000005,-342.09300000000002,11.7639
5561.0,8197.0400000000009,-6488.0900000000001,-124.155,2563.6500000000001,-95.933899999999994,-880.25199999999995,58.808500000000002
5562.0,7738.3500000000004,-6081.6099999999997,-15.6439,2248.23,-106.782,-1179.6500000000001,-80.651899999999998
5563.0,7892.5200000000004,-6301.6700000000001,-167.785,1923.9200000000001,86.567599999999999,-1571.6400000000001,-98.436099999999996
5564.0,7936.9499999999998,-6355.1000000000004,-271.79300000000001,1437.0,187.583,-2046.4100000000001,38.685499999999998
5565.0,12115.4,-4690.1499999999996,2.3511500000000001,4030.79,-692.54100000000005,5346.54,-901.39599999999996
5566.0,12403.0,-5864.9099999999999,-20.286300000000001,4503.9799999999996,-532.50999999999999,4824.6000000000004,-833.05799999999999
5567.0,12564.9,-6810.0799999999999,5.3567900000000002,4828.0,-416.90499999999997,4200.2700000000004,-785.52700000000004
5568.0,12627.0,-7656.2200000000003,-77.244200000000006,4952.7200000000003,-282.13499999999999,3502.7399999999998,-714.44799999999998
5569.0,12528.9,-8170.4799999999996,-81.953400000000002,5031.5200000000004,-140.42099999999999,2760.21,-612.375
5570.0,12175.0,-8477.5,-117.098,4856.6400000000003,-65.468400000000003,1939.75,-487.47500000000002
5571.0,11744.299999999999,-8692.1599999999999,-234.16,4482.79,-53.393799999999999,1134.9000000000001,-352.32900000000001
5572.0,11084.1,-8409.2900000000009,-231.34700000000001,4180.7600000000002,-44.198700000000002,350.57799999999997,-136.72
5573.0,9910.2900000000009,-7601.7700000000004,-153.49700000000001,3623.3600000000001,-21.196899999999999,-336.29500000000002,15.9459
5574.0,8756.0599999999995,-6939.3500000000004,-245.52799999999999,2774.48,-69.734200000000001,-914.66099999999994,18.784500000000001
5575.0,8373.3099999999995,-6685.4399999999996,-287.57400000000001,2399.46,-75.010099999999994,-1256.3299999999999,-73.473500000000001
5576.0,8199.1000000000004,-6504.0500000000002,-259.40199999999999,2070.0799999999999,116.367,-1654.8699999999999,2.2775699999999999
5577.0,7990.4700000000003,-6244.0299999999997,-181.95099999999999,1586.4000000000001,213.02799999999999,-2089.6900000000001,71.309299999999993
5578.0,12454.0,-4761.1099999999997,36.471299999999999,4251.71,-668.67700000000002,5475.5100000000002,-967.73199999999997
5579.0,12793.5,-6000.8599999999997,-19.7667,4705.71,-501.98700000000002,4968.4399999999996,-911.82500000000005
5580.0,12995.299999999999,-7018.7700000000004,-23.550699999999999,5060.8199999999997,-361.70699999999999,4319.8699999999999,-846.58100000000002
5581.0,13038.799999999999,-7853.4899999999998,-125.84999999999999,5199.8299999999999,-216.82499999999999,3603.5999999999999,-747.697
5582.0,12865.9,-8278.0799999999999,-87.783600000000007,5306.5900000000001,-75.534800000000004,2821.1399999999999,-651.90200000000004
5583.0,12603.6,-8702.3099999999995,-160.33099999999999,5150.5200000000004,-2.3495599999999999,1948.04,-557.21900000000005
5584.0,12300.299999999999,-8891.7399999999998,-182.792,4950.7200000000003,23.804600000000001,1135.1300000000001,-418.02499999999998
5585.0,11707.1,-8736.7299999999996,-270.13799999999998,4589.8900000000003,61.236400000000003,399.14400000000001,-195.96600000000001
5586.0,10559.4,-7968.1300000000001,-173.44399999999999,4027.4000000000001,63.343600000000002,-336.80099999999999,-17.639500000000002
5587.0,9453.7700000000004,-7337.3900000000003,-238.251,3179.0999999999999,-60.300600000000003,-1004.4,4.1300499999999998
5588.0,9091.6700000000001,-6868.1599999999999,-54.264800000000001,3035.8099999999999,-49.665500000000002,-1366.47,-73.628299999999996
5589.0,8610.8400000000001,-6740.5900000000001,-265.99099999999999,2283.1900000000001,175.19,-1743.75,54.015900000000002
5590.0,8145.2700000000004,-6310.3299999999999,-181.28,1670.3800000000001,271.92200000000003,-2139.5300000000002,126.413
5591.0,12803.9,-4891.1300000000001,21.124400000000001,4421.7700000000004,-640.91999999999996,5611.0799999999999,-1023.1799999999999
5592.0,13190.700000000001,-6182.9200000000001,-45.863399999999999,4892.25,-463.185,5099.1499999999996,-998.87599999999998
5593.0,13429.200000000001,-7235.0699999999997,-87.880200000000002,5279.5500000000002,-302.10599999999999,4449.0200000000004,-900.80399999999997
5594.0,13423.299999999999,-7962.9200000000001,-128.06399999999999,5498.0500000000002,-152.31,3703.9400000000001,-783.09299999999996
5595.0,13226.200000000001,-8421.0900000000001,-120.8,5575.3900000000003,-22.212599999999998,2875.0500000000002,-710.14099999999996
5596.0,13067.700000000001,-8878.0300000000007,-186.35900000000001,5513.1800000000003,71.6751,2005.55,-609.221
5597.0,12778.799999999999,-9040.1000000000004,-202.339,5385.9499999999998,114.229,1147.3299999999999,-442.04700000000003
5598.0,12198.799999999999,-8865.1599999999999,-243.672,5051.6599999999999,154.46100000000001,406.22899999999998,-270.84399999999999
5599.0,11225.299999999999,-8351.6000000000004,-209.80000000000001,4424.2600000000002,165.18700000000001,-365.88499999999999,-99.901600000000002
5600.0,10321.1,-7784.8599999999997,-143.78100000000001,3744.1700000000001,58.657299999999999,-1049.4300000000001,-13.544499999999999
5601.0,9898.0400000000009,-7327.0900000000001,-18.576599999999999,3488.79,139.62899999999999,-1478.9200000000001,-21.8901
5602.0,9068.9300000000003,-7049.04,-335.00900000000001,2404.8699999999999,278.95600000000002,-1912.26,142.65799999999999
5603.0,8368.6000000000004,-6619.1099999999997,-374.56799999999998,1609.3900000000001,263.89400000000001,-2190.5,191.739
5604.0,13222.200000000001,-5101.4200000000001,-56.170900000000003,4561.75,-613.43100000000004,5777.3299999999999,-1077.9200000000001
5605.0,13562.9,-6308.9899999999998,-44.511299999999999,5134.8500000000004,-422.79199999999997,5214.0200000000004,-1055.4300000000001
5606.0,13821.5,-7408.7299999999996,-170.47399999999999,5482.2200000000003,-253.72399999999999,4574.8000000000002,-964.70399999999995
5607.0,13803.6,-8011.7600000000002,-100.39,5837.6899999999996,-97.129099999999994,3810.6900000000001,-840.51999999999998
5608.0,13629.9,-8607.2600000000002,-190.58199999999999,5851.3500000000004,31.198899999999998,2932.5900000000001,-768.58100000000002
5609.0,13509.700000000001,-8974.5200000000004,-168.334,5930.6499999999996,145.185,2057.0300000000002,-658.02800000000002
5610.0,13250.299999999999,-9220.0799999999999,-280.536,5768.9799999999996,201.05000000000001,1179.3499999999999,-477.279
5611.0,12682.5,-8898.0,-146.893,5599.1300000000001,249.14599999999999,393.12299999999999,-323.411
5612.0,11814.0,-8718.9099999999999,-323.52600000000001,4740.46,280.35599999999999,-430.16800000000001,-214.63
5613.0,11206.700000000001,-8490.5,-390.274,4070.9000000000001,190.60400000000001,-1123.8299999999999,-115.364
5614.0,10681.0,-8218.7800000000007,-541.90599999999995,3490.8600000000001,256.815,-1605.02,21.253
5615.0,9459.0799999999999,-7389.8100000000004,-541.548,2502.0999999999999,286.363,-2003.6800000000001,243.35300000000001
5616.0,8603.3299999999999,-6678.75,-334.44299999999998,1882.1900000000001,238.91300000000001,-2195.1700000000001,233.02500000000001
5617.0,13673.1,-5253.1700000000001,-88.748900000000006,4782.7399999999998,-593.96400000000006,5955.5500000000002,-1144.4100000000001
5618.0,13917.5,-6414.6599999999999,-98.352199999999996,5354.54,-386.51999999999998,5341.1499999999996,-1094.3199999999999
5619.0,14160.4,-7406.4099999999999,-127.563,5816.1899999999996,-208.60400000000001,4676.21,-1034.8099999999999
5620.0,14189.0,-8141.5500000000002,-157.065,6105.8800000000001,-48.905299999999997,3905.4099999999999,-927.74099999999999
5621.0,14075.6,-8703.2900000000009,-186.536,6253.8999999999996,93.6434,3010.1100000000001,-826.49199999999996
5622.0,13922.0,-9118.7000000000007,-239.488,6261.6199999999999,223.24600000000001,2111.1500000000001,-700.65300000000002
5623.0,13720.200000000001,-9305.5200000000004,-269.37700000000001,6229.29,302.24799999999999,1221.4300000000001,-543.73299999999995
5624.0,13209.700000000001,-9173.6100000000006,-288.45499999999998,5949.8000000000002,355.601,372.22899999999998,-370.47699999999998
5625.0,12401.299999999999,-8898.6499999999996,-305.19200000000001,5241.7299999999996,326.45100000000002,-560.53800000000001,-286.57400000000001
5626.0,12035.4,-8856.2900000000009,-452.88200000000001,4652.1700000000001,225.048,-1296.3299999999999,-162.72300000000001
5627.0,11303.6,-8195.7999999999993,-358.14499999999998,4219.3000000000002,275.803,-1757.3900000000001,79.674999999999997
5628.0,9788.1800000000003,-7266.8800000000001,-382.452,3030.4099999999999,249.92699999999999,-2071.1199999999999,267.024
5629.0,8906.0900000000001,-6725.8699999999999,-313.858,2252.27,236.44300000000001,-2224.9499999999998,221.05099999999999
5630.0,14075.6,-5361.9700000000003,-108.44799999999999,5031.5699999999997,-572.01499999999999,6102.8000000000002,-1209.3299999999999
5631.0,14290.700000000001,-6420.8900000000003,-83.293899999999994,5663.6400000000003,-361.86700000000002,5484.3000000000002,-1152.46
5632.0,14478.9,-7434.9099999999999,-157.846,6093.9899999999998,-164.03200000000001,4773.3299999999999,-1105.55
5633.0,14572.200000000001,-8201.8099999999995,-163.96700000000001,6455.6700000000001,4.9705700000000004,3982.73,-1021.21
5634.0,14520.4,-8858.1200000000008,-274.67599999999999,6588.6199999999999,156.47200000000001,3093.0700000000002,-889.827
5635.0,14332.799999999999,-9150.7000000000007,-226.126,6701.8199999999997,286.72399999999999,2159.8899999999999,-755.61099999999999
5636.0,14172.700000000001,-9471.1299999999992,-384.83600000000001,6591.8999999999996,390.50900000000001,1245.03,-613.20000000000005
5637.0,13733.700000000001,-9243.5900000000001,-247.577,6497.9300000000003,448.23099999999999,339.10700000000003,-429.67899999999997
5638.0,13116.4,-9174.2299999999996,-355.73000000000002,5804.29,402.51900000000001,-641.78599999999994,-308.11700000000002
5639.0,12764.4,-8843.5699999999997,-309.77199999999999,5532.3400000000001,344.53199999999998,-1382.96,-90.964100000000002
5640.0,11733.700000000001,-8054.71,-287.74400000000003,4878.2600000000002,395.35700000000003,-1827.54,133.667
5641.0,10179.4,-7245.8900000000003,-372.22500000000002,3521.5300000000002,320.86900000000003,-2154.5100000000002,265.55399999999997
5642.0,9294.9099999999999,-6831.6999999999998,-358.767,2599.02,279.61900000000003,-2324.3400000000001,231.10300000000001
5643.0,14437.6,-5398.8699999999999,-132.39599999999999,5288.8000000000002,-541.226,6245.3500000000004,-1274.97
5644.0,14660.5,-6449.1800000000003,-94.865799999999993,5953.8699999999999,-329.37299999999999,5616.0699999999997,-1236.0599999999999
5645.0,14836.200000000001,-7478.8800000000001,-194.28299999999999,6393.7299999999996,-125.73699999999999,4879.7600000000002,-1179.0799999999999
5646.0,14943.799999999999,-8229.3299999999999,-179.44900000000001,6831.4499999999998,58.209899999999998,4054.73,-1094.5599999999999
5647.0,14927.700000000001,-8883.0699999999997,-292.07999999999998,7005.3100000000004,220.036,3169.3699999999999,-967.23299999999995
5648.0,14769.4,-9206.5400000000009,-271.822,7150.6499999999996,350.65699999999998,2199.8200000000002,-817.96400000000006
5649.0,14595.299999999999,-9471.9899999999998,-398.46899999999999,7083.5900000000001,462.36599999999999,1269.5999999999999,-670.39700000000005
5650.0,14247.200000000001,-9344.4599999999991,-289.31099999999998,6996.6000000000004,535.43299999999999,303.91500000000002,-512.99000000000001
5651.0,13830.700000000001,-9464.8799999999992,-524.40200000000004,6356.1000000000004,507.37099999999998,-679.29999999999995,-338.60599999999999
5652.0,13395.1,-8962.4599999999991,-411.90699999999998,6181.1800000000003,480.96899999999999,-1386.9300000000001,-52.231000000000002
5653.0,12184.299999999999,-8095.8500000000004,-390.37200000000001,5351.21,489.98200000000003,-1922.7,145.685
5654.0,10674.200000000001,-7444.1599999999999,-543.13699999999994,3879.0599999999999,360.47399999999999,-2282.6700000000001,270.65100000000001
5655.0,9752.5400000000009,-6979.29,-434.75799999999998,2981.8099999999999,310.44299999999998,-2432.8499999999999,259.98500000000001
5656.0,14818.700000000001,-5387.8000000000002,-132.31,5591.5200000000004,-520.22900000000004,6398.3800000000001,-1353.9000000000001
5657.0,15014.4,-6479.4099999999999,-134.136,6238.1899999999996,-297.404,5733.6999999999998,-1321.3
5658.0,15213.9,-7497.8100000000004,-225.12200000000001,6731.6400000000003,-83.383300000000006,4992.4300000000003,-1263.0799999999999
5659.0,15312.9,-8252.7000000000007,-234.47800000000001,7186.04,107.22499999999999,4143.8699999999999,-1166.1099999999999
5660.0,15321.0,-8859.3799999999992,-297.67700000000002,7460.7200000000003,275.25200000000001,3229.9400000000001,-1046.8199999999999
5661.0,15218.299999999999,-9248.9300000000003,-333.291,7616.6499999999996,410.67099999999999,2249.98,-882.36400000000003
5662.0,15033.200000000001,-9410.9899999999998,-358.43099999999998,7650.3800000000001,523.97500000000002,1288.47,-731.11800000000005
5663.0,14780.5,-9466.9599999999991,-389.96800000000002,7496.9399999999996,606.01700000000005,251.20400000000001,-574.07299999999998
5664.0,14462.799999999999,-9437.8500000000004,-480.14600000000002,7125.2700000000004,580.69399999999996,-721.53700000000003,-360.35599999999999
5665.0,13958.5,-9016.1499999999996,-497.399,6792.1999999999998,588.84000000000003,-1411.22,-81.494900000000001
5666.0,12724.700000000001,-8207.1700000000001,-514.27300000000002,5846.8699999999999,579.21000000000004,-2022.23,143.88200000000001
5667.0,11229.700000000001,-7482.6899999999996,-534.61199999999997,4477.5900000000001,405.53899999999999,-2390.4699999999998,287.16399999999999
5668.0,10286.6,-7030.1199999999999,-429.62700000000001,3525.9099999999999,355.68000000000001,-2573.5700000000002,285.15499999999997
5669.0,15213.700000000001,-5416.3699999999999,-171.499,5868.04,-488.73099999999999,6551.5900000000001,-1450.22
5670.0,15399.700000000001,-6460.21,-125.343,6596.4899999999998,-263.73700000000002,5864.4399999999996,-1399.1500000000001
5671.0,15580.1,-7485.8199999999997,-238.88300000000001,7102.6499999999996,-45.362400000000001,5090.1599999999999,-1339.5699999999999
5672.0,15697.700000000001,-8219.6399999999994,-239.631,7611.3500000000004,150.75800000000001,4231.5900000000001,-1246.45
5673.0,15725.6,-8852.7800000000007,-340.77600000000001,7903.8900000000003,330.67700000000002,3295.6700000000001,-1121.6600000000001
5674.0,15657.6,-9226.7000000000007,-356.56400000000002,8121.7399999999998,477.37,2305.3400000000001,-960.86699999999996
5675.0,15530.6,-9484.3099999999995,-441.57900000000001,8143.0100000000002,599.33600000000001,1305.3,-799.22699999999998
5676.0,15325.200000000001,-9474.5699999999997,-413.21600000000001,8116.04,689.24699999999996,250.46600000000001,-606.98699999999997
5677.0,15054.200000000001,-9436.8700000000008,-526.51700000000005,7812.5900000000001,672.63499999999999,-732.90700000000004,-375.149
5678.0,14499.4,-8938.2000000000007,-491.13299999999998,7485.9399999999996,681.30100000000004,-1465.3299999999999,-96.334699999999998
5679.0,13244.700000000001,-8149.75,-505.04500000000002,6473.0,640.39099999999996,-2134.04,126.92700000000001
5680.0,11868.0,-7517.3500000000004,-531.18299999999999,5162.8599999999997,465.06599999999997,-2514.3099999999999,275.13600000000002
5681.0,10891.700000000001,-7121.8900000000003,-495.05500000000001,4086.6599999999999,427.43599999999998,-2737.5100000000002,331.95999999999998
5682.0,15610.4,-5373.8500000000004,-154.96899999999999,6212.1099999999997,-454.952,6705.21,-1546.8399999999999
5683.0,15806.1,-6501.6300000000001,-194.87100000000001,6895.5900000000001,-218.84700000000001,6008.1400000000003,-1486.3499999999999
5684.0,15959.9,-7449.7600000000002,-250.78100000000001,7487.0100000000002,1.84575,5205.4499999999998,-1417.1099999999999
5685.0,16095.1,-8226.5400000000009,-298.02600000000001,8002.2200000000003,204.54499999999999,4322.9799999999996,-1328.8900000000001
5686.0,16145.6,-8803.2399999999998,-341.89999999999998,8393.9899999999998,386.55700000000002,3370.1300000000001,-1201.6600000000001
5687.0,16117.6,-9222.0499999999993,-402.096,8632.6100000000006,542.98800000000006,2348.1700000000001,-1040.7
5688.0,16027.9,-9420.6299999999992,-443.33499999999998,8763.8700000000008,679.39800000000002,1324.3,-861.63300000000004
5689.0,15845.1,-9485.9699999999993,-501.13999999999999,8689.1599999999999,773.87,270.64999999999998,-655.68899999999996
5690.0,15650.0,-9380.5,-544.29600000000005,8547.3500000000004,774.03599999999994,-725.48599999999999,-396.983
5691.0,15021.5,-8874.9400000000005,-538.10500000000002,8136.5799999999999,793.279,-1489.03,-105.04600000000001
5692.0,13800.700000000001,-8155.8299999999999,-567.47199999999998,7074.3199999999997,747.58799999999997,-2220.0799999999999,94.804100000000005
5693.0,12579.4,-7601.25,-591.06500000000005,5842.8800000000001,570.22699999999998,-2671.9499999999998,262.54000000000002
5694.0,11566.299999999999,-7227.7399999999998,-568.57500000000005,4707.1199999999999,523.26199999999994,-2898.0500000000002,388.12299999999999
5695.0,16030.5,-5430.9799999999996,-242.99100000000001,6470.96,-427.98200000000003,6868.4799999999996,-1640.7
5696.0,16202.6,-6458.1800000000003,-194.00999999999999,7275.0,-185.83199999999999,6141.7200000000003,-1575.3499999999999
5697.0,16368.299999999999,-7463.2200000000003,-316.39600000000002,7845.3000000000002,39.168599999999998,5325.8999999999996,-1505.4400000000001
5698.0,16496.299999999999,-8153.21,-297.75299999999999,8466.0300000000007,253.47200000000001,4418.5500000000002,-1415.4100000000001
5699.0,16576.400000000001,-8800.6200000000008,-414.18299999999999,8839.2000000000007,449.20400000000001,3443.7399999999998,-1295.46
5700.0,16601.900000000001,-9186.9699999999993,-444.20299999999997,9183.6100000000006,615.06500000000005,2408.5700000000002,-1122.4000000000001
5701.0,16521.799999999999,-9395.2199999999993,-518.57000000000005,9331.2600000000002,746.23900000000003,1354.47,-921.29100000000005
5702.0,16357.799999999999,-9395.7600000000002,-524.12300000000005,9345.5699999999997,840.95000000000005,287.53199999999998,-714.49599999999998
5703.0,16218.1,-9387.9699999999993,-662.976,9172.0300000000007,887.779,-689.03999999999996,-437.87799999999999
5704.0,15550.700000000001,-8759.0799999999999,-541.95000000000005,8826.5300000000007,893.74300000000005,-1538.3699999999999,-138.107
5705.0,14407.4,-8225.0300000000007,-717.52599999999995,7645.9200000000001,819.72199999999998,-2341.5799999999999,56.2288
5706.0,13290.4,-7610.7200000000003,-659.48800000000006,6575.0100000000002,646.923,-2843.1100000000001,246.30099999999999
5707.0,12243.700000000001,-7361.2700000000004,-719.09000000000003,5308.3699999999999,622.07799999999997,-3042.54,404.76400000000001
5708.0,16452.099999999999,-5403.5699999999997,-258.22699999999998,6821.2700000000004,-403.15199999999999,7026.2799999999997,-1737.6700000000001
5709.0,16617.200000000001,-6417.7399999999998,-208.78700000000001,7654.7600000000002,-152.67699999999999,6284.0699999999997,-1671.6800000000001
5710.0,16782.900000000001,-7432.6400000000003,-352.89100000000002,8255.8199999999997,81.889600000000002,5439.7200000000003,-1601.53
5711.0,16918.599999999999,-8099.54,-325.52499999999998,8928.5,296.51999999999998,4514.54,-1507.55
5712.0,17018.799999999999,-8778.3400000000001,-477.98700000000002,9323.1499999999996,491.63200000000001,3505.0300000000002,-1383.9300000000001
5713.0,17080.0,-9108.7800000000007,-472.947,9765.4200000000001,666.65999999999997,2463.7199999999998,-1206.22
5714.0,17025.5,-9369.7099999999991,-607.24000000000001,9898.8299999999999,804.02300000000002,1385.1400000000001,-992.67100000000005
5715.0,16896.099999999999,-9312.2600000000002,-554.52499999999998,10014.9,899.24300000000005,311.90600000000001,-771.93899999999996
5716.0,16724.0,-9290.0499999999993,-715.33500000000004,9815.5200000000004,978.947,-673.05200000000002,-494.45600000000002
5717.0,16130.0,-8731.5499999999993,-628.96199999999999,9471.4799999999996,995.548,-1590.25,-187.22399999999999
5718.0,15078.200000000001,-8178.6800000000003,-766.39200000000005,8396.0599999999995,888.23800000000006,-2461.0999999999999,46.049399999999999
5719.0,14020.299999999999,-7485.8299999999999,-651.07799999999997,7438.6700000000001,699.11599999999999,-3026.3200000000002,243.983
5720.0,12889.799999999999,-7268.2799999999997,-757.779,6043.3000000000002,683.44200000000001,-3233.3299999999999,392.29700000000003
5721.0,16870.0,-5350.1800000000003,-281.54399999999998,7186.4700000000003,-379.19400000000002,7180.1800000000003,-1842.46
5722.0,17039.900000000001,-6361.6999999999998,-238.83199999999999,8060.71,-116.568,6419.3599999999997,-1779.9400000000001
5723.0,17204.700000000001,-7365.3400000000001,-380.26499999999999,8705.7900000000009,118.39,5552.6199999999999,-1698.22
5724.0,17361.099999999999,-8048.71,-361.03199999999998,9407.0300000000007,336.17099999999999,4610.4399999999996,-1601.25
5725.0,17491.0,-8714.6200000000008,-506.13600000000002,9865.7000000000007,539.94000000000005,3582.0900000000001,-1469.1300000000001
5726.0,17560.299999999999,-9013.7299999999996,-500.73500000000001,10357.700000000001,718.50199999999995,2518.8899999999999,-1286.8399999999999
5727.0,17540.5,-9249.5799999999999,-622.87199999999996,10563.5,860.274,1410.9200000000001,-1067.5899999999999
5728.0,17433.0,-9215.7099999999991,-609.12,10680.4,966.77300000000002,338.83800000000002,-830.53700000000003
5729.0,17221.200000000001,-9185.75,-782.60599999999999,10441.299999999999,1067.72,-663.51099999999997,-554.50099999999998
5730.0,16706.599999999999,-8609.7800000000007,-654.33900000000006,10192.200000000001,1098.8099999999999,-1642.5999999999999,-238.19900000000001
5731.0,15798.5,-8105.5600000000004,-820.66099999999994,9214.8799999999992,966.19299999999998,-2575.46,30.180299999999999
5732.0,14823.700000000001,-7378.5299999999997,-692.59500000000003,8362.5699999999997,775.57600000000002,-3188.1599999999999,261.39999999999998
5733.0,13574.299999999999,-7093.0200000000004,-800.03300000000002,6838.4099999999999,714.74699999999996,-3472.6100000000001,422.56099999999998
5734.0,17309.200000000001,-5239.1800000000003,-268.71800000000002,7627.0100000000002,-364.68599999999998,7335.3599999999997,-1957.3900000000001
5735.0,17461.5,-6322.0799999999999,-302.78899999999999,8456.8799999999992,-93.129800000000003,6545.6099999999997,-1884.3599999999999
5736.0,17655.099999999999,-7288.9899999999998,-393.48899999999998,9184.5499999999993,148.82499999999999,5674.3500000000004,-1799.0899999999999
5737.0,17817.0,-8007.75,-426.72800000000001,9885.6200000000008,379.435,4703.9399999999996,-1696.78
5738.0,17966.099999999999,-8614.1200000000008,-536.72400000000005,10430.799999999999,588.75900000000001,3664.4200000000001,-1563.6199999999999
5739.0,18060.5,-8941.1800000000003,-559.96100000000001,10936.200000000001,773.05100000000004,2577.71,-1377.8900000000001
5740.0,18080.900000000001,-9171.0400000000009,-682.12400000000002,11200.200000000001,923.25999999999999,1452.4400000000001,-1142.3299999999999
5741.0,17965.299999999999,-9072.4300000000003,-652.10400000000004,11375.700000000001,1031.28,351.88799999999998,-883.67999999999995
5742.0,17698.599999999999,-8986.3199999999997,-827.38099999999997,11122.6,1139.22,-663.78700000000003,-620.87599999999998
5743.0,17259.0,-8515.0,-764.42899999999997,10847.1,1210.5899999999999,-1660.75,-319.185
5744.0,16589.299999999999,-8038.4099999999999,-862.13,10091.9,1077.5599999999999,-2684.5799999999999,-0.85743999999999998
5745.0,15700.6,-7292.0,-742.09199999999998,9325.1100000000006,855.04100000000005,-3360.5100000000002,287.78100000000001
5746.0,14382.200000000001,-6957.9399999999996,-860.42100000000005,7731.4499999999998,733.07899999999995,-3702.3699999999999,491.416
5747.0,17763.900000000001,-5186.3900000000003,-290.99200000000002,8047.96,-352.98000000000002,7483.2799999999997,-2070.21
5748.0,17913.0,-6274.8299999999999,-343.16000000000003,8883.9200000000001,-73.322000000000003,6681.6700000000001,-1989.05
5749.0,18109.200000000001,-7200.9300000000003,-415.73599999999999,9678.4200000000001,186.66999999999999,5787.8100000000004,-1908.0
5750.0,18293.599999999999,-7915.6000000000004,-466.892,10422.6,419.69200000000001,4804.8000000000002,-1797.3699999999999
5751.0,18452.700000000001,-8480.0400000000009,-539.40800000000002,11040.6,633.21900000000005,3739.0500000000002,-1658.78
5752.0,18576.299999999999,-8868.3500000000004,-632.08399999999995,11526.5,832.41399999999999,2626.79,-1470.6700000000001
5753.0,18615.900000000001,-9024.1000000000004,-701.52099999999996,11884.6,991.56899999999996,1493.71,-1222.4100000000001
5754.0,18522.700000000001,-8989.0100000000002,-772.96699999999998,12023.1,1098.0599999999999,379.73700000000002,-942.83100000000002
5755.0,18197.900000000001,-8723.8700000000008,-815.36300000000006,11883.4,1175.5699999999999,-689.529,-673.03700000000003
5756.0,17769.200000000001,-8388.8299999999999,-876.79899999999998,11466.799999999999,1266.3399999999999,-1719.9100000000001,-423.47500000000002
5757.0,17379.900000000001,-8038.3699999999999,-1001.91,10889.0,1202.01,-2776.9200000000001,-70.582999999999998
5758.0,16640.0,-7282.7399999999998,-835.79600000000005,10281.0,957.346,-3514.3099999999999,301.72899999999998
5759.0,15320.6,-6895.5500000000002,-921.68799999999999,8709.1000000000004,769.79499999999996,-3916.21,565.96900000000005
5760.0,18222.900000000001,-5118.7600000000002,-314.44400000000002,8482.6299999999992,-325.947,7631.3000000000002,-2184.0999999999999
5761.0,18377.799999999999,-6166.6899999999996,-351.05599999999998,9380.7700000000004,-41.494300000000003,6814.7200000000003,-2104.8400000000001
5762.0,18571.099999999999,-7121.9899999999998,-474.11900000000003,10168.299999999999,216.32400000000001,5898.0500000000002,-2014.95
5763.0,18777.400000000001,-7782.1000000000004,-478.28500000000003,11000.200000000001,453.46699999999998,4902.9200000000001,-1907.9300000000001
5764.0,18974.700000000001,-8429.9699999999993,-642.99400000000003,11586.4,685.47500000000002,3823.9200000000001,-1764.4400000000001
5765.0,19095.200000000001,-8680.8999999999996,-628.62900000000002,12223.200000000001,885.36099999999999,2679.21,-1553.9000000000001
5766.0,19140.700000000001,-8964.2199999999993,-842.94200000000001,12460.299999999999,1042.0999999999999,1530.3900000000001,-1305.0999999999999
5767.0,19079.099999999999,-8752.8999999999996,-747.77999999999997,12808.799999999999,1156.23,404.25799999999998,-1020.42
5768.0,18787.700000000001,-8626.5400000000009,-916.81799999999998,12570.200000000001,1231.9300000000001,-707.48099999999999,-731.16899999999998
5769.0,18341.400000000001,-8123.2600000000002,-832.66600000000005,12285.0,1305.0699999999999,-1803.21,-477.13099999999997
5770.0,18048.099999999999,-7959.0200000000004,-1170.6700000000001,11603.0,1265.3,-2881.5300000000002,-141.417
5771.0,17536.5,-7161.8699999999999,-917.43899999999996,11273.1,1038.72,-3668.1799999999998,257.43000000000001
5772.0,16323.200000000001,-6931.1899999999996,-1095.6099999999999,9678.4300000000003,822.79899999999998,-4095.54,602.572
5773.0,18698.799999999999,-4989.6199999999999,-308.44799999999998,8985.0599999999995,-306.51299999999998,7782.46,-2300.5700000000002
5774.0,18845.700000000001,-6113.8800000000001,-437.01600000000002,9828.2999999999993,-23.4589,6941.3400000000001,-2216.0300000000002
5775.0,19058.700000000001,-6970.5500000000002,-457.01799999999997,10746.6,239.822,6015.9200000000001,-2126.4699999999998
5776.0,19288.200000000001,-7741.3100000000004,-565.57100000000003,11521.299999999999,486.03100000000001,4993.2399999999998,-2017.6199999999999
5777.0,19503.599999999999,-8253.6000000000004,-621.25,12270.1,721.65099999999995,3896.8299999999999,-1865.5
5778.0,19635.700000000001,-8650.4699999999993,-777.47299999999996,12781.5,920.14099999999996,2733.4299999999998,-1635.54
5779.0,19673.200000000001,-8675.7999999999993,-768.57500000000005,13264.4,1079.24,1565.9200000000001,-1387.26
5780.0,19631.900000000001,-8699.8799999999992,-920.85900000000004,13392.4,1217.98,416.358,-1112.76
5781.0,19410.299999999999,-8389.8500000000004,-917.91700000000003,13407.5,1304.1900000000001,-740.02200000000005,-802.37900000000002
5782.0,18977.200000000001,-8059.46,-1028.04,12965.799999999999,1330.1800000000001,-1860.47,-509.226
5783.0,18717.400000000001,-7636.1199999999999,-1115.8099999999999,12572.700000000001,1284.0,-2952.4499999999998,-182.476
5784.0,18340.200000000001,-6966.3900000000003,-1009.9400000000001,12197.1,1064.1600000000001,-3840.4099999999999,221.596
5785.0,17300.700000000001,-6709.9899999999998,-1053.1600000000001,10859.299999999999,857.08100000000002,-4273.3000000000002,586.54100000000005
5786.0,19192.900000000001,-4927.3199999999997,-365.43200000000002,9442.2800000000007,-302.40199999999999,7933.6700000000001,-2416.6300000000001
5787.0,19344.400000000001,-5987.0500000000002,-435.43000000000001,10371.6,-9.1729900000000004,7078.5,-2329.6799999999998
5788.0,19565.599999999999,-6902.1999999999998,-520.16899999999998,11262.0,266.86700000000002,6129.7200000000003,-2246.1100000000001
5789.0,19832.299999999999,-7598.1400000000003,-571.67999999999995,12161.5,528.59299999999996,5097.1199999999999,-2126.3800000000001
5790.0,20037.099999999999,-8199.4799999999996,-735.93700000000001,12826.9,762.33600000000001,3973.73,-1956.8099999999999
5791.0,20195.0,-8423.3899999999994,-734.12599999999998,13538.700000000001,963.09500000000003,2800.0799999999999,-1726.9100000000001
5792.0,20237.299999999999,-8611.2399999999998,-926.35299999999995,13871.1,1117.47,1590.6099999999999,-1469.1400000000001
5793.0,20181.299999999999,-8371.0400000000009,-864.98900000000003,14235.700000000001,1256.23,411.82999999999998,-1200.8
5794.0,20028.299999999999,-8296.6700000000001,-1101.6900000000001,14084.4,1344.3299999999999,-768.21400000000006,-873.97900000000004
5795.0,19649.900000000001,-7702.0900000000001,-914.673,13975.6,1335.23,-1914.05,-555.55499999999995
5796.0,19451.799999999999,-7534.5699999999997,-1269.24,13386.4,1318.22,-3008.02,-224.69499999999999
5797.0,19140.299999999999,-6602.3400000000001,-952.88699999999994,13292.200000000001,1102.03,-3968.1300000000001,227.26400000000001
5798.0,18209.5,-6570.7799999999997,-1142.1500000000001,11872.299999999999,928.91499999999996,-4418.0,560.62199999999996
5799.0,19712.700000000001,-4834.04,-380.27100000000002,9952.1000000000004,-293.87299999999999,8090.71,-2539.1900000000001
5800.0,19865.299999999999,-5875.6000000000004,-449.858,10922.9,11.9178,7213.4099999999999,-2452.6300000000001
5801.0,20102.0,-6815.1199999999999,-575.97000000000003,11818.700000000001,293.75700000000001,6249.2200000000003,-2365.6300000000001
5802.0,20376.700000000001,-7474.2799999999997,-615.16300000000001,12778.799999999999,557.91099999999994,5197.3999999999996,-2230.0300000000002
5803.0,20589.700000000001,-8043.25,-762.61500000000001,13494.200000000001,793.52200000000005,4055.9200000000001,-2052.02
5804.0,20754.099999999999,-8290.8400000000001,-813.58199999999999,14187.700000000001,1003.47,2862.54,-1826.73
5805.0,20844.900000000001,-8384.5900000000001,-930.96400000000006,14674.799999999999,1154.95,1617.72,-1553.5999999999999
5806.0,20770.200000000001,-8208.6100000000006,-956.05700000000002,14960.700000000001,1261.3199999999999,404.036,-1259.3900000000001
5807.0,20617.299999999999,-8083.9399999999996,-1165.6300000000001,14844.4,1356.5899999999999,-788.57600000000002,-955.73599999999999
5808.0,20385.299999999999,-7544.4799999999996,-992.53099999999995,14835.4,1378.6099999999999,-1959.4000000000001,-629.18499999999995
5809.0,20207.299999999999,-7332.9799999999996,-1323.71,14307.4,1365.6900000000001,-3062.2199999999998,-278.96300000000002
5810.0,19982.0,-6450.0,-1073.49,14223.1,1129.23,-4089.4299999999998,221.83500000000001
5811.0,19070.200000000001,-6297.2299999999996,-1114.3599999999999,12945.799999999999,972.49099999999999,-4568.8800000000001,513.26099999999997
5812.0,20260.299999999999,-4746.6000000000004,-406.613,10477.9,-273.02800000000002,8252.6700000000001,-2669.9899999999998
5813.0,20411.0,-5798.1800000000003,-500.161,11464.4,33.997100000000003,7351.2399999999998,-2573.9099999999999
5814.0,20662.200000000001,-6689.5,-596.476,12432.6,317.767,6375.2299999999996,-2478.0500000000002
5815.0,20936.799999999999,-7361.9399999999996,-663.71500000000003,13392.200000000001,588.90300000000002,5305.1499999999996,-2330.1399999999999
5816.0,21163.900000000001,-7914.3000000000002,-820.09400000000005,14145.0,827.33799999999997,4142.3299999999999,-2155.1599999999999
5817.0,21337.599999999999,-8082.1800000000003,-821.61699999999996,14936.6,1036.1199999999999,2917.4699999999998,-1922.5699999999999
5818.0,21466.5,-8298.5499999999993,-1072.1099999999999,15344.4,1184.73,1655.1099999999999,-1635.3900000000001
5819.0,21416.299999999999,-7921.4899999999998,-907.49099999999999,15860.5,1281.6800000000001,418.935,-1320.2
5820.0,21240.099999999999,-7863.8400000000001,-1223.8,15638.299999999999,1358.8900000000001,-822.54499999999996,-1030.78
5821.0,21095.599999999999,-7277.5600000000004,-1021.63,15749.6,1397.95,-2025.3900000000001,-713.03800000000001
5822.0,20963.900000000001,-7206.0799999999999,-1470.5,15132.9,1383.1199999999999,-3139.1100000000001,-358.47500000000002
5823.0,20866.900000000001,-6286.9300000000003,-1141.76,15221.299999999999,1168.1500000000001,-4196.0299999999997,182.416
5824.0,19973.5,-6098.1000000000004,-1167.9000000000001,13916.9,987.30200000000002,-4799.8400000000001,473.64400000000001
5825.0,20819.5,-4650.7399999999998,-442.46499999999997,11020.799999999999,-254.197,8412.8799999999992,-2803.1700000000001
5826.0,20987.900000000001,-5672.1300000000001,-523.61000000000001,12064.0,57.270499999999998,7503.6700000000001,-2696.0100000000002
5827.0,21235.200000000001,-6592.3000000000002,-658.84400000000005,13015.700000000001,344.17099999999999,6510.2600000000002,-2587.8600000000001
5828.0,21515.900000000001,-7218.9499999999998,-701.97000000000003,14036.1,622.26700000000005,5421.6999999999998,-2439.9299999999998
5829.0,21761.099999999999,-7748.8500000000004,-858.85900000000004,14847.799999999999,862.18100000000004,4228.0100000000002,-2258.1700000000001
5830.0,21946.099999999999,-7940.75,-902.25099999999998,15636.5,1061.23,2979.7399999999998,-2011.4000000000001
5831.0,22096.200000000001,-8053.79,-1062.48,16167.299999999999,1214.27,1706.5999999999999,-1720.4100000000001
5832.0,22088.0,-7790.8699999999999,-1021.45,16617.400000000001,1304.76,426.99299999999999,-1398.3299999999999
5833.0,21964.700000000001,-7657.9499999999998,-1257.4000000000001,16529.299999999999,1354.51,-853.81200000000001,-1091.76
5834.0,21821.400000000001,-7071.0100000000002,-1096.9400000000001,16624.099999999999,1381.6600000000001,-2089.1900000000001,-765.65899999999999
5835.0,21719.299999999999,-6902.25,-1437.3599999999999,16114.5,1354.1199999999999,-3256.54,-431.149
5836.0,21751.400000000001,-6170.9300000000003,-1264.1700000000001,16145.200000000001,1182.0699999999999,-4332.4300000000003,109.26900000000001
5837.0,20993.099999999999,-5851.1499999999996,-1185.71,15000.5,956.25300000000004,-5099.5,476.01299999999998
5838.0,21403.400000000001,-4547.3699999999999,-475.12200000000001,11586.799999999999,-245.08099999999999,8581.8099999999995,-2932.0700000000002
5839.0,21582.799999999999,-5586.3699999999999,-586.14599999999996,12637.200000000001,69.244200000000006,7661.2299999999996,-2813.0500000000002
5840.0,21826.200000000001,-6446.1999999999998,-682.31100000000004,13652.4,362.68000000000001,6651.7299999999996,-2703.21
5841.0,22116.900000000001,-7069.3699999999999,-746.20699999999999,14699.1,647.64099999999996,5540.0100000000002,-2557.4299999999998
5842.0,22386.299999999999,-7587.0799999999999,-908.572,15566.200000000001,889.25400000000002,4323.2700000000004,-2356.3000000000002
5843.0,22574.5,-7745.75,-930.86800000000005,16403.299999999999,1075.45,3049.7600000000002,-2096.4400000000001
5844.0,22739.799999999999,-7915.6700000000001,-1162.5,16890.400000000001,1228.52,1757.22,-1814.8499999999999
5845.0,22795.200000000001,-7558.7799999999997,-1024.8900000000001,17506.299999999999,1324.3199999999999,439.97300000000001,-1483.5999999999999
5846.0,22752.799999999999,-7468.1000000000004,-1281.99,17468.099999999999,1366.3599999999999,-862.31799999999998,-1159.9100000000001
5847.0,22644.700000000001,-6851.1599999999999,-1095.3599999999999,17627.099999999999,1377.0,-2137.9899999999998,-808.76099999999997
5848.0,22564.099999999999,-6719.6700000000001,-1454.7,17087.099999999999,1335.1300000000001,-3367.21,-459.11900000000003
5849.0,22659.299999999999,-5974.6999999999998,-1288.9100000000001,17155.200000000001,1191.02,-4494.5799999999999,76.374799999999993
5850.0,22081.900000000001,-5662.1000000000004,-1256.24,16117.700000000001,934.64200000000005,-5365.3400000000001,521.45500000000004
5851.0,22014.5,-4429.7600000000002,-494.51499999999999,12182.200000000001,-236.83799999999999,8763.2700000000004,-3055.6900000000001
5852.0,22195.200000000001,-5474.9099999999999,-629.67100000000005,13231.6,83.999700000000004,7831.21,-2935.4099999999999
5853.0,22450.299999999999,-6291.8900000000003,-695.77599999999995,14322.700000000001,382.84199999999998,6798.96,-2827.1999999999998
5854.0,22745.099999999999,-6947.0,-811.44200000000001,15362.9,669.75800000000004,5661.71,-2666.8699999999999
5855.0,23027.5,-7437.25,-958.66700000000003,16280.9,908.35299999999995,4429.7700000000004,-2453.5500000000002
5856.0,23247.5,-7595.7299999999996,-990.84799999999996,17165.200000000001,1087.76,3129.9499999999998,-2184.7199999999998
5857.0,23411.900000000001,-7674.8500000000004,-1139.9300000000001,17749.599999999999,1232.03,1802.8599999999999,-1901.8399999999999
5858.0,23527.599999999999,-7479.5100000000002,-1144.8,18271.900000000001,1332.6400000000001,455.02100000000002,-1577.3699999999999
5859.0,23574.5,-7305.5500000000002,-1299.75,18412.799999999999,1385.5799999999999,-869.62099999999998,-1250.0
5860.0,23545.200000000001,-6784.9799999999996,-1210.02,18554.599999999999,1402.0799999999999,-2180.1199999999999,-878.53599999999994
5861.0,23521.700000000001,-6511.4099999999999,-1435.6099999999999,18208.400000000001,1355.3800000000001,-3449.27,-484.66699999999997
5862.0,23633.5,-5854.5500000000002,-1370.6700000000001,18189.599999999999,1215.1199999999999,-4607.3000000000002,71.288799999999995
5863.0,23193.0,-5403.5900000000001,-1253.9300000000001,17363.700000000001,943.01400000000001,-5573.04,571.32000000000005
5864.0,22643.599999999999,-4297.9200000000001,-522.43499999999995,12781.700000000001,-227.78100000000001,8957.6599999999999,-3181.9699999999998
5865.0,22834.0,-5337.4200000000001,-661.57100000000003,13865.4,98.297300000000007,8005.8199999999997,-3069.3200000000002
5866.0,23100.400000000001,-6148.4899999999998,-741.86199999999997,14995.4,403.15499999999997,6953.0,-2951.2399999999998
5867.0,23399.099999999999,-6803.2600000000002,-862.00599999999997,16056.299999999999,686.91499999999996,5801.4300000000003,-2774.3000000000002
5868.0,23690.599999999999,-7270.2200000000003,-993.70100000000002,17024.900000000001,925.24000000000001,4544.1999999999998,-2553.98
5869.0,23954.0,-7425.8100000000004,-1032.3099999999999,17970.0,1099.1700000000001,3220.0999999999999,-2280.7199999999998
5870.0,24143.200000000001,-7531.96,-1197.2,18570.099999999999,1234.6600000000001,1860.76,-1986.6099999999999
5871.0,24288.799999999999,-7299.6999999999998,-1161.55,19163.299999999999,1342.02,474.08300000000003,-1666.6500000000001
5872.0,24410.599999999999,-7147.5100000000002,-1336.7,19354.299999999999,1405.1199999999999,-893.84699999999998,-1346.8800000000001
5873.0,24476.700000000001,-6663.7200000000003,-1269.6900000000001,19557.700000000001,1423.74,-2236.1700000000001,-967.25999999999999
5874.0,24536.200000000001,-6409.7399999999998,-1502.97,19277.299999999999,1370.48,-3544.52,-528.47900000000004
5875.0,24635.299999999999,-5696.3800000000001,-1393.8399999999999,19301.400000000001,1245.7,-4704.1700000000001,43.178100000000001
5876.0,24367.900000000001,-5318.7299999999996,-1360.6600000000001,18554.5,1006.3200000000001,-5732.25,598.86599999999999
5877.0,23310.900000000001,-4139.8800000000001,-545.15899999999999,13421.700000000001,-225.18700000000001,9164.8299999999999,-3319.77
5878.0,23500.599999999999,-5202.4799999999996,-716.39400000000001,14513.700000000001,105.241,8187.1800000000003,-3201.75
5879.0,23774.400000000001,-5995.7399999999998,-774.90300000000002,15693.1,407.84800000000001,7119.0500000000002,-3068.6700000000001
5880.0,24073.299999999999,-6671.3800000000001,-921.65599999999995,16752.5,693.79200000000003,5945.1099999999997,-2886.1799999999998
5881.0,24389.5,-7103.5799999999999,-1025.03,17797.099999999999,933.53200000000004,4668.9200000000001,-2658.46
5882.0,24692.799999999999,-7294.9399999999996,-1080.3499999999999,18772.700000000001,1105.49,3315.7600000000002,-2376.21
5883.0,24929.700000000001,-7353.5600000000004,-1185.27,19485.599999999999,1237.51,1924.75,-2077.1900000000001
5884.0,25114.400000000001,-7199.5100000000002,-1227.8699999999999,20048.0,1340.25,500.87099999999998,-1753.05
5885.0,25291.900000000001,-6970.7299999999996,-1325.3199999999999,20370.700000000001,1403.25,-920.85299999999995,-1433.0899999999999
5886.0,25435.0,-6551.5699999999997,-1323.45,20579.299999999999,1436.51,-2299.3800000000001,-1051.22
5887.0,25584.5,-6223.8699999999999,-1493.23,20457.400000000001,1423.01,-3625.5700000000002,-580.11000000000001
5888.0,25654.799999999999,-5527.8199999999997,-1446.6900000000001,20409.299999999999,1294.6500000000001,-4816.6999999999998,2.38144
5889.0,25532.900000000001,-5171.29,-1425.02,19823.5,1127.9000000000001,-5829.4300000000003,585.89599999999996
5890.0,24019.400000000001,-4009.9899999999998,-588.50300000000004,14076.0,-226.37899999999999,9382.5799999999999,-3452.1399999999999
5891.0,24203.900000000001,-5048.9499999999998,-736.49000000000001,15204.200000000001,100.44499999999999,8389.5599999999995,-3326.6599999999999
5892.0,24479.799999999999,-5863.1300000000001,-821.68299999999999,16391.200000000001,417.73399999999998,7298.21,-3186.8499999999999
5893.0,24777.799999999999,-6493.46,-939.84299999999996,17518.099999999999,699.12199999999996,6095.9799999999996,-2996.77
5894.0,25115.599999999999,-6947.8900000000003,-1067.54,18575.700000000001,936.59199999999998,4803.9200000000001,-2767.9099999999999
5895.0,25481.099999999999,-7170.6999999999998,-1122.53,19605.900000000001,1127.3199999999999,3434.5,-2481.0500000000002
5896.0,25770.200000000001,-7263.8800000000001,-1245.97,20364.099999999999,1257.54,1999.52,-2168.54
5897.0,26010.5,-7055.5799999999999,-1229.4400000000001,21046.799999999999,1357.77,542.68700000000001,-1841.45
5898.0,26256.400000000001,-6881.3999999999996,-1375.5,21387.700000000001,1431.76,-927.95399999999995,-1511.9000000000001
5899.0,26449.799999999999,-6394.5699999999997,-1326.73,21701.299999999999,1469.48,-2357.0500000000002,-1121.24
5900.0,26632.400000000001,-6075.9700000000003,-1590.74,21563.799999999999,1479.3399999999999,-3715.46,-632.75199999999995
5901.0,26704.099999999999,-5238.7200000000003,-1453.5799999999999,21622.700000000001,1328.9100000000001,-4953.8299999999999,-26.083500000000001
5902.0,26613.299999999999,-4975.2200000000003,-1485.04,21052.599999999999,1254.76,-5883.3699999999999,551.60199999999998
5903.0,24766.900000000001,-3832.96,-595.66600000000005,14774.200000000001,-223.19999999999999,9630.4799999999996,-3584.21
5904.0,24952.900000000001,-4913.4700000000003,-779.18700000000001,15898.5,113.01600000000001,8612.2800000000007,-3459.4899999999998
5905.0,25213.099999999999,-5674.5200000000004,-834.35299999999995,17153.200000000001,428.61000000000001,7490.71,-3305.2600000000002
5906.0,25525.799999999999,-6363.3999999999996,-1004.1799999999999,18268.900000000001,699.50900000000001,6264.1499999999996,-3104.77
5907.0,25882.099999999999,-6772.8299999999999,-1069.3099999999999,19416.599999999999,933.27200000000005,4946.9300000000003,-2875.6100000000001
5908.0,26289.200000000001,-7043.79,-1174.5,20449.900000000001,1145.98,3558.1199999999999,-2596.0100000000002
5909.0,26668.0,-7076.3900000000003,-1210.23,21384.5,1293.96,2094.9200000000001,-2273.9200000000001
5910.0,26980.400000000001,-6952.5100000000002,-1259.4400000000001,22074.200000000001,1399.5699999999999,600.14700000000005,-1938.47
5911.0,27291.599999999999,-6686.79,-1342.29,22566.599999999999,1491.25,-922.178,-1594.77
5912.0,27542.0,-6221.5799999999999,-1340.27,22904.400000000001,1547.3299999999999,-2395.0999999999999,-1182.49
5913.0,27740.599999999999,-5755.9499999999998,-1549.8099999999999,22886.599999999999,1568.1900000000001,-3795.52,-666.351
5914.0,27806.200000000001,-4914.1899999999996,-1494.8599999999999,22898.299999999999,1384.8699999999999,-5076.2799999999997,-15.6379
5915.0,27598.400000000001,-4510.25,-1385.5999999999999,22425.599999999999,1428.1500000000001,-5877.1599999999999,513.65999999999997
5916.0,25578.400000000001,-3666.6599999999999,-613.57600000000002,15494.1,-213.17699999999999,9906.5100000000002,-3730.27
5917.0,25734.5,-4756.9899999999998,-822.75,16631.700000000001,125.538,8847.1100000000006,-3587.0799999999999
5918.0,25983.700000000001,-5525.6800000000003,-890.14300000000003,17897.0,429.71699999999998,7700.6999999999998,-3423.52
5919.0,26324.5,-6172.4099999999999,-1007.14,19107.400000000001,704.51800000000003,6458.2799999999997,-3224.2600000000002
5920.0,26720.0,-6614.5,-1084.95,20295.299999999999,950.98800000000006,5116.9499999999998,-2987.7399999999998
5921.0,27135.099999999999,-6906.8999999999996,-1209.5999999999999,21339.299999999999,1166.9100000000001,3692.1399999999999,-2705.2800000000002
5922.0,27597.400000000001,-6993.6199999999999,-1290.25,22314.799999999999,1341.5799999999999,2205.1500000000001,-2399.3699999999999
5923.0,28027.400000000001,-6832.25,-1290.8299999999999,23175.299999999999,1485.77,674.61400000000003,-2055.2399999999998
5924.0,28411.599999999999,-6571.6000000000004,-1414.3399999999999,23732.599999999999,1595.0,-895.88099999999997,-1685.49
5925.0,28698.900000000001,-5991.3900000000003,-1358.1800000000001,24199.900000000001,1675.3699999999999,-2414.3600000000001,-1240.6099999999999
5926.0,28916.0,-5536.9300000000003,-1689.9000000000001,24138.200000000001,1704.4100000000001,-3861.1900000000001,-693.18799999999999
5927.0,28984.799999999999,-4437.0900000000001,-1484.8800000000001,24365.900000000001,1492.03,-5168.7200000000003,16.841100000000001
5928.0,28505.799999999999,-3903.5,-1372.4400000000001,23741.299999999999,1610.01,-5873.6099999999997,459.98000000000002
5929.0,26433.599999999999,-3497.7600000000002,-657.42999999999995,16241.299999999999,-194.892,10195.799999999999,-3878.5599999999999
5930.0,26559.099999999999,-4595.0100000000002,-872.38199999999995,17380.799999999999,133.934,9108.8600000000006,-3716.3899999999999
5931.0,26811.799999999999,-5312.9799999999996,-868.90700000000004,18746.599999999999,436.14600000000002,7933.6599999999999,-3548.8099999999999
5932.0,27174.700000000001,-6048.1899999999996,-1064.3800000000001,19924.400000000001,719.46100000000001,6666.0600000000004,-3348.1300000000001
5933.0,27606.400000000001,-6443.21,-1104.79,21215.700000000001,979.77800000000002,5303.9399999999996,-3107.8499999999999
5934.0,28054.599999999999,-6731.1999999999998,-1210.4100000000001,22324.400000000001,1205.3,3852.96,-2820.5700000000002
5935.0,28582.599999999999,-6774.9499999999998,-1241.3199999999999,23422.099999999999,1411.3900000000001,2332.1700000000001,-2535.71
5936.0,29111.799999999999,-6641.6700000000001,-1297.27,24355.200000000001,1602.22,751.50699999999995,-2190.3099999999999
5937.0,29606.099999999999,-6323.21,-1408.04,25071.299999999999,1747.49,-853.428,-1798.77
5938.0,29927.0,-5679.8400000000001,-1370.5999999999999,25608.599999999999,1854.97,-2413.6799999999998,-1306.3599999999999
5939.0,30156.200000000001,-5087.79,-1694.8900000000001,25637.900000000001,1889.8499999999999,-3906.0100000000002,-725.43600000000004
5940.0,30248.900000000001,-3867.8400000000001,-1511.1700000000001,25946.0,1675.1300000000001,-5241.3800000000001,46.550800000000002
5941.0,29493.299999999999,-3056.3400000000001,-1348.3900000000001,25210.900000000001,1773.75,-5948.5900000000001,440.87400000000002
5942.0,27326.099999999999,-3322.3699999999999,-707.452,17002.700000000001,-183.26900000000001,10505.9,-4028.6599999999999
5943.0,27436.299999999999,-4360.6400000000003,-846.04399999999998,18238.400000000001,147.792,9387.9599999999991,-3857.3600000000001
5944.0,27704.0,-5194.3800000000001,-955.43100000000004,19531.599999999999,461.053,8194.3899999999994,-3692.1199999999999
5945.0,28096.0,-5786.5699999999997,-1007.12,20914.099999999999,761.577,6907.1899999999996,-3481.54
5946.0,28547.900000000001,-6305.21,-1167.8,22133.799999999999,1026.1099999999999,5518.54,-3235.0
5947.0,29055.900000000001,-6523.9799999999996,-1190.1199999999999,23399.599999999999,1270.9200000000001,4037.1900000000001,-2957.5500000000002
5948.0,29653.099999999999,-6679.8100000000004,-1359.78,24459.099999999999,1523.05,2481.1999999999998,-2683.5900000000001
5949.0,30253.599999999999,-6400.3299999999999,-1326.0,25603.0,1757.4200000000001,845.50099999999998,-2331.3299999999999
5950.0,30840.0,-6148.0,-1574.0699999999999,26323.599999999999,1937.5999999999999,-803.40899999999999,-1924.03
5951.0,31203.5,-5289.1400000000003,-1441.8699999999999,27072.400000000001,2074.4000000000001,-2408.98,-1387.0899999999999
5952.0,31445.0,-4699.2200000000003,-1914.23,27045.900000000001,2117.8899999999999,-3934.1199999999999,-774.62900000000002
5953.0,31604.200000000001,-3109.9499999999998,-1539.9300000000001,27702.299999999999,1939.24,-5293.1199999999999,48.926200000000001
5954.0,30697.900000000001,-2123.5700000000002,-1462.3399999999999,26823.599999999999,1929.05,-6090.46,477.04000000000002
5955.0,28270.0,-3099.79,-719.197,17833.599999999999,-150.191,10835.299999999999,-4198.3000000000002
5956.0,28378.700000000001,-4170.4300000000003,-877.68899999999996,19088.700000000001,187.15299999999999,9689.4599999999991,-4014.46
5957.0,28651.5,-4937.1000000000004,-921.54100000000005,20490.599999999999,503.51600000000002,8471.1200000000008,-3841.8899999999999
5958.0,29066.400000000001,-5664.79,-1108.24,21787.200000000001,815.28200000000004,7167.46,-3626.52
5959.0,29567.200000000001,-6074.0,-1146.5699999999999,23192.900000000001,1105.05,5761.1199999999999,-3384.3600000000001
5960.0,30153.0,-6293.2299999999996,-1187.8,24552.700000000001,1392.3499999999999,4250.0600000000004,-3117.0999999999999
5961.0,30807.799999999999,-6304.3800000000001,-1271.74,25817.299999999999,1678.8900000000001,2644.3499999999999,-2841.02
5962.0,31476.700000000001,-6061.0900000000001,-1350.77,26978.900000000001,1946.1400000000001,963.02800000000002,-2479.1700000000001
5963.0,32129.5,-5604.2299999999996,-1493.4300000000001,27936.200000000001,2171.5900000000001,-735.077,-2045.6199999999999
5964.0,32529.400000000001,-4718.3999999999996,-1494.8,28679.0,2333.8600000000001,-2395.4699999999998,-1470.99
5965.0,32782.099999999999,-3811.6700000000001,-1809.8099999999999,28899.799999999999,2380.6799999999998,-3960.4899999999998,-825.04100000000005
5966.0,33015.599999999999,-2276.5500000000002,-1713.55,29461.200000000001,2258.27,-5322.7200000000003,17.3642
5967.0,32173.200000000001,-842.44000000000005,-1456.1800000000001,28889.700000000001,2139.04,-6267.3000000000002,555.50400000000002
5968.0,29262.900000000001,-2847.8099999999999,-742.32500000000005,18708.599999999999,-92.875500000000002,11178.9,-4384.1099999999997
5969.0,29382.299999999999,-3910.5100000000002,-883.55100000000004,20026.200000000001,252.755,10014.200000000001,-4187.2600000000002
5970.0,29670.0,-4740.1300000000001,-992.06500000000005,21410.900000000001,575.84299999999996,8781.3899999999994,-4002.96
5971.0,30099.400000000001,-5313.3400000000001,-1029.23,22901.200000000001,904.80600000000004,7458.4799999999996,-3790.1300000000001
5972.0,30670.700000000001,-5847.54,-1196.6199999999999,24271.700000000001,1232.97,6032.8100000000004,-3569.6999999999998
5973.0,31347.400000000001,-6004.7700000000004,-1220.1600000000001,25795.599999999999,1565.6800000000001,4491.7200000000003,-3305.3400000000001
5974.0,32068.799999999999,-6075.3800000000001,-1424.3099999999999,27073.0,1886.6700000000001,2840.5100000000002,-3013.73
5975.0,32806.099999999999,-5644.9399999999996,-1418.55,28465.900000000001,2189.4499999999998,1113.99,-2638.9499999999998
5976.0,33497.800000000003,-5160.7299999999996,-1684.4100000000001,29432.5,2463.1599999999999,-634.62599999999998,-2173.3200000000002
5977.0,33939.5,-4024.6100000000001,-1652.03,30366.400000000001,2654.0500000000002,-2356.73,-1562.1900000000001
5978.0,34210.199999999997,-2929.02,-1988.6400000000001,30684.799999999999,2721.7600000000002,-3945.0,-868.85299999999995
5979.0,34492.5,-1061.3199999999999,-1822.1600000000001,31479.099999999999,2652.98,-5304.25,-23.789000000000001
5980.0,33910.699999999997,517.82600000000002,-1603.6099999999999,31160.5,2467.2600000000002,-6375.4700000000003,646.077
5981.0,30311.299999999999,-2571.2199999999998,-790.202,19619.5,-17.179500000000001,11541.9,-4584.3900000000003
5982.0,30439.299999999999,-3605.0300000000002,-904.66300000000001,21007.599999999999,337.77300000000002,10361.9,-4377.6099999999997
5983.0,30751.400000000001,-4400.2700000000004,-976.90700000000004,22482.599999999999,672.58100000000002,9115.2900000000009,-4189.1899999999996
5984.0,31221.0,-5059.46,-1102.6199999999999,23953.400000000001,1025.49,7775.2200000000003,-3984.73
5985.0,31853.200000000001,-5485.3699999999999,-1201.1700000000001,25505.099999999999,1396.27,6321.2200000000003,-3782.0700000000002
5986.0,32620.200000000001,-5570.4499999999998,-1222.6800000000001,27187.400000000001,1774.97,4753.6800000000003,-3525.1300000000001
5987.0,33429.800000000003,-5509.6999999999998,-1378.0799999999999,28677.299999999999,2138.0300000000002,3062.5799999999999,-3221.0900000000001
5988.0,34243.599999999999,-5005.1499999999996,-1424.3800000000001,30186.099999999999,2478.1300000000001,1289.8,-2827.1300000000001
5989.0,34953.800000000003,-4289.4700000000003,-1659.3199999999999,31318.5,2798.4899999999998,-519.78099999999995,-2328.5999999999999
5990.0,35442.699999999997,-2934.8299999999999,-1674.0999999999999,32379.299999999999,3035.7800000000002,-2302.9200000000001,-1680.52
5991.0,35723.199999999997,-1434.3699999999999,-1861.3599999999999,32968.599999999999,3131.3299999999999,-3903.9099999999999,-926.70500000000004
5992.0,36045.599999999999,443.67899999999997,-1922.9200000000001,33671.0,3087.8200000000002,-5240.1899999999996,-73.440399999999997
5993.0,35807.599999999999,2185.3899999999999,-1679.8499999999999,33765.199999999997,2936.77,-6338.3599999999997,706.42200000000003
5994.0,31414.799999999999,-2185.0799999999999,-799.38400000000001,20637.900000000001,76.467299999999994,11923.5,-4802.0
5995.0,31555.099999999999,-3254.29,-933.69600000000003,22039.599999999999,444.13299999999998,10730.4,-4591.1499999999996
5996.0,31905.799999999999,-4055.7800000000002,-1021.4299999999999,23570.900000000001,802.57000000000005,9470.7199999999993,-4410.4099999999999
5997.0,32441.799999999999,-4583.9499999999998,-1059.0899999999999,25246.799999999999,1191.1900000000001,8117.8900000000003,-4217.6300000000001
5998.0,33140.199999999997,-5047.5100000000002,-1246.0,26837.799999999999,1597.76,6638.7700000000004,-4019.8699999999999
5999.0,33977.300000000003,-5120.7799999999997,-1322.6500000000001,28604.700000000001,2010.6099999999999,5033.0799999999999,-3767.8600000000001
6000.0,34881.900000000001,-5048.8199999999997,-1564.74,30185.099999999999,2413.8200000000002,3295.4400000000001,-3458.0999999999999
6001.0,35774.0,-4357.9399999999996,-1584.25,31899.700000000001,2807.3200000000002,1471.29,-3049.5700000000002
6002.0,36524.900000000001,-3462.1999999999998,-1865.26,33142.199999999997,3188.0100000000002,-410.346,-2522.7399999999998
6003.0,37050.800000000003,-1800.49,-1852.8399999999999,34376.5,3498.54,-2253.3099999999999,-1838.3499999999999
6004.0,37350.699999999997,-44.882599999999996,-2108.5900000000001,35022.400000000001,3704.52,-3854.5,-998.29899999999998
6005.0,37691.900000000001,2193.23,-2009.8499999999999,35986.699999999997,3693.4299999999998,-5100.3199999999997,-52.950000000000003
6006.0,37841.300000000003,3933.4400000000001,-1853.54,36440.599999999999,3568.4099999999999,-6151.9399999999996,796.93100000000004
6007.0,32580.599999999999,-1738.0799999999999,-826.12300000000005,21713.700000000001,185.102,12324.299999999999,-5042.9300000000003
6008.0,32737.400000000001,-2806.3600000000001,-959.29899999999998,23160.700000000001,579.33299999999997,11115.299999999999,-4842.2200000000003
6009.0,33144.300000000003,-3551.7600000000002,-1010.09,24825.299999999999,964.42200000000003,9844.3600000000006,-4670.1800000000003
6010.0,33753.0,-4150.0699999999997,-1153.73,26517.5,1380.0799999999999,8476.6599999999999,-4487.0900000000001
6011.0,34532.300000000003,-4455.1199999999999,-1254.3900000000001,28346.900000000001,1826.0599999999999,6977.0600000000004,-4289.9200000000001
6012.0,35447.300000000003,-4430.0600000000004,-1325.0899999999999,30281.0,2280.4099999999999,5335.54,-4032.6599999999999
6013.0,36444.400000000001,-4165.79,-1494.6700000000001,32115.599999999999,2728.3099999999999,3551.3400000000001,-3717.7199999999998
6014.0,37414.199999999997,-3360.6100000000001,-1559.6300000000001,33955.199999999997,3183.02,1645.4100000000001,-3306.4099999999999
6015.0,38210.099999999999,-2174.5100000000002,-1787.1400000000001,35390.400000000001,3654.9000000000001,-325.13299999999998,-2762.96
6016.0,38797.199999999997,-298.86099999999999,-1820.8099999999999,36686.599999999999,4139.8299999999999,-2224.3200000000002,-2036.24
6017.0,39114.400000000001,1685.79,-1906.4200000000001,37418.099999999999,4640.4799999999996,-3819.9000000000001,-1080.22
6018.0,39438.400000000001,3924.9299999999998,-1731.71,38381.699999999997,4698.7299999999996,-4996.1499999999996,173.76300000000001
6019.0,39933.900000000001,5730.5200000000004,-1744.1099999999999,39219.099999999999,4450.46,-5884.6400000000003,1116.6700000000001
6020.0,33822.400000000001,-1174.24,-828.298,22915.700000000001,314.20699999999999,12737.5,-5317.0699999999997
6021.0,33992.5,-2268.4299999999998,-995.54899999999998,24373.0,723.22299999999996,11510.4,-5130.8400000000001
6022.0,34475.099999999999,-2979.3200000000002,-1038.05,26157.299999999999,1147.7,10236.1,-4969.75
6023.0,35164.599999999999,-3495.8699999999999,-1152.49,28016.900000000001,1609.95,8853.6700000000001,-4792.7600000000002
6024.0,36032.199999999997,-3764.6700000000001,-1307.25,29960.099999999999,2088.0599999999999,7337.1700000000001,-4590.4099999999999
6025.0,37042.400000000001,-3739.5799999999999,-1472.7,31976.900000000001,2572.0,5664.0,-4328.5500000000002
6026.0,38142.099999999999,-3361.1799999999998,-1653.6400000000001,33991.900000000001,3068.9899999999998,3825.71,-4011.1799999999998
6027.0,39215.400000000001,-2426.1100000000001,-1761.04,35972.599999999999,3623.9299999999998,1824.1500000000001,-3610.1900000000001
6028.0,40074.800000000003,-1100.3800000000001,-1957.71,37479.300000000003,4301.5,-256.67000000000002,-3059.54
6029.0,40691.400000000001,741.61199999999997,-1808.1500000000001,38762.699999999997,5065.5900000000001,-2201.5999999999999,-2252.5799999999999
6030.0,40914.199999999997,2476.1999999999998,-1525.7,39404.099999999999,5701.2700000000004,-3864.23,-1181.97
6031.0,41078.599999999999,4698.4899999999998,-1049.97,40351.099999999999,5727.1400000000003,-5148.3100000000004,381.77600000000001
6032.0,41676.599999999999,7186.5299999999997,-1081.9100000000001,41609.300000000003,5456.79,-5827.04,1615.53
6033.0,35148.5,-536.20399999999995,-853.16800000000001,24207.5,455.36599999999999,13161.5,-5625.29
6034.0,35345.800000000003,-1604.02,-989.88099999999997,25737.400000000001,889.35000000000002,11922.200000000001,-5458.79
6035.0,35896.599999999999,-2276.75,-1051.3800000000001,27621.200000000001,1359.5999999999999,10638.799999999999,-5313.9700000000003
6036.0,36676.400000000001,-2791.2600000000002,-1243.25,29561.099999999999,1863.74,9245.8899999999994,-5140.9700000000003
6037.0,37644.5,-2879.5100000000002,-1311.4300000000001,31767.799999999999,2379.2600000000002,7718.3699999999999,-4927.5500000000002
6038.0,38771.0,-2737.8600000000001,-1456.4100000000001,34000.199999999997,2901.9899999999998,6020.79,-4652.04
6039.0,40008.0,-2177.9400000000001,-1541.97,36314.5,3446.6700000000001,4119.0200000000004,-4339.8800000000001
6040.0,41196.599999999999,-1244.03,-1633.6500000000001,38387.199999999997,4138.2399999999998,2000.22,-3981.5799999999999
6041.0,42086.0,50.241599999999998,-1489.7,39995.400000000001,5030.29,-185.05600000000001,-3450.29
6042.0,42526.599999999999,1421.3800000000001,-1091.96,40996.0,5854.9899999999998,-2177.6999999999998,-2550.0900000000001
6043.0,42575.599999999999,3023.6199999999999,-539.99900000000002,41652.300000000003,6270.0,-3937.1100000000001,-1379.4000000000001
6044.0,42550.5,5228.6000000000004,-77.397400000000005,42380.5,6258.2299999999996,-5396.8500000000004,204.667
6045.0,42817.800000000003,7993.3699999999999,-132.429,43328.0,6113.8000000000002,-6040.0200000000004,1834.98
6046.0,36584.599999999999,221.53899999999999,-852.16999999999996,25642.599999999999,616.57600000000002,13603.5,-5984.7399999999998
6047.0,36812.099999999999,-833.04899999999998,-1007.24,27229.5,1087.76,12343.1,-5833.75
6048.0,37404.699999999997,-1450.29,-1094.1900000000001,29200.299999999999,1592.6099999999999,11039.4,-5692.8000000000002
6049.0,38271.099999999999,-1842.3,-1264.6900000000001,31308.400000000001,2135.3099999999999,9645.25,-5530.25
6050.0,39367.699999999997,-1911.4200000000001,-1413.3,33627.0,2699.0100000000002,8120.8100000000004,-5310.0799999999999
6051.0,40638.199999999997,-1736.5899999999999,-1628.29,36009.400000000001,3252.1700000000001,6421.7600000000002,-5011.0699999999997
6052.0,42082.900000000001,-1164.0699999999999,-1743.4000000000001,38540.699999999997,3825.8400000000001,4484.8100000000004,-4722.5799999999999
6053.0,43381.199999999997,-376.92599999999999,-1714.1099999999999,40710.0,4541.6899999999996,2289.0700000000002,-4451.9499999999998
6054.0,44125.800000000003,468.25299999999999,-1410.6500000000001,42079.800000000003,5361.8199999999997,43.499200000000002,-3983.3400000000001
6055.0,44246.199999999997,1721.4400000000001,-691.31700000000001,42997.400000000001,6026.4899999999998,-2020.3,-3022.4499999999998
6056.0,44192.0,3322.27,-200.75399999999999,43575.099999999999,6436.5500000000002,-3877.1900000000001,-1735.6199999999999
6057.0,44072.300000000003,5583.96,439.25400000000002,44275.0,6600.2299999999996,-5448.8400000000001,-177.03200000000001
6058.0,43730.800000000003,8311.1900000000005,488.57600000000002,44610.800000000003,6272.46,-6382.4200000000001,1763.3800000000001
6059.0,38143.300000000003,1031.8699999999999,-906.06299999999999,27185.200000000001,803.21799999999996,14044.1,-6398.79
6060.0,38378.0,160.72900000000001,-943.71699999999998,28956.099999999999,1304.8099999999999,12760.5,-6247.0
6061.0,39013.900000000001,-487.38299999999998,-1147.2,30907.700000000001,1837.3399999999999,11446.5,-6112.54
6062.0,39962.699999999997,-698.47400000000005,-1240.6300000000001,33227.300000000003,2419.79,10054.200000000001,-5959.3800000000001
6063.0,41161.800000000003,-701.18299999999999,-1446.01,35661.199999999997,3026.6399999999999,8535.2900000000009,-5727.0900000000001
6064.0,42610.599999999999,-273.79300000000001,-1539.22,38413.599999999999,3604.8000000000002,6864.04,-5417.8800000000001
6065.0,44308.199999999997,292.17899999999997,-1730.49,41163.699999999997,4173.46,4958.8100000000004,-5162.4200000000001
6066.0,45708.199999999997,1064.71,-1565.9000000000001,43559.900000000001,4759.2399999999998,2798.0700000000002,-4941.4399999999996
6067.0,46271.099999999999,1818.1700000000001,-1083.46,44929.599999999999,5371.1099999999997,563.75900000000001,-4524.0799999999999
6068.0,46165.199999999997,2833.6500000000001,-343.86200000000002,45636.400000000001,5983.9700000000003,-1578.47,-3565.8499999999999
6069.0,45913.599999999999,3931.3400000000001,191.65299999999999,45845.599999999999,6502.6800000000003,-3580.96,-2250.9299999999998
6070.0,45496.599999999999,5320.75,607.37,45810.599999999999,6594.6400000000003,-5349.9499999999998,-609.72799999999995
6071.0,44720.099999999999,8174.9499999999998,623.72799999999995,45760.900000000001,5673.0100000000002,-6899.9700000000003,1523.6700000000001
6072.0,39819.599999999999,1991.3399999999999,-919.471,28930.700000000001,1018.8,14480.799999999999,-6850.5200000000004
6073.0,40025.199999999997,1220.1700000000001,-935.48400000000004,30744.0,1533.72,13171.700000000001,-6696.4700000000003
6074.0,40726.5,650.25999999999999,-1178.05,32759.599999999999,2105.04,11862.9,-6585.4799999999996
6075.0,41748.599999999999,616.13499999999999,-1240.51,35252.0,2736.1399999999999,10480.0,-6418.7600000000002
6076.0,43027.099999999999,604.76599999999996,-1620.49,37664.800000000003,3363.8899999999999,8987.2299999999996,-6169.9099999999999
6077.0,44665.199999999997,1155.1300000000001,-1756.1600000000001,40638.300000000003,3943.1100000000001,7372.6199999999999,-5857.1800000000003
6078.0,46559.400000000001,1571.52,-2192.21,43409.199999999997,4462.75,5547.1099999999997,-5588.7200000000003
6079.0,48053.599999999999,2393.2399999999998,-2009.47,46010.900000000001,4939.0299999999997,3502.7600000000002,-5330.1700000000001
6080.0,48587.099999999999,2717.73,-1833.29,47102.300000000003,5469.5799999999999,1344.0,-4927.7200000000003
6081.0,48338.400000000001,3417.1999999999998,-867.16099999999994,47795.0,6001.8900000000003,-798.46600000000001,-4031.0599999999999
6082.0,47744.0,3564.9400000000001,-367.05000000000001,47469.199999999997,6195.5200000000004,-2945.5599999999999,-2746.5599999999999
6083.0,46867.699999999997,4955.1599999999999,499.59699999999998,47520.099999999999,5590.2200000000003,-5112.8400000000001,-1022.28
6084.0,45913.699999999997,7978.4700000000003,174.73099999999999,47015.599999999999,3966.8899999999999,-7493.46,994.53899999999999
6085.0,41558.900000000001,3018.8600000000001,-937.94600000000003,30756.099999999999,1247.5699999999999,14897.4,-7346.4399999999996
6086.0,41779.599999999999,2523.54,-805.83699999999999,32741.400000000001,1805.0599999999999,13603.5,-7206.1899999999996
6087.0,42537.599999999999,2002.3399999999999,-1170.48,34734.400000000001,2418.79,12318.4,-7103.0500000000002
6088.0,43600.400000000001,2203.0500000000002,-1159.9200000000001,37403.800000000003,3080.0799999999999,10960.4,-6912.5900000000001
6089.0,44972.400000000001,2365.3499999999999,-1492.1500000000001,39989.900000000001,3733.27,9521.3899999999994,-6661.2600000000002
6090.0,46776.199999999997,3131.6999999999998,-1512.28,43302.199999999997,4328.9099999999999,7988.3000000000002,-6286.6800000000003
6091.0,48771.900000000001,3482.1500000000001,-2042.47,46143.800000000003,4817.8599999999997,6269.1300000000001,-5914.1199999999999
6092.0,50316.099999999999,4223.2700000000004,-1897.6500000000001,48814.199999999997,5248.2299999999996,4347.9700000000003,-5585.9799999999996
6093.0,50857.0,4291.1099999999997,-1747.9400000000001,49910.400000000001,5674.7200000000003,2339.1999999999998,-5174.21
6094.0,50492.199999999997,4276.4499999999998,-970.41399999999999,50348.099999999999,5841.6700000000001,336.483,-4277.5100000000002
6095.0,49736.199999999997,3725.8600000000001,-733.07100000000003,49859.300000000003,5262.8199999999997,-1918.2,-2925.3200000000002
6096.0,48794.199999999997,4997.4499999999998,-521.75099999999998,49686.699999999997,3548.9400000000001,-4643.9700000000003,-1175.5599999999999
6097.0,47951.800000000003,8837.2800000000007,-1229.26,48954.300000000003,1104.4300000000001,-7769.25,173.708
6098.0,43303.0,4300.3599999999997,-626.59500000000003,32855.699999999997,1486.9400000000001,15291.299999999999,-7888.0799999999999
6099.0,43603.800000000003,3732.2399999999998,-905.72699999999998,34513.199999999997,2082.5900000000001,14080.9,-7782.8599999999997
6100.0,44411.0,3642.48,-1043.0899999999999,36809.099999999999,2744.5799999999999,12864.5,-7656.7700000000004
6101.0,45509.099999999999,3804.3400000000001,-1226.76,39333.599999999999,3464.5300000000002,11560.5,-7477.6199999999999
6102.0,47004.699999999997,4096.6999999999998,-1508.72,42084.599999999999,4202.6599999999999,10220.9,-7202.1099999999997
6103.0,48903.099999999999,4487.3999999999996,-1853.5,45197.699999999997,4822.5600000000004,8805.8099999999995,-6669.4899999999998
6104.0,50944.300000000003,4679.1099999999997,-2417.4200000000001,48086.900000000001,5293.6899999999996,7187.6199999999999,-6154.04
6105.0,52451.5,5014.71,-2547.5,50471.300000000003,5719.8299999999999,5392.9399999999996,-5730.46
6106.0,52928.900000000001,4461.7299999999996,-2799.5500000000002,51177.0,5986.7299999999996,3637.5900000000001,-5163.6700000000001
6107.0,52498.900000000001,4000.2800000000002,-2279.2199999999998,51648.400000000001,5457.1499999999996,1841.74,-3984.9099999999999
6108.0,52027.800000000003,3417.2199999999998,-2677.0900000000001,51568.5,3583.0500000000002,-569.81100000000004,-2467.6599999999999
6109.0,51743.800000000003,6270.8699999999999,-2936.3800000000001,52272.800000000003,519.46799999999996,-4025.7199999999998,-1078.79
6110.0,51553.400000000001,11503.4,-4450.5200000000004,51206.5,-2499.1199999999999,-7587.1899999999996,-824.58100000000002
6111.0,44913.900000000001,5054.8699999999999,-764.24900000000002,34283.0,1812.3199999999999,15668.200000000001,-8420.2399999999998
6112.0,45445.0,5278.3199999999997,-712.76400000000001,36405.0,2393.46,14679.1,-8374.4099999999999
6113.0,46344.300000000003,5321.96,-1043.1700000000001,38587.599999999999,3121.4699999999998,13565.5,-8319.4099999999999
6114.0,47565.900000000001,5907.1400000000003,-992.99800000000005,41429.0,3962.79,12384.0,-8181.0299999999997
6115.0,49132.599999999999,6270.4499999999998,-1169.8800000000001,44335.099999999999,4785.6099999999997,11192.299999999999,-7789.1199999999999
6116.0,51036.0,6541.96,-1513.01,47503.699999999997,5413.0200000000004,9925.25,-7036.5699999999997
6117.0,53142.5,6534.8400000000001,-2194.8699999999999,50421.800000000003,5880.9300000000003,8438.4899999999998,-6359.9200000000001
6118.0,54521.0,6339.5699999999997,-2548.4299999999998,52453.0,6295.0100000000002,6777.9300000000003,-5789.21
6119.0,54637.699999999997,5406.6000000000004,-2750.0700000000002,52977.800000000003,6230.71,5222.4799999999996,-4810.5900000000001
6120.0,54182.0,4617.1199999999999,-3027.8600000000001,53402.699999999997,4527.8599999999997,3481.27,-2965.5599999999999
6121.0,54790.099999999999,5422.0699999999997,-4537.9899999999998,54468.900000000001,928.29899999999998,747.04899999999998,-1210.6300000000001
6122.0,56290.300000000003,10213.799999999999,-6715.1400000000003,55456.800000000003,-3280.1700000000001,-3414.9400000000001,-795.41700000000003
6123.0,57223.699999999997,16757.0,-9462.8899999999994,53488.699999999997,-6171.0200000000004,-7061.0200000000004,-1909.6500000000001
6124.0,6588.4099999999999,1518.3699999999999,-116.206,-3592.1700000000001,-923.50400000000002,2481.77,803.14300000000003
6125.0,5814.9099999999999,1101.5,-164.31200000000001,-3070.5500000000002,-806.88499999999999,2393.29,562.52800000000002
6126.0,5529.1000000000004,973.62400000000002,60.929900000000004,-2421.6300000000001,-817.53800000000001,2514.8000000000002,332.33600000000001
6127.0,5742.8100000000004,584.34299999999996,29.331700000000001,-2177.4400000000001,-907.38900000000001,2821.6999999999998,271.53500000000003
6128.0,6224.8400000000001,568.12,311.07900000000001,-1712.1400000000001,-976.44000000000005,3213.6999999999998,273.94
6129.0,6536.5500000000002,199.03800000000001,217.47499999999999,-1573.1300000000001,-1022.35,3473.0,278.209
6130.0,6254.46,-194.202,20.3965,-1493.28,-914.41999999999996,3384.4000000000001,279.77199999999999
6131.0,5606.75,-756.03700000000003,-176.68799999999999,-1227.77,-743.00199999999995,3103.4899999999998,133.10499999999999
6132.0,5411.75,-1032.0699999999999,-14.310700000000001,-361.798,-657.46199999999999,3007.1799999999998,-138.85400000000001
6133.0,6427.0699999999997,-1040.6900000000001,431.14800000000002,907.58600000000001,-761.572,3460.21,-429.57100000000003
6134.0,8087.1899999999996,-1407.1600000000001,561.39400000000001,1812.1300000000001,-986.66800000000001,4234.0900000000001,-515.697
6135.0,8686.4500000000007,-1891.74,451.584,2205.54,-891.29600000000005,4468.2399999999998,-407.39800000000002
6136.0,8269.8899999999994,-2435.0900000000001,367.36399999999998,2401.4400000000001,-625.97299999999996,4046.04,-370.85399999999998
6137.0,6709.9399999999996,1477.23,-191.352,-3744.9899999999998,-956.48900000000003,2548.3200000000002,696.37599999999998
6138.0,6072.7399999999998,1247.6500000000001,-102.639,-3151.8800000000001,-838.38800000000003,2486.0500000000002,574.34400000000005
6139.0,5725.1999999999998,899.04399999999998,-125.857,-2682.0300000000002,-819.45100000000002,2591.6599999999999,369.27100000000002
6140.0,5782.6999999999998,849.22799999999995,89.303200000000004,-2108.9000000000001,-842.726,2833.7600000000002,214.798
6141.0,5995.6300000000001,565.226,57.097799999999999,-1879.8800000000001,-840.48199999999997,3099.1199999999999,82.423199999999994
6142.0,6321.2399999999998,360.19099999999997,228.72499999999999,-1469.97,-905.47000000000003,3384.8400000000001,17.168099999999999
6143.0,6413.79,-262.40100000000001,-0.81079100000000004,-1495.8399999999999,-923.21299999999997,3494.6900000000001,97.759399999999999
6144.0,6140.6999999999998,-687.55200000000002,-16.990200000000002,-1144.99,-840.20399999999995,3394.8600000000001,128.637
6145.0,5931.5799999999999,-997.57899999999995,-49.296500000000002,-501.83100000000002,-731.875,3311.4299999999998,-41.218200000000003
6146.0,6430.8400000000001,-1020.65,128.31299999999999,558.59699999999998,-692.32000000000005,3533.25,-394.33699999999999
6147.0,7877.6999999999998,-1158.3599999999999,386.286,1749.25,-793.94299999999998,4177.9700000000003,-695.68700000000001
6148.0,8733.6499999999996,-1858.74,217.40799999999999,2183.21,-780.71799999999996,4512.7799999999997,-604.55499999999995
6149.0,8504.0,-2759.3499999999999,-62.356200000000001,2104.1199999999999,-650.16099999999994,4192.6800000000003,-409.85300000000001
6150.0,6716.6999999999998,1757.02,-22.6647,-3463.4499999999998,-994.46400000000006,2567.0999999999999,644.80499999999995
6151.0,6202.8999999999996,1462.23,-32.016300000000001,-3030.27,-913.19399999999996,2536.3200000000002,569.53800000000001
6152.0,5891.96,1216.6600000000001,0.82188799999999995,-2532.6700000000001,-872.59400000000005,2642.3099999999999,411.65300000000002
6153.0,5842.3500000000004,935.21299999999997,19.0899,-2133.2600000000002,-859.12699999999995,2846.02,241.88200000000001
6154.0,5974.0,583.24199999999996,-6.9785500000000003,-1878.03,-870.58000000000004,3078.4400000000001,101.72
6155.0,6323.54,177.655,-12.048400000000001,-1637.3800000000001,-925.21299999999997,3387.8400000000001,15.1242
6156.0,6528.2200000000003,-203.261,6.8115300000000003,-1393.8599999999999,-938.75099999999998,3571.02,43.327100000000002
6157.0,6412.71,-470.209,92.121799999999993,-988.58199999999999,-876.02999999999997,3555.8499999999999,62.765300000000003
6158.0,6244.4200000000001,-704.43899999999996,115.965,-357.71100000000001,-801.72500000000002,3489.9499999999998,-74.054299999999998
6159.0,6643.8299999999999,-779.06700000000001,224.51499999999999,639.60299999999995,-785.24000000000001,3665.9099999999999,-354.95800000000003
6160.0,7905.4099999999999,-1179.23,209.04499999999999,1569.7,-806.13400000000001,4227.96,-645.84199999999998
6161.0,8808.5200000000004,-1798.77,255.21899999999999,2223.1999999999998,-770.73299999999995,4563.5,-631.79100000000005
6162.0,8822.2199999999993,-2607.9699999999998,175.851,2367.3400000000001,-717.35900000000004,4360.1199999999999,-448.27199999999999
6163.0,6748.9099999999999,1719.03,-158.65799999999999,-3536.1799999999998,-1018.77,2585.46,606.89599999999996
6164.0,6305.3400000000001,1529.78,-98.215800000000002,-3060.29,-951.49900000000002,2579.6199999999999,526.44600000000003
6165.0,6042.3900000000003,1292.51,-83.428799999999995,-2629.0700000000002,-908.91700000000003,2689.2800000000002,391.27199999999999
6166.0,5944.4300000000003,1020.11,-16.177600000000002,-2188.4000000000001,-879.12,2874.5,248.90100000000001
6167.0,6054.2299999999996,670.58600000000001,24.973299999999998,-1862.4200000000001,-890.48299999999995,3110.8699999999999,122.274
6168.0,6385.5799999999999,335.04199999999997,121.642,-1495.5899999999999,-926.90499999999997,3424.96,17.348199999999999
6169.0,6628.1499999999996,-133.99299999999999,26.389900000000001,-1317.73,-943.01499999999999,3635.3699999999999,-2.0438999999999998
6170.0,6596.4399999999996,-433.94499999999999,29.346,-1010.98,-890.87099999999998,3665.9000000000001,-15.653
6171.0,6506.4899999999998,-676.83000000000004,27.979199999999999,-427.75700000000001,-850.51999999999998,3639.3299999999999,-124.949
6172.0,6933.04,-788.75599999999997,102.15900000000001,521.42399999999998,-860.827,3836.4099999999999,-339.96199999999999
6173.0,8005.1400000000003,-1063.3199999999999,240.191,1534.8199999999999,-827.84900000000005,4316.2299999999996,-598.32000000000005
6174.0,8846.8799999999992,-1777.0799999999999,209.28999999999999,2163.6399999999999,-775.17399999999998,4604.8800000000001,-633.20399999999995
6175.0,9062.6000000000004,-2638.4299999999998,129.13800000000001,2428.5599999999999,-770.16200000000003,4482.1099999999997,-507.49299999999999
6176.0,6782.6999999999998,1961.1900000000001,-13.4505,-3326.52,-1049.54,2602.79,565.40899999999999
6177.0,6417.3900000000003,1726.95,-33.317300000000003,-2964.1599999999999,-988.86500000000001,2625.0500000000002,492.99599999999998
6178.0,6180.6499999999996,1512.6500000000001,7.2256299999999998,-2542.21,-941.99000000000001,2740.29,368.28199999999998
6179.0,6059.7299999999996,1137.0899999999999,-19.7254,-2200.1599999999999,-913.78200000000004,2910.6999999999998,247.64099999999999
6180.0,6150.3100000000004,777.82100000000003,27.799900000000001,-1844.8,-915.01900000000001,3151.3499999999999,126.307
6181.0,6432.9099999999999,308.50799999999998,3.2060599999999999,-1572.99,-931.048,3450.73,10.7424
6182.0,6711.8599999999997,-21.396699999999999,67.794200000000004,-1202.1800000000001,-947.12099999999998,3689.8899999999999,-38.595799999999997
6183.0,6739.9700000000003,-354.52800000000002,50.1434,-965.99300000000005,-916.64300000000003,3746.27,-76.882099999999994
6184.0,6789.2700000000004,-530.13099999999997,114.39100000000001,-379.31599999999997,-890.75199999999995,3798.1100000000001,-178.965
6185.0,7267.2700000000004,-549.48500000000001,244.63800000000001,668.46100000000001,-889.73500000000001,4038.9200000000001,-342.95100000000002
6186.0,8091.0600000000004,-923.35299999999995,248.113,1531.8499999999999,-836.29700000000003,4391.8400000000001,-571.01999999999998
6187.0,8887.8400000000001,-1691.52,208.18199999999999,2140.73,-791.46400000000006,4648.8800000000001,-648.923
6188.0,9335.3899999999994,-2582.54,225.57499999999999,2616.5,-799.721,4616.3299999999999,-572.57600000000002
6189.0,6826.5500000000002,1999.7,-77.566800000000001,-3332.1799999999998,-1090.1400000000001,2616.8099999999999,524.48599999999999
6190.0,6533.8000000000002,1779.6700000000001,-115.86199999999999,-3011.75,-1028.27,2672.2800000000002,457.09899999999999
6191.0,6301.5699999999997,1610.4100000000001,-18.502199999999998,-2556.2399999999998,-968.93299999999999,2788.0100000000002,340.089
6192.0,6199.5699999999997,1219.28,-55.549999999999997,-2245.3000000000002,-947.59299999999996,2964.3699999999999,235.72200000000001
6193.0,6272.6700000000001,864.03899999999999,20.626799999999999,-1858.79,-934.55600000000004,3206.96,120.65900000000001
6194.0,6517.1000000000004,419.31,31.0854,-1541.0999999999999,-942.41200000000003,3491.6700000000001,1.4260299999999999
6195.0,6810.8699999999999,35.921599999999998,42.5702,-1182.8900000000001,-947.14800000000002,3750.1100000000001,-66.0642
6196.0,6850.8599999999997,-291.08999999999997,66.315100000000001,-881.47900000000004,-946.78899999999999,3808.4200000000001,-123.124
6197.0,7020.3699999999999,-571.94299999999998,-1.88304,-501.66899999999998,-956.42700000000002,3919.1700000000001,-239.39099999999999
6198.0,7609.6999999999998,-576.38599999999997,82.697100000000006,505.81999999999999,-912.10599999999999,4248.0699999999997,-356.40899999999999
6199.0,8210.2000000000007,-826.43499999999995,194.92099999999999,1501.1500000000001,-847.65999999999997,4484.0100000000002,-532.053
6200.0,8954.1900000000005,-1610.95,201.92400000000001,2142.5799999999999,-831.60000000000002,4696.75,-671.70399999999995
6201.0,9610.9899999999998,-2681.6799999999998,162.869,2665.6900000000001,-836.32500000000005,4746.1400000000003,-637.73900000000003
6202.0,6889.3299999999999,2209.4099999999999,43.507300000000001,-3174.1300000000001,-1126.71,2643.21,476.57299999999998
6203.0,6657.46,1933.3900000000001,-74.016900000000007,-2947.1199999999999,-1067.55,2727.9200000000001,418.858
6204.0,6429.9799999999996,1734.23,-7.9987300000000001,-2542.9299999999998,-997.99199999999996,2839.04,315.505
6205.0,6359.1700000000001,1356.96,-35.485599999999998,-2238.8299999999999,-977.75999999999999,3031.4200000000001,216.59
6206.0,6402.7799999999997,964.11500000000001,16.582000000000001,-1864.78,-952.94299999999998,3266.7800000000002,109.32899999999999
6207.0,6619.3299999999999,467.483,-9.4193499999999997,-1573.5999999999999,-960.529,3541.5300000000002,-9.2711400000000008
6208.0,6911.6499999999996,125.377,44.396099999999997,-1166.1800000000001,-953.64700000000005,3805.54,-93.438100000000006
6209.0,6993.6300000000001,-230.56,73.455200000000005,-797.31200000000001,-965.99400000000003,3892.3499999999999,-157.37700000000001
6210.0,7206.4200000000001,-441.96199999999999,65.944500000000005,-346.59800000000001,-1006.91,4018.46,-275.76799999999997
6211.0,7849.04,-431.80200000000002,60.400100000000002,472.96699999999998,-964.62599999999998,4386.7200000000003,-396.00900000000001
6212.0,8426.8500000000004,-648.34000000000003,190.03399999999999,1499.2,-912.97799999999995,4624.5,-528.76499999999999
6213.0,9100.3199999999997,-1556.04,196.26300000000001,2193.4000000000001,-877.45600000000002,4780.2700000000004,-681.73400000000004
6214.0,9872.2900000000009,-2688.6599999999999,228.46600000000001,2826.3800000000001,-853.71000000000004,4862.5299999999997,-708.44500000000005
6215.0,6955.5,2207.9899999999998,-51.735900000000001,-3229.98,-1150.79,2673.9000000000001,434.80900000000003
6216.0,6775.29,2036.3399999999999,-74.069500000000005,-2915.8400000000001,-1105.02,2786.1700000000001,376.96499999999997
6217.0,6562.8199999999997,1807.2,-51.5381,-2571.7199999999998,-1032.46,2894.04,291.99200000000002
6218.0,6524.7299999999996,1469.6900000000001,-38.424399999999999,-2256.1799999999998,-1007.1799999999999,3102.5700000000002,194.47
6219.0,6550.9200000000001,1021.6900000000001,-34.308300000000003,-1921.1500000000001,-975.80899999999997,3334.79,96.106499999999997
6220.0,6740.4700000000003,603.79700000000003,31.2668,-1531.1800000000001,-974.15599999999995,3601.9299999999998,-23.27
6221.0,7009.3800000000001,167.03,13.7516,-1192.1099999999999,-969.19299999999998,3856.02,-121.40600000000001
6222.0,7170.0,-162.554,59.990200000000002,-759.02599999999995,-986.24800000000005,3993.54,-189.40000000000001
6223.0,7401.5900000000001,-320.245,66.558099999999996,-224.52000000000001,-1008.39,4137.9499999999998,-284.79000000000002
6224.0,7959.8599999999997,-165.381,187.261,667.60599999999999,-999.31600000000003,4444.5200000000004,-438.85000000000002
6225.0,8695.4599999999991,-509.38400000000001,213.45699999999999,1549.45,-1002.5599999999999,4769.6000000000004,-598.66999999999996
6226.0,9375.0799999999999,-1530.48,189.03399999999999,2263.9400000000001,-933.67399999999998,4931.7600000000002,-702.428
6227.0,10121.9,-2810.4899999999998,192.18299999999999,2899.8899999999999,-866.57899999999995,4966.0699999999997,-760.79399999999998
6228.0,7030.8599999999997,2342.5500000000002,-14.673999999999999,-3161.6399999999999,-1170.2,2705.75,401.49200000000002
6229.0,6890.1999999999998,2177.5,-32.338099999999997,-2844.8299999999999,-1137.5699999999999,2843.21,332.92000000000002
6230.0,6711.6400000000003,1912.4100000000001,-66.082400000000007,-2571.98,-1066.47,2959.2600000000002,264.892
6231.0,6680.7600000000002,1605.3900000000001,-14.387,-2243.5100000000002,-1033.1199999999999,3169.8400000000001,166.92099999999999
6232.0,6722.5600000000004,1119.9100000000001,-46.588200000000001,-1942.0699999999999,-1003.04,3415.2199999999998,78.837299999999999
6233.0,6869.1099999999997,674.21400000000006,-2.1840299999999999,-1561.3199999999999,-989.99699999999996,3665.04,-36.005600000000001
6234.0,7118.6000000000004,235.69200000000001,13.6,-1189.5699999999999,-989.60199999999998,3911.75,-149.46199999999999
6235.0,7351.6300000000001,-80.966899999999995,64.838800000000006,-734.44899999999996,-1004.78,4095.5300000000002,-226.559
6236.0,7608.2600000000002,-177.13900000000001,55.784700000000001,-209.44200000000001,-1003.52,4262.54,-312.91000000000003
6237.0,8127.6000000000004,-4.66066,201.30000000000001,735.41600000000005,-1009.75,4542.6000000000004,-467.52499999999998
6238.0,8965.2099999999991,-408.36399999999998,267.51100000000002,1672.21,-1054.6600000000001,4909.6400000000003,-669.61000000000001
6239.0,9751.1499999999996,-1547.6700000000001,226.54900000000001,2391.6900000000001,-984.84500000000003,5124.5299999999997,-756.19100000000003
6240.0,10432.9,-2954.3200000000002,165.74600000000001,3008.0700000000002,-873.83199999999999,5099.9300000000003,-784.28999999999996
6241.0,7112.9700000000003,2373.6500000000001,-85.268900000000002,-3200.75,-1194.98,2737.4400000000001,372.62299999999999
6242.0,7005.6199999999999,2271.5900000000001,-45.474600000000002,-2820.77,-1171.0699999999999,2898.71,291.75799999999998
6243.0,6867.4700000000003,2031.21,-76.049899999999994,-2562.77,-1101.04,3027.52,233.25999999999999
6244.0,6833.75,1702.3099999999999,-31.926100000000002,-2259.9400000000001,-1060.05,3237.0300000000002,139.55500000000001
6245.0,6902.0799999999999,1212.3599999999999,-69.662700000000001,-1981.1199999999999,-1027.4100000000001,3498.3600000000001,53.691499999999998
6246.0,7013.1400000000003,801.44799999999998,22.266200000000001,-1530.53,-1007.8,3737.23,-52.575800000000001
6247.0,7239.9499999999998,276.16500000000002,-26.186499999999999,-1215.9200000000001,-1013.6799999999999,3973.8699999999999,-175.75999999999999
6248.0,7511.9499999999998,-3.86564,60.1586,-718.40200000000004,-1022.3099999999999,4184.1099999999997,-266.63900000000001
6249.0,7794.2600000000002,-143.334,-1.6389199999999999,-280.48399999999998,-1040.55,4361.4300000000003,-354.846
6250.0,8426.9500000000007,18.2163,148.876,650.93399999999997,-1069.9100000000001,4708.4200000000001,-495.62599999999998
6251.0,9332.6700000000001,-451.404,233.358,1685.2,-1095.95,5113.54,-702.26499999999999
6252.0,10148.1,-1668.0699999999999,196.03,2473.21,-1007.36,5325.0500000000002,-809.56500000000005
6253.0,10812.799999999999,-3126.8299999999999,106.33,3102.0700000000002,-884.16600000000005,5276.3999999999996,-803.65800000000002
6254.0,7209.6000000000004,2530.5999999999999,-33.361899999999999,-3126.4299999999998,-1221.76,2774.0300000000002,338.16300000000001
6255.0,7129.5500000000002,2402.1900000000001,-29.716000000000001,-2771.9699999999998,-1200.1099999999999,2956.2800000000002,250.22900000000001
6256.0,7027.8500000000004,2158.5,-75.626400000000004,-2545.52,-1136.26,3097.9400000000001,196.62899999999999
6257.0,6998.5100000000002,1816.6500000000001,-39.892299999999999,-2261.1900000000001,-1086.0799999999999,3311.5100000000002,111.306
6258.0,7069.6899999999996,1333.8800000000001,-62.0839,-1986.46,-1051.1300000000001,3574.25,24.254000000000001
6259.0,7184.0299999999997,863.01400000000001,-25.412199999999999,-1577.98,-1031.22,3822.0999999999999,-72.199700000000007
6260.0,7379.1599999999999,386.84100000000001,-10.7461,-1162.46,-1032.6199999999999,4049.6300000000001,-193.31299999999999
6261.0,7636.4300000000003,49.714700000000001,23.3504,-714.59699999999998,-1045.6800000000001,4250.2700000000004,-303.13900000000001
6262.0,7982.6800000000003,-28.266200000000001,60.2624,-222.89500000000001,-1101.5,4454.21,-408.42700000000002
6263.0,8765.3799999999992,-14.4079,103.86199999999999,564.59100000000001,-1147.8199999999999,4887.3800000000001,-559.51900000000001
6264.0,9804.6399999999994,-523.85400000000004,196.00899999999999,1685.9400000000001,-1147.79,5376.3299999999999,-742.35599999999999
6265.0,10566.5,-1825.8599999999999,116.684,2523.5700000000002,-1035.95,5540.1499999999996,-838.40200000000004
6266.0,11208.799999999999,-3243.1300000000001,82.412800000000004,3243.4699999999998,-887.53099999999995,5463.3199999999997,-850.02999999999997
6267.0,7327.7200000000003,2593.2600000000002,-84.201700000000002,-3162.6599999999999,-1253.6900000000001,2817.23,306.524
6268.0,7263.5200000000004,2502.2800000000002,-59.985500000000002,-2770.2800000000002,-1228.6700000000001,3013.2600000000002,212.34999999999999
6269.0,7193.4200000000001,2295.52,-70.048100000000005,-2517.7199999999998,-1171.21,3171.6599999999999,157.78100000000001
6270.0,7174.2299999999996,1916.1700000000001,-73.168300000000002,-2285.9499999999998,-1111.3599999999999,3390.5700000000002,82.814400000000006
6271.0,7230.71,1440.1600000000001,-63.566899999999997,-1991.6400000000001,-1075.6900000000001,3648.46,-4.9567500000000004
6272.0,7370.9399999999996,956.61699999999996,-41.393700000000003,-1611.02,-1057.3399999999999,3912.4099999999999,-99.613500000000002
6273.0,7547.8500000000004,502.012,-9.4285800000000002,-1135.1199999999999,-1042.01,4142.3400000000001,-209.07499999999999
6274.0,7752.5100000000002,159.25899999999999,40.113900000000001,-640.572,-1071.78,4311.21,-335.18700000000001
6275.0,8185.7700000000004,9.3427399999999992,50.7301,-161.911,-1175.75,4552.3999999999996,-464.94299999999998
6276.0,9101.5699999999997,-55.680300000000003,45.383299999999998,564.68700000000001,-1252.52,5055.1899999999996,-615.09400000000005
6277.0,10290.4,-541.78399999999999,209.114,1746.8399999999999,-1226.3800000000001,5637.3199999999997,-807.93899999999996
6278.0,11054.200000000001,-1923.98,114.72199999999999,2673.4499999999998,-1066.4300000000001,5788.2299999999996,-885.37300000000005
6279.0,11599.0,-3361.54,47.842599999999997,3399.9499999999998,-885.37099999999998,5641.2299999999996,-899.12099999999998
6280.0,7463.9799999999996,2735.1399999999999,-62.695099999999996,-3137.4899999999998,-1286.05,2865.9299999999998,273.01499999999999
6281.0,7414.21,2646.4499999999998,-58.692100000000003,-2741.6799999999998,-1261.75,3072.71,178.67500000000001
6282.0,7369.6400000000003,2415.9200000000001,-95.391999999999996,-2515.3400000000001,-1205.9000000000001,3248.8200000000002,121.783
6283.0,7350.9399999999996,2051.73,-76.257499999999993,-2279.5300000000002,-1138.26,3467.4899999999998,50.327300000000001
6284.0,7402.3599999999997,1540.5899999999999,-77.828999999999994,-1999.4000000000001,-1101.3099999999999,3729.6500000000001,-35.3489
6285.0,7548.3699999999999,1052.98,-49.4497,-1635.9000000000001,-1081.6600000000001,3997.23,-133.22200000000001
6286.0,7730.29,589.96799999999996,-34.840299999999999,-1176.0599999999999,-1058.0,4235.6000000000004,-239.71700000000001
6287.0,7929.0500000000002,249.149,29.680900000000001,-580.73000000000002,-1099.4000000000001,4408.2399999999998,-361.23200000000003
6288.0,8405.3299999999999,64.555899999999994,27.667000000000002,-33.457299999999996,-1233.99,4665.9899999999998,-503.19299999999998
6289.0,9453.3700000000008,89.788700000000006,147.351,795.06500000000005,-1352.3800000000001,5229.1499999999996,-679.96900000000005
6290.0,10750.299999999999,-563.53899999999999,226.25200000000001,1857.6900000000001,-1293.6900000000001,5872.3800000000001,-916.34900000000005
6291.0,11575.4,-2020.4100000000001,126.51900000000001,2859.27,-1083.24,6047.3299999999999,-968.45000000000005
6292.0,12026.0,-3457.7199999999998,44.072899999999997,3598.1799999999998,-878.74099999999999,5839.8599999999997,-941.11199999999997
6293.0,7607.6199999999999,2829.7399999999998,-106.441,-3171.8600000000001,-1319.48,2913.25,240.24299999999999
6294.0,7584.4899999999998,2785.0799999999999,-79.854200000000006,-2739.1300000000001,-1301.4400000000001,3134.8000000000002,146.13300000000001
6295.0,7559.2299999999996,2583.9400000000001,-89.238399999999999,-2481.21,-1239.45,3329.1399999999999,85.726699999999994
6296.0,7529.9700000000003,2173.1199999999999,-93.313500000000005,-2279.3099999999999,-1171.0799999999999,3545.6799999999998,17.1435
6297.0,7594.0500000000002,1642.1900000000001,-101.73999999999999,-2015.76,-1129.0899999999999,3820.5,-67.373500000000007
6298.0,7710.0500000000002,1163.1700000000001,-36.486800000000002,-1621.25,-1104.4300000000001,4076.23,-170.05500000000001
6299.0,7909.5799999999999,644.221,-69.327299999999994,-1243.03,-1089.72,4321.8900000000003,-281.91300000000001
6300.0,8189.9099999999999,346.19299999999998,26.528500000000001,-554.82600000000002,-1131.5799999999999,4552.3000000000002,-381.67899999999997
6301.0,8694.2600000000002,178.99100000000001,37.391800000000003,110.22199999999999,-1299.8199999999999,4819.5699999999997,-523.34900000000005
6302.0,9877.5400000000009,184.779,204.91999999999999,1024.72,-1445.0899999999999,5442.9700000000003,-760.35299999999995
6303.0,11192.6,-640.74599999999998,207.876,2022.6500000000001,-1341.6700000000001,6087.9700000000003,-1021.37
6304.0,12056.5,-2123.6900000000001,114.63800000000001,3024.75,-1098.75,6279.3500000000004,-1072.97
6305.0,12504.5,-3580.96,31.4556,3789.4499999999998,-865.88599999999997,6063.5699999999997,-1010.73
6306.0,7762.0900000000001,2995.8899999999999,-94.587800000000001,-3152.3699999999999,-1354.76,2958.73,208.684
6307.0,7777.3800000000001,2958.77,-82.559700000000007,-2722.3499999999999,-1347.51,3201.8899999999999,111.41500000000001
6308.0,7762.2600000000002,2737.0100000000002,-108.94,-2482.54,-1276.24,3409.3600000000001,47.153100000000002
6309.0,7731.75,2309.8299999999999,-98.855999999999995,-2269.9400000000001,-1204.3499999999999,3636.9699999999998,-18.809699999999999
6310.0,7793.6800000000003,1772.0,-98.351699999999994,-2009.0999999999999,-1153.8900000000001,3915.3600000000001,-106.401
6311.0,7879.3999999999996,1223.96,-68.000200000000007,-1625.9000000000001,-1127.9000000000001,4164.5799999999999,-206.797
6312.0,8073.4399999999996,731.79200000000003,-52.863900000000001,-1248.45,-1127.9100000000001,4399.2200000000003,-327.26600000000002
6313.0,8478.0499999999993,421.92200000000003,31.620100000000001,-635.93899999999996,-1179.4200000000001,4699.5900000000001,-442.428
6314.0,9178.7000000000007,309.76900000000001,147.12,253.03100000000001,-1371.28,5085.9300000000003,-573.53200000000004
6315.0,10423.4,164.12899999999999,229.929,1218.02,-1485.8699999999999,5743.0,-822.82000000000005
6316.0,11649.9,-696.88300000000004,245.44800000000001,2274.6199999999999,-1356.0799999999999,6317.2299999999996,-1089.9100000000001
6317.0,12497.799999999999,-2226.9899999999998,117.941,3228.1300000000001,-1115.26,6477.75,-1171.22
6318.0,12973.700000000001,-3695.54,46.290500000000002,4001.6100000000001,-857.91600000000005,6268.96,-1119.96
6319.0,7937.2200000000003,3122.25,-141.185,-3198.3000000000002,-1394.97,3005.0599999999999,180.589
6320.0,7996.1099999999997,3156.6399999999999,-77.9435,-2701.8200000000002,-1396.4400000000001,3278.0,76.330500000000001
6321.0,7977.2700000000004,2885.4899999999998,-137.11600000000001,-2488.7399999999998,-1323.05,3493.3699999999999,7.9456499999999997
6322.0,7961.4799999999996,2457.4400000000001,-114.26900000000001,-2272.1999999999998,-1240.1099999999999,3739.0500000000002,-58.689500000000002
6323.0,7991.8199999999997,1870.73,-126.54300000000001,-2022.5999999999999,-1177.76,4011.1999999999998,-149.928
6324.0,8071.2399999999998,1318.6800000000001,-80.435599999999994,-1601.0899999999999,-1149.1400000000001,4266.1800000000003,-248.27699999999999
6325.0,8228.0799999999999,815.14300000000003,-25.2332,-1198.79,-1168.97,4476.1300000000001,-376.286
6326.0,8747.0400000000009,386.75599999999997,-12.8057,-763.36400000000003,-1280.1199999999999,4819.6899999999996,-542.63900000000001
6327.0,9829.0599999999995,174.04400000000001,3.1251600000000002,95.489000000000004,-1459.5899999999999,5441.8599999999997,-672.24199999999996
6328.0,11062.4,38.9846,127.09,1243.1900000000001,-1494.01,6112.8500000000004,-861.99199999999996
6329.0,12164.4,-781.303,246.548,2451.46,-1339.0599999999999,6595.3100000000004,-1142.24
6330.0,12959.200000000001,-2343.8600000000001,145.15700000000001,3478.0,-1090.0999999999999,6686.7700000000004,-1243.52
6331.0,13401.200000000001,-3874.9699999999998,29.486799999999999,4199.5799999999999,-847.14599999999996,6430.9099999999999,-1218.2
6332.0,8142.29,3322.4499999999998,-135.87,-3204.5100000000002,-1439.8299999999999,3055.98,154.59700000000001
6333.0,8238.4300000000003,3352.27,-97.435299999999998,-2709.54,-1445.71,3359.6700000000001,40.069400000000002
6334.0,8218.0900000000001,3056.04,-165.46299999999999,-2474.8899999999999,-1376.26,3591.71,-26.384399999999999
6335.0,8196.1399999999994,2615.5599999999999,-134.36500000000001,-2264.1799999999998,-1285.0599999999999,3840.02,-100.574
6336.0,8206.5599999999995,1996.53,-132.595,-2008.0,-1209.6900000000001,4114.9200000000001,-197.04300000000001
6337.0,8279.7999999999993,1419.5,-98.578500000000005,-1577.45,-1170.3399999999999,4376.0500000000002,-294.31700000000001
6338.0,8416.0799999999999,867.73400000000004,-24.088899999999999,-1127.4400000000001,-1222.04,4575.5200000000004,-427.20800000000003
6339.0,9067.7399999999998,369.01900000000001,3.71739,-706.86599999999999,-1402.0599999999999,4976.3699999999999,-615.31500000000005
6340.0,10464.6,151.065,-10.808400000000001,104.015,-1591.77,5777.9499999999998,-759.96000000000004
6341.0,11793.5,-32.9726,60.370699999999999,1258.99,-1593.0599999999999,6516.0600000000004,-920.01300000000003
6342.0,12745.700000000001,-942.94600000000003,129.298,2500.2800000000002,-1349.5799999999999,6911.9499999999998,-1204.0799999999999
6343.0,13425.700000000001,-2507.5900000000001,48.747399999999999,3621.0500000000002,-1035.51,6914.9499999999998,-1310.74
6344.0,13809.6,-3971.27,27.269100000000002,4451.75,-811.99599999999998,6596.3400000000001,-1282.6099999999999
6345.0,8375.3400000000001,3522.2800000000002,-159.31200000000001,-3242.3200000000002,-1490.8399999999999,3110.0300000000002,131.971
6346.0,8503.3400000000001,3561.3400000000001,-126.782,-2729.9499999999998,-1499.1300000000001,3444.0700000000002,6.1172300000000002
6347.0,8502.6499999999996,3303.4400000000001,-153.60599999999999,-2425.2199999999998,-1432.4300000000001,3704.3099999999999,-55.732900000000001
6348.0,8443.4599999999991,2784.21,-147.78700000000001,-2228.96,-1338.47,3950.75,-144.13
6349.0,8428.6100000000006,2107.8899999999999,-158.464,-1995.72,-1248.1300000000001,4222.8800000000001,-254.333
6350.0,8505.4899999999998,1531.1800000000001,-105.26600000000001,-1556.4200000000001,-1202.72,4489.71,-352.54899999999998
6351.0,8695.9200000000001,943.25400000000002,-3.3052299999999999,-1016.36,-1285.49,4728.79,-481.601
6352.0,9459.2000000000007,419.68599999999998,17.124199999999998,-596.47500000000002,-1489.55,5185.1199999999999,-677.76499999999999
6353.0,11022.799999999999,270.75799999999998,99.353499999999997,300.07900000000001,-1683.8,6073.7700000000004,-873.72799999999995
6354.0,12556.299999999999,-9.2767900000000001,154.11099999999999,1506.1400000000001,-1701.0999999999999,6919.0200000000004,-1046.3499999999999
6355.0,13386.6,-1100.22,60.996000000000002,2636.5500000000002,-1413.1500000000001,7243.96,-1266.6300000000001
6356.0,13890.4,-2644.0599999999999,-35.301400000000001,3759.6300000000001,-1040.7,7143.2299999999996,-1355.1300000000001
6357.0,14225.799999999999,-4043.5599999999999,-17.657399999999999,4670.8599999999997,-794.65999999999997,6782.7700000000004,-1341.1900000000001
6358.0,8638.2199999999993,3757.4400000000001,-170.41399999999999,-3274.5300000000002,-1548.02,3169.54,108.998
6359.0,8794.2000000000007,3818.77,-120.53,-2742.73,-1560.1900000000001,3526.5,-31.389099999999999
6360.0,8839.7299999999996,3553.5900000000001,-157.221,-2432.1399999999999,-1496.1099999999999,3830.1700000000001,-96.882400000000004
6361.0,8748.0499999999993,2981.6500000000001,-146.97200000000001,-2183.96,-1385.3900000000001,4096.6000000000004,-194.441
6362.0,8638.8600000000006,2256.8099999999999,-142.958,-1901.03,-1284.55,4332.8999999999996,-310.41500000000002
6363.0,8753.3999999999996,1628.0599999999999,-113.389,-1543.5699999999999,-1266.4400000000001,4607.3999999999996,-431.036
6364.0,9091.1100000000006,997.59100000000001,-24.7285,-955.23599999999999,-1345.45,4947.8299999999999,-551.39999999999998
6365.0,9896.7199999999993,532.06200000000001,50.115400000000001,-426.02100000000002,-1577.1199999999999,5420.3999999999996,-742.18899999999996
6366.0,11600.799999999999,297.61599999999999,51.619500000000002,411.38499999999999,-1773.4000000000001,6378.9300000000003,-995.20100000000002
6367.0,13277.4,39.684399999999997,222.667,1815.8099999999999,-1748.5599999999999,7302.1000000000004,-1195.99
6368.0,14032.799999999999,-1152.6900000000001,91.028700000000001,2916.4200000000001,-1433.0599999999999,7573.54,-1371.1199999999999
6369.0,14350.0,-2675.6900000000001,-20.078099999999999,4009.7199999999998,-1029.0599999999999,7364.8100000000004,-1417.98
6370.0,14628.700000000001,-4072.8600000000001,-39.349400000000003,4913.54,-779.39099999999996,6959.4799999999996,-1425.27
6371.0,8949.8700000000008,4021.6199999999999,-181.78399999999999,-3313.96,-1610.8299999999999,3248.1100000000001,82.376199999999997
6372.0,9102.0499999999993,4029.0999999999999,-165.51400000000001,-2808.5100000000002,-1635.5999999999999,3611.9899999999998,-72.771100000000004
6373.0,9233.0499999999993,3823.54,-151.86799999999999,-2458.8200000000002,-1574.3599999999999,3976.9000000000001,-151.887
6374.0,9101.9400000000005,3154.3400000000001,-196.97999999999999,-2212.29,-1426.1199999999999,4262.5,-251.922
6375.0,8889.1299999999992,2391.73,-152.80199999999999,-1817.4300000000001,-1319.99,4469.0799999999999,-360.61500000000001
6376.0,9032.4099999999999,1725.95,-97.030500000000004,-1472.25,-1348.0999999999999,4747.2700000000004,-516.69100000000003
6377.0,9547.4599999999991,1080.26,-34.399799999999999,-923.476,-1422.05,5190.2299999999996,-644.95299999999997
6378.0,10475.200000000001,625.83600000000001,68.686499999999995,-254.20599999999999,-1671.8900000000001,5737.6099999999997,-814.423
6379.0,12206.5,311.03100000000001,-20.051100000000002,561.45600000000002,-1857.6400000000001,6700.4399999999996,-1110.96
6380.0,13960.299999999999,49.171100000000003,190.28100000000001,2052.29,-1776.1400000000001,7661.3299999999999,-1364.6600000000001
6381.0,14643.799999999999,-1206.23,51.777799999999999,3182.0100000000002,-1415.9100000000001,7881.6000000000004,-1499.8900000000001
6382.0,14800.5,-2691.6100000000001,-43.003399999999999,4257.6199999999999,-1003.41,7581.21,-1495.5599999999999
6383.0,15023.700000000001,-4033.0,-14.472099999999999,5219.5200000000004,-752.19000000000005,7129.8900000000003,-1520.1800000000001
6384.0,9328.9799999999996,4345.3900000000003,-173.821,-3355.3299999999999,-1680.45,3348.0100000000002,49.604100000000003
6385.0,9456.3899999999994,4288.2200000000003,-188.852,-2833.6500000000001,-1722.0799999999999,3724.52,-100.661
6386.0,9653.25,4099.8599999999997,-144.69200000000001,-2496.0100000000002,-1659.0,4133.8500000000004,-213.874
6387.0,9478.3500000000004,3348.8699999999999,-224.74100000000001,-2228.9299999999998,-1486.05,4433.3000000000002,-317.21100000000001
6388.0,9235.5900000000001,2563.8499999999999,-173.62100000000001,-1757.0799999999999,-1374.9400000000001,4646.6499999999996,-414.29599999999999
6389.0,9365.1599999999999,1851.6800000000001,-66.765799999999999,-1329.3800000000001,-1423.0599999999999,4928.3000000000002,-597.15300000000002
6390.0,10008.5,1110.8,-79.328000000000003,-918.61800000000005,-1529.0599999999999,5425.1099999999997,-761.69799999999998
6391.0,11226.799999999999,745.10699999999997,92.039400000000001,-105.47499999999999,-1771.3900000000001,6150.9099999999999,-918.80399999999997
6392.0,12886.4,337.95999999999998,-63.332099999999997,807.27200000000005,-1915.3399999999999,7076.5200000000004,-1190.79
6393.0,14565.799999999999,91.243499999999997,186.33500000000001,2355.8200000000002,-1802.4200000000001,7968.7399999999998,-1526.49
6394.0,15217.200000000001,-1285.1900000000001,-49.293700000000001,3385.6700000000001,-1419.9400000000001,8160.5200000000004,-1649.24
6395.0,15270.299999999999,-2673.2800000000002,-52.661000000000001,4519.8299999999999,-986.80600000000004,7808.2600000000002,-1591.2
6396.0,15436.4,-4072.77,-74.968800000000002,5459.7700000000004,-715.82799999999997,7306.3100000000004,-1618.1199999999999
6397.0,9751.5499999999993,4663.4499999999998,-195.37799999999999,-3451.6999999999998,-1767.74,3448.8699999999999,3.5573600000000001
6398.0,9919.3999999999996,4635.5600000000004,-195.73099999999999,-2860.0100000000002,-1812.53,3880.5500000000002,-130.25999999999999
6399.0,10051.799999999999,4385.0200000000004,-137.01400000000001,-2492.75,-1732.8399999999999,4286.7200000000003,-290.02600000000001
6400.0,9881.6299999999992,3546.52,-238.80099999999999,-2226.27,-1570.8,4617.5200000000004,-399.10899999999998
6401.0,9684.6599999999999,2779.6300000000001,-175.65700000000001,-1705.1500000000001,-1458.95,4869.2700000000004,-477.661
6402.0,9796.5,1959.23,-97.880600000000001,-1210.98,-1504.9300000000001,5166.6499999999996,-666.69899999999996
6403.0,10511.9,1237.3900000000001,-31.659600000000001,-748.01199999999994,-1657.5699999999999,5684.96,-869.59199999999998
6404.0,12014.9,807.76900000000001,48.005899999999997,-69.084199999999996,-1887.98,6570.6700000000001,-1074.52
6405.0,13752.1,460.49599999999998,-21.618500000000001,1069.4000000000001,-1943.95,7569.79,-1288.54
6406.0,15124.299999999999,121.53700000000001,217.62299999999999,2725.9899999999998,-1774.76,8262.4200000000001,-1627.95
6407.0,15720.5,-1241.23,9.8141099999999994,3768.4000000000001,-1435.5,8380.3500000000004,-1813.5
6408.0,15768.299999999999,-2737.25,-142.35300000000001,4730.8299999999999,-999.904,8036.1199999999999,-1710.26
6409.0,15859.4,-4047.1399999999999,-75.377099999999999,5767.5699999999997,-698.46400000000006,7486.6999999999998,-1711.02
6410.0,10194.6,4974.8199999999997,-236.166,-3559.0,-1870.24,3555.1300000000001,-57.014000000000003
6411.0,10473.299999999999,5098.6000000000004,-152.90199999999999,-2862.6100000000001,-1911.8800000000001,4061.02,-181.25
6412.0,10482.299999999999,4646.8999999999996,-187.13200000000001,-2516.3299999999999,-1814.1199999999999,4456.4899999999998,-352.45999999999998
6413.0,10311.299999999999,3803.4899999999998,-192.16499999999999,-2147.0100000000002,-1666.48,4819.0900000000001,-491.07999999999998
6414.0,10205.799999999999,2990.3299999999999,-171.578,-1690.3900000000001,-1569.45,5120.7399999999998,-576.32899999999995
6415.0,10381.6,2166.8499999999999,-62.258899999999997,-1068.0699999999999,-1603.8099999999999,5482.5,-745.17399999999998
6416.0,11133.700000000001,1364.25,-8.8275400000000008,-534.85299999999995,-1785.28,6019.8699999999999,-965.74099999999999
6417.0,12775.6,917.97900000000004,76.375900000000001,98.517300000000006,-2019.52,6965.9099999999999,-1254.0599999999999
6418.0,14675.200000000001,505.63900000000001,-60.972700000000003,1174.73,-1974.53,8082.8000000000002,-1474.47
6419.0,15772.299999999999,81.204499999999996,152.614,2947.71,-1698.3199999999999,8625.9599999999991,-1719.77
6420.0,16168.299999999999,-1191.8099999999999,94.905600000000007,4192.2799999999997,-1390.6199999999999,8577.0100000000002,-1932.3499999999999
6421.0,16255.799999999999,-2740.9400000000001,-135.67400000000001,5066.6499999999996,-1003.09,8237.3199999999997,-1849.8900000000001
6422.0,16306.9,-4030.29,-91.578999999999994,6082.5200000000004,-690.053,7674.8500000000004,-1809.78
6423.0,10672.9,5340.2700000000004,-259.78199999999998,-3638.5100000000002,-1970.1900000000001,3675.4699999999998,-118.28400000000001
6424.0,11049.200000000001,5578.9899999999998,-93.274199999999993,-2877.6700000000001,-2028.1300000000001,4235.5699999999997,-260.37299999999999
6425.0,11037.200000000001,4997.0299999999997,-186.06299999999999,-2542.0300000000002,-1919.73,4675.1899999999996,-434.27999999999997
6426.0,10788.200000000001,4041.4200000000001,-193.55799999999999,-2060.77,-1751.8699999999999,5060.3000000000002,-585.52700000000004
6427.0,10755.799999999999,3177.0700000000002,-170.20099999999999,-1641.8299999999999,-1710.7,5389.1999999999998,-702.61699999999996
6428.0,11112.299999999999,2324.4000000000001,-95.531300000000002,-1065.8299999999999,-1733.0699999999999,5861.1199999999999,-869.58299999999997
6429.0,11947.0,1565.25,45.159599999999998,-275.15800000000002,-1903.9200000000001,6469.5799999999999,-1062.9300000000001
6430.0,13567.9,1037.1199999999999,90.921499999999995,398.10300000000001,-2125.5100000000002,7393.8999999999996,-1393.77
6431.0,15453.5,551.55700000000002,-78.504900000000006,1391.0999999999999,-2023.6300000000001,8492.8500000000004,-1683.99
6432.0,16485.700000000001,34.200099999999999,50.453099999999999,3098.5700000000002,-1674.76,9011.5900000000001,-1861.6700000000001
6433.0,16647.799999999999,-1232.3599999999999,2.55613,4439.8999999999996,-1323.28,8814.5300000000007,-2009.4100000000001
6434.0,16685.700000000001,-2707.77,-137.28,5428.6099999999997,-971.84100000000001,8407.0100000000002,-1970.8800000000001
6435.0,16765.400000000001,-3996.25,-110.386,6434.4899999999998,-676.02499999999998,7857.3900000000003,-1925.6800000000001
6436.0,11197.4,5744.4899999999998,-291.52999999999997,-3722.1700000000001,-2077.8200000000002,3804.1500000000001,-187.93000000000001
6437.0,11657.5,6053.3100000000004,-42.622100000000003,-2889.6900000000001,-2157.3800000000001,4430.9799999999996,-370.10000000000002
6438.0,11672.700000000001,5331.1000000000004,-226.86199999999999,-2603.1799999999998,-2038.75,4937.3800000000001,-548.71699999999998
6439.0,11374.799999999999,4344.0299999999997,-220.66,-1972.77,-1845.3399999999999,5352.79,-660.25800000000004
6440.0,11363.6,3426.6900000000001,-129.06999999999999,-1455.3699999999999,-1871.3199999999999,5701.9300000000003,-810.56600000000003
6441.0,11905.1,2477.9400000000001,-117.922,-1047.27,-1920.6300000000001,6258.0600000000004,-1026.27
6442.0,12974.0,1726.3,-12.7539,-166.637,-2022.99,7035.29,-1189.6800000000001
6443.0,14427.4,1265.78,132.501,788.06700000000001,-2183.8499999999999,7879.3199999999997,-1485.53
6444.0,16118.799999999999,707.15499999999997,14.999499999999999,1788.3900000000001,-2061.52,8837.9899999999998,-1856.4100000000001
6445.0,17123.099999999999,21.5182,26.9192,3377.0599999999999,-1682.9000000000001,9327.0599999999995,-2039.6199999999999
6446.0,17187.5,-1232.4300000000001,-79.168000000000006,4689.9700000000003,-1326.3499999999999,9081.3799999999992,-2093.1300000000001
6447.0,17130.700000000001,-2623.9099999999999,-147.34899999999999,5780.6499999999996,-964.88400000000001,8601.3999999999996,-2062.3499999999999
6448.0,17201.400000000001,-3969.96,-161.95099999999999,6785.9099999999999,-658.62,8017.0900000000001,-2043.98
6449.0,11799.4,6197.7700000000004,-348.76299999999998,-3782.0799999999999,-2222.6199999999999,3961.5799999999999,-259.565
6450.0,12308.299999999999,6551.7299999999996,-24.1128,-2880.9200000000001,-2297.77,4646.8599999999997,-477.88600000000002
6451.0,12319.5,5727.5600000000004,-214.62100000000001,-2608.1100000000001,-2181.6599999999999,5192.1700000000001,-671.93799999999999
6452.0,12112.700000000001,4761.1700000000001,-190.80699999999999,-1915.54,-1977.8399999999999,5693.1199999999999,-754.81899999999996
6453.0,12143.1,3759.27,-76.689800000000005,-1213.72,-2037.9400000000001,6114.4899999999998,-906.37099999999998
6454.0,12738.4,2667.7800000000002,-114.06699999999999,-863.16800000000001,-2128.0599999999999,6685.6099999999997,-1184.01
6455.0,14031.6,1932.0999999999999,-77.092299999999994,-91.077500000000001,-2182.6300000000001,7590.6499999999996,-1375.3199999999999
6456.0,15455.0,1503.8099999999999,105.78700000000001,1070.78,-2225.0,8456.6399999999994,-1625.0999999999999
6457.0,16739.799999999999,790.63,-21.611499999999999,2185.0599999999999,-1999.71,9173.9300000000003,-2000.27
6458.0,17596.799999999999,113.399,61.340000000000003,3778.0900000000001,-1667.74,9538.9200000000001,-2214.0999999999999
6459.0,17756.200000000001,-1174.9100000000001,-73.353700000000003,5051.7799999999997,-1350.0,9339.75,-2235.9099999999999
6460.0,17631.200000000001,-2560.2800000000002,-163.89099999999999,6147.8999999999996,-975.30899999999997,8815.0799999999999,-2174.1199999999999
6461.0,17652.900000000001,-3907.6399999999999,-190.12899999999999,7171.0799999999999,-651.26800000000003,8186.6000000000004,-2154.0900000000001
6462.0,12496.299999999999,6840.2200000000003,-287.81,-3705.8699999999999,-2396.4200000000001,4153.0500000000002,-331.38600000000002
6463.0,13024.0,7105.7200000000003,15.6995,-2838.6900000000001,-2459.8099999999999,4889.2399999999998,-606.72699999999998
6464.0,12991.700000000001,6147.6000000000004,-156.029,-2492.96,-2348.8400000000001,5484.9700000000003,-826.96900000000005
6465.0,12937.799999999999,5109.9399999999996,-221.05000000000001,-1995.0,-2178.5900000000001,6044.6800000000003,-914.74800000000005
6466.0,13221.200000000001,4247.3000000000002,54.739199999999997,-987.71799999999996,-2187.98,6686.5500000000002,-1044.74
6467.0,13661.799999999999,2909.1500000000001,-122.56100000000001,-541.19100000000003,-2287.9699999999998,7194.5,-1294.02
6468.0,15043.4,2211.3499999999999,-59.188899999999997,184.697,-2368.9000000000001,8107.79,-1591.54
6469.0,16562.0,1677.4300000000001,-23.767299999999999,1285.8199999999999,-2266.75,9064.1299999999992,-1828.51
6470.0,17338.900000000001,963.17899999999997,-102.831,2514.1799999999998,-1953.3499999999999,9506.6499999999996,-2070.8600000000001
6471.0,18027.200000000001,237.53700000000001,88.875200000000007,4177.6999999999998,-1657.6700000000001,9729.1499999999996,-2354.7800000000002
6472.0,18290.700000000001,-1115.6099999999999,-65.593400000000003,5496.3800000000001,-1348.04,9554.0799999999999,-2406.8200000000002
6473.0,18163.0,-2472.7800000000002,-160.22399999999999,6564.2700000000004,-995.84100000000001,9032.0699999999997,-2314.1199999999999
6474.0,18150.0,-3848.4200000000001,-208.10900000000001,7590.4200000000001,-637.71500000000003,8371.5300000000007,-2272.8299999999999
6475.0,13345.700000000001,7598.6400000000003,-172.03399999999999,-3627.8499999999999,-2571.71,4414.5699999999997,-455.07400000000001
6476.0,13819.200000000001,7672.9399999999996,56.5471,-2801.3200000000002,-2626.9200000000001,5179.9799999999996,-780.51400000000001
6477.0,13769.4,6621.6499999999996,-55.549599999999998,-2299.3499999999999,-2532.4099999999999,5855.1800000000003,-984.06600000000003
6478.0,13857.1,5518.6400000000003,-127.267,-1929.4400000000001,-2440.96,6460.3699999999999,-1100.97
6479.0,14418.700000000001,4557.3500000000004,-19.4055,-1130.1500000000001,-2352.5700000000002,7283.2600000000002,-1277.02
6480.0,14856.6,3362.8699999999999,5.3105900000000004,-221.03800000000001,-2425.8400000000001,7851.1899999999996,-1420.99
6481.0,16091.799999999999,2607.8299999999999,56.106900000000003,610.41800000000001,-2478.9499999999998,8675.2399999999998,-1763.21
6482.0,17461.299999999999,1983.9300000000001,-2.4826299999999999,1668.74,-2321.1399999999999,9537.5300000000007,-2034.6900000000001
6483.0,18064.700000000001,1187.0799999999999,-136.90700000000001,2856.48,-2000.7,9883.0400000000009,-2202.4099999999999
6484.0,18512.0,303.99200000000002,16.729299999999999,4541.54,-1625.53,9949.9899999999998,-2483.4000000000001
6485.0,18762.900000000001,-1041.4200000000001,-76.189400000000006,5944.5100000000002,-1330.72,9731.2099999999991,-2559.5799999999999
6486.0,18732.200000000001,-2381.48,-137.74299999999999,7056.8800000000001,-1006.27,9246.4799999999996,-2478.3099999999999
6487.0,18650.299999999999,-3831.5,-296.50900000000001,7980.3199999999997,-620.97299999999996,8547.1499999999996,-2398.27
6488.0,14390.1,8462.3099999999995,-62.217300000000002,-3624.54,-2769.0500000000002,4729.8000000000002,-641.47699999999998
6489.0,14705.1,8231.3299999999999,53.7378,-2798.3400000000001,-2801.0500000000002,5523.8699999999999,-971.90700000000004
6490.0,14746.299999999999,7087.5,-42.581400000000002,-2194.6900000000001,-2712.73,6333.4700000000003,-1186.5999999999999
6491.0,14918.799999999999,5997.6999999999998,4.8252199999999998,-1696.02,-2660.9000000000001,7004.4899999999998,-1308.9200000000001
6492.0,15543.9,4723.2600000000002,-164.50899999999999,-1218.21,-2563.8800000000001,7844.46,-1542.01
6493.0,16365.9,3710.71,-71.865300000000005,-131.68600000000001,-2555.4899999999998,8671.0699999999997,-1648.1700000000001
6494.0,17154.799999999999,2846.23,-99.148200000000003,837.03099999999995,-2461.5100000000002,9283.2399999999998,-1895.73
6495.0,18224.700000000001,2341.8400000000001,117.723,2223.9200000000001,-2343.0500000000002,9931.5,-2241.0900000000001
6496.0,18870.700000000001,1434.6099999999999,-87.749300000000005,3366.8099999999999,-2077.9499999999998,10277.700000000001,-2398.75
6497.0,19035.700000000001,387.10500000000002,-85.326700000000002,4880.6599999999999,-1655.1400000000001,10190.299999999999,-2586.9899999999998
6498.0,19263.299999999999,-928.23299999999995,-72.947100000000006,6416.7600000000002,-1323.5699999999999,9927.2199999999993,-2693.98
6499.0,19286.200000000001,-2342.4899999999998,-176.21199999999999,7534.6300000000001,-996.45000000000005,9439.8700000000008,-2632.5100000000002
6500.0,19164.700000000001,-3734.6100000000001,-305.49000000000001,8469.8600000000006,-623.35299999999995,8722.7199999999993,-2516.9099999999999
6501.0,15476.0,9329.9899999999998,32.288699999999999,-3604.8299999999999,-3010.71,5052.0500000000002,-866.52999999999997
6502.0,15812.0,8884.7299999999996,51.569200000000002,-2784.8400000000001,-3023.8499999999999,5980.0100000000002,-1180.71
6503.0,15871.799999999999,7667.0699999999997,-108.52800000000001,-2096.6999999999998,-2885.46,6869.5699999999997,-1352.8299999999999
6504.0,16091.0,6545.5900000000001,31.299800000000001,-1419.1099999999999,-2854.2600000000002,7610.6599999999999,-1497.3099999999999
6505.0,16678.299999999999,5034.4099999999999,-253.11000000000001,-1073.54,-2771.48,8430.7999999999993,-1724.24
6506.0,17729.0,4241.7299999999996,-45.923900000000003,-3.2502900000000001,-2734.6399999999999,9367.8500000000004,-1862.8
6507.0,18348.299999999999,3277.3400000000001,-160.61600000000001,1022.55,-2556.8899999999999,9929.0100000000002,-2011.54
6508.0,19049.400000000001,2593.6700000000001,58.6614,2590.8600000000001,-2345.29,10376.6,-2376.0500000000002
6509.0,19610.700000000001,1646.26,-20.6647,3945.8899999999999,-2088.4000000000001,10632.0,-2612.3699999999999
6510.0,19674.200000000001,520.49900000000002,-70.770399999999995,5358.21,-1704.5899999999999,10476.1,-2738.54
6511.0,19815.0,-857.21799999999996,-105.622,6871.2600000000002,-1319.1500000000001,10149.9,-2820.4499999999998
6512.0,19816.5,-2261.8400000000001,-194.82300000000001,8024.9099999999999,-983.077,9625.5499999999993,-2769.6399999999999
6513.0,19702.0,-3659.75,-326.26400000000001,8962.4500000000007,-617.74900000000002,8900.5900000000001,-2646.1399999999999
6514.0,16603.599999999999,10233.4,100.84999999999999,-3466.8000000000002,-3238.98,5444.3199999999997,-1116.1800000000001
6515.0,17012.400000000001,9657.0499999999993,68.080100000000002,-2663.8699999999999,-3268.71,6474.8299999999999,-1413.02
6516.0,17161.5,8532.0699999999997,-67.397099999999995,-1934.0599999999999,-3092.8600000000001,7425.5699999999997,-1518.0599999999999
6517.0,17386.200000000001,7207.9700000000003,35.662100000000002,-1102.29,-3047.9699999999998,8266.6200000000008,-1683.4000000000001
6518.0,17879.900000000001,5679.0799999999999,-160.57599999999999,-687.59500000000003,-2977.5900000000001,9030.5900000000001,-1913.1900000000001
6519.0,18930.299999999999,4750.1700000000001,40.9801,301.23599999999999,-2906.2199999999998,9964.2900000000009,-2170.8899999999999
6520.0,19706.400000000001,3670.1799999999998,-133.44999999999999,1331.48,-2706.0799999999999,10640.299999999999,-2286.4099999999999
6521.0,20030.900000000001,2823.1300000000001,-65.533199999999994,2865.6599999999999,-2368.3400000000001,10907.799999999999,-2516.79
6522.0,20324.799999999999,1830.0699999999999,-5.19489,4484.7600000000002,-2065.4499999999998,10981.4,-2783.2800000000002
6523.0,20383.0,606.98800000000006,-97.223100000000002,5861.0699999999997,-1723.04,10791.0,-2910.9899999999998
6524.0,20379.700000000001,-767.38800000000003,-138.85300000000001,7348.96,-1303.25,10376.799999999999,-2945.9899999999998
6525.0,20357.299999999999,-2177.4899999999998,-208.00399999999999,8522.5699999999997,-968.09400000000005,9813.7700000000004,-2908.73
6526.0,20250.400000000001,-3564.9400000000001,-339.36500000000001,9485.5400000000009,-604.81500000000005,9075.5699999999997,-2784.4699999999998
6527.0,17903.0,11279.700000000001,76.502499999999998,-3315.0999999999999,-3448.02,5893.9899999999998,-1368.99
6528.0,18179.299999999999,10612.200000000001,186.71600000000001,-2287.1399999999999,-3526.1700000000001,6942.3400000000001,-1632.6099999999999
6529.0,18597.099999999999,9497.1800000000003,59.873399999999997,-1809.6800000000001,-3425.6199999999999,7976.6800000000003,-1785.53
6530.0,18921.700000000001,8102.1099999999997,176.90600000000001,-796.05799999999999,-3255.4000000000001,9008.5400000000009,-1941.49
6531.0,19218.900000000001,6343.0,-55.210799999999999,-219.12700000000001,-3184.4699999999998,9716.0900000000001,-2138.6799999999998
6532.0,20139.299999999999,5201.8699999999999,13.8018,639.94200000000001,-3083.6799999999998,10567.1,-2450.29
6533.0,20949.700000000001,4128.8299999999999,-52.943199999999997,1793.5799999999999,-2827.1999999999998,11279.1,-2587.1300000000001
6534.0,21120.799999999999,3089.4099999999999,-120.575,3227.3200000000002,-2449.6599999999999,11478.5,-2711.5100000000002
6535.0,21125.700000000001,1974.8499999999999,-80.808999999999997,4899.8400000000001,-2063.4099999999999,11389.1,-2920.75
6536.0,21091.799999999999,741.673,-77.669399999999996,6409.8000000000002,-1714.3599999999999,11110.299999999999,-3070.5700000000002
6537.0,20991.5,-694.83799999999997,-184.22,7811.3500000000004,-1295.8699999999999,10630.6,-3071.5300000000002
6538.0,20911.0,-2080.1399999999999,-214.768,9048.8799999999992,-946.97900000000004,10003.6,-3043.25
6539.0,20818.0,-3500.46,-389.32799999999997,9994.4699999999993,-587.50099999999998,9254.2700000000004,-2922.3000000000002
6540.0,19349.599999999999,12498.6,91.489999999999995,-3076.46,-3696.6999999999998,6375.5699999999997,-1652.1600000000001
6541.0,19585.700000000001,11762.700000000001,323.52600000000001,-1800.1300000000001,-3857.3499999999999,7505.9899999999998,-1851.5999999999999
6542.0,20129.700000000001,10342.700000000001,122.696,-1585.6600000000001,-3826.25,8609.9200000000001,-2165.5300000000002
6543.0,20655.5,8821.1499999999996,123.208,-713.44399999999996,-3491.3699999999999,9829.5200000000004,-2351.71
6544.0,20817.599999999999,7144.8000000000002,110.444,284.76400000000001,-3323.8099999999999,10557.700000000001,-2418.4400000000001
6545.0,21387.799999999999,5713.2399999999998,52.597000000000001,1158.73,-3176.0900000000001,11223.4,-2725.21
6546.0,22095.299999999999,4489.8400000000001,-43.999299999999998,2278.3299999999999,-2907.8200000000002,11859.4,-2914.3400000000001
6547.0,22251.799999999999,3370.0599999999999,-100.33199999999999,3710.54,-2529.0500000000002,12056.0,-2976.3600000000001
6548.0,22044.700000000001,2139.4400000000001,-111.53400000000001,5362.3199999999997,-2083.4000000000001,11857.0,-3080.6799999999998
6549.0,21823.400000000001,820.68700000000001,-142.958,6873.79,-1698.5599999999999,11448.0,-3216.3200000000002
6550.0,21650.200000000001,-633.50999999999999,-232.43100000000001,8302.8700000000008,-1268.5699999999999,10902.0,-3209.7800000000002
6551.0,21495.900000000001,-2001.0599999999999,-252.00800000000001,9553.3999999999996,-925.92600000000004,10216.1,-3164.4499999999998
6552.0,21394.5,-3401.02,-416.28500000000003,10542.6,-571.29399999999998,9435.4099999999999,-3052.3200000000002
6553.0,21055.299999999999,13947.299999999999,284.84399999999999,-2828.3600000000001,-4003.0599999999999,6932.6199999999999,-2015.01
6554.0,21465.700000000001,13276.299999999999,601.90499999999997,-1210.47,-4196.4399999999996,8317.1900000000005,-2123.1599999999999
6555.0,21783.400000000001,11275.5,132.09299999999999,-1109.77,-4179.5799999999999,9382.1399999999994,-2481.7800000000002
6556.0,22308.900000000001,9520.2000000000007,42.680900000000001,-515.35199999999998,-3780.9499999999998,10596.9,-2738.3099999999999
6557.0,22638.599999999999,7842.4300000000003,22.5564,532.48199999999997,-3448.3699999999999,11495.299999999999,-2767.9499999999998
6558.0,22673.900000000001,6281.5299999999997,25.149999999999999,1697.26,-3193.1100000000001,11920.799999999999,-2928.5100000000002
6559.0,23176.5,4950.3400000000001,32.673299999999998,2900.1500000000001,-2958.1700000000001,12409.1,-3195.75
6560.0,23360.700000000001,3638.29,-144.33600000000001,4322.7200000000003,-2551.5700000000002,12609.9,-3255.7800000000002
6561.0,22954.0,2291.9699999999998,-233.62899999999999,5859.4799999999996,-2102.04,12297.799999999999,-3256.1799999999998
6562.0,22606.599999999999,988.88099999999997,-169.095,7394.4399999999996,-1713.8499999999999,11812.6,-3358.5100000000002
6563.0,22317.700000000001,-573.59299999999996,-326.505,8759.9699999999993,-1257.96,11183.200000000001,-3330.3499999999999
6564.0,22114.599999999999,-1885.8900000000001,-280.59699999999998,10086.299999999999,-910.89599999999996,10448.299999999999,-3284.9000000000001
6565.0,21995.099999999999,-3329.6300000000001,-483.75799999999998,11060.200000000001,-562.83100000000002,9632.9699999999993,-3174.6599999999999
6566.0,23025.099999999999,15333.799999999999,295.31900000000002,-2816.9299999999998,-4422.6000000000004,7513.6599999999999,-2547.3899999999999
6567.0,23719.599999999999,14949.200000000001,808.51999999999998,-953.04700000000003,-4471.4899999999998,9226.2000000000007,-2536.1799999999998
6568.0,23734.700000000001,12599.799999999999,336.83699999999999,-482.03199999999998,-4405.9499999999998,10337.6,-2793.46
6569.0,23877.799999999999,10389.9,110.116,68.656599999999997,-4011.4099999999999,11364.799999999999,-3071.1999999999998
6570.0,24287.5,8602.9500000000007,-10.8955,829.31299999999999,-3665.9299999999998,12276.9,-3148.04
6571.0,24243.900000000001,7007.0299999999997,35.725299999999997,2195.9499999999998,-3244.4400000000001,12750.799999999999,-3174.5900000000001
6572.0,24198.299999999999,5346.04,-36.587299999999999,3460.4899999999998,-2918.5,12942.700000000001,-3419.73
6573.0,24300.5,4054.4699999999998,-60.516199999999998,4958.8299999999999,-2595.4299999999998,13064.200000000001,-3502.9000000000001
6574.0,23916.099999999999,2692.5799999999999,-96.243899999999996,6538.7799999999997,-2185.5100000000002,12766.799999999999,-3434.1999999999998
6575.0,23426.799999999999,1144.03,-216.673,7946.5799999999999,-1741.8599999999999,12182.799999999999,-3515.2800000000002
6576.0,23025.700000000001,-430.16300000000001,-364.14600000000002,9299.4500000000007,-1266.53,11480.6,-3460.6399999999999
6577.0,22762.5,-1759.6800000000001,-315.86700000000002,10629.0,-917.52700000000004,10695.0,-3404.98
6578.0,22638.400000000001,-3197.04,-510.14299999999997,11641.1,-560.91399999999999,9854.1299999999992,-3302.5599999999999
6579.0,24837.700000000001,16654.099999999999,328.90499999999997,-2443.9699999999998,-4962.3699999999999,8110.3199999999997,-2957.0900000000001
6580.0,26196.0,16535.900000000001,847.04999999999995,-998.94899999999996,-4898.1000000000004,10102.799999999999,-3138.1900000000001
6581.0,26048.099999999999,14090.299999999999,404.58100000000002,-133.28100000000001,-4491.21,11421.9,-3248.71
6582.0,25491.299999999999,11597.5,348.54300000000001,933.41999999999996,-4102.8199999999997,12189.200000000001,-3330.3699999999999
6583.0,25805.400000000001,9423.6800000000003,96.396699999999996,1477.79,-3889.25,12992.799999999999,-3562.6700000000001
6584.0,25873.5,7645.2399999999998,-52.6646,2628.7600000000002,-3352.54,13566.5,-3547.9000000000001
6585.0,25319.799999999999,5941.54,4.8899600000000003,4062.5999999999999,-2922.0300000000002,13527.700000000001,-3599.1300000000001
6586.0,25274.799999999999,4341.8800000000001,-35.326300000000003,5614.8900000000003,-2572.8899999999999,13526.0,-3818.4400000000001
6587.0,24990.299999999999,2856.7800000000002,-115.065,7175.6400000000003,-2152.4000000000001,13266.5,-3754.8200000000002
6588.0,24284.599999999999,1389.5699999999999,-157.85499999999999,8606.8799999999992,-1742.4400000000001,12574.4,-3680.4499999999998
6589.0,23774.299999999999,-283.63299999999998,-389.50099999999998,9865.3400000000001,-1288.6700000000001,11792.4,-3604.0700000000002
6590.0,23464.200000000001,-1599.4400000000001,-335.32400000000001,11219.799999999999,-928.33600000000001,10964.5,-3540.29
6591.0,23311.799999999999,-3066.1199999999999,-551.69799999999998,12227.9,-567.19799999999998,10086.5,-3439.48
6592.0,26807.099999999999,18434.700000000001,689.47000000000003,-1635.1600000000001,-5352.54,8921.4799999999996,-3283.46
6593.0,28440.200000000001,17776.700000000001,804.45299999999997,-845.64200000000005,-5428.3800000000001,10962.1,-3703.8499999999999
6594.0,28422.700000000001,15362.5,194.322,-244.39400000000001,-4748.8000000000002,12397.9,-3748.3499999999999
6595.0,27512.5,12985.700000000001,530.43100000000004,1459.0999999999999,-4139.6700000000001,13173.6,-3672.5599999999999
6596.0,27307.5,10411.299999999999,260.31799999999998,2317.9400000000001,-3932.71,13753.0,-3893.46
6597.0,27258.799999999999,8336.6299999999992,-21.098400000000002,3326.1999999999998,-3484.6900000000001,14223.799999999999,-3940.7399999999998
6598.0,26765.099999999999,6380.8500000000004,-139.33500000000001,4601.6000000000004,-2965.52,14258.5,-3915.6100000000001
6599.0,26250.200000000001,4686.6400000000003,-126.65900000000001,6228.1999999999998,-2522.8499999999999,14012.700000000001,-3997.6799999999998
6600.0,25894.799999999999,3098.3499999999999,-164.99199999999999,7797.3800000000001,-2119.8800000000001,13674.6,-4000.4299999999998
6601.0,25212.900000000001,1518.3399999999999,-252.352,9177.2700000000004,-1699.5999999999999,12989.700000000001,-3892.98
6602.0,24564.200000000001,-68.1023,-352.31200000000001,10525.5,-1274.1900000000001,12120.299999999999,-3764.3099999999999
6603.0,24227.799999999999,-1443.6500000000001,-341.24400000000003,11840.6,-935.91800000000001,11260.4,-3693.5599999999999
6604.0,24036.900000000001,-2891.75,-548.495,12888.1,-568.303,10340.1,-3583.7199999999998
6605.0,29354.5,20715.200000000001,930.02599999999995,-1077.95,-5659.2600000000002,9826.2199999999993,-3684.6399999999999
6606.0,30427.0,19349.099999999999,1122.29,-108.065,-5740.9499999999998,11827.0,-4128.5100000000002
6607.0,30739.0,16457.900000000001,161.012,25.0883,-5160.9399999999996,13434.0,-4310.1999999999998
6608.0,29824.700000000001,14140.1,256.221,1594.8399999999999,-4271.2700000000004,14226.1,-4149.8100000000004
6609.0,28936.900000000001,11494.9,269.89299999999997,2972.5700000000002,-3831.5999999999999,14569.799999999999,-4222.7600000000002
6610.0,28599.299999999999,9235.2399999999998,211.85400000000001,4275.3800000000001,-3507.3099999999999,14883.4,-4289.5799999999999
6611.0,28085.900000000001,7021.5500000000002,-147.047,5346.9300000000003,-3048.2399999999998,14892.700000000001,-4218.0699999999997
6612.0,27357.299999999999,5153.3400000000001,-203.57300000000001,6861.4499999999998,-2504.0300000000002,14561.299999999999,-4193.3299999999999
6613.0,26771.299999999999,3339.0900000000001,-241.74000000000001,8437.5799999999999,-2064.4499999999998,14067.299999999999,-4210.2600000000002
6614.0,26121.900000000001,1713.5599999999999,-312.76999999999998,9818.6900000000005,-1696.49,13381.200000000001,-4095.9099999999999
6615.0,25432.400000000001,79.787499999999994,-444.50700000000001,11100.200000000001,-1268.6500000000001,12492.1,-3929.23
6616.0,25034.5,-1293.96,-379.24400000000003,12491.4,-904.87900000000002,11568.0,-3853.5
6617.0,24813.299999999999,-2767.8400000000001,-609.90800000000002,13528.200000000001,-556.26800000000003,10614.799999999999,-3728.1199999999999
6618.0,32123.799999999999,22961.599999999999,1084.6500000000001,-751.89499999999998,-6106.1999999999998,10718.5,-4214.0600000000004
6619.0,32790.099999999999,21308.099999999999,1308.3199999999999,523.91600000000005,-5899.9499999999998,12783.6,-4626.4200000000001
6620.0,32659.599999999999,17891.400000000001,389.84800000000001,895.10199999999998,-5354.3000000000002,14330.200000000001,-4721.0100000000002
6621.0,31901.799999999999,15304.799999999999,184.22499999999999,2008.3499999999999,-4633.21,15142.6,-4510.9700000000003
6622.0,30847.900000000001,12488.1,-69.938100000000006,3260.04,-3898.04,15463.799999999999,-4532.96
6623.0,29969.200000000001,10104.4,137.16399999999999,5042.0699999999997,-3379.8899999999999,15553.5,-4605.4499999999998
6624.0,29315.799999999999,7748.1300000000001,-61.441899999999997,6274.7200000000003,-3032.1199999999999,15465.299999999999,-4569.8299999999999
6625.0,28508.599999999999,5728.79,-218.995,7655.2299999999996,-2547.5599999999999,15094.700000000001,-4441.3599999999997
6626.0,27655.900000000001,3777.4400000000001,-298.15800000000002,9112.1700000000001,-2072.96,14468.0,-4365.6300000000001
6627.0,27013.400000000001,2016.3199999999999,-290.63400000000001,10570.6,-1691.76,13752.6,-4301.4099999999999
6628.0,26377.400000000001,285.108,-480.71699999999998,11783.4,-1285.0599999999999,12887.200000000001,-4121.9200000000001
6629.0,25876.0,-1101.9000000000001,-436.71899999999999,13129.9,-908.596,11911.5,-3996.5999999999999
6630.0,25624.299999999999,-2594.4699999999998,-631.94000000000005,14206.1,-552.625,10916.200000000001,-3875.5999999999999
6631.0,34920.599999999999,25182.599999999999,1369.53,-401.10899999999998,-6556.4399999999996,11652.5,-4857.5299999999997
6632.0,35316.599999999999,23167.599999999999,1235.1600000000001,919.68600000000004,-6086.5299999999997,13755.4,-5178.1300000000001
6633.0,34581.699999999997,19767.299999999999,744.71199999999999,1978.8699999999999,-5411.4300000000003,15140.6,-5177.6800000000003
6634.0,33870.300000000003,16888.5,687.10599999999999,3119.5500000000002,-4886.1199999999999,16019.0,-5058.0799999999999
6635.0,32784.5,13663.1,-77.254099999999994,3930.0599999999999,-4113.1499999999996,16348.9,-4912.9099999999999
6636.0,31435.700000000001,11167.700000000001,38.695300000000003,5728.0200000000004,-3411.8699999999999,16231.5,-4830.1700000000001
6637.0,30500.200000000001,8589.1599999999999,-84.703199999999995,7138.8000000000002,-2986.0599999999999,16002.9,-4846.8100000000004
6638.0,29627.599999999999,6453.6199999999999,-85.011799999999994,8654.0900000000001,-2557.3000000000002,15585.200000000001,-4743.3400000000001
6639.0,28723.299999999999,4233.5,-315.16699999999997,9907.8199999999997,-2108.8099999999999,14934.700000000001,-4613.2799999999997
6640.0,27951.799999999999,2397.5799999999999,-302.21300000000002,11350.6,-1696.05,14143.700000000001,-4506.4300000000003
6641.0,27327.200000000001,551.35400000000004,-486.62799999999999,12552.299999999999,-1286.0899999999999,13265.6,-4333.3199999999997
6642.0,26801.5,-865.30999999999995,-426.58499999999998,13884.799999999999,-915.09100000000001,12275.700000000001,-4180.9399999999996
6643.0,26504.200000000001,-2422.9899999999998,-677.43299999999999,14915.9,-542.84299999999996,11240.700000000001,-4046.1100000000001
6644.0,37647.800000000003,27400.599999999999,1617.4300000000001,-45.554200000000002,-6884.2799999999997,12546.1,-5554.2799999999997
6645.0,37768.300000000003,24983.400000000001,1332.3299999999999,1415.29,-6280.5600000000004,14724.0,-5782.3699999999999
6646.0,36838.699999999997,21498.200000000001,731.80100000000004,2757.8699999999999,-5540.3400000000001,16074.4,-5673.8000000000002
6647.0,35712.0,18374.200000000001,681.87400000000002,4177.8299999999999,-4964.6599999999999,16775.900000000001,-5589.3500000000004
6648.0,34530.199999999997,14966.1,115.078,5030.4300000000003,-4290.4700000000003,17099.099999999999,-5423.9200000000001
6649.0,33134.400000000001,12242.200000000001,72.577500000000001,6548.7600000000002,-3572.1199999999999,16995.700000000001,-5222.5
6650.0,31859.099999999999,9457.7199999999993,-138.43199999999999,7977.75,-2999.8899999999999,16613.900000000001,-5159.6599999999999
6651.0,30835.599999999999,7111.8199999999997,-134.42500000000001,9564.9599999999991,-2535.3000000000002,16107.6,-5062.5500000000002
6652.0,29841.200000000001,4839.8400000000001,-263.08100000000002,10901.0,-2108.5999999999999,15402.299999999999,-4890.6599999999999
6653.0,28984.299999999999,2831.4000000000001,-311.13600000000002,12203.6,-1703.6099999999999,14569.700000000001,-4739.3599999999997
6654.0,28313.0,882.59799999999996,-497.54599999999999,13380.0,-1279.3,13652.200000000001,-4554.46
6655.0,27781.299999999999,-652.91899999999998,-479.077,14663.0,-908.03099999999995,12646.799999999999,-4380.3100000000004
6656.0,27436.0,-2182.29,-678.85799999999995,15723.299999999999,-537.94399999999996,11584.799999999999,-4214.8000000000002
6657.0,40239.599999999999,29576.599999999999,1803.6700000000001,450.74799999999999,-7194.6300000000001,13384.700000000001,-6211.25
6658.0,40211.800000000003,26898.599999999999,1581.3900000000001,2035.5899999999999,-6513.21,15651.6,-6458.3199999999997
6659.0,39141.099999999999,23495.700000000001,1111.3299999999999,3689.5599999999999,-5697.29,17007.0,-6243.4300000000003
6660.0,37665.800000000003,20183.099999999999,997.79200000000003,5419.5299999999997,-5088.2799999999997,17588.400000000001,-6060.5
6661.0,36290.5,16459.599999999999,349.21899999999999,6353.54,-4436.8599999999997,17821.599999999999,-5951.3199999999997
6662.0,34867.400000000001,13444.9,211.20400000000001,7775.7799999999997,-3709.6100000000001,17734.700000000001,-5734.3400000000001
6663.0,33389.400000000001,10455.4,-108.78400000000001,9006.6900000000005,-3072.79,17285.5,-5530.6300000000001
6664.0,32132.400000000001,7942.6499999999996,-105.542,10599.299999999999,-2531.8200000000002,16667.400000000001,-5374.0600000000004
6665.0,31028.400000000001,5445.3999999999996,-275.88,11862.700000000001,-2098.5500000000002,15900.299999999999,-5178.9499999999998
6666.0,30096.0,3325.0900000000001,-296.30200000000002,13128.200000000001,-1697.96,15025.1,-5004.8000000000002
6667.0,29373.700000000001,1277.5599999999999,-473.05200000000002,14278.1,-1264.9300000000001,14074.4,-4792.8199999999997
6668.0,28805.799999999999,-336.50099999999998,-457.25200000000001,15545.5,-882.23699999999997,13040.200000000001,-4587.21
6669.0,28413.799999999999,-1945.8,-692.64400000000001,16545.799999999999,-510.459,11946.6,-4399.29
6670.0,43011.0,32156.299999999999,2321.4099999999999,1286.4200000000001,-7525.0299999999997,14349.799999999999,-6837.29
6671.0,42682.099999999999,28629.099999999999,1644.54,2756.79,-6772.3500000000004,16638.900000000001,-7169.6199999999999
6672.0,41578.400000000001,25080.900000000001,1164.3299999999999,4492.8999999999996,-5896.1800000000003,18003.799999999999,-7037.6000000000004
6673.0,40010.0,21747.5,1072.22,6476.8500000000004,-5149.6199999999999,18603.400000000001,-6783.6800000000003
6674.0,38197.300000000003,17913.200000000001,498.56799999999998,7729.3100000000004,-4498.5500000000002,18632.099999999999,-6512.1300000000001
6675.0,36563.0,14657.6,301.59100000000001,9054.7000000000007,-3840.75,18421.099999999999,-6259.3999999999996
6676.0,35026.699999999997,11465.9,-40.967799999999997,10166.9,-3161.5599999999999,17979.700000000001,-5998.04
6677.0,33586.5,8728.3700000000008,-128.09399999999999,11617.6,-2557.27,17290.900000000001,-5748.3800000000001
6678.0,32355.099999999999,6145.4200000000001,-235.31200000000001,12930.200000000001,-2080.3299999999999,16459.599999999999,-5510.0299999999997
6679.0,31323.799999999999,3886.4099999999999,-258.01499999999999,14152.9,-1658.21,15527.799999999999,-5306.2299999999996
6680.0,30520.200000000001,1635.3,-517.72799999999995,15172.9,-1201.99,14528.5,-5061.9499999999998
6681.0,29886.200000000001,-41.764299999999999,-486.35500000000002,16423.5,-813.43799999999999,13452.700000000001,-4818.29
6682.0,29440.599999999999,-1669.0599999999999,-702.76199999999994,17431.5,-448.78699999999998,12319.0,-4602.8800000000001
6683.0,46054.0,34859.5,2944.0599999999999,2008.04,-7758.1599999999999,15466.0,-7604.1400000000003
6684.0,45227.800000000003,30971.400000000001,2324.8299999999999,4030.7800000000002,-7016.6800000000003,17700.700000000001,-7815.54
6685.0,43913.099999999999,26853.200000000001,1543.71,5626.3500000000004,-6215.9899999999998,18991.599999999999,-7670.2200000000003
6686.0,42342.5,23372.400000000001,1249.6099999999999,7566.3999999999996,-5322.3599999999997,19588.099999999999,-7466.75
6687.0,40369.699999999997,19625.599999999999,880.88,9300.7299999999996,-4494.46,19593.299999999999,-7140.9799999999996
6688.0,38469.900000000001,16014.4,478.56200000000001,10701.5,-3854.9400000000001,19212.900000000001,-6853.0600000000004
6689.0,36746.199999999997,12568.0,-9.5790100000000002,11656.6,-3201.8800000000001,18650.0,-6544.71
6690.0,35183.900000000001,9708.9300000000003,-42.953499999999998,12926.1,-2574.2800000000002,17942.799999999999,-6201.3999999999996
6691.0,33822.800000000003,6859.5900000000001,-239.26300000000001,14031.5,-2040.8699999999999,17076.900000000001,-5884.3500000000004
6692.0,32645.299999999999,4426.8199999999997,-307.60199999999998,15155.299999999999,-1586.1199999999999,16074.299999999999,-5618.8199999999997
6693.0,31713.200000000001,2117.23,-531.86400000000003,16167.5,-1114.8499999999999,14999.6,-5335.0699999999997
6694.0,31007.0,330.86900000000003,-527.024,17366.700000000001,-718.86000000000001,13875.200000000001,-5057.9899999999998
6695.0,30507.200000000001,-1344.9300000000001,-729.58000000000004,18358.900000000001,-367.541,12704.9,-4814.7200000000003
6696.0,49426.900000000001,37433.5,3680.1100000000001,2327.1199999999999,-7959.25,16869.299999999999,-8415.3299999999999
6697.0,48263.199999999997,33165.099999999999,2975.23,4901.4099999999999,-7236.9899999999998,19021.700000000001,-8751.1900000000005
6698.0,46716.199999999997,28706.299999999999,2181.5,6983.6400000000003,-6384.3400000000001,20311.099999999999,-8626.4099999999999
6699.0,44953.900000000001,24554.599999999999,1270.8099999999999,8730.0200000000004,-5471.1599999999999,20775.700000000001,-8407.7600000000002
6700.0,42764.900000000001,20812.700000000001,730.53599999999994,10533.799999999999,-4471.0,20623.099999999999,-7966.6499999999996
6701.0,40334.099999999999,17563.099999999999,809.54700000000003,12399.4,-3798.9299999999998,19987.900000000001,-7397.1899999999996
6702.0,38426.400000000001,13854.1,211.441,13199.6,-3268.4400000000001,19317.700000000001,-7009.4300000000003
6703.0,36871.699999999997,10644.0,-104.489,14236.6,-2593.5100000000002,18608.700000000001,-6669.3500000000004
6704.0,35370.0,7655.9799999999996,-305.51100000000002,15235.299999999999,-1973.3599999999999,17697.599999999999,-6286.6300000000001
6705.0,34043.099999999999,5114.4799999999996,-314.82100000000003,16310.9,-1483.8,16638.299999999999,-5949.8400000000001
6706.0,32963.400000000001,2627.6700000000001,-594.46900000000005,17186.299999999999,-1016.87,15489.9,-5610.3900000000003
6707.0,32172.5,781.51800000000003,-562.005,18371.900000000001,-621.95600000000002,14314.4,-5302.3199999999997
6708.0,31628.900000000001,-948.75900000000001,-752.39800000000002,19359.299999999999,-272.00599999999997,13107.299999999999,-5042.75
6709.0,53653.400000000001,39574.699999999997,4412.3299999999999,1782.1800000000001,-8213.4300000000003,19008.599999999999,-9247.2600000000002
6710.0,51778.900000000001,34999.400000000001,3413.1599999999999,5425.6199999999999,-7395.8800000000001,20762.700000000001,-9755.4500000000007
6711.0,49711.300000000003,30552.700000000001,2656.2199999999998,8404.6399999999994,-6380.1300000000001,21755.299999999999,-9631.8299999999999
6712.0,47421.400000000001,26408.700000000001,1934.1300000000001,10758.1,-5487.4399999999996,21939.5,-9192.8899999999994
6713.0,45094.5,22187.5,975.28099999999995,12340.5,-4559.4200000000001,21631.299999999999,-8743.6900000000005
6714.0,42702.300000000003,18814.200000000001,864.91099999999994,14065.200000000001,-3695.2199999999998,20953.299999999999,-8284.8400000000001
6715.0,40453.599999999999,15311.200000000001,596.31899999999996,15092.1,-3057.6399999999999,20106.299999999999,-7795.5799999999999
6716.0,38583.800000000003,11936.1,193.744,15908.6,-2493.2600000000002,19265.900000000001,-7216.1899999999996
6717.0,36932.0,8632.1200000000008,-281.947,16559.400000000001,-1916.02,18313.0,-6680.6199999999999
6718.0,35477.0,5842.96,-406.96300000000002,17476.400000000001,-1392.0699999999999,17201.700000000001,-6271.6999999999998
6719.0,34275.900000000001,3281.3400000000001,-613.69100000000003,18328.599999999999,-918.83600000000001,15997.6,-5897.3100000000004
6720.0,33405.800000000003,1316.26,-596.71500000000003,19453.200000000001,-512.279,14774.200000000001,-5568.6099999999997
6721.0,32812.900000000001,-485.72000000000003,-785.49300000000005,20428.599999999999,-164.417,13525.9,-5290.9399999999996
6722.0,58926.199999999997,41029.599999999999,5368.5200000000004,244.792,-8499.0799999999999,22185.400000000001,-9972.0400000000009
6723.0,55641.400000000001,36343.599999999999,4053.6700000000001,5714.6599999999999,-7543.7299999999996,23063.200000000001,-10610.6
6724.0,52874.0,31848.200000000001,3054.6599999999999,9581.3400000000001,-6405.9399999999996,23415.400000000001,-10707.700000000001
6725.0,50291.699999999997,27814.400000000001,2408.8800000000001,12511.6,-5384.21,23313.700000000001,-10341.9
6726.0,47638.0,23688.799999999999,1620.9100000000001,14416.200000000001,-4499.5799999999999,22773.099999999999,-9737.5400000000009
6727.0,44995.099999999999,19912.599999999999,845.89300000000003,15724.9,-3644.8699999999999,21896.299999999999,-9039.2999999999993
6728.0,42402.300000000003,16410.099999999999,384.06700000000001,16616.799999999999,-2816.3499999999999,20818.099999999999,-8441.8999999999996
6729.0,40327.599999999999,13079.700000000001,166.30099999999999,17457.099999999999,-2176.8800000000001,19867.400000000001,-7863.6599999999999
6730.0,38563.5,9792.5200000000004,-160.09899999999999,18082.900000000001,-1722.1400000000001,18908.599999999999,-7195.9200000000001
6731.0,36977.900000000001,6793.1099999999997,-358.48899999999998,18826.299999999999,-1293.6300000000001,17775.5,-6644.2399999999998
6732.0,35678.199999999997,4035.5,-626.05700000000002,19562.299999999999,-832.601,16528.5,-6220.4300000000003
6733.0,34718.400000000001,1947.6600000000001,-636.01199999999994,20627.5,-403.70800000000003,15252.799999999999,-5861.4300000000003
6734.0,34070.400000000001,102.456,-786.50300000000004,21616.900000000001,-44.003599999999999,13962.799999999999,-5571.3000000000002
6735.0,65570.600000000006,40553.599999999999,5996.79,-2626.3099999999999,-9167.9200000000001,26706.700000000001,-10662.700000000001
6736.0,60409.300000000003,36720.0,4884.1199999999999,5812.4200000000001,-7747.7799999999997,26338.200000000001,-11594.0
6737.0,56428.099999999999,32894.5,3963.75,11330.200000000001,-6422.7700000000004,25550.0,-11885.9
6738.0,53395.800000000003,29037.0,2879.3499999999999,14565.1,-5259.8999999999996,24809.5,-11640.0
6739.0,50319.400000000001,25164.0,2261.04,16651.599999999999,-4154.4499999999998,23903.799999999999,-11015.700000000001
6740.0,47351.900000000001,21416.5,1704.5999999999999,17839.0,-3316.9400000000001,22824.599999999999,-10254.5
6741.0,44427.699999999997,17744.5,958.25699999999995,18287.299999999999,-2475.0900000000001,21597.799999999999,-9396.2000000000007
6742.0,41979.699999999997,14454.0,412.93099999999998,18948.900000000001,-1752.9400000000001,20478.400000000001,-8455.8299999999999
6743.0,40200.300000000003,11083.0,-70.748599999999996,19636.599999999999,-1409.3499999999999,19500.799999999999,-7665.6499999999996
6744.0,38616.0,7887.6499999999996,-293.48700000000002,20355.0,-1126.26,18368.299999999999,-7090.96
6745.0,37201.599999999999,4959.6300000000001,-561.56899999999996,20999.0,-711.57399999999996,17079.299999999999,-6608.8199999999997
6746.0,36140.699999999997,2699.8299999999999,-635.45600000000002,21951.400000000001,-283.08800000000002,15753.9,-6202.0500000000002
6747.0,35423.800000000003,760.34900000000005,-812.03399999999999,22900.400000000001,86.986999999999995,14413.9,-5889.96
6748.0,73430.300000000003,37600.699999999997,5955.4499999999998,-4947.1199999999999,-10845.299999999999,32836.699999999997,-10631.700000000001
6749.0,65942.399999999994,34853.0,5001.3900000000003,5573.6599999999999,-8467.8099999999995,30576.299999999999,-12304.4
6750.0,60219.099999999999,32875.099999999999,5018.0699999999997,13150.200000000001,-6423.3599999999997,28175.799999999999,-12978.5
6751.0,56319.099999999999,29489.299999999999,3619.8099999999999,16603.400000000001,-5125.4700000000003,26381.700000000001,-12950.299999999999
6752.0,52651.800000000003,26187.5,2975.3800000000001,18490.900000000001,-3777.21,24901.799999999999,-12243.700000000001
6753.0,49518.5,22517.599999999999,2447.3600000000001,19191.0,-2837.4400000000001,23720.700000000001,-11442.6
6754.0,46361.800000000003,18811.700000000001,1981.8499999999999,19497.200000000001,-1898.5799999999999,22471.099999999999,-10464.299999999999
6755.0,43823.5,15382.4,823.15899999999999,19948.200000000001,-1111.5,21332.599999999999,-9169.75
6756.0,42010.599999999999,12362.0,93.960999999999999,21097.099999999999,-961.46100000000001,20233.799999999999,-8163.54
6757.0,40360.400000000001,9009.2099999999991,-347.78199999999998,21866.799999999999,-890.80499999999995,18999.0,-7538.9700000000003
6758.0,38846.0,5988.6700000000001,-530.73900000000003,22574.400000000001,-561.25300000000004,17645.200000000001,-7030.5699999999997
6759.0,37689.0,3517.4099999999999,-690.18100000000004,23387.799999999999,-135.81999999999999,16267.1,-6593.1700000000001
6760.0,36874.099999999999,1604.0,-744.38900000000001,24400.200000000001,238.339,14873.299999999999,-6249.3000000000002
6761.0,81770.300000000003,33200.800000000003,4711.6899999999996,-564.37,-15062.0,39944.400000000001,-8743.6700000000001
6762.0,71956.800000000003,30343.200000000001,3232.3099999999999,7586.1099999999997,-10429.5,35244.5,-12767.4
6763.0,64348.199999999997,31376.099999999999,5576.3699999999999,15905.799999999999,-6688.9399999999996,31038.099999999999,-14266.0
6764.0,59059.800000000003,29174.099999999999,5156.7700000000004,19039.799999999999,-4858.4399999999996,27975.400000000001,-14528.6
6765.0,54458.300000000003,27085.0,4650.1300000000001,20584.5,-3130.1399999999999,25880.900000000001,-13255.4
6766.0,51175.099999999999,23790.5,3474.1999999999998,20737.5,-2375.3699999999999,24647.900000000001,-11823.1
6767.0,48011.900000000001,19975.099999999999,3132.3800000000001,20902.900000000001,-1582.3,23481.900000000001,-10696.799999999999
6768.0,45731.199999999997,16467.599999999999,1833.5999999999999,21472.799999999999,-565.60000000000002,22404.5,-9522.6299999999992
6769.0,44047.800000000003,13586.0,663.65599999999995,22731.900000000001,-393.42700000000002,21195.5,-8625.1399999999994
6770.0,42319.199999999997,10269.799999999999,-160.75899999999999,23596.099999999999,-534.80200000000002,19777.0,-7985.0699999999997
6771.0,40650.800000000003,7154.8500000000004,-426.04700000000003,24353.099999999999,-391.19900000000001,18265.099999999999,-7473.4099999999999
6772.0,39346.699999999997,4491.3000000000002,-662.88,25030.400000000001,13.5427,16793.299999999999,-7019.9799999999996
6773.0,38449.400000000001,2464.73,-740.47299999999996,25969.5,405.072,15348.0,-6660.5799999999999
6774.0,89523.399999999994,29246.299999999999,1915.5799999999999,13198.5,-22215.799999999999,43286.800000000003,-10749.799999999999
6775.0,76947.100000000006,25290.599999999999,908.01300000000003,12915.799999999999,-12985.6,37729.400000000001,-15259.299999999999
6776.0,68240.699999999997,28036.5,5088.1000000000004,18758.599999999999,-7229.3699999999999,33025.199999999997,-16615.5
6777.0,61525.5,26369.5,5126.5900000000001,20123.599999999999,-4103.0900000000001,29221.0,-16489.299999999999
6778.0,55961.599999999999,26592.700000000001,5576.7700000000004,22498.400000000001,-1821.9400000000001,26738.299999999999,-14195.6
6779.0,52806.099999999999,24612.0,3492.6900000000001,22933.400000000001,-1554.54,25408.400000000001,-11987.1
6780.0,49712.900000000001,21498.900000000001,3326.3699999999999,23552.0,-1462.9100000000001,24249.900000000001,-10472.299999999999
6781.0,47592.099999999999,17253.700000000001,1884.3299999999999,23477.700000000001,-565.74699999999996,23337.700000000001,-9300.3099999999995
6782.0,46166.5,14398.5,933.89099999999996,24716.900000000001,-136.15000000000001,22199.200000000001,-8682.75
6783.0,44534.199999999997,11178.200000000001,-174.86600000000001,25492.400000000001,-204.56999999999999,20644.200000000001,-8333.0300000000007
6784.0,42665.400000000001,8279.6900000000005,-348.28199999999998,26336.099999999999,-164.47999999999999,18916.799999999999,-7967.8100000000004
6785.0,41175.400000000001,5423.3699999999999,-711.14300000000003,26782.200000000001,197.44399999999999,17328.700000000001,-7518.4399999999996
6786.0,40172.400000000001,3557.6700000000001,-566.58600000000001,27890.5,614.18499999999995,15817.299999999999,-7133.9499999999998
6787.0,94617.800000000003,25236.900000000001,1824.8099999999999,19778.799999999999,-26702.0,40339.699999999997,-22222.700000000001
6788.0,80132.100000000006,20374.599999999999,1115.71,14631.200000000001,-13818.200000000001,37345.800000000003,-21376.900000000001
6789.0,70847.899999999994,23598.599999999999,5842.96,18898.799999999999,-7046.6599999999999,33719.400000000001,-20046.299999999999
6790.0,63402.699999999997,22959.799999999999,5776.1499999999996,20233.5,-2728.2399999999998,30138.799999999999,-18408.900000000001
6791.0,57903.699999999997,25203.099999999999,6263.9700000000003,24345.5,222.72300000000001,27572.5,-15586.1
6792.0,54957.900000000001,25345.700000000001,3824.23,26191.599999999999,224.00200000000001,26024.200000000001,-12991.700000000001
6793.0,51974.5,23717.400000000001,3213.2199999999998,27625.099999999999,-658.22199999999998,24668.799999999999,-10932.9
6794.0,49853.599999999999,19547.599999999999,1855.3599999999999,27653.299999999999,-623.35900000000004,23778.0,-9414.6599999999999
6795.0,48474.599999999999,15956.799999999999,1034.3800000000001,28261.700000000001,-282.60199999999998,22819.0,-8750.7000000000007
6796.0,46875.0,12443.9,115.76300000000001,28480.700000000001,-125.961,21348.5,-8623.1399999999994
6797.0,44837.800000000003,9309.8999999999996,-249.34800000000001,28704.599999999999,53.050899999999999,19529.599999999999,-8431.3199999999997
6798.0,43156.900000000001,6547.7700000000004,-568.42200000000003,29034.400000000001,414.52300000000002,17819.099999999999,-8023.5100000000002
6799.0,41961.900000000001,4369.1999999999998,-723.12599999999998,29661.099999999999,830.69000000000005,16230.200000000001,-7617.3199999999997
6800.0,97556.800000000003,16094.1,3932.4899999999998,2416.27,-24906.200000000001,38391.099999999999,-31969.200000000001
6801.0,82178.899999999994,13361.200000000001,3223.0,6574.2600000000002,-11627.700000000001,37278.5,-26449.200000000001
6802.0,72534.399999999994,16757.400000000001,6127.71,13721.0,-5234.5799999999999,34406.199999999997,-22640.299999999999
6803.0,65228.599999999999,17899.200000000001,6466.1199999999999,17973.900000000001,-910.46299999999997,31369.599999999999,-19736.200000000001
6804.0,60096.5,20896.5,5765.5799999999999,23176.700000000001,2487.1500000000001,28729.299999999999,-16815.400000000001
6805.0,57421.599999999999,23874.799999999999,3754.9299999999998,27736.400000000001,2789.3000000000002,26800.200000000001,-14395.9
6806.0,54945.199999999997,24467.099999999999,2414.4400000000001,30712.5,1269.3299999999999,25162.400000000001,-12269.799999999999
6807.0,52868.5,21621.200000000001,1027.73,31778.0,108.71899999999999,23979.400000000001,-10545.1
6808.0,51175.099999999999,17629.0,203.36799999999999,32103.099999999999,-251.80099999999999,22953.799999999999,-9534.2700000000004
6809.0,49263.400000000001,13590.9,-298.79500000000002,31788.299999999999,-195.542,21596.200000000001,-9142.4500000000007
6810.0,47022.099999999999,10170.299999999999,-415.17500000000001,31431.299999999999,136.55099999999999,19865.599999999999,-8906.2099999999991
6811.0,45139.800000000003,7465.1300000000001,-543.12900000000002,31402.200000000001,650.44000000000005,18162.799999999999,-8521.6599999999999
6812.0,43739.699999999997,5481.3900000000003,-413.43400000000003,31873.400000000001,1097.45,16588.700000000001,-8106.0500000000002
6813.0,106869.0,1808.01,4449.4099999999999,-27955.200000000001,-21137.799999999999,44357.400000000001,-32692.700000000001
6814.0,87692.399999999994,999.95100000000002,3552.5900000000001,-9434.8700000000008,-7857.3400000000001,41359.699999999997,-27269.299999999999
6815.0,75401.199999999997,8730.0499999999993,6448.6999999999998,7219.9700000000003,-1919.9100000000001,36792.300000000003,-23160.400000000001
6816.0,67240.300000000003,12583.6,7044.4499999999998,16151.4,1408.03,33020.800000000003,-19841.200000000001
6817.0,62494.900000000001,16943.099999999999,6808.2399999999998,23265.700000000001,4471.2799999999997,30356.700000000001,-17071.200000000001
6818.0,60050.599999999999,21373.799999999999,4609.9099999999999,29123.0,5333.0600000000004,28111.599999999999,-15044.1
6819.0,58164.5,24575.299999999999,2825.9499999999998,34017.400000000001,3821.77,26088.0,-13291.5
6820.0,56410.900000000001,23685.599999999999,1072.1300000000001,36397.199999999997,1653.0,24460.099999999999,-11813.799999999999
6821.0,54391.900000000001,20023.299999999999,20.7316,36958.900000000001,321.58699999999999,22984.0,-10765.6
6822.0,51908.199999999997,15740.200000000001,-321.24700000000001,36410.599999999999,-32.183700000000002,21401.0,-10053.5
6823.0,49230.699999999997,11485.9,-625.10500000000002,35012.5,187.49600000000001,19695.900000000001,-9568.4200000000001
6824.0,47008.0,8658.2099999999991,-382.50999999999999,34350.900000000001,827.64099999999996,18106.700000000001,-9128.9400000000005
6825.0,45356.400000000001,5546.54,-1122.8499999999999,33063.099999999999,1449.4000000000001,16742.5,-8656.5
6826.0,296261.0,54305.300000000003,-33993.300000000003,-39781.300000000003,-162240.0,-12116.9,2786.9299999999998
6827.0,299902.0,30360.299999999999,-30486.700000000001,-144341.0,-142759.0,-41653.199999999997,1043.05
6828.0,346458.0,8305.9500000000007,-19950.299999999999,-178246.0,-140525.0,-97596.800000000003,-25081.599999999999
6829.0,398303.0,-13964.9,-7270.5,-105643.0,-156376.0,-145751.0,-64528.0
6830.0,443220.0,-42490.400000000001,492.00400000000002,49416.900000000001,-182850.0,-146906.0,-91384.699999999997
6831.0,466468.0,-81973.5,4914.4700000000003,187855.0,-201143.0,-83432.600000000006,-78363.0
6832.0,443592.0,-130340.0,7281.1000000000004,204251.0,-187950.0,17023.400000000001,-41171.300000000003
6833.0,390402.0,-163637.0,6930.0100000000002,110651.0,-145302.0,100647.0,-19522.400000000001
6834.0,338286.0,-162823.0,1277.3199999999999,-855.351,-97954.899999999994,138692.0,-21310.700000000001
6835.0,290122.0,-132020.0,-5962.0900000000001,-68331.300000000003,-62535.400000000001,139853.0,-24792.599999999999
6836.0,236495.0,-90356.600000000006,-8107.8000000000002,-95502.800000000003,-37784.300000000003,119379.0,-23651.299999999999
6837.0,181268.0,-51467.0,-4387.46,-92792.800000000003,-22829.900000000001,88327.5,-25944.5
6838.0,134675.0,-20239.900000000001,779.20500000000004,-63850.5,-18957.200000000001,60819.0,-30012.0
6839.0,163217.0,-90869.600000000006,-53665.699999999997,-89710.399999999994,-80233.399999999994,-43112.5,11677.6
6840.0,177085.0,-120425.0,-51029.400000000001,-155785.0,-62323.900000000001,-57305.400000000001,21092.400000000001
6841.0,220090.0,-162616.0,-45027.099999999999,-194725.0,-44772.0,-87005.300000000003,18995.799999999999
6842.0,258109.0,-213689.0,-38862.0,-180556.0,-33419.199999999997,-111641.0,1753.6500000000001
6843.0,275759.0,-257728.0,-36262.300000000003,-110701.0,-32008.799999999999,-106116.0,-19016.900000000001
6844.0,279828.0,-289069.0,-41581.5,-37689.900000000001,-35246.800000000003,-59778.5,-23293.799999999999
6845.0,276440.0,-298521.0,-45887.900000000001,-14553.799999999999,-30411.0,9195.2199999999993,-14939.9
6846.0,264675.0,-277529.0,-43803.099999999999,-39263.800000000003,-16577.5,66135.100000000006,-11509.9
6847.0,243257.0,-230712.0,-36330.400000000001,-71817.899999999994,-4743.5100000000002,93318.300000000003,-16690.900000000001
6848.0,211796.0,-169236.0,-25435.099999999999,-81103.600000000006,-1007.39,95628.5,-23434.799999999999
6849.0,172056.0,-105267.0,-13161.200000000001,-68998.600000000006,-1278.51,83865.100000000006,-26077.400000000001
6850.0,133214.0,-52761.800000000003,-3113.29,-48380.0,-2240.5100000000002,67011.399999999994,-25773.5
6851.0,103826.0,-18449.099999999999,2330.7199999999998,-27395.400000000001,-4391.8900000000003,51534.300000000003,-26184.900000000001
6852.0,118580.0,-133678.0,-57219.599999999999,-88377.800000000003,-25648.5,-46826.800000000003,18929.900000000001
6853.0,136703.0,-159791.0,-54099.800000000003,-124403.0,-8710.6200000000008,-49549.0,28354.5
6854.0,172817.0,-194188.0,-53422.0,-151415.0,12307.200000000001,-58899.199999999997,33567.599999999999
6855.0,207042.0,-231618.0,-53742.099999999999,-154970.0,32293.799999999999,-66829.199999999997,28626.799999999999
6856.0,225122.0,-261171.0,-53091.599999999999,-127352.0,42751.800000000003,-60619.0,16466.5
6857.0,228994.0,-272115.0,-47320.699999999997,-85819.399999999994,43302.800000000003,-33058.5,7616.6800000000003
6858.0,224242.0,-261149.0,-40019.800000000003,-58880.900000000001,41037.900000000001,6691.3199999999997,2196.1199999999999
6859.0,209757.0,-225242.0,-29769.799999999999,-50421.300000000003,38395.400000000001,40570.099999999999,-3566.29
6860.0,186136.0,-173692.0,-18363.900000000001,-47829.900000000001,33476.900000000001,59277.699999999997,-10403.700000000001
6861.0,155253.0,-115275.0,-6584.0100000000002,-37575.800000000003,25818.5,62443.0,-18262.599999999999
6862.0,123401.0,-64670.699999999997,-104.65000000000001,-23758.5,16872.299999999999,56780.0,-22367.799999999999
6863.0,98562.100000000006,-28493.299999999999,2673.29,-10833.200000000001,8690.8700000000008,48908.800000000003,-22940.700000000001
6864.0,83022.600000000006,-6122.0,4020.8600000000001,-1820.28,2590.5999999999999,41722.199999999997,-22895.599999999999
6865.0,89933.0,-110653.0,-52649.699999999997,-56173.5,1512.3800000000001,-34744.599999999999,20712.900000000001
6866.0,103248.0,-121887.0,-45921.900000000001,-67780.800000000003,15851.799999999999,-31306.5,28155.099999999999
6867.0,125810.0,-137708.0,-43800.400000000001,-77560.399999999994,31340.200000000001,-31616.099999999999,32117.799999999999
6868.0,147158.0,-154464.0,-42996.099999999999,-78330.100000000006,45113.699999999997,-31789.099999999999,30457.799999999999
6869.0,159989.0,-168289.0,-41731.0,-67348.699999999997,53249.900000000001,-25378.599999999999,23989.299999999999
6870.0,162607.0,-172460.0,-38921.900000000001,-50728.300000000003,54928.699999999997,-9448.9300000000003,15559.700000000001
6871.0,155712.0,-158400.0,-32221.200000000001,-33351.099999999999,51447.800000000003,11438.5,6667.2700000000004
6872.0,142129.0,-129248.0,-22404.299999999999,-20569.900000000001,44535.400000000001,29632.200000000001,-658.89400000000001
6873.0,124890.0,-95526.800000000003,-14343.5,-13919.6,35877.300000000003,40435.199999999997,-8279.6200000000008
6874.0,105357.0,-58494.300000000003,-5848.5500000000002,-5101.4499999999998,26415.799999999999,42620.5,-15766.9
6875.0,88986.5,-28737.400000000001,-1294.8099999999999,3716.9299999999998,17288.099999999999,40886.300000000003,-19071.299999999999
6876.0,77753.100000000006,-6930.6400000000003,3367.6199999999999,11756.700000000001,9955.7600000000002,37956.900000000001,-19690.799999999999
6877.0,70857.5,4801.6499999999996,5453.5699999999997,14056.700000000001,4826.4200000000001,35230.099999999999,-19556.599999999999
6878.0,60315.199999999997,-48764.800000000003,-38673.099999999999,-6688.6999999999998,7059.8500000000004,-19125.799999999999,17733.099999999999
6879.0,67249.800000000003,-49387.0,-32033.700000000001,-4062.73,15932.299999999999,-13879.799999999999,23196.099999999999
6880.0,77649.300000000003,-53380.800000000003,-29069.799999999999,-3225.3499999999999,24878.099999999999,-11561.299999999999,25062.5
6881.0,87526.0,-58612.300000000003,-25873.200000000001,-674.79200000000003,32465.200000000001,-9060.6700000000001,23949.700000000001
6882.0,94302.899999999994,-64677.0,-23487.400000000001,2821.6900000000001,37608.699999999997,-3456.6900000000001,19506.700000000001
6883.0,97014.800000000003,-63257.099999999999,-17550.799999999999,11158.0,39333.099999999999,5583.5900000000001,12269.700000000001
6884.0,95863.100000000006,-56520.800000000003,-12163.299999999999,17867.5,37191.400000000001,16070.700000000001,4611.6899999999996
6885.0,92203.199999999997,-45388.400000000001,-7685.5500000000002,21368.5,32534.700000000001,25513.700000000001,-1999.9400000000001
6886.0,86051.800000000003,-30375.099999999999,-3601.6500000000001,22487.299999999999,26768.700000000001,31278.799999999999,-8644.5100000000002
6887.0,78765.800000000003,-13749.6,1032.3800000000001,24311.700000000001,20385.0,33054.699999999997,-13844.5
6888.0,73180.800000000003,-2497.5599999999999,2526.6599999999999,25000.0,14179.700000000001,33218.400000000001,-16316.1
6889.0,68762.199999999997,6202.6700000000001,4473.8999999999996,25563.5,9401.5599999999995,32594.900000000001,-16975.5
6890.0,65218.199999999997,10830.799999999999,4901.5699999999997,23016.099999999999,6463.9899999999998,31765.0,-16784.299999999999
6891.0,57714.199999999997,2800.3400000000001,-31629.099999999999,27986.400000000001,-607.50400000000002,-8102.5799999999999,12192.9
6892.0,61457.599999999999,4503.71,-26848.900000000001,35953.5,4226.9899999999998,-3606.5900000000001,15559.6
6893.0,65291.5,3846.8400000000001,-24098.200000000001,40999.300000000003,9630.3500000000004,-775.06100000000004,16160.5
6894.0,67266.0,1208.23,-20313.099999999999,43589.300000000003,14338.9,2570.75,15455.799999999999
6895.0,67350.199999999997,-3587.9099999999999,-16912.400000000001,43017.400000000001,18179.200000000001,7371.9700000000003,11704.4
6896.0,68926.899999999994,-6740.3699999999999,-13988.299999999999,42620.800000000003,20634.900000000001,13258.200000000001,5754.8100000000004
6897.0,71863.100000000006,-7794.8900000000003,-11958.700000000001,41684.0,21269.599999999999,19452.0,397.75299999999999
6898.0,73336.399999999994,-5890.1000000000004,-9446.9799999999996,39976.699999999997,20081.400000000001,24645.900000000001,-4712.0
6899.0,72112.800000000003,-1452.01,-6216.54,37239.900000000001,17492.900000000001,27799.599999999999,-9304.0900000000001
6900.0,70245.0,3962.3299999999999,-2277.0100000000002,35331.800000000003,14445.6,29509.200000000001,-12612.9
6901.0,68321.399999999994,8105.4099999999999,25.4529,33594.5,11519.4,30137.799999999999,-14421.5
6902.0,65925.899999999994,13591.5,3129.6399999999999,33320.900000000001,9210.6700000000001,30019.700000000001,-15089.299999999999
6903.0,62957.099999999999,16740.599999999999,3655.6999999999998,30094.700000000001,7383.6599999999999,29452.400000000001,-14982.5
6904.0,69279.300000000003,27245.0,-29991.0,42790.099999999999,-7257.5,-3412.5,8151.0900000000001
6905.0,70648.0,26078.400000000001,-26800.400000000001,50387.400000000001,-4189.29,-392.70100000000002,9407.5699999999997
6906.0,72141.199999999997,24578.799999999999,-24306.599999999999,56196.099999999999,-491.84800000000001,2263.1999999999998,9186.7800000000007
6907.0,70939.800000000003,22070.900000000001,-19900.400000000001,58747.199999999997,3085.98,6067.0799999999999,9080.4400000000005
6908.0,67344.5,17471.099999999999,-15658.299999999999,56687.099999999999,6976.0900000000001,10723.299999999999,6046.0500000000002
6909.0,66775.800000000003,16154.299999999999,-10462.700000000001,56788.0,10275.1,15246.700000000001,1121.8900000000001
6910.0,68598.899999999994,13145.700000000001,-8750.5900000000001,54507.099999999999,11690.9,19765.0,-3051.52
6911.0,69262.699999999997,12527.4,-5829.5500000000002,51782.599999999999,11721.0,23354.900000000001,-7077.1000000000004
6912.0,68906.600000000006,13167.299999999999,-2789.2600000000002,48165.699999999997,11193.6,26049.0,-9976.9699999999993
6913.0,68273.600000000006,14706.1,88.163600000000002,44880.599999999999,10460.1,27746.400000000001,-12358.299999999999
6914.0,67329.5,16414.900000000001,971.80499999999995,41698.900000000001,9470.9200000000001,28353.0,-13955.4
6915.0,65320.5,19514.799999999999,1661.0799999999999,39535.0,8190.8100000000004,28101.5,-14369.1
6916.0,61788.800000000003,21637.700000000001,1602.5899999999999,35841.300000000003,6304.54,27324.0,-13797.200000000001
6917.0,73444.0,32701.799999999999,-30293.900000000001,46760.199999999997,-8400.6299999999992,-2146.7199999999998,6238.6099999999997
6918.0,73188.800000000003,30027.299999999999,-27122.200000000001,53347.900000000001,-5259.3100000000004,-497.08300000000003,6588.0500000000002
6919.0,73807.899999999994,28557.5,-23981.700000000001,59172.300000000003,-2436.3699999999999,1870.77,6142.4700000000003
6920.0,71822.899999999994,26128.0,-19260.0,61610.300000000003,98.499399999999994,6140.6899999999996,6213.8800000000001
6921.0,67451.800000000003,22529.700000000001,-14349.200000000001,59926.900000000001,3196.6599999999999,10806.6,3212.6700000000001
6922.0,66157.199999999997,19496.200000000001,-11052.4,58227.0,5755.4799999999996,14774.799999999999,-1420.48
6923.0,67033.199999999997,15371.1,-9484.4300000000003,55425.5,6745.1800000000003,18810.900000000001,-5088.4300000000003
6924.0,66835.399999999994,14555.9,-5816.6899999999996,52924.099999999999,7090.0799999999999,21823.5,-8535.1800000000003
6925.0,66923.399999999994,14363.1,-3543.6799999999998,49391.599999999999,7404.8400000000001,24345.299999999999,-10973.6
6926.0,66696.0,16041.0,-1555.21,46561.099999999999,7578.8500000000004,25784.200000000001,-12954.1
6927.0,66051.600000000006,18571.700000000001,-984.87199999999996,44239.400000000001,7072.1800000000003,26164.599999999999,-14326.5
6928.0,64127.5,22401.900000000001,152.25700000000001,43473.0,5624.1999999999998,25794.799999999999,-14300.0
6929.0,60419.599999999999,23378.799999999999,114.419,39882.199999999997,3630.0,25214.599999999999,-12988.9
6930.0,73611.600000000006,33620.300000000003,-28935.700000000001,50079.400000000001,-6611.5900000000001,-2066.7800000000002,4507.3100000000004
6931.0,74636.300000000003,31123.799999999999,-27308.0,55532.900000000001,-3616.0300000000002,-1108.6400000000001,5516.9799999999996
6932.0,73638.899999999994,29428.900000000001,-23389.200000000001,59765.800000000003,-2274.52,1278.3099999999999,5472.8699999999999
6933.0,69747.5,25783.299999999999,-18074.400000000001,60903.699999999997,-1151.77,5663.3900000000003,4735.0900000000001
6934.0,64839.0,21369.799999999999,-12871.799999999999,59155.199999999997,1114.02,10011.6,1368.6099999999999
6935.0,63058.400000000001,18334.099999999999,-8108.4099999999999,58448.300000000003,3234.3699999999999,13549.5,-2894.8499999999999
6936.0,63233.800000000003,14455.0,-5303.5,56064.699999999997,4327.5900000000001,17118.200000000001,-6306.54
6937.0,62995.900000000001,13448.5,-2415.29,53255.099999999999,5292.8299999999999,19666.200000000001,-9245.8700000000008
6938.0,63538.300000000003,13984.0,-1155.4400000000001,50396.0,6106.7299999999996,21738.200000000001,-11565.6
6939.0,63423.5,16677.200000000001,-28.319700000000001,48426.699999999997,6018.7600000000002,22872.799999999999,-13252.200000000001
6940.0,62673.800000000003,19065.400000000001,-278.61799999999999,46282.900000000001,4901.5699999999997,23173.5,-14182.4
6941.0,61041.599999999999,21109.0,-380.03899999999999,44635.699999999997,3122.5,23080.700000000001,-13878.200000000001
6942.0,57979.099999999999,20793.799999999999,-811.78099999999995,40882.300000000003,1455.8699999999999,23071.5,-12301.299999999999
6943.0,74025.300000000003,33745.800000000003,-28414.799999999999,52321.699999999997,-5236.9099999999999,-2686.4699999999998,2011.0999999999999
6944.0,76475.800000000003,32224.5,-26855.099999999999,58489.400000000001,-4108.21,-1680.55,4376.8000000000002
6945.0,72253.800000000003,28380.200000000001,-21218.400000000001,60536.900000000001,-3807.8600000000001,1156.55,5294.4200000000001
6946.0,65191.400000000001,22011.700000000001,-14677.700000000001,59351.400000000001,-2575.3000000000002,5226.75,3546.46
6947.0,60169.800000000003,16378.200000000001,-9123.8500000000004,57389.0,135.28800000000001,8981.2000000000007,-292.66699999999997
6948.0,59146.199999999997,11626.0,-5986.1199999999999,55272.5,2921.9699999999998,12130.700000000001,-3970.1100000000001
6949.0,59473.199999999997,8688.7600000000002,-3883.8000000000002,52645.599999999999,4776.8299999999999,15092.200000000001,-6888.6199999999999
6950.0,59371.099999999999,9499.2399999999998,-1791.6400000000001,50499.900000000001,5915.3699999999999,17142.099999999999,-9432.5799999999999
6951.0,59701.300000000003,11527.6,-1248.1800000000001,48607.400000000001,6136.4499999999998,18698.099999999999,-11409.9
6952.0,59320.800000000003,14378.6,-648.62900000000002,47120.0,5223.1300000000001,19696.799999999999,-12693.700000000001
6953.0,58474.199999999997,16162.0,-894.63099999999997,45167.400000000001,3716.4000000000001,20221.700000000001,-13217.0
6954.0,57088.199999999997,17704.0,-541.35900000000004,43810.699999999997,2095.5300000000002,20540.700000000001,-12771.700000000001
6955.0,54750.400000000001,16777.700000000001,-1026.1900000000001,40174.599999999999,742.43299999999999,21004.599999999999,-11422.4
6956.0,73904.199999999997,33658.699999999997,-26596.299999999999,54381.5,-6051.9899999999998,-3772.7600000000002,-407.678
6957.0,75066.800000000003,30421.400000000001,-23748.700000000001,60462.599999999999,-6634.8400000000001,-2295.0799999999999,2765.5999999999999
6958.0,68339.199999999997,23144.099999999999,-17293.599999999999,60263.599999999999,-5540.0900000000001,1242.45,4451.7200000000003
6959.0,59965.800000000003,14903.700000000001,-10588.6,56933.400000000001,-2330.48,4989.5900000000001,2389.3099999999999
6960.0,56357.199999999997,8811.3500000000004,-6514.9700000000003,53930.400000000001,1803.7,8102.9899999999998,-1556.1600000000001
6961.0,57052.599999999999,6728.4200000000001,-3828.8099999999999,53204.800000000003,5095.6800000000003,10773.700000000001,-4715.4200000000001
6962.0,57439.0,6648.1599999999999,-2325.5100000000002,51605.0,6717.4700000000003,13107.4,-6913.4899999999998
6963.0,56634.900000000001,8503.4300000000003,-1002.04,49681.800000000003,6922.6899999999996,14665.700000000001,-8964.0
6964.0,56007.400000000001,10635.0,-404.548,48067.199999999997,6034.1099999999997,15862.299999999999,-10590.5
6965.0,55144.099999999999,12404.4,-34.466500000000003,46200.400000000001,4610.8599999999997,16873.599999999999,-11628.299999999999
6966.0,54335.0,13408.700000000001,-295.12200000000001,44097.300000000003,3100.6500000000001,17682.799999999999,-12045.299999999999
6967.0,53279.099999999999,13584.299999999999,-846.36500000000001,41810.599999999999,1676.8099999999999,18372.599999999999,-11622.9
6968.0,51501.699999999997,12736.9,-989.596,38667.599999999999,644.19500000000005,19127.599999999999,-10596.1
6969.0,70884.100000000006,30394.799999999999,-22497.5,55427.599999999999,-7945.6700000000001,-5021.6000000000004,-1934.3099999999999
6970.0,69840.199999999997,24800.5,-18263.400000000001,60426.300000000003,-8025.8299999999999,-2755.1300000000001,1119.6700000000001
6971.0,63184.900000000001,16207.0,-12298.5,59218.5,-5009.79,1503.8699999999999,2685.3699999999999
6972.0,57128.900000000001,9133.0599999999995,-7273.0900000000001,55512.800000000003,82.763099999999994,5194.3900000000003,729.25900000000001
6973.0,55917.300000000003,5797.2200000000003,-4805.7700000000004,53131.599999999999,4813.4700000000003,7771.2799999999997,-2658.6599999999999
6974.0,57082.5,5614.0500000000002,-3839.54,52538.900000000001,7279.9700000000003,9753.8600000000006,-5134.1899999999996
6975.0,56615.199999999997,6775.9799999999996,-2859.0799999999999,51250.199999999997,7656.8900000000003,11504.700000000001,-6659.0699999999997
6976.0,54816.900000000001,8379.2900000000009,-1482.27,49240.099999999999,7004.9499999999998,12788.6,-8108.3199999999997
6977.0,53316.800000000003,9251.2600000000002,-908.93899999999996,46850.5,5899.6199999999999,13845.700000000001,-9384.5400000000009
6978.0,52013.900000000001,9988.0200000000004,-466.43900000000002,44535.599999999999,4610.9799999999996,14853.700000000001,-10259.299999999999
6979.0,50908.199999999997,10177.9,-638.36699999999996,42060.699999999997,3198.98,15751.6,-10618.5
6980.0,49962.199999999997,10338.0,-557.99199999999996,40118.300000000003,1893.9400000000001,16646.799999999999,-10392.9
6981.0,48700.400000000001,9476.1000000000004,-735.85799999999995,37235.900000000001,1094.5599999999999,17524.099999999999,-9806.1900000000005
6982.0,64521.5,24135.599999999999,-15768.200000000001,55381.0,-8433.5799999999999,-6209.3400000000001,-2488.77
6983.0,62793.199999999997,16886.599999999999,-12085.200000000001,58533.5,-6717.0500000000002,-3005.46,-193.19
6984.0,58498.900000000001,8844.5699999999997,-8439.1499999999996,56539.5,-2328.54,1527.24,569.08900000000006
6985.0,55687.300000000003,4978.4099999999999,-5411.4099999999999,53846.699999999997,2765.2600000000002,4802.2799999999997,-1311.95
6986.0,55835.900000000001,4318.9300000000003,-4473.6700000000001,52429.199999999997,6230.9399999999996,6825.8000000000002,-3936.0900000000001
6987.0,56270.699999999997,5828.6000000000004,-3504.23,52562.699999999997,7226.8699999999999,8350.7600000000002,-5572.7600000000002
6988.0,55064.599999999999,6823.4099999999999,-2645.6900000000001,51106.900000000001,6901.1400000000003,9877.25,-6494.6400000000003
6989.0,52940.800000000003,7331.71,-1697.48,48419.400000000001,6255.6899999999996,11219.799999999999,-7460.25
6990.0,51124.300000000003,7708.3999999999996,-968.48800000000006,45742.699999999997,5483.5200000000004,12352.6,-8442.4099999999999
6991.0,49611.800000000003,7673.29,-770.29100000000005,42957.199999999997,4520.9499999999998,13414.0,-9055.8899999999994
6992.0,48328.699999999997,7608.3400000000001,-538.13599999999997,40534.5,3430.2399999999998,14434.4,-9248.1299999999992
6993.0,47365.400000000001,6706.1800000000003,-1046.23,37653.699999999997,2422.8200000000002,15444.9,-9173.7099999999991
6994.0,46490.300000000003,7263.9200000000001,-175.84399999999999,36274.300000000003,1786.6700000000001,16292.200000000001,-8994.1000000000004
6995.0,5637.6099999999997,2557.3600000000001,-33.896700000000003,-2917.54,-442.19799999999998,1389.05,-984.09500000000003
6996.0,5277.8599999999997,2617.4000000000001,35.510199999999998,-2765.1799999999998,-456.70800000000003,1056.8599999999999,-844.20100000000002
6997.0,4786.1700000000001,2305.4099999999999,-18.613199999999999,-2784.5799999999999,-420.90600000000001,693.75699999999995,-695.74900000000002
6998.0,4551.3199999999997,2197.9499999999998,43.841900000000003,-2762.5599999999999,-426.35700000000003,360.452,-637.18100000000004
6999.0,4666.54,2153.0700000000002,44.268700000000003,-2948.3499999999999,-471.64400000000001,149.96299999999999,-665.35699999999997
7000.0,4967.1400000000003,2089.04,25.701799999999999,-3336.5100000000002,-480.38400000000001,-48.624299999999998,-700.95000000000005
7001.0,5344.5100000000002,1955.4000000000001,5.0134499999999997,-3828.6799999999998,-492.58999999999997,-352.18900000000002,-703.64400000000001
7002.0,5712.8100000000004,1768.3099999999999,3.2672599999999998,-4243.8100000000004,-511.47899999999998,-789.63699999999994,-666.20399999999995
7003.0,5983.8000000000002,1512.99,4.1836500000000001,-4460.6300000000001,-522.19600000000003,-1277.45,-617.678
7004.0,6154.29,1210.96,3.7641100000000001,-4500.9200000000001,-527.24400000000003,-1721.5699999999999,-566.38300000000004
7005.0,6267.9799999999996,874.31299999999999,-2.6854800000000001,-4422.4099999999999,-527.803,-2119.0900000000001,-516.745
7006.0,6334.6999999999998,536.22199999999998,17.317299999999999,-4262.2600000000002,-508.56,-2438.2800000000002,-487.21100000000001
7007.0,6410.3900000000003,143.09700000000001,-13.252000000000001,-4172.5,-477.673,-2695.3600000000001,-461.70999999999998
7008.0,6529.4899999999998,-316.18200000000002,-65.593599999999995,-4096.1099999999997,-467.19200000000001,-2952.7600000000002,-418.42899999999997
7009.0,6615.7700000000004,-774.90899999999999,-59.224699999999999,-3887.5999999999999,-461.80500000000001,-3177.25,-371.94600000000003
7010.0,6629.6499999999996,-1216.8800000000001,-50.779400000000003,-3594.3499999999999,-439.98599999999999,-3329.54,-331.39400000000001
7011.0,6602.7700000000004,-1637.3900000000001,-45.796300000000002,-3268.02,-414.70400000000001,-3417.6199999999999,-290.315
7012.0,6561.3199999999997,-2050.71,-44.459800000000001,-2931.77,-386.995,-3456.54,-251.40600000000001
7013.0,6504.5,-2456.4000000000001,-40.120100000000001,-2574.1399999999999,-361.92200000000003,-3446.8800000000001,-212.75299999999999
7014.0,6418.3999999999996,-2824.9000000000001,-26.2864,-2173.0,-342.45800000000003,-3382.29,-174.833
7015.0,6300.29,-3149.1300000000001,-9.6046200000000006,-1759.55,-316.608,-3260.7800000000002,-152.542
7016.0,6160.3999999999996,-3481.2800000000002,-21.859000000000002,-1415.73,-287.702,-3085.04,-142.958
7017.0,6011.5799999999999,-3764.5,-11.9719,-1085.27,-269.45999999999998,-2867.48,-126.663
7018.0,5867.7299999999996,-4007.9000000000001,-13.1866,-765.53800000000001,-261.93700000000001,-2625.3899999999999,-96.642600000000002
7019.0,5739.0,-4179.9399999999996,-5.85527,-410.37200000000001,-256.12599999999998,-2368.46,-64.330600000000004
7020.0,5623.9200000000001,-4303.9700000000003,-2.2744599999999999,-46.755600000000001,-244.77799999999999,-2091.9400000000001,-39.966299999999997
7021.0,5505.0500000000002,-4374.1199999999999,3.7527400000000002,302.43900000000002,-228.70500000000001,-1787.3699999999999,-25.453600000000002
7022.0,5350.4499999999998,-4374.0100000000002,8.2606999999999999,599.41800000000001,-214.34299999999999,-1454.1700000000001,-21.200399999999998
7023.0,3334.9000000000001,1179.74,-125.571,-2049.3600000000001,-189.26599999999999,665.28599999999994,-768.18799999999999
7024.0,3400.8699999999999,1194.1300000000001,-120.70099999999999,-2202.98,-254.512,533.10199999999998,-756.41200000000003
7025.0,3680.9000000000001,1294.22,-51.2209,-2490.3299999999999,-267.58800000000002,418.16899999999998,-767.77999999999997
7026.0,3836.96,1233.5799999999999,-91.796599999999998,-2800.0700000000002,-261.52300000000002,236.33600000000001,-745.79399999999998
7027.0,3907.0500000000002,1196.6600000000001,-82.7059,-2936.98,-266.00099999999998,53.408499999999997,-732.34000000000003
7028.0,4101.8699999999999,1165.04,-99.839299999999994,-3160.9400000000001,-288.25700000000001,-106.492,-752.74800000000005
7029.0,4420.6499999999996,1213.02,-52.453699999999998,-3404.6199999999999,-327.06299999999999,-320.49200000000002,-781.58100000000002
7030.0,4738.2700000000004,1186.9000000000001,-41.5807,-3656.8800000000001,-378.96699999999998,-619.81500000000005,-784.63999999999999
7031.0,4971.6800000000003,1076.26,-22.393799999999999,-3791.5599999999999,-425.81400000000002,-987.22799999999995,-751.69799999999998
7032.0,5126.0699999999997,867.87800000000004,-10.4481,-3807.1900000000001,-459.25999999999999,-1369.8399999999999,-705.45500000000004
7033.0,5213.2200000000003,630.21400000000006,24.478300000000001,-3707.1799999999998,-470.863,-1701.3499999999999,-652.20500000000004
7034.0,5265.8000000000002,288.459,-6.2381799999999998,-3625.48,-453.64800000000002,-1982.5599999999999,-596.46600000000001
7035.0,5339.3299999999999,-89.884100000000004,-46.475700000000003,-3539.6599999999999,-442.43799999999999,-2231.6599999999999,-556.08799999999997
7036.0,5416.8599999999997,-463.31700000000001,-68.121399999999994,-3424.6900000000001,-456.536,-2436.6700000000001,-519.20799999999997
7037.0,5468.8299999999999,-807.59100000000001,-62.894500000000001,-3237.4499999999998,-468.54500000000002,-2602.0799999999999,-472.166
7038.0,5492.5799999999999,-1105.97,-34.408000000000001,-2960.46,-469.12599999999998,-2732.1999999999998,-423.80000000000001
7039.0,5480.2600000000002,-1412.4000000000001,-26.393000000000001,-2659.3099999999999,-463.82499999999999,-2813.48,-381.60199999999998
7040.0,5427.8500000000004,-1705.3299999999999,-16.475000000000001,-2327.79,-451.81599999999997,-2840.1199999999999,-346.14999999999998
7041.0,5323.1400000000003,-1987.51,-0.069952899999999998,-1988.74,-425.45600000000002,-2800.71,-320.69
7042.0,5157.0500000000002,-2303.6100000000001,-13.431800000000001,-1707.8699999999999,-394.98700000000002,-2685.3899999999999,-293.04300000000001
7043.0,4960.3000000000002,-2575.6799999999998,-12.4923,-1421.3299999999999,-375.19299999999998,-2519.5,-254.94900000000001
7044.0,4786.5200000000004,-2785.0,0.052098499999999999,-1121.1600000000001,-366.17399999999998,-2343.4299999999998,-217.94800000000001
7045.0,4656.6899999999996,-2940.46,19.666,-823.68600000000004,-363.988,-2176.1399999999999,-185.68799999999999
7046.0,4546.3699999999999,-3077.4000000000001,16.1721,-557.26700000000005,-359.85700000000003,-2006.8900000000001,-156.07300000000001
7047.0,4431.3400000000001,-3163.1100000000001,35.195,-275.66800000000001,-347.27499999999998,-1815.79,-131.82300000000001
7048.0,4306.8400000000001,-3271.0900000000001,15.555899999999999,-58.806399999999996,-329.90199999999999,-1593.6300000000001,-115.86499999999999
7049.0,4171.29,-3326.1599999999999,20.642399999999999,137.08500000000001,-316.98200000000003,-1349.5899999999999,-99.423699999999997
7050.0,4027.27,-3350.0100000000002,1.9838899999999999,277.392,-309.57100000000003,-1107.52,-74.825299999999999
7051.0,2819.2399999999998,827.85699999999997,53.594700000000003,-1785.26,-54.788200000000003,588.08100000000002,-706.38900000000001
7052.0,2758.46,871.67100000000005,45.794499999999999,-1790.3499999999999,-101.374,449.23399999999998,-683.83100000000002
7053.0,2860.3600000000001,798.46199999999999,-82.338999999999999,-2009.26,-123.127,352.28199999999998,-725.21199999999999
7054.0,3081.4899999999998,876.88900000000001,-56.994900000000001,-2220.6100000000001,-159.886,211.39599999999999,-755.17899999999997
7055.0,3333.6700000000001,930.19600000000003,-29.803599999999999,-2465.6199999999999,-209.51499999999999,2.55586,-772.11800000000005
7056.0,3553.98,949.08600000000001,-19.028199999999998,-2657.1399999999999,-241.05600000000001,-173.011,-799.11599999999999
7057.0,3737.5900000000001,893.72500000000002,-65.966099999999997,-2861.2199999999998,-274.32799999999997,-343.70499999999998,-810.84699999999998
7058.0,3912.4099999999999,866.36699999999996,-57.328499999999998,-2985.9499999999998,-314.87599999999998,-556.04399999999998,-805.54999999999995
7059.0,4059.8499999999999,819.59000000000003,-30.715900000000001,-3051.6599999999999,-348.50299999999999,-791.79700000000003,-778.73699999999997
7060.0,4119.0600000000004,670.60199999999998,-22.351099999999999,-3049.8899999999999,-373.88600000000002,-1040.3099999999999,-720.28899999999999
7061.0,4160.0100000000002,426.08699999999999,-16.617100000000001,-2981.2600000000002,-402.80200000000002,-1317.6099999999999,-661.57899999999995
7062.0,4260.7799999999997,192.84999999999999,9.3438300000000005,-2866.5599999999999,-409.59100000000001,-1596.1900000000001,-625.88
7063.0,4362.1099999999997,-140.261,-51.481000000000002,-2835.3400000000001,-420.73700000000002,-1821.8599999999999,-585.62900000000002
7064.0,4443.6599999999999,-454.81900000000002,-70.527100000000004,-2753.4699999999998,-451.74099999999999,-1994.72,-542.33799999999997
7065.0,4511.4799999999996,-677.74699999999996,-35.0396,-2576.46,-469.18099999999998,-2135.3299999999999,-508.471
7066.0,4539.2700000000004,-929.19299999999998,-50.8262,-2401.2199999999998,-475.19099999999997,-2239.7199999999998,-464.46800000000002
7067.0,4519.3299999999999,-1145.1300000000001,-27.553799999999999,-2138.1500000000001,-467.80700000000002,-2302.73,-414.45600000000002
7068.0,4447.9499999999998,-1398.95,-30.232199999999999,-1870.79,-446.06599999999997,-2311.96,-369.69799999999998
7069.0,4326.6400000000003,-1652.1099999999999,-22.6831,-1594.6900000000001,-422.02999999999997,-2257.2800000000002,-334.06099999999998
7070.0,4175.9899999999998,-1875.1300000000001,-11.001899999999999,-1329.6300000000001,-408.79399999999998,-2153.23,-301.50200000000001
7071.0,4023.4499999999998,-2038.4200000000001,18.3005,-1053.25,-401.42399999999998,-2026.47,-264.96899999999999
7072.0,3890.9299999999998,-2210.3200000000002,4.1081200000000004,-821.76599999999996,-394.44799999999998,-1893.77,-228.41800000000001
7073.0,3777.04,-2324.4499999999998,6.5383100000000001,-585.06799999999998,-387.46300000000002,-1760.22,-196.70599999999999
7074.0,3660.6799999999998,-2405.8499999999999,9.2969799999999996,-365.25400000000002,-373.04000000000002,-1615.1199999999999,-171.92699999999999
7075.0,3525.0599999999999,-2482.02,9.7167499999999993,-168.935,-352.34800000000001,-1436.3900000000001,-151.06800000000001
7076.0,3381.4200000000001,-2534.1700000000001,24.049900000000001,19.542899999999999,-339.93700000000001,-1225.3299999999999,-129.215
7077.0,3251.5500000000002,-2547.7399999999998,38.313699999999997,181.90100000000001,-343.23000000000002,-1017.24,-108.316
7078.0,3125.7399999999998,-2519.1199999999999,41.302300000000002,298.10300000000001,-349.74299999999999,-836.26800000000003,-93.173299999999998
7079.0,3173.1300000000001,343.53399999999999,-226.684,-2453.2199999999998,56.155999999999999,570.072,-918.71699999999998
7080.0,2964.79,547.33600000000001,-88.520899999999997,-2207.21,0.66882799999999998,421.19900000000001,-820.04100000000005
7081.0,2631.6799999999998,642.91700000000003,28.046099999999999,-1877.8099999999999,-36.483899999999998,297.44099999999997,-700.97500000000002
7082.0,2552.29,755.90899999999999,77.379300000000001,-1758.3099999999999,-112.43899999999999,175.02000000000001,-660.46299999999997
7083.0,2717.77,733.41200000000003,-47.560200000000002,-1972.5999999999999,-171.566,39.165599999999998,-701.01999999999998
7084.0,2892.9499999999998,746.09900000000005,-75.192999999999998,-2127.3699999999999,-198.14599999999999,-105.97499999999999,-740.779
7085.0,3025.8600000000001,769.39700000000005,-57.063099999999999,-2216.5599999999999,-230.577,-256.39999999999998,-745.62400000000002
7086.0,3122.6500000000001,748.49599999999998,-34.345300000000002,-2275.4200000000001,-260.726,-441.78100000000001,-723.83900000000006
7087.0,3240.5100000000002,602.93899999999996,-82.617900000000006,-2397.7600000000002,-299.09300000000002,-664.19299999999998,-705.21900000000005
7088.0,3364.3699999999999,576.77599999999995,-21.8752,-2393.5100000000002,-325.24299999999999,-857.375,-681.55999999999995
7089.0,3365.1100000000001,441.10300000000001,9.0902399999999997,-2335.77,-334.57100000000003,-1028.0,-610.96400000000006
7090.0,3365.8099999999999,148.06800000000001,-18.590900000000001,-2248.2800000000002,-352.08499999999998,-1248.8299999999999,-549.91399999999999
7091.0,3512.2199999999998,-182.11600000000001,-109.846,-2260.9299999999998,-398.03300000000002,-1472.3099999999999,-541.726
7092.0,3651.04,-338.72000000000003,-51.660299999999999,-2159.2800000000002,-438.44499999999999,-1632.3499999999999,-529.21199999999999
7093.0,3707.0799999999999,-570.41999999999996,-91.481300000000005,-2086.8000000000002,-449.745,-1746.21,-494.22399999999999
7094.0,3718.3600000000001,-696.625,-30.509499999999999,-1857.1400000000001,-453.09800000000001,-1827.9100000000001,-455.72699999999998
7095.0,3681.0300000000002,-939.00900000000001,-67.895399999999995,-1701.01,-445.42200000000003,-1863.8399999999999,-420.24400000000003
7096.0,3598.8899999999999,-1106.3299999999999,-23.0092,-1447.1600000000001,-435.87599999999998,-1851.2,-383.95100000000002
7097.0,3502.6399999999999,-1331.3900000000001,-52.267299999999999,-1269.02,-432.76100000000002,-1806.3399999999999,-345.35000000000002
7098.0,3421.2600000000002,-1460.74,-16.033300000000001,-1024.0,-429.08499999999998,-1754.1099999999999,-302.786
7099.0,3352.1199999999999,-1656.71,-60.1021,-845.22000000000003,-419.26900000000001,-1692.55,-260.245
7100.0,3264.4400000000001,-1736.1300000000001,-6.8474399999999997,-558.11000000000001,-406.68299999999999,-1598.6199999999999,-225.57400000000001
7101.0,3139.9400000000001,-1860.25,-32.003999999999998,-379.315,-389.79700000000003,-1466.47,-203.06399999999999
7102.0,2994.5599999999999,-1909.8499999999999,-1.2860400000000001,-194.30099999999999,-370.33999999999997,-1309.5,-182.648
7103.0,2862.4099999999999,-2002.5899999999999,-18.162299999999998,-79.842799999999997,-355.32799999999997,-1143.49,-155.47800000000001
7104.0,2755.5300000000002,-2039.9000000000001,-0.359543,70.735399999999998,-352.07499999999999,-977.41999999999996,-122.809
7105.0,2647.77,-2078.3099999999999,-43.436999999999998,161.02099999999999,-351.93000000000001,-818.80200000000002,-98.737499999999997
7106.0,2510.5999999999999,-1998.3199999999999,-16.467099999999999,274.87900000000002,-341.51600000000002,-667.84100000000001,-91.516400000000004
7107.0,3101.8400000000001,181.447,-300.24799999999999,-2380.1999999999998,137.036,413.745,-1078.8
7108.0,3139.8299999999999,217.26400000000001,-257.21600000000001,-2454.9000000000001,81.799999999999997,343.93599999999998,-1062.3699999999999
7109.0,3187.9899999999998,162.934,-357.87799999999999,-2685.71,15.929,254.60300000000001,-1010.88
7110.0,3033.1799999999998,378.06200000000001,-203.64099999999999,-2457.04,-37.741599999999998,136.249,-896.88400000000001
7111.0,2697.29,435.78699999999998,-130.33600000000001,-2144.9699999999998,-71.379599999999996,33.682099999999998,-760.89700000000005
7112.0,2472.0900000000001,511.94499999999999,-32.749899999999997,-1875.1199999999999,-108.82299999999999,-68.581199999999995,-675.03999999999996
7113.0,2441.8899999999999,436.08999999999997,-123.297,-1919.1300000000001,-158.49000000000001,-200.62299999999999,-638.81600000000003
7114.0,2498.8699999999999,511.71699999999998,-52.5351,-1864.1500000000001,-195.66300000000001,-356.60500000000002,-612.49900000000002
7115.0,2579.27,457.14699999999999,-28.271799999999999,-1878.99,-238.63499999999999,-550.38599999999997,-581.34000000000003
7116.0,2793.2199999999998,368.887,-33.483499999999999,-1975.25,-299.79199999999997,-769.33399999999995,-589.67999999999995
7117.0,3045.3099999999999,303.935,-68.987399999999994,-2124.8000000000002,-334.12299999999999,-946.71000000000004,-610.50199999999995
7118.0,3045.71,271.36099999999999,55.985199999999999,-1949.3699999999999,-320.38499999999999,-1082.27,-564.12900000000002
7119.0,2943.0799999999999,-97.931299999999993,-53.247300000000003,-1886.0999999999999,-331.41800000000001,-1196.7,-502.16300000000001
7120.0,2984.8299999999999,-345.96199999999999,-103.121,-1835.3800000000001,-378.30099999999999,-1310.1900000000001,-479.94799999999998
7121.0,3052.1799999999998,-486.54399999999998,-92.717500000000001,-1733.47,-408.02600000000001,-1409.55,-467.19099999999997
7122.0,3039.5599999999999,-621.279,-84.050399999999996,-1569.8099999999999,-414.15100000000001,-1465.3900000000001,-441.34100000000001
7123.0,2992.1500000000001,-796.00199999999995,-103.89700000000001,-1405.8,-416.702,-1490.8900000000001,-404.49299999999999
7124.0,2949.5700000000002,-913.42899999999997,-73.464200000000005,-1196.71,-418.161,-1499.8599999999999,-366.49099999999999
7125.0,2912.8400000000001,-1077.53,-93.4756,-1043.7,-414.93599999999998,-1495.8800000000001,-326.07400000000001
7126.0,2878.02,-1176.03,-48.982100000000003,-819.27499999999998,-408.49700000000001,-1476.4400000000001,-287.16199999999998
7127.0,2832.1799999999998,-1326.22,-60.4741,-644.13499999999999,-401.44200000000001,-1431.23,-250.68799999999999
7128.0,2753.4299999999998,-1423.99,-41.307400000000001,-435.53500000000003,-390.07499999999999,-1349.3099999999999,-216.63399999999999
7129.0,2630.5300000000002,-1549.55,-74.772400000000005,-302.11799999999999,-370.90300000000002,-1225.4200000000001,-192.07300000000001
7130.0,2505.8899999999999,-1596.3699999999999,-38.908000000000001,-127.755,-361.03399999999999,-1081.8199999999999,-165.53200000000001
7131.0,2422.71,-1696.96,-83.340999999999994,-25.585599999999999,-365.22000000000003,-950.93299999999999,-136.90899999999999
7132.0,2338.1599999999999,-1665.8800000000001,-39.586799999999997,151.04900000000001,-361.62099999999998,-824.62099999999998,-120.417
7133.0,2197.6900000000001,-1650.8699999999999,-49.2136,214.357,-341.11500000000001,-680.61400000000003,-106.627
7134.0,2035.6900000000001,-1559.7,-0.77074600000000004,292.73899999999998,-319.55500000000001,-529.38900000000001,-87.516199999999998
7135.0,2834.73,124.003,-387.19299999999998,-2059.6100000000001,180.69999999999999,389.858,-1090.6500000000001
7136.0,2934.5300000000002,-36.412700000000001,-509.49599999999998,-2385.23,131.16300000000001,294.072,-1106.1800000000001
7137.0,3077.5700000000002,251.38399999999999,-226.64599999999999,-2320.9899999999998,56.798200000000001,162.542,-1120.5
7138.0,3141.4699999999998,65.135199999999998,-415.82900000000001,-2640.1599999999999,-1.6186,32.496299999999998,-1098.0
7139.0,2995.3899999999999,242.04900000000001,-195.56999999999999,-2400.4699999999998,-26.478200000000001,-55.830599999999997,-990.44100000000003
7140.0,2688.9099999999999,57.458300000000001,-288.447,-2353.1399999999999,-53.518599999999999,-136.184,-830.505
7141.0,2442.6399999999999,304.072,26.339200000000002,-1887.0999999999999,-86.535200000000003,-213.96799999999999,-715.74699999999996
7142.0,2386.6500000000001,91.782700000000006,-149.07900000000001,-2012.2,-133.92500000000001,-331.00900000000001,-667.22900000000004
7143.0,2488.6799999999998,209.38300000000001,-1.5156499999999999,-1887.8099999999999,-200.38499999999999,-514.62300000000005,-652.73000000000002
7144.0,2616.8000000000002,32.159700000000001,-125.63800000000001,-2010.0599999999999,-265.32499999999999,-704.03499999999997,-652.22000000000003
7145.0,2830.3800000000001,136.90600000000001,-13.831899999999999,-1930.5699999999999,-333.71600000000001,-876.46500000000003,-679.91200000000003
7146.0,3010.1199999999999,-136.416,-265.51999999999998,-2223.9299999999998,-348.91800000000001,-1028.27,-687.68200000000002
7147.0,2893.5700000000002,-134.23099999999999,-36.695999999999998,-1840.53,-332.63900000000001,-1127.26,-616.78300000000002
7148.0,2685.2800000000002,-466.18099999999998,-172.30199999999999,-1756.3599999999999,-348.03699999999998,-1129.5599999999999,-544.53599999999994
7149.0,2558.48,-464.19999999999999,-81.235900000000001,-1519.27,-359.03199999999998,-1120.24,-493.40800000000002
7150.0,2484.25,-672.26099999999997,-184.226,-1461.01,-365.44099999999997,-1149.6199999999999,-432.334
7151.0,2467.1399999999999,-628.29600000000005,-35.062100000000001,-1131.3199999999999,-379.69099999999997,-1199.75,-379.77800000000002
7152.0,2481.1700000000001,-865.66099999999994,-166.35499999999999,-1097.6800000000001,-388.245,-1244.71,-342.01799999999997
7153.0,2494.3400000000001,-845.24400000000003,-26.958400000000001,-796.56299999999999,-395.65300000000002,-1269.1199999999999,-309.82900000000001
7154.0,2483.9899999999998,-1112.51,-174.386,-777.51499999999999,-397.483,-1262.3900000000001,-281.24900000000002
7155.0,2435.3600000000001,-1101.1199999999999,-49.449599999999997,-492.5,-393.21699999999998,-1216.26,-253.55799999999999
7156.0,2346.3200000000002,-1314.1500000000001,-170.81399999999999,-474.20400000000001,-383.57600000000002,-1134.29,-224.798
7157.0,2248.71,-1238.9200000000001,-19.4377,-195.696,-372.22899999999998,-1037.01,-192.892
7158.0,2176.7800000000002,-1443.49,-153.88300000000001,-189.155,-364.24000000000001,-939.41899999999998,-157.03999999999999
7159.0,2108.8499999999999,-1332.0999999999999,5.3513599999999997,114.093,-351.23500000000001,-833.13099999999997,-127.539
7160.0,2001.8900000000001,-1481.6500000000001,-128.22,73.081500000000005,-330.00099999999998,-706.78800000000001,-111.80800000000001
7161.0,1859.74,-1352.49,-14.9687,222.238,-313.53699999999998,-569.78499999999997,-95.288700000000006
7162.0,1723.4200000000001,-1448.25,-154.18700000000001,116.30500000000001,-304.75099999999998,-439.14800000000002,-71.191100000000006
7163.0,2462.5500000000002,-61.447600000000001,-462.08499999999998,-1863.6400000000001,195.20699999999999,352.327,-981.67399999999998
7164.0,2580.0100000000002,20.521899999999999,-411.60599999999999,-1972.0799999999999,157.55000000000001,254.71700000000001,-1015.08
7165.0,2573.6199999999999,-152.006,-531.529,-2176.6500000000001,112.027,139.422,-1008.75
7166.0,2660.6599999999999,-79.521699999999996,-407.58699999999999,-2191.96,50.835900000000002,36.866700000000002,-1031.22
7167.0,2931.5500000000002,-162.80099999999999,-503.70100000000002,-2527.6999999999998,-17.2347,-72.058700000000002,-1106.76
7168.0,3129.5700000000002,-13.9762,-385.46100000000001,-2568.5999999999999,-56.870899999999999,-172.08699999999999,-1151.8900000000001
7169.0,2961.6999999999998,-228.221,-506.82900000000001,-2621.1399999999999,-50.447899999999997,-210.017,-1079.3099999999999
7170.0,2644.1199999999999,-166.226,-281.97000000000003,-2238.0999999999999,-91.088899999999995,-313.24900000000002,-931.995
7171.0,2506.0100000000002,-285.14999999999998,-327.29899999999998,-2163.6399999999999,-181.75700000000001,-479.12200000000001,-824.81700000000001
7172.0,2482.6999999999998,-225.22999999999999,-258.642,-2000.9100000000001,-245.209,-634.20000000000005,-748.76800000000003
7173.0,2463.3099999999999,-270.61000000000001,-261.887,-1888.79,-294.43599999999998,-766.81399999999996,-685.83600000000001
7174.0,2585.3000000000002,-108.379,-105.622,-1726.6500000000001,-344.25200000000001,-872.74199999999996,-687.98000000000002
7175.0,2699.6399999999999,-367.81700000000001,-293.39299999999997,-1903.21,-362.95800000000003,-1002.7,-682.97699999999998
7176.0,2486.3899999999999,-487.84500000000003,-228.66,-1628.6700000000001,-347.00400000000002,-1010.04,-604.42600000000004
7177.0,2201.73,-610.91300000000001,-228.559,-1405.5,-335.52600000000001,-942.95000000000005,-503.67700000000002
7178.0,2112.7800000000002,-599.04999999999995,-135.69499999999999,-1171.96,-344.66699999999997,-957.44500000000005,-427.77800000000002
7179.0,2117.1300000000001,-724.25199999999995,-186.77799999999999,-1106.49,-360.37400000000002,-1003.83,-378.245
7180.0,2131.7199999999998,-728.11900000000003,-109.785,-894.16499999999996,-374.79899999999998,-1042.5699999999999,-341.262
7181.0,2144.1599999999999,-877.87800000000004,-178.31200000000001,-810.78700000000003,-386.08100000000002,-1067.49,-308.05200000000002
7182.0,2133.79,-880.92600000000004,-93.971299999999999,-572.60900000000004,-390.74000000000001,-1063.5,-277.036
7183.0,2091.71,-1023.51,-149.191,-487.95600000000002,-387.69,-1024.9000000000001,-251.71299999999999
7184.0,2030.74,-1034.99,-84.684600000000003,-312.29199999999997,-381.80799999999999,-965.28200000000004,-225.578
7185.0,1983.23,-1187.26,-158.87899999999999,-271.185,-376.45299999999997,-902.07000000000005,-193.36500000000001
7186.0,1943.6099999999999,-1183.74,-75.455100000000002,-57.333199999999998,-366.85199999999998,-825.36599999999999,-164.80699999999999
7187.0,1860.96,-1323.3699999999999,-157.774,-48.637500000000003,-353.85500000000002,-713.38900000000001,-144.95400000000001
7188.0,1740.6199999999999,-1258.3,-85.831000000000003,71.280799999999999,-345.98700000000002,-589.55799999999999,-121.55500000000001
7189.0,1634.6300000000001,-1267.9200000000001,-125.08499999999999,81.296099999999996,-336.78100000000001,-489.78300000000002,-95.843800000000002
7190.0,1547.49,-1147.99,-38.502899999999997,224.30600000000001,-318.012,-401.13900000000001,-75.252300000000005
7191.0,1859.0799999999999,-94.389200000000002,-404.06599999999997,-1272.96,191.584,233.88300000000001,-829.05600000000004
7192.0,2108.6100000000001,-132.47800000000001,-495.75900000000001,-1570.0699999999999,173.161,220.50299999999999,-919.05899999999997
7193.0,2269.73,2.1617199999999999,-353.48000000000002,-1634.28,130.00399999999999,134.589,-970.25800000000004
7194.0,2384.3000000000002,-78.818399999999997,-417.94799999999998,-1845.3,80.047799999999995,50.834699999999998,-1003.5700000000001
7195.0,2533.75,-30.253399999999999,-387.69299999999998,-1951.3,15.973800000000001,-33.134999999999998,-1046.3099999999999
7196.0,2683.6500000000001,-188.47800000000001,-609.50800000000004,-2268.4499999999998,-16.342199999999998,-78.300399999999996,-1088.5699999999999
7197.0,2665.8800000000001,-24.885200000000001,-424.06,-2132.9699999999998,-32.172800000000002,-120.20999999999999,-1048.5799999999999
7198.0,2403.6199999999999,-198.839,-430.68200000000002,-2061.6199999999999,-87.969999999999999,-276.07999999999998,-900.68600000000004
7199.0,2124.04,-118.88200000000001,-191.53800000000001,-1630.02,-173.37100000000001,-446.64800000000002,-740.23599999999999
7200.0,2030.4100000000001,-123.03700000000001,-168.03200000000001,-1471.8099999999999,-240.946,-555.423,-648.68499999999995
7201.0,2029.99,-84.569500000000005,-115.479,-1336.3800000000001,-281.48000000000002,-648.41499999999996,-603.47500000000002
7202.0,2003.0799999999999,-235.476,-251.96899999999999,-1368.28,-304.35899999999998,-704.44200000000001,-571.798
7203.0,1961.3800000000001,-65.540800000000004,-91.977599999999995,-1134.23,-307.98200000000003,-721.101,-544.03700000000003
7204.0,1925.23,-199.893,-130.107,-1107.51,-319.04599999999999,-771.14200000000005,-491.66000000000003
7205.0,1906.3199999999999,-321.54700000000003,-90.636399999999995,-960.73900000000003,-339.65499999999997,-834.06799999999998,-444.017
7206.0,1888.9000000000001,-519.98500000000001,-183.047,-946.89999999999998,-350.18400000000003,-863.81200000000001,-417.09199999999998
7207.0,1868.8399999999999,-560.58699999999999,-143.74100000000001,-833.17999999999995,-363.89999999999998,-874.63199999999995,-382.37799999999999
7208.0,1858.5699999999999,-674.96900000000005,-172.797,-785.90999999999997,-367.15300000000002,-887.98199999999997,-348.39299999999997
7209.0,1849.8599999999999,-717.02700000000004,-125.614,-650.05600000000004,-362.51600000000002,-897.64300000000003,-314.00700000000001
7210.0,1839.25,-875.05499999999995,-187.55500000000001,-620.19600000000003,-366.77600000000001,-892.70699999999999,-274.52199999999999
7211.0,1819.0699999999999,-896.75199999999995,-134.08500000000001,-459.42700000000002,-371.47500000000002,-871.245,-243.898
7212.0,1791.98,-998.31500000000005,-178.011,-385.774,-371.84300000000002,-838.26199999999994,-218.10499999999999
7213.0,1760.9400000000001,-1008.51,-110.953,-190.62799999999999,-368.80799999999999,-783.79399999999998,-190.976
7214.0,1705.51,-1137.25,-169.28,-134.31700000000001,-366.58100000000002,-695.303,-166.58199999999999
7215.0,1620.9400000000001,-1098.79,-104.19499999999999,6.1964399999999999,-364.88,-593.12199999999996,-143.119
7216.0,1537.7,-1138.53,-145.56100000000001,19.343,-356.52999999999997,-504.74099999999999,-118.254
7217.0,1477.4400000000001,-1104.48,-109.70999999999999,103.752,-342.91699999999997,-429.69299999999998,-97.735200000000006
7218.0,1418.8299999999999,-1159.29,-163.72900000000001,81.625799999999998,-328.90100000000001,-352.28699999999998,-82.918300000000002
7219.0,1161.05,-22.657800000000002,-312.68200000000002,-693.03099999999995,134.61600000000001,144.821,-545.17999999999995
7220.0,1389.74,-4.4476000000000004,-345.00599999999997,-864.65800000000002,124.514,160.761,-644.03599999999994
7221.0,1661.48,-152.93899999999999,-544.16200000000003,-1279.1700000000001,103.137,134.37700000000001,-751.351
7222.0,1812.4200000000001,-99.849299999999999,-501.85700000000003,-1405.46,52.442300000000003,42.233800000000002,-802.05899999999997
7223.0,1737.1500000000001,-107.014,-474.858,-1374.01,1.83005,-57.294899999999998,-760.11199999999997
7224.0,1630.3399999999999,168.07400000000001,-158.40899999999999,-1007.87,-42.783200000000001,-94.893600000000006,-711.80499999999995
7225.0,1809.76,102.822,-329.14100000000002,-1302.47,-87.293899999999994,-110.676,-744.14200000000005
7226.0,1919.3900000000001,261.93799999999999,-188.09399999999999,-1310.73,-112.94199999999999,-180.59899999999999,-725.68899999999996
7227.0,1811.74,-6.1938700000000004,-257.5,-1354.51,-197.20099999999999,-380.30900000000003,-629.70500000000004
7228.0,1733.77,-51.173400000000001,-216.44800000000001,-1192.25,-241.142,-482.53199999999998,-575.101
7229.0,1616.53,-141.97399999999999,-249.727,-1116.1099999999999,-247.93000000000001,-519.96000000000004,-504.00999999999999
7230.0,1499.8699999999999,-20.930800000000001,-66.975899999999996,-812.09699999999998,-255.10900000000001,-545.89200000000005,-435.40499999999997
7231.0,1465.47,-139.68899999999999,-188.328,-887.404,-260.98399999999998,-547.61099999999999,-415.75099999999998
7232.0,1563.28,-98.057599999999994,-130.16200000000001,-856.14800000000002,-287.14400000000001,-617.65300000000002,-408.49099999999999
7233.0,1660.3099999999999,-230.494,-152.881,-846.45899999999995,-316.23000000000002,-723.90300000000002,-387.84199999999998
7234.0,1678.21,-283.84100000000001,-84.978999999999999,-686.70799999999997,-333.23399999999998,-773.55499999999995,-367.93799999999999
7235.0,1663.78,-456.202,-156.673,-670.53399999999999,-346.42899999999997,-784.49599999999998,-347.36000000000001
7236.0,1644.8,-503.90300000000002,-108.913,-553.86800000000005,-351.94799999999998,-780.87800000000004,-329.755
7237.0,1631.02,-681.63400000000001,-193.018,-577.30899999999997,-358.29599999999999,-769.22400000000005,-316.928
7238.0,1619.9000000000001,-725.06100000000004,-155.11500000000001,-488.24400000000003,-366.70699999999999,-754.74300000000005,-297.65899999999999
7239.0,1600.9300000000001,-842.41899999999998,-206.25899999999999,-489.33300000000003,-370.08100000000002,-738.71600000000001,-264.73399999999998
7240.0,1578.0799999999999,-839.26199999999994,-131.70400000000001,-333.49400000000003,-365.31700000000001,-714.39300000000003,-231.15799999999999
7241.0,1543.25,-978.59299999999996,-193.809,-290.851,-362.62599999999998,-663.21400000000006,-198.672
7242.0,1487.71,-955.62800000000004,-121.021,-128.84299999999999,-361.81599999999997,-590.81600000000003,-166.58500000000001
7243.0,1431.3599999999999,-1041.5899999999999,-181.36600000000001,-120.617,-353.97300000000001,-522.43299999999999,-139.22800000000001
7244.0,1386.4300000000001,-1003.8200000000001,-118.977,0.99116300000000002,-344.31799999999998,-455.68700000000001,-115.563
7245.0,1336.8299999999999,-1058.6800000000001,-164.60400000000001,11.2317,-338.32400000000001,-378.05799999999999,-95.6601
7246.0,1271.1099999999999,-976.02700000000004,-99.478999999999999,105.318,-334.46600000000001,-300.80900000000003,-79.282399999999996
7247.0,659.17999999999995,191.523,-74.617599999999996,-222.70500000000001,44.0974,88.371799999999993,-301.70800000000003
7248.0,722.327,190.07400000000001,-107.67700000000001,-283.19999999999999,27.096900000000002,70.828299999999999,-333.05599999999998
7249.0,817.82399999999996,339.68900000000002,2.6472799999999999,-219.61799999999999,10.4413,54.053199999999997,-374.98099999999999
7250.0,889.70399999999995,281.96300000000002,-60.401200000000003,-342.07600000000002,-13.6374,15.260400000000001,-407.15499999999997
7251.0,966.37,251.167,-73.628500000000003,-430.85199999999998,-17.5137,3.9777300000000002,-441.12599999999998
7252.0,1127.1099999999999,-4.1117100000000004,-318.964,-832.82100000000003,-47.523099999999999,-38.257899999999999,-494.72199999999998
7253.0,1413.9000000000001,151.988,-256.262,-922.0,-100.605,-105.11499999999999,-592.71900000000005
7254.0,1758.04,233.66,-377.63400000000001,-1220.25,-125.765,-118.224,-683.75599999999997
7255.0,1682.8699999999999,288.17200000000003,-209.44300000000001,-1093.79,-159.524,-253.13900000000001,-603.79499999999996
7256.0,1391.21,69.163499999999999,-168.72300000000001,-901.25199999999995,-191.48500000000001,-355.14600000000002,-475.96199999999999
7257.0,1281.79,50.045900000000003,-80.131,-700.02999999999997,-215.934,-412.64600000000002,-412.45800000000003
7258.0,1260.3099999999999,-110.375,-193.08000000000001,-781.71500000000003,-227.16,-440.52300000000002,-387.03100000000001
7259.0,1317.76,-36.9161,-102.68000000000001,-719.71100000000001,-237.90700000000001,-479.85700000000003,-387.42000000000002
7260.0,1416.01,-129.178,-157.83000000000001,-783.80200000000002,-265.96800000000002,-558.61900000000003,-385.61700000000002
7261.0,1476.24,-165.125,-120.41800000000001,-699.22900000000004,-294.67899999999997,-631.80899999999997,-369.72800000000001
7262.0,1497.74,-304.77499999999998,-162.184,-676.73000000000002,-314.39699999999999,-678.15800000000002,-344.12700000000001
7263.0,1492.8199999999999,-339.78100000000001,-98.635800000000003,-535.16999999999996,-325.154,-697.17999999999995,-321.30000000000001
7264.0,1470.78,-476.55599999999998,-151.47499999999999,-503.512,-337.49200000000002,-691.28099999999995,-301.51299999999998
7265.0,1449.55,-481.13,-89.082099999999997,-358.22800000000001,-351.08600000000001,-674.83900000000006,-285.51400000000001
7266.0,1429.0599999999999,-608.29399999999998,-168.40199999999999,-366.73399999999998,-355.35399999999998,-653.69100000000003,-280.387
7267.0,1402.47,-649.51300000000003,-155.98699999999999,-318.59300000000002,-359.53399999999999,-625.75999999999999,-267.47899999999998
7268.0,1372.9000000000001,-785.51700000000005,-211.989,-343.29899999999998,-359.35899999999998,-590.44600000000003,-245.41300000000001
7269.0,1345.24,-810.39599999999996,-160.94200000000001,-240.53299999999999,-358.32299999999998,-551.34000000000003,-213.01300000000001
7270.0,1315.22,-916.851,-212.614,-234.768,-358.42500000000001,-506.73700000000002,-176.26300000000001
7271.0,1280.9100000000001,-880.73000000000002,-143.48400000000001,-100.19499999999999,-355.35199999999998,-453.67099999999999,-149.60599999999999
7272.0,1238.25,-942.53999999999996,-192.43899999999999,-91.088999999999999,-352.05500000000001,-393.24799999999999,-127.23099999999999
7273.0,1180.1099999999999,-892.346,-153.42599999999999,-5.0882699999999996,-343.58699999999999,-330.55399999999997,-105.017
7274.0,1116.5899999999999,-911.80499999999995,-199.02099999999999,-19.643799999999999,-334.524,-272.565,-81.826899999999995
7275.0,485.726,66.736699999999999,-119.941,-250.70400000000001,30.0124,63.753900000000002,-219.60300000000001
7276.0,492.33300000000003,105.76900000000001,-86.164100000000005,-223.03800000000001,22.032,54.115200000000002,-223.83500000000001
7277.0,517.83900000000006,-13.8231,-224.83699999999999,-352.94,18.916,57.642600000000002,-237.44999999999999
7278.0,611.29700000000003,48.444899999999997,-198.00999999999999,-355.774,23.762899999999998,77.808599999999998,-276.476
7279.0,763.11000000000001,44.083399999999997,-247.41,-504.69299999999998,14.691800000000001,70.053200000000004,-337.05000000000001
7280.0,925.81399999999996,253.10499999999999,-80.285700000000006,-459.291,-25.473400000000002,3.12967,-397.49400000000003
7281.0,1098.8599999999999,138.965,-214.642,-695.21600000000001,-83.782200000000003,-96.131699999999995,-459.26900000000001
7282.0,1410.45,284.113,-221.49700000000001,-817.87699999999995,-143.63,-164.44399999999999,-557.82899999999995
7283.0,1538.79,282.70600000000002,-306.76900000000001,-986.05999999999995,-145.941,-200.88800000000001,-569.67100000000005
7284.0,1252.7,217.685,-125.386,-733.10500000000002,-156.078,-267.32100000000003,-442.072
7285.0,1094.3099999999999,-39.845599999999997,-224.71299999999999,-737.904,-178.93299999999999,-310.96499999999997,-373.69799999999998
7286.0,1132.71,41.8536,-86.997399999999999,-582.85400000000004,-207.07900000000001,-377.529,-365.34199999999998
7287.0,1186.75,-117.919,-203.31700000000001,-690.22500000000002,-228.84,-431.69,-367.988
7288.0,1250.1700000000001,-74.191699999999997,-125.955,-607.97199999999998,-255.37799999999999,-481.68000000000001,-370.24599999999998
7289.0,1311.96,-209.601,-196.48500000000001,-658.81100000000004,-281.65600000000001,-542.15700000000004,-362.20999999999998
7290.0,1341.6600000000001,-222.0,-123.91800000000001,-539.25300000000004,-302.91699999999997,-584.31600000000003,-345.98700000000002
7291.0,1339.1099999999999,-372.745,-189.124,-548.83000000000004,-316.012,-600.71600000000001,-323.52499999999998
7292.0,1321.9100000000001,-371.40300000000002,-110.476,-410.93599999999998,-324.87299999999999,-603.07100000000003,-294.26299999999998
7293.0,1294.3599999999999,-490.34500000000003,-167.321,-393.48700000000002,-329.50599999999997,-594.89800000000002,-261.72699999999998
7294.0,1259.5799999999999,-457.44900000000001,-93.694199999999995,-239.863,-328.17700000000002,-573.83799999999997,-241.56899999999999
7295.0,1224.29,-548.72799999999995,-150.24199999999999,-235.06700000000001,-331.517,-540.71299999999997,-230.852
7296.0,1195.3399999999999,-543.97400000000005,-93.068700000000007,-132.40899999999999,-336.83999999999997,-500.81799999999998,-222.773
7297.0,1173.6300000000001,-713.49400000000003,-202.56200000000001,-204.077,-341.75299999999999,-460.63200000000001,-208.31999999999999
7298.0,1150.2,-727.62099999999998,-167.80699999999999,-137.80699999999999,-347.25400000000002,-421.67200000000003,-179.53800000000001
7299.0,1118.24,-815.64200000000005,-229.76400000000001,-155.96600000000001,-348.31400000000002,-378.55900000000003,-146.78100000000001
7300.0,1080.5799999999999,-736.40499999999997,-148.12,-18.087299999999999,-344.346,-330.03800000000001,-123.39700000000001
7301.0,1036.6199999999999,-760.24400000000003,-189.387,-10.651899999999999,-335.44499999999999,-284.87599999999998,-105.973
7302.0,987.60299999999995,-643.38499999999999,-88.177800000000005,116.01000000000001,-325.56799999999998,-239.952,-84.323599999999999
7303.0,424.58199999999999,97.588899999999995,-46.835000000000001,-152.357,38.151400000000002,44.758600000000001,-202.20500000000001
7304.0,444.517,87.252899999999997,-63.532699999999998,-178.749,37.414700000000003,50.560899999999997,-210.03399999999999
7305.0,480.02699999999999,175.64699999999999,10.459099999999999,-123.67400000000001,38.329700000000003,55.545499999999997,-223.10400000000001
7306.0,542.03300000000002,157.84200000000001,-33.495100000000001,-192.416,39.042900000000003,59.516500000000001,-249.21700000000001
7307.0,634.18299999999999,176.96600000000001,-58.922199999999997,-264.68099999999998,18.484999999999999,42.8371,-288.17899999999997
7308.0,736.76599999999996,63.815199999999997,-210.41200000000001,-481.31099999999998,-18.823499999999999,-3.07498,-326.01499999999999
7309.0,843.13,140.75399999999999,-151.96199999999999,-488.40600000000001,-65.066599999999994,-77.271199999999993,-357.255
7310.0,1010.14,127.36799999999999,-217.16900000000001,-603.24000000000001,-108.131,-137.178,-419.55599999999998
7311.0,1366.05,264.21499999999997,-254.61000000000001,-794.48699999999997,-146.90899999999999,-159.988,-542.774
7312.0,1446.95,190.76400000000001,-302.85399999999998,-941.20299999999997,-155.827,-252.66399999999999,-536.36300000000006
7313.0,1121.22,178.357,-67.023099999999999,-582.93799999999999,-158.476,-290.94799999999998,-397.85199999999998
7314.0,987.63999999999999,-43.558300000000003,-187.887,-588.10199999999998,-185.077,-311.084,-338.42099999999999
7315.0,1047.97,-8.4808500000000002,-119.526,-506.18599999999998,-212.197,-363.452,-347.42000000000002
7316.0,1112.05,-142.16800000000001,-202.52600000000001,-587.97900000000004,-238.595,-417.34500000000003,-350.166
7317.0,1157.22,-135.82300000000001,-145.88200000000001,-507.56700000000001,-263.875,-461.04599999999999,-345.45699999999999
7318.0,1179.6700000000001,-260.30700000000002,-203.99100000000001,-528.48199999999997,-283.20800000000003,-492.73200000000003,-332.89299999999997
7319.0,1189.4100000000001,-270.41199999999998,-143.22200000000001,-423.471,-299.83699999999999,-512.44399999999996,-315.23000000000002
7320.0,1181.1800000000001,-384.61399999999998,-192.387,-424.80799999999999,-310.58199999999999,-516.88300000000004,-293.26100000000002
7321.0,1155.03,-376.767,-126.52800000000001,-302.291,-315.791,-508.69999999999999,-263.98700000000002
7322.0,1115.3099999999999,-461.88600000000002,-169.16999999999999,-288.54500000000002,-312.74400000000003,-489.57499999999999,-235.55600000000001
7323.0,1077.49,-439.62799999999999,-108.761,-175.95500000000001,-308.41000000000003,-466.56,-208.84800000000001
7324.0,1054.1800000000001,-527.14700000000005,-153.28899999999999,-157.548,-309.95499999999998,-439.12099999999998,-188.33000000000001
7325.0,1036.1700000000001,-519.12599999999998,-104.444,-50.9758,-317.15300000000002,-399.452,-179.077
7326.0,1015.11,-627.51599999999996,-188.124,-96.118600000000001,-327.15800000000002,-358.52100000000002,-165.11000000000001
7327.0,987.524,-584.93499999999995,-132.637,-12.6082,-332.52300000000002,-322.61099999999999,-139.029
7328.0,952.11599999999999,-618.20000000000005,-159.07300000000001,-4.4466599999999996,-323.59199999999998,-285.697,-118.06699999999999
7329.0,913.20500000000004,-566.72299999999996,-107.17,79.509100000000004,-307.44600000000003,-251.03700000000001,-99.143600000000006
7330.0,875.0,-604.16800000000001,-141.19499999999999,66.930899999999994,-294.084,-212.363,-74.964500000000001
7331.0,374.94900000000001,25.970300000000002,-113.083,-167.49299999999999,34.304299999999998,35.287999999999997,-185.70500000000001
7332.0,388.19499999999999,64.0625,-88.808400000000006,-145.476,33.829999999999998,41.326500000000003,-188.76400000000001
7333.0,411.22000000000003,-9.2821499999999997,-174.43100000000001,-238.09299999999999,36.547400000000003,48.284399999999998,-196.858
7334.0,456.19900000000001,29.305599999999998,-152.67599999999999,-239.292,35.103000000000002,50.855800000000002,-216.24000000000001
7335.0,522.13099999999997,19.674099999999999,-181.68199999999999,-312.423,19.120200000000001,33.228700000000003,-247.82300000000001
7336.0,615.62,136.56299999999999,-82.7346,-278.08499999999998,-13.293900000000001,-12.359999999999999,-288.04300000000001
7337.0,729.68899999999996,50.303600000000003,-177.05500000000001,-441.19299999999998,-56.297199999999997,-79.0595,-327.959
7338.0,875.41700000000003,92.638900000000007,-170.30500000000001,-488.53100000000001,-86.001800000000003,-127.765,-383.45400000000001
7339.0,1109.02,81.225899999999996,-282.27800000000002,-675.59299999999996,-116.242,-147.739,-481.00999999999999
7340.0,1396.0799999999999,165.29599999999999,-312.18700000000001,-830.13900000000001,-164.322,-215.37700000000001,-573.09100000000001
7341.0,1361.46,36.624099999999999,-343.19799999999998,-888.19100000000003,-179.935,-308.91300000000001,-523.41499999999996
7342.0,1043.71,38.906999999999996,-125.63500000000001,-553.56899999999996,-172.97,-304.30599999999998,-383.47199999999998
7343.0,924.31299999999999,-91.565100000000001,-186.84999999999999,-509.93599999999998,-194.42599999999999,-307.52300000000002,-323.00200000000001
7344.0,972.80700000000002,-63.400199999999998,-148.18600000000001,-436.47300000000001,-220.881,-348.233,-327.33699999999999
7345.0,1000.9400000000001,-159.649,-198.96000000000001,-471.42099999999999,-237.714,-379.13900000000001,-323.84399999999999
7346.0,1022.5599999999999,-180.03100000000001,-156.43299999999999,-397.86500000000001,-260.005,-409.94299999999998,-308.50299999999999
7347.0,1040.96,-272.48099999999999,-194.95099999999999,-401.077,-277.29199999999997,-431.21600000000001,-295.846
7348.0,1039.3199999999999,-286.22699999999998,-154.75800000000001,-324.65499999999997,-288.36200000000002,-437.37299999999999,-278.702
7349.0,1017.92,-366.95400000000001,-184.96700000000001,-314.38099999999997,-293.69799999999998,-429.77499999999998,-256.22800000000001
7350.0,985.73599999999999,-365.43400000000003,-140.12200000000001,-232.99000000000001,-292.48099999999999,-413.15600000000001,-234.15100000000001
7351.0,958.15899999999999,-429.14299999999997,-161.86699999999999,-217.41800000000001,-292.745,-395.63499999999999,-209.53200000000001
7352.0,938.54999999999995,-421.79199999999997,-115.297,-114.681,-296.36000000000001,-377.34500000000003,-178.97200000000001
7353.0,920.43700000000001,-483.42899999999997,-148.96700000000001,-81.6297,-297.41399999999999,-351.37599999999998,-155.48099999999999
7354.0,898.51300000000003,-465.48599999999999,-116.104,4.3262700000000001,-298.50099999999998,-318.20600000000002,-138.56999999999999
7355.0,872.40499999999997,-508.49299999999999,-150.52099999999999,4.3942899999999998,-296.82299999999998,-286.55000000000001,-119.509
7356.0,840.596,-477.95299999999997,-105.553,70.375699999999995,-287.596,-251.65899999999999,-105.39100000000001
7357.0,808.73599999999999,-518.24099999999999,-136.75200000000001,49.547199999999997,-281.12900000000002,-216.69499999999999,-90.869399999999999
7358.0,785.38999999999999,-481.952,-100.95699999999999,106.843,-277.40499999999997,-185.49000000000001,-71.290999999999997
7359.0,330.37400000000002,85.337199999999996,-53.261200000000002,-75.146100000000004,30.264500000000002,29.465399999999999,-164.39099999999999
7360.0,343.67599999999999,59.853099999999998,-85.727699999999999,-113.538,32.671999999999997,34.826599999999999,-168.57900000000001
7361.0,368.94299999999998,135.22,-20.210999999999999,-57.3249,33.404699999999998,37.148400000000002,-180.11699999999999
7362.0,401.541,104.20099999999999,-66.501099999999994,-117.81100000000001,30.323499999999999,36.634700000000002,-194.86699999999999
7363.0,431.28699999999998,127.986,-53.5259,-131.33799999999999,17.410299999999999,23.479399999999998,-208.422
7364.0,483.55700000000002,18.0792,-171.75800000000001,-289.82999999999998,-14.7399,-13.2079,-231.12700000000001
7365.0,606.13,80.3155,-131.923,-298.85599999999999,-58.203200000000002,-70.902299999999997,-279.17000000000002
7366.0,754.46000000000004,4.6882099999999998,-238.916,-443.07400000000001,-89.775400000000005,-120.84399999999999,-341.791
7367.0,893.58699999999999,65.740499999999997,-226.96899999999999,-470.94,-91.4602,-125.017,-412.27100000000002
7368.0,1123.8199999999999,41.340400000000002,-321.27999999999997,-667.03899999999999,-132.75999999999999,-164.41,-500.858
7369.0,1350.45,73.7029,-321.53300000000002,-769.26400000000001,-191.38200000000001,-275.11200000000002,-563.66099999999994
7370.0,1260.99,-58.952599999999997,-305.87200000000001,-748.69000000000005,-211.44499999999999,-344.16300000000001,-494.71499999999997
7371.0,991.99199999999996,-52.328899999999997,-150.828,-493.42500000000001,-199.92400000000001,-316.63499999999999,-366.30900000000003
7372.0,865.46100000000001,-109.872,-187.75399999999999,-440.37299999999999,-197.41300000000001,-293.07299999999998,-308.154
7373.0,854.36300000000006,-105.28400000000001,-160.76300000000001,-366.25299999999999,-209.5,-307.017,-293.702
7374.0,875.40300000000002,-180.68600000000001,-182.256,-351.41399999999999,-234.13999999999999,-335.13499999999999,-280.49799999999999
7375.0,906.505,-215.01300000000001,-171.27600000000001,-313.82999999999998,-253.96799999999999,-359.28699999999998,-273.85500000000002
7376.0,914.22400000000005,-269.08100000000002,-184.749,-306.48099999999999,-265.55799999999999,-367.52600000000001,-262.90100000000001
7377.0,894.56899999999996,-285.80900000000003,-162.495,-253.10900000000001,-270.43400000000003,-360.50400000000002,-244.07400000000001
7378.0,867.44200000000001,-329.548,-172.60400000000001,-229.47300000000001,-271.452,-346.233,-225.702
7379.0,846.33500000000004,-345.99200000000002,-153.94300000000001,-178.60300000000001,-274.99099999999999,-331.60700000000003,-205.572
7380.0,832.55799999999999,-396.62400000000002,-168.08500000000001,-152.52799999999999,-280.03800000000001,-319.15899999999999,-179.13999999999999
7381.0,819.59500000000003,-394.76299999999998,-135.5,-71.179699999999997,-280.13299999999998,-305.20699999999999,-151.46799999999999
7382.0,802.82000000000005,-429.69200000000001,-147.053,-36.087400000000002,-275.77999999999997,-285.05399999999997,-127.84
7383.0,782.54399999999998,-421.428,-119.354,28.990100000000002,-270.62,-257.04700000000003,-110.128
7384.0,758.36099999999999,-458.971,-144.31,27.379200000000001,-268.21600000000001,-222.678,-96.649799999999999
7385.0,732.81399999999996,-440.41199999999998,-126.006,62.508499999999998,-266.69099999999997,-191.14699999999999,-82.408299999999997
7386.0,708.55200000000002,-454.101,-144.36099999999999,65.0154,-260.66199999999998,-163.11199999999999,-67.740200000000002
7387.0,288.68299999999999,33.674100000000003,-100.89100000000001,-103.892,25.1432,23.356400000000001,-142.92699999999999
7388.0,296.12,60.797800000000002,-78.149500000000003,-81.595799999999997,28.9847,28.9011,-144.75700000000001
7389.0,300.392,-2.2030599999999998,-141.34200000000001,-149.63,27.988,29.241399999999999,-146.90000000000001
7390.0,318.82400000000001,36.938200000000002,-111.03700000000001,-136.48400000000001,19.633299999999998,23.569400000000002,-155.47300000000001
7391.0,368.60000000000002,43.113500000000002,-126.10599999999999,-186.614,1.84494,9.4061400000000006,-176.12
7392.0,443.04199999999997,152.65100000000001,-41.142600000000002,-141.672,-27.141100000000002,-19.543500000000002,-204.76499999999999
7393.0,513.11900000000003,83.332099999999997,-125.557,-246.18700000000001,-57.540500000000002,-61.911099999999998,-229.83699999999999
7394.0,586.36900000000003,106.199,-112.13200000000001,-236.78899999999999,-72.279200000000003,-89.089299999999994,-267.03300000000002
7395.0,715.57799999999997,19.107500000000002,-236.36699999999999,-390.41300000000001,-77.782700000000006,-96.527900000000002,-335.45800000000003
7396.0,875.03700000000003,48.328899999999997,-253.10599999999999,-442.452,-104.47799999999999,-129.75,-407.69600000000003
7397.0,1079.4100000000001,8.2568000000000001,-346.82999999999998,-600.54999999999995,-152.74199999999999,-182.24000000000001,-488.17700000000002
7398.0,1269.48,-42.792999999999999,-371.084,-696.69500000000005,-228.048,-298.35199999999998,-537.84000000000003
7399.0,1195.0899999999999,-150.15899999999999,-335.56400000000002,-645.447,-246.892,-349.94,-479.63200000000001
7400.0,931.50999999999999,-104.12,-184.18199999999999,-433.65899999999999,-208.88399999999999,-290.62099999999998,-362.77199999999999
7401.0,780.25,-127.488,-177.78800000000001,-364.50599999999997,-192.00200000000001,-260.47300000000001,-287.44299999999998
7402.0,755.404,-154.77600000000001,-157.78800000000001,-284.82499999999999,-209.411,-277.58100000000002,-252.58099999999999
7403.0,786.97400000000005,-204.92599999999999,-179.946,-272.76299999999998,-232.102,-298.11500000000001,-247.774
7404.0,801.70899999999995,-218.536,-180.399,-258.30599999999998,-243.279,-303.79700000000003,-247.49000000000001
7405.0,781.49400000000003,-245.68199999999999,-180.72499999999999,-233.88999999999999,-245.95400000000001,-298.07499999999999,-230.30000000000001
7406.0,757.61099999999999,-259.70100000000002,-166.75999999999999,-191.30500000000001,-246.363,-289.52300000000002,-210.91800000000001
7407.0,740.57799999999997,-292.363,-167.06700000000001,-160.922,-250.49100000000001,-279.90800000000002,-190.321
7408.0,730.90899999999999,-305.351,-148.75899999999999,-103.949,-256.70600000000002,-269.70699999999999,-168.09100000000001
7409.0,723.52099999999996,-350.01900000000001,-164.91200000000001,-81.567700000000002,-260.66300000000001,-256.72800000000001,-147.51300000000001
7410.0,715.84299999999996,-360.73399999999998,-147.48500000000001,-31.5487,-262.00799999999998,-240.24700000000001,-128.69800000000001
7411.0,704.20000000000005,-398.16000000000003,-160.52199999999999,-18.641100000000002,-262.32499999999999,-217.21600000000001,-111.934
7412.0,689.28800000000001,-389.642,-140.25399999999999,23.785699999999999,-262.20699999999999,-192.99600000000001,-95.051400000000001
7413.0,671.298,-399.29000000000002,-147.542,39.818399999999997,-256.93299999999999,-170.96000000000001,-80.137900000000002
7414.0,648.452,-380.74200000000002,-125.691,76.831599999999995,-249.58699999999999,-144.03200000000001,-67.4589
7415.0,254.75299999999999,70.058800000000005,-52.482799999999997,-38.325600000000001,21.808499999999999,15.2255,-128.18600000000001
7416.0,262.06900000000002,48.856200000000001,-77.792299999999997,-64.457599999999999,25.139800000000001,18.744599999999998,-130.64099999999999
7417.0,266.98899999999998,106.038,-13.201000000000001,-16.546900000000001,27.180499999999999,21.702500000000001,-132.94800000000001
7418.0,315.59699999999998,89.464600000000004,-47.395600000000002,-81.531899999999993,10.204000000000001,12.9633,-157.286
7419.0,428.07299999999998,117.184,-80.843299999999999,-138.09100000000001,-9.8652999999999995,0.75948599999999999,-207.465
7420.0,509.73899999999998,27.7834,-198.04400000000001,-280.86599999999999,-30.018599999999999,-29.427299999999999,-243.565
7421.0,535.74800000000005,70.518000000000001,-139.89099999999999,-242.14500000000001,-51.831400000000002,-61.793199999999999,-252.5
7422.0,541.61400000000003,8.7898399999999999,-194.29300000000001,-290.73000000000002,-57.962400000000002,-71.768100000000004,-256.70100000000002
7423.0,590.73000000000002,62.147199999999998,-162.40100000000001,-254.48099999999999,-58.4114,-68.065299999999993,-285.92000000000002
7424.0,717.61599999999999,-8.0437899999999996,-264.12400000000002,-385.27199999999999,-82.603800000000007,-93.326700000000002,-345.00999999999999
7425.0,892.57600000000002,23.683299999999999,-281.58300000000003,-442.14600000000002,-123.142,-145.804,-416.10899999999998
7426.0,1042.03,-26.202500000000001,-346.858,-540.245,-175.99799999999999,-207.72499999999999,-469.47800000000001
7427.0,1122.6199999999999,-117.32299999999999,-381.55900000000003,-589.07899999999995,-228.501,-276.47699999999998,-485.31999999999999
7428.0,1038.4100000000001,-206.791,-354.61500000000001,-543.28700000000003,-238.77500000000001,-296.61099999999999,-431.26799999999997
7429.0,838.08100000000002,-174.214,-214.66300000000001,-376.83800000000002,-210.75800000000001,-261.44900000000001,-331.44200000000001
7430.0,748.38499999999999,-188.93600000000001,-171.42699999999999,-281.02999999999997,-219.82900000000001,-259.928,-259.49799999999999
7431.0,728.37400000000002,-193.209,-184.26900000000001,-248.82599999999999,-223.97999999999999,-255.68100000000001,-245.11099999999999
7432.0,697.678,-181.91,-179.983,-227.35400000000001,-217.74100000000001,-245.37799999999999,-232.18799999999999
7433.0,678.01800000000003,-196.49299999999999,-176.511,-199.86500000000001,-218.32499999999999,-246.357,-211.46799999999999
7434.0,660.39999999999998,-210.22499999999999,-165.02000000000001,-164.947,-219.74100000000001,-242.44200000000001,-193.98400000000001
7435.0,645.41300000000001,-234.31999999999999,-161.19499999999999,-131.60599999999999,-224.922,-236.46100000000001,-171.911
7436.0,634.86699999999996,-262.75700000000001,-162.21600000000001,-94.310699999999997,-229.92599999999999,-227.69900000000001,-149.857
7437.0,627.25199999999995,-276.86799999999999,-147.33000000000001,-45.236199999999997,-233.65799999999999,-213.559,-132.16999999999999
7438.0,621.70000000000005,-308.84500000000003,-152.875,-26.591899999999999,-239.01400000000001,-195.072,-116.901
7439.0,617.48199999999997,-316.11000000000001,-144.24299999999999,3.5147300000000001,-243.477,-178.14599999999999,-102.41500000000001
7440.0,610.59299999999996,-334.06999999999999,-152.946,15.302,-244.00899999999999,-162.45699999999999,-88.3917
7441.0,602.255,-334.745,-144.792,42.957000000000001,-241.28899999999999,-145.298,-76.855199999999996
7442.0,584.38300000000004,-345.98599999999999,-151.51499999999999,45.432499999999997,-237.27699999999999,-122.479,-65.040599999999998
7443.0,220.41200000000001,14.835800000000001,-96.091899999999995,-64.769199999999998,26.397099999999998,15.4092,-109.495
7444.0,239.83099999999999,35.904899999999998,-80.194999999999993,-53.753500000000003,26.819099999999999,16.6264,-120.31
7445.0,318.75799999999998,-9.2794899999999991,-165.55699999999999,-149.80000000000001,24.2288,22.956,-159.22300000000001
7446.0,411.90699999999998,33.661700000000003,-174.15100000000001,-177.23400000000001,8.0255899999999993,12.276,-204.27600000000001
7447.0,472.20800000000003,20.1739,-216.161,-232.28,-5.6741700000000002,-2.3851100000000001,-233.054
7448.0,501.18700000000001,75.371700000000004,-151.61199999999999,-186.495,-27.338799999999999,-32.3142,-248.434
7449.0,526.30700000000002,-6.3936900000000003,-214.34299999999999,-259.70999999999998,-56.8904,-65.172499999999999,-258.07799999999997
7450.0,538.51800000000003,41.6023,-169.398,-217.102,-63.2866,-71.079099999999997,-262.02199999999999
7451.0,537.48000000000002,1.41456,-223.78299999999999,-274.959,-49.587800000000001,-56.5503,-262.714
7452.0,579.54600000000005,42.240299999999998,-193.928,-249.51900000000001,-61.099499999999999,-66.170699999999997,-282.57400000000001
7453.0,698.154,-32.170999999999999,-300.96300000000002,-364.01600000000002,-96.580600000000004,-101.973,-334.19900000000001
7454.0,794.99599999999998,-22.062000000000001,-307.16800000000001,-383.80099999999999,-128.232,-141.03700000000001,-371.48700000000002
7455.0,830.95299999999997,-23.7668,-277.88400000000001,-367.005,-163.63200000000001,-180.87700000000001,-372.75599999999997
7456.0,866.74800000000005,-95.836100000000002,-289.10199999999998,-391.02600000000001,-197.614,-224.49299999999999,-372.142
7457.0,897.55799999999999,-213.29599999999999,-298.63200000000001,-392.214,-247.18199999999999,-273.46600000000001,-353.05099999999999
7458.0,836.096,-251.583,-273.58800000000002,-330.04899999999998,-255.89599999999999,-269.19900000000001,-305.66399999999999
7459.0,690.10000000000002,-194.458,-213.506,-250.155,-217.95099999999999,-219.071,-249.899
7460.0,611.32399999999996,-176.327,-190.28299999999999,-201.876,-199.167,-202.643,-208.99199999999999
7461.0,593.404,-154.184,-166.85900000000001,-157.94,-195.96899999999999,-205.03399999999999,-192.071
7462.0,576.92999999999995,-180.244,-173.89699999999999,-146.827,-197.10599999999999,-202.084,-175.91399999999999
7463.0,562.75800000000004,-182.03800000000001,-153.80699999999999,-100.78400000000001,-201.423,-198.54900000000001,-154.501
7464.0,548.21500000000003,-204.97399999999999,-147.38,-63.446599999999997,-203.404,-189.67699999999999,-133.28
7465.0,540.06299999999999,-238.60499999999999,-148.46899999999999,-37.737699999999997,-208.31399999999999,-174.50999999999999,-115.117
7466.0,540.86000000000001,-262.70100000000002,-149.601,-17.523399999999999,-215.99199999999999,-159.977,-101.027
7467.0,542.52499999999998,-276.95999999999998,-153.084,-1.6853,-221.06,-149.179,-89.341499999999996
7468.0,537.44600000000003,-275.45800000000003,-145.875,23.142600000000002,-220.762,-137.11799999999999,-79.5304
7469.0,527.66899999999998,-283.34500000000003,-148.99700000000001,35.569499999999998,-220.10300000000001,-118.417,-68.606999999999999
7470.0,513.14599999999996,-270.31700000000001,-139.81,56.167000000000002,-216.023,-103.116,-58.899500000000003
7471.0,215.97,58.534399999999998,-55.393599999999999,-11.733499999999999,27.732500000000002,15.4993,-105.99299999999999
7472.0,258.97800000000001,54.643099999999997,-79.735399999999998,-48.691699999999997,22.2881,16.736899999999999,-128.95599999999999
7473.0,359.93799999999999,101.309,-99.8566,-70.975200000000001,6.43065,15.293100000000001,-176.29300000000001
7474.0,417.40100000000001,81.016900000000007,-158.05000000000001,-129.54599999999999,-3.8420700000000001,0.64362900000000001,-202.50700000000001
7475.0,413.51499999999999,99.379999999999995,-132.16800000000001,-105.81699999999999,-14.2416,-9.8628400000000003,-201.566
7476.0,410.54300000000001,36.762,-186.71299999999999,-167.59,-28.1815,-21.501200000000001,-198.94900000000001
7477.0,419.96499999999997,63.840200000000003,-138.571,-131.69399999999999,-50.632899999999999,-47.039900000000003,-202.00299999999999
7478.0,458.35599999999999,2.71618,-205.34200000000001,-199.60300000000001,-64.166899999999998,-60.9377,-219.447
7479.0,482.05700000000002,69.6965,-166.31299999999999,-166.80799999999999,-54.904899999999998,-53.881799999999998,-230.078
7480.0,453.39699999999999,48.494300000000003,-173.226,-178.471,-55.372,-59.386099999999999,-212.47800000000001
7481.0,440.06400000000002,57.997700000000002,-144.19300000000001,-139.49199999999999,-62.361199999999997,-64.242500000000007,-207.88999999999999
7482.0,511.89800000000002,18.076899999999998,-199.51499999999999,-203.15299999999999,-81.247699999999995,-79.917199999999994,-241.471
7483.0,602.452,-44.426699999999997,-265.77999999999997,-276.80200000000002,-122.13800000000001,-122.265,-271.90100000000001
7484.0,687.58199999999999,-13.3521,-235.75999999999999,-259.45299999999997,-155.19999999999999,-165.184,-296.28500000000003
7485.0,794.81799999999998,-107.242,-279.62400000000002,-287.56400000000002,-225.27099999999999,-234.24100000000001,-307.53899999999999
7486.0,775.86000000000001,-163.69499999999999,-288.20600000000002,-280.58100000000002,-231.45500000000001,-235.36500000000001,-294.64299999999997
7487.0,629.178,-126.898,-188.72399999999999,-187.93700000000001,-198.86600000000001,-192.41800000000001,-232.64699999999999
7488.0,556.34299999999996,-151.279,-181.76300000000001,-161.96899999999999,-187.387,-179.89099999999999,-188.30500000000001
7489.0,530.58600000000001,-134.49199999999999,-167.012,-133.66,-179.25899999999999,-175.845,-174.423
7490.0,507.88,-139.065,-159.91399999999999,-111.04000000000001,-176.774,-173.22900000000001,-155.31200000000001
7491.0,486.87400000000002,-142.08000000000001,-144.56899999999999,-75.122399999999999,-175.352,-168.31899999999999,-135.58699999999999
7492.0,467.77199999999999,-175.49199999999999,-147.92099999999999,-54.959800000000001,-177.24700000000001,-155.73400000000001,-115.236
7493.0,463.416,-182.785,-127.45,-8.83446,-185.547,-140.97800000000001,-96.870800000000003
7494.0,474.35300000000001,-214.21700000000001,-141.27600000000001,2.0535600000000001,-195.36000000000001,-132.19499999999999,-85.185699999999997
7495.0,480.58800000000002,-215.50700000000001,-135.27699999999999,22.905000000000001,-200.19499999999999,-126.36499999999999,-78.903199999999998
7496.0,470.29599999999999,-229.84299999999999,-147.10499999999999,20.383299999999998,-197.351,-115.69499999999999,-71.706199999999995
7497.0,454.92599999999999,-221.70099999999999,-134.17099999999999,41.428100000000001,-194.23500000000001,-98.611699999999999,-59.823399999999999
7498.0,444.40800000000002,-236.58000000000001,-148.97900000000001,35.951599999999999,-191.19,-85.671000000000006,-50.814999999999998
7499.0,253.61099999999999,14.1602,-130.26400000000001,-68.409300000000002,27.2805,17.741399999999999,-123.005
7500.0,310.47800000000001,48.127200000000002,-139.161,-78.919899999999998,13.5739,14.584899999999999,-150.31299999999999
7501.0,330.67599999999999,38.708300000000001,-170.02699999999999,-111.283,-4.5477100000000004,5.4493999999999998,-157.51900000000001
7502.0,339.48399999999998,76.242599999999996,-144.81299999999999,-88.546999999999997,-10.9693,3.8885200000000002,-158.376
7503.0,348.38400000000001,59.246400000000001,-164.57599999999999,-121.819,-21.811599999999999,-6.3605200000000002,-160.69399999999999
7504.0,345.76100000000002,112.291,-104.271,-75.579800000000006,-30.478000000000002,-17.435400000000001,-157.41999999999999
7505.0,328.88200000000001,61.357199999999999,-131.30199999999999,-111.14400000000001,-44.9313,-36.540900000000001,-146.58500000000001
7506.0,316.995,77.084800000000001,-95.162499999999994,-66.975999999999999,-47.301600000000001,-40.995199999999997,-145.05500000000001
7507.0,352.95400000000001,27.757999999999999,-170.48699999999999,-141.375,-49.737200000000001,-42.678800000000003,-160.53399999999999
7508.0,353.63499999999999,75.367999999999995,-126.292,-105.684,-49.6248,-48.727600000000002,-156.643
7509.0,300.505,37.213500000000003,-121.399,-100.358,-45.360900000000001,-46.875,-135.739
7510.0,318.40300000000002,52.036499999999997,-115.73,-93.612099999999998,-46.7547,-45.839700000000001,-145.596
7511.0,424.065,51.5565,-137.851,-124.536,-84.143199999999993,-77.772999999999996,-188.78100000000001
7512.0,596.62,-24.5365,-258.572,-235.12200000000001,-144.73400000000001,-151.13800000000001,-241.34899999999999
7513.0,635.33100000000002,-28.347999999999999,-237.303,-174.71700000000001,-178.303,-185.57599999999999,-238.364
7514.0,589.24800000000005,-39.691200000000002,-216.155,-161.34899999999999,-170.21899999999999,-165.875,-226.03399999999999
7515.0,571.23800000000006,-107.151,-230.87799999999999,-183.63,-176.60400000000001,-173.89099999999999,-208.43700000000001
7516.0,514.07600000000002,-115.98999999999999,-182.28999999999999,-123.13,-175.00200000000001,-160.542,-174.26300000000001
7517.0,474.46600000000001,-114.544,-170.65199999999999,-105.813,-165.37,-150.846,-153.947
7518.0,458.26600000000002,-107.542,-154.41300000000001,-78.7333,-162.762,-151.399,-138.31100000000001
7519.0,433.23700000000002,-115.70399999999999,-144.012,-56.307600000000001,-157.78999999999999,-143.70699999999999,-122.52200000000001
7520.0,408.36000000000001,-121.258,-120.52800000000001,-20.625699999999998,-156.607,-131.38300000000001,-102.21299999999999
7521.0,404.34899999999999,-164.56899999999999,-134.35599999999999,-14.2409,-164.03999999999999,-120.455,-82.205500000000001
7522.0,421.09199999999998,-177.744,-132.286,12.399800000000001,-176.489,-113.44799999999999,-72.306200000000004
7523.0,429.23200000000003,-197.55799999999999,-151.447,6.9850300000000001,-181.93100000000001,-108.136,-71.484700000000004
7524.0,418.34100000000001,-183.82900000000001,-135.36500000000001,24.591799999999999,-177.97800000000001,-101.142,-67.340999999999994
7525.0,406.5,-198.5,-139.267,23.579000000000001,-176.00200000000001,-86.959500000000006,-57.598700000000001
7526.0,389.49299999999999,-190.648,-126.18899999999999,26.613399999999999,-173.709,-72.493899999999996,-51.837200000000003
7527.0,266.71199999999999,75.343699999999998,-92.156700000000001,-17.911100000000001,11.348599999999999,7.1132900000000001,-128.40600000000001
7528.0,294.14100000000002,55.5197,-132.69999999999999,-65.039500000000004,-1.2098599999999999,2.15801,-140.512
7529.0,283.91199999999998,96.583799999999997,-85.612099999999998,-26.9056,-11.828799999999999,-3.6053500000000001,-134.41399999999999
7530.0,287.08199999999999,85.649500000000003,-107.983,-53.644300000000001,-18.997299999999999,-1.9369400000000001,-130.89099999999999
7531.0,295.40899999999999,127.01900000000001,-78.448300000000003,-31.031700000000001,-26.1599,-7.2298299999999998,-129.53
7532.0,296.12,83.329099999999997,-120.946,-82.927800000000005,-38.258600000000001,-19.239000000000001,-124.871
7533.0,271.21199999999999,116.65300000000001,-62.0929,-30.880500000000001,-46.942799999999998,-33.360900000000001,-109.941
7534.0,216.72399999999999,55.8902,-79.486000000000004,-48.207500000000003,-38.680700000000002,-32.4801,-89.898399999999995
7535.0,207.44900000000001,109.23099999999999,-25.818300000000001,9.8642199999999995,-36.090400000000002,-28.541899999999998,-85.617199999999997
7536.0,252.94499999999999,80.096000000000004,-89.127499999999998,-59.197400000000002,-35.776299999999999,-30.066299999999998,-104.81999999999999
7537.0,261.47699999999998,71.319100000000006,-77.921099999999996,-57.710099999999997,-40.994199999999999,-43.038200000000003,-112.705
7538.0,273.26900000000001,52.612099999999998,-98.281499999999994,-78.929900000000004,-42.257300000000001,-45.0518,-119.73099999999999
7539.0,337.005,46.452800000000003,-135.58799999999999,-109.13500000000001,-64.177000000000007,-66.151700000000005,-140.315
7540.0,427.74900000000002,68.553100000000001,-142.06800000000001,-85.289900000000003,-105.881,-111.407,-159.66300000000001
7541.0,470.875,26.8445,-187.107,-119.465,-121.916,-132.68700000000001,-171.69399999999999
7542.0,459.70600000000002,-12.138299999999999,-185.81999999999999,-121.267,-127.95,-132.67599999999999,-169.59399999999999
7543.0,473.57900000000001,-20.8217,-172.17699999999999,-98.075100000000006,-142.148,-143.71700000000001,-167.84
7544.0,456.286,-73.786799999999999,-174.25899999999999,-91.484099999999998,-153.05799999999999,-143.041,-150.44900000000001
7545.0,428.93799999999999,-83.950500000000005,-156.72200000000001,-65.9953,-152.363,-135.124,-132.46899999999999
7546.0,413.43099999999998,-84.0642,-154.06,-58.902000000000001,-145.80099999999999,-135.09100000000001,-122.622
7547.0,384.14100000000002,-88.663899999999998,-139.30099999999999,-39.072099999999999,-139.53299999999999,-126.06,-106.376
7548.0,374.33199999999999,-112.934,-139.607,-21.646599999999999,-144.56200000000001,-117.938,-89.854799999999997
7549.0,384.262,-118.62,-121.855,17.298200000000001,-157.19399999999999,-109.688,-78.546899999999994
7550.0,382.625,-149.55099999999999,-138.91800000000001,8.0829500000000003,-163.51400000000001,-96.344200000000001,-70.849699999999999
7551.0,379.44400000000002,-152.84700000000001,-133.43199999999999,16.910799999999998,-165.715,-87.429100000000005,-65.225300000000004
7552.0,391.42399999999998,-173.571,-149.48599999999999,9.0347899999999992,-169.60900000000001,-90.448899999999995,-65.424999999999997
7553.0,376.815,-170.988,-139.054,13.3718,-165.43600000000001,-79.203299999999999,-63.091799999999999
7554.0,365.73599999999999,-199.28299999999999,-162.625,-27.168700000000001,-169.52099999999999,-66.265000000000001,-56.921700000000001
7555.0,232.44399999999999,21.925699999999999,-137.53,-53.257100000000001,-6.2768600000000001,-3.1329099999999999,-107.691
7556.0,240.25200000000001,75.198800000000006,-95.884600000000006,-13.0091,-10.078799999999999,-0.61197800000000002,-108.714
7557.0,239.517,47.802300000000002,-120.351,-54.107900000000001,-20.2438,-3.4118400000000002,-107.36199999999999
7558.0,244.93000000000001,85.584900000000005,-88.983900000000006,-31.719200000000001,-27.3582,-7.32029,-106.188
7559.0,252.46799999999999,75.931700000000006,-110.48999999999999,-59.7639,-31.7302,-9.1670099999999994,-104.23999999999999
7560.0,249.12700000000001,129.19200000000001,-55.086199999999998,-13.657999999999999,-40.792999999999999,-18.8245,-96.5548
7561.0,220.637,73.877700000000004,-78.907700000000006,-44.232799999999997,-43.100999999999999,-28.043900000000001,-84.656499999999994
7562.0,186.03299999999999,75.689899999999994,-39.311,-11.351100000000001,-37.729100000000003,-30.888500000000001,-74.574299999999994
7563.0,161.71100000000001,32.962699999999998,-69.756600000000006,-41.788200000000003,-30.563300000000002,-25.4495,-65.687600000000003
7564.0,186.10599999999999,89.144499999999994,-44.290599999999998,-11.3992,-24.883500000000002,-19.623999999999999,-75.552999999999997
7565.0,234.59399999999999,65.604699999999994,-91.328199999999995,-58.859900000000003,-34.097799999999999,-32.834400000000002,-96.134200000000007
7566.0,268.762,71.525300000000001,-88.117999999999995,-55.477499999999999,-47.921799999999998,-50.606099999999998,-110.03100000000001
7567.0,295.69799999999998,67.131,-97.076999999999998,-56.1477,-65.776300000000006,-69.974699999999999,-112.324
7568.0,299.61000000000001,47.598199999999999,-116.36199999999999,-54.679000000000002,-76.307100000000005,-81.893100000000004,-102.63800000000001
7569.0,332.57499999999999,87.530600000000007,-105.572,-40.050899999999999,-77.211100000000002,-88.278099999999995,-116.065
7570.0,374.48099999999999,45.081299999999999,-137.06200000000001,-66.287599999999998,-95.537300000000002,-108.503,-131.96100000000001
7571.0,385.803,-6.6950399999999997,-157.727,-77.650400000000005,-111.05500000000001,-115.003,-135.44800000000001
7572.0,397.642,-36.030099999999997,-157.499,-70.069999999999993,-128.05600000000001,-122.0,-132.28
7573.0,395.43000000000001,-74.066599999999994,-156.86600000000001,-57.333100000000002,-141.55199999999999,-121.55800000000001,-120.282
7574.0,392.99000000000001,-69.257499999999993,-147.66800000000001,-39.510199999999998,-141.90799999999999,-122.8,-114.633
7575.0,383.64600000000002,-57.061,-133.75,-24.427900000000001,-135.18799999999999,-126.622,-107.718
7576.0,368.79700000000003,-64.790400000000005,-120.396,5.4720300000000002,-135.79300000000001,-120.648,-91.447999999999993
7577.0,354.85399999999998,-123.254,-156.79300000000001,-15.7098,-140.732,-103.53100000000001,-77.570300000000003
7578.0,330.46300000000002,-126.73,-135.417,2.6224400000000001,-142.28899999999999,-79.346500000000006,-62.313099999999999
7579.0,338.31200000000001,-150.42699999999999,-148.11199999999999,-2.2439499999999999,-151.161,-70.883899999999997,-55.412599999999998
7580.0,364.71199999999999,-147.38200000000001,-149.917,10.890599999999999,-162.62,-74.604900000000001,-61.977699999999999
7581.0,366.63600000000002,-158.77199999999999,-162.68100000000001,-8.8038500000000006,-162.02000000000001,-76.4756,-70.788300000000007
7582.0,372.45999999999998,-147.31700000000001,-138.52799999999999,12.597300000000001,-170.958,-70.283500000000004,-63.201599999999999
7583.0,158.857,82.560000000000002,-30.614899999999999,30.394200000000001,-12.249000000000001,-3.8470399999999998,-70.981499999999997
7584.0,188.03700000000001,68.011600000000001,-72.263000000000005,-7.85433,-18.168500000000002,-0.63759699999999997,-80.778899999999993
7585.0,201.857,107.962,-43.384599999999999,16.3337,-26.149000000000001,-4.7005600000000003,-84.052800000000005
7586.0,205.68299999999999,91.8048,-61.569400000000002,-6.7595400000000003,-32.148899999999998,-8.5888399999999994,-83.391199999999998
7587.0,218.71700000000001,126.127,-41.9208,8.9762000000000004,-38.108600000000003,-12.1676,-83.183999999999997
7588.0,209.25399999999999,97.345600000000005,-67.575900000000004,-24.673200000000001,-38.3718,-16.113299999999999,-74.447299999999998
7589.0,181.80199999999999,111.125,-21.939699999999998,12.9612,-37.758699999999997,-22.322800000000001,-65.827600000000004
7590.0,167.387,49.311500000000002,-59.5762,-24.591000000000001,-35.071599999999997,-26.538599999999999,-65.687299999999993
7591.0,157.596,81.262500000000003,-17.5001,14.927199999999999,-30.590599999999998,-24.701599999999999,-64.796300000000002
7592.0,165.96600000000001,50.103700000000003,-61.020400000000002,-27.755800000000001,-26.118099999999998,-22.189699999999998,-68.950599999999994
7593.0,205.83000000000001,83.926000000000002,-58.173299999999998,-18.0413,-33.036700000000003,-30.217400000000001,-82.162899999999993
7594.0,241.78999999999999,64.914900000000003,-91.998999999999995,-42.892099999999999,-49.018799999999999,-48.354900000000001,-91.125399999999999
7595.0,254.916,57.8324,-94.716800000000006,-38.185000000000002,-62.3249,-61.749400000000001,-89.529600000000002
7596.0,256.625,67.393799999999999,-81.484200000000001,-22.319400000000002,-64.914400000000001,-67.628699999999995,-86.865600000000001
7597.0,275.30700000000002,55.594499999999996,-110.813,-48.260599999999997,-61.004100000000001,-72.610900000000001,-95.947000000000003
7598.0,308.66199999999998,47.218899999999998,-127.496,-58.002099999999999,-69.887900000000002,-83.204499999999996,-110.51000000000001
7599.0,334.01900000000001,19.694400000000002,-135.072,-55.770499999999998,-89.194000000000003,-93.636300000000006,-120.31999999999999
7600.0,350.96300000000002,-21.744199999999999,-152.99100000000001,-61.250700000000002,-108.598,-99.251199999999997,-121.985
7601.0,364.83100000000002,-52.585999999999999,-157.733,-54.635399999999997,-127.307,-101.367,-119.45699999999999
7602.0,394.98000000000002,-88.029700000000005,-181.84,-64.742999999999995,-146.107,-108.443,-122.693
7603.0,434.03800000000001,-95.094499999999996,-197.059,-64.376199999999997,-156.68600000000001,-129.16300000000001,-129.37700000000001
7604.0,403.79599999999999,-96.181899999999999,-173.30000000000001,-30.582799999999999,-146.90199999999999,-126.405,-108.116
7605.0,322.02999999999997,-56.419600000000003,-102.837,26.392199999999999,-123.51900000000001,-95.700900000000004,-76.593599999999995
7606.0,291.09800000000001,-88.489699999999999,-111.833,15.9031,-122.753,-72.913499999999999,-56.874600000000001
7607.0,304.51799999999997,-107.892,-126.134,14.0619,-135.52199999999999,-62.704700000000003,-52.936399999999999
7608.0,314.54599999999999,-130.065,-154.124,-9.6697500000000005,-142.74000000000001,-57.866300000000003,-57.152299999999997
7609.0,350.05200000000002,-128.642,-159.535,2.27799,-157.28999999999999,-67.900099999999995,-64.150499999999994
7610.0,380.13799999999998,-174.535,-196.71799999999999,-5.2860399999999998,-172.233,-64.655500000000004,-57.9636
7611.0,114.676,41.205199999999998,-45.5702,4.1795799999999996,-12.449,-1.9316500000000001,-48.257899999999999
7612.0,136.97300000000001,93.288200000000003,-17.058900000000001,36.934899999999999,-18.431799999999999,1.64239,-53.543199999999999
7613.0,163.14400000000001,66.651499999999999,-64.8155,-12.5748,-26.623899999999999,-0.63660300000000003,-61.491599999999998
7614.0,174.29599999999999,97.462599999999995,-38.185099999999998,9.5151199999999996,-34.985399999999998,-8.0619499999999995,-64.049199999999999
7615.0,182.49000000000001,75.976699999999994,-67.749700000000004,-19.935300000000002,-38.6967,-12.1259,-64.025899999999993
7616.0,184.864,123.328,-26.486999999999998,17.179099999999998,-37.177799999999998,-14.6381,-62.117699999999999
7617.0,170.501,76.690799999999996,-53.283099999999997,-15.726599999999999,-36.127299999999998,-20.278199999999998,-59.1584
7618.0,150.63200000000001,69.537800000000004,-32.684399999999997,6.8769999999999998,-31.624400000000001,-22.781300000000002,-58.201799999999999
7619.0,145.90199999999999,33.930500000000002,-64.120900000000006,-23.010200000000001,-29.0151,-21.220400000000001,-58.131300000000003
7620.0,155.39099999999999,65.970399999999998,-40.944699999999997,1.78179,-29.474900000000002,-22.8476,-61.334600000000002
7621.0,179.291,53.401699999999998,-71.555000000000007,-23.944800000000001,-35.033099999999997,-29.496400000000001,-68.121300000000005
7622.0,208.76400000000001,73.772400000000005,-69.043199999999999,-13.640599999999999,-46.801200000000001,-42.733800000000002,-72.982200000000006
7623.0,224.15899999999999,69.599599999999995,-77.255899999999997,-15.190899999999999,-55.442599999999999,-53.895400000000002,-73.046499999999995
7624.0,227.596,57.950899999999997,-90.807299999999998,-23.942,-55.979500000000002,-58.779699999999998,-71.601699999999994
7625.0,242.125,77.284700000000001,-84.456400000000002,-11.893599999999999,-52.407200000000003,-61.9968,-79.926500000000004
7626.0,268.673,64.874799999999993,-106.372,-27.784099999999999,-55.676099999999998,-67.588899999999995,-95.1096
7627.0,290.84100000000001,33.451099999999997,-132.0,-46.181399999999996,-68.244600000000005,-74.130799999999994,-105.815
7628.0,308.88499999999999,6.3753500000000001,-143.36199999999999,-47.848700000000001,-84.901300000000006,-80.183199999999999,-111.438
7629.0,325.23099999999999,-33.369999999999997,-161.03,-54.4602,-104.425,-83.013999999999996,-113.04600000000001
7630.0,353.505,-58.935499999999998,-170.50299999999999,-46.018000000000001,-127.97799999999999,-88.217299999999994,-113.179
7631.0,400.78899999999999,-71.867199999999997,-192.03700000000001,-37.824100000000001,-147.41999999999999,-107.30200000000001,-117.19199999999999
7632.0,404.92599999999999,-69.905100000000004,-183.69200000000001,-16.599799999999998,-149.654,-113.699,-109.756
7633.0,354.697,-99.131100000000004,-175.83600000000001,-20.803799999999999,-138.36799999999999,-95.397900000000007,-87.641599999999997
7634.0,314.87299999999999,-103.432,-151.00800000000001,-2.1645300000000001,-132.24299999999999,-73.7209,-65.927599999999998
7635.0,278.05700000000002,-107.28,-143.941,-10.870100000000001,-123.837,-52.581600000000002,-54.287799999999997
7636.0,264.85399999999998,-89.855500000000006,-126.52200000000001,2.02338,-119.913,-46.5595,-49.503300000000003
7637.0,289.90300000000002,-104.21599999999999,-148.00200000000001,5.0321800000000003,-127.176,-55.865200000000002,-50.077599999999997
7638.0,318.76799999999997,-102.27200000000001,-142.404,44.551200000000001,-139.024,-55.497100000000003,-42.149700000000003
7639.0,101.11499999999999,76.216300000000004,0.88080599999999998,41.574800000000003,-12.824299999999999,-2.3544999999999998,-42.616500000000002
7640.0,103.473,65.394400000000005,-16.486499999999999,20.846699999999998,-18.762799999999999,-1.2776099999999999,-39.176099999999998
7641.0,127.768,115.934,8.8586299999999998,51.307699999999997,-24.754200000000001,1.3202400000000001,-43.815199999999997
7642.0,147.11699999999999,94.268799999999999,-26.3689,16.413799999999998,-32.211500000000001,-4.8180199999999997,-49.120800000000003
7643.0,150.49600000000001,116.893,-4.3254799999999998,39.303400000000003,-34.464799999999997,-9.8872099999999996,-49.945399999999999
7644.0,165.54499999999999,85.639600000000002,-52.131500000000003,-5.6133100000000002,-35.346200000000003,-12.7125,-53.0289
7645.0,166.47300000000001,112.932,-20.447500000000002,26.649100000000001,-35.635199999999998,-18.177600000000002,-55.335299999999997
7646.0,143.60900000000001,43.316800000000001,-58.893099999999997,-11.1312,-30.0975,-20.1417,-54.291499999999999
7647.0,134.38399999999999,74.7042,-18.237300000000001,27.922899999999998,-27.942299999999999,-19.374199999999998,-52.000100000000003
7648.0,141.95699999999999,43.921199999999999,-55.6877,-9.49498,-30.832000000000001,-22.476099999999999,-52.693899999999999
7649.0,158.51599999999999,71.759200000000007,-40.239800000000002,9.7250399999999999,-36.562899999999999,-28.412099999999999,-55.530200000000001
7650.0,179.59700000000001,62.006900000000002,-66.136399999999995,-10.459099999999999,-44.195999999999998,-38.286099999999998,-56.603299999999997
7651.0,195.57400000000001,78.012600000000006,-64.964299999999994,0.425039,-48.515500000000003,-47.272599999999997,-55.121099999999998
7652.0,202.38800000000001,93.850399999999993,-61.148899999999998,14.326599999999999,-46.462200000000003,-51.074199999999998,-53.654200000000003
7653.0,213.535,82.020600000000002,-81.305899999999994,-1.8827700000000001,-41.122500000000002,-55.141599999999997,-61.619100000000003
7654.0,237.298,66.569999999999993,-103.134,-24.314800000000002,-42.161999999999999,-60.789999999999999,-78.006399999999999
7655.0,256.05200000000002,56.381900000000002,-109.699,-25.569800000000001,-50.950099999999999,-64.927800000000005,-90.258499999999998
7656.0,266.42599999999999,26.699999999999999,-126.874,-31.563800000000001,-62.5961,-68.650400000000005,-94.969399999999993
7657.0,271.01299999999998,5.6533800000000003,-127.919,-24.327200000000001,-77.8279,-68.129400000000004,-94.191000000000003
7658.0,287.005,-32.467399999999998,-149.36000000000001,-24.9575,-100.982,-68.394800000000004,-87.840299999999999
7659.0,327.69099999999997,-29.7622,-163.16800000000001,-6.7235399999999998,-115.746,-82.307400000000001,-92.131900000000002
7660.0,361.346,-36.758699999999997,-179.578,-17.685700000000001,-121.45099999999999,-99.490799999999993,-105.102
7661.0,365.88900000000001,-59.059199999999997,-168.696,2.94265,-133.19399999999999,-101.639,-94.866
7662.0,314.25200000000001,-74.256299999999996,-148.971,12.360900000000001,-125.93600000000001,-75.1357,-69.957099999999997
7663.0,249.65899999999999,-75.325699999999998,-125.176,5.8906499999999999,-110.53100000000001,-43.5914,-47.7776
7664.0,235.55799999999999,-78.800899999999999,-123.96299999999999,8.5681999999999992,-106.36799999999999,-36.677999999999997,-36.010199999999998
7665.0,240.506,-60.156100000000002,-112.98399999999999,38.0672,-101.774,-42.975900000000003,-34.643500000000003
7666.0,249.262,-64.078900000000004,-115.95399999999999,57.419699999999999,-100.056,-44.420000000000002,-28.419499999999999
7667.0,89.820099999999996,48.536499999999997,-20.546700000000001,20.758099999999999,-14.3308,-2.2463099999999998,-35.643000000000001
7668.0,91.604900000000001,88.412400000000005,14.7438,49.189599999999999,-19.0214,-0.61811099999999997,-32.806899999999999
7669.0,105.12,65.116299999999995,-23.911100000000001,11.5664,-23.7516,0.045983499999999997,-33.325699999999998
7670.0,118.262,97.472099999999998,-4.2153499999999999,34.137099999999997,-27.167899999999999,-2.2105000000000001,-35.802999999999997
7671.0,126.741,69.5518,-37.175400000000003,3.1496400000000002,-29.545300000000001,-6.5178000000000003,-39.1751
7672.0,143.54400000000001,109.42400000000001,-12.868,32.527500000000003,-32.607100000000003,-11.202999999999999,-43.105200000000004
7673.0,151.709,76.328900000000004,-52.1143,-0.087092299999999997,-31.0825,-13.659000000000001,-48.4268
7674.0,134.66499999999999,65.891999999999996,-35.917700000000004,16.5014,-27.640799999999999,-17.250900000000001,-48.900199999999998
7675.0,122.462,33.579599999999999,-52.800800000000002,-4.4795699999999998,-28.290099999999999,-18.7118,-44.434100000000001
7676.0,128.24600000000001,58.727600000000002,-32.425699999999999,16.2026,-31.9986,-21.510400000000001,-43.7652
7677.0,141.23099999999999,50.3992,-52.611400000000003,-1.4486000000000001,-37.465600000000002,-26.380500000000001,-43.546399999999998
7678.0,157.923,81.113699999999994,-41.025500000000001,14.1495,-42.479599999999998,-33.222999999999999,-40.7898
7679.0,173.268,86.7684,-47.739699999999999,12.914099999999999,-39.442900000000002,-45.881300000000003,-42.529699999999998
7680.0,186.10900000000001,84.008799999999994,-52.277200000000001,3.9384700000000001,-37.721699999999998,-54.728499999999997,-49.360599999999998
7681.0,197.34899999999999,95.330600000000004,-52.765000000000001,6.8412899999999999,-36.987299999999998,-54.6098,-55.491199999999999
7682.0,211.11099999999999,88.386700000000005,-77.253900000000002,-0.49309999999999998,-33.847700000000003,-55.235199999999999,-61.545999999999999
7683.0,224.36799999999999,68.688299999999998,-96.277299999999997,-9.4946199999999994,-36.164099999999998,-59.107500000000002,-71.897300000000001
7684.0,230.249,45.743299999999998,-104.044,-11.536,-45.210099999999997,-60.416800000000002,-79.150599999999997
7685.0,233.173,16.165500000000002,-119.336,-21.778400000000001,-56.946599999999997,-59.682400000000001,-80.199700000000007
7686.0,234.61500000000001,-7.6593799999999996,-121.503,-13.2064,-74.985299999999995,-57.513599999999997,-72.784300000000002
7687.0,261.09199999999998,-32.619100000000003,-146.517,-13.7065,-91.208200000000005,-63.922499999999999,-71.808400000000006
7688.0,313.96600000000001,-13.6751,-152.499,9.4323499999999996,-102.209,-86.032300000000006,-85.665700000000001
7689.0,330.49900000000002,-34.257199999999997,-167.50700000000001,20.106400000000001,-110.593,-92.392099999999999,-79.526700000000005
7690.0,279.25200000000001,-29.170400000000001,-131.96199999999999,29.667300000000001,-97.401300000000006,-73.321299999999994,-66.623900000000006
7691.0,218.77199999999999,-59.724400000000003,-119.361,9.9235600000000002,-90.412700000000001,-43.396799999999999,-41.341200000000001
7692.0,206.173,-51.672400000000003,-101.922,26.496600000000001,-90.863399999999999,-31.491700000000002,-27.081099999999999
7693.0,211.21600000000001,-68.703400000000002,-121.613,20.646899999999999,-88.608599999999996,-35.413899999999998,-24.3931
7694.0,215.97999999999999,-44.932400000000001,-91.990099999999998,71.166899999999998,-83.703699999999998,-34.956699999999998,-16.388200000000001
7695.0,86.7577,74.933400000000006,9.1136400000000002,51.7318,-15.7905,-3.30891,-33.677900000000001
7696.0,89.603399999999993,61.464199999999998,-8.8151299999999999,24.9956,-22.245999999999999,-2.2629299999999999,-30.673500000000001
7697.0,90.937100000000001,108.34,32.808999999999997,62.700899999999997,-24.5044,-1.43797,-26.590800000000002
7698.0,97.312200000000004,84.354299999999995,-0.68612700000000004,31.7989,-24.7393,-1.50549,-26.4711
7699.0,109.051,114.43899999999999,18.375399999999999,55.718000000000004,-26.432400000000001,-4.3864700000000001,-30.016999999999999
7700.0,123.35299999999999,78.003799999999998,-31.626999999999999,12.786,-28.403300000000002,-8.8474599999999999,-33.855400000000003
7701.0,125.545,103.113,-9.4053799999999992,43.189399999999999,-23.094899999999999,-9.2167600000000007,-38.287300000000002
7702.0,116.02500000000001,43.789200000000001,-47.755099999999999,4.3425200000000004,-23.327300000000001,-13.5648,-40.628799999999998
7703.0,114.39400000000001,70.175200000000004,-10.795400000000001,37.352899999999998,-30.044599999999999,-18.331700000000001,-38.270600000000002
7704.0,116.495,41.709200000000003,-41.243699999999997,6.95852,-33.174500000000002,-20.367100000000001,-35.678400000000003
7705.0,125.50700000000001,74.281400000000005,-21.871600000000001,25.9757,-37.3889,-23.916599999999999,-31.134599999999999
7706.0,142.85400000000001,88.704999999999998,-32.164000000000001,15.6806,-40.264099999999999,-29.308499999999999,-24.840699999999998
7707.0,156.61000000000001,96.549599999999998,-30.529199999999999,32.071599999999997,-29.415800000000001,-48.067700000000002,-31.019200000000001
7708.0,174.41399999999999,24.7788,-97.939700000000002,-39.284300000000002,-31.711300000000001,-55.301600000000001,-48.050199999999997
7709.0,189.499,29.498200000000001,-103.758,-59.008200000000002,-38.378700000000002,-50.517600000000002,-57.845599999999997
7710.0,194.70500000000001,78.520499999999998,-70.407700000000006,-14.7951,-31.8917,-52.645499999999998,-56.432499999999997
7711.0,199.34,90.513000000000005,-66.335700000000003,13.4209,-27.037099999999999,-56.471200000000003,-56.342799999999997
7712.0,202.904,57.4754,-89.823599999999999,3.79061,-29.536000000000001,-55.4696,-64.938100000000006
7713.0,206.30600000000001,37.650500000000001,-95.506399999999999,-0.120379,-43.094299999999997,-54.708399999999997,-68.029300000000006
7714.0,194.36799999999999,15.0184,-93.915899999999993,3.7557200000000002,-54.145600000000002,-49.453800000000001,-60.222200000000001
7715.0,194.858,5.9634799999999997,-91.464399999999998,17.791399999999999,-65.376300000000001,-44.941400000000002,-52.6113
7716.0,258.88499999999999,0.041930700000000001,-130.547,21.1952,-83.201999999999998,-68.485100000000003,-63.033900000000003
7717.0,296.101,-9.7033000000000005,-148.37799999999999,33.197000000000003,-92.607500000000002,-82.747399999999999,-69.247900000000001
7718.0,262.892,-11.4976,-124.288,36.330399999999997,-82.953299999999999,-71.667299999999997,-64.950999999999993
7719.0,215.51900000000001,-31.841000000000001,-104.955,36.027999999999999,-81.523600000000002,-47.886699999999998,-39.651499999999999
7720.0,181.70599999999999,-38.792400000000001,-94.973799999999997,28.7027,-76.172700000000006,-28.291499999999999,-23.840399999999999
7721.0,168.804,-28.054500000000001,-80.043800000000005,43.618099999999998,-68.588899999999995,-26.3429,-15.636699999999999
7722.0,183.86799999999999,-27.127500000000001,-75.255499999999998,75.657600000000002,-66.228499999999997,-29.761800000000001,-7.3876799999999996
7723.0,73.421000000000006,48.689500000000002,-7.0310600000000001,31.3184,-16.363299999999999,-3.08127,-26.584900000000001
7724.0,80.474800000000002,85.749499999999998,23.2348,53.154600000000002,-23.829999999999998,-1.32538,-24.728300000000001
7725.0,84.441100000000006,66.334900000000005,-1.9949399999999999,23.241199999999999,-26.435700000000001,-1.20888,-21.969200000000001
7726.0,86.158799999999999,93.3613,18.116800000000001,44.761800000000001,-24.087199999999999,-1.23038,-20.907900000000001
7727.0,96.486099999999993,72.395799999999994,-13.749700000000001,17.825500000000002,-25.508600000000001,-3.8735400000000002,-23.198499999999999
7728.0,99.198099999999997,97.917000000000002,7.1485799999999999,45.379300000000001,-23.926200000000001,-7.3091600000000003,-24.029499999999999
7729.0,91.319900000000004,59.492699999999999,-25.1844,18.144400000000001,-16.295000000000002,-6.5624200000000004,-26.0443
7730.0,94.277799999999999,63.549500000000002,-14.0002,32.351900000000001,-20.180399999999999,-10.5329,-30.363700000000001
7731.0,102.081,36.957099999999997,-39.0092,8.3794199999999996,-28.4329,-15.6715,-30.7774
7732.0,105.286,60.643500000000003,-17.7179,27.929200000000002,-32.414900000000003,-17.757400000000001,-27.927499999999998
7733.0,114.715,67.512299999999996,-26.829699999999999,13.1471,-36.383499999999998,-20.4419,-20.063500000000001
7734.0,131.45400000000001,115.04000000000001,1.95818,37.446399999999997,-34.312600000000003,-31.605599999999999,-15.465400000000001
7735.0,146.589,83.700999999999993,-32.085799999999999,26.9542,-24.433599999999998,-51.115600000000001,-24.513200000000001
7736.0,160.89599999999999,0.36908200000000002,-128.774,-49.591500000000003,-31.236499999999999,-44.751899999999999,-37.550899999999999
7737.0,175.21199999999999,-4.7876500000000002,-148.75700000000001,-73.171199999999999,-32.343699999999998,-40.030200000000001,-48.972999999999999
7738.0,180.464,33.5244,-111.761,-57.198900000000002,-27.444900000000001,-46.1721,-50.841099999999997
7739.0,179.012,91.927800000000005,-51.930700000000002,7.8638199999999996,-23.8794,-53.143000000000001,-45.436700000000002
7740.0,181.37700000000001,74.003,-60.026899999999998,28.161200000000001,-19.116199999999999,-56.588700000000003,-52.514299999999999
7741.0,177.42599999999999,35.105600000000003,-86.337199999999996,3.7010800000000001,-32.082099999999997,-49.145200000000003,-55.454300000000003
7742.0,170.81399999999999,20.313600000000001,-85.006600000000006,5.35215,-41.691600000000001,-43.623600000000003,-53.271099999999997
7743.0,163.14699999999999,-8.0052199999999996,-97.550299999999993,-2.60372,-49.992899999999999,-39.522399999999998,-44.353499999999997
7744.0,190.01400000000001,11.744199999999999,-93.357500000000002,29.351199999999999,-59.1479,-48.911999999999999,-41.736699999999999
7745.0,236.79499999999999,6.8852200000000003,-122.223,33.6066,-66.689300000000003,-66.638400000000004,-53.4617
7746.0,246.91499999999999,-0.45569999999999999,-121.065,40.591200000000001,-68.686700000000002,-70.627300000000005,-59.628500000000003
7747.0,214.416,-25.2621,-110.44799999999999,42.685099999999998,-72.336500000000001,-52.677399999999999,-37.815899999999999
7748.0,163.56200000000001,-30.3398,-87.485900000000001,32.694699999999997,-64.378,-27.217300000000002,-20.455200000000001
7749.0,141.565,-30.476600000000001,-76.5852,33.375900000000001,-55.762099999999997,-21.274699999999999,-8.3096599999999992
7750.0,161.38900000000001,-16.769600000000001,-63.698599999999999,76.365399999999994,-53.4467,-27.146599999999999,-2.5049700000000001
7751.0,62.129600000000003,72.625100000000003,26.901299999999999,59.596699999999998,-16.674700000000001,-2.9670100000000001,-21.093800000000002
7752.0,71.0124,71.417900000000003,16.385200000000001,41.1661,-23.27,-0.109606,-19.4877
7753.0,78.823999999999998,105.97499999999999,42.539400000000001,65.301400000000001,-26.292200000000001,-0.055176999999999997,-18.629100000000001
7754.0,83.638099999999994,86.794700000000006,14.962,39.823,-25.4833,-1.7280199999999999,-18.672699999999999
7755.0,85.597800000000007,109.506,34.585000000000001,61.896900000000002,-25.682500000000001,-4.71706,-17.969000000000001
7756.0,71.709599999999995,65.915899999999993,-0.42911300000000002,30.609200000000001,-17.972100000000001,-5.6508399999999996,-16.038399999999999
7757.0,68.025099999999995,83.130200000000002,20.5105,55.736600000000003,-13.414899999999999,-5.3348300000000002,-18.671800000000001
7758.0,79.987799999999993,50.629300000000001,-17.4497,24.1371,-18.587499999999999,-8.6176100000000009,-23.135400000000001
7759.0,87.791600000000003,71.167400000000001,1.97499,46.650799999999997,-24.800000000000001,-12.4057,-23.862400000000001
7760.0,94.2988,55.1051,-21.763200000000001,19.1629,-29.386800000000001,-14.3254,-20.396999999999998
7761.0,108.307,103.18000000000001,8.7900899999999993,38.743600000000001,-33.427700000000002,-17.3308,-12.880699999999999
7762.0,122.589,100.616,-3.31846,31.256399999999999,-26.135000000000002,-37.113599999999998,-12.144399999999999
7763.0,137.53800000000001,44.898800000000001,-62.470799999999997,-9.2400599999999997,-23.379899999999999,-49.439599999999999,-20.797799999999999
7764.0,143.578,17.907900000000001,-107.723,-44.162500000000001,-30.9176,-36.5627,-25.156600000000001
7765.0,155.39500000000001,12.109299999999999,-130.57300000000001,-44.32,-20.405100000000001,-38.157400000000003,-31.830200000000001
7766.0,163.816,7.2140599999999999,-141.00999999999999,-66.646900000000002,-17.823399999999999,-40.041699999999999,-39.135899999999999
7767.0,162.11600000000001,75.900199999999998,-62.269100000000002,-7.9586600000000001,-22.080300000000001,-46.413800000000002,-35.683399999999999
7768.0,159.41999999999999,68.885199999999998,-53.405700000000003,25.4116,-15.1227,-53.7697,-38.843299999999999
7769.0,153.97399999999999,50.395200000000003,-62.276600000000002,27.430199999999999,-22.007300000000001,-44.933599999999998,-43.062600000000003
7770.0,151.59100000000001,35.7639,-68.201300000000003,21.562899999999999,-32.118899999999996,-39.124499999999998,-43.812800000000003
7771.0,145.041,33.213299999999997,-57.672800000000002,35.109200000000001,-38.045499999999997,-38.166200000000003,-36.001100000000001
7772.0,134.80799999999999,25.843,-56.402799999999999,37.501300000000001,-36.9938,-36.078400000000002,-27.709700000000002
7773.0,167.00999999999999,30.092300000000002,-72.680499999999995,43.5884,-40.5884,-47.955199999999998,-36.145499999999998
7774.0,216.995,25.207100000000001,-92.845699999999994,59.5411,-49.006599999999999,-67.278199999999998,-48.765999999999998
7775.0,198.73500000000001,11.3131,-79.046700000000001,73.773399999999995,-57.839100000000002,-53.296100000000003,-32.802
7776.0,156.38,-15.020799999999999,-78.322599999999994,43.941299999999998,-55.835299999999997,-29.770399999999999,-20.223299999999998
7777.0,139.31399999999999,-6.13523,-54.883099999999999,59.038899999999998,-51.177300000000002,-23.053899999999999,-7.2014199999999997
7778.0,142.881,-12.010199999999999,-56.507399999999997,71.761300000000006,-44.815300000000001,-23.552499999999998,0.32199299999999997
7779.0,57.783200000000001,46.332900000000002,5.2367100000000004,35.608499999999999,-16.558599999999998,-3.0663399999999998,-19.3645
7780.0,68.551299999999998,84.304000000000002,34.310299999999998,57.281700000000001,-24.5319,-1.11947,-18.361699999999999
7781.0,74.971199999999996,68.319599999999994,8.0721900000000009,30.555299999999999,-25.726400000000002,0.13031799999999999,-16.875800000000002
7782.0,79.243200000000002,91.448300000000003,25.130500000000001,48.286000000000001,-26.585100000000001,-2.1785899999999998,-15.7728
7783.0,70.697599999999994,64.038600000000002,3.9699800000000001,28.261900000000001,-23.505199999999999,-4.8195199999999998,-13.314399999999999
7784.0,53.357300000000002,70.463999999999999,22.927900000000001,49.301200000000001,-14.123799999999999,-4.8967799999999997,-12.584099999999999
7785.0,57.645299999999999,45.335999999999999,-6.2664600000000004,25.803999999999998,-12.6114,-4.73116,-15.729799999999999
7786.0,69.040199999999999,60.1616,0.50801499999999999,38.899099999999997,-16.857199999999999,-7.1867599999999996,-18.410499999999999
7787.0,75.810299999999998,44.168100000000003,-18.873899999999999,21.4834,-21.790700000000001,-9.5490600000000008,-18.169
7788.0,85.613399999999999,74.663899999999998,-1.2103299999999999,32.598700000000001,-26.4512,-10.934799999999999,-13.3819
7789.0,100.768,98.742599999999996,7.5563500000000001,30.657699999999998,-27.4603,-17.793900000000001,-8.16526
7790.0,115.184,93.563199999999995,-4.0243399999999996,34.584800000000001,-19.532,-39.381799999999998,-8.6390799999999999
7791.0,126.20699999999999,25.0243,-84.707999999999998,-31.3733,-21.631799999999998,-41.1205,-11.8104
7792.0,130.905,30.5031,-93.702399999999997,-46.667099999999998,-24.400400000000001,-32.333399999999997,-11.7799
7793.0,135.328,36.821100000000001,-87.720100000000002,-23.011500000000002,-11.9239,-42.0946,-17.628799999999998
7794.0,144.91399999999999,18.546099999999999,-110.16200000000001,-38.491199999999999,-8.8330400000000004,-43.077399999999997,-30.116800000000001
7795.0,146.404,50.733899999999998,-81.195300000000003,-28.426600000000001,-17.782,-41.685600000000001,-26.1036
7796.0,139.39599999999999,89.546899999999994,-29.027100000000001,39.513199999999998,-11.9917,-47.5122,-23.073399999999999
7797.0,135.87,57.450899999999997,-45.281599999999997,42.962800000000001,-10.7554,-45.143099999999997,-30.1357
7798.0,130.80500000000001,38.130000000000003,-59.823999999999998,24.4724,-20.882300000000001,-38.097299999999997,-31.642900000000001
7799.0,124.09699999999999,20.434000000000001,-66.397999999999996,20.260100000000001,-25.407900000000001,-36.186399999999999,-25.885899999999999
7800.0,109.15900000000001,28.0594,-43.076799999999999,35.444499999999998,-24.1541,-31.798100000000002,-22.298999999999999
7801.0,119.196,17.715199999999999,-59.388199999999998,25.844999999999999,-26.2241,-34.256100000000004,-25.7303
7802.0,176.62299999999999,35.115400000000001,-68.609200000000001,59.5672,-30.480899999999998,-57.537799999999997,-39.088000000000001
7803.0,182.40600000000001,6.5508300000000004,-87.903899999999993,53.134,-42.5627,-53.8718,-34.828200000000002
7804.0,153.34999999999999,-10.1023,-81.3429,45.057400000000001,-48.861699999999999,-31.858699999999999,-20.507200000000001
7805.0,140.898,-14.7181,-69.822500000000005,53.384,-46.684199999999997,-24.561599999999999,-5.0724999999999998
7806.0,133.97399999999999,-3.58134,-47.402299999999997,76.441999999999993,-39.543199999999999,-21.547599999999999,3.3844799999999999
7807.0,57.813699999999997,71.241600000000005,31.252600000000001,63.337600000000002,-17.717300000000002,-3.9297200000000001,-18.338100000000001
7808.0,67.807199999999995,66.565600000000003,21.7712,46.249099999999999,-26.261900000000001,-2.9517500000000001,-18.196899999999999
7809.0,75.700599999999994,99.407399999999996,41.713200000000001,65.771000000000001,-28.147600000000001,-1.0367999999999999,-16.644300000000001
7810.0,72.715100000000007,84.245199999999997,26.383700000000001,47.477699999999999,-26.858599999999999,-3.06074,-13.201599999999999
7811.0,54.838900000000002,90.073899999999995,44.236600000000003,65.418899999999994,-18.599299999999999,-4.4608400000000001,-10.504099999999999
7812.0,47.421900000000001,52.045200000000001,11.5777,38.529800000000002,-12.3813,-4.44733,-12.3324
7813.0,52.286099999999998,72.841800000000006,27.178699999999999,59.930700000000002,-11.9155,-4.0636099999999997,-14.0961
7814.0,59.110700000000001,50.520099999999999,-0.48618,35.776600000000002,-14.934200000000001,-5.6471099999999996,-14.8584
7815.0,66.363,73.154499999999999,15.2911,50.3095,-19.551600000000001,-7.3298199999999998,-13.514200000000001
7816.0,79.002099999999999,80.414599999999993,6.9350500000000004,31.691299999999998,-23.962800000000001,-7.4572200000000004,-7.2760899999999999
7817.0,92.508700000000005,115.005,29.284300000000002,52.635100000000001,-20.338899999999999,-21.5335,-3.3747799999999999
7818.0,108.044,59.359000000000002,-32.885899999999999,4.4273300000000004,-16.1767,-38.051699999999997,-5.32775
7819.0,117.298,38.972900000000003,-70.036000000000001,-29.863099999999999,-19.138100000000001,-33.974499999999999,-5.1531500000000001
7820.0,124.29600000000001,51.3003,-66.878900000000002,-33.175699999999999,-14.899800000000001,-34.823500000000003,-2.9508399999999999
7821.0,123.44499999999999,46.191499999999998,-64.326999999999998,-18.853200000000001,-6.3943000000000003,-43.741399999999999,-6.3109200000000003
7822.0,128.21799999999999,7.7400599999999997,-103.768,-37.686999999999998,-1.7636499999999999,-44.425600000000003,-18.950800000000001
7823.0,132.13399999999999,40.581800000000001,-79.061599999999999,-31.5428,-12.272399999999999,-40.477400000000003,-20.041699999999999
7824.0,126.48399999999999,93.822999999999993,-11.626099999999999,35.9679,-11.81,-46.565600000000003,-15.370100000000001
7825.0,123.31100000000001,73.876199999999997,-13.9682,62.863,-4.1110600000000002,-48.494199999999999,-20.243099999999998
7826.0,114.776,56.2072,-31.848299999999998,45.8172,-9.6776999999999997,-38.725700000000003,-21.9604
7827.0,104.804,63.849899999999998,-14.942399999999999,61.280099999999997,-14.3797,-33.280900000000003,-18.513999999999999
7828.0,97.067400000000006,37.496099999999998,-29.811599999999999,41.038800000000002,-16.3584,-30.142700000000001,-19.2544
7829.0,96.266999999999996,33.597099999999998,-30.804200000000002,39.652000000000001,-18.537800000000001,-27.911799999999999,-21.016300000000001
7830.0,136.68100000000001,38.843299999999999,-45.4251,57.520099999999999,-19.217600000000001,-44.1462,-30.018699999999999
7831.0,161.38399999999999,39.515700000000002,-49.942999999999998,74.226699999999994,-27.381699999999999,-50.958500000000001,-35.0822
7832.0,138.077,8.3382699999999996,-58.855800000000002,58.436199999999999,-36.822000000000003,-34.121299999999998,-19.268899999999999
7833.0,133.67599999999999,12.2895,-42.410200000000003,79.570800000000006,-38.387,-27.1386,-3.65002
7834.0,131.12299999999999,-1.4031100000000001,-47.263500000000001,77.517099999999999,-34.473799999999997,-23.2834,4.1142500000000002
7835.0,59.045000000000002,42.7072,5.0930499999999999,38.7254,-19.8277,-5.20268,-17.746200000000002
7836.0,69.022199999999998,71.082599999999999,29.560199999999998,57.0565,-28.090599999999998,-4.5686999999999998,-18.218599999999999
7837.0,74.219099999999997,60.8048,8.6390999999999991,35.136099999999999,-29.761700000000001,-2.6106500000000001,-16.223800000000001
7838.0,67.536799999999999,78.415300000000002,28.397099999999998,52.1723,-26.561,-4.0427999999999997,-13.138199999999999
7839.0,52.835700000000003,49.795999999999999,8.1466899999999995,33.357900000000001,-18.363299999999999,-5.3379000000000003,-11.1692
7840.0,46.843699999999998,53.288699999999999,15.1515,47.090400000000002,-12.076000000000001,-4.41364,-12.137
7841.0,48.3992,33.610100000000003,-6.8711900000000004,27.594200000000001,-11.168699999999999,-3.5239500000000001,-12.9049
7842.0,51.761000000000003,53.872300000000003,9.9552800000000001,44.536900000000003,-13.4405,-4.2217799999999999,-12.621600000000001
7843.0,58.597099999999998,48.226300000000002,-4.9323499999999996,24.617899999999999,-17.4968,-4.8905799999999999,-10.2508
7844.0,73.175700000000006,94.310599999999994,26.682500000000001,43.630099999999999,-21.127300000000002,-7.3192399999999997,-6.8366800000000003
7845.0,86.9726,93.960700000000003,17.703900000000001,40.815899999999999,-15.991,-26.575299999999999,-5.5238699999999996
7846.0,101.69199999999999,46.494999999999997,-41.005899999999997,-9.3386499999999995,-16.024699999999999,-34.628300000000003,-5.3285200000000001
7847.0,112.423,46.133600000000001,-58.686700000000002,-35.087000000000003,-16.834099999999999,-30.057500000000001,-1.6131200000000001
7848.0,122.07299999999999,62.287999999999997,-46.257300000000001,-24.287700000000001,-7.6770300000000002,-40.1492,1.74868
7849.0,117.58,49.6633,-49.602400000000003,-19.325399999999998,-3.2067100000000002,-44.829599999999999,-0.22548899999999999
7850.0,114.678,25.703099999999999,-69.921700000000001,-15.4093,1.5431699999999999,-44.668599999999998,-9.2194099999999999
7851.0,117.846,20.948899999999998,-82.633600000000001,-36.959200000000003,-6.2663599999999997,-40.791600000000003,-15.206
7852.0,119.97199999999999,80.4816,-16.857199999999999,16.316099999999999,-11.9076,-45.631399999999999,-11.1793
7853.0,115.459,75.792299999999997,-3.3299799999999999,58.284399999999998,-2.2468599999999999,-50.3857,-13.139200000000001
7854.0,106.845,40.695700000000002,-22.0335,49.854500000000002,-4.8791500000000001,-40.895099999999999,-24.039899999999999
7855.0,94.601500000000001,20.003799999999998,-36.962899999999998,16.6373,-17.286999999999999,-33.028599999999997,-23.9131
7856.0,87.917699999999996,37.411799999999999,-23.267700000000001,30.3705,-17.088999999999999,-29.5947,-17.526800000000001
7857.0,84.337800000000001,23.843,-31.473299999999998,34.431800000000003,-10.829000000000001,-26.113800000000001,-17.865400000000001
7858.0,101.229,29.770900000000001,-33.942,45.338900000000002,-11.071400000000001,-32.666200000000003,-21.484000000000002
7859.0,132.78800000000001,25.639299999999999,-53.606200000000001,51.229300000000002,-16.136900000000001,-41.923999999999999,-29.530200000000001
7860.0,132.352,15.546900000000001,-54.040100000000002,62.115699999999997,-27.3079,-36.245800000000003,-19.036200000000001
7861.0,126.05500000000001,6.0568400000000002,-48.999499999999998,70.063000000000002,-30.204499999999999,-28.566400000000002,-4.2003700000000004
7862.0,122.247,11.9716,-32.976599999999998,86.306200000000004,-27.078800000000001,-24.7773,2.2776700000000001
7863.0,58.8598,66.477999999999994,32.225000000000001,67.6524,-20.905999999999999,-6.3278699999999999,-16.515599999999999
7864.0,73.536100000000005,58.461500000000001,18.762799999999999,51.0396,-31.273399999999999,-6.2508499999999998,-18.4375
7865.0,72.906499999999994,82.151200000000003,33.983699999999999,67.431100000000001,-29.709700000000002,-4.4728399999999997,-16.120100000000001
7866.0,64.295299999999997,65.1447,17.7866,50.492199999999997,-24.134799999999998,-4.4031799999999999,-13.7196
7867.0,56.500300000000003,74.883099999999999,30.4636,65.638099999999994,-18.482800000000001,-4.9731699999999996,-12.183999999999999
7868.0,48.622199999999999,45.6081,8.0099599999999995,46.284199999999998,-12.5915,-4.3543099999999999,-11.432399999999999
7869.0,46.494799999999998,63.296399999999998,27.196000000000002,64.824299999999994,-11.199199999999999,-3.32681,-11.4247
7870.0,47.872,49.099400000000003,9.0110299999999999,43.941200000000002,-12.7218,-2.9964599999999999,-10.8375
7871.0,53.793900000000001,76.460800000000006,26.675000000000001,52.7684,-16.6221,-1.55826,-8.1077200000000005
7872.0,66.128600000000006,84.959699999999998,23.4819,42.489800000000002,-17.2195,-10.793699999999999,-7.3413199999999996
7873.0,83.440399999999997,62.069499999999998,-8.0959199999999996,18.881,-14.332000000000001,-28.0945,-8.5653100000000002
7874.0,95.264600000000002,23.130099999999999,-64.117500000000007,-35.712299999999999,-16.556100000000001,-27.255299999999998,-5.2840499999999997
7875.0,110.111,52.508899999999997,-50.1053,-32.870199999999997,-14.084,-28.690200000000001,0.78989500000000001
7876.0,122.541,69.783299999999997,-32.916899999999998,-16.966899999999999,-4.8708099999999996,-43.727600000000002,3.8823400000000001
7877.0,114.264,49.0092,-42.259099999999997,-21.425000000000001,-1.12741,-45.344999999999999,2.6688100000000001
7878.0,105.785,21.3996,-59.516800000000003,-19.372499999999999,3.25874,-45.5413,-2.9381300000000001
7879.0,107.18000000000001,22.736000000000001,-70.4328,-26.685099999999998,0.84332099999999999,-40.032699999999998,-7.2831799999999998
7880.0,116.062,75.109999999999999,-26.589700000000001,4.3895,-4.5590900000000003,-41.856299999999997,-0.19192500000000001
7881.0,110.333,95.384699999999995,19.533300000000001,73.001599999999996,0.77661000000000002,-50.131700000000002,-5.01518
7882.0,106.94199999999999,17.291899999999998,-26.690300000000001,54.505699999999997,-1.10436,-37.322099999999999,-27.677499999999998
7883.0,89.945899999999995,-16.959199999999999,-75.869100000000003,-26.090399999999999,-19.596699999999998,-24.674800000000001,-26.431100000000001
7884.0,84.177800000000005,51.353000000000002,-15.639699999999999,22.861899999999999,-18.3749,-26.396899999999999,-14.0421
7885.0,75.677400000000006,45.743000000000002,2.0346600000000001,65.514700000000005,-4.6754800000000003,-24.402799999999999,-15.3782
7886.0,75.578000000000003,34.8324,-12.036,48.437600000000003,-6.6566599999999996,-24.717400000000001,-15.5655
7887.0,103.197,42.592300000000002,-18.333300000000001,62.523699999999998,-9.69604,-33.691899999999997,-23.370999999999999
7888.0,126.905,26.746500000000001,-38.0565,73.577200000000005,-20.6692,-38.670499999999997,-17.414300000000001
7889.0,122.03700000000001,21.393999999999998,-32.295099999999998,84.493700000000004,-25.6829,-29.471499999999999,-4.3483499999999999
7890.0,112.535,13.1303,-29.071100000000001,82.519199999999998,-22.060199999999998,-23.590299999999999,1.8862699999999999
7891.0,63.460900000000002,32.168799999999997,0.51859599999999995,39.801400000000001,-23.584700000000002,-8.4889200000000002,-16.741399999999999
7892.0,79.194400000000002,57.454900000000002,20.0749,58.973999999999997,-34.434600000000003,-8.4680300000000006,-18.6462
7893.0,74.065700000000007,41.420699999999997,-6.2446999999999999,36.383800000000001,-29.2043,-5.6174400000000002,-16.074000000000002
7894.0,64.662000000000006,63.262700000000002,16.020499999999998,56.839300000000001,-23.020600000000002,-4.8209499999999998,-13.564299999999999
7895.0,55.122500000000002,38.655299999999997,-4.3453900000000001,36.630400000000002,-16.451799999999999,-4.2744600000000004,-11.627700000000001
7896.0,48.813899999999997,48.618200000000002,12.1774,53.2453,-12.0565,-3.9930099999999999,-11.2684
7897.0,46.369500000000002,22.991099999999999,-10.172800000000001,29.908799999999999,-11.209899999999999,-3.2466900000000001,-11.0212
7898.0,45.190600000000003,47.177,10.2211,45.302300000000002,-12.315799999999999,-2.1114099999999998,-9.5535599999999992
7899.0,50.567100000000003,56.238399999999999,9.6126100000000001,32.2517,-16.219100000000001,1.40263,-6.6086200000000002
7900.0,60.367199999999997,82.727999999999994,24.6875,50.482300000000002,-13.5631,-13.2607,-3.0468899999999999
7901.0,78.962100000000007,22.2014,-49.774700000000003,-13.2255,-12.275399999999999,-24.947099999999999,-3.16913
7902.0,90.931899999999999,32.2577,-57.478099999999998,-29.665099999999999,-15.073700000000001,-20.216899999999999,-3.19109
7903.0,108.53,56.605200000000004,-44.111800000000002,-28.939399999999999,-10.6198,-29.388999999999999,1.0301499999999999
7904.0,122.31,69.976200000000006,-29.4087,-17.126999999999999,-3.4542000000000002,-44.895800000000001,4.8141699999999998
7905.0,113.425,54.115900000000003,-32.636000000000003,-17.208500000000001,0.63572799999999996,-46.186799999999998,3.5943900000000002
7906.0,102.711,31.869,-40.8416,-9.3269599999999997,4.3532799999999998,-46.561900000000001,-0.17044500000000001
7907.0,100.944,24.2715,-57.021900000000002,-23.91,4.3468799999999996,-41.099600000000002,-4.1741999999999999
7908.0,110.682,106.217,17.479099999999999,34.3459,0.32053700000000002,-43.136200000000002,1.3935500000000001
7909.0,102.37,97.849299999999999,32.232599999999998,73.770600000000002,2.8094700000000001,-48.788499999999999,1.7816799999999999
7910.0,103.696,-7.8771699999999996,-51.753700000000002,43.335299999999997,6.9930700000000003,-31.087199999999999,-17.435199999999998
7911.0,83.353700000000003,-53.901499999999999,-129.28399999999999,-67.330299999999994,-9.5603999999999996,-14.616400000000001,-19.850200000000001
7912.0,81.078699999999998,47.793300000000002,-27.257300000000001,2.6371899999999999,-13.2332,-21.853899999999999,-10.534800000000001
7913.0,65.563900000000004,29.5655,-2.5659299999999998,52.632100000000001,-0.54861400000000005,-21.688700000000001,-13.9147
7914.0,61.4694,17.293500000000002,-20.099,29.683499999999999,-5.78925,-19.1995,-13.626799999999999
7915.0,88.488900000000001,29.814800000000002,-23.516500000000001,45.990499999999997,-7.7624500000000003,-28.6236,-20.190999999999999
7916.0,114.548,34.747799999999998,-24.4663,76.333600000000004,-12.414099999999999,-37.0107,-16.846900000000002
7917.0,113.92,17.1647,-33.8904,76.083699999999993,-18.948699999999999,-30.1311,-5.5034900000000002
7918.0,105.89,20.898800000000001,-19.1645,86.525000000000006,-18.151199999999999,-23.662800000000001,1.08108
7919.0,67.191999999999993,53.427100000000003,25.833600000000001,68.296000000000006,-26.485700000000001,-10.007099999999999,-15.460599999999999
7920.0,83.772599999999997,46.526499999999999,14.240600000000001,57.590800000000002,-37.558999999999997,-10.115600000000001,-17.858899999999998
7921.0,78.909999999999997,64.315600000000003,15.6671,67.995500000000007,-30.479299999999999,-6.3121600000000004,-15.9275
7922.0,67.573599999999999,57.237699999999997,7.3698699999999997,58.242600000000003,-21.821300000000001,-4.9886699999999999,-13.2301
7923.0,54.248399999999997,61.6096,20.550999999999998,66.827100000000002,-14.492800000000001,-3.95696,-10.6229
7924.0,48.978700000000003,47.931800000000003,12.3408,57.400199999999998,-11.3599,-3.2919,-9.7622300000000006
7925.0,47.304200000000002,56.049599999999998,23.539100000000001,67.940899999999999,-10.9678,-2.4810599999999998,-9.5466599999999993
7926.0,44.262599999999999,51.617800000000003,16.047899999999998,53.4587,-11.8972,-0.92147699999999999,-8.1222999999999992
7927.0,47.301299999999998,78.608199999999997,33.549100000000003,54.166899999999998,-14.177199999999999,2.8274300000000001,-5.2930900000000003
7928.0,55.8964,87.671000000000006,32.8476,56.1554,-10.6371,-13.0517,0.97922299999999995
7929.0,74.675200000000004,34.007899999999999,-36.762500000000003,-2.1007199999999999,-9.3539499999999993,-22.510300000000001,3.5065200000000001
7930.0,88.071899999999999,35.673000000000002,-53.727699999999999,-27.892399999999999,-11.242100000000001,-18.488399999999999,0.77209300000000003
7931.0,106.565,53.689300000000003,-44.381300000000003,-31.000699999999998,-7.7202799999999998,-29.912400000000002,1.67519
7932.0,119.842,75.837199999999996,-19.832699999999999,-10.2889,-2.4668100000000002,-44.5291,4.6361800000000004
7933.0,115.22499999999999,49.5441,-35.466900000000003,-22.004200000000001,1.5163199999999999,-48.182200000000002,3.7244899999999999
7934.0,102.967,39.2288,-31.9221,-6.7988900000000001,5.1016700000000004,-46.933300000000003,1.8053999999999999
7935.0,95.051900000000003,15.333299999999999,-50.1496,-24.044,5.4444600000000003,-43.2254,-5.1834199999999999
7936.0,100.947,75.863900000000001,9.5002999999999993,16.218399999999999,-1.716,-44.758699999999997,-7.4850000000000003
7937.0,92.743799999999993,95.701899999999995,38.538600000000002,59.593299999999999,-2.2358199999999999,-44.9846,-1.65371
7938.0,98.991900000000001,43.992100000000001,8.3620900000000002,95.222300000000004,8.4064300000000003,-33.377400000000002,-13.2399
7939.0,76.860799999999998,-27.823699999999999,-90.167599999999993,-29.641300000000001,-4.2475300000000002,-15.0562,-21.576599999999999
7940.0,74.450400000000002,61.452300000000001,-7.0791199999999996,11.8073,-12.0358,-17.6661,-11.7341
7941.0,56.588299999999997,46.678899999999999,18.531500000000001,65.537099999999995,0.77577099999999999,-19.382899999999999,-11.468999999999999
7942.0,55.341799999999999,32.499400000000001,-2.04142,46.035899999999998,-2.4760599999999999,-15.6721,-12.4313
7943.0,77.843599999999995,34.795999999999999,-16.8291,48.440100000000001,-7.3469899999999999,-22.524899999999999,-16.531700000000001
7944.0,100.413,35.548499999999997,-17.119399999999999,72.957899999999995,-10.196400000000001,-31.484100000000002,-14.7601
7945.0,104.989,29.637699999999999,-17.3324,84.403899999999993,-15.1358,-28.8964,-4.1812199999999997
7946.0,102.818,24.296199999999999,-15.973100000000001,87.278099999999995,-14.661899999999999,-24.484300000000001,-1.08403
7947.0,67.669799999999995,22.6204,1.5155700000000001,42.583500000000001,-27.995699999999999,-10.821199999999999,-14.275399999999999
7948.0,85.394900000000007,45.331800000000001,15.598599999999999,62.864100000000001,-38.485700000000001,-10.407400000000001,-16.4434
7949.0,81.209100000000007,26.875599999999999,-21.982299999999999,39.528599999999997,-30.076899999999998,-6.9751099999999999,-13.7805
7950.0,71.206400000000002,51.714100000000002,0.023771299999999999,61.355499999999999,-20.880400000000002,-4.8718399999999997,-11.943899999999999
7951.0,58.749899999999997,28.573699999999999,-14.8202,40.383899999999997,-13.7117,-3.9305699999999999,-10.102399999999999
7952.0,50.800600000000003,42.345599999999997,7.1223599999999996,57.0411,-10.6332,-2.8841800000000002,-8.9870699999999992
7953.0,47.213999999999999,15.0585,-16.259399999999999,30.243400000000001,-10.4131,-1.6223000000000001,-8.3469099999999994
7954.0,42.667000000000002,45.433199999999999,10.658099999999999,48.492899999999999,-10.828799999999999,0.15215999999999999,-6.9170299999999996
7955.0,45.074300000000001,59.026899999999998,13.4084,34.358699999999999,-11.2995,2.6899799999999998,-4.5718800000000002
7956.0,52.805900000000001,93.910600000000002,40.900300000000001,58.9771,-7.9823300000000001,-11.7432,1.2907
7957.0,69.934100000000001,46.402700000000003,-18.038499999999999,5.4253900000000002,-6.6305899999999998,-22.508800000000001,3.9903599999999999
7958.0,84.583100000000002,54.7258,-28.563600000000001,-9.6197900000000001,-7.9047400000000003,-20.3782,0.97539799999999999
7959.0,102.599,52.003599999999999,-41.185699999999997,-30.025099999999998,-6.2252099999999997,-29.6508,1.16568
7960.0,116.014,73.895899999999997,-17.834399999999999,-8.9500700000000002,-2.8117999999999999,-43.649999999999999,3.7021700000000002
7961.0,116.169,51.218800000000002,-32.259999999999998,-18.802099999999999,0.51788299999999998,-49.716700000000003,4.1981900000000003
7962.0,104.167,55.190399999999997,-14.347300000000001,4.3902099999999997,3.7059799999999998,-47.942500000000003,3.1926100000000002
7963.0,89.357100000000003,7.6019100000000002,-48.444000000000003,-19.834900000000001,6.7243000000000004,-42.735900000000001,-2.1417299999999999
7964.0,86.335899999999995,27.7621,-30.8764,-10.959,-0.79654499999999995,-39.308799999999998,-7.0518000000000001
7965.0,87.967100000000002,62.133899999999997,4.5715599999999998,15.1717,-8.11374,-39.357700000000001,-5.0999400000000001
7966.0,86.280299999999997,30.994800000000001,2.5695700000000001,69.811999999999998,4.4925699999999997,-34.801900000000003,-10.520799999999999
7967.0,71.704599999999999,-74.186999999999998,-120.001,-55.377299999999998,-0.011385899999999999,-14.9514,-19.633400000000002
7968.0,69.209199999999996,28.271599999999999,-34.933100000000003,-18.325800000000001,-12.7536,-12.858499999999999,-13.9636
7969.0,50.846499999999999,26.934200000000001,-3.4098799999999998,35.301000000000002,-2.8443900000000002,-18.279499999999999,-10.231199999999999
7970.0,49.494100000000003,27.451000000000001,-0.26077600000000001,46.301900000000003,-0.87668800000000002,-14.083399999999999,-8.2993600000000001
7971.0,56.637099999999997,18.254100000000001,-20.410599999999999,31.963100000000001,-5.26837,-15.254799999999999,-8.4342900000000007
7972.0,87.765500000000003,43.228900000000003,-3.2314600000000002,77.427700000000002,-8.3355399999999999,-27.712499999999999,-9.5459399999999999
7973.0,100.56399999999999,20.349599999999999,-26.2179,71.539000000000001,-13.1867,-28.199100000000001,-3.3303099999999999
7974.0,100.54300000000001,29.704499999999999,-10.4733,91.447000000000003,-12.460699999999999,-23.9207,-2.55037
7975.0,76.200699999999998,50.665799999999997,32.972799999999999,77.260999999999996,-32.553699999999999,-12.221399999999999,-15.147500000000001
7976.0,95.201300000000003,31.742999999999999,4.12852,60.774700000000003,-42.763399999999997,-12.035299999999999,-15.658200000000001
7977.0,84.756299999999996,50.587200000000003,6.3800400000000002,75.046700000000001,-31.548100000000002,-8.0281000000000002,-11.114599999999999
7978.0,75.246799999999993,44.876199999999997,-7.9301399999999997,62.4773,-20.719899999999999,-4.5540799999999999,-9.7324800000000007
7979.0,63.859200000000001,53.515099999999997,5.72098,70.066599999999994,-12.529,-3.6829900000000002,-8.5065200000000001
7980.0,51.575699999999998,46.229500000000002,11.3353,64.556100000000001,-9.9892699999999994,-2.14791,-7.16214
7981.0,46.728400000000001,58.804200000000002,28.3948,76.133799999999994,-10.290800000000001,-0.40485599999999999,-6.1460499999999998
7982.0,42.647300000000001,57.559100000000001,20.734500000000001,60.043399999999998,-9.7392699999999994,1.60988,-4.9242100000000004
7983.0,44.145800000000001,86.128600000000006,38.406700000000001,61.265000000000001,-7.9532499999999997,1.85941,-3.6368900000000002
7984.0,50.993899999999996,93.931200000000004,41.894199999999998,57.637700000000002,-4.5057700000000001,-11.5664,-0.74530300000000005
7985.0,65.442300000000003,55.650799999999997,-2.9154300000000002,13.677099999999999,-4.3318000000000003,-22.290900000000001,0.85535700000000003
7986.0,79.734899999999996,34.409199999999998,-41.6828,-28.363,-5.6466099999999999,-20.860800000000001,-0.931755
7987.0,95.986400000000003,52.896999999999998,-33.673099999999998,-24.247399999999999,-4.5450100000000004,-28.1875,0.435861
7988.0,109.66800000000001,61.631999999999998,-24.4848,-15.197100000000001,-3.7764500000000001,-41.763500000000001,4.0533999999999999
7989.0,113.92700000000001,57.829700000000003,-22.1599,-9.5176999999999996,-2.3149000000000002,-49.457900000000002,5.10032
7990.0,105.858,43.222999999999999,-23.942599999999999,-8.2714200000000009,0.90714899999999998,-49.842500000000001,3.9333200000000001
7991.0,86.949100000000001,22.486999999999998,-28.882999999999999,-0.61302400000000001,4.7457799999999999,-42.839700000000001,0.58193700000000004
7992.0,74.894999999999996,-2.1365699999999999,-56.014899999999997,-22.777699999999999,-0.092580999999999997,-33.537500000000001,-2.45811
7993.0,81.872500000000002,44.997300000000003,-19.719799999999999,-0.0022468599999999998,-7.7906399999999998,-32.7378,-1.25485
7994.0,71.829700000000003,74.287599999999998,32.201900000000002,84.697199999999995,3.8486899999999999,-30.500299999999999,-1.48322
7995.0,73.066000000000003,0.40708,-41.612299999999998,33.1541,9.4983699999999995,-13.2857,-10.3995
7996.0,63.029699999999998,18.1663,-46.585799999999999,-14.4968,-6.0014099999999999,-8.6101600000000005,-12.8788
7997.0,48.208500000000001,56.4086,17.477399999999999,48.705100000000002,-6.3715900000000003,-15.1225,-8.9652899999999995
7998.0,44.1036,43.565300000000001,21.9072,63.670099999999998,-1.6851400000000001,-12.798400000000001,-6.7453399999999997
7999.0,46.1477,33.277299999999997,3.3696000000000002,47.136099999999999,-4.2883899999999997,-12.233599999999999,-6.4403499999999996
8000.0,78.379599999999996,40.070300000000003,-2.8608500000000001,69.949100000000001,-6.8994200000000001,-24.5931,-7.47302
8001.0,95.165599999999998,37.232700000000001,-9.7334599999999991,83.375299999999996,-11.2896,-26.651599999999998,-3.7015600000000002
8002.0,95.336299999999994,25.8583,-13.008800000000001,85.156400000000005,-11.2784,-21.410499999999999,-0.41524499999999998
8003.0,97.026700000000005,7.4846500000000002,-14.6387,42.917499999999997,-42.295200000000001,-14.635300000000001,-17.089300000000001
8004.0,96.075999999999993,23.187200000000001,-1.5462899999999999,59.369199999999999,-42.954500000000003,-12.000299999999999,-12.2135
8005.0,76.252399999999994,17.8934,-16.402000000000001,46.067599999999999,-29.540800000000001,-6.3978200000000003,-6.7686799999999998
8006.0,69.912400000000005,40.5458,-5.4723899999999999,61.043399999999998,-20.579899999999999,-3.7934700000000001,-5.5640599999999996
8007.0,64.105400000000003,28.700199999999999,-19.3246,47.036799999999999,-12.208500000000001,-3.1301299999999999,-6.04819
8008.0,54.435000000000002,37.3703,-0.82625899999999997,56.4024,-9.7733699999999999,-1.9144300000000001,-6.2572799999999997
8009.0,45.261699999999998,17.478000000000002,-13.6401,33.801900000000003,-9.0671400000000002,0.34392200000000001,-4.4290599999999998
8010.0,39.808599999999998,48.9816,11.4436,47.006300000000003,-8.0986100000000008,2.8532199999999999,-2.8686600000000002
8011.0,43.277700000000003,70.258200000000002,21.256799999999998,43.987400000000001,-4.0586099999999998,-0.64740299999999995,-2.46949
8012.0,50.360799999999998,75.971999999999994,25.684100000000001,44.884399999999999,-0.74057499999999998,-13.728,-3.5215900000000002
8013.0,59.7791,37.369500000000002,-18.811,-0.786277,-3.36436,-18.445399999999999,-4.0982000000000003
8014.0,72.629300000000001,38.760300000000001,-32.466900000000003,-19.869,-3.9914800000000001,-17.172899999999998,-1.61029
8015.0,87.372900000000001,46.530099999999997,-31.2684,-22.952400000000001,-2.7013099999999999,-26.6709,1.05532
8016.0,99.577799999999996,58.092799999999997,-18.478200000000001,-11.1242,-4.4665400000000002,-38.570700000000002,3.59144
8017.0,108.604,52.222499999999997,-22.8489,-10.7075,-5.5976400000000002,-47.361499999999999,5.7709000000000001
8018.0,107.81100000000001,55.071899999999999,-12.823600000000001,6.6031500000000003,-2.56643,-51.171199999999999,5.1597600000000003
8019.0,89.651700000000005,19.131900000000002,-31.258099999999999,-1.30854,0.76632100000000003,-45.0794,2.01952
8020.0,72.044899999999998,9.3910900000000002,-42.157200000000003,-8.1755800000000001,-2.4971800000000002,-32.198799999999999,0.63325500000000001
8021.0,78.251800000000003,31.626999999999999,-35.893300000000004,-8.7316199999999995,-5.6410099999999996,-29.2012,1.5238
8022.0,69.321399999999997,63.215000000000003,14.837,53.387300000000003,1.63802,-30.698599999999999,-1.6956500000000001
8023.0,67.530299999999997,9.5418699999999994,-19.266500000000001,44.224899999999998,10.109299999999999,-17.899999999999999,-9.3187999999999995
8024.0,54.499899999999997,-4.1553000000000004,-57.020200000000003,-13.8599,2.0550000000000002,-8.87744,-10.7285
8025.0,46.578299999999999,28.372199999999999,-16.607500000000002,13.174099999999999,-5.2234499999999997,-10.848800000000001,-7.3947099999999999
8026.0,42.3596,24.741299999999999,-0.039449600000000001,40.736400000000003,-3.9372400000000001,-10.0341,-7.7347900000000003
8027.0,49.139499999999998,20.396899999999999,-12.132199999999999,35.1372,-6.7737999999999996,-11.609400000000001,-6.2662199999999997
8028.0,70.753200000000007,38.951000000000001,-4.5304900000000004,63.661799999999999,-8.1429200000000002,-19.3826,-5.8963999999999999
8029.0,82.750299999999996,27.469200000000001,-17.933499999999999,64.521199999999993,-9.2313100000000006,-21.7364,-4.3984300000000003
8030.0,85.628399999999999,29.3279,-8.5863099999999992,80.258099999999999,-11.3873,-17.750900000000001,3.4442699999999999
8031.0,5640.7700000000004,2583.6199999999999,15.7712,-2858.9299999999998,-472.19999999999999,1404.3299999999999,-998.88
8032.0,5274.5500000000002,2507.1199999999999,43.269199999999998,-2816.5999999999999,-496.541,1068.1500000000001,-887.45000000000005
8033.0,4851.3500000000004,2357.4699999999998,73.943600000000004,-2742.6399999999999,-483.39499999999998,717.54100000000005,-755.13099999999997
8034.0,4642.9700000000003,2207.7399999999998,65.933999999999997,-2821.7600000000002,-458.50799999999998,375.75900000000001,-681.15499999999997
8035.0,4739.8000000000002,2114.9299999999998,70.409599999999998,-3050.0700000000002,-469.10199999999998,155.89500000000001,-691.69299999999998
8036.0,5046.3900000000003,2050.1500000000001,44.8324,-3448.2399999999998,-474.30200000000002,-41.898600000000002,-720.72699999999998
8037.0,5432.1300000000001,1950.6300000000001,29.804400000000001,-3913.5700000000002,-490.14100000000002,-357.30099999999999,-728.02499999999998
8038.0,5795.9300000000003,1769.1300000000001,10.792999999999999,-4312.0900000000001,-516.68200000000002,-806.45799999999997,-697.77700000000004
8039.0,6062.7299999999996,1516.99,9.1349900000000002,-4516.7600000000002,-534.72900000000004,-1299.71,-645.36199999999997
8040.0,6235.04,1214.0999999999999,11.8665,-4557.46,-541.70899999999995,-1747.1300000000001,-583.24599999999998
8041.0,6350.1400000000003,881.58500000000004,17.911000000000001,-4476.1400000000003,-539.97299999999996,-2145.8499999999999,-520.15899999999999
8042.0,6416.0900000000001,518.91700000000003,30.462499999999999,-4338.7200000000003,-521.24800000000005,-2463.96,-474.44600000000003
8043.0,6490.6599999999999,101.63500000000001,-0.51574799999999998,-4264.9499999999998,-489.62299999999999,-2719.9299999999998,-441.16800000000001
8044.0,6609.6999999999998,-378.26100000000002,-58.5809,-4201.5200000000004,-472.36200000000002,-2977.8400000000001,-397.714
8045.0,6698.6899999999996,-854.21500000000003,-65.436800000000005,-4005.6999999999998,-455.78500000000003,-3206.5100000000002,-348.41500000000002
8046.0,6717.4899999999998,-1295.1800000000001,-53.5702,-3707.9299999999998,-427.024,-3363.7600000000002,-302.40199999999999
8047.0,6695.75,-1720.7,-52.279400000000003,-3382.1999999999998,-398.62299999999999,-3456.4200000000001,-257.87900000000002
8048.0,6656.1199999999999,-2129.04,-43.931199999999997,-3035.1799999999998,-367.29700000000003,-3497.4699999999998,-219.18199999999999
8049.0,6599.0699999999997,-2540.0599999999999,-47.198,-2677.7199999999998,-337.56,-3489.5599999999999,-180.97999999999999
8050.0,6513.6400000000003,-2909.4499999999998,-33.274000000000001,-2269.6999999999998,-309.44799999999998,-3427.1399999999999,-144.43299999999999
8051.0,6396.9499999999998,-3247.9299999999998,-23.7121,-1858.25,-279.42399999999998,-3306.5599999999999,-116.34399999999999
8052.0,6258.3500000000004,-3571.98,-19.065300000000001,-1490.05,-247.81200000000001,-3130.0700000000002,-99.9983
8053.0,6111.5200000000004,-3879.0799999999999,-21.521699999999999,-1166.6500000000001,-223.71600000000001,-2910.0,-84.876900000000006
8054.0,5968.8100000000004,-4120.7399999999998,-14.4575,-828.98299999999995,-208.44499999999999,-2664.7800000000002,-65.551199999999994
8055.0,5837.8000000000002,-4297.5100000000002,-11.0656,-466.072,-197.12200000000001,-2403.2399999999998,-46.070300000000003
8056.0,5716.6700000000001,-4409.1400000000003,-0.28758,-80.971800000000002,-186.07300000000001,-2120.1199999999999,-31.755199999999999
8057.0,5588.2299999999996,-4471.8599999999997,5.2253999999999996,278.32999999999998,-175.18100000000001,-1806.74,-24.1431
8058.0,5423.8999999999996,-4457.0600000000004,14.3841,590.45699999999999,-167.012,-1464.23,-22.331900000000001
8059.0,3400.3400000000001,1093.28,-158.21899999999999,-2202.0799999999999,-183.53899999999999,685.29999999999995,-763.93600000000004
8060.0,3445.4000000000001,1123.03,-136.25700000000001,-2323.3899999999999,-236.267,536.45299999999997,-756.38800000000003
8061.0,3718.71,1194.6700000000001,-144.91399999999999,-2622.4200000000001,-265.25799999999998,412.66699999999997,-786.43799999999999
8062.0,3875.8899999999999,1196.03,-141.80000000000001,-2859.7399999999998,-271.07100000000003,226.80199999999999,-782.00599999999997
8063.0,3954.5900000000001,1135.5599999999999,-132.143,-3023.6399999999999,-272.65899999999999,44.4238,-769.51400000000001
8064.0,4159.4099999999999,1114.52,-121.521,-3245.8499999999999,-290.16000000000003,-115.49299999999999,-786.78399999999999
8065.0,4486.8400000000001,1117.3900000000001,-118.45999999999999,-3544.8299999999999,-324.87,-329.61700000000002,-813.91600000000005
8066.0,4811.7299999999996,1112.9300000000001,-87.126099999999994,-3785.6999999999998,-374.13600000000002,-631.18299999999999,-812.31299999999999
8067.0,5047.1899999999996,1013.72,-61.810400000000001,-3913.6799999999998,-422.58999999999997,-1002.29,-772.02999999999997
8068.0,5197.6800000000003,822.36400000000003,-41.607700000000001,-3911.0599999999999,-459.48200000000003,-1388.25,-716.14099999999996
8069.0,5282.9499999999998,570.22799999999995,-21.787199999999999,-3821.6500000000001,-475.18700000000001,-1722.98,-655.01099999999997
8070.0,5335.21,259.113,-5.9759500000000001,-3701.5300000000002,-465.94999999999999,-2003.6300000000001,-595.12
8071.0,5405.5200000000004,-147.32499999999999,-53.288800000000002,-3631.6999999999998,-456.27199999999999,-2251.4299999999998,-551.01300000000003
8072.0,5482.8000000000002,-554.12699999999995,-91.343199999999996,-3539.1100000000001,-460.35000000000002,-2458.3899999999999,-512.69799999999998
8073.0,5538.8100000000004,-888.21699999999998,-72.766400000000004,-3337.6399999999999,-462.20600000000002,-2628.1399999999999,-466.95699999999999
8074.0,5564.9300000000003,-1189.03,-49.676400000000001,-3060.25,-459.35700000000003,-2761.52,-418.67099999999999
8075.0,5552.5,-1488.28,-39.959600000000002,-2750.2600000000002,-453.04000000000002,-2844.8099999999999,-373.11700000000002
8076.0,5499.6800000000003,-1780.8099999999999,-29.9374,-2416.9099999999999,-439.90600000000001,-2872.2600000000002,-332.87
8077.0,5396.3299999999999,-2075.5900000000001,-16.811499999999999,-2088.3600000000001,-416.64699999999999,-2832.21,-300.21699999999998
8078.0,5234.4700000000003,-2389.9699999999998,-17.873000000000001,-1799.26,-387.38600000000002,-2717.6999999999998,-269.09899999999999
8079.0,5043.8599999999997,-2675.6700000000001,-19.810400000000001,-1514.47,-362.89400000000001,-2553.6100000000001,-234.238
8080.0,4874.3299999999999,-2896.6799999999998,-10.5078,-1212.8,-347.31200000000001,-2378.3099999999999,-202.22300000000001
8081.0,4743.1599999999999,-3067.7600000000002,-4.5941200000000002,-921.52599999999995,-339.20800000000003,-2209.52,-174.56899999999999
8082.0,4627.6599999999999,-3189.8099999999999,2.6710400000000001,-635.30399999999997,-332.26299999999998,-2037.5699999999999,-149.196
8083.0,4506.54,-3284.7600000000002,5.1917900000000001,-360.77699999999999,-321.21100000000001,-1843.6900000000001,-126.64100000000001
8084.0,4376.2700000000004,-3367.4699999999998,6.3481699999999996,-117.45099999999999,-306.50900000000001,-1618.05,-108.64700000000001
8085.0,4237.0200000000004,-3435.9699999999998,-2.4931100000000002,68.760000000000005,-293.31099999999998,-1369.98,-91.715100000000007
8086.0,4090.1500000000001,-3441.3200000000002,-2.6328299999999998,232.04300000000001,-283.97300000000001,-1123.25,-72.5702
8087.0,2878.8000000000002,781.90999999999997,7.0874899999999998,-1857.5699999999999,-31.261600000000001,574.40800000000002,-768.68100000000004
8088.0,2815.3699999999999,821.93600000000004,25.918500000000002,-1868.3800000000001,-77.348500000000001,448.93799999999999,-724.298
8089.0,2913.4899999999998,858.31600000000003,17.599799999999998,-2001.78,-105.07299999999999,360.87900000000002,-726.21299999999997
8090.0,3128.2800000000002,903.30200000000002,7.7204100000000002,-2250.9000000000001,-147.19900000000001,210.57400000000001,-744.28300000000002
8091.0,3379.0500000000002,923.81700000000001,-3.98231,-2521.46,-203.21700000000001,-4.3946100000000001,-765.89700000000005
8092.0,3600.1599999999999,916.45699999999999,-24.171900000000001,-2740.5999999999999,-235.93100000000001,-179.47,-791.32600000000002
8093.0,3783.9899999999998,904.88900000000001,-25.240500000000001,-2901.3699999999999,-266.83800000000002,-348.56599999999997,-801.67899999999997
8094.0,3959.0599999999999,862.42100000000005,-35.190100000000001,-3041.8699999999999,-307.35000000000002,-560.13800000000003,-796.83399999999995
8095.0,4108.1199999999999,802.89400000000001,-23.155200000000001,-3119.96,-342.69799999999998,-796.24599999999998,-772.80700000000002
8096.0,4170.3000000000002,669.12800000000004,-3.0161600000000002,-3104.8000000000002,-368.15699999999998,-1047.3,-715.673
8097.0,4207.1899999999996,456.78800000000001,29.8688,-3000.9400000000001,-398.67200000000003,-1328.0699999999999,-650.745
8098.0,4302.1400000000003,162.69499999999999,8.3798200000000005,-2933.6500000000001,-411.98500000000001,-1607.97,-608.03700000000003
8099.0,4406.3400000000001,-195.35400000000001,-55.062600000000003,-2916.5599999999999,-422.04300000000001,-1835.5899999999999,-567.726
8100.0,4490.04,-496.13799999999998,-51.138800000000003,-2815.5,-440.77300000000002,-2011.4200000000001,-526.17499999999995
8101.0,4554.79,-737.39599999999996,-41.228200000000001,-2654.5900000000001,-451.24000000000001,-2153.8000000000002,-491.16800000000001
8102.0,4579.7299999999996,-960.31600000000003,-38.334000000000003,-2449.8699999999999,-455.97000000000003,-2259.0500000000002,-446.529
8103.0,4558.4200000000001,-1180.21,-24.2925,-2188.6599999999999,-449.22300000000001,-2322.5599999999999,-396.69600000000003
8104.0,4486.9099999999999,-1415.26,-5.98949,-1897.3399999999999,-432.03500000000003,-2331.46,-349.98399999999998
8105.0,4367.04,-1684.78,-5.8691000000000004,-1630.49,-410.52199999999999,-2276.1399999999999,-312.26499999999999
8106.0,4219.6300000000001,-1923.0899999999999,0.98697000000000001,-1372.55,-395.45999999999998,-2172.02,-281.17200000000003
8107.0,4069.1799999999998,-2115.8699999999999,5.1856799999999996,-1120.02,-385.55000000000001,-2045.0699999999999,-249.70699999999999
8108.0,3934.9000000000001,-2262.8499999999999,10.730499999999999,-862.69299999999998,-375.637,-1912.5,-216.78999999999999
8109.0,3816.9699999999998,-2369.25,13.5702,-618.32299999999998,-364.834,-1778.96,-186.494
8110.0,3696.8499999999999,-2436.6700000000001,26.2151,-384.101,-350.74599999999998,-1632.5899999999999,-161.20500000000001
8111.0,3560.2600000000002,-2509.8800000000001,30.290500000000002,-182.21700000000001,-334.517,-1451.8599999999999,-139.30699999999999
8112.0,3418.75,-2571.9499999999998,41.346400000000003,0.988228,-324.70100000000002,-1238.8499999999999,-118.098
8113.0,3290.2399999999998,-2610.1599999999999,36.590699999999998,143.423,-324.30200000000002,-1029.76,-99.1648
8114.0,3162.6399999999999,-2581.0599999999999,41.116199999999999,262.73899999999998,-325.68200000000002,-847.76900000000001,-85.361800000000002
8115.0,3192.5300000000002,375.87700000000001,-222.786,-2410.1399999999999,72.560900000000004,546.13599999999997,-971.13099999999997
8116.0,2999.0900000000001,462.95600000000002,-175.351,-2281.0100000000002,9.4150799999999997,399.20600000000002,-881.45299999999997
8117.0,2694.7600000000002,508.25200000000001,-103.70099999999999,-2024.3099999999999,-22.736499999999999,278.40499999999997,-772.25599999999997
8118.0,2614.5700000000002,581.90499999999997,-82.9148,-1954.49,-86.815399999999997,161.90199999999999,-717.80100000000004
8119.0,2757.7800000000002,708.17899999999997,-57.645000000000003,-2025.6600000000001,-154.84700000000001,35.992699999999999,-721.75400000000002
8120.0,2916.5599999999999,740.50800000000004,-80.772400000000005,-2168.9200000000001,-191.12100000000001,-105.533,-733.36699999999996
8121.0,3040.8699999999999,752.91999999999996,-71.205200000000005,-2263.27,-225.458,-256.34500000000003,-731.74599999999998
8122.0,3137.1700000000001,708.34100000000001,-68.097499999999997,-2344.8200000000002,-258.22399999999999,-440.74700000000001,-708.26499999999999
8123.0,3255.8899999999999,628.40899999999999,-47.432200000000002,-2403.8600000000001,-298.44200000000001,-663.59699999999998,-685.66899999999998
8124.0,3386.8000000000002,517.15800000000002,-68.563400000000001,-2482.4400000000001,-325.42500000000001,-861.779,-668.572
8125.0,3402.8400000000001,391.44099999999997,-17.0672,-2412.3099999999999,-337.18299999999999,-1036.0899999999999,-615.14800000000002
8126.0,3405.1500000000001,124.148,-8.5870800000000003,-2300.2199999999998,-353.43900000000002,-1256.47,-550.96799999999996
8127.0,3536.2600000000002,-187.11000000000001,-77.513099999999994,-2283.9400000000001,-391.99599999999998,-1479.45,-528.947
8128.0,3666.8000000000002,-421.17899999999997,-100.83199999999999,-2251.6199999999999,-424.57100000000003,-1640.2,-514.57799999999997
8129.0,3724.1799999999998,-564.85500000000002,-57.742699999999999,-2092.27,-433.58699999999999,-1755.8099999999999,-480.339
8130.0,3737.0900000000001,-755.68399999999997,-64.239999999999995,-1928.5999999999999,-438.88299999999998,-1838.8800000000001,-439.19299999999998
8131.0,3700.77,-941.30700000000002,-43.314700000000002,-1713.02,-433.322,-1875.3,-402.995
8132.0,3620.1100000000001,-1181.4400000000001,-65.949200000000005,-1527.6500000000001,-424.36900000000003,-1862.96,-366.36700000000002
8133.0,3523.5599999999999,-1362.3,-47.534399999999998,-1299.05,-417.83800000000002,-1817.9000000000001,-330.62799999999999
8134.0,3438.0,-1527.73,-50.991,-1085.6500000000001,-411.733,-1763.7,-292.10899999999998
8135.0,3363.0999999999999,-1645.3499999999999,-26.5258,-828.49599999999998,-403.33699999999999,-1699.55,-252.65100000000001
8136.0,3272.0599999999999,-1773.3599999999999,-30.6098,-593.19600000000003,-392.16300000000001,-1605.24,-217.102
8137.0,3146.9000000000001,-1856.3499999999999,-16.650700000000001,-375.17200000000003,-376.84699999999998,-1473.6199999999999,-190.45099999999999
8138.0,3003.4000000000001,-1954.03,-29.9071,-235.94399999999999,-359.81,-1316.3900000000001,-168.44999999999999
8139.0,2873.5500000000002,-2027.95,-21.530200000000001,-99.611099999999993,-347.86500000000001,-1148.3299999999999,-145.02199999999999
8140.0,2765.3299999999999,-2100.6199999999999,-40.237400000000001,16.4862,-342.73000000000002,-981.08399999999995,-118.075
8141.0,2652.6399999999999,-2073.5300000000002,-23.188300000000002,170.92400000000001,-336.73599999999999,-822.39800000000002,-96.093199999999996
8142.0,2512.23,-2015.0,-21.467099999999999,262.71300000000002,-323.78899999999999,-671.84000000000003,-84.128500000000003
8143.0,3121.98,126.03700000000001,-336.78500000000003,-2440.9400000000001,148.02600000000001,407.72199999999998,-1090.3800000000001
8144.0,3151.8499999999999,165.203,-313.13600000000002,-2506.9000000000001,90.924400000000006,329.56700000000001,-1079.0
8145.0,3182.6900000000001,307.59399999999999,-258.94999999999999,-2516.6599999999999,18.229500000000002,235.25999999999999,-1043.26
8146.0,3034.2199999999998,417.815,-202.071,-2381.0999999999999,-35.880699999999997,124.907,-943.85799999999995
8147.0,2719.4499999999998,461.517,-117.651,-2102.3699999999999,-68.770600000000002,35.140900000000002,-806.94399999999996
8148.0,2498.5700000000002,459.95299999999997,-90.221900000000005,-1934.5,-103.43600000000001,-65.087900000000005,-702.22000000000003
8149.0,2460.2800000000002,514.88499999999999,-46.363100000000003,-1855.5699999999999,-153.452,-200.87899999999999,-647.47299999999996
8150.0,2515.4699999999998,505.31,-53.256100000000004,-1880.02,-195.626,-362.24400000000003,-619.048
8151.0,2604.8899999999999,460.50099999999998,-10.873900000000001,-1884.5599999999999,-241.416,-560.15700000000004,-592.51300000000003
8152.0,2821.8400000000001,381.464,-11.023999999999999,-1978.02,-300.48000000000002,-782.75599999999997,-594.03099999999995
8153.0,3070.9499999999998,349.22199999999998,-15.8675,-2081.8699999999999,-341.01600000000002,-960.35799999999995,-621.572
8154.0,3080.8000000000002,162.208,-33.872900000000001,-2060.0999999999999,-338.65699999999998,-1087.3499999999999,-594.13099999999997
8155.0,2981.98,-122.355,-44.212899999999998,-1929.8900000000001,-339.85599999999999,-1198.2,-524.12800000000004
8156.0,3009.1999999999998,-358.91699999999997,-84.028300000000002,-1865.95,-369.411,-1314.48,-483.50400000000002
8157.0,3061.6199999999999,-489.80000000000001,-78.8065,-1745.72,-394.07799999999997,-1414.3699999999999,-463.26799999999997
8158.0,3042.0999999999999,-634.03099999999995,-87.004199999999997,-1588.23,-401.73899999999998,-1469.7,-431.45499999999998
8159.0,2992.8800000000001,-781.66600000000005,-79.169799999999995,-1393.98,-403.53800000000001,-1495.6500000000001,-391.30000000000001
8160.0,2949.4099999999999,-924.678,-73.064300000000003,-1207.3599999999999,-404.59500000000003,-1504.02,-353.923
8161.0,2911.3400000000001,-1047.04,-54.878999999999998,-1012.21,-402.35399999999998,-1498.77,-316.35300000000001
8162.0,2874.6999999999998,-1187.3800000000001,-57.204900000000002,-831.90200000000004,-397.75799999999998,-1477.8900000000001,-279.81099999999998
8163.0,2826.9299999999998,-1314.1199999999999,-51.116199999999999,-634.89400000000001,-391.48599999999999,-1432.26,-244.22800000000001
8164.0,2746.54,-1433.6600000000001,-57.338900000000002,-447.88299999999998,-380.54899999999998,-1350.0599999999999,-209.56800000000001
8165.0,2624.3400000000001,-1511.6500000000001,-41.556100000000001,-265.089,-363.94900000000001,-1225.74,-182.536
8166.0,2500.5799999999999,-1607.1099999999999,-52.010599999999997,-136.84899999999999,-354.37900000000002,-1081.3800000000001,-157.5
8167.0,2414.4499999999998,-1653.76,-43.541899999999998,17.9284,-353.60899999999998,-949.79899999999998,-132.30099999999999
8168.0,2326.3899999999999,-1663.46,-43.5259,149.29499999999999,-346.81,-824.38900000000001,-113.57299999999999
8169.0,2186.8600000000001,-1620.0799999999999,-25.144600000000001,240.262,-327.63799999999998,-681.76999999999998,-97.154499999999999
8170.0,2028.01,-1587.8199999999999,-31.918600000000001,262.32799999999997,-308.28399999999999,-530.47299999999996,-78.069500000000005
8171.0,2790.3899999999999,51.808900000000001,-469.34399999999999,-2117.0900000000001,164.51900000000001,388.21899999999999,-1065.76
8172.0,2897.5,85.400999999999996,-395.70100000000002,-2244.7600000000002,127.63800000000001,298.476,-1086.1700000000001
8173.0,3037.02,49.320799999999998,-440.93799999999999,-2508.7800000000002,54.851199999999999,169.631,-1095.1500000000001
8174.0,3099.6900000000001,140.71100000000001,-363.19400000000002,-2544.77,-11.1127,31.790199999999999,-1078.9100000000001
8175.0,2974.2399999999998,99.376000000000005,-369.05200000000002,-2508.3800000000001,-40.098700000000001,-64.940399999999997,-1005.04
8176.0,2702.6100000000001,156.797,-214.44999999999999,-2218.98,-61.752400000000002,-145.74600000000001,-881.05899999999997
8177.0,2474.3899999999999,91.269999999999996,-202.048,-2077.1999999999998,-87.7423,-222.16300000000001,-774.42200000000003
8178.0,2410.3499999999999,148.846,-102.56100000000001,-1930.5799999999999,-134.411,-340.77999999999997,-717.11300000000006
8179.0,2494.8800000000001,69.175899999999999,-160.18700000000001,-1995.3399999999999,-205.83600000000001,-523.01599999999996,-691.70600000000002
8180.0,2614.52,75.493300000000005,-111.148,-1946.4400000000001,-270.03699999999998,-708.48500000000001,-674.64700000000005
8181.0,2816.0700000000002,19.991900000000001,-163.11500000000001,-2041.6800000000001,-331.88999999999999,-880.48199999999997,-675.16399999999999
8182.0,2987.96,47.223799999999997,-107.05500000000001,-2018.3699999999999,-361.43099999999998,-1027.77,-681.98400000000004
8183.0,2887.52,-266.24599999999998,-183.15199999999999,-1957.22,-356.99200000000002,-1117.22,-633.53099999999995
8184.0,2692.8499999999999,-452.15499999999997,-152.827,-1750.71,-356.197,-1119.5899999999999,-561.48400000000004
8185.0,2564.9699999999998,-574.67200000000003,-179.22999999999999,-1643.3800000000001,-351.57400000000001,-1117.05,-497.89699999999999
8186.0,2487.3499999999999,-599.49900000000002,-102.46899999999999,-1394.75,-354.721,-1150.4100000000001,-433.71499999999997
8187.0,2465.3899999999999,-727.50099999999998,-130.44,-1231.4200000000001,-368.60300000000001,-1201.3699999999999,-378.32799999999997
8188.0,2474.5700000000002,-780.69100000000003,-83.653400000000005,-1011.73,-378.47800000000001,-1245.0799999999999,-338.017
8189.0,2484.27,-943.53800000000001,-133.11600000000001,-895.101,-386.74200000000002,-1268.3,-304.00299999999999
8190.0,2472.48,-1017.1900000000001,-88.941900000000004,-684.45600000000002,-389.51900000000001,-1260.8599999999999,-273.99000000000001
8191.0,2424.6799999999998,-1172.0799999999999,-129.63,-567.83900000000006,-385.76100000000002,-1215.28,-244.93199999999999
8192.0,2337.7600000000002,-1216.8199999999999,-79.749499999999998,-379.76999999999998,-376.75299999999999,-1133.75,-217.029
8193.0,2240.8499999999999,-1334.97,-122.795,-292.024,-366.21600000000001,-1036.01,-188.17599999999999
8194.0,2166.3699999999999,-1348.8299999999999,-72.466099999999997,-96.065299999999993,-358.18099999999998,-937.25400000000002,-156.44399999999999
8195.0,2096.1999999999998,-1418.26,-98.625799999999998,22.738900000000001,-345.00900000000001,-831.15700000000004,-126.699
8196.0,1989.5999999999999,-1381.9300000000001,-44.404400000000003,165.86699999999999,-326.07999999999998,-705.02300000000002,-106.33499999999999
8197.0,1849.97,-1424.77,-98.191199999999995,145.916,-310.577,-567.47000000000003,-88.898499999999999
8198.0,1715.6800000000001,-1339.8,-53.485599999999998,222.87700000000001,-301.00700000000001,-436.37900000000002,-68.310500000000005
8199.0,2412.4699999999998,40.091799999999999,-379.99000000000001,-1764.9000000000001,176.386,355.20699999999999,-943.745
8200.0,2535.4699999999998,23.792100000000001,-420.97300000000001,-1960.1500000000001,140.28399999999999,257.19099999999997,-986.52300000000002
8201.0,2548.6999999999998,3.3134600000000001,-371.30200000000002,-2015.0,107.13500000000001,142.28999999999999,-990.43100000000004
8202.0,2638.7600000000002,-58.868699999999997,-381.82299999999998,-2173.0599999999999,52.775700000000001,37.209099999999999,-1009.8200000000001
8203.0,2884.23,-22.2057,-391.30000000000001,-2379.2399999999998,-20.946999999999999,-77.077299999999994,-1076.6800000000001
8204.0,3058.1900000000001,-52.277500000000003,-477.91199999999998,-2568.6500000000001,-67.951300000000003,-173.72300000000001,-1126.3299999999999
8205.0,2896.2800000000002,-94.423000000000002,-425.02600000000001,-2432.1700000000001,-62.417499999999997,-206.52500000000001,-1071.96
8206.0,2597.6199999999999,-219.697,-375.31200000000001,-2244.5100000000002,-92.844999999999999,-304.84800000000001,-937.00900000000001
8207.0,2461.2399999999998,-190.99299999999999,-266.29500000000002,-2047.1099999999999,-173.405,-468.54000000000002,-816.05899999999997
8208.0,2437.77,-169.90000000000001,-234.114,-1935.8299999999999,-237.59800000000001,-626.81899999999996,-726.96000000000004
8209.0,2429.9400000000001,-144.06700000000001,-160.46700000000001,-1768.04,-285.56400000000002,-762.654,-659.32899999999995
8210.0,2548.3899999999999,-169.88300000000001,-190.85300000000001,-1798.0999999999999,-332.23099999999999,-872.70600000000002,-648.322
8211.0,2648.5500000000002,-220.512,-170.68199999999999,-1752.51,-357.11799999999999,-996.84500000000003,-639.09100000000001
8212.0,2450.4000000000001,-461.07600000000002,-206.16499999999999,-1600.98,-344.36399999999998,-1001.21,-573.43200000000002
8213.0,2195.6500000000001,-583.41499999999996,-183.05199999999999,-1383.5799999999999,-330.41800000000001,-939.50800000000004,-491.40600000000001
8214.0,2118.5300000000002,-667.09900000000005,-186.56700000000001,-1247.8499999999999,-337.94,-956.96699999999998,-428.54399999999998
8215.0,2122.4899999999998,-689.72000000000003,-143.667,-1079.47,-353.01400000000001,-1005.21,-381.60199999999998
8216.0,2132.9400000000001,-772.92499999999995,-153.32400000000001,-945.67399999999998,-366.25099999999998,-1044.6700000000001,-342.67200000000003
8217.0,2140.1300000000001,-815.12900000000002,-119.559,-753.58100000000002,-376.59699999999998,-1068.8800000000001,-306.78199999999998
8218.0,2126.04,-914.96699999999998,-133.982,-610.22699999999998,-381.85000000000002,-1063.6500000000001,-273.09500000000003
8219.0,2082.6900000000001,-980.16700000000003,-111.49299999999999,-447.02100000000002,-379.63999999999999,-1024.5599999999999,-245.173
8220.0,2021.51,-1078.52,-134.964,-357.27499999999998,-374.733,-964.51199999999994,-219.39500000000001
8221.0,1973.4200000000001,-1121.3,-105.10599999999999,-207.137,-370.31099999999998,-900.89499999999998,-190.411
8222.0,1933.49,-1210.6300000000001,-117.246,-89.094800000000006,-363.43700000000001,-823.99900000000002,-161.398
8223.0,1853.0799999999999,-1255.3699999999999,-100.236,14.463900000000001,-352.81700000000001,-712.52999999999997,-138.30099999999999
8224.0,1736.8299999999999,-1301.1700000000001,-130.18199999999999,28.358799999999999,-343.613,-588.726,-116.27200000000001
8225.0,1632.6400000000001,-1238.49,-94.063800000000001,113.371,-333.072,-488.36599999999999,-94.955699999999993
8226.0,1544.3599999999999,-1206.6900000000001,-101.45,165.38300000000001,-316.13499999999999,-400.142,-75.75
8227.0,1852.5899999999999,-139.345,-428.48200000000003,-1347.1600000000001,195.55600000000001,249.13399999999999,-803.73400000000004
8228.0,2081.7800000000002,-90.477199999999996,-447.98000000000002,-1550.73,164.78299999999999,227.226,-886.81700000000001
8229.0,2234.1300000000001,-124.02200000000001,-487.52100000000002,-1761.8699999999999,121.684,136.071,-943.75999999999999
8230.0,2348.5,-114.996,-466.34399999999999,-1872.8499999999999,77.525899999999993,57.547199999999997,-981.76900000000001
8231.0,2489.8499999999999,-101.256,-466.78500000000003,-2034.53,21.931799999999999,-14.9077,-1005.4400000000001
8232.0,2625.9299999999998,-15.5998,-426.67200000000003,-2132.6900000000001,-10.0016,-60.921500000000002,-1017.0700000000001
8233.0,2604.96,-38.887099999999997,-430.584,-2168.52,-32.053400000000003,-113.76600000000001,-981.37599999999998
8234.0,2354.8899999999999,-82.143299999999996,-318.03500000000003,-1942.5799999999999,-88.118899999999996,-272.03500000000003,-860.65800000000002
8235.0,2100.6999999999998,-178.91,-247.82499999999999,-1692.3800000000001,-165.047,-445.02600000000001,-717.88099999999997
8236.0,2020.5,-139.126,-178.386,-1501.1300000000001,-229.57599999999999,-557.20699999999999,-629.74599999999998
8237.0,2014.9300000000001,-158.21000000000001,-194.14400000000001,-1426.49,-271.173,-649.654,-579.93200000000002
8238.0,1988.52,-121.94799999999999,-136.512,-1281.5799999999999,-290.01799999999997,-707.27099999999996,-539.471
8239.0,1954.8699999999999,-150.376,-150.441,-1240.6099999999999,-291.34300000000002,-731.82000000000005,-507.161
8240.0,1920.53,-214.613,-117.85599999999999,-1122.3299999999999,-307.26100000000002,-782.67700000000002,-464.15199999999999
8241.0,1898.28,-363.36399999999998,-118.602,-998.72199999999998,-332.62900000000002,-838.03200000000004,-426.43299999999999
8242.0,1881.79,-487.61200000000002,-140.04400000000001,-920.97299999999996,-343.72699999999998,-863.96400000000006,-403.39100000000002
8243.0,1866.71,-612.37400000000002,-186.321,-896.95000000000005,-355.34899999999999,-875.97900000000004,-374.178
8244.0,1859.8399999999999,-647.82399999999996,-140.51300000000001,-772.59799999999996,-359.483,-890.63499999999999,-344.18400000000003
8245.0,1852.5,-769.73800000000006,-175.81,-715.38900000000001,-358.392,-899.89400000000001,-312.82999999999998
8246.0,1840.0599999999999,-846.94399999999996,-158.96299999999999,-599.62300000000005,-363.49400000000003,-893.40499999999997,-277.23399999999998
8247.0,1815.96,-917.63699999999994,-158.839,-483.13499999999999,-366.50799999999998,-871.17499999999995,-246.999
8248.0,1785.1199999999999,-947.88999999999999,-136.98099999999999,-336.92000000000002,-366.62299999999999,-837.48400000000004,-218.98400000000001
8249.0,1752.03,-1034.97,-150.40299999999999,-219.708,-365.12,-782.26499999999999,-189.62799999999999
8250.0,1697.6099999999999,-1097.54,-138.07400000000001,-96.552499999999995,-363.32499999999999,-694.00599999999997,-162.04900000000001
8251.0,1615.45,-1144.9100000000001,-150.91800000000001,-38.361800000000002,-359.82299999999998,-591.94200000000001,-138.447
8252.0,1532.6199999999999,-1111.0699999999999,-118.511,49.034799999999997,-351.185,-503.072,-115.66800000000001
8253.0,1471.04,-1118.8599999999999,-131.15899999999999,89.031700000000001,-339.07999999999998,-428.12700000000001,-95.934700000000007
8254.0,1412.96,-1100.3299999999999,-115.08199999999999,138.47200000000001,-327.91199999999998,-351.15100000000001,-79.826800000000006
8255.0,1179.3399999999999,4.7686000000000002,-233.17400000000001,-701.71000000000004,147.488,167.35400000000001,-533.52300000000002
8256.0,1398.98,-34.523099999999999,-325.0,-941.53599999999994,133.78,183.31899999999999,-621.57500000000005
8257.0,1651.26,26.3081,-327.26299999999998,-1148.3900000000001,105.803,154.23599999999999,-714.63800000000003
8258.0,1793.71,-6.2446700000000002,-374.43599999999998,-1361.6400000000001,52.728200000000001,59.873399999999997,-758.21900000000005
8259.0,1740.2,6.1067400000000003,-310.38400000000001,-1316.6099999999999,9.58291,-46.970199999999998,-728.07500000000005
8260.0,1664.03,-17.608899999999998,-284.995,-1259.05,-30.432500000000001,-94.694000000000003,-697.274
8261.0,1841.73,129.33500000000001,-264.197,-1334.71,-74.696200000000005,-117.65600000000001,-732.93100000000004
8262.0,1939.0699999999999,144.751,-287.45699999999999,-1447.77,-107.664,-192.00899999999999,-725.71000000000004
8263.0,1816.1800000000001,48.130099999999999,-202.38999999999999,-1300.48,-193.017,-385.76499999999999,-631.56600000000003
8264.0,1724.95,-41.8718,-208.56700000000001,-1192.0,-234.72900000000001,-484.06200000000001,-562.24000000000001
8265.0,1613.6600000000001,-37.2913,-139.86199999999999,-1028.27,-241.31100000000001,-523.35000000000002,-488.74400000000003
8266.0,1505.01,-117.184,-145.27600000000001,-922.00300000000004,-247.92699999999999,-553.53800000000001,-422.50799999999998
8267.0,1469.1700000000001,-80.904200000000003,-111.509,-829.46400000000006,-254.80699999999999,-555.88999999999999,-407.54000000000002
8268.0,1556.79,-109.072,-141.78800000000001,-858.90999999999997,-282.05500000000001,-621.68299999999999,-402.76900000000001
8269.0,1645.1800000000001,-167.358,-101.361,-776.66800000000001,-311.375,-723.96799999999996,-377.51299999999998
8270.0,1661.27,-303.858,-113.648,-704.577,-328.11099999999999,-772.36599999999999,-353.18299999999999
8271.0,1649.45,-396.411,-101.113,-613.76499999999999,-340.82299999999998,-783.11199999999997,-333.55099999999999
8272.0,1636.6300000000001,-531.64300000000003,-136.70699999999999,-588.81299999999999,-347.59100000000001,-781.14400000000001,-318.18599999999998
8273.0,1630.3,-636.48800000000006,-140.506,-541.93799999999999,-355.34399999999999,-771.80399999999997,-307.66399999999999
8274.0,1624.99,-780.46000000000004,-197.745,-554.42999999999995,-362.89499999999998,-759.048,-293.32900000000001
8275.0,1608.3099999999999,-830.69500000000005,-183.928,-485.68200000000002,-365.74700000000001,-743.42999999999995,-266.52100000000002
8276.0,1583.9300000000001,-894.69899999999996,-182.959,-394.476,-363.40199999999999,-717.76800000000003,-235.45099999999999
8277.0,1546.3499999999999,-940.11800000000005,-153.93000000000001,-255.68600000000001,-362.70999999999998,-664.70299999999997,-202.13999999999999
8278.0,1488.78,-998.94500000000005,-161.613,-171.315,-360.90699999999998,-590.65599999999995,-169.28700000000001
8279.0,1430.0699999999999,-991.78499999999997,-131.67699999999999,-68.421199999999999,-352.67200000000003,-520.77200000000005,-141.61099999999999
8280.0,1383.73,-1030.25,-150.34399999999999,-24.3095,-344.34500000000003,-453.47500000000002,-116.97799999999999
8281.0,1336.0799999999999,-1026.9000000000001,-135.34700000000001,45.196199999999997,-338.26600000000002,-376.774,-95.795299999999997
8282.0,1273.53,-1034.53,-154.059,52.446399999999997,-333.327,-300.40100000000001,-77.736800000000002
8283.0,675.54700000000003,124.01300000000001,-115.681,-308.29599999999999,51.096600000000002,96.161600000000007,-305.54199999999997
8284.0,749.38,162.99799999999999,-97.931399999999996,-341.14299999999997,38.179499999999997,82.3977,-339.67200000000003
8285.0,854.02200000000005,144.75399999999999,-144.80199999999999,-464.20400000000001,23.054500000000001,64.512200000000007,-381.63099999999997
8286.0,929.19600000000003,158.57900000000001,-133.268,-525.68299999999999,-1.77921,19.150400000000001,-411.74599999999998
8287.0,997.41399999999999,103.828,-180.477,-623.75599999999997,-8.3901500000000002,-1.96618,-443.94499999999999
8288.0,1142.74,109.181,-190.33699999999999,-741.87300000000005,-40.9617,-44.078099999999999,-495.27499999999998
8289.0,1420.0899999999999,131.029,-272.93400000000003,-971.38400000000001,-90.704499999999996,-107.81999999999999,-584.21500000000003
8290.0,1759.2,301.25999999999999,-307.66699999999997,-1164.1199999999999,-119.13200000000001,-122.876,-678.49800000000005
8291.0,1686.98,236.505,-262.11399999999998,-1147.53,-158.11000000000001,-250.43299999999999,-607.91700000000003
8292.0,1397.0899999999999,76.991,-152.02799999999999,-908.60900000000004,-187.68799999999999,-356.93400000000003,-471.11000000000001
8293.0,1284.1099999999999,-42.950099999999999,-164.03100000000001,-801.40700000000004,-211.624,-418.17700000000002,-404.92399999999998
8294.0,1258.1600000000001,-42.301099999999998,-121.979,-714.02700000000004,-223.541,-443.60300000000001,-382.39299999999997
8295.0,1307.99,-82.545900000000003,-152.35599999999999,-765.22400000000005,-233.16900000000001,-480.19099999999997,-379.786
8296.0,1402.74,-97.537599999999998,-135.49299999999999,-751.83399999999995,-260.97199999999998,-557.71199999999999,-376.61399999999998
8297.0,1463.46,-190.03800000000001,-157.03299999999999,-721.82600000000002,-291.41300000000001,-630.83900000000006,-361.30700000000002
8298.0,1483.8900000000001,-257.29199999999997,-128.03999999999999,-624.58699999999999,-311.262,-676.745,-335.77300000000002
8299.0,1477.97,-361.44299999999998,-131.23099999999999,-552.08199999999999,-322.22500000000002,-694.83500000000004,-311.60000000000002
8300.0,1457.6600000000001,-435.98599999999999,-117.39400000000001,-458.13600000000002,-333.08800000000002,-690.00099999999998,-291.30000000000001
8301.0,1439.1700000000001,-512.66700000000003,-121.343,-387.67700000000002,-344.64800000000002,-675.71900000000005,-274.00099999999998
8302.0,1422.6099999999999,-568.95699999999999,-123.003,-331.27499999999998,-348.53800000000001,-657.01800000000003,-267.70299999999997
8303.0,1402.1400000000001,-679.87400000000002,-175.036,-356.35599999999999,-354.03500000000003,-630.90300000000002,-257.97899999999998
8304.0,1378.72,-756.38400000000001,-169.40600000000001,-321.96100000000001,-356.68000000000001,-596.14099999999996,-241.381
8305.0,1354.02,-869.95100000000002,-205.863,-305.61500000000001,-358.33199999999999,-555.53899999999999,-214.142
8306.0,1323.55,-901.64800000000002,-183.84800000000001,-221.01300000000001,-359.637,-508.61000000000001,-180.524
8307.0,1289.22,-943.08500000000004,-192.91399999999999,-159.875,-356.66699999999997,-455.11000000000001,-153.22999999999999
8308.0,1248.0799999999999,-935.84900000000005,-170.31399999999999,-78.126099999999994,-353.23200000000003,-395.21800000000002,-128.68700000000001
8309.0,1190.49,-942.50199999999995,-185.89400000000001,-45.756599999999999,-343.67700000000002,-331.92700000000002,-106.90000000000001
8310.0,1125.74,-882.70600000000002,-153.51499999999999,21.011399999999998,-332.536,-273.928,-83.684899999999999
8311.0,481.54500000000002,131.22200000000001,-53.479199999999999,-184.18899999999999,28.988600000000002,63.793700000000001,-217.41999999999999
8312.0,490.26400000000001,99.879900000000006,-89.777600000000007,-227.08699999999999,21.8489,53.017299999999999,-223.33000000000001
8313.0,518.74599999999998,138.83799999999999,-68.961299999999994,-199.32900000000001,21.2363,55.788400000000003,-238.845
8314.0,611.79100000000005,120.136,-124.887,-283.70400000000001,26.9481,76.543700000000001,-277.10399999999998
8315.0,761.15099999999995,168.51900000000001,-124.458,-382.52199999999999,18.2361,71.420199999999994,-334.17099999999999
8316.0,922.37099999999998,147.572,-185.29499999999999,-574.13099999999997,-22.021000000000001,6.6676700000000002,-390.62099999999998
8317.0,1094.9300000000001,185.34999999999999,-164.18600000000001,-671.61699999999996,-78.060299999999998,-92.466999999999999,-446.43400000000003
8318.0,1402.25,239.62,-255.41999999999999,-891.01400000000001,-134.44900000000001,-163.68000000000001,-537.904
8319.0,1537.9200000000001,324.88200000000001,-254.88300000000001,-942.34400000000005,-148.31899999999999,-202.827,-568.18200000000002
8320.0,1266.1099999999999,159.785,-188.50899999999999,-782.82799999999997,-161.636,-265.47300000000001,-458.88099999999997
8321.0,1098.1500000000001,68.614000000000004,-118.661,-633.42700000000002,-175.762,-311.517,-376.68299999999999
8322.0,1127.1300000000001,-29.120899999999999,-158.26900000000001,-658.95000000000005,-202.66900000000001,-378.31799999999998,-358.60399999999998
8323.0,1182.8800000000001,-48.452199999999998,-134.61600000000001,-625.37599999999998,-226.37899999999999,-432.29300000000001,-362.524
8324.0,1247.6500000000001,-117.346,-169.61099999999999,-653.75300000000004,-252.57499999999999,-483.16300000000001,-366.27999999999997
8325.0,1308.4100000000001,-153.90000000000001,-143.54599999999999,-604.97199999999998,-279.04000000000002,-543.61300000000006,-357.56299999999999
8326.0,1336.9000000000001,-266.11099999999999,-171.35900000000001,-583.74199999999996,-300.27999999999997,-585.59699999999998,-340.61799999999999
8327.0,1332.8900000000001,-322.548,-141.892,-496.34199999999998,-313.27699999999999,-601.15099999999995,-318.21199999999999
8328.0,1312.9000000000001,-408.26400000000001,-152.566,-442.70100000000002,-320.548,-602.61800000000005,-289.03800000000001
8329.0,1282.72,-427.18599999999998,-112.68600000000001,-324.34899999999999,-323.74900000000002,-593.99699999999996,-255.13399999999999
8330.0,1247.3499999999999,-484.67599999999999,-127.53700000000001,-262.24900000000002,-321.44799999999998,-573.63999999999999,-231.75399999999999
8331.0,1214.4100000000001,-503.18200000000002,-104.666,-186.66800000000001,-324.61000000000001,-542.10199999999998,-219.24000000000001
8332.0,1190.6900000000001,-591.53099999999995,-133.03899999999999,-180.13399999999999,-331.90100000000001,-503.86700000000002,-211.96799999999999
8333.0,1175.4300000000001,-678.24400000000003,-151.70599999999999,-172.035,-340.06200000000001,-464.16899999999998,-201.15799999999999
8334.0,1157.6900000000001,-792.22900000000004,-210.703,-203.86600000000001,-347.29599999999999,-424.54700000000003,-178.411
8335.0,1128.3,-790.63800000000003,-181.51900000000001,-126.542,-347.95299999999997,-380.85599999999999,-149.62
8336.0,1089.3599999999999,-792.03999999999996,-181.90000000000001,-66.626900000000006,-342.286,-332.82499999999999,-125.20099999999999
8337.0,1042.0,-742.774,-152.488,14.4621,-331.02100000000002,-287.54000000000002,-106.67100000000001
8338.0,990.25599999999997,-706.73400000000004,-137.815,61.242100000000001,-319.45400000000001,-242.52099999999999,-84.5899
8339.0,421.87099999999998,57.840400000000002,-82.968599999999995,-192.91999999999999,38.330199999999998,45.064100000000003,-200.06399999999999
8340.0,439.85300000000001,74.978200000000001,-72.382999999999996,-192.80199999999999,38.360500000000002,51.450899999999997,-205.875
8341.0,472.70800000000003,61.496000000000002,-99.0578,-239.697,39.743299999999998,58.209499999999998,-216.34299999999999
8342.0,534.51900000000001,84.803700000000006,-101.75700000000001,-268.39699999999999,40.144799999999996,63.657200000000003,-241.56200000000001
8343.0,628.57799999999997,92.702500000000001,-140.97999999999999,-352.17599999999999,19.741900000000001,45.902500000000003,-282.286
8344.0,734.22000000000003,150.315,-125.964,-397.18200000000002,-18.7379,-0.96190500000000001,-323.11099999999999
8345.0,844.23000000000002,127.178,-167.63399999999999,-507.34300000000002,-64.819299999999998,-75.708799999999997,-356.11700000000002
8346.0,1013.96,159.52000000000001,-174.28700000000001,-586.89599999999996,-101.577,-139.166,-416.19400000000002
8347.0,1356.6700000000001,232.357,-281.37,-830.13800000000003,-142.38900000000001,-164.71600000000001,-532.71299999999997
8348.0,1436.74,238.12899999999999,-274.95400000000001,-875.78399999999999,-162.59999999999999,-250.00700000000001,-536.923
8349.0,1127.6099999999999,72.482299999999995,-189.12299999999999,-678.55100000000004,-164.089,-285.87200000000001,-412.125
8350.0,992.52300000000002,15.695600000000001,-129.374,-531.31200000000001,-183.40199999999999,-310.38400000000001,-343.64299999999997
8351.0,1045.8099999999999,-62.211500000000001,-171.43100000000001,-563.79600000000005,-209.29599999999999,-364.81400000000002,-343.65800000000002
8352.0,1109.3499999999999,-98.668800000000005,-159.12899999999999,-548.02599999999995,-235.958,-418.87200000000001,-345.86200000000002
8353.0,1154.6400000000001,-176.43600000000001,-186.60900000000001,-551.26199999999994,-260.96600000000001,-462.85500000000002,-341.27300000000002
8354.0,1177.03,-218.71700000000001,-162.03899999999999,-489.15199999999999,-280.34399999999999,-494.78500000000003,-328.38499999999999
8355.0,1185.8699999999999,-307.85500000000002,-179.51400000000001,-462.06799999999998,-296.40300000000002,-514.19799999999998,-310.63
8356.0,1176.54,-349.97000000000003,-157.69,-390.00299999999999,-306.68400000000003,-518.15499999999997,-288.88099999999997
8357.0,1149.21,-416.56900000000002,-168.39500000000001,-340.303,-310.99299999999999,-509.79399999999998,-259.72899999999998
8358.0,1107.6900000000001,-424.48500000000001,-135.52600000000001,-246.65899999999999,-307.37200000000001,-490.0,-230.58500000000001
8359.0,1067.78,-459.40499999999997,-134.18100000000001,-188.38300000000001,-302.91300000000001,-465.46699999999998,-203.16800000000001
8360.0,1044.25,-474.43599999999998,-104.47,-97.299599999999998,-304.92599999999999,-437.42899999999997,-180.65600000000001
8361.0,1028.4300000000001,-553.81399999999996,-134.535,-81.275099999999995,-312.93599999999998,-398.68299999999999,-169.39400000000001
8362.0,1010.28,-603.59500000000003,-150.464,-70.167599999999993,-322.471,-358.44900000000001,-158.197
8363.0,983.51999999999998,-638.61599999999999,-172.142,-64.318600000000004,-325.86599999999999,-323.14699999999999,-136.56899999999999
8364.0,946.40099999999995,-591.22299999999996,-123.57299999999999,23.363900000000001,-315.52699999999999,-286.99599999999998,-116.76300000000001
8365.0,905.74900000000002,-592.14599999999996,-130.36799999999999,53.375,-299.77199999999999,-251.81700000000001,-97.820300000000003
8366.0,867.13800000000003,-549.63,-90.622399999999999,121.06999999999999,-287.334,-212.03399999999999,-74.610399999999998
8367.0,376.15100000000001,66.128699999999995,-70.656899999999993,-130.429,35.842599999999997,35.195399999999999,-185.70699999999999
8368.0,389.25,64.689599999999999,-86.207300000000004,-147.38800000000001,35.104500000000002,41.966200000000001,-188.67099999999999
8369.0,413.55799999999999,96.392799999999994,-66.877600000000001,-133.751,37.573900000000002,49.2408,-197.88300000000001
8370.0,458.71100000000001,85.267499999999998,-95.266400000000004,-183.84999999999999,36.299900000000001,51.721800000000002,-217.56700000000001
8371.0,522.39499999999998,100.343,-99.734200000000001,-233.489,20.264600000000002,34.765599999999999,-247.22200000000001
8372.0,612.86599999999999,60.762700000000002,-157.99199999999999,-357.30000000000001,-12.983000000000001,-10.767799999999999,-284.94099999999997
8373.0,727.01099999999997,74.723299999999995,-154.065,-418.61900000000003,-57.252400000000002,-78.338999999999999,-325.29000000000002
8374.0,873.93499999999995,51.6267,-208.16399999999999,-531.16600000000005,-84.971400000000003,-126.41800000000001,-382.28399999999999
8375.0,1107.0,110.074,-244.20400000000001,-660.09699999999998,-110.14400000000001,-147.667,-475.327
8376.0,1384.55,153.57300000000001,-328.98500000000001,-843.70899999999995,-163.125,-218.578,-562.029
8377.0,1351.3900000000001,122.489,-281.75400000000002,-781.18600000000004,-188.24000000000001,-304.41800000000001,-525.10199999999998
8378.0,1047.9300000000001,-18.453199999999999,-198.46799999999999,-598.375,-179.161,-298.084,-396.22000000000003
8379.0,929.01499999999999,-51.894100000000002,-146.95599999999999,-471.315,-193.083,-307.38799999999998,-327.96499999999997
8380.0,972.40700000000004,-97.7727,-179.56399999999999,-475.327,-217.80099999999999,-350.66800000000001,-324.55200000000002
8381.0,1000.1799999999999,-127.05,-163.559,-443.20999999999998,-234.88499999999999,-381.92200000000003,-320.15899999999999
8382.0,1021.54,-207.63300000000001,-181.196,-428.50799999999998,-257.04300000000001,-412.55900000000003,-305.17000000000002
8383.0,1039.51,-244.71899999999999,-164.37,-375.45100000000002,-274.35599999999999,-433.61500000000001,-292.49299999999999
8384.0,1037.6600000000001,-308.33999999999997,-174.047,-347.97800000000001,-285.30200000000002,-439.54399999999998,-275.69200000000001
8385.0,1016.4,-337.28100000000001,-152.66499999999999,-284.88,-290.47199999999998,-432.072,-253.459
8386.0,983.97799999999995,-386.61500000000001,-158.87799999999999,-252.90199999999999,-289.40600000000001,-415.05700000000002,-231.54300000000001
8387.0,955.06100000000004,-413.18299999999999,-144.55500000000001,-196.94900000000001,-289.70600000000002,-395.95999999999998,-207.5
8388.0,933.03099999999995,-453.27800000000002,-147.35599999999999,-137.96299999999999,-292.255,-375.90300000000002,-176.86799999999999
8389.0,911.73800000000006,-450.41399999999999,-116.92100000000001,-40.897399999999998,-291.82100000000003,-348.92700000000002,-150.76300000000001
8390.0,886.56700000000001,-478.815,-129.49799999999999,-5.2932800000000002,-290.48200000000003,-315.96199999999999,-132.32400000000001
8391.0,858.71100000000001,-465.82600000000002,-109.655,46.406100000000002,-287.06200000000001,-285.27699999999999,-114.34699999999999
8392.0,827.36199999999997,-482.78500000000003,-115.53700000000001,61.389000000000003,-278.93799999999999,-251.34700000000001,-100.718
8393.0,797.00699999999995,-490.298,-114.31699999999999,73.336200000000005,-273.76499999999999,-216.285,-87.389200000000002
8394.0,774.70399999999995,-507.54000000000002,-132.57499999999999,79.265699999999995,-269.911,-184.41800000000001,-69.932500000000005
8395.0,328.995,44.190800000000003,-91.480999999999995,-119.37,31.397300000000001,30.822199999999999,-162.75
8396.0,341.93799999999999,62.476999999999997,-80.434899999999999,-113.71899999999999,33.436900000000001,36.711599999999997,-166.56899999999999
8397.0,366.69299999999998,36.901200000000003,-115.04900000000001,-158.666,34.122300000000003,39.310200000000002,-177.685
8398.0,400.197,55.262900000000002,-111.063,-170.47300000000001,31.435300000000002,38.928100000000001,-192.84800000000001
8399.0,432.52999999999997,50.625999999999998,-125.79300000000001,-212.59399999999999,18.7453,25.0229,-208.31
8400.0,486.96600000000001,88.935699999999997,-96.558400000000006,-224.173,-13.365600000000001,-12.9808,-232.184
8401.0,607.01800000000003,55.5306,-151.596,-332.22500000000002,-56.712699999999998,-70.588300000000004,-277.44799999999998
8402.0,751.91700000000003,49.665500000000002,-184.03899999999999,-411.30500000000001,-87.609800000000007,-119.58499999999999,-336.685
8403.0,895.03200000000004,24.3385,-254.25999999999999,-526.24199999999996,-88.009399999999999,-124.514,-409.86599999999999
8404.0,1125.0699999999999,59.350900000000003,-292.88999999999999,-666.34100000000001,-126.86799999999999,-167.15199999999999,-496.18200000000002
8405.0,1341.99,31.119399999999999,-365.11599999999999,-813.93899999999996,-190.928,-278.85500000000002,-554.37800000000004
8406.0,1258.1700000000001,-32.012900000000002,-295.99299999999999,-702.91399999999999,-219.47200000000001,-340.83199999999999,-499.096
8407.0,1001.98,-95.131900000000002,-207.392,-525.75300000000004,-205.578,-312.28100000000001,-380.75200000000001
8408.0,873.06700000000001,-85.341399999999993,-163.387,-418.29599999999999,-196.78200000000001,-293.66500000000002,-314.322
8409.0,855.79200000000003,-125.684,-178.97,-390.12799999999999,-207.404,-309.36099999999999,-292.995
8410.0,874.76999999999998,-166.38200000000001,-165.261,-340.35000000000002,-231.65600000000001,-337.428,-278.20600000000002
8411.0,905.53399999999999,-231.16399999999999,-183.46000000000001,-332.45299999999997,-251.571,-361.77499999999998,-270.87400000000002
8412.0,914.15599999999995,-262.36099999999999,-173.86099999999999,-300.24099999999999,-263.49099999999999,-369.88499999999999,-260.98200000000003
8413.0,895.09000000000003,-305.20999999999998,-177.44300000000001,-272.14800000000002,-268.23700000000002,-363.14800000000002,-242.56399999999999
8414.0,868.274,-325.15199999999999,-162.541,-223.91900000000001,-269.49900000000002,-348.73200000000003,-224.30699999999999
8415.0,846.96900000000005,-360.63099999999997,-162.23599999999999,-190.95699999999999,-273.10599999999999,-333.21899999999999,-204.94200000000001
8416.0,831.15099999999995,-381.13299999999998,-148.42699999999999,-133.489,-277.06099999999998,-319.66199999999998,-178.999
8417.0,814.35000000000002,-411.42200000000003,-152.91900000000001,-84.140299999999996,-275.46100000000001,-304.49200000000002,-150.61099999999999
8418.0,793.69100000000003,-410.06299999999999,-133.36699999999999,-14.645799999999999,-269.62900000000002,-283.41899999999998,-125.64700000000001
8419.0,771.697,-430.27699999999999,-137.251,18.8339,-264.48000000000002,-255.21600000000001,-106.925
8420.0,748.505,-439.20800000000003,-132.22800000000001,44.813699999999997,-262.95800000000003,-221.15700000000001,-93.379300000000001
8421.0,724.73299999999995,-445.47199999999998,-135.083,55.971499999999999,-261.58600000000001,-190.054,-80.522099999999995
8422.0,701.66300000000001,-423.89600000000002,-116.91500000000001,94.470399999999998,-255.376,-162.73699999999999,-66.874799999999993
8423.0,287.44499999999999,72.128100000000003,-60.544499999999999,-67.236000000000004,25.159500000000001,24.618099999999998,-141.86000000000001
8424.0,296.34699999999998,60.0122,-76.563199999999995,-84.211200000000005,29.363900000000001,30.155899999999999,-144.62700000000001
8425.0,301.61700000000002,84.218900000000005,-51.490699999999997,-65.628299999999996,28.663900000000002,30.235399999999998,-147.45599999999999
8426.0,321.62299999999999,79.054599999999994,-65.6404,-96.047700000000006,19.887499999999999,23.239000000000001,-157.453
8427.0,374.23899999999998,101.536,-67.579899999999995,-126.157,1.74237,7.5802199999999997,-180.68000000000001
8428.0,449.423,79.8857,-117.28700000000001,-211.244,-26.9861,-20.991,-209.95500000000001
8429.0,519.48599999999999,103.559,-106.184,-227.886,-56.917700000000004,-62.017099999999999,-234.00800000000001
8430.0,592.13699999999994,61.403700000000001,-149.023,-291.23500000000001,-70.755300000000005,-89.179299999999998,-269.14699999999999
8431.0,718.44000000000005,51.378999999999998,-191.523,-369.06900000000002,-76.194000000000003,-97.617000000000004,-334.91399999999999
8432.0,881.30799999999999,19.5213,-268.22899999999998,-483.53199999999998,-101.988,-131.75,-409.19299999999998
8433.0,1084.96,34.4559,-307.339,-586.97900000000004,-149.09,-187.91800000000001,-487.82499999999999
8434.0,1261.24,-49.043799999999997,-379.44299999999998,-703.46699999999998,-226.458,-301.904,-529.84799999999996
8435.0,1187.53,-128.79300000000001,-332.67700000000002,-613.81700000000001,-250.04300000000001,-345.93799999999999,-478.09100000000001
8436.0,937.78999999999996,-139.44300000000001,-234.58699999999999,-462.346,-212.65000000000001,-285.89600000000002,-372.37200000000001
8437.0,787.41300000000001,-116.767,-171.20099999999999,-353.30700000000002,-192.84399999999999,-259.291,-294.79899999999998
8438.0,759.29499999999996,-165.14699999999999,-166.30500000000001,-296.30000000000001,-209.643,-278.71899999999999,-254.67400000000001
8439.0,790.29600000000005,-197.70099999999999,-167.005,-266.99599999999998,-231.56200000000001,-300.87799999999999,-247.82499999999999
8440.0,803.51900000000001,-227.708,-182.952,-267.71800000000002,-241.35499999999999,-307.02499999999998,-246.77799999999999
8441.0,782.46199999999999,-239.017,-168.40799999999999,-226.726,-243.63200000000001,-301.07100000000003,-229.47499999999999
8442.0,757.61199999999997,-266.80099999999999,-168.06700000000001,-197.50800000000001,-243.999,-291.928,-209.75800000000001
8443.0,739.59400000000005,-290.89400000000001,-160.10499999999999,-158.13800000000001,-247.94,-281.52800000000002,-189.24100000000001
8444.0,729.42899999999997,-323.024,-161.78299999999999,-120.857,-253.66300000000001,-271.29000000000002,-167.29599999999999
8445.0,721.41600000000005,-337.13499999999999,-149.05199999999999,-68.619500000000002,-257.077,-258.63,-146.66800000000001
8446.0,713.07299999999998,-367.06900000000002,-152.80000000000001,-37.8523,-258.54300000000001,-241.732,-127.648
8447.0,701.52300000000002,-382.05200000000002,-143.50200000000001,-1.79484,-259.53199999999998,-217.97399999999999,-110.65600000000001
8448.0,686.75199999999995,-398.05000000000001,-146.654,17.459700000000002,-259.27499999999998,-193.13499999999999,-94.273099999999999
8449.0,668.24699999999996,-390.41199999999998,-137.78800000000001,50.2943,-253.74000000000001,-170.90199999999999,-79.730599999999995
8450.0,645.51700000000005,-398.26600000000002,-144.51400000000001,59.304400000000001,-247.137,-144.29400000000001,-66.705799999999996
8451.0,251.81899999999999,37.715299999999999,-83.273099999999999,-72.517099999999999,21.4541,16.294799999999999,-126.205
8452.0,260.20800000000003,47.819600000000001,-76.983599999999996,-66.712500000000006,24.6432,19.3477,-129.56899999999999
8453.0,268.73000000000002,24.475899999999999,-95.857799999999997,-96.446899999999999,26.7346,20.3338,-134.511
8454.0,318.03399999999999,45.480800000000002,-96.779600000000002,-120.523,10.3872,10.134600000000001,-159.51400000000001
8455.0,426.20699999999999,57.547699999999999,-147.78100000000001,-190.25200000000001,-10.5284,-0.77902099999999996,-207.06999999999999
8456.0,506.19499999999999,89.572500000000005,-144.62700000000001,-210.40600000000001,-32.057499999999997,-28.646799999999999,-242.286
8457.0,534.38999999999999,45.7029,-171.62100000000001,-259.71600000000001,-53.925800000000002,-60.558900000000001,-252.792
8458.0,543.30899999999997,43.767099999999999,-160.453,-253.93899999999999,-58.463000000000001,-70.974699999999999,-258.38
8459.0,592.40800000000002,19.2088,-199.756,-302.13999999999999,-56.839799999999997,-67.942099999999996,-286.68200000000002
8460.0,714.20299999999997,15.6266,-233.971,-368.91399999999999,-80.012500000000003,-93.849599999999995,-341.69499999999999
8461.0,888.08600000000001,-6.1998100000000003,-307.07799999999997,-480.58800000000002,-119.72,-145.89500000000001,-411.90699999999998
8462.0,1036.9400000000001,-14.175800000000001,-328.666,-542.34100000000001,-170.80000000000001,-210.51499999999999,-462.96699999999998
8463.0,1107.1500000000001,-100.92400000000001,-361.36700000000002,-581.77099999999996,-222.65199999999999,-280.66800000000001,-471.495
8464.0,1022.34,-173.815,-329.63999999999999,-508.41500000000002,-236.91399999999999,-294.68200000000002,-421.185
8465.0,837.67899999999997,-189.91300000000001,-242.77199999999999,-384.90800000000002,-214.654,-256.06700000000001,-334.791
8466.0,753.99900000000002,-195.69200000000001,-186.227,-283.45800000000003,-223.39599999999999,-256.322,-266.50299999999999
8467.0,730.51599999999996,-203.75399999999999,-194.90000000000001,-259.80099999999999,-223.666,-256.423,-246.71299999999999
8468.0,698.13300000000004,-186.488,-179.94900000000001,-232.56100000000001,-215.36600000000001,-248.11000000000001,-231.73099999999999
8469.0,677.51499999999999,-200.91999999999999,-176.626,-204.86699999999999,-215.81999999999999,-248.804,-210.46000000000001
8470.0,659.32899999999995,-213.77000000000001,-164.53200000000001,-168.30199999999999,-217.477,-244.21899999999999,-192.911
8471.0,643.90300000000002,-235.97200000000001,-158.96299999999999,-132.42400000000001,-222.33600000000001,-237.84399999999999,-171.19499999999999
8472.0,632.61800000000005,-252.84200000000001,-149.28100000000001,-84.157799999999995,-226.672,-229.47800000000001,-148.744
8473.0,625.04600000000005,-285.07400000000001,-152.99199999999999,-54.215699999999998,-230.792,-215.59299999999999,-130.636
8474.0,620.73900000000003,-308.84699999999998,-148.87100000000001,-26.531300000000002,-237.11000000000001,-196.94300000000001,-115.705
8475.0,617.56700000000001,-332.35899999999998,-154.648,-10.7136,-241.95500000000001,-179.50999999999999,-102.003
8476.0,610.85799999999995,-334.96600000000001,-148.33199999999999,17.239000000000001,-242.39599999999999,-163.63999999999999,-88.314800000000005
8477.0,602.96400000000006,-342.572,-148.184,37.703000000000003,-240.16399999999999,-146.46299999999999,-76.813500000000005
8478.0,586.11099999999999,-335.86799999999999,-136.399,58.187899999999999,-237.11799999999999,-123.541,-64.804299999999998
8479.0,219.68700000000001,51.207700000000003,-57.836500000000001,-30.351900000000001,26.647500000000001,16.051100000000002,-109.10299999999999
8480.0,238.035,36.400300000000001,-78.479799999999997,-53.944200000000002,26.399799999999999,16.035399999999999,-119.468
8481.0,314.947,63.363100000000003,-97.224299999999999,-72.548000000000002,22.146000000000001,21.032,-157.01300000000001
8482.0,407.05399999999997,66.774799999999999,-147.86500000000001,-138.10400000000001,7.1018499999999998,12.0943,-200.85900000000001
8483.0,466.911,80.145099999999999,-157.708,-171.13399999999999,-5.3406900000000004,-0.415489,-229.47200000000001
8484.0,495.096,27.467600000000001,-197.58799999999999,-236.572,-27.274899999999999,-30.3626,-244.38999999999999
8485.0,519.81799999999998,21.6509,-183.53700000000001,-234.84399999999999,-56.580599999999997,-64.199600000000004,-253.62700000000001
8486.0,533.51099999999997,9.9364500000000007,-199.059,-252.613,-62.7271,-70.430800000000005,-258.334
8487.0,535.55899999999997,39.836500000000001,-182.63800000000001,-241.203,-47.822400000000002,-55.673400000000001,-261.221
8488.0,577.67899999999997,22.5733,-205.923,-279.49700000000001,-58.0214,-65.207599999999999,-280.72699999999998
8489.0,690.80100000000004,6.4799499999999997,-250.36500000000001,-342.46800000000002,-92.042500000000004,-103.261,-327.46199999999999
8490.0,789.01099999999997,-22.4557,-295.55700000000002,-399.74400000000003,-124.163,-143.71700000000001,-365.346
8491.0,831.26099999999997,-38.6327,-279.44999999999999,-396.75200000000001,-159.923,-186.26300000000001,-369.76799999999997
8492.0,863.63300000000004,-100.625,-280.34199999999998,-403.22199999999998,-194.714,-230.53399999999999,-366.60599999999999
8493.0,888.27099999999996,-202.197,-290.25200000000001,-377.39400000000001,-246.55699999999999,-272.77499999999998,-346.60899999999998
8494.0,828.24400000000003,-244.88300000000001,-275.49099999999999,-321.745,-253.48599999999999,-266.53800000000001,-303.09699999999998
8495.0,686.95399999999995,-188.08600000000001,-205.30199999999999,-244.964,-214.77099999999999,-219.905,-248.93100000000001
8496.0,609.87400000000002,-170.37100000000001,-181.33099999999999,-197.19999999999999,-196.66800000000001,-204.822,-207.773
8497.0,592.18799999999999,-157.203,-166.50200000000001,-161.977,-193.768,-206.93799999999999,-191.06100000000001
8498.0,575.36099999999999,-174.95599999999999,-165.00200000000001,-142.11000000000001,-194.88300000000001,-203.76599999999999,-174.82300000000001
8499.0,560.39300000000003,-188.12,-156.589,-106.629,-198.37799999999999,-200.06700000000001,-153.65700000000001
8500.0,545.95299999999997,-208.06700000000001,-148.26300000000001,-66.979299999999995,-200.749,-191.43100000000001,-131.886
8501.0,538.91600000000005,-233.91200000000001,-140.52799999999999,-33.013199999999998,-206.679,-176.18100000000001,-113.788
8502.0,540.90899999999999,-262.52600000000001,-144.30600000000001,-16.200600000000001,-215.15899999999999,-161.28999999999999,-100.212
8503.0,543.13199999999995,-273.67099999999999,-143.82400000000001,4.0981399999999999,-220.09299999999999,-150.322,-89.313599999999994
8504.0,538.32299999999998,-278.40800000000002,-143.018,22.892299999999999,-219.93100000000001,-138.37299999999999,-79.420299999999997
8505.0,528.76300000000003,-286.64499999999998,-145.75700000000001,35.816499999999998,-219.233,-119.756,-68.255600000000001
8506.0,514.072,-287.40699999999998,-149.70699999999999,42.908900000000003,-215.184,-103.961,-58.734200000000001
8507.0,215.62,29.9499,-85.637799999999999,-39.345799999999997,27.145399999999999,14.8157,-105.625
8508.0,258.70699999999999,45.790900000000001,-92.706900000000005,-54.9497,22.440100000000001,15.417400000000001,-128.22900000000001
8509.0,354.995,48.518300000000004,-153.31700000000001,-124.453,6.7967000000000004,16.462299999999999,-172.554
8510.0,410.71800000000002,61.629899999999999,-174.23099999999999,-153.727,-3.9721000000000002,3.47275,-197.81399999999999
8511.0,410.28899999999999,51.096200000000003,-175.63300000000001,-159.00399999999999,-13.4847,-8.4586299999999994,-199.721
8512.0,409.40699999999998,74.650899999999993,-143.75700000000001,-134.51300000000001,-26.7971,-20.993099999999998,-198.637
8513.0,416.85300000000001,43.276899999999998,-153.05500000000001,-159.714,-48.704300000000003,-46.539499999999997,-200.21199999999999
8514.0,451.262,37.018300000000004,-164.15600000000001,-176.077,-62.159199999999998,-60.596800000000002,-214.49000000000001
8515.0,475.77699999999999,41.850099999999998,-189.93100000000001,-202.142,-53.381799999999998,-53.929699999999997,-225.38
8516.0,452.85899999999998,59.351399999999998,-156.31299999999999,-175.041,-54.1036,-58.281199999999998,-212.29599999999999
8517.0,443.53100000000001,28.038699999999999,-159.56100000000001,-185.267,-60.449199999999998,-65.501000000000005,-209.928
8518.0,512.44399999999996,16.488099999999999,-182.94900000000001,-220.19999999999999,-78.935400000000001,-84.488,-240.76300000000001
8519.0,601.43899999999996,-27.279800000000002,-236.25299999999999,-268.24700000000001,-120.348,-127.053,-269.858
8520.0,690.73599999999999,-28.6995,-245.626,-276.88999999999999,-154.95500000000001,-168.29900000000001,-297.37299999999999
8521.0,792.822,-110.991,-276.048,-297.75299999999999,-221.90899999999999,-237.98699999999999,-305.30000000000001
8522.0,769.84900000000005,-154.88300000000001,-267.327,-276.08199999999999,-226.83699999999999,-240.74299999999999,-289.09399999999999
8523.0,627.93899999999996,-146.643,-204.31800000000001,-207.143,-197.24799999999999,-194.06399999999999,-231.738
8524.0,555.53099999999995,-146.94200000000001,-176.81399999999999,-158.86099999999999,-185.91900000000001,-181.00200000000001,-187.93100000000001
8525.0,529.29499999999996,-140.66999999999999,-170.19800000000001,-140.52799999999999,-177.42599999999999,-177.559,-173.45099999999999
8526.0,507.34100000000001,-138.11699999999999,-155.85499999999999,-110.422,-175.25700000000001,-174.72499999999999,-155.01599999999999
8527.0,486.77999999999997,-145.268,-144.376,-78.630200000000002,-173.87899999999999,-170.04499999999999,-135.55500000000001
8528.0,467.78399999999999,-164.857,-134.066,-44.536499999999997,-176.376,-157.25999999999999,-114.86799999999999
8529.0,463.78500000000003,-199.62100000000001,-139.58199999999999,-24.2636,-185.06700000000001,-142.143,-96.446399999999997
8530.0,475.36799999999999,-216.72399999999999,-137.958,1.6148499999999999,-195.261,-133.291,-84.884299999999996
8531.0,481.86500000000001,-233.66499999999999,-147.64400000000001,7.22445,-199.911,-127.645,-78.983800000000002
8532.0,471.21800000000002,-228.80600000000001,-140.61000000000001,23.846699999999998,-196.85599999999999,-116.825,-71.918999999999997
8533.0,455.30799999999999,-232.68600000000001,-139.96299999999999,33.137099999999997,-193.39699999999999,-99.578000000000003,-59.832000000000001
8534.0,443.60599999999999,-221.49600000000001,-128.18000000000001,54.120399999999997,-189.39500000000001,-86.653899999999993,-50.646599999999999
8535.0,250.696,47.398099999999999,-99.118700000000004,-33.658299999999997,26.197399999999998,17.284300000000002,-120.73699999999999
8536.0,306.43700000000001,54.626100000000001,-135.38900000000001,-70.153599999999997,12.6867,14.867100000000001,-146.96000000000001
8537.0,329.61599999999999,89.8733,-117.982,-62.004800000000003,-3.59592,6.5950100000000003,-156.81800000000001
8538.0,339.86000000000001,94.179299999999998,-123.633,-75.358000000000004,-10.2201,4.1528,-159.041
8539.0,347.07299999999998,104.505,-116.077,-80.608199999999997,-21.171900000000001,-6.0877699999999999,-160.11699999999999
8540.0,343.666,80.379499999999993,-133.37899999999999,-110.57299999999999,-29.874300000000002,-16.6661,-156.26599999999999
8541.0,327.88299999999998,83.076400000000007,-105.154,-93.787899999999993,-43.939799999999998,-35.276200000000003,-146.69900000000001
8542.0,316.173,52.648000000000003,-111.179,-102.88200000000001,-45.528100000000002,-40.674399999999999,-145.18299999999999
8543.0,349.22899999999998,67.053100000000001,-121.274,-114.271,-47.391199999999998,-44.408900000000003,-158.22900000000001
8544.0,350.37700000000001,65.931700000000006,-128.50800000000001,-120.43000000000001,-49.436100000000003,-49.610999999999997,-154.64699999999999
8545.0,301.98500000000001,56.721400000000003,-96.817400000000006,-84.822699999999998,-46.023200000000003,-46.891500000000001,-137.07400000000001
8546.0,322.73099999999999,41.346200000000003,-117.422,-110.279,-46.1571,-47.366199999999999,-149.34100000000001
8547.0,424.923,31.667400000000001,-148.273,-152.15899999999999,-81.759699999999995,-81.742400000000004,-189.18000000000001
8548.0,590.38699999999994,-1.0392300000000001,-229.47300000000001,-217.20599999999999,-140.619,-154.71600000000001,-236.56899999999999
8549.0,632.41499999999996,-32.829300000000003,-231.77199999999999,-186.75399999999999,-175.816,-188.97900000000001,-236.239
8550.0,589.351,-53.269599999999997,-215.98400000000001,-179.59100000000001,-168.99299999999999,-171.04900000000001,-225.09700000000001
8551.0,568.12900000000002,-91.418700000000001,-211.21899999999999,-168.94399999999999,-174.715,-176.03100000000001,-205.88
8552.0,512.279,-118.84099999999999,-183.30199999999999,-127.71899999999999,-173.66,-162.04499999999999,-172.74199999999999
8553.0,474.38099999999997,-112.521,-164.29900000000001,-104.25700000000001,-164.25,-152.87700000000001,-153.636
8554.0,458.12400000000002,-111.01600000000001,-155.113,-82.2273,-161.74799999999999,-152.75,-138.26300000000001
8555.0,433.87200000000001,-116.559,-142.94499999999999,-57.407899999999998,-157.65100000000001,-144.774,-122.542
8556.0,410.84899999999999,-136.84100000000001,-133.56999999999999,-35.776800000000001,-157.88200000000001,-131.892,-103.17700000000001
8557.0,407.80799999999999,-155.41,-121.755,-3.7180599999999999,-165.90899999999999,-120.703,-83.6357
8558.0,423.55200000000002,-182.31999999999999,-132.85300000000001,9.6111599999999999,-177.45400000000001,-114.176,-73.091499999999996
8559.0,430.322,-187.977,-137.46100000000001,18.544899999999998,-181.72999999999999,-109.425,-71.664599999999993
8560.0,418.96199999999999,-190.48599999999999,-139.41399999999999,19.341200000000001,-177.602,-101.949,-67.826999999999998
8561.0,405.92099999999999,-191.53800000000001,-132.05000000000001,29.9998,-175.495,-87.471599999999995,-57.684800000000003
8562.0,389.21199999999999,-206.75700000000001,-141.739,10.9594,-173.43799999999999,-72.592699999999994,-51.520600000000002
8563.0,265.31299999999999,42.683999999999997,-124.84699999999999,-50.734999999999999,11.548,8.1247500000000006,-127.34399999999999
8564.0,292.30399999999997,59.683799999999998,-126.486,-63.238799999999998,-0.61377400000000004,3.7639100000000001,-139.65899999999999
8565.0,281.97500000000002,49.815800000000003,-129.57300000000001,-76.586799999999997,-11.282999999999999,-2.9273600000000002,-133.69
8566.0,285.30599999999998,74.907899999999998,-116.666,-67.418499999999995,-18.306100000000001,-1.5187299999999999,-129.995
8567.0,294.16899999999998,86.505899999999997,-116.91800000000001,-74.865300000000005,-25.6266,-6.70852,-128.886
8568.0,295.49799999999999,114.318,-87.423100000000005,-54.341200000000001,-37.920099999999998,-19.1084,-124.887
8569.0,271.464,90.8536,-84.222999999999999,-58.7331,-47.364800000000002,-32.526200000000003,-110.98
8570.0,219.453,77.092699999999994,-54.942900000000002,-31.1036,-39.153500000000001,-31.890499999999999,-92.475999999999999
8571.0,211.01300000000001,67.264799999999994,-61.225299999999997,-38.372999999999998,-34.870100000000001,-30.126300000000001,-89.554900000000004
8572.0,253.363,88.628299999999996,-73.3797,-55.358199999999997,-35.372300000000003,-31.686900000000001,-106.10599999999999
8573.0,259.63400000000001,54.922400000000003,-92.140299999999996,-76.532499999999999,-41.221800000000002,-43.229900000000001,-111.25
8574.0,272.04700000000003,58.706200000000003,-91.314099999999996,-73.300299999999993,-41.765799999999999,-44.847900000000003,-119.184
8575.0,338.10599999999999,59.175699999999999,-121.625,-99.603999999999999,-63.048499999999997,-66.589799999999997,-141.298
8576.0,428.94799999999998,52.749899999999997,-147.65199999999999,-108.64100000000001,-103.301,-115.958,-161.017
8577.0,469.18599999999998,29.761500000000002,-169.97,-121.667,-120.441,-137.35900000000001,-170.721
8578.0,457.95299999999997,-2.8136199999999998,-168.922,-116.06699999999999,-126.67400000000001,-135.75200000000001,-168.018
8579.0,472.14400000000001,-34.484200000000001,-178.922,-114.426,-140.649,-146.89099999999999,-166.47
8580.0,454.62900000000002,-69.002399999999994,-165.727,-87.750100000000003,-152.06,-145.029,-148.691
8581.0,427.95800000000003,-89.109999999999999,-159.08699999999999,-71.358800000000002,-151.39599999999999,-136.697,-131.495
8582.0,413.63200000000001,-83.410799999999995,-149.38499999999999,-58.060400000000001,-145.36000000000001,-136.637,-122.51000000000001
8583.0,385.40199999999999,-91.364699999999999,-137.637,-40.5306,-139.74700000000001,-127.352,-106.79300000000001
8584.0,375.49900000000002,-105.93000000000001,-129.96000000000001,-13.1518,-145.262,-117.997,-90.392099999999999
8585.0,384.60599999999999,-137.881,-141.38,-2.1469200000000002,-157.721,-109.143,-78.837299999999999
8586.0,382.06999999999999,-152.279,-140.28700000000001,5.2084099999999998,-163.036,-96.991699999999994,-70.605400000000003
8587.0,378.85899999999998,-166.05099999999999,-143.60900000000001,4.9982800000000003,-164.648,-88.789500000000004,-64.893799999999999
8588.0,390.99299999999999,-169.25999999999999,-144.49299999999999,14.1235,-168.72200000000001,-91.151499999999999,-65.440200000000004
8589.0,377.27999999999997,-178.63800000000001,-146.64599999999999,4.34267,-165.971,-79.764399999999995,-63.146900000000002
8590.0,366.43299999999999,-186.381,-149.97800000000001,-14.879200000000001,-170.202,-65.950000000000003,-57.225099999999998
8591.0,230.15899999999999,60.445900000000002,-95.581400000000002,-19.127800000000001,-5.30335,-1.5920099999999999,-107.425
8592.0,240.47399999999999,63.313699999999997,-105.08,-28.372599999999998,-9.0029500000000002,-0.31750299999999998,-109.941
8593.0,240.661,91.768500000000003,-74.445800000000006,-12.4937,-19.1858,-3.6270099999999998,-108.943
8594.0,245.77099999999999,92.076800000000006,-80.788200000000003,-28.4788,-26.592700000000001,-7.2666700000000004,-107.31100000000001
8595.0,253.06100000000001,115.675,-69.221800000000002,-22.5138,-31.1555,-9.4288399999999992,-105.08499999999999
8596.0,248.78800000000001,99.535899999999998,-82.074700000000007,-44.9681,-40.3675,-18.855699999999999,-97.159899999999993
8597.0,220.07300000000001,98.318100000000001,-51.217700000000001,-21.644500000000001,-43.739100000000001,-27.236999999999998,-84.959000000000003
8598.0,185.61500000000001,56.929499999999997,-57.487000000000002,-31.428899999999999,-38.621600000000001,-30.194700000000001,-74.058700000000002
8599.0,162.00399999999999,67.6404,-34.266300000000001,-6.8961899999999998,-30.427,-25.419699999999999,-66.293300000000002
8600.0,187.31700000000001,74.016000000000005,-57.2714,-27.722200000000001,-24.492699999999999,-19.906300000000002,-77.177300000000002
8601.0,234.989,83.477900000000005,-72.155299999999997,-42.422600000000003,-33.945999999999998,-33.309100000000001,-96.533199999999994
8602.0,268.09500000000003,64.643699999999995,-94.380799999999994,-63.682699999999997,-47.7667,-50.651299999999999,-109.52
8603.0,295.767,59.1708,-103.73999999999999,-65.976799999999997,-65.712999999999994,-70.298400000000001,-112.374
8604.0,302.20100000000002,53.677700000000002,-105.20399999999999,-50.884399999999999,-76.397900000000007,-83.650199999999998,-105.29300000000001
8605.0,335.43299999999999,72.388199999999998,-112.938,-57.575699999999998,-77.402100000000004,-90.848500000000001,-119.20699999999999
8606.0,375.41399999999999,38.103200000000001,-139.47399999999999,-75.883899999999997,-95.4846,-110.563,-132.446
8607.0,386.00900000000001,2.2315299999999998,-145.869,-70.322100000000006,-110.84,-116.646,-135.24700000000001
8608.0,397.214,-40.306199999999997,-159.97999999999999,-74.422399999999996,-127.718,-122.977,-131.744
8609.0,394.84100000000001,-67.860600000000005,-149.97499999999999,-50.329599999999999,-141.19399999999999,-122.23099999999999,-119.417
8610.0,393.39499999999998,-74.384200000000007,-153.27799999999999,-42.585799999999999,-142.08600000000001,-122.61499999999999,-114.524
8611.0,384.70299999999997,-58.371000000000002,-139.50899999999999,-23.554400000000001,-135.715,-124.762,-108.66500000000001
8612.0,368.101,-74.837999999999994,-134.096,-4.5367300000000004,-135.185,-119.26600000000001,-91.978999999999999
8613.0,351.63,-100.02500000000001,-131.10300000000001,6.6922699999999997,-138.911,-104.24299999999999,-76.340299999999999
8614.0,327.86500000000001,-125.158,-129.64400000000001,4.6804800000000002,-140.56800000000001,-80.878799999999998,-60.916600000000003
8615.0,336.61900000000003,-135.869,-130.785,13.643599999999999,-149.614,-72.078000000000003,-54.631
8616.0,363.00999999999999,-155.798,-154.876,4.4794499999999999,-160.99299999999999,-75.765699999999995,-61.257100000000001
8617.0,366.50700000000001,-149.072,-152.56399999999999,0.81485300000000005,-162.358,-76.322699999999998,-70.166300000000007
8618.0,373.44600000000003,-170.387,-164.798,-12.4412,-171.667,-70.099199999999996,-63.814100000000003
8619.0,159.26499999999999,56.584699999999998,-53.777799999999999,-1.1820900000000001,-10.417999999999999,-3.18485,-72.727199999999996
8620.0,186.90700000000001,75.731700000000004,-61.3367,-4.5827099999999996,-16.844200000000001,-0.530497,-81.348100000000002
8621.0,200.53899999999999,71.227199999999996,-77.573999999999998,-22.649799999999999,-25.484000000000002,-4.2664799999999996,-84.117599999999996
8622.0,205.22900000000001,84.003600000000006,-67.620900000000006,-17.348700000000001,-31.6007,-8.4300300000000004,-83.696100000000001
8623.0,218.684,92.279600000000002,-74.154899999999998,-27.331299999999999,-37.4754,-12.359,-83.768000000000001
8624.0,209.55000000000001,118.152,-44.515500000000003,-4.4893400000000003,-38.052900000000001,-16.1496,-75.791399999999996
8625.0,182.20500000000001,87.195800000000006,-43.829000000000001,-11.6785,-38.3919,-21.4863,-66.840900000000005
8626.0,167.291,67.581900000000005,-40.349400000000003,-8.4285999999999994,-35.592100000000002,-26.178100000000001,-65.592500000000001
8627.0,156.827,48.836599999999997,-48.621200000000002,-18.346800000000002,-30.4194,-24.7422,-64.596299999999999
8628.0,165.46199999999999,62.430399999999999,-47.673499999999997,-15.979900000000001,-25.881699999999999,-22.011800000000001,-68.985100000000003
8629.0,205.97999999999999,66.468699999999998,-74.684399999999997,-36.363300000000002,-32.794800000000002,-30.4176,-82.547200000000004
8630.0,242.36000000000001,71.591300000000004,-84.125500000000002,-37.1096,-49.226700000000001,-48.682200000000002,-91.6905
8631.0,255.69399999999999,61.134399999999999,-89.716700000000003,-35.488700000000001,-62.531100000000002,-62.395000000000003,-90.283500000000004
8632.0,256.61200000000002,59.784599999999998,-86.950500000000005,-30.6448,-64.655500000000004,-68.515100000000004,-87.152199999999993
8633.0,275.423,63.803100000000001,-100.40300000000001,-41.566400000000002,-60.620899999999999,-73.211799999999997,-96.590100000000007
8634.0,309.73099999999999,50.9803,-121.485,-56.344299999999997,-70.031099999999995,-84.092200000000005,-111.435
8635.0,334.71100000000001,11.6496,-140.85599999999999,-64.932699999999997,-89.261600000000001,-94.8369,-120.696
8636.0,351.42000000000002,-20.659700000000001,-150.04900000000001,-60.150599999999997,-108.56100000000001,-100.145,-122.285
8637.0,364.25599999999997,-59.179000000000002,-163.58699999999999,-60.4756,-126.782,-101.86199999999999,-119.117
8638.0,391.553,-83.430300000000003,-177.71100000000001,-58.815199999999997,-143.84299999999999,-108.702,-121.075
8639.0,428.358,-88.989599999999996,-195.56999999999999,-56.913800000000002,-153.23699999999999,-127.812,-126.79600000000001
8640.0,400.64100000000002,-82.5334,-166.19900000000001,-17.712399999999999,-145.42500000000001,-124.215,-106.7
8641.0,323.13999999999999,-78.155799999999999,-127.676,3.0161699999999998,-124.88800000000001,-94.687799999999996,-76.746899999999997
8642.0,292.12200000000001,-92.195599999999999,-117.455,11.324,-123.443,-72.772999999999996,-57.0486
8643.0,303.16500000000002,-119.999,-136.73400000000001,2.5324599999999999,-134.30099999999999,-63.753500000000003,-52.4756
8644.0,312.11500000000001,-125.434,-143.25,-2.19909,-140.91,-59.309899999999999,-56.558100000000003
8645.0,345.47199999999998,-138.11699999999999,-164.11500000000001,-4.5935499999999996,-154.39500000000001,-68.254400000000004,-62.9435
8646.0,375.32299999999998,-152.77000000000001,-174.709,17.034700000000001,-168.91,-65.060599999999994,-56.3825
8647.0,115.393,69.962999999999994,-17.056000000000001,31.203700000000001,-11.867000000000001,-2.0035799999999999,-48.9191
8648.0,137.404,80.228099999999998,-29.1569,20.863499999999998,-16.936800000000002,1.0813200000000001,-54.833399999999997
8649.0,163.22499999999999,105.039,-24.427099999999999,23.582100000000001,-25.735600000000002,-0.95829900000000001,-62.7211
8650.0,174.52000000000001,99.823400000000007,-34.444000000000003,9.9350900000000006,-34.588200000000001,-8.2486499999999996,-64.873199999999997
8651.0,182.65899999999999,111.101,-31.0641,12.8485,-38.319499999999998,-12.3765,-64.8155
8652.0,184.578,99.815799999999996,-48.719299999999997,-6.32925,-36.885599999999997,-14.796900000000001,-62.629600000000003
8653.0,170.43600000000001,98.494100000000003,-30.6508,7.2122099999999998,-36.892499999999998,-19.027799999999999,-59.601100000000002
8654.0,151.09399999999999,55.057699999999997,-47.279499999999999,-8.7551500000000004,-32.418399999999998,-22.1403,-58.284999999999997
8655.0,146.13499999999999,62.2624,-35.172600000000003,5.0057600000000004,-28.946100000000001,-21.482700000000001,-58.4923
8656.0,155.51499999999999,53.759599999999999,-52.023099999999999,-10.7752,-29.497699999999998,-22.833200000000001,-61.866399999999999
8657.0,179.56,67.414500000000004,-56.249699999999997,-10.5318,-34.896299999999997,-29.912099999999999,-68.738699999999994
8658.0,208.71799999999999,66.177099999999996,-75.000799999999998,-22.264600000000002,-46.521500000000003,-43.325099999999999,-73.421499999999995
8659.0,223.232,65.850800000000007,-78.9786,-20.6449,-54.741599999999998,-54.68,-72.899199999999993
8660.0,226.179,64.742800000000003,-81.0518,-19.468800000000002,-54.972799999999999,-59.935000000000002,-71.284400000000005
8661.0,240.44,68.884399999999999,-88.995000000000005,-22.872399999999999,-51.593400000000003,-63.254199999999997,-79.506200000000007
8662.0,267.483,60.5,-107.539,-34.152200000000001,-55.421999999999997,-68.506200000000007,-94.801400000000001
8663.0,290.89299999999997,36.948300000000003,-125.63500000000001,-43.656100000000002,-68.339799999999997,-75.313000000000002,-106.09099999999999
8664.0,308.98099999999999,2.5607799999999998,-143.93100000000001,-52.333300000000001,-84.708799999999997,-81.616699999999994,-111.84399999999999
8665.0,324.85899999999998,-29.013200000000001,-153.41900000000001,-51.025700000000001,-104.00700000000001,-84.528199999999998,-113.17100000000001
8666.0,353.47199999999998,-61.622100000000003,-168.07300000000001,-48.837899999999998,-127.321,-90.676400000000001,-113.70699999999999
8667.0,400.56799999999998,-74.852000000000004,-186.80699999999999,-38.535699999999999,-146.53800000000001,-109.89,-118.164
8668.0,402.99099999999999,-78.975700000000003,-189.49199999999999,-23.490500000000001,-148.65000000000001,-113.983,-109.104
8669.0,351.49299999999999,-77.578000000000003,-161.023,-0.40189599999999998,-136.41800000000001,-93.550200000000004,-85.836699999999993
8670.0,311.63999999999999,-93.985399999999998,-147.93199999999999,4.2190799999999999,-130.30099999999999,-72.818799999999996,-64.353399999999993
8671.0,276.57400000000001,-95.635800000000003,-131.798,0.306286,-122.911,-53.664900000000003,-53.385800000000003
8672.0,264.46600000000001,-96.629300000000001,-128.42699999999999,-2.6573500000000001,-119.499,-47.734499999999997,-49.786900000000003
8673.0,289.202,-100.60899999999999,-135.28100000000001,12.405099999999999,-126.636,-57.301000000000002,-50.940300000000001
8674.0,316.94099999999997,-117.824,-147.75700000000001,34.315899999999999,-137.67400000000001,-56.820300000000003,-42.057299999999998
8675.0,100.27,55.9208,-18.8855,19.678899999999999,-12.559900000000001,-2.0250400000000002,-42.308700000000002
8676.0,103.208,75.907399999999996,-5.4029199999999999,29.511800000000001,-17.9312,-1.69218,-39.527000000000001
8677.0,127.435,80.159499999999994,-25.7943,14.2957,-23.894400000000001,0.80817399999999995,-44.494199999999999
8678.0,146.553,93.437100000000001,-25.873000000000001,14.124599999999999,-31.8035,-4.8326399999999996,-49.365200000000002
8679.0,150.124,84.745900000000006,-35.338200000000001,5.0563399999999996,-34.224800000000002,-9.9197699999999998,-50.089799999999997
8680.0,164.852,106.726,-29.615300000000001,14.697699999999999,-34.829300000000003,-13.172000000000001,-53.247
8681.0,165.768,86.377300000000005,-45.257800000000003,0.58202699999999996,-36.093600000000002,-17.128399999999999,-55.664700000000003
8682.0,143.41900000000001,60.757899999999999,-41.340400000000002,4.74498,-30.783300000000001,-19.316400000000002,-54.049999999999997
8683.0,133.97800000000001,44.890500000000003,-47.257800000000003,-2.6796700000000002,-27.742000000000001,-19.633299999999998,-52.007100000000001
8684.0,141.68000000000001,56.006500000000003,-42.395299999999999,2.4267699999999999,-30.848400000000002,-22.468599999999999,-52.985900000000001
8685.0,158.559,54.9176,-56.029699999999998,-7.5085499999999996,-36.401800000000001,-28.877400000000002,-55.927900000000001
8686.0,179.66300000000001,71.643100000000004,-55.758000000000003,-2.4956900000000002,-43.517499999999998,-39.019199999999998,-57.002499999999998
8687.0,193.76900000000001,81.511600000000001,-60.293300000000002,0.62438099999999996,-46.257100000000001,-48.255600000000001,-54.651699999999998
8688.0,197.25,94.916399999999996,-56.693899999999999,11.2456,-43.161799999999999,-52.128999999999998,-51.203600000000002
8689.0,207.39699999999999,92.059100000000001,-66.269800000000004,4.8103199999999999,-39.031300000000002,-55.967300000000002,-58.251800000000003
8690.0,233.02500000000001,73.662599999999998,-91.255899999999997,-18.886199999999999,-41.625599999999999,-61.807899999999997,-75.590299999999999
8691.0,254.03200000000001,52.017499999999998,-110.557,-31.074000000000002,-50.765500000000003,-66.391300000000001,-88.977599999999995
8692.0,265.92899999999997,30.926400000000001,-119.69799999999999,-28.779199999999999,-62.561199999999999,-70.186400000000006,-94.760599999999997
8693.0,271.24000000000001,-2.26498,-132.697,-33.476700000000001,-78.161500000000004,-69.475399999999993,-94.600200000000001
8694.0,287.44499999999999,-34.616500000000002,-147.23099999999999,-26.526299999999999,-100.943,-70.367999999999995,-88.585499999999996
8695.0,327.95800000000003,-40.657699999999998,-166.816,-15.647,-115.562,-84.424800000000005,-93.831999999999994
8696.0,360.69999999999999,-35.400399999999998,-172.77699999999999,-15.1462,-120.759,-100.99299999999999,-105.976
8697.0,363.43900000000002,-68.995900000000006,-176.08600000000001,-6.2786400000000002,-131.429,-102.41800000000001,-94.305999999999997
8698.0,312.05099999999999,-79.702200000000005,-151.244,6.89114,-125.128,-76.339699999999993,-68.581000000000003
8699.0,248.578,-83.456800000000001,-129.92699999999999,-1.1783300000000001,-110.175,-45.032899999999998,-46.686799999999998
8700.0,235.297,-80.103300000000004,-121.414,9.4882399999999993,-106.152,-37.525500000000001,-36.061
8701.0,241.66999999999999,-70.938800000000001,-119.44499999999999,29.5747,-102.595,-43.414299999999997,-35.784500000000001
8702.0,250.90299999999999,-64.370699999999999,-111.514,59.045999999999999,-101.535,-45.081899999999997,-29.7471
8703.0,90.567099999999996,71.871700000000004,2.0630700000000002,43.478299999999997,-14.240399999999999,-2.6792199999999999,-35.9405
8704.0,92.097999999999999,74.983900000000006,0.84010700000000005,35.274099999999997,-18.746600000000001,-1.32457,-33.128700000000002
8705.0,105.22499999999999,99.277199999999993,10.840400000000001,45.2425,-23.1006,-0.40561000000000003,-34.198900000000002
8706.0,118.54600000000001,95.332599999999999,-5.4376899999999999,31.1279,-26.6877,-2.4084400000000001,-36.932400000000001
8707.0,126.96299999999999,101.86,-4.2585199999999999,34.017899999999997,-29.3294,-6.6715900000000001,-39.753799999999998
8708.0,143.09999999999999,90.882499999999993,-30.210100000000001,13.2881,-32.112299999999998,-11.686,-43.535600000000002
8709.0,150.88499999999999,98.381399999999999,-28.157800000000002,21.860600000000002,-31.2271,-12.921799999999999,-48.8371
8710.0,133.971,56.039900000000003,-45.505600000000001,4.9125399999999999,-28.130099999999999,-16.430700000000002,-48.410400000000003
8711.0,121.86799999999999,58.803199999999997,-26.8767,20.330400000000001,-28.2881,-18.7879,-44.2239
8712.0,127.875,48.347000000000001,-41.396900000000002,5.8515800000000002,-32.130699999999997,-21.528400000000001,-44.039499999999997
8713.0,141.12799999999999,62.789400000000001,-39.115299999999998,10.3453,-37.127899999999997,-27.256,-43.826500000000003
8714.0,158.13999999999999,76.9422,-45.541400000000003,5.6505700000000001,-40.904499999999999,-34.918199999999999,-40.735900000000001
8715.0,172.126,92.090599999999995,-44.613199999999999,11.2232,-35.829900000000002,-46.099899999999998,-41.744599999999998
8716.0,180.595,95.877300000000005,-41.664099999999998,12.7745,-33.788400000000003,-52.4268,-46.7273
8717.0,189.245,94.220500000000001,-50.292499999999997,7.28728,-34.728499999999997,-53.218699999999998,-51.0565
8718.0,204.614,85.139700000000005,-74.196700000000007,-2.9536199999999999,-33.310600000000001,-56.642099999999999,-57.157899999999998
8719.0,221.374,75.109200000000001,-85.573599999999999,-4.3968999999999996,-36.509,-61.354599999999998,-69.161199999999994
8720.0,229.37799999999999,42.749099999999999,-104.733,-16.140599999999999,-45.370800000000003,-62.143999999999998,-78.144000000000005
8721.0,232.50999999999999,22.4405,-111.124,-16.405000000000001,-56.8185,-60.593699999999998,-80.002600000000001
8722.0,233.50800000000001,-6.65482,-117.173,-12.4762,-74.271900000000002,-59.158099999999997,-72.739999999999995
8723.0,259.31999999999999,-21.503900000000002,-128.15899999999999,-1.40567,-90.1023,-66.548100000000005,-72.302000000000007
8724.0,313.63600000000002,-21.529599999999999,-155.011,2.7549000000000001,-102.298,-87.316999999999993,-86.509100000000004
8725.0,332.36900000000003,-26.711500000000001,-157.137,27.983799999999999,-112.215,-92.875100000000003,-80.991600000000005
8726.0,281.38299999999998,-32.7331,-133.86699999999999,25.431000000000001,-99.533100000000005,-73.977699999999999,-67.192599999999999
8727.0,220.178,-46.961599999999997,-106.03100000000001,22.719999999999999,-91.391800000000003,-44.2042,-41.223100000000002
8728.0,206.33600000000001,-59.949199999999998,-106.45099999999999,20.631399999999999,-90.921899999999994,-32.340200000000003,-27.285699999999999
8729.0,210.21600000000001,-55.136200000000002,-103.077,37.6066,-87.806600000000003,-35.837600000000002,-24.9147
8730.0,215.21100000000001,-55.694699999999997,-99.2928,61.8093,-83.557599999999994,-35.107599999999998,-16.747199999999999
8731.0,85.801299999999998,53.3904,-12.298400000000001,28.839600000000001,-15.603199999999999,-3.4362499999999998,-33.121000000000002
8732.0,88.782300000000006,75.558700000000002,5.6236499999999996,38.392000000000003,-22.021599999999999,-2.4268000000000001,-30.203399999999998
8733.0,90.352599999999995,73.629900000000006,-0.98171900000000001,27.478000000000002,-24.128399999999999,-1.53905,-26.811199999999999
8734.0,96.870999999999995,88.488100000000003,4.4465199999999996,35.082000000000001,-24.308900000000001,-1.4840500000000001,-26.942900000000002
8735.0,108.899,81.725200000000001,-13.788399999999999,21.771100000000001,-26.128399999999999,-4.4062599999999996,-30.341200000000001
8736.0,122.765,97.026600000000002,-11.0177,31.000399999999999,-27.946999999999999,-8.9639299999999995,-34.582099999999997
8737.0,124.694,74.985799999999998,-35.270200000000003,13.8291,-22.9999,-8.4935600000000004,-39.121699999999997
8738.0,115.255,60.657800000000002,-30.1328,19.372299999999999,-23.552499999999998,-12.996700000000001,-40.470799999999997
8739.0,113.51300000000001,41.2622,-38.658000000000001,8.2831799999999998,-29.940300000000001,-18.574200000000001,-37.955199999999998
8740.0,115.76300000000001,54.654600000000002,-26.6905,19.8797,-33.291699999999999,-20.471299999999999,-35.689399999999999
8741.0,124.98999999999999,58.392499999999998,-37.0062,8.4863499999999998,-36.383400000000002,-25.500499999999999,-30.9298
8742.0,144.03899999999999,109.395,-13.889699999999999,28.334700000000002,-37.396999999999998,-32.272399999999998,-23.456099999999999
8743.0,156.874,106.051,-25.3673,31.1601,-27.0778,-46.949599999999997,-30.330400000000001
8744.0,171.857,16.6172,-108.494,-47.610999999999997,-31.3249,-49.676499999999997,-49.817700000000002
8745.0,185.78,20.941800000000001,-111.428,-58.386800000000001,-37.963500000000003,-46.334899999999998,-58.979300000000002
8746.0,190.07400000000001,87.706999999999994,-58.1494,0.83140000000000003,-31.461200000000002,-53.053199999999997,-53.431600000000003
8747.0,196.405,89.914900000000003,-62.985199999999999,12.9543,-27.4251,-59.600299999999997,-52.051099999999998
8748.0,201.47999999999999,65.328400000000002,-79.5077,8.9308499999999995,-29.926600000000001,-58.141199999999998,-62.653700000000001
8749.0,205.417,32.7806,-98.6905,-6.4661499999999998,-42.961599999999997,-55.7956,-67.464600000000004
8750.0,194.13,11.712400000000001,-95.934899999999999,-0.72054200000000002,-54.216999999999999,-50.328400000000002,-60.179900000000004
8751.0,195.49799999999999,-8.4136199999999999,-101.746,4.7771499999999998,-65.721000000000004,-46.446199999999997,-53.770400000000002
8752.0,258.31799999999998,-4.85968,-128.15199999999999,19.582999999999998,-83.481999999999999,-69.595699999999994,-64.492599999999996
8753.0,294.95999999999998,-18.1554,-151.62899999999999,25.936,-92.755700000000004,-83.8553,-69.404200000000003
8754.0,262.37200000000001,-16.126799999999999,-128.63900000000001,30.720300000000002,-83.003200000000007,-72.001599999999996,-64.533199999999994
8755.0,215.24299999999999,-39.2117,-114.551,26.901700000000002,-81.283100000000005,-48.090000000000003,-38.914299999999997
8756.0,181.565,-39.694200000000002,-94.077799999999996,28.617699999999999,-76.094899999999996,-29.364699999999999,-23.5825
8757.0,169.21899999999999,-40.336300000000001,-87.4495,35.007599999999996,-68.840299999999999,-26.723400000000002,-16.628
8758.0,184.01300000000001,-28.009499999999999,-71.931299999999993,76.973100000000002,-67.120199999999997,-29.273399999999999,-8.42943
8759.0,73.732299999999995,68.5274,12.4733,49.467599999999997,-15.8241,-3.6147200000000002,-27.135999999999999
8760.0,80.551900000000003,76.316800000000001,13.8726,42.614600000000003,-23.316600000000001,-2.00373,-25.265000000000001
8761.0,84.365499999999997,95.261799999999994,27.4602,51.873600000000003,-26.132300000000001,-1.51237,-22.540099999999999
8762.0,86.200500000000005,92.462199999999996,17.590199999999999,43.540999999999997,-23.857299999999999,-1.2383599999999999,-21.464300000000001
8763.0,96.492099999999994,100.167,14.5686,45.021299999999997,-25.331099999999999,-3.85833,-23.7576
8764.0,98.960099999999997,84.974599999999995,-4.1678699999999997,31.869700000000002,-23.760999999999999,-6.9588200000000002,-25.3078
8765.0,91.475200000000001,80.759699999999995,-2.5049600000000001,38.553400000000003,-16.324300000000001,-5.9490299999999996,-27.459199999999999
8766.0,94.557100000000005,56.223500000000001,-20.728999999999999,24.336099999999998,-20.343699999999998,-10.331300000000001,-31.062100000000001
8767.0,102.13,55.953600000000002,-18.934100000000001,27.7851,-28.418099999999999,-16.101900000000001,-31.2928
8768.0,104.81100000000001,54.854399999999998,-22.1235,22.0975,-32.202100000000002,-18.334299999999999,-28.218399999999999
8769.0,114.66,79.759500000000003,-15.2605,21.249099999999999,-34.370399999999997,-23.035699999999999,-19.306999999999999
8770.0,135.09100000000001,124.913,6.3488300000000004,36.721499999999999,-31.135400000000001,-34.036799999999999,-12.738899999999999
8771.0,145.941,89.660899999999998,-29.960000000000001,25.767099999999999,-24.619499999999999,-48.590899999999998,-23.443300000000001
8772.0,161.398,-8.7732600000000005,-134.78700000000001,-55.2363,-34.637799999999999,-39.8598,-42.818100000000001
8773.0,178.90600000000001,-29.1541,-169.48400000000001,-89.041399999999996,-34.4876,-35.994,-56.796399999999998
8774.0,180.655,19.265000000000001,-125.294,-63.061399999999999,-27.430199999999999,-44.944099999999999,-53.369999999999997
8775.0,178.32300000000001,98.260900000000007,-44.339799999999997,17.8428,-23.883500000000002,-55.831699999999998,-42.4343
8776.0,181.33500000000001,78.881900000000002,-54.713099999999997,29.962900000000001,-20.3139,-59.7607,-49.075299999999999
8777.0,177.69300000000001,38.188000000000002,-82.686300000000003,4.77813,-33.018500000000003,-50.244900000000001,-54.899999999999999
8778.0,171.245,27.084499999999998,-77.8322,11.5648,-42.161099999999998,-43.999000000000002,-53.430599999999998
8779.0,163.51400000000001,3.4418799999999998,-84.389700000000005,9.5965900000000008,-50.293599999999998,-40.087000000000003,-44.850999999999999
8780.0,190.078,9.0002099999999992,-88.890500000000003,29.5579,-60.012900000000002,-50.138500000000001,-43.840400000000002
8781.0,236.53800000000001,10.706,-110.465,39.6755,-67.750399999999999,-68.570400000000006,-54.9011
8782.0,246.30099999999999,4.1224400000000001,-113.429,45.926499999999997,-68.7577,-71.334999999999994,-59.819699999999997
8783.0,213.87,-15.1279,-100.11,51.2303,-72.560299999999998,-53.381300000000003,-37.114199999999997
8784.0,163.79400000000001,-28.296099999999999,-84.2333,34.786999999999999,-64.717100000000002,-28.541599999999999,-19.853400000000001
8785.0,142.02199999999999,-22.5975,-66.693200000000004,43.970700000000001,-55.680700000000002,-20.9437,-8.9823900000000005
8786.0,161.04400000000001,-21.076699999999999,-65.424400000000006,73.617699999999999,-53.796700000000001,-26.360099999999999,-3.4265500000000002
8787.0,61.975900000000003,55.614400000000003,9.5390999999999995,41.310000000000002,-16.429400000000001,-3.4266800000000002,-21.036000000000001
8788.0,70.824799999999996,78.502200000000002,23.240200000000002,47.565600000000003,-22.898800000000001,-0.78220699999999999,-19.492799999999999
8789.0,78.444999999999993,78.331299999999999,15.351800000000001,37.377299999999998,-26.016400000000001,-0.18629299999999999,-18.784500000000001
8790.0,83.321399999999997,88.577600000000004,17.061499999999999,41.2729,-25.340900000000001,-1.64056,-18.606999999999999
8791.0,85.262900000000002,81.244600000000005,7.3216400000000004,33.68,-25.666799999999999,-4.2511599999999996,-18.5139
8792.0,71.531199999999998,77.207499999999996,12.0792,41.2425,-18.046299999999999,-5.0445500000000001,-17.034600000000001
8793.0,67.927499999999995,57.672600000000003,-4.1661400000000004,30.069199999999999,-13.367000000000001,-4.9862599999999997,-19.360700000000001
8794.0,80.041799999999995,58.1233,-9.3642199999999995,31.706600000000002,-18.621500000000001,-8.5729000000000006,-23.638300000000001
8795.0,87.775700000000001,47.640000000000001,-20.509399999999999,23.510000000000002,-24.774000000000001,-12.6919,-24.480699999999999
8796.0,93.900199999999998,62.4495,-13.8674,25.736899999999999,-28.5076,-15.532999999999999,-20.6968
8797.0,110.33499999999999,100.02500000000001,2.3267199999999999,28.542200000000001,-30.8567,-20.4285,-11.4655
8798.0,126.968,124.55800000000001,13.9087,44.977800000000002,-24.6188,-37.582500000000003,-9.9107500000000002
8799.0,135.87799999999999,38.4895,-69.706800000000001,-15.203099999999999,-25.741800000000001,-45.971400000000003,-21.251300000000001
8800.0,142.66900000000001,4.1259899999999998,-114.84,-50.191499999999998,-34.456200000000003,-34.147100000000002,-29.740400000000001
8801.0,156.48699999999999,4.1601600000000003,-133.10300000000001,-48.823099999999997,-23.055399999999999,-35.946199999999997,-39.334099999999999
8802.0,165.93299999999999,0.48441400000000001,-146.00999999999999,-68.611900000000006,-18.401800000000001,-37.616399999999999,-45.314399999999999
8803.0,162.64500000000001,69.4983,-68.369699999999995,-8.8004200000000008,-21.949000000000002,-47.593400000000003,-35.914200000000001
8804.0,161.88499999999999,79.653899999999993,-43.213000000000001,34.857799999999997,-16.860299999999999,-57.429900000000004,-35.871499999999997
8805.0,155.137,44.410200000000003,-67.578599999999994,19.151700000000002,-23.5307,-47.006799999999998,-42.530700000000003
8806.0,152.22,29.865600000000001,-72.898200000000003,14.9975,-32.894199999999998,-39.777700000000003,-44.438699999999997
8807.0,145.51300000000001,15.011900000000001,-74.074200000000005,17.508800000000001,-38.740699999999997,-38.491500000000002,-36.795000000000002
8808.0,135.239,21.577999999999999,-56.787399999999998,34.471299999999999,-38.174999999999997,-36.757800000000003,-29.133600000000001
8809.0,167.47300000000001,15.7103,-80.781899999999993,31.910399999999999,-41.599299999999999,-49.503999999999998,-38.154899999999998
8810.0,216.85300000000001,18.805199999999999,-94.912199999999999,55.105400000000003,-49.739800000000002,-67.579099999999997,-50.083399999999997
8811.0,198.929,-2.1160899999999998,-92.830100000000002,58.407800000000002,-58.758699999999997,-53.803899999999999,-32.393300000000004
8812.0,157.05000000000001,-14.560700000000001,-78.737899999999996,44.086599999999997,-55.930500000000002,-30.497900000000001,-19.729099999999999
8813.0,139.452,-18.162700000000001,-66.524600000000007,48.382399999999997,-50.865200000000002,-22.581499999999998,-7.5287699999999997
8814.0,142.80600000000001,-9.4143399999999993,-51.724200000000003,75.834900000000005,-45.196800000000003,-23.0976,-0.281607
8815.0,57.899799999999999,69.474699999999999,27.8401,57.937899999999999,-16.5017,-3.5544699999999998,-19.2471
8816.0,68.530600000000007,74.728099999999998,24.293399999999998,47.443100000000001,-24.3689,-1.7204299999999999,-18.2027
8817.0,75.018000000000001,97.014200000000002,36.723399999999998,59.552,-25.608000000000001,-0.0057808199999999999,-17.133099999999999
8818.0,79.313299999999998,88.034099999999995,21.891100000000002,44.9392,-26.473600000000001,-2.21252,-16.245100000000001
8819.0,70.5,90.904700000000005,31.8843,55.334299999999999,-23.5366,-4.16317,-14.225
8820.0,53.385300000000001,60.987900000000003,13.884499999999999,39.4634,-14.247,-4.4034700000000004,-13.098699999999999
8821.0,57.667299999999997,70.423100000000005,19.300999999999998,51.351199999999999,-12.5983,-4.6453100000000003,-16.1496
8822.0,69.127899999999997,52.593200000000003,-6.5020100000000003,31.744900000000001,-16.859100000000002,-7.2577299999999996,-18.9129
8823.0,75.631600000000006,65.017700000000005,2.82721,42.571300000000001,-21.6098,-9.8925000000000001,-18.7089
8824.0,85.790999999999997,69.875799999999998,-6.6607000000000003,25.083100000000002,-25.0595,-12.840299999999999,-13.485900000000001
8825.0,105.258,120.467,24.099399999999999,43.358699999999999,-25.1814,-20.368200000000002,-6.6013000000000002
8826.0,117.51900000000001,93.469300000000004,-8.4259799999999991,27.794,-20.0365,-38.419899999999998,-7.6180899999999996
8827.0,123.405,13.271599999999999,-92.525400000000005,-37.266800000000003,-24.9664,-38.026000000000003,-14.382400000000001
8828.0,127.764,18.992100000000001,-98.709500000000006,-49.828400000000002,-26.501899999999999,-31.703499999999998,-15.400499999999999
8829.0,134.39099999999999,34.881700000000002,-86.5715,-24.991499999999998,-13.323,-41.225099999999998,-21.339200000000002
8830.0,144.43799999999999,2.2282799999999998,-124.723,-53.4604,-9.3765000000000001,-39.532299999999999,-35.411499999999997
8831.0,145.66,49.265500000000003,-80.756799999999998,-23.661200000000001,-17.420200000000001,-41.329599999999999,-28.518799999999999
8832.0,142.60599999999999,89.1661,-27.928100000000001,39.926099999999998,-12.844900000000001,-52.106000000000002,-21.027699999999999
8833.0,137.46799999999999,68.510900000000007,-33.369799999999998,50.5777,-11.7972,-48.713999999999999,-28.7896
8834.0,130.40299999999999,42.979999999999997,-53.008000000000003,28.0321,-21.152799999999999,-39.103099999999998,-32.0062
8835.0,122.614,38.509999999999998,-44.8386,38.887999999999998,-25.244700000000002,-36.839599999999997,-26.281500000000001
8836.0,108.03700000000001,28.1508,-40.878799999999998,34.945599999999999,-24.4284,-32.360999999999997,-22.058299999999999
8837.0,119.592,30.530000000000001,-42.964199999999998,41.200400000000002,-26.657299999999999,-35.187800000000003,-26.810400000000001
8838.0,176.77099999999999,33.0274,-66.766400000000004,59.963299999999997,-31.575900000000001,-57.3142,-40.945799999999998
8839.0,182.154,21.800000000000001,-72.387799999999999,66.801199999999994,-43.1175,-54.306199999999997,-34.738500000000002
8840.0,152.99000000000001,-8.7638300000000005,-79.094999999999999,47.076599999999999,-48.255499999999998,-32.780900000000003,-20.0382
8841.0,140.506,-3.8044600000000002,-57.878500000000003,65.313199999999995,-46.372300000000003,-24.3033,-5.1681900000000001
8842.0,133.97,-8.6542300000000001,-51.467700000000001,72.201899999999995,-39.705399999999997,-21.2502,3.22207
8843.0,57.593299999999999,52.305,12.079700000000001,43.968800000000002,-17.792300000000001,-4.1472199999999999,-17.9206
8844.0,67.529200000000003,71.977099999999993,26.904299999999999,51.331499999999998,-26.182200000000002,-3.3757100000000002,-17.722300000000001
8845.0,75.448400000000007,73.691999999999993,16.2195,40.051299999999998,-28.070499999999999,-1.1408499999999999,-16.566199999999998
8846.0,72.532200000000003,84.714399999999998,27.339300000000001,48.299199999999999,-26.817499999999999,-2.7112599999999998,-13.5732
8847.0,54.733400000000003,64.356399999999994,19.1554,39.935400000000001,-18.690000000000001,-3.61775,-11.1485
8848.0,47.259799999999998,58.377499999999998,18.174600000000002,44.964399999999998,-12.4535,-4.07334,-12.4031
8849.0,51.9529,46.037700000000001,0.93919200000000003,33.516199999999998,-11.850199999999999,-4.08352,-14.1638
8850.0,58.794199999999996,54.221800000000002,3.8989400000000001,39.700600000000001,-14.848800000000001,-5.71035,-15.1104
8851.0,65.792199999999994,53.066099999999999,-4.2960399999999996,29.763999999999999,-18.931000000000001,-8.0135900000000007,-13.712199999999999
8852.0,80.163600000000002,90.690799999999996,15.3477,36.415199999999999,-22.032299999999999,-10.0718,-6.6455099999999998
8853.0,97.519000000000005,118.879,28.221299999999999,46.7577,-18.798200000000001,-22.7898,-1.8042199999999999
8854.0,107.352,67.947400000000002,-25.154199999999999,11.4214,-17.729800000000001,-36.090600000000002,-4.9435099999999998
8855.0,112.401,26.2666,-76.219999999999999,-34.302399999999999,-21.848500000000001,-31.9238,-7.7421499999999996
8856.0,121.003,44.666200000000003,-68.350200000000001,-34.570500000000003,-15.9422,-35.088500000000003,-5.4642299999999997
8857.0,123.08799999999999,48.990400000000001,-60.407699999999998,-17.690999999999999,-7.3270200000000001,-43.505899999999997,-7.99498
8858.0,125.51300000000001,5.7711699999999997,-104.214,-39.602600000000002,-2.5108700000000002,-40.7211,-23.056699999999999
8859.0,129.75999999999999,27.315300000000001,-90.242699999999999,-38.936399999999999,-11.1959,-38.476100000000002,-23.090499999999999
8860.0,129.48500000000001,106.44799999999999,1.4810300000000001,50.9041,-10.898099999999999,-50.368099999999998,-13.2469
8861.0,127.006,77.098100000000002,-10.829700000000001,61.898299999999999,-3.8357399999999999,-53.337899999999998,-17.566500000000001
8862.0,113.003,48.741900000000001,-35.903100000000002,35.537700000000001,-7.7211499999999997,-40.743699999999997,-21.518999999999998
8863.0,99.6982,49.806199999999997,-23.017099999999999,46.954099999999997,-12.252800000000001,-34.1462,-17.202500000000001
8864.0,93.649500000000003,33.111800000000002,-30.341799999999999,36.304499999999997,-16.071000000000002,-30.939900000000002,-17.169799999999999
8865.0,95.663600000000002,21.294699999999999,-39.771599999999999,29.803899999999999,-18.5242,-29.0307,-20.5962
8866.0,136.40899999999999,30.939299999999999,-49.3035,52.204700000000003,-19.756699999999999,-44.372100000000003,-31.2636
8867.0,161.42099999999999,24.3919,-64.277100000000004,57.795999999999999,-28.3339,-51.260199999999998,-35.709899999999998
8868.0,138.90100000000001,7.9894600000000002,-58.927399999999999,58.494599999999998,-37.176900000000003,-34.656599999999997,-19.4556
8869.0,133.822,-0.436496,-53.601900000000001,68.311199999999999,-38.789900000000003,-26.681799999999999,-4.1142899999999996
8870.0,130.99799999999999,1.9391700000000001,-42.399799999999999,81.733900000000006,-34.7746,-23.1983,3.9611700000000001
8871.0,59.3005,60.596899999999998,22.593399999999999,56.498699999999999,-19.8935,-5.4455400000000003,-17.654299999999999
8872.0,69.313999999999993,68.711100000000002,26.5931,54.871000000000002,-28.149100000000001,-5.1093799999999998,-17.948499999999999
8873.0,74.503600000000006,83.610100000000003,31.174800000000001,58.348500000000001,-29.819900000000001,-2.8009200000000001,-16.294799999999999
8874.0,67.623599999999996,79.305800000000005,29.219100000000001,53.722799999999999,-26.633900000000001,-3.7287400000000002,-13.182600000000001
8875.0,52.949800000000003,71.543800000000005,29.908799999999999,55.9803,-18.5746,-4.4647699999999997,-11.2713
8876.0,47.150199999999998,50.6038,12.456899999999999,45.084699999999998,-12.201499999999999,-3.9784700000000002,-12.300700000000001
8877.0,48.6477,57.572299999999998,17.2468,52.321100000000001,-11.122199999999999,-3.6469800000000001,-13.0845
8878.0,51.804299999999998,53.537700000000001,9.9252300000000009,44.6419,-13.3932,-4.3019800000000004,-12.8688
8879.0,58.704799999999999,65.808700000000002,11.921900000000001,40.806800000000003,-16.6553,-6.0272399999999999,-10.383699999999999
8880.0,76.272000000000006,101.715,29.665099999999999,44.0762,-19.076699999999999,-9.5712700000000002,-5.4852999999999996
8881.0,89.881600000000006,111.53,30.458300000000001,51.412799999999997,-15.443300000000001,-25.890899999999998,-3.62046
8882.0,98.692800000000005,32.825499999999998,-52.987299999999998,-19.2986,-18.019200000000001,-32.000399999999999,-5.3628
8883.0,106.863,35.982199999999999,-62.701799999999999,-36.480899999999998,-18.448899999999998,-29.025600000000001,-3.30504
8884.0,120.27800000000001,61.423499999999997,-44.317500000000003,-22.758500000000002,-8.1144400000000001,-40.417900000000003,0.853294
8885.0,117.818,50.383400000000002,-48.577800000000003,-20.843699999999998,-3.7953299999999999,-44.790500000000002,-0.69995700000000005
8886.0,111.06,17.437999999999999,-76.199399999999997,-24.299499999999998,0.83137899999999998,-41.9392,-12.2973
8887.0,114.68300000000001,14.547000000000001,-87.452699999999993,-39.111699999999999,-5.82376,-37.363500000000002,-18.728200000000001
8888.0,122.196,76.019199999999998,-21.8979,16.2852,-10.823700000000001,-48.088099999999997,-10.5845
8889.0,123.733,92.513400000000004,11.222200000000001,71.256799999999998,-1.07586,-56.607300000000002,-10.970000000000001
8890.0,106.438,58.470700000000001,-7.3320600000000002,60.397399999999998,-2.1309499999999999,-41.683300000000003,-23.398499999999999
8891.0,88.240899999999996,41.613900000000001,-15.823600000000001,36.9741,-15.116,-29.559799999999999,-21.7986
8892.0,84.594499999999996,42.974600000000002,-14.632999999999999,39.028599999999997,-17.331399999999999,-28.9237,-14.5883
8893.0,84.757000000000005,38.578299999999999,-13.718500000000001,51.551200000000001,-11.439399999999999,-28.1188,-16.708100000000002
8894.0,101.23999999999999,34.973199999999999,-25.6203,52.316299999999998,-11.7575,-33.4129,-22.0778
8895.0,132.41999999999999,37.836100000000002,-39.792700000000004,63.456099999999999,-16.7075,-42.000700000000002,-30.187799999999999
8896.0,132.434,16.682099999999998,-53.498899999999999,62.951900000000002,-27.113,-36.244599999999998,-18.964500000000001
8897.0,126.2,15.185700000000001,-39.669899999999998,79.867999999999995,-30.305800000000001,-28.108799999999999,-4.4576000000000002
8898.0,122.259,8.1581899999999994,-35.926400000000001,82.989900000000006,-27.4115,-24.7559,2.0364399999999998
8899.0,58.933300000000003,45.046100000000003,10.7178,46.225499999999997,-21.085599999999999,-6.4584999999999999,-16.267399999999999
8900.0,73.386700000000005,61.325800000000001,21.374600000000001,53.922199999999997,-31.314699999999998,-6.5379899999999997,-17.892299999999999
8901.0,72.5107,56.8812,8.9198199999999996,42.049700000000001,-29.6419,-4.2760300000000004,-15.8965
8902.0,63.774700000000003,66.125100000000003,18.990600000000001,51.261600000000001,-24.046299999999999,-4.2138299999999997,-13.3825
8903.0,55.866100000000003,50.847799999999999,7.0852899999999996,41.711799999999997,-18.468499999999999,-4.3571400000000002,-12.1381
8904.0,48.045099999999998,46.718699999999998,9.6958500000000001,47.261699999999998,-12.519600000000001,-3.9691000000000001,-11.5436
8905.0,45.965699999999998,34.843600000000002,-0.60385800000000001,36.6509,-11.0139,-3.2985000000000002,-11.4373
8906.0,47.423099999999998,47.7318,8.13598,42.744700000000002,-12.5413,-3.2802699999999998,-10.7949
8907.0,54.6295,62.447099999999999,10.801600000000001,35.528100000000002,-15.93,-3.1857799999999998,-7.9790400000000004
8908.0,70.820800000000006,93.996899999999997,26.215399999999999,44.3765,-16.152899999999999,-11.753500000000001,-6.4607999999999999
8909.0,84.291600000000003,58.776499999999999,-15.975300000000001,14.175700000000001,-15.0322,-25.811199999999999,-7.8620599999999996
8910.0,91.821399999999997,17.1493,-67.386499999999998,-33.226300000000002,-18.428000000000001,-24.924099999999999,-6.4105499999999997
8911.0,105.601,47.360199999999999,-50.8063,-30.335699999999999,-14.922499999999999,-28.494,-0.73530499999999999
8912.0,121.97799999999999,66.922700000000006,-34.488300000000002,-18.9663,-5.10893,-44.017600000000002,3.4901800000000001
8913.0,114.914,54.098100000000002,-37.300699999999999,-18.6859,-1.4547300000000001,-45.384799999999998,2.6215799999999998
8914.0,102.3,22.908799999999999,-56.486199999999997,-18.4709,2.9279999999999999,-43.3797,-4.6077199999999996
8915.0,101.845,11.744899999999999,-77.664299999999997,-33.8733,0.75743400000000005,-36.646700000000003,-10.7311
8916.0,116.867,73.384900000000002,-24.680199999999999,8.2504200000000001,-3.56399,-45.244199999999999,-1.50685
8917.0,122.57899999999999,109.151,30.302399999999999,81.622299999999996,1.88002,-58.240400000000001,-3.4055200000000001
8918.0,105.23699999999999,5.5256100000000004,-47.645899999999997,30.470800000000001,-1.26976,-36.296399999999998,-27.940100000000001
8919.0,88.689999999999998,-48.924599999999998,-111.904,-58.329799999999999,-20.7637,-16.606000000000002,-27.584700000000002
8920.0,81.201400000000007,37.5702,-26.145600000000002,17.183700000000002,-19.2807,-24.512499999999999,-12.903
8921.0,77.8232,37.7729,-3.7695500000000002,59.677999999999997,-4.9500299999999999,-27.8096,-13.505800000000001
8922.0,75.660700000000006,22.2607,-22.815300000000001,36.263599999999997,-6.8332899999999999,-25.923200000000001,-15.3765
8923.0,102.76600000000001,32.278399999999998,-25.722999999999999,54.180900000000001,-9.9609000000000005,-33.555599999999998,-24.296900000000001
8924.0,126.39100000000001,22.3673,-41.168799999999997,69.533000000000001,-20.914400000000001,-38.5852,-17.680900000000001
8925.0,121.77500000000001,15.151999999999999,-37.647199999999998,78.770899999999997,-25.620699999999999,-29.4937,-4.3225899999999999
8926.0,112.504,13.0229,-28.2835,82.934799999999996,-22.165400000000002,-23.7469,1.8056300000000001
8927.0,63.6843,56.639099999999999,24.779,64.674199999999999,-23.8751,-8.54955,-16.2349
8928.0,79.040300000000002,52.973399999999998,15.2829,54.5242,-34.491199999999999,-8.4692399999999992,-18.090800000000002
8929.0,74.041899999999998,70.397199999999998,22.6417,65.494900000000001,-29.1861,-5.4934900000000004,-15.9757
8930.0,64.746499999999997,59.226100000000002,11.7562,53.019399999999997,-22.984000000000002,-4.7493299999999996,-13.4457
8931.0,55.183399999999999,65.875799999999998,23.116,64.374200000000002,-16.461200000000002,-3.9005000000000001,-11.835100000000001
8932.0,48.9298,45.479100000000003,9.09938,50.438899999999997,-12.098100000000001,-3.7770999999999999,-11.3095
8933.0,46.707700000000003,56.633699999999997,23.693200000000001,64.520300000000006,-11.200200000000001,-3.0480800000000001,-11.1107
8934.0,45.280700000000003,44.0199,7.1829099999999997,42.726999999999997,-12.1502,-2.6695199999999999,-9.5755199999999991
8935.0,52.170299999999997,82.815100000000001,33.560200000000002,54.590200000000003,-16.0625,-0.66177600000000003,-6.16275
8936.0,65.480199999999996,86.303100000000001,22.450299999999999,47.2836,-14.1371,-13.5228,-3.2294800000000001
8937.0,79.529200000000003,26.449400000000001,-47.978900000000003,-6.9639300000000004,-13.757899999999999,-22.4406,-5.0724400000000003
8938.0,87.136399999999995,7.1709300000000002,-79.260900000000007,-44.832799999999999,-15.9902,-18.705200000000001,-5.65625
8939.0,105.297,57.765500000000003,-40.048499999999997,-21.953800000000001,-10.7075,-29.542100000000001,-0.203458
8940.0,122.38200000000001,64.524299999999997,-34.4482,-22.3611,-3.4995599999999998,-45.204300000000003,4.6509799999999997
8941.0,114.34099999999999,61.994199999999999,-25.225899999999999,-11.523,0.50280599999999998,-46.313699999999997,3.5707300000000002
8942.0,99.642300000000006,19.889099999999999,-51.816200000000002,-22.020199999999999,4.0953299999999997,-44.6419,-1.4890000000000001
8943.0,95.2697,25.953700000000001,-50.9039,-18.4146,5.4661299999999997,-38.204000000000001,-6.8907499999999997
8944.0,111.419,98.037099999999995,14.7333,31.042000000000002,3.2685499999999998,-46.647500000000001,1.56216
8945.0,116.458,125.92700000000001,58.994199999999999,96.760099999999994,3.40022,-57.937100000000001,5.1399499999999998
8946.0,99.823800000000006,5.16242,-45.912999999999997,44.200800000000001,2.6969500000000002,-30.269500000000001,-18.864899999999999
8947.0,87.900499999999994,-46.6267,-124.408,-60.2562,-13.9207,-5.1935200000000004,-25.090599999999998
8948.0,77.852599999999995,49.645299999999999,-22.392800000000001,13.654299999999999,-14.090299999999999,-19.543700000000001,-11.9366
8949.0,69.529200000000003,55.095599999999997,23.219100000000001,79.725200000000001,-0.62145700000000004,-25.800899999999999,-11.947800000000001
8950.0,62.482700000000001,23.186900000000001,-14.6639,35.3889,-6.0463699999999996,-20.248799999999999,-13.1776
8951.0,88.588999999999999,45.846699999999998,-7.03573,64.224999999999994,-7.7638100000000003,-27.394500000000001,-20.8933
8952.0,114.473,29.398700000000002,-30.370100000000001,70.737799999999993,-12.706099999999999,-36.426400000000001,-17.195699999999999
8953.0,113.944,30.422799999999999,-20.5305,89.409099999999995,-19.1937,-30.0045,-5.66059
8954.0,106.149,15.0573,-24.640999999999998,81.104699999999994,-18.3504,-23.763000000000002,1.0288600000000001
8955.0,66.389300000000006,38.833300000000001,11.686299999999999,53.083799999999997,-26.437799999999999,-9.8820599999999992,-15.1746
8956.0,83.041700000000006,39.579999999999998,7.4347700000000003,49.856200000000001,-37.378799999999998,-10.026199999999999,-17.640599999999999
8957.0,78.445700000000002,45.577199999999998,-2.7336499999999999,48.932099999999998,-30.362500000000001,-6.3033799999999998,-15.933199999999999
8958.0,67.331500000000005,49.674999999999997,-0.135404,50.610100000000003,-21.8185,-4.8360000000000003,-12.9962
8959.0,54.084099999999999,44.212800000000001,3.44184,49.7712,-14.386900000000001,-3.6415999999999999,-10.7172
8960.0,48.525199999999998,36.257599999999996,1.0449900000000001,45.6661,-11.2577,-3.1415899999999999,-9.7491199999999996
8961.0,46.790100000000002,30.710599999999999,-1.0002800000000001,43.020200000000003,-10.824400000000001,-2.3339099999999999,-9.5572199999999992
8962.0,43.696899999999999,38.246499999999997,3.03294,40.093299999999999,-11.579599999999999,-1.6754500000000001,-7.9645299999999999
8963.0,48.614400000000003,75.3322,28.098700000000001,46.049100000000003,-14.119300000000001,0.35519600000000001,-4.4554400000000003
8964.0,60.110700000000001,86.691800000000001,28.723199999999999,47.942900000000002,-11.8169,-13.8696,0.74415200000000004
8965.0,72.767899999999997,33.857399999999998,-35.970399999999998,-1.13147,-10.5855,-20.819600000000001,0.75248099999999996
8966.0,83.144099999999995,23.841000000000001,-61.562199999999997,-31.853100000000001,-11.1929,-17.1769,-2.07111
8967.0,103.919,60.2089,-35.697200000000002,-20.0243,-7.2921699999999996,-29.988800000000001,0.62676699999999996
8968.0,120.29000000000001,66.439499999999995,-29.1572,-19.912500000000001,-2.3613900000000001,-44.913600000000002,4.4995000000000003
8969.0,116.02,62.117800000000003,-23.421099999999999,-11.029999999999999,1.4599800000000001,-48.311100000000003,3.7336100000000001
8970.0,100.989,32.969000000000001,-37.833599999999997,-14.343999999999999,4.9355500000000001,-45.545299999999997,0.56178799999999995
8971.0,90.965000000000003,17.937799999999999,-46.463200000000001,-20.154499999999999,7.3024699999999996,-40.009300000000003,-7.4629200000000004
8972.0,99.756299999999996,68.246600000000001,2.44048,12.349299999999999,2.21868,-44.906999999999996,-6.0574700000000004
8973.0,104.617,117.607,59.988900000000001,81.031300000000002,-1.19052,-52.726399999999998,4.0786199999999999
8974.0,94.511799999999994,22.1434,-17.2212,63.779699999999998,3.9440599999999999,-34.293700000000001,-12.048500000000001
8975.0,79.161799999999999,-57.582700000000003,-123.083,-63.492800000000003,-7.55307,-6.3022600000000004,-26.0655
8976.0,70.620099999999994,37.948300000000003,-28.658000000000001,-4.1949899999999998,-11.1967,-14.642099999999999,-13.6927
8977.0,61.0535,43.141199999999998,15.719099999999999,64.215400000000002,1.1814800000000001,-23.672599999999999,-9.45458
8978.0,56.225200000000001,11.2333,-22.739799999999999,24.6752,-3.0387400000000002,-17.520800000000001,-11.847799999999999
8979.0,77.472099999999998,27.561699999999998,-21.974499999999999,43.300899999999999,-7.5002500000000003,-22.0793,-17.218800000000002
8980.0,99.874200000000002,28.895199999999999,-23.184100000000001,66.392499999999998,-10.1629,-31.204799999999999,-14.973800000000001
8981.0,104.855,25.725100000000001,-21.2532,80.395200000000003,-15.294700000000001,-28.718800000000002,-4.2562100000000003
8982.0,103.06999999999999,20.7273,-19.291599999999999,84.202600000000004,-14.716900000000001,-24.486699999999999,-1.1734100000000001
8983.0,68.043599999999998,51.296199999999999,29.9831,71.455299999999994,-28.2303,-10.9048,-14.0481
8984.0,86.087900000000005,41.787599999999998,11.6058,59.8048,-38.744,-10.3582,-16.397300000000001
8985.0,81.865099999999998,58.127600000000001,8.9105799999999995,71.146900000000002,-30.123899999999999,-7.0693000000000001,-14.107200000000001
8986.0,71.649000000000001,47.139600000000002,-4.9010999999999996,57.057499999999997,-20.982399999999998,-4.8230300000000002,-11.836
8987.0,59.264400000000002,57.998199999999997,14.270200000000001,70.560000000000002,-13.709300000000001,-3.6915800000000001,-9.8033699999999993
8988.0,51.501399999999997,42.439700000000002,6.9923299999999999,58.025199999999998,-10.632199999999999,-2.7551299999999999,-8.9180799999999998
8989.0,48.100499999999997,55.401499999999999,24.134,71.753100000000003,-10.4411,-1.5268200000000001,-8.6278199999999998
8990.0,42.762999999999998,45.433900000000001,10.392200000000001,48.497,-10.536,-0.66962999999999995,-7.0632799999999998
8991.0,46.3217,88.122500000000002,40.426400000000001,58.6145,-11.055199999999999,0.30729800000000002,-3.6756799999999998
8992.0,56.620699999999999,99.181700000000006,44.557200000000002,56.862400000000001,-8.6002700000000001,-13.0108,2.0878199999999998
8993.0,67.163499999999999,57.130800000000001,-4.5831400000000002,15.492699999999999,-7.03939,-21.312899999999999,2.9925000000000002
8994.0,79.081299999999999,32.111600000000003,-46.558700000000002,-26.579599999999999,-7.3875500000000001,-18.907800000000002,-0.62800299999999998
8995.0,100.035,57.244700000000002,-33.807099999999998,-20.994700000000002,-5.6434100000000003,-29.565100000000001,0.59527600000000003
8996.0,116.59099999999999,65.990700000000004,-26.053100000000001,-17.065899999999999,-2.6060300000000001,-43.987299999999998,3.7738299999999998
8997.0,116.78400000000001,62.2044,-21.835000000000001,-9.0812000000000008,0.52776699999999999,-49.773800000000001,4.1560499999999996
8998.0,103.54300000000001,40.935299999999998,-28.9038,-11.680300000000001,3.6652900000000002,-47.235599999999998,2.31149
8999.0,85.715100000000007,20.531400000000001,-37.197200000000002,-8.3661600000000007,7.2631199999999998,-39.273000000000003,-4.5566599999999999
9000.0,83.447999999999993,2.4877199999999999,-59.292000000000002,-33.161900000000003,0.74992199999999998,-35.994700000000002,-7.9542200000000003
9001.0,93.122500000000002,83.125699999999995,23.398099999999999,41.115299999999998,-8.1911100000000001,-43.378500000000003,-0.88688
9002.0,86.516099999999994,51.658900000000003,18.167999999999999,84.447299999999998,-0.47187699999999999,-36.611499999999999,-7.4901600000000004
9003.0,73.881100000000004,-51.324100000000001,-104.661,-39.847499999999997,-3.7937400000000001,-7.4639699999999998,-23.518799999999999
9004.0,69.607299999999995,26.5214,-39.597299999999997,-15.322699999999999,-11.7403,-7.61456,-17.337800000000001
9005.0,55.187899999999999,61.814300000000003,30.8111,73.578299999999999,-2.1474099999999998,-21.038799999999998,-8.9378100000000007
9006.0,51.266599999999997,33.514000000000003,5.5053299999999998,51.7639,-1.7447600000000001,-16.518699999999999,-7.5680899999999998
9007.0,57.275199999999998,41.505499999999998,3.6716099999999998,56.532299999999999,-5.9240500000000003,-15.0845,-9.4307200000000009
9008.0,87.354299999999995,32.840600000000002,-13.5707,67.482500000000002,-8.78416,-26.608499999999999,-10.2211
9009.0,100.649,38.383899999999997,-8.77637,89.208699999999993,-13.3803,-28.022500000000001,-3.32938
9010.0,100.875,21.454499999999999,-18.746300000000002,83.651600000000002,-12.510899999999999,-23.796700000000001,-2.7325699999999999
9011.0,76.329800000000006,27.487300000000001,10.177,54.715899999999998,-33.078299999999999,-11.8797,-14.2357
9012.0,94.264300000000006,25.059899999999999,-2.2973300000000001,53.441600000000001,-42.747700000000002,-11.557,-14.9732
9013.0,83.435599999999994,26.232700000000001,-17.2987,49.571599999999997,-31.232099999999999,-7.9625899999999996,-11.391400000000001
9014.0,74.227800000000002,40.023400000000002,-12.222200000000001,56.9238,-20.576899999999998,-4.3620099999999997,-9.7343299999999999
9015.0,63.009,31.778400000000001,-15.542199999999999,47.918199999999999,-12.360200000000001,-3.47465,-8.4086599999999994
9016.0,51.0197,32.143500000000003,-2.11117,50.709000000000003,-9.7571999999999992,-2.1415999999999999,-7.0622299999999996
9017.0,45.862200000000001,23.047499999999999,-6.6096599999999999,40.393599999999999,-10.013299999999999,-0.56355,-5.9643100000000002
9018.0,41.439900000000002,45.672499999999999,8.8596699999999995,46.843899999999998,-9.1197400000000002,0.26282299999999997,-4.7562899999999999
9019.0,45.2258,78.307000000000002,28.925899999999999,47.789099999999998,-7.0700399999999997,-0.93913500000000005,-3.1589
9020.0,54.128700000000002,96.350200000000001,43.6798,52.581600000000002,-4.1752500000000001,-12.818099999999999,0.23074600000000001
9021.0,62.179200000000002,55.816899999999997,0.383183,12.5648,-4.6001099999999999,-20.4239,1.3347800000000001
9022.0,74.326499999999996,33.324800000000003,-38.5167,-24.5015,-5.6769400000000001,-18.9025,-1.3004800000000001
9023.0,93.674400000000006,53.128,-31.533200000000001,-20.542300000000001,-4.2572900000000002,-28.063500000000001,0.090666300000000005
9024.0,110.342,60.549199999999999,-25.653099999999998,-16.389700000000001,-3.6039599999999998,-42.310699999999997,3.9897800000000001
9025.0,114.65300000000001,60.533799999999999,-20.104500000000002,-7.8775000000000004,-2.1860200000000001,-49.631399999999999,5.0033599999999998
9026.0,105.78,47.695399999999999,-20.258299999999998,-5.1177400000000004,1.1586399999999999,-49.426400000000001,3.5733999999999999
9027.0,82.984499999999997,18.908300000000001,-34.277900000000002,-6.33901,4.2640399999999996,-39.601199999999999,-1.11425
9028.0,71.070499999999996,-5.83507,-63.470999999999997,-25.4724,-1.0950899999999999,-28.382100000000001,-4.2847499999999998
9029.0,83.955299999999994,36.735599999999998,-31.161100000000001,-2.01118,-8.8631799999999998,-33.314,0.97842899999999999
9030.0,77.360799999999998,53.986800000000002,10.716100000000001,63.7973,-0.43782100000000002,-34.5717,1.3434699999999999
9031.0,69.271699999999996,-32.432299999999998,-77.4011,-7.2569499999999998,4.7888400000000004,-10.769,-14.0684
9032.0,67.596900000000005,-11.909700000000001,-80.010300000000001,-43.568199999999997,-5.7656200000000002,-3.3344900000000002,-17.816299999999998
9033.0,50.237000000000002,39.492699999999999,0.092304200000000003,37.034199999999998,-4.5336600000000002,-15.7989,-9.1597100000000005
9034.0,46.334899999999998,25.900400000000001,5.1159800000000004,46.790199999999999,-1.1242399999999999,-15.7753,-5.5973300000000004
9035.0,45.985399999999998,19.623100000000001,-8.8019200000000009,34.810699999999997,-4.0908899999999999,-12.4917,-6.4800000000000004
9036.0,77.459800000000001,35.0931,-7.4096900000000003,65.751300000000001,-7.0648099999999996,-23.1752,-7.9487300000000003
9037.0,95.1755,28.882999999999999,-18.329499999999999,74.761300000000006,-11.303000000000001,-26.668900000000001,-3.7208999999999999
9038.0,95.578000000000003,26.0959,-12.731,85.770600000000002,-11.3149,-21.328299999999999,-0.51260399999999995
9039.0,98.046599999999998,33.128799999999998,10.2829,70.420900000000003,-42.793900000000001,-13.6983,-16.244399999999999
9040.0,96.009200000000007,31.219899999999999,5.6746699999999999,66.7971,-42.3718,-12.0259,-13.7921
9041.0,76.493499999999997,47.456299999999999,13.0472,75.223500000000001,-29.059000000000001,-7.0981899999999998,-9.2444500000000005
9042.0,70.294600000000003,43.686500000000002,-2.3063600000000002,63.9634,-20.500599999999999,-4.25563,-7.4629399999999997
9043.0,65.541899999999998,54.605200000000004,6.0889199999999999,73.793999999999997,-12.511100000000001,-3.2898700000000001,-6.84809
9044.0,56.570399999999999,48.7789,9.7445599999999999,69.478499999999997,-9.8675899999999999,-1.91333,-6.7571300000000001
9045.0,46.526499999999999,59.976399999999998,28.440899999999999,76.952399999999997,-8.8423599999999993,0.174072,-6.1112200000000003
9046.0,39.3279,63.047600000000003,24.6187,58.209699999999998,-7.4830800000000002,2.0556000000000001,-4.1534199999999997
9047.0,45.978999999999999,96.387100000000004,44.552999999999997,62.534700000000001,-2.81107,-1.2188399999999999,-1.6176600000000001
9048.0,51.338700000000003,88.063599999999994,36.293199999999999,51.523600000000002,-0.061848100000000003,-13.005800000000001,-1.23071
9049.0,55.909999999999997,36.906199999999998,-16.166799999999999,2.44937,-3.8738600000000001,-17.196200000000001,-2.4823599999999999
9050.0,67.759900000000002,21.880400000000002,-44.920200000000001,-29.691400000000002,-4.5164600000000004,-16.788599999999999,-1.6011
9051.0,85.817700000000002,45.0276,-31.1083,-21.438700000000001,-2.6083099999999999,-27.008600000000001,0.79574800000000001
9052.0,100.25700000000001,57.541200000000003,-19.486799999999999,-11.822699999999999,-4.28803,-38.954999999999998,3.7505999999999999
9053.0,109.56100000000001,55.987400000000001,-19.9116,-7.7386100000000004,-5.5063700000000004,-47.714500000000001,5.7085999999999997
9054.0,107.61,49.2789,-20.135999999999999,-1.4979199999999999,-2.7069200000000002,-50.410400000000003,4.5527199999999999
9055.0,84.800899999999999,23.928000000000001,-27.736999999999998,2.35256,-0.046427900000000001,-41.5015,1.15164
9056.0,66.635900000000007,-8.3066800000000001,-59.149799999999999,-20.814499999999999,-4.9956800000000001,-27.401399999999999,-1.5739300000000001
9057.0,78.052400000000006,31.1403,-33.746899999999997,0.56438100000000002,-8.9063099999999995,-29.9511,-0.76212000000000002
9058.0,76.225700000000003,100.163,53.892600000000002,93.659700000000001,-0.92416200000000004,-36.170999999999999,-0.386407
9059.0,63.688499999999998,49.301200000000001,19.511500000000002,77.792500000000004,7.9360799999999996,-18.7818,-9.3289399999999993
9060.0,57.903500000000001,8.0259999999999998,-48.185400000000001,-6.0799099999999999,0.52367300000000006,-5.3222300000000002,-15.288600000000001
9061.0,50.649700000000003,54.949399999999997,6.8163299999999998,39.497799999999998,-5.6384800000000004,-10.732100000000001,-10.2089
9062.0,45.197400000000002,47.562800000000003,20.842099999999999,62.981900000000003,-3.9540999999999999,-12.334300000000001,-7.6538399999999998
9063.0,49.847900000000003,39.286799999999999,5.9927400000000004,54.629399999999997,-6.7551699999999997,-11.305899999999999,-6.0481499999999997
9064.0,70.406300000000002,38.380099999999999,-5.5818099999999999,63.536299999999997,-8.1998300000000004,-17.981100000000001,-6.1637599999999999
9065.0,82.965699999999998,39.295699999999997,-6.7454400000000003,75.891400000000004,-9.3533000000000008,-21.7224,-4.5211600000000001
9066.0,85.957300000000004,28.424399999999999,-9.7378599999999995,79.775199999999998,-11.4556,-17.398,3.3654799999999998
163882.0,5148.4300000000003,-4298.9899999999998,2.5681500000000002,828.58600000000001,-203.023,-1101.75,-27.936900000000001
163883.0,4919.1000000000004,-4132.5799999999999,13.752700000000001,1011.3,-198.84200000000001,-764.09400000000005,-36.922800000000002
163884.0,4690.2399999999998,-3930.5799999999999,12.029,1133.8,-200.697,-463.77999999999997,-48.453499999999998
163885.0,4473.3599999999997,-3690.6900000000001,30.915900000000001,1228.3199999999999,-207.624,-206.28700000000001,-67.113
163886.0,4295.5799999999999,-3493.3299999999999,24.272400000000001,1266.1400000000001,-221.642,10.4084,-82.095600000000005
163887.0,4185.8999999999996,-3293.6199999999999,50.003500000000003,1345.0599999999999,-240.93600000000001,211.374,-93.830799999999996
163888.0,4126.3000000000002,-3140.71,37.435200000000002,1388.99,-270.17399999999998,429.21800000000002,-103.15000000000001
163889.0,4121.8699999999999,-2951.7600000000002,76.220699999999994,1478.51,-315.185,652.67899999999997,-104.255
163890.0,4268.6499999999996,-2882.6700000000001,97.186199999999999,1535.4000000000001,-375.42099999999999,921.77700000000004,-72.812299999999993
163891.0,4837.0299999999997,-3087.5500000000002,80.569299999999998,1646.8900000000001,-454.54599999999999,1332.1800000000001,9.2312700000000003
163892.0,5942.4099999999999,-3634.0900000000001,-40.377099999999999,1832.0999999999999,-535.54300000000001,1940.5899999999999,-36.6327
163893.0,6973.46,-3765.1999999999998,96.507199999999997,2026.8800000000001,-597.83399999999995,2671.2399999999998,-137.57300000000001
163894.0,7504.6899999999996,-3587.8200000000002,213.66,1835.3299999999999,-664.077,3250.21,-141.34399999999999
163895.0,7749.5500000000002,-3266.3000000000002,228.767,1614.9300000000001,-754.96600000000001,3617.0300000000002,-196.00700000000001
163896.0,7731.8299999999999,-2728.7199999999998,216.02500000000001,1421.73,-824.56600000000003,3824.8800000000001,-242.636
163897.0,7424.4099999999999,-2342.8699999999999,168.87299999999999,1034.3,-869.87800000000004,3800.3600000000001,-312.07799999999997
163898.0,6494.0299999999997,-1854.23,303.404,517.45600000000002,-785.42100000000005,3408.3499999999999,-320.50599999999997
163899.0,5260.3000000000002,-1339.4300000000001,225.40700000000001,-396.31999999999999,-657.28599999999994,2856.1700000000001,-114.38800000000001
163900.0,4920.3400000000001,-806.01400000000001,201.054,-942.99300000000005,-643.98400000000004,2688.5100000000002,191.87299999999999
163901.0,5404.0299999999997,-789.81700000000001,-39.133699999999997,-1541.72,-739.88699999999994,2911.27,383.59199999999998
163902.0,5950.9300000000003,-642.01300000000003,-35.796599999999998,-1924.3199999999999,-861.93200000000002,3157.3400000000001,403.80900000000003
163903.0,6054.6400000000003,-317.01299999999998,-27.151399999999999,-2353.5999999999999,-889.92700000000002,3108.3000000000002,398.37700000000001
163904.0,5925.2399999999998,211.77699999999999,69.442999999999998,-2658.02,-866.73199999999997,2847.7199999999998,475.685
163905.0,5933.9499999999998,544.36800000000005,69.222899999999996,-2962.3899999999999,-861.226,2650.3899999999999,593.29600000000005
163906.0,6038.46,718.97699999999998,30.387499999999999,-3332.4099999999999,-828.80799999999999,2489.8800000000001,754.01199999999994
163907.0,6511.3599999999997,928.22699999999998,-110.384,-3923.0599999999999,-850.99599999999998,2441.1100000000001,961.44399999999996
163908.0,3898.0,-3293.0799999999999,26.6172,455.52499999999998,-296.60500000000002,-874.255,-55.860399999999998
163909.0,3771.5900000000001,-3244.3200000000002,14.9238,574.61599999999999,-280.601,-638.50400000000002,-42.977499999999999
163910.0,3623.1100000000001,-3118.02,30.505500000000001,685.96699999999998,-268.13400000000001,-408.61399999999998,-35.155299999999997
163911.0,3464.4400000000001,-2992.9000000000001,10.585800000000001,727.34400000000005,-259.05900000000003,-191.83600000000001,-32.513399999999997
163912.0,3319.71,-2810.7800000000002,33.493000000000002,791.96500000000003,-255.12200000000001,6.3715999999999999,-29.7925
163913.0,3196.5599999999999,-2660.1500000000001,18.467700000000001,808.55600000000004,-257.00099999999998,183.845,-31.059799999999999
163914.0,3086.1500000000001,-2489.3299999999999,29.0596,821.83100000000002,-264.12099999999998,338.44799999999998,-37.137300000000003
163915.0,2982.1999999999998,-2382.6900000000001,-15.484999999999999,754.28800000000001,-273.56299999999999,464.21800000000002,-36.792000000000002
163916.0,2913.5700000000002,-2298.73,-53.0092,688.80200000000002,-285.82299999999998,570.82600000000002,-47.717500000000001
163917.0,2906.3099999999999,-2211.8499999999999,-53.208199999999998,663.13599999999997,-312.97199999999998,690.94500000000005,-21.186900000000001
163918.0,3249.8699999999999,-2318.7399999999998,-66.093699999999998,755.10799999999995,-397.86200000000002,910.69200000000001,3.67232
163919.0,4227.2600000000002,-2821.04,-94.614400000000003,944.63400000000001,-513.53800000000001,1381.8,34.308199999999999
163920.0,5268.0299999999997,-3455.77,-246.58500000000001,681.25199999999995,-633.63400000000001,2032.5699999999999,73.591300000000004
163921.0,5910.6300000000001,-3456.1199999999999,-158.798,511.19900000000001,-769.44899999999996,2556.8499999999999,74.146100000000004
163922.0,6226.0200000000004,-3172.0300000000002,-10.926299999999999,563.57000000000005,-861.70299999999997,2851.4099999999999,42.939500000000002
163923.0,6246.8699999999999,-2988.6700000000001,81.344899999999996,507.68099999999998,-892.97699999999998,2927.71,18.3337
163924.0,6236.75,-3062.0999999999999,12.346,91.4268,-853.59299999999996,3000.5,14.120100000000001
163925.0,5808.1300000000001,-2781.3099999999999,-36.854100000000003,-709.01800000000003,-764.94200000000001,2934.3299999999999,54.682499999999997
163926.0,4876.8800000000001,-2061.3299999999999,-108.524,-1483.4000000000001,-674.30600000000004,2530.29,254.167
163927.0,4349.6300000000001,-1521.8599999999999,-163.84200000000001,-1785.4100000000001,-645.721,2216.5700000000002,468.09399999999999
163928.0,4550.0799999999999,-1259.55,-189.50800000000001,-2001.53,-691.35500000000002,2290.0300000000002,590.80100000000004
163929.0,5317.4899999999998,-951.48299999999995,-139.43199999999999,-2460.5799999999999,-774.221,2632.9400000000001,711.34400000000005
163930.0,6156.1300000000001,-753.30600000000004,-312.94900000000001,-3400.3800000000001,-883.923,2857.1999999999998,948.09500000000003
163931.0,6624.0200000000004,-648.81899999999996,-390.73000000000002,-4019.6999999999998,-974.31299999999999,2871.5900000000001,1153.5899999999999
163932.0,6759.1099999999997,-514.35699999999997,-449.69200000000001,-4481.8000000000002,-952.351,2700.4200000000001,1302.1300000000001
163933.0,6724.6999999999998,-206.84800000000001,-492.19499999999999,-4774.7799999999997,-893.78999999999996,2361.6500000000001,1466.1400000000001
163934.0,3005.3600000000001,-2479.5500000000002,35.790399999999998,374.47300000000001,-348.0,-672.15499999999997,-81.521799999999999
163935.0,2889.1900000000001,-2440.6300000000001,23.323799999999999,418.52600000000001,-339.19600000000003,-512.20399999999995,-68.880499999999998
163936.0,2767.9899999999998,-2360.2600000000002,34.743899999999996,464.56299999999999,-323.54399999999998,-359.88099999999997,-54.7851
163937.0,2657.2399999999998,-2281.9299999999998,38.432699999999997,491.392,-306.04300000000001,-211.94200000000001,-40.468000000000004
163938.0,2559.6799999999998,-2208.1700000000001,31.8522,497.31900000000002,-292.91800000000001,-71.205699999999993,-27.860299999999999
163939.0,2473.3200000000002,-2134.7199999999998,19.836099999999998,487.315,-282.024,57.033499999999997,-19.2621
163940.0,2406.0100000000002,-2047.4400000000001,24.753599999999999,489.40100000000001,-274.42599999999999,173.07400000000001,-10.710800000000001
163941.0,2382.25,-1967.53,39.882199999999997,518.22299999999996,-268.99400000000003,282.40699999999998,-3.5344899999999999
163942.0,2399.3299999999999,-1876.7,75.755799999999994,572.44299999999998,-274.70100000000002,408.96899999999999,-6.4605399999999999
163943.0,2422.3200000000002,-1823.55,60.726100000000002,559.76300000000003,-279.34500000000003,545.78099999999995,-4.4780600000000002
163944.0,2412.7800000000002,-1684.74,38.6297,519.61099999999999,-314.40600000000001,705.64999999999998,-17.084
163945.0,2399.1999999999998,-1454.79,101.29600000000001,607.63300000000004,-392.06200000000001,780.88,-2.8112499999999998
163946.0,2652.0100000000002,-1460.4100000000001,211.571,780.58100000000002,-454.995,882.52099999999996,40.517000000000003
163947.0,3299.8899999999999,-1884.3299999999999,138.167,660.73400000000004,-537.78499999999997,1234.9400000000001,93.004300000000001
163948.0,4184.8199999999997,-2523.96,-44.363300000000002,351.64600000000002,-681.35900000000004,1709.74,145.09800000000001
163949.0,4976.0,-3079.98,-108.005,188.33099999999999,-793.06799999999998,2084.3099999999999,114.733
163950.0,5338.5299999999997,-3093.1500000000001,47.033200000000001,110.129,-833.05499999999995,2332.1500000000001,113.03
163951.0,5359.3699999999999,-2892.8699999999999,45.2089,-333.322,-832.34699999999998,2508.1300000000001,190.53100000000001
163952.0,4844.54,-2248.1500000000001,116.42700000000001,-971.37400000000002,-768.21500000000003,2395.9299999999998,302.96100000000001
163953.0,4160.5299999999997,-1624.6700000000001,48.335900000000002,-1566.53,-642.56500000000005,2050.6900000000001,500.08999999999997
163954.0,4191.0500000000002,-1318.5,-56.238700000000001,-1953.5999999999999,-643.86000000000001,2006.1300000000001,695.02999999999997
163955.0,4890.1199999999999,-1276.4200000000001,-256.98500000000001,-2511.46,-780.57000000000005,2293.3800000000001,909.75800000000004
163956.0,5550.0500000000002,-1202.22,-315.68700000000001,-2991.5500000000002,-911.33100000000002,2523.3000000000002,1100.97
163957.0,5931.21,-1092.1500000000001,-392.71600000000001,-3500.1700000000001,-942.57399999999996,2560.3899999999999,1274.76
163958.0,6179.3599999999997,-850.86900000000003,-464.88799999999998,-3975.96,-932.64599999999996,2456.3899999999999,1455.1099999999999
163959.0,6188.2200000000003,-645.35900000000004,-572.024,-4352.3699999999999,-864.452,2167.8400000000001,1626.3
163960.0,2375.8600000000001,-1964.02,-28.478999999999999,300.50200000000001,-325.95100000000002,-521.28700000000003,-80.512299999999996
163961.0,2270.0500000000002,-1877.45,16.879999999999999,376.94799999999998,-316.28300000000002,-383.517,-62.002499999999998
163962.0,2183.3299999999999,-1851.6199999999999,-10.227499999999999,377.096,-312.524,-265.798,-51.674399999999999
163963.0,2099.3899999999999,-1772.0,9.3311700000000002,404.64499999999998,-309.46499999999997,-163.87200000000001,-44.482500000000002
163964.0,2007.0,-1707.1700000000001,5.54453,387.77699999999999,-302.56,-71.035799999999995,-37.040799999999997
163965.0,1921.1700000000001,-1604.21,43.2639,399.108,-294.94900000000001,15.929399999999999,-26.448799999999999
163966.0,1868.6500000000001,-1571.4100000000001,23.816199999999998,367.952,-288.86900000000003,98.235500000000002,-11.867699999999999
163967.0,1848.6400000000001,-1522.45,27.076599999999999,379.39999999999998,-285.52100000000002,184.166,-2.7724199999999999
163968.0,1850.71,-1516.8299999999999,-10.3553,353.92500000000001,-282.08199999999999,280.12,4.7504499999999998
163969.0,1892.74,-1444.3699999999999,20.927099999999999,394.75200000000001,-282.334,411.61799999999999,12.009
163970.0,1904.05,-1356.75,1.6586000000000001,348.69499999999999,-293.18400000000003,556.43799999999999,22.665400000000002
163971.0,1823.1500000000001,-1243.9000000000001,-28.7119,274.74400000000003,-304.20800000000003,607.27999999999997,27.953399999999998
163972.0,1777.47,-1297.3699999999999,-148.28200000000001,165.01400000000001,-329.70499999999998,592.60599999999999,19.5243
163973.0,1868.9100000000001,-1244.6600000000001,-44.540900000000001,296.41300000000001,-380.18900000000002,603.50300000000004,16.677099999999999
163974.0,2210.0100000000002,-1377.95,55.331000000000003,375.63900000000001,-460.33100000000002,733.15700000000004,81.443100000000001
163975.0,3096.7199999999998,-1953.5999999999999,10.0573,369.62299999999999,-628.70600000000002,1104.77,130.41300000000001
163976.0,3995.8800000000001,-2626.1100000000001,-87.606899999999996,221.81399999999999,-743.50800000000004,1519.8900000000001,133.20599999999999
163977.0,4307.8199999999997,-2639.3899999999999,-31.0367,-135.37200000000001,-793.495,1820.1800000000001,249.66
163978.0,4548.7700000000004,-2694.5500000000002,-155.642,-791.26900000000001,-849.86000000000001,2071.77,370.40199999999999
163979.0,4594.2799999999997,-2263.23,-189.88300000000001,-1581.6099999999999,-821.99900000000002,2210.6199999999999,597.12900000000002
163980.0,4629.8900000000003,-1799.95,-342.279,-2286.0999999999999,-821.53999999999996,2175.23,845.86099999999999
163981.0,4624.8999999999996,-1325.71,-325.983,-2472.1999999999998,-844.64599999999996,2050.3099999999999,1029.23
163982.0,4613.8599999999997,-1260.8599999999999,-428.49000000000001,-2612.0799999999999,-852.58699999999999,1975.7,1118.54
163983.0,4708.5200000000004,-1023.22,-391.38299999999998,-2722.4400000000001,-840.81100000000004,1935.27,1218.3699999999999
163984.0,4843.0699999999997,-917.13400000000001,-511.06599999999997,-3032.6199999999999,-818.15099999999995,1878.02,1337.55
163985.0,4972.6300000000001,-676.428,-507.08999999999997,-3247.9200000000001,-771.279,1774.77,1462.46
163986.0,1924.1600000000001,-1574.5,-42.923699999999997,271.00099999999998,-308.58199999999999,-398.83199999999999,-69.382599999999996
163987.0,1860.0799999999999,-1536.1300000000001,-23.893000000000001,318.28899999999999,-303.42099999999999,-291.428,-50.013199999999998
163988.0,1798.3699999999999,-1514.8699999999999,-42.287700000000001,327.37299999999999,-294.76400000000001,-199.21199999999999,-40.451700000000002
163989.0,1724.4100000000001,-1411.8299999999999,11.279400000000001,380.65499999999997,-284.11599999999999,-115.122,-37.960900000000002
163990.0,1642.23,-1402.6900000000001,-33.848100000000002,310.125,-275.06400000000002,-36.886499999999998,-31.327400000000001
163991.0,1570.3299999999999,-1314.1199999999999,0.82553399999999999,315.74599999999998,-269.71499999999997,36.505699999999997,-21.111699999999999
163992.0,1516.9300000000001,-1305.6400000000001,-42.615000000000002,251.083,-268.5,103.34,-10.465
163993.0,1483.48,-1196.01,27.064,301.02800000000002,-267.74099999999999,162.899,-1.39628
163994.0,1484.29,-1213.71,-16.010300000000001,245.56399999999999,-270.29500000000002,236.22,10.5525
163995.0,1492.7,-1127.9200000000001,24.098400000000002,277.32299999999998,-281.67000000000002,319.05900000000003,24.2653
163996.0,1487.99,-1141.8299999999999,-35.016599999999997,200.91499999999999,-287.04399999999998,374.69099999999997,36.192399999999999
163997.0,1500.6900000000001,-1035.1900000000001,59.033799999999999,264.09100000000001,-281.71300000000002,426.09500000000003,42.984699999999997
163998.0,1499.1400000000001,-999.48000000000002,60.5852,228.94399999999999,-283.291,472.54199999999997,45.569600000000001
163999.0,1474.9300000000001,-978.62,56.599400000000003,198.12799999999999,-301.36900000000003,469.14499999999998,38.500500000000002
164000.0,1500.74,-1207.96,-126.58499999999999,-11.4322,-331.32499999999999,451.09500000000003,41.916699999999999
164001.0,1812.22,-1373.6099999999999,-97.355599999999995,84.769400000000005,-435.67000000000002,514.08399999999995,95.607299999999995
164002.0,2781.4499999999998,-2033.8099999999999,-91.824399999999997,294.77600000000001,-575.38,822.50900000000001,118.52800000000001
164003.0,3534.02,-2458.8800000000001,-114.545,-34.4589,-706.60900000000004,1315.8900000000001,188.559
164004.0,3982.4299999999998,-2447.79,-132.67599999999999,-562.96900000000005,-820.79899999999998,1724.9100000000001,348.26799999999997
164005.0,4265.4700000000003,-2090.3000000000002,-204.947,-1218.5,-895.38499999999999,2004.9400000000001,594.07100000000003
164006.0,4192.7799999999997,-1587.3199999999999,-303.58699999999999,-1797.27,-880.22699999999998,1933.3900000000001,832.54600000000005
164007.0,3941.8899999999999,-1247.26,-363.245,-2022.03,-802.42999999999995,1705.6800000000001,968.17499999999995
164008.0,3834.6100000000001,-1136.04,-450.40499999999997,-2175.4200000000001,-747.55799999999999,1579.8800000000001,1045.0899999999999
164009.0,3883.4299999999998,-1030.76,-513.31399999999996,-2347.8000000000002,-729.51700000000005,1522.2,1132.74
164010.0,3954.5300000000002,-917.69600000000003,-583.71500000000003,-2521.4499999999998,-707.60199999999998,1456.2,1232.26
164011.0,4009.4200000000001,-736.07399999999996,-612.27700000000004,-2634.1799999999998,-669.75300000000004,1363.8299999999999,1328.73
164012.0,1631.54,-1261.5,-10.726900000000001,307.25900000000001,-299.63400000000001,-326.84699999999998,-54.205500000000001
164013.0,1567.5999999999999,-1328.29,-112.008,238.94800000000001,-293.83699999999999,-232.91800000000001,-45.520600000000002
164014.0,1496.73,-1170.1300000000001,12.5824,358.60599999999999,-283.053,-149.733,-40.057400000000001
164015.0,1428.98,-1265.1700000000001,-116.056,208.38499999999999,-273.47199999999998,-74.184899999999999,-29.2117
164016.0,1377.97,-1081.6700000000001,28.269100000000002,345.13,-266.82499999999999,-8.9001099999999997,-17.470600000000001
164017.0,1333.52,-1146.51,-77.103999999999999,228.88999999999999,-260.85000000000002,55.479999999999997,-11.5855
164018.0,1286.6700000000001,-969.07000000000005,58.918199999999999,337.024,-256.39400000000001,112.98,-2.7655799999999999
164019.0,1254.24,-1071.1099999999999,-81.450599999999994,172.44399999999999,-255.077,165.946,7.5236099999999997
164020.0,1243.73,-911.40800000000002,43.1616,282.88600000000002,-259.733,220.59999999999999,17.9879
164021.0,1240.78,-1000.49,-74.195899999999995,148.88,-263.65100000000001,267.464,25.652899999999999
164022.0,1222.55,-846.101,54.030200000000001,234.81200000000001,-266.84300000000002,301.57799999999997,28.941199999999998
164023.0,1178.3900000000001,-963.45399999999995,-99.498500000000007,31.934699999999999,-269.35000000000002,310.38499999999999,39.561199999999999
164024.0,1160.1400000000001,-880.83600000000001,-18.857500000000002,95.551299999999998,-264.334,302.70699999999999,47.277799999999999
164025.0,1206.95,-1014.05,-96.116299999999995,3.6135999999999999,-261.69400000000002,316.51999999999998,46.998600000000003
164026.0,1282.5999999999999,-884.596,91.8459,160.524,-277.67500000000001,356.58300000000003,48.6188
164027.0,1388.21,-1068.45,-36.179900000000004,18.817499999999999,-325.61000000000001,393.32100000000003,80.773099999999999
164028.0,1849.29,-1278.8800000000001,57.924500000000002,235.90299999999999,-426.40899999999999,513.03200000000004,96.834299999999999
164029.0,2566.3800000000001,-1705.1099999999999,-31.8247,131.476,-583.47900000000004,897.29999999999995,128.71899999999999
164030.0,3094.6199999999999,-1681.2,-23.515899999999998,-178.24600000000001,-732.20500000000004,1319.0599999999999,278.78899999999999
164031.0,3321.3099999999999,-1635.78,-238.97,-775.26400000000001,-806.35500000000002,1518.79,472.81799999999998
164032.0,3296.0999999999999,-1262.52,-221.81999999999999,-1098.1700000000001,-784.22000000000003,1505.3399999999999,653.73699999999997
164033.0,3196.3299999999999,-1129.8900000000001,-387.92899999999997,-1497.79,-723.47900000000004,1390.29,793.44399999999996
164034.0,3131.79,-841.524,-313.66000000000003,-1557.97,-671.40200000000004,1274.8599999999999,896.26199999999994
164035.0,3127.48,-835.62300000000005,-451.738,-1768.6600000000001,-637.85599999999999,1202.8499999999999,973.63
164036.0,3129.0799999999999,-667.96100000000001,-404.56299999999999,-1782.6099999999999,-602.88,1138.6500000000001,1033.73
164037.0,3143.25,-680.32899999999995,-581.37400000000002,-2019.74,-551.11199999999997,1042.8099999999999,1121.04
164038.0,1453.8299999999999,-1184.1600000000001,-103.608,192.70500000000001,-293.25999999999999,-299.56799999999998,-60.121200000000002
164039.0,1353.7,-1090.1300000000001,-47.615299999999998,249.65600000000001,-273.92399999999998,-197.04599999999999,-43.994700000000002
164040.0,1270.6600000000001,-1093.21,-101.43000000000001,192.87799999999999,-265.66300000000001,-112.93300000000001,-28.692499999999999
164041.0,1215.3199999999999,-972.88499999999999,-26.720600000000001,269.48700000000002,-261.92500000000001,-48.314999999999998,-17.955200000000001
164042.0,1183.1800000000001,-1011.3200000000001,-93.377899999999997,202.83000000000001,-256.41699999999997,5.8570099999999998,-10.397500000000001
164043.0,1161.6099999999999,-931.84699999999998,-34.722299999999997,253.56399999999999,-252.93799999999999,59.987499999999997,-3.60494
164044.0,1135.75,-970.68899999999996,-103.42100000000001,169.80699999999999,-251.91999999999999,109.041,5.3791700000000002
164045.0,1114.8199999999999,-849.18399999999997,-15.905900000000001,242.691,-251.22399999999999,159.357,14.053699999999999
164046.0,1100.3800000000001,-883.44799999999998,-79.454800000000006,151.119,-252.47999999999999,210.87799999999999,20.387899999999998
164047.0,1070.5899999999999,-785.50800000000004,-13.271800000000001,167.084,-253.49199999999999,246.852,28.4697
164048.0,1032.1099999999999,-819.84000000000003,-73.603300000000004,50.416800000000002,-253.631,260.065,39.032299999999999
164049.0,1012.8,-736.21900000000005,13.536,89.213399999999993,-253.154,259.339,48.787199999999999
164050.0,1011.03,-794.83000000000004,-23.0471,16.955200000000001,-256.10500000000002,251.09,52.158700000000003
164051.0,1019.96,-791.75099999999998,4.9886299999999997,50.571100000000001,-257.673,229.97399999999999,55.611699999999999
164052.0,1047.97,-926.81899999999996,-117.871,-43.249299999999998,-256.35599999999999,237.14699999999999,63.378399999999999
164053.0,1118.27,-827.745,-8.0168599999999994,56.323799999999999,-276.21300000000002,302.392,78.528099999999995
164054.0,1414.5599999999999,-994.36699999999996,-12.6991,58.214199999999998,-349.50400000000002,436.55099999999999,90.311499999999995
164055.0,1970.4400000000001,-1247.9200000000001,-52.435099999999998,22.283799999999999,-496.26999999999998,721.46299999999997,139.25299999999999
164056.0,2440.4099999999999,-1431.53,-172.297,-222.762,-637.15599999999995,1005.98,242.90000000000001
164057.0,2620.2199999999998,-1282.03,-156.49100000000001,-441.63299999999998,-693.36599999999999,1149.99,377.98899999999998
164058.0,2635.3400000000001,-1147.28,-264.488,-772.13099999999997,-686.81500000000005,1178.6700000000001,507.69
164059.0,2552.8099999999999,-898.13400000000001,-263.56,-952.75199999999995,-642.87900000000002,1109.7,617.06500000000005
164060.0,2481.1900000000001,-818.51300000000003,-411.37400000000002,-1221.3299999999999,-590.322,1012.89,716.70500000000004
164061.0,2451.5900000000001,-686.53200000000004,-432.49799999999999,-1289.8800000000001,-555.56200000000001,937.46799999999996,788.66499999999996
164062.0,2417.5599999999999,-659.32100000000003,-493.93900000000002,-1365.3599999999999,-527.63300000000004,884.48299999999995,820.54499999999996
164063.0,2294.8000000000002,-528.66700000000003,-446.60500000000002,-1328.48,-468.19200000000001,780.14999999999998,830.76900000000001
164064.0,1336.28,-1080.1900000000001,-99.117699999999999,152.93799999999999,-313.04399999999998,-261.38400000000001,-66.7821
164065.0,1237.01,-1062.03,-121.783,121.485,-295.11200000000002,-173.95699999999999,-45.308599999999998
164066.0,1155.1099999999999,-957.423,-67.163399999999996,179.001,-275.286,-104.435,-25.218699999999998
164067.0,1101.8800000000001,-955.55700000000002,-107.761,151.38999999999999,-259.28399999999999,-45.704799999999999,-13.622400000000001
164068.0,1066.1199999999999,-865.88999999999999,-54.816400000000002,210.411,-253.61699999999999,8.8124400000000005,-6.1684999999999999
164069.0,1041.6900000000001,-869.00800000000004,-89.203800000000001,175.947,-252.376,54.351500000000001,1.8265
164070.0,1024.9300000000001,-786.93100000000004,-31.661000000000001,230.453,-247.71100000000001,98.413499999999999,8.7868099999999991
164071.0,1006.5,-813.62199999999996,-83.921899999999994,155.357,-243.24799999999999,153.32400000000001,15.1835
164072.0,974.43700000000001,-725.73800000000006,-32.040700000000001,155.65299999999999,-243.41800000000001,202.5,26.4833
164073.0,938.41700000000003,-731.09699999999998,-72.159700000000001,60.039299999999997,-245.26599999999999,228.07300000000001,42.119799999999998
164074.0,909.00599999999997,-670.19200000000001,-36.172400000000003,53.499400000000001,-245.941,237.59399999999999,53.550199999999997
164075.0,883.25699999999995,-713.91899999999998,-93.777699999999996,-37.928600000000003,-247.89400000000001,233.01400000000001,59.364199999999997
164076.0,867.44100000000003,-708.69600000000003,-81.735399999999998,-41.6614,-250.405,211.28299999999999,59.4803
164077.0,873.21799999999996,-753.298,-94.102400000000003,-43.745699999999999,-245.24000000000001,183.392,60.313600000000001
164078.0,889.22400000000005,-614.93499999999995,79.821700000000007,123.524,-230.49799999999999,187.15199999999999,61.359400000000001
164079.0,986.85500000000002,-644.36900000000003,66.545599999999993,84.079899999999995,-251.761,286.173,81.391499999999994
164080.0,1315.1099999999999,-805.09500000000003,2.5208499999999998,39.780299999999997,-353.36099999999999,457.44299999999998,120.331
164081.0,1664.49,-987.51300000000003,-61.254300000000001,-17.462599999999998,-474.92099999999999,608.84199999999998,164.68899999999999
164082.0,1918.22,-1038.3800000000001,-70.194100000000006,-62.884099999999997,-552.40300000000002,746.19500000000005,222.994
164083.0,2072.7399999999998,-1057.0699999999999,-180.16499999999999,-302.83699999999999,-597.87,867.34299999999996,311.24099999999999
164084.0,2106.3400000000001,-890.64499999999998,-189.12700000000001,-467.69499999999999,-600.35699999999997,910.73099999999999,405.28699999999998
164085.0,2042.25,-746.71799999999996,-252.75700000000001,-668.375,-562.22400000000005,880.62599999999998,477.69299999999998
164086.0,1910.46,-480.65300000000002,-211.54499999999999,-707.02800000000002,-496.87900000000002,787.90099999999995,536.11000000000001
164087.0,1797.49,-379.22199999999998,-255.03899999999999,-757.18899999999996,-449.49000000000001,700.28200000000004,562.26800000000003
164088.0,1694.54,-306.97300000000001,-261.65600000000001,-753.21500000000003,-413.09399999999999,629.12400000000002,562.95100000000002
164089.0,1570.1700000000001,-262.851,-268.85000000000002,-757.19399999999996,-361.47300000000001,547.29300000000001,557.798
164090.0,1212.4400000000001,-1025.8900000000001,-166.20699999999999,54.216099999999997,-326.75799999999998,-231.51900000000001,-62.617100000000001
164091.0,1161.3599999999999,-952.25400000000002,-109.41200000000001,129.096,-313.18900000000002,-163.43799999999999,-44.932699999999997
164092.0,1102.5999999999999,-969.19200000000001,-154.36500000000001,85.562200000000004,-299.18200000000002,-95.896799999999999,-29.5015
164093.0,1047.4100000000001,-868.62199999999996,-87.868200000000002,147.11799999999999,-284.52300000000002,-41.612699999999997,-15.821099999999999
164094.0,1002.62,-880.76800000000003,-132.61699999999999,100.749,-268.476,7.3173300000000001,-4.6516999999999999
164095.0,966.92700000000002,-793.94299999999998,-76.787400000000005,150.34299999999999,-256.49599999999998,53.886499999999998,5.1228199999999999
164096.0,943.03899999999999,-821.40599999999995,-131.27000000000001,83.141599999999997,-250.15199999999999,101.292,13.9039
164097.0,918.16499999999996,-721.91800000000001,-62.500900000000001,121.599,-247.24299999999999,150.125,25.200800000000001
164098.0,882.44799999999998,-738.822,-121.69199999999999,19.665299999999998,-244.30799999999999,188.47,40.9283
164099.0,841.29700000000003,-641.08699999999999,-74.490600000000001,37.363199999999999,-240.21199999999999,207.066,55.159199999999998
164100.0,801.096,-640.56799999999998,-120.605,-26.654399999999999,-238.96000000000001,208.94499999999999,61.742800000000003
164101.0,765.36900000000003,-548.46900000000005,-55.705399999999997,15.4978,-240.59800000000001,197.70599999999999,62.960799999999999
164102.0,746.87,-578.08799999999997,-88.164400000000001,-29.319099999999999,-242.46799999999999,178.48699999999999,67.214299999999994
164103.0,776.83900000000006,-536.55100000000004,5.5685599999999997,59.306699999999999,-246.084,164.09700000000001,70.970500000000001
164104.0,901.04600000000005,-700.48699999999997,-45.951999999999998,-8.2739499999999992,-261.209,212.00700000000001,77.147099999999995
164105.0,1086.04,-726.31399999999996,-43.796700000000001,-30.446300000000001,-315.63900000000001,349.18799999999999,115.008
164106.0,1239.75,-777.21000000000004,-92.165199999999999,-71.624700000000004,-376.38900000000001,432.94600000000003,148.179
164107.0,1355.8299999999999,-820.63599999999997,-95.844700000000003,-66.501199999999997,-414.846,481.13099999999997,163.364
164108.0,1492.49,-877.84900000000005,-149.261,-143.636,-455.315,564.43700000000001,195.65199999999999
164109.0,1601.0899999999999,-797.43499999999995,-133.43899999999999,-194.20500000000001,-488.76900000000001,646.10699999999997,251.78700000000001
164110.0,1640.8299999999999,-722.33600000000001,-199.24600000000001,-350.85500000000002,-496.36900000000003,688.25400000000002,323.935
164111.0,1634.45,-551.04700000000003,-206.19200000000001,-441.49400000000003,-481.69200000000001,685.94000000000005,396.09199999999998
164112.0,1566.0799999999999,-455.85000000000002,-285.51499999999999,-593.11900000000003,-439.471,630.37199999999996,450.875
164113.0,1434.0599999999999,-330.28399999999999,-268.95699999999999,-596.85000000000002,-385.04399999999998,540.13699999999994,463.80000000000001
164114.0,1311.0899999999999,-281.834,-231.27199999999999,-543.76700000000005,-343.06900000000002,478.149,445.56700000000001
164115.0,1286.25,-261.85399999999998,-239.60900000000001,-567.12,-314.24700000000001,457.81400000000002,457.86799999999999
164116.0,1079.9100000000001,-833.25300000000004,-119.929,84.355000000000004,-324.40199999999999,-216.33600000000001,-67.834199999999996
164117.0,1063.1400000000001,-900.14400000000001,-165.24299999999999,60.590899999999998,-310.971,-157.90000000000001,-52.644199999999998
164118.0,1032.75,-857.78899999999999,-118.459,111.26600000000001,-299.185,-93.481999999999999,-29.408300000000001
164119.0,988.53099999999995,-873.36699999999996,-158.03399999999999,66.918499999999995,-288.91800000000001,-31.866299999999999,-12.993399999999999
164120.0,946.26499999999999,-788.91600000000005,-106.965,107.70399999999999,-280.82900000000001,20.721399999999999,0.018761199999999999
164121.0,907.41099999999994,-789.226,-141.239,58.605899999999998,-271.63,64.005300000000005,12.0243
164122.0,871.35900000000004,-696.71799999999996,-83.914000000000001,94.733800000000002,-262.98700000000002,105.151,23.7315
164123.0,837.61000000000001,-710.25,-142.036,17.982299999999999,-258.06799999999998,138.78399999999999,39.212699999999998
164124.0,798.37800000000004,-592.92399999999998,-88.891999999999996,66.205200000000005,-253.23599999999999,163.69200000000001,52.782600000000002
164125.0,750.66099999999994,-571.58699999999999,-131.542,16.307300000000001,-245.209,175.72399999999999,57.482999999999997
164126.0,701.11400000000003,-468.505,-67.987200000000001,54.714300000000001,-233.50399999999999,176.16,58.530799999999999
164127.0,664.10000000000002,-485.54300000000001,-97.711299999999994,-8.5053000000000001,-225.55000000000001,168.37299999999999,58.860500000000002
164128.0,646.16200000000003,-444.11399999999998,-38.605699999999999,27.831299999999999,-218.137,151.00299999999999,59.372399999999999
164129.0,717.14999999999998,-533.51599999999996,-63.113500000000002,-14.630000000000001,-232.13800000000001,173.91800000000001,71.791200000000003
164130.0,938.15499999999997,-574.495,-23.3887,28.437999999999999,-296.548,286.58699999999999,107.93600000000001
164131.0,1090.22,-640.91099999999994,-95.815799999999996,-66.619500000000002,-356.08100000000002,378.94900000000001,145.47300000000001
164132.0,1075.05,-587.38499999999999,-63.030700000000003,-41.511400000000002,-359.67200000000003,368.54300000000001,156.50800000000001
164133.0,1092.8199999999999,-609.36199999999997,-83.624700000000004,-48.384399999999999,-362.09500000000003,376.14800000000002,163.58600000000001
164134.0,1177.4000000000001,-594.16899999999998,-69.433800000000005,-41.190100000000001,-389.22300000000001,424.89299999999997,181.864
164135.0,1253.3900000000001,-624.80899999999997,-141.39099999999999,-146.477,-411.16199999999998,479.37299999999999,218.45500000000001
164136.0,1307.52,-526.15999999999997,-135.48699999999999,-189.834,-420.12599999999998,527.68100000000004,264.83100000000002
164137.0,1307.54,-489.71499999999997,-208.25,-324.02100000000002,-409.57900000000001,536.45399999999995,307.14299999999997
164138.0,1236.3299999999999,-360.37400000000002,-191.46600000000001,-365.80399999999997,-373.00900000000001,489.46600000000001,347.79599999999999
164139.0,1163.1700000000001,-334.041,-244.744,-449.86200000000002,-330.67500000000001,429.38600000000002,383.00200000000001
164140.0,1147.8699999999999,-337.68200000000002,-282.56700000000001,-501.69400000000002,-312.21499999999997,408.11099999999999,402.70800000000003
164141.0,1078.1300000000001,-294.041,-296.55900000000003,-516.56700000000001,-280.19,363.12200000000001,400.959
164142.0,956.37599999999998,-689.24099999999999,-126.006,94.024799999999999,-316.87200000000001,-190.279,-71.266199999999998
164143.0,946.15999999999997,-695.90599999999995,-113.459,121.718,-312.00900000000001,-141.83000000000001,-61.346800000000002
164144.0,929.87099999999998,-795.60699999999997,-199.08500000000001,35.038600000000002,-308.19099999999997,-91.9816,-36.606099999999998
164145.0,899.46299999999997,-729.91700000000003,-135.27000000000001,90.485799999999998,-297.69600000000003,-35.396500000000003,-14.0334
164146.0,863.40300000000002,-756.85599999999999,-184.45500000000001,33.023299999999999,-285.58600000000001,21.107099999999999,2.8612299999999999
164147.0,827.57600000000002,-667.29600000000005,-133.03299999999999,77.764499999999998,-276.37,63.742199999999997,18.7715
164148.0,787.34000000000003,-670.06500000000005,-189.25299999999999,15.532999999999999,-269.399,95.631799999999998,32.4499
164149.0,742.76700000000005,-534.74199999999996,-115.727,88.063000000000002,-258.774,119.496,42.7286
164150.0,700.69600000000003,-509.154,-143.517,60.440399999999997,-241.89699999999999,139.39400000000001,49.251899999999999
164151.0,657.90499999999997,-377.53199999999998,-49.095100000000002,130.30000000000001,-226.751,155.286,49.248899999999999
164152.0,616.60299999999995,-384.012,-71.867000000000004,62.133200000000002,-216.11799999999999,158.57599999999999,49.734999999999999
164153.0,591.02599999999995,-315.15800000000002,-1.0018100000000001,88.130799999999994,-211.166,153.738,57.710500000000003
164154.0,610.21299999999997,-384.16800000000001,-30.0001,36.259900000000002,-214.03800000000001,152.834,62.063699999999997
164155.0,719.22299999999996,-382.16500000000002,15.2905,79.381299999999996,-240.387,212.65899999999999,83.067899999999995
164156.0,874.23699999999997,-492.25999999999999,-111.72,-34.735599999999998,-294.01900000000001,304.58100000000002,124.643
164157.0,938.41700000000003,-481.37700000000001,-103.663,-23.095800000000001,-329.709,324.892,139.339
164158.0,927.55700000000002,-510.041,-125.884,-61.126800000000003,-328.73200000000003,314.82299999999998,143.96700000000001
164159.0,913.44000000000005,-499.87599999999998,-117.562,-62.207599999999999,-322.863,308.858,147.285
164160.0,931.69200000000001,-512.68899999999996,-149.63399999999999,-94.534099999999995,-328.40699999999998,324.04700000000003,157.721
164161.0,993.226,-459.101,-125.233,-79.977999999999994,-346.81900000000002,366.17099999999999,177.744
164162.0,1037.76,-432.82100000000003,-181.08500000000001,-169.08199999999999,-356.75099999999998,401.77300000000002,219.34200000000001
164163.0,1029.27,-318.83499999999998,-139.256,-160.172,-351.06299999999999,404.16800000000001,238.524
164164.0,925.69600000000003,-260.45999999999998,-156.916,-210.803,-305.33800000000002,360.03100000000001,245.15899999999999
164165.0,819.83299999999997,-161.797,-133.828,-199.81299999999999,-259.803,304.31,250.684
164166.0,742.82299999999998,-88.035300000000007,-121.869,-182.85900000000001,-227.61000000000001,259.346,250.10499999999999
164167.0,688.37,-32.9086,-92.434700000000007,-150.65100000000001,-201.49700000000001,231.71700000000001,245.339
164168.0,849.11400000000003,-537.92399999999998,-70.752099999999999,163.09,-285.41399999999999,-166.703,-60.734000000000002
164169.0,834.35599999999999,-584.69200000000001,-117.32899999999999,132.66800000000001,-286.64400000000001,-120.55500000000001,-52.565199999999997
164170.0,818.45000000000005,-550.48099999999999,-86.236500000000007,162.39599999999999,-291.31400000000002,-78.619200000000006,-36.322699999999998
164171.0,796.87199999999996,-601.72500000000002,-140.684,99.332400000000007,-288.39499999999998,-35.2303,-17.712800000000001
164172.0,769.40899999999999,-548.27599999999995,-99.790300000000002,131.00399999999999,-279.09199999999998,11.400499999999999,-1.8575299999999999
164173.0,735.33299999999997,-564.73099999999999,-153.62200000000001,81.242999999999995,-265.916,47.5261,18.941600000000001
164174.0,694.69899999999996,-430.43799999999999,-70.1892,174.80099999999999,-247.636,76.489599999999996,31.762799999999999
164175.0,647.69200000000001,-405.98899999999998,-90.649500000000003,147.898,-224.982,104.83799999999999,32.222900000000003
164176.0,605.03899999999999,-304.00900000000001,-19.3658,191.92599999999999,-203.666,131.47,36.384099999999997
164177.0,572.51300000000003,-320.08800000000002,-55.037799999999997,122.255,-189.602,148.57599999999999,40.925199999999997
164178.0,537.08799999999997,-261.54399999999998,-14.6165,130.66499999999999,-182.476,148.221,39.617199999999997
164179.0,503.202,-321.0,-81.932500000000005,25.980499999999999,-178.70599999999999,137.727,44.3523
164180.0,567.99900000000002,-323.86599999999999,-55.895800000000001,35.291899999999998,-202.30099999999999,164.59,68.359099999999998
164181.0,737.50099999999998,-446.53800000000001,-162.50200000000001,-61.735500000000002,-258.96100000000001,249.37700000000001,110.617
164182.0,806.49099999999999,-366.97899999999998,-98.796099999999996,-6.1751100000000001,-289.459,283.97300000000001,131.41
164183.0,797.11900000000003,-393.14800000000002,-117.096,-24.9191,-289.303,272.315,131.27099999999999
164184.0,797.274,-384.375,-100.991,-16.613700000000001,-293.19400000000002,268.72000000000003,128.827
164185.0,769.90599999999995,-366.25999999999999,-85.056399999999996,-15.5959,-284.01299999999998,257.572,126.88800000000001
164186.0,759.70699999999999,-313.61399999999998,-69.705399999999997,-14.6403,-275.20699999999999,267.51299999999998,140.58699999999999
164187.0,792.846,-313.95800000000003,-104.587,-49.941800000000001,-285.81700000000001,294.51799999999997,147.24700000000001
164188.0,774.524,-246.48400000000001,-92.501900000000006,-53.989199999999997,-278.803,294.29500000000002,158.89400000000001
164189.0,754.78200000000004,-244.21299999999999,-152.648,-123.747,-268.56,286.02199999999999,178.91399999999999
164190.0,731.827,-171.797,-129.935,-121.79300000000001,-254.71100000000001,277.57799999999997,189.411
164191.0,616.80899999999997,-107.39,-125.042,-141.655,-204.893,222.97300000000001,186.61799999999999
164192.0,528.279,-72.3489,-112.619,-128.16800000000001,-170.608,182.38900000000001,172.696
164193.0,535.07500000000005,-94.924899999999994,-136.71799999999999,-163.54499999999999,-166.27699999999999,186.10900000000001,178.75999999999999
164194.0,767.53200000000004,-519.50800000000004,-134.97900000000001,102.39,-269.221,-149.23400000000001,-55.8874
164195.0,745.26900000000001,-492.34800000000001,-102.771,146.607,-261.45999999999998,-106.35599999999999,-42.015900000000002
164196.0,721.61500000000001,-506.40199999999999,-122.057,129.18000000000001,-257.05000000000001,-65.4452,-27.397099999999998
164197.0,699.85799999999995,-450.48200000000003,-79.542599999999993,173.55500000000001,-252.53999999999999,-27.755299999999998,-14.404199999999999
164198.0,671.38400000000001,-465.423,-117.31,132.119,-245.09399999999999,10.068099999999999,-2.0564399999999998
164199.0,640.38599999999997,-404.64999999999998,-78.391599999999997,166.375,-229.649,41.591099999999997,12.6144
164200.0,609.28999999999996,-400.09899999999999,-91.466300000000004,151.38399999999999,-205.16499999999999,69.062200000000004,22.107900000000001
164201.0,566.00199999999995,-326.476,-44.245800000000003,178.374,-181.26499999999999,97.081299999999999,22.1296
164202.0,533.12800000000004,-329.63499999999999,-79.508899999999997,107.881,-170.66900000000001,128.041,32.1907
164203.0,521.21400000000006,-281.96899999999999,-54.143099999999997,108.34999999999999,-171.43600000000001,144.142,44.094200000000001
164204.0,511.63200000000001,-284.96800000000002,-62.994700000000002,81.4268,-172.43299999999999,146.44,44.891800000000003
164205.0,526.62199999999996,-243.60900000000001,-0.77090499999999995,129.22399999999999,-180.202,148.67599999999999,45.323099999999997
164206.0,588.12099999999998,-299.26799999999997,-45.005800000000001,71.655199999999994,-205.215,181.642,64.919700000000006
164207.0,661.81500000000005,-261.53399999999999,-44.436,60.621899999999997,-235.61099999999999,229.47,104.11
164208.0,702.62599999999998,-331.55799999999999,-134.84,-31.218599999999999,-258.84300000000002,243.15199999999999,123.148
164209.0,687.36099999999999,-312.74599999999998,-116.949,-24.094000000000001,-261.13499999999999,228.53299999999999,123.922
164210.0,663.25199999999995,-325.37599999999998,-123.61499999999999,-37.108600000000003,-254.45400000000001,214.001,119.20399999999999
164211.0,660.16700000000003,-325.73599999999999,-120.038,-41.459499999999998,-251.83099999999999,216.77799999999999,115.378
164212.0,645.48099999999999,-295.72699999999998,-132.001,-70.979399999999998,-242.816,222.21700000000001,130.518
164213.0,643.78899999999999,-244.74100000000001,-126.663,-63.619199999999999,-240.80500000000001,227.43100000000001,141.38300000000001
164214.0,620.98800000000006,-209.786,-109.29000000000001,-52.627099999999999,-232.511,227.02000000000001,128.87200000000001
164215.0,557.04899999999998,-115.134,-57.642600000000002,-22.0852,-203.649,208.66,127.351
164216.0,539.923,-138.23099999999999,-101.434,-72.329300000000003,-194.976,201.249,132.53399999999999
164217.0,515.66099999999994,-97.536600000000007,-92.935699999999997,-87.240600000000001,-177.66499999999999,187.68799999999999,147.70699999999999
164218.0,487.435,-69.589200000000005,-99.811400000000006,-111.93600000000001,-157.78,169.41200000000001,158.51499999999999
164219.0,486.87599999999998,-25.036300000000001,-89.536900000000003,-103.517,-151.97399999999999,161.12200000000001,167.94999999999999
164220.0,688.08600000000001,-426.15300000000002,-113.304,114.512,-253.137,-130.97399999999999,-53.906100000000002
164221.0,668.56899999999996,-437.60399999999998,-120.27200000000001,120.01000000000001,-245.596,-94.792599999999993,-38.254899999999999
164222.0,640.50599999999997,-407.47300000000001,-95.313299999999998,150.786,-233.89099999999999,-57.080800000000004,-22.564299999999999
164223.0,616.11000000000001,-416.084,-118.069,137.369,-222.25,-18.936499999999999,-6.9475800000000003
164224.0,593.76300000000003,-353.37299999999999,-69.489000000000004,185.03,-211.33000000000001,17.3535,3.9247000000000001
164225.0,574.87300000000005,-357.12700000000001,-85.171300000000002,156.001,-202.86000000000001,54.028599999999997,13.585000000000001
164226.0,557.678,-327.74200000000002,-69.456500000000005,158.499,-194.35900000000001,78.341499999999996,23.901800000000001
164227.0,549.44799999999998,-323.25999999999999,-66.577600000000004,141.61500000000001,-188.38999999999999,100.06699999999999,30.060300000000002
164228.0,547.01099999999997,-284.85399999999998,-28.437100000000001,145.76300000000001,-190.84899999999999,122.086,38.613799999999998
164229.0,538.98199999999997,-310.755,-59.088999999999999,76.326400000000007,-197.17699999999999,128.81999999999999,52.689300000000003
164230.0,582.24099999999999,-337.19200000000001,-72.621200000000002,52.458799999999997,-220.679,141.75,68.050600000000003
164231.0,665.28499999999997,-441.63900000000001,-153.39500000000001,-19.604299999999999,-256.584,168.15700000000001,83.104799999999997
164232.0,698.91999999999996,-405.37700000000001,-149.571,-29.104099999999999,-270.22000000000003,204.148,105.889
164233.0,658.37199999999996,-344.95299999999997,-169.30799999999999,-77.074799999999996,-254.417,213.16399999999999,125.69
164234.0,605.20600000000002,-249.96000000000001,-113.57299999999999,-28.297499999999999,-236.096,194.518,126.53700000000001
164235.0,575.68600000000004,-262.35599999999999,-125.77500000000001,-41.9495,-227.239,181.00700000000001,117.021
164236.0,550.44899999999996,-231.25899999999999,-98.921700000000001,-20.305,-218.422,170.52600000000001,113.33499999999999
164237.0,557.63800000000003,-221.142,-94.394000000000005,-8.6706900000000005,-219.47399999999999,178.505,110.42700000000001
164238.0,539.59100000000001,-177.619,-81.075100000000006,-6.7088900000000002,-210.399,182.53200000000001,110.107
164239.0,486.41300000000001,-150.38900000000001,-81.361099999999993,-20.154399999999999,-187.685,163.07400000000001,113.14400000000001
164240.0,503.60399999999998,-155.31399999999999,-102.114,-35.495600000000003,-191.40100000000001,176.80199999999999,114.199
164241.0,487.48099999999999,-138.91300000000001,-99.001999999999995,-45.270200000000003,-184.95099999999999,174.999,110.331
164242.0,432.32900000000001,-93.217600000000004,-50.265000000000001,-22.587800000000001,-164.44999999999999,150.02000000000001,107.175
164243.0,432.863,-89.518199999999993,-67.676299999999998,-53.406700000000001,-155.27500000000001,155.27199999999999,117.92400000000001
164244.0,420.02699999999999,-34.348300000000002,-76.451300000000003,-57.491900000000001,-138.68899999999999,146.92599999999999,132.44300000000001
164245.0,410.45699999999999,-11.0777,-99.680800000000005,-72.300299999999993,-134.25899999999999,132.86600000000001,135.72499999999999
164246.0,624.11199999999997,-397.89699999999999,-139.19399999999999,71.429400000000001,-241.16200000000001,-116.211,-53.992100000000001
164247.0,594.95500000000004,-381.57499999999999,-124.38800000000001,93.541700000000006,-230.244,-84.220299999999995,-36.367800000000003
164248.0,574.27599999999995,-378.334,-124.253,105.29900000000001,-220.93700000000001,-47.169800000000002,-19.1723
164249.0,555.00800000000004,-337.15499999999997,-88.562100000000001,148.215,-208.77199999999999,-12.838200000000001,-4.4456300000000004
164250.0,539.57000000000005,-356.49599999999998,-113.386,121.319,-198.09100000000001,24.877300000000002,10.164300000000001
164251.0,548.35599999999999,-339.178,-96.766400000000004,131.71899999999999,-200.19999999999999,64.176599999999993,24.0914
164252.0,569.53599999999994,-362.84399999999999,-108.501,98.349800000000002,-215.666,84.017700000000005,34.495899999999999
164253.0,625.56600000000003,-394.94099999999997,-120.533,75.363200000000006,-246.77000000000001,105.93899999999999,50.158000000000001
164254.0,655.21000000000004,-451.57299999999998,-170.99799999999999,6.1503500000000004,-270.14699999999999,115.735,58.799100000000003
164255.0,646.41999999999996,-430.84100000000001,-155.63900000000001,-11.1038,-273.84500000000003,118.80200000000001,68.656700000000001
164256.0,650.55399999999997,-434.87299999999999,-168.642,-39.896500000000003,-276.59899999999999,130.96799999999999,82.688100000000006
164257.0,669.26300000000003,-392.19999999999999,-141.952,-17.184899999999999,-281.78699999999998,152.81700000000001,100.38
164258.0,680.38599999999997,-374.76400000000001,-168.06299999999999,-49.855499999999999,-277.44299999999998,185.845,125.504
164259.0,637.74400000000003,-282.04300000000001,-145.59200000000001,-58.003799999999998,-252.22300000000001,198.41800000000001,140.852
164260.0,544.40599999999995,-235.364,-156.857,-92.874899999999997,-213.70099999999999,171.80699999999999,136.06299999999999
164261.0,475.01299999999998,-179.09200000000001,-112.355,-37.304400000000001,-191.21700000000001,142.45099999999999,115.43300000000001
164262.0,452.06700000000001,-187.19399999999999,-117.473,-36.018799999999999,-183.71100000000001,135.047,102.024
164263.0,451.71300000000002,-160.81800000000001,-113.453,-25.028300000000002,-180.506,141.649,103.044
164264.0,444.91800000000001,-151.209,-112.01000000000001,-19.150300000000001,-179.12299999999999,143.92599999999999,92.6524
164265.0,397.89100000000002,-101.801,-72.593999999999994,0.41595799999999999,-159.03700000000001,130.739,87.264700000000005
164266.0,387.13400000000001,-83.108699999999999,-72.857500000000002,9.5063399999999998,-153.17599999999999,129.12200000000001,85.114099999999993
164267.0,414.28899999999999,-95.515699999999995,-59.754399999999997,28.450800000000001,-166.00700000000001,139.86199999999999,77.595299999999995
164268.0,385.214,-123.098,-95.002099999999999,-53.6419,-158.26599999999999,121.33,92.052400000000006
164269.0,373.23099999999999,-129.14699999999999,-114.041,-86.951999999999998,-143.57900000000001,120.27,104.38800000000001
164270.0,371.21199999999999,-100.131,-120.27200000000001,-99.563400000000001,-122.72199999999999,131.44399999999999,115.998
164271.0,354.61799999999999,7.4728300000000001,-62.457099999999997,-45.293399999999998,-111.66800000000001,120.596,116.51900000000001
164272.0,563.25199999999995,-330.51499999999999,-137.191,68.607699999999994,-231.96899999999999,-97.875600000000006,-50.239800000000002
164273.0,527.529,-307.56099999999998,-120.033,87.314800000000005,-215.376,-76.677400000000006,-38.494599999999998
164274.0,495.08699999999999,-297.35000000000002,-107.404,101.158,-201.07300000000001,-35.6661,-16.4438
164275.0,500.78100000000001,-329.81799999999998,-125.605,88.351200000000006,-199.667,-1.3516600000000001,0.87313700000000005
164276.0,531.51199999999994,-313.54000000000002,-86.252499999999998,135.14699999999999,-207.00200000000001,27.2088,15.6587
164277.0,585.44000000000005,-358.70400000000001,-111.075,114.51300000000001,-233.245,55.105200000000004,27.9773
164278.0,640.65300000000002,-412.791,-141.15100000000001,67.707800000000006,-270.41699999999997,67.607100000000003,32.679699999999997
164279.0,670.87099999999998,-450.30200000000002,-177.23500000000001,11.968299999999999,-293.01299999999998,86.355199999999996,51.958300000000001
164280.0,674.76499999999999,-423.62400000000002,-162.53200000000001,18.520800000000001,-298.52300000000002,95.651899999999998,64.009600000000006
164281.0,667.94299999999998,-418.17599999999999,-179.114,-10.5572,-295.18000000000001,117.91,75.691999999999993
164282.0,625.60199999999998,-351.86599999999999,-158.92500000000001,-15.421200000000001,-276.83199999999999,130.77500000000001,90.655600000000007
164283.0,584.51099999999997,-314.07900000000001,-174.76900000000001,-41.278199999999998,-255.25399999999999,138.41900000000001,104.7
164284.0,560.29899999999998,-250.28299999999999,-157.964,-28.4557,-237.23699999999999,150.55500000000001,115.23699999999999
164285.0,519.471,-204.977,-158.63,-52.702800000000003,-211.126,154.28399999999999,124.417
164286.0,464.41300000000001,-131.303,-115.928,-30.242599999999999,-183.06399999999999,142.11699999999999,123.361
164287.0,405.17099999999999,-132.53700000000001,-120.43899999999999,-41.6629,-162.16800000000001,120.367,107.23399999999999
164288.0,371.72800000000001,-100.762,-84.303799999999995,1.36188,-151.37200000000001,110.83499999999999,88.635199999999998
164289.0,354.32999999999998,-82.980400000000003,-79.834000000000003,8.7228499999999993,-142.68000000000001,109.07299999999999,82.976900000000001
164290.0,352.56099999999998,-80.982200000000006,-73.927599999999998,17.595400000000001,-143.577,109.749,75.828500000000005
164291.0,363.22699999999998,-80.505700000000004,-82.827500000000001,4.9900399999999996,-145.89400000000001,121.72499999999999,73.289100000000005
164292.0,320.20600000000002,-56.991,-68.234099999999998,10.780900000000001,-130.13999999999999,107.84999999999999,61.499600000000001
164293.0,298.05599999999998,-56.043300000000002,-40.762300000000003,39.0627,-123.54300000000001,99.535499999999999,42.823999999999998
164294.0,304.36200000000002,-22.611699999999999,-35.683700000000002,29.1036,-129.12200000000001,96.245099999999994,61.395000000000003
164295.0,319.71899999999999,-51.964399999999998,-89.227800000000002,-23.333100000000002,-133.261,91.4392,82.838399999999993
164296.0,319.197,-72.542699999999996,-119.595,-60.403199999999998,-121.18899999999999,97.414900000000003,93.852000000000004
164297.0,300.02600000000001,-53.5017,-112.39,-75.355400000000003,-102.827,98.728399999999993,93.799599999999998
164298.0,485.12400000000002,-266.21699999999998,-139.274,58.3752,-206.06399999999999,-84.0321,-46.559800000000003
164299.0,454.20999999999998,-270.875,-133.03700000000001,57.707799999999999,-190.661,-62.115299999999998,-36.519799999999996
164300.0,452.71100000000001,-269.952,-103.648,89.898899999999998,-187.00899999999999,-27.453099999999999,-12.436400000000001
164301.0,497.64499999999998,-291.16800000000001,-104.09,97.783699999999996,-211.392,-4.4696800000000003,2.1079699999999999
164302.0,599.53999999999996,-386.65699999999998,-173.416,66.185599999999994,-260.80200000000002,16.836099999999998,13.808
164303.0,661.548,-433.60199999999998,-204.523,42.775500000000001,-295.452,37.180700000000002,21.122499999999999
164304.0,656.40599999999995,-428.76900000000001,-212.185,11.305199999999999,-301.601,56.448300000000003,32.449599999999997
164305.0,624.68299999999999,-380.70600000000002,-192.51499999999999,12.259499999999999,-289.21100000000001,73.081400000000002,49.637999999999998
164306.0,593.71100000000001,-362.78699999999998,-196.02000000000001,-5.8726700000000003,-273.25099999999998,85.2303,60.619999999999997
164307.0,578.57899999999995,-327.76900000000001,-183.31999999999999,-0.98224100000000003,-262.41199999999998,103.29300000000001,72.372399999999999
164308.0,552.226,-301.17099999999999,-184.34899999999999,-22.105699999999999,-247.001,116.624,86.019800000000004
164309.0,517.202,-243.12299999999999,-164.28800000000001,-26.901,-223.63900000000001,130.02500000000001,101.34699999999999
164310.0,472.36000000000001,-196.36699999999999,-157.66999999999999,-43.258200000000002,-197.49700000000001,131.52500000000001,108.31699999999999
164311.0,435.26100000000002,-139.02099999999999,-135.63300000000001,-36.489600000000003,-173.523,129.48500000000001,113.498
164312.0,392.58699999999999,-121.86499999999999,-141.36799999999999,-54.460799999999999,-151.85599999999999,119.589,109.242
164313.0,344.51100000000002,-76.963399999999993,-98.680899999999994,-16.020099999999999,-134.18299999999999,103.379,95.046700000000001
164314.0,317.14800000000002,-76.886200000000002,-101.79900000000001,-12.848100000000001,-124.69799999999999,98.831199999999995,78.133600000000001
164315.0,278.5,-50.564900000000002,-73.195899999999995,14.515700000000001,-111.66500000000001,87.828900000000004,59.979100000000003
164316.0,262.77699999999999,-36.167099999999998,-63.693300000000001,22.5412,-105.733,84.383799999999994,52.697000000000003
164317.0,291.04899999999998,-15.5093,-57.437899999999999,35.214700000000001,-115.14700000000001,99.049300000000002,54.903500000000001
164318.0,280.32299999999998,-19.391200000000001,-41.4816,36.753599999999999,-114.956,95.711799999999997,46.8095
164319.0,253.97900000000001,-24.0945,-13.5944,49.920299999999997,-106.801,86.883799999999994,30.706399999999999
164320.0,244.79300000000001,-28.253399999999999,-46.956299999999999,11.3101,-101.13,84.7393,41.006599999999999
164321.0,263.95299999999997,5.2922000000000002,-52.389400000000002,13.7155,-108.09099999999999,82.105500000000006,59.1952
164322.0,280.108,-7.8098299999999998,-86.658799999999999,-5.8717100000000002,-111.943,77.483199999999997,74.122299999999996
164323.0,270.06900000000002,-7.1271899999999997,-84.670699999999997,-21.6431,-106.931,71.483400000000003,77.902600000000007
164324.0,413.654,-214.68100000000001,-121.16800000000001,48.226999999999997,-178.57900000000001,-72.524100000000004,-46.112400000000001
164325.0,424.69099999999997,-233.29400000000001,-105.821,60.704599999999999,-186.15000000000001,-52.024299999999997,-32.039900000000003
164326.0,529.00599999999997,-311.02600000000001,-148.43799999999999,69.664199999999994,-235.25999999999999,-35.023000000000003,-14.8582
164327.0,589.64200000000005,-390.44999999999999,-203.607,22.228100000000001,-268.44200000000001,-28.045400000000001,-18.508600000000001
164328.0,621.81500000000005,-390.99700000000001,-190.233,41.891800000000003,-286.08499999999998,8.9758899999999997,5.3983100000000004
164329.0,622.31500000000005,-400.69999999999999,-213.87700000000001,17.199400000000001,-290.33800000000002,25.887599999999999,17.3903
164330.0,579.61500000000001,-338.35500000000002,-181.363,29.426500000000001,-271.88900000000001,51.935899999999997,36.1496
164331.0,543.06200000000001,-321.60500000000002,-190.35599999999999,11.25,-251.85400000000001,67.262500000000003,47.333100000000002
164332.0,513.93600000000004,-270.59699999999998,-163.69200000000001,22.2925,-236.71899999999999,81.6768,58.047600000000003
164333.0,488.30599999999998,-252.00399999999999,-170.08799999999999,5.8605999999999998,-222.327,90.0916,67.637200000000007
164334.0,468.85700000000003,-207.53800000000001,-151.20699999999999,15.6409,-207.374,103.617,77.877600000000001
164335.0,435.983,-169.88300000000001,-149.803,-5.1995199999999997,-185.483,113.819,89.048199999999994
164336.0,398.24700000000001,-115.444,-126.252,-7.3689099999999996,-161.78,113.70099999999999,97.183599999999998
164337.0,369.25200000000001,-96.399900000000002,-131.964,-32.2654,-142.19999999999999,110.98,101.77800000000001
164338.0,330.97699999999998,-49.315300000000001,-97.405199999999994,-10.0608,-124.039,99.121099999999998,96.906300000000002
164339.0,295.435,-52.794199999999996,-103.65000000000001,-17.776199999999999,-109.691,89.279200000000003,85.008700000000005
164340.0,269.38200000000001,-14.2654,-70.535399999999996,20.616499999999998,-99.780699999999996,85.195400000000006,69.707899999999995
164341.0,244.46600000000001,-6.9495500000000003,-53.818800000000003,38.332299999999996,-96.637600000000006,78.129900000000006,48.528199999999998
164342.0,230.227,5.5931699999999998,-44.5608,41.0261,-89.8934,76.384500000000003,43.627600000000001
164343.0,228.809,-8.5953800000000005,-51.915100000000002,33.869999999999997,-90.980500000000006,74.2393,42.689300000000003
164344.0,252.78899999999999,-44.325699999999998,-68.312600000000003,20.920000000000002,-107.907,76.753600000000006,40.413699999999999
164345.0,268.33800000000002,-42.7468,-48.541600000000003,29.2744,-117.07599999999999,84.654200000000003,35.344099999999997
164346.0,235.08600000000001,3.71827,-16.750499999999999,42.2485,-98.3005,79.382900000000006,39.493099999999998
164347.0,216.53100000000001,19.929400000000001,-31.575199999999999,25.334299999999999,-86.793400000000005,73.1203,41.978200000000001
164348.0,217.34399999999999,51.022599999999997,-22.8781,37.243200000000002,-84.159400000000005,69.158799999999999,48.3337
164349.0,238.08799999999999,39.267800000000001,-57.931699999999999,-1.91492,-95.034499999999994,57.945999999999998,64.231899999999996
164350.0,405.53199999999998,-216.19800000000001,-135.571,8.3813899999999997,-184.148,-72.333600000000004,-52.279499999999999
164351.0,506.96899999999999,-299.553,-184.91999999999999,16.978400000000001,-231.476,-66.929299999999998,-43.922800000000002
164352.0,576.596,-351.71199999999999,-221.86199999999999,12.313000000000001,-270.35599999999999,-49.363100000000003,-35.447099999999999
164353.0,607.69899999999996,-357.11399999999998,-214.251,29.419799999999999,-290.13299999999998,-21.308299999999999,-16.406700000000001
164354.0,589.65999999999997,-343.95600000000002,-221.131,23.7455,-283.72000000000003,16.949400000000001,8.5276099999999992
164355.0,506.33300000000003,-269.82400000000001,-180.75999999999999,31.8188,-246.70699999999999,19.164000000000001,14.4053
164356.0,477.92599999999999,-270.87099999999998,-189.89400000000001,19.197700000000001,-225.101,43.785299999999999,33.8752
164357.0,460.935,-229.58000000000001,-161.63399999999999,39.7151,-213.768,60.0809,43.596400000000003
164358.0,437.83100000000002,-222.79900000000001,-172.542,16.609200000000001,-199.71600000000001,72.590400000000002,52.973799999999997
164359.0,412.49400000000003,-180.85300000000001,-146.75700000000001,26.207000000000001,-184.46299999999999,81.687100000000001,60.765700000000002
164360.0,390.697,-168.18799999999999,-152.38,7.3860099999999997,-169.26499999999999,90.011300000000006,68.521799999999999
164361.0,368.27499999999998,-125.601,-129.62200000000001,10.261100000000001,-153.03399999999999,97.740600000000001,76.784000000000006
164362.0,343.98899999999998,-105.57299999999999,-134.648,-19.452100000000002,-134.67400000000001,100.95099999999999,86.752399999999994
164363.0,314.05099999999999,-55.198,-108.29000000000001,-11.7935,-115.84399999999999,94.670699999999997,90.321700000000007
164364.0,275.56700000000001,-52.764099999999999,-117.193,-31.270499999999998,-98.081599999999995,82.181600000000003,83.302499999999995
164365.0,242.38499999999999,-6.5402399999999998,-77.889600000000002,6.35656,-83.089600000000004,74.004000000000005,71.721500000000006
164366.0,220.30500000000001,-12.1995,-84.304100000000005,7.1666999999999996,-71.4114,71.639899999999997,60.188699999999997
164367.0,215.97800000000001,5.6133100000000002,-48.210799999999999,20.456600000000002,-80.918999999999997,81.100200000000001,33.4405
164368.0,212.86600000000001,-8.4073799999999999,-50.918100000000003,24.002800000000001,-72.957800000000006,86.047200000000004,31.0687
164369.0,185.68000000000001,-3.9459399999999998,-37.340200000000003,41.976199999999999,-71.602400000000003,63.754600000000003,26.738099999999999
164370.0,191.21799999999999,-12.238200000000001,-33.337299999999999,41.505899999999997,-86.813800000000001,52.152000000000001,21.034300000000002
164371.0,247.935,-31.747199999999999,-56.723300000000002,32.4621,-109.63500000000001,73.052599999999998,31.895800000000001
164372.0,255.346,-47.195999999999998,-77.593100000000007,1.74953,-111.79900000000001,77.176400000000001,40.940199999999997
164373.0,194.845,8.8624600000000004,-33.9955,23.7684,-80.986699999999999,61.209499999999998,38.080399999999997
164374.0,181.37,27.658799999999999,-35.104999999999997,15.913600000000001,-70.689499999999995,61.046999999999997,33.584099999999999
164375.0,211.45599999999999,69.452299999999994,-37.505899999999997,20.1386,-81.118399999999994,55.950699999999998,48.249699999999997
164376.0,444.90199999999999,-225.637,-173.94399999999999,-0.64635799999999999,-207.041,-76.148300000000006,-58.541699999999999
164377.0,529.56899999999996,-283.47699999999998,-208.11799999999999,32.256300000000003,-246.262,-60.174900000000001,-44.992400000000004
164378.0,518.13900000000001,-269.13099999999997,-193.779,45.181100000000001,-243.85900000000001,-42.267400000000002,-36.1526
164379.0,497.63600000000002,-268.67099999999999,-207.114,33.4148,-238.37299999999999,-13.1008,-8.4058600000000006
164380.0,463.43700000000001,-267.98899999999998,-222.292,3.0436800000000002,-224.471,9.7067099999999993,7.4801500000000001
164381.0,416.61000000000001,-216.61199999999999,-172.38200000000001,31.885200000000001,-197.291,29.1096,22.621400000000001
164382.0,402.14400000000001,-187.00899999999999,-151.69399999999999,54.924199999999999,-183.94,43.627699999999997,33.032200000000003
164383.0,383.16000000000003,-180.09100000000001,-152.37299999999999,38.752400000000002,-175.136,51.944299999999998,36.9863
164384.0,368.85700000000003,-153.48500000000001,-134.99199999999999,44.880099999999999,-163.947,64.764700000000005,47.655999999999999
164385.0,354.13799999999998,-137.678,-133.078,35.4771,-154.40899999999999,72.869900000000001,54.0062
164386.0,335.05700000000002,-110.887,-122.717,32.246400000000001,-141.75299999999999,78.889600000000002,60.526699999999998
164387.0,317.11399999999998,-86.449700000000007,-114.71599999999999,23.8432,-129.75899999999999,83.120699999999999,66.435299999999998
164388.0,295.00700000000001,-61.972499999999997,-109.884,8.4187999999999992,-113.908,83.989099999999993,73.752499999999998
164389.0,259.68599999999998,-32.385599999999997,-97.105500000000006,-0.046195,-92.462100000000007,76.445099999999996,75.121700000000004
164390.0,218.447,-5.4155800000000003,-77.101799999999997,5.9246499999999997,-71.518900000000002,66.184100000000001,66.214100000000002
164391.0,184.34100000000001,18.241900000000001,-55.331499999999998,20.231200000000001,-55.203299999999999,60.3932,52.706800000000001
164392.0,165.173,31.742799999999999,-41.835299999999997,45.905999999999999,-41.7303,57.792999999999999,42.353099999999998
164393.0,189.93199999999999,75.339699999999993,-26.920200000000001,60.970399999999998,-62.820399999999999,70.202500000000001,9.2285400000000006
164394.0,200.37,52.420699999999997,-50.236400000000003,74.283100000000005,-59.313600000000001,73.689300000000003,3.7813699999999999
164395.0,151.642,31.340499999999999,-26.620699999999999,70.433800000000005,-52.1053,50.610300000000002,2.0312600000000001
164396.0,139.43700000000001,32.082000000000001,3.7214299999999998,61.411200000000001,-63.723700000000001,39.464599999999997,-5.5373400000000004
164397.0,176.255,2.0743299999999998,-29.037800000000001,44.349699999999999,-79.004099999999994,51.8553,8.2377500000000001
164398.0,216.899,-4.2693300000000001,-37.818800000000003,40.109099999999998,-97.824100000000001,62.482900000000001,26.079000000000001
164399.0,201.06100000000001,-4.8507199999999999,-51.703499999999998,12.1479,-84.971900000000005,60.351799999999997,38.975499999999997
164400.0,192.28899999999999,33.476500000000001,-31.874199999999998,24.6007,-76.536799999999999,60.313000000000002,39.661200000000001
164401.0,213.84200000000001,57.023099999999999,-49.662799999999997,7.6103699999999996,-80.081500000000005,62.652200000000001,45.319499999999998
164402.0,422.83699999999999,-211.565,-191.59100000000001,12.1153,-196.61600000000001,-58.9163,-46.3307
164403.0,444.541,-202.83000000000001,-186.74299999999999,49.691099999999999,-207.74199999999999,-41.800699999999999,-31.309999999999999
164404.0,444.63999999999999,-214.37100000000001,-202.309,52.0869,-204.221,-32.1843,-22.711400000000001
164405.0,390.38999999999999,-164.477,-150.39500000000001,85.479299999999995,-176.00200000000001,-7.7583200000000003,-6.7638999999999996
164406.0,305.14400000000001,-111.206,-98.243700000000004,79.165199999999999,-140.31399999999999,4.6982200000000001,3.6930800000000001
164407.0,335.28500000000003,-129.38900000000001,-114.53700000000001,87.881600000000006,-147.25999999999999,24.789899999999999,20.944700000000001
164408.0,345.94,-163.23699999999999,-153.048,49.176600000000001,-152.85900000000001,37.9621,27.0456
164409.0,321.71600000000001,-120.09999999999999,-119.038,58.2943,-142.798,48.460799999999999,34.8613
164410.0,315.85899999999998,-127.13500000000001,-138.13999999999999,36.346600000000002,-136.07599999999999,57.5685,43.314999999999998
164411.0,304.80099999999999,-96.715199999999996,-117.86199999999999,45.599699999999999,-129.011,64.038799999999995,48.162100000000002
164412.0,292.13799999999998,-95.851799999999997,-128.64500000000001,24.503799999999998,-119.40600000000001,69.597399999999993,53.330399999999997
164413.0,273.02300000000002,-58.416400000000003,-106.46299999999999,30.357600000000001,-106.94799999999999,72.551900000000003,57.684100000000001
164414.0,247.31800000000001,-49.914299999999997,-112.5,7.2137200000000004,-89.541600000000003,72.464399999999998,59.452399999999997
164415.0,203.52500000000001,0.44430999999999998,-67.131399999999999,26.8232,-67.425899999999999,62.5505,54.775100000000002
164416.0,160.227,-2.8311199999999999,-71.405500000000004,6.3336800000000002,-44.726199999999999,52.866199999999999,44.241500000000002
164417.0,131.816,51.368000000000002,-17.7408,51.880200000000002,-31.1921,47.8157,30.473500000000001
164418.0,118.009,26.336600000000001,-36.832700000000003,39.911299999999997,-19.1309,47.387799999999999,18.790199999999999
164419.0,164.55699999999999,91.546599999999998,-1.2513399999999999,71.158799999999999,-36.969900000000003,72.547600000000003,-4.2491599999999998
164420.0,179.238,44.010399999999997,-32.2654,51.102200000000003,-47.669600000000003,79.050399999999996,-7.1425000000000001
164421.0,136.81999999999999,47.161299999999997,16.530100000000001,85.101500000000001,-38.814300000000003,59.325499999999998,-5.8203399999999998
164422.0,118.21599999999999,45.105699999999999,11.623799999999999,55.3996,-45.032200000000003,43.464799999999997,-14.742599999999999
164423.0,119.43899999999999,47.971800000000002,12.9147,62.028799999999997,-51.9816,36.030500000000004,-10.7317
164424.0,158.011,-1.8107200000000001,-29.121700000000001,35.1629,-73.326999999999998,43.558199999999999,2.7293799999999999
164425.0,199.50200000000001,10.5146,-36.235199999999999,36.415100000000002,-88.841399999999993,59.036700000000003,23.089700000000001
164426.0,206.76599999999999,20.2898,-61.763300000000001,9.23508,-83.599699999999999,60.766399999999997,39.832599999999999
164427.0,216.774,61.271299999999997,-54.744900000000001,15.402900000000001,-80.966200000000001,60.530999999999999,45.055399999999999
164428.0,370.87599999999998,-144.971,-159.285,50.473300000000002,-171.27500000000001,-40.970399999999998,-33.201700000000002
164429.0,364.73700000000002,-151.678,-166.041,52.7729,-166.172,-35.177900000000001,-22.644400000000001
164430.0,357.39699999999999,-149.727,-156.16900000000001,71.194699999999997,-159.339,-18.1934,-10.0207
164431.0,327.80599999999998,-136.066,-140.261,71.586699999999993,-145.33799999999999,-5.0435299999999996,-0.99228000000000005
164432.0,306.21899999999999,-153.47399999999999,-150.595,40.408900000000003,-136.97999999999999,9.11707,7.9489000000000001
164433.0,296.23700000000002,-124.723,-129.22300000000001,57.970500000000001,-129.13300000000001,27.190000000000001,20.763999999999999
164434.0,283.483,-100.51000000000001,-111.209,70.646000000000001,-122.726,29.010999999999999,21.6996
164435.0,278.27600000000001,-101.324,-118.33799999999999,52.947600000000001,-118.70099999999999,42.614800000000002,31.653500000000001
164436.0,271.08499999999998,-82.135499999999993,-109.69199999999999,52.891500000000001,-113.11799999999999,50.846600000000002,39.291699999999999
164437.0,267.44999999999999,-73.011799999999994,-109.623,47.776699999999998,-108.624,57.539999999999999,44.146900000000002
164438.0,249.66399999999999,-54.995899999999999,-101.166,43.630099999999999,-98.001900000000006,60.069099999999999,45.759900000000002
164439.0,231.41,-27.482900000000001,-86.955399999999997,43.450000000000003,-82.159000000000006,65.322999999999993,50.701000000000001
164440.0,207.81200000000001,-3.0085799999999998,-74.104699999999994,43.284799999999997,-64.965800000000002,66.032899999999998,48.146099999999997
164441.0,163.27600000000001,22.142299999999999,-49.325899999999997,42.049300000000002,-44.007100000000001,56.080300000000001,38.6751
164442.0,128.673,41.629899999999999,-27.508099999999999,47.341999999999999,-22.6675,50.376899999999999,27.0443
164443.0,97.550799999999995,60.955199999999998,0.74888900000000003,63.591000000000001,-10.2919,40.626899999999999,12.3331
164444.0,100.331,62.066600000000001,9.9864999999999995,72.737700000000004,-6.1753200000000001,46.7898,-0.81633199999999995
164445.0,141.99799999999999,109.32299999999999,41.594900000000003,86.512799999999999,-17.944400000000002,70.385900000000007,-16.046299999999999
164446.0,136.78800000000001,32.726199999999999,-13.334,23.967300000000002,-32.051299999999998,66.343999999999994,-14.486700000000001
164447.0,130.417,-3.0401899999999999,-23.073399999999999,33.180100000000003,-30.362200000000001,62.2682,-7.5753000000000004
164448.0,113.06100000000001,59.896299999999997,31.685199999999998,73.443200000000004,-31.239699999999999,50.118000000000002,-17.869399999999999
164449.0,106.425,61.768599999999999,35.1875,64.960300000000004,-42.946800000000003,35.830599999999997,-19.493099999999998
164450.0,134.56299999999999,16.917400000000001,-6.9363299999999999,41.256700000000002,-62.381,39.0274,-6.3709499999999997
164451.0,181.83600000000001,21.241900000000001,-18.225999999999999,49.142800000000001,-85.221000000000004,50.823799999999999,5.4797399999999996
164452.0,195.142,39.381399999999999,-44.865499999999997,30.449000000000002,-82.785200000000003,55.470399999999998,24.929200000000002
164453.0,193.83199999999999,64.359300000000005,-48.754199999999997,25.449999999999999,-73.433099999999996,50.8065,35.319099999999999
164454.0,323.89499999999998,-136.40299999999999,-165.05699999999999,42.845399999999998,-143.477,-35.255299999999998,-21.092300000000002
164455.0,300.41399999999999,-112.024,-137.16399999999999,66.378900000000002,-130.999,-21.831800000000001,-11.429
164456.0,279.61099999999999,-102.47499999999999,-123.455,70.627499999999998,-120.407,-13.821099999999999,-5.1262299999999996
164457.0,281.67000000000002,-110.19199999999999,-123.801,65.475399999999993,-123.111,-10.9901,-4.8915800000000003
164458.0,296.92899999999997,-112.702,-121.038,77.510800000000003,-129.15199999999999,6.4363400000000004,7.4417600000000004
164459.0,273.88200000000001,-95.2864,-113.744,69.390699999999995,-115.982,27.970099999999999,24.5627
164460.0,244.852,-83.413799999999995,-110.928,59.486800000000002,-101.212,28.893599999999999,23.1434
164461.0,237.87799999999999,-72.4696,-102.39700000000001,62.034500000000001,-96.843400000000003,34.5764,24.840199999999999
164462.0,229.857,-63.082000000000001,-101.264,49.367400000000004,-91.7059,43.6997,34.052999999999997
164463.0,222.28899999999999,-53.7502,-104.16800000000001,40.868600000000001,-84.818299999999994,48.439399999999999,38.839599999999997
164464.0,200.78299999999999,-31.070499999999999,-88.341300000000004,44.070500000000003,-69.978200000000001,51.891800000000003,37.926600000000001
164465.0,189.74000000000001,-4.2960599999999998,-74.039100000000005,51.217300000000002,-52.852600000000002,60.078099999999999,40.725200000000001
164466.0,164.011,12.916,-61.4634,47.420200000000001,-36.6357,57.925899999999999,34.242600000000003
164467.0,134.86199999999999,41.403500000000001,-29.220500000000001,59.106499999999997,-19.011700000000001,53.920499999999997,24.697500000000002
164468.0,118.58799999999999,57.008099999999999,-11.2845,62.194200000000002,-3.0030700000000001,52.795099999999998,14.482200000000001
164469.0,95.195999999999998,72.132300000000001,21.346699999999998,79.071100000000001,5.1384100000000004,44.728400000000001,0.69585399999999997
164470.0,105.675,70.793499999999995,24.177900000000001,69.751599999999996,-0.66942999999999997,53.494,-12.3222
164471.0,121.21299999999999,42.910200000000003,-12.942299999999999,21.1858,-11.8065,59.166200000000003,-21.5594
164472.0,97.063299999999998,-3.7847400000000002,-50.255600000000001,-6.9309000000000003,-21.517199999999999,40.181699999999999,-19.709399999999999
164473.0,111.35299999999999,-24.792000000000002,-54.8827,3.5295000000000001,-30.1904,45.529699999999998,-17.190200000000001
164474.0,132.42099999999999,28.227,16.901199999999999,59.037799999999997,-33.724899999999998,60.3977,-24.172799999999999
164475.0,112.068,52.636200000000002,44.816099999999999,62.658099999999997,-40.336500000000001,42.658499999999997,-25.683199999999999
164476.0,115.571,33.208399999999997,11.432,45.784700000000001,-52.423099999999998,34.072000000000003,-15.5268
164477.0,152.10400000000001,37.251199999999997,-1.8798999999999999,47.292700000000004,-71.959599999999995,42.747100000000003,-5.5977800000000002
164478.0,161.358,45.607799999999997,-30.824200000000001,29.951599999999999,-68.861599999999996,46.152799999999999,13.293799999999999
164479.0,162.87700000000001,66.194500000000005,-34.128399999999999,31.663799999999998,-62.4041,42.223300000000002,23.8385
164480.0,252.626,-64.133700000000005,-103.34999999999999,82.207899999999995,-102.259,-32.4069,-14.212300000000001
164481.0,247.06800000000001,-74.110200000000006,-104.747,81.836100000000002,-99.744600000000005,-18.9999,-5.0705900000000002
164482.0,238.60900000000001,-71.0702,-102.312,80.9739,-95.803399999999996,-13.442600000000001,-2.1364000000000001
164483.0,236.73400000000001,-67.332999999999998,-101.80800000000001,83.9315,-94.197699999999998,-6.5560700000000001,-1.8295399999999999
164484.0,237.80099999999999,-67.001499999999993,-104.438,86.375600000000006,-92.533699999999996,4.8984100000000002,6.3782399999999999
164485.0,233.20599999999999,-67.366500000000002,-101.377,81.001900000000006,-90.438599999999994,17.0244,15.9389
164486.0,222.80099999999999,-56.840400000000002,-89.969399999999993,78.6203,-86.212100000000007,26.571300000000001,20.7346
164487.0,205.202,-50.703200000000002,-86.556799999999996,68.8964,-79.179199999999994,28.337399999999999,18.377300000000002
164488.0,187.27600000000001,-35.363999999999997,-78.670100000000005,61.3767,-67.773799999999994,36.125700000000002,25.517499999999998
164489.0,157.114,-12.3535,-59.364899999999999,56.481499999999997,-51.792499999999997,37.0886,27.8477
164490.0,147.50200000000001,4.6711499999999999,-47.676900000000003,64.349500000000006,-37.796100000000003,43.548400000000001,28.023
164491.0,152.572,39.698399999999999,-27.859300000000001,86.756699999999995,-23.067900000000002,54.992600000000003,29.729299999999999
164492.0,127.345,49.195399999999999,-13.7963,82.033699999999996,-8.7111999999999998,51.464500000000001,17.592300000000002
164493.0,115.291,70.854500000000002,14.723699999999999,93.919600000000003,3.4010600000000002,52.063099999999999,7.0274999999999999
164494.0,108.565,73.470399999999998,22.808800000000002,88.913300000000007,13.906700000000001,50.371600000000001,-1.5103
164495.0,104.771,89.715699999999998,46.848100000000002,96.698700000000002,13.373900000000001,51.604300000000002,-9.4114100000000001
164496.0,111.73999999999999,69.868700000000004,25.355499999999999,55.6922,2.3245900000000002,58.539099999999998,-14.5815
164497.0,107.026,33.919699999999999,-11.2545,16.892399999999999,-4.6595599999999999,54.505899999999997,-17.4682
164498.0,85.997,5.7496200000000002,-21.5776,14.2605,-11.4139,38.4773,-22.4452
164499.0,98.059799999999996,-8.3556100000000004,-31.136600000000001,1.8656999999999999,-27.382899999999999,36.327199999999998,-29.1601
164500.0,138.55799999999999,-1.02413,-18.6065,23.240400000000001,-36.053600000000003,57.783999999999999,-36.319299999999998
164501.0,115.892,47.132300000000001,41.695500000000003,65.083399999999997,-32.976399999999998,48.259500000000003,-30.179200000000002
164502.0,89.152100000000004,42.046999999999997,21.0184,38.047600000000003,-37.800899999999999,28.116199999999999,-17.4711
164503.0,127.501,66.927400000000006,32.474699999999999,62.995800000000003,-59.175899999999999,35.675699999999999,-16.9894
164504.0,127.386,54.396900000000002,-9.6715599999999995,37.245800000000003,-55.029499999999999,35.743299999999998,1.79158
164505.0,134.76900000000001,71.168599999999998,-16.114899999999999,41.830500000000001,-52.057299999999998,34.311300000000003,13.9361
164506.0,210.21799999999999,-62.404600000000002,-104.711,63.972900000000003,-79.263300000000001,-26.3386,-7.1788499999999997
164507.0,208.83099999999999,-43.523000000000003,-83.5655,89.902199999999993,-76.915499999999994,-18.963799999999999,-3.4194599999999999
164508.0,207.77000000000001,-52.642200000000003,-90.402699999999996,85.655000000000001,-74.683899999999994,-14.736000000000001,-1.7911699999999999
164509.0,204.10400000000001,-47.723700000000001,-82.043199999999999,91.677400000000006,-73.257199999999997,-7.3072600000000003,-1.1404099999999999
164510.0,206.85400000000001,-55.609699999999997,-88.513999999999996,87.815299999999993,-73.863399999999999,1.2531399999999999,3.8224499999999999
164511.0,204.17099999999999,-43.475700000000003,-78.475300000000004,95.070999999999998,-72.110600000000005,13.0212,10.132999999999999
164512.0,193.81100000000001,-49.576700000000002,-89.3399,72.933099999999996,-69.056600000000003,19.774699999999999,14.4011
164513.0,172.59399999999999,-34.690399999999997,-73.853499999999997,69.140799999999999,-60.962600000000002,24.110499999999998,13.096299999999999
164514.0,145.21299999999999,-13.9099,-53.535699999999999,68.0886,-41.904400000000003,31.791,20.3612
164515.0,113.858,3.2079300000000002,-33.768799999999999,63.019100000000002,-25.326899999999998,30.5792,18.9542
164516.0,109.117,9.2471300000000003,-22.807200000000002,61.683599999999998,-19.418199999999999,39.079500000000003,15.662000000000001
164517.0,111.03,23.150300000000001,-3.2156799999999999,77.178799999999995,-12.394600000000001,44.958799999999997,15.9598
164518.0,100.735,33.223399999999998,9.4758399999999998,80.375200000000007,-2.11747,44.478099999999998,9.8682700000000008
164519.0,101.64,63.640999999999998,33.875500000000002,94.5685,9.5909700000000004,49.272799999999997,1.6491899999999999
164520.0,104.04000000000001,72.306200000000004,44.550600000000003,97.673100000000005,18.008400000000002,50.484200000000001,-5.4023700000000003
164521.0,104.63200000000001,90.218999999999994,60.991100000000003,94.311099999999996,12.4573,54.876899999999999,-12.345599999999999
164522.0,107.467,14.9922,-23.205100000000002,1.32752,5.5486300000000002,56.206600000000002,-16.886299999999999
164523.0,102.27500000000001,6.3150500000000003,-35.210299999999997,-1.1052999999999999,7.1662699999999999,49.375799999999998,-22.516500000000001
164524.0,101.943,-0.41625000000000001,-29.724799999999998,1.37677,-1.12283,44.044699999999999,-34.8996
164525.0,100.538,21.032399999999999,-0.65268000000000004,15.320399999999999,-18.296199999999999,36.572000000000003,-39.631999999999998
164526.0,121.172,-3.3066300000000002,-30.472799999999999,-1.6909700000000001,-26.194600000000001,46.502699999999997,-42.238199999999999
164527.0,122.496,67.126999999999995,49.782499999999999,80.693600000000004,-26.8629,53.255499999999998,-34.697499999999998
164528.0,75.7941,34.023400000000002,14.172599999999999,22.3782,-27.416699999999999,27.751100000000001,-17.135200000000001
164529.0,103.672,87.371600000000001,60.323500000000003,69.390299999999996,-46.091500000000003,28.6066,-21.2209
164530.0,101.355,44.936900000000001,-8.1100200000000005,19.7057,-42.131599999999999,30.398299999999999,-4.5923100000000003
164531.0,102.70699999999999,77.527600000000007,10.2288,52.677399999999999,-40.3095,26.175899999999999,6.9376699999999998
164532.0,191.80600000000001,-29.116499999999998,-73.911600000000007,88.559700000000007,-66.932199999999995,-26.7852,-4.8925599999999996
164533.0,186.08799999999999,-38.777999999999999,-78.618300000000005,84.584800000000001,-63.287799999999997,-17.230699999999999,-0.70658399999999999
164534.0,181.464,-24.494,-63.711399999999998,101.31100000000001,-57.520800000000001,-15.278,-1.21678
164535.0,183.96100000000001,-34.1098,-70.933599999999998,98.645200000000003,-57.207799999999999,-7.1881000000000004,0.081451200000000001
164536.0,182.70400000000001,-23.709199999999999,-59.747700000000002,109.831,-56.059800000000003,-0.49145699999999998,1.5623199999999999
164537.0,182.45500000000001,-35.914200000000001,-72.814899999999994,95.706400000000002,-55.7791,9.9093099999999996,6.2930999999999999
164538.0,160.68700000000001,-14.2784,-51.899999999999999,94.404799999999994,-50.548400000000001,15.0618,7.2618299999999998
164539.0,125.884,-14.755800000000001,-48.942599999999999,64.706100000000006,-37.601500000000001,19.654499999999999,9.0677400000000006
164540.0,113.336,13.9063,-17.6677,83.674599999999998,-22.242699999999999,27.8659,17.925799999999999
164541.0,103.14100000000001,11.494199999999999,-17.084099999999999,75.249399999999994,-10.7584,29.1388,18.620699999999999
164542.0,100.693,39.966500000000003,7.2326800000000002,78.660899999999998,-10.3245,42.8155,12.707100000000001
164543.0,92.381500000000003,-17.430700000000002,-40.175899999999999,19.134,-9.0711700000000004,40.869300000000003,14.031000000000001
164544.0,81.139399999999995,-1.5448500000000001,-7.2293700000000003,44.427799999999998,-3.2408899999999998,35.043799999999997,12.393000000000001
164545.0,85.637600000000006,8.6128300000000007,6.4046799999999999,48.020099999999999,3.7895400000000001,43.121499999999997,4.7438700000000003
164546.0,94.964799999999997,46.675199999999997,45.265500000000003,81.952699999999993,9.3136600000000005,49.842700000000001,-1.7285299999999999
164547.0,97.316199999999995,26.726299999999998,12.398199999999999,35.841500000000003,8.9283999999999999,53.099800000000002,-10.8559
164548.0,102.48399999999999,22.836400000000001,-9.1346399999999992,17.253299999999999,13.0886,51.409199999999998,-19.878
164549.0,108.62,26.288499999999999,-2.82586,25.001300000000001,15.966100000000001,49.689900000000002,-30.629899999999999
164550.0,117.919,48.412300000000002,24.4788,38.466500000000003,5.5885199999999999,53.019100000000002,-40.597499999999997
164551.0,104.477,15.9672,-2.3341699999999999,-1.1002700000000001,-10.288,42.7194,-40.0379
164552.0,110.84399999999999,20.122499999999999,1.4438500000000001,6.7059600000000001,-17.562899999999999,45.290999999999997,-40.5336
164553.0,125.752,57.002299999999998,36.989800000000002,59.183500000000002,-22.481200000000001,57.4512,-36.269799999999996
164554.0,72.843299999999999,57.726399999999998,36.444000000000003,42.187800000000003,-20.910900000000002,29.901900000000001,-17.7791
164555.0,83.147800000000004,83.493700000000004,56.280200000000001,52.085000000000001,-33.558500000000002,22.000699999999998,-20.088100000000001
164556.0,88.404399999999995,78.102599999999995,36.173999999999999,49.625399999999999,-36.349299999999999,27.198499999999999,-9.2611799999999995
164557.0,68.732900000000001,50.508099999999999,5.7535699999999999,30.354800000000001,-27.067499999999999,18.105,3.4507300000000001
164558.0,169.59100000000001,-26.362300000000001,-72.5625,80.787800000000004,-52.039400000000001,-26.076000000000001,-3.2191100000000001
164559.0,166.84700000000001,-18.330500000000001,-58.694400000000002,96.309200000000004,-49.622799999999998,-18.721900000000002,0.33329900000000001
164560.0,163.72499999999999,-22.099299999999999,-58.021299999999997,98.237300000000005,-44.626300000000001,-15.605600000000001,-1.4951300000000001
164561.0,165.816,-19.821899999999999,-55.136800000000001,105.056,-44.925600000000003,-7.6632999999999996,2.0045799999999998
164562.0,171.48400000000001,-26.154399999999999,-61.455599999999997,105.34,-45.5413,-0.41560599999999998,1.3200700000000001
164563.0,163.96199999999999,-12.1371,-47.776499999999999,112.333,-41.966200000000001,10.0594,5.7000400000000004
164564.0,124.392,-16.0916,-49.460700000000003,70.931700000000006,-33.020200000000003,13.4603,4.77095
164565.0,93.856499999999997,2.5299200000000002,-23.765000000000001,64.0411,-22.071100000000001,17.895399999999999,9.9066500000000008
164566.0,91.651300000000006,3.4754700000000001,-19.715599999999998,64.705600000000004,-11.808400000000001,23.101700000000001,14.9849
164567.0,95.145899999999997,19.107099999999999,0.235149,87.683999999999997,-2.02163,25.696100000000001,15.346
164568.0,91.331999999999994,30.026499999999999,0.46279399999999998,65.812299999999993,-3.1707800000000002,40.5473,7.4503399999999997
164569.0,75.113900000000001,-20.2456,-53.642699999999998,-1.26336,-3.2982300000000002,33.483800000000002,6.7410500000000004
164570.0,61.319899999999997,-57.511899999999997,-74.423400000000001,-24.5716,2.7249300000000001,23.847999999999999,5.8746799999999997
164571.0,69.322800000000001,-41.340400000000002,-50.645000000000003,-9.4696999999999996,7.2628500000000003,32.903399999999998,-0.46534900000000001
164572.0,83.685299999999998,-29.408000000000001,-37.948300000000003,-0.35835099999999998,11.594799999999999,41.746200000000002,-8.3016000000000005
164573.0,90.765199999999993,-11.739599999999999,-24.9376,1.92615,13.358000000000001,46.111400000000003,-16.154699999999998
164574.0,98.961600000000004,-5.7847099999999996,-20.0001,1.53973,17.4008,48.523800000000001,-22.0718
164575.0,115.43300000000001,29.606000000000002,21.193999999999999,30.623999999999999,15.6721,54.846400000000003,-34.075000000000003
164576.0,120.842,27.358799999999999,17.155000000000001,15.1425,10.5075,56.408799999999999,-39.1447
164577.0,109.31699999999999,34.144599999999997,19.868400000000001,5.2945399999999996,-3.7372299999999998,47.591799999999999,-38.683300000000003
164578.0,126.044,29.820599999999999,14.1241,4.6513400000000003,-11.414099999999999,55.363700000000001,-44.030099999999997
164579.0,120.026,80.292400000000001,59.435400000000001,73.747399999999999,-10.2643,55.158999999999999,-39.2485
164580.0,71.291700000000006,54.287199999999999,28.834700000000002,28.129999999999999,-18.410699999999999,26.179099999999998,-21.160799999999998
164581.0,73.424899999999994,99.153999999999996,64.794499999999999,57.933900000000001,-24.131599999999999,22.546199999999999,-14.785600000000001
164582.0,70.917599999999993,52.123199999999997,16.739699999999999,23.869,-28.5914,20.374300000000002,-9.6783699999999993
164583.0,48.722700000000003,55.734400000000001,21.857099999999999,41.107399999999998,-18.560500000000001,12.5433,-0.88009499999999996
164584.0,151.65799999999999,-1.2094400000000001,-44.731000000000002,97.490600000000001,-41.825099999999999,-24.613399999999999,-1.0658799999999999
164585.0,152.70400000000001,-15.464499999999999,-54.936700000000002,91.952600000000004,-40.188499999999998,-19.445699999999999,0.86224299999999998
164586.0,154.358,-3.6796199999999999,-39.284599999999998,113.85299999999999,-35.656999999999996,-15.700200000000001,-1.44567
164587.0,149.87799999999999,-9.0593599999999999,-42.184399999999997,108.23399999999999,-34.005099999999999,-9.1949699999999996,0.34322000000000003
164588.0,154.42500000000001,-9.9741199999999992,-43.557699999999997,112.69499999999999,-34.1661,1.01799,3.94963
164589.0,142.25200000000001,-2.5568399999999998,-35.295099999999998,108.471,-29.993099999999998,10.605700000000001,7.43262
164590.0,94.788300000000007,0.85031299999999999,-24.832100000000001,68.673699999999997,-21.595600000000001,12.5799,6.0411400000000004
164591.0,80.934700000000007,12.236599999999999,-9.2509099999999993,66.538899999999998,-15.3369,17.021699999999999,11.5221
164592.0,81.704599999999999,12.0685,-6.7007199999999996,69.496200000000002,-7.2006199999999998,20.086400000000001,13.9237
164593.0,88.771900000000002,27.582699999999999,15.4069,96.926900000000003,2.9050199999999999,23.421500000000002,11.6656
164594.0,84.620099999999994,45.100999999999999,25.178899999999999,83.835899999999995,1.31036,38.531199999999998,3.2911600000000001
164595.0,61.436300000000003,-6.0627300000000002,-28.9299,9.4989100000000004,2.2625299999999999,29.601299999999998,1.7722100000000001
164596.0,50.953899999999997,-45.788699999999999,-60.669899999999998,-19.720800000000001,8.0757700000000003,19.25,0.130964
164597.0,62.363,-36.2072,-50.034999999999997,-9.7264900000000001,11.8895,26.564499999999999,-5.4604100000000004
164598.0,79.630499999999998,-22.331900000000001,-33.766800000000003,3.4849100000000002,14.878500000000001,36.374299999999998,-14.319800000000001
164599.0,88.538200000000003,-14.2994,-22.002099999999999,3.15835,15.338200000000001,42.375500000000002,-20.392900000000001
164600.0,97.066400000000002,5.7698,6.9652599999999998,19.5749,16.6981,46.790500000000002,-24.778099999999998
164601.0,114.64700000000001,25.848600000000001,29.7394,27.184699999999999,12.5526,55.389600000000002,-33.938000000000002
164602.0,108.45699999999999,30.278600000000001,32.508499999999998,23.575299999999999,9.5941299999999998,52.305100000000003,-32.733699999999999
164603.0,109.264,22.785399999999999,7.0870800000000003,-13.7803,-2.40232,48.651299999999999,-35.6417
164604.0,143.78899999999999,76.270700000000005,49.7667,49.311,-3.9479600000000001,65.357399999999998,-48.6449
164605.0,115.664,98.744,72.521199999999993,79.723299999999995,-0.29101500000000002,53.150500000000001,-38.089500000000001
164606.0,71.649100000000004,79.036500000000004,51.204900000000002,33.843299999999999,-18.191600000000001,21.4663,-19.992999999999999
164607.0,65.548500000000004,93.344499999999996,60.113199999999999,54.605699999999999,-17.0779,23.375499999999999,-12.446300000000001
164608.0,53.402000000000001,63.599299999999999,33.806699999999999,40.716500000000003,-19.957699999999999,15.450200000000001,-8.3909699999999994
164609.0,47.266599999999997,59.383099999999999,26.426100000000002,43.908999999999999,-17.966799999999999,11.9056,-2.87832
164610.0,136.56999999999999,-8.41587,-50.695700000000002,81.663899999999998,-34.027299999999997,-22.065300000000001,1.47739
164611.0,141.529,-0.60950099999999996,-39.824599999999997,100.506,-32.511699999999998,-19.380700000000001,1.31406
164612.0,145.49199999999999,-10.554399999999999,-44.983499999999999,102.999,-29.074999999999999,-14.565300000000001,1.44154
164613.0,142.101,2.5567199999999999,-26.429600000000001,119.97799999999999,-25.4893,-8.3729600000000008,0.78561800000000004
164614.0,133.13499999999999,-7.9209699999999996,-34.321899999999999,103.679,-22.492100000000001,2.2780399999999998,5.5885100000000003
164615.0,106.97799999999999,11.3782,-13.7667,97.018699999999995,-18.484300000000001,8.1804799999999993,5.7329800000000004
164616.0,80.402100000000004,-7.3297100000000004,-28.017299999999999,52.132300000000001,-15.4998,11.292400000000001,7.4694000000000003
164617.0,74.954800000000006,16.1999,-3.7616499999999999,67.2697,-12.0768,15.875,11.526899999999999
164618.0,73.9786,-0.025751099999999999,-15.3515,55.331299999999999,-4.5485800000000003,16.916899999999998,11.612500000000001
164619.0,85.654700000000005,30.1479,23.345600000000001,100.38800000000001,6.0155399999999997,21.930700000000002,10.4491
164620.0,79.086200000000005,26.157,13.5603,63.799300000000002,3.2666900000000001,37.279800000000002,1.0757000000000001
164621.0,54.375500000000002,-11.223800000000001,-20.232399999999998,8.2015399999999996,2.5835400000000002,27.6999,0.66429300000000002
164622.0,44.909700000000001,-57.792000000000002,-56.292400000000001,-28.6599,7.2575599999999998,18.716000000000001,0.50073999999999996
164623.0,59.144300000000001,-29.630700000000001,-26.738199999999999,2.2387299999999999,11.400499999999999,26.4072,-5.2995400000000004
164624.0,79.232200000000006,-30.903700000000001,-27.176500000000001,-0.67839700000000003,14.3127,37.331699999999998,-14.9153
164625.0,88.256399999999999,-6.1157399999999997,-0.339277,15.2536,14.555999999999999,42.345999999999997,-21.659700000000001
164626.0,95.293599999999998,-21.101199999999999,-12.614800000000001,-6.2219199999999999,15.0107,45.501899999999999,-25.990300000000001
164627.0,103.98999999999999,5.9171500000000004,10.777900000000001,6.2915299999999998,10.459,50.4557,-30.694900000000001
164628.0,92.226200000000006,-2.0531700000000002,2.46197,-7.6436000000000002,4.5547000000000004,45.3127,-27.122199999999999
164629.0,100.929,31.129300000000001,15.555999999999999,-3.4886699999999999,-3.9532099999999999,47.3538,-28.9298
164630.0,148.86099999999999,84.415300000000002,60.5107,66.958299999999994,2.1987299999999999,74.409000000000006,-41.134300000000003
164631.0,119.023,124.352,93.396600000000007,81.6203,-0.43182900000000002,57.857700000000001,-29.7879
164632.0,67.1036,77.278499999999994,48.429699999999997,21.198799999999999,-14.0641,18.776399999999999,-12.8125
164633.0,54.411299999999997,85.853499999999997,54.515500000000003,53.040900000000001,-10.6792,21.248000000000001,-8.8235499999999991
164634.0,46.834400000000002,49.081699999999998,22.253399999999999,27.131599999999999,-15.324199999999999,15.8695,-6.3445400000000003
164635.0,47.766300000000001,69.239999999999995,39.177999999999997,48.791800000000002,-18.584199999999999,13.1134,-2.7373099999999999
164636.0,124.47,10.970800000000001,-27.844200000000001,95.278499999999994,-28.268000000000001,-19.719000000000001,3.75183
164637.0,130.43000000000001,-0.67381500000000005,-36.010599999999997,95.765100000000004,-26.224699999999999,-17.778300000000002,3.81284
164638.0,134.01300000000001,9.5179899999999993,-21.471,116.48699999999999,-23.332999999999998,-13.7018,3.9016199999999999
164639.0,136.09399999999999,1.9176299999999999,-23.993300000000001,118.158,-19.604299999999999,-6.4379900000000001,4.0499099999999997
164640.0,118.992,11.632300000000001,-11.0023,112.73,-16.037500000000001,4.5947300000000002,10.0451
164641.0,79.930800000000005,4.02332,-15.8508,66.860200000000006,-13.0236,7.5062199999999999,6.2922500000000001
164642.0,70.708600000000004,15.4796,-2.96177,69.021699999999996,-11.952,9.0523500000000006,6.61022
164643.0,70.796800000000005,14.291700000000001,-5.2494899999999998,63.892200000000003,-10.167899999999999,13.9552,10.107100000000001
164644.0,67.276200000000003,16.396799999999999,3.33683,68.192800000000005,-3.3220800000000001,15.089700000000001,9.6614500000000003
164645.0,80.715500000000006,30.8612,28.990200000000002,100.967,7.7599299999999998,18.5669,9.1409199999999995
164646.0,73.488,43.695300000000003,35.957000000000001,78.625100000000003,2.9536699999999998,35.701999999999998,-0.21737799999999999
164647.0,50.725200000000001,-25.320799999999998,-30.921800000000001,-3.8761000000000001,-1.3698999999999999,25.5335,-0.24008399999999999
164648.0,41.143500000000003,-54.440600000000003,-53.522599999999997,-22.9846,3.6800299999999999,15.172800000000001,0.15870200000000001
164649.0,55.693899999999999,-29.314800000000002,-24.1691,3.15747,9.3205799999999996,24.200299999999999,-7.5365399999999996
164650.0,78.588800000000006,-24.563199999999998,-12.582700000000001,8.8273399999999995,12.902699999999999,36.640799999999999,-16.2348
164651.0,84.654799999999994,-9.6011199999999999,4.0593599999999999,13.784000000000001,12.329499999999999,40.707000000000001,-21.017299999999999
164652.0,88.429400000000001,-6.6147499999999999,5.7354900000000004,8.50929,12.1058,43.411299999999997,-22.598099999999999
164653.0,88.683999999999997,15.0459,19.374400000000001,15.7408,6.4701599999999999,45.456200000000003,-22.540700000000001
164654.0,76.502899999999997,-7.8113200000000003,-9.7572899999999994,-16.099599999999999,-3.0716999999999999,39.328899999999997,-19.3887
164655.0,88.242800000000003,13.311999999999999,-0.44563700000000001,-12.8588,-5.5646100000000001,43.987499999999997,-21.409099999999999
164656.0,146.81100000000001,91.384900000000002,76.791499999999999,82.941699999999997,4.1616299999999997,78.186899999999994,-31.626899999999999
164657.0,121.93300000000001,144.779,104.91500000000001,83.922200000000004,-4.5380000000000003,59.494999999999997,-20.978100000000001
164658.0,55.0045,66.292599999999993,34.361199999999997,16.009399999999999,-9.4066600000000005,15.638,-5.2912299999999997
164659.0,46.456899999999997,85.177400000000006,52.587299999999999,57.194200000000002,-6.5751299999999997,18.473099999999999,-4.8847699999999996
164660.0,51.659500000000001,66.788799999999995,33.660899999999998,41.728200000000001,-15.667,17.5227,-6.2158800000000003
164661.0,50.792400000000001,70.679500000000004,39.658299999999997,49.299199999999999,-20.091699999999999,13.100199999999999,-5.7095700000000003
164662.0,115.73999999999999,0.77779799999999999,-34.619599999999998,81.221800000000002,-23.922599999999999,-18.479399999999998,5.2468199999999996
164663.0,119.295,9.3292699999999993,-23.526199999999999,98.267300000000006,-22.130099999999999,-15.571400000000001,6.4034399999999998
164664.0,124.23099999999999,-1.2366600000000001,-30.7989,98.308499999999995,-19.4026,-12.7134,5.5681099999999999
164665.0,125.00700000000001,10.764900000000001,-10.475,120.499,-14.2539,-4.7641099999999996,6.4696600000000002
164666.0,103.193,5.8488600000000002,-11.4933,95.7667,-11.0871,3.7695500000000002,9.8672199999999997
164667.0,67.853800000000007,9.7317400000000003,-8.6209299999999995,61.635100000000001,-11.1638,6.5934799999999996,6.2309599999999996
164668.0,63.942799999999998,4.5631700000000004,-13.037100000000001,52.311900000000001,-9.6485000000000003,8.5268800000000002,7.3297100000000004
164669.0,64.968800000000002,15.5547,-2.2199399999999998,63.049599999999998,-7.8386800000000001,11.7902,8.2398399999999992
164670.0,61.834800000000001,6.3138500000000004,-5.7853399999999997,54.610500000000002,-3.5720299999999998,13.6044,7.45451
164671.0,72.170000000000002,23.194600000000001,25.191700000000001,89.260499999999993,6.2262899999999997,15.2082,7.3389199999999999
164672.0,67.921099999999996,27.712299999999999,20.907900000000001,64.2791,4.7236900000000004,31.089700000000001,-2.19014
164673.0,51.784799999999997,-27.469999999999999,-38.496299999999998,-6.2485400000000002,-2.3020999999999998,24.3323,-5.2805799999999996
164674.0,43.730600000000003,-67.866600000000005,-61.216799999999999,-30.067699999999999,-3.2551100000000002,14.4963,-3.0833400000000002
164675.0,53.603000000000002,-43.619999999999997,-29.7227,-5.3770800000000003,-0.60020899999999999,23.214500000000001,-6.6149399999999998
164676.0,69.455799999999996,-39.649099999999997,-24.7746,-2.4567600000000001,3.3186,32.743099999999998,-13.209
164677.0,72.142799999999994,-21.001899999999999,-6.14377,3.9218299999999999,5.5619500000000004,35.691000000000003,-16.518599999999999
164678.0,76.525300000000001,-34.215299999999999,-21.238099999999999,-20.665099999999999,8.0298700000000007,39.2742,-16.922499999999999
164679.0,78.000200000000007,-7.2033199999999997,-5.8451700000000004,-5.7067300000000003,7.0869,41.4739,-16.031700000000001
164680.0,67.020899999999997,-21.1294,-34.523899999999998,-34.990600000000001,-2.9748700000000001,34.898600000000002,-14.441000000000001
164681.0,80.342600000000004,17.2346,-0.63131499999999996,-4.47743,-6.9210700000000003,40.848999999999997,-17.345700000000001
164682.0,140.31800000000001,82.684600000000003,61.425699999999999,78.715900000000005,4.98041,75.526300000000006,-26.5749
164683.0,115.033,135.214,83.612300000000005,65.765699999999995,-5.2956200000000004,52.482700000000001,-18.101099999999999
164684.0,46.0563,55.125799999999998,22.414999999999999,14.7966,-5.4073900000000004,14.4261,-3.2602000000000002
164685.0,45.009500000000003,82.675200000000004,47.990699999999997,56.795000000000002,-5.6074299999999999,17.668700000000001,-2.57037
164686.0,57.741999999999997,54.188600000000001,15.1675,26.619199999999999,-18.095600000000001,18.6951,-5.6664599999999998
164687.0,57.250100000000003,78.2547,43.9345,54.854900000000001,-22.7257,15.3414,-5.7668999999999997
164688.0,108.26900000000001,17.644300000000001,-16.878299999999999,92.816900000000004,-20.104700000000001,-18.099399999999999,5.4426800000000002
164689.0,109.74299999999999,8.6354799999999994,-23.592500000000001,89.353999999999999,-19.304200000000002,-13.7966,8.1460100000000004
164690.0,110.824,17.010100000000001,-10.7491,105.473,-15.714700000000001,-10.992699999999999,6.5009800000000002
164691.0,112.00700000000001,11.3904,-6.0262900000000004,110.539,-10.257999999999999,-2.8724400000000001,10.7173
164692.0,93.707400000000007,22.353899999999999,6.8002399999999996,103.473,-8.0298099999999994,4.2530999999999999,12.239100000000001
164693.0,62.816200000000002,6.9057500000000003,-11.109500000000001,54.110799999999998,-9.1070899999999995,6.5433899999999996,7.4238099999999996
164694.0,60.618099999999998,25.0031,7.4233500000000001,69.363200000000006,-8.1685499999999998,8.2077399999999994,8.4768399999999993
164695.0,61.0334,15.354900000000001,-1.8068500000000001,60.511299999999999,-6.7741899999999999,10.3879,7.1901799999999998
164696.0,57.167700000000004,24.577000000000002,11.504200000000001,68.763400000000004,-4.1897900000000003,11.862500000000001,5.5481299999999996
164697.0,61.622700000000002,22.160699999999999,22.003,78.892099999999999,1.53129,13.1198,3.9376000000000002
164698.0,63.817399999999999,44.244199999999999,41.035800000000002,89.433300000000003,6.0436399999999999,24.065999999999999,-3.06792
164699.0,62.875700000000002,14.7888,-5.3354299999999997,40.476300000000002,7.35954,24.102,-12.468299999999999
164700.0,58.648499999999999,-32.092300000000002,-48.049799999999998,-1.8526100000000001,4.0732400000000002,16.473800000000001,-17.550699999999999
164701.0,55.321899999999999,-32.643500000000003,-36.990600000000001,-2.0777899999999998,-0.223935,20.423100000000002,-15.5244
164702.0,61.347700000000003,-41.898899999999998,-36.5242,-8.3145100000000003,-1.22603,26.185700000000001,-15.552899999999999
164703.0,57.2166,-26.412299999999998,-17.081700000000001,-1.8394699999999999,-0.78507199999999999,26.9773,-14.4564
164704.0,59.156399999999998,-26.281600000000001,-19.8674,-16.232399999999998,1.3164800000000001,31.5307,-12.0284
164705.0,67.261899999999997,3.77738,2.9943200000000001,12.8027,7.6774300000000002,35.767499999999998,-11.835599999999999
164706.0,62.7211,21.335599999999999,-1.27393,6.1117600000000003,5.1661200000000003,30.606000000000002,-14.6622
164707.0,85.434899999999999,20.309100000000001,-11.8986,-9.5410699999999995,-4.3525299999999998,40.943199999999997,-20.382100000000001
164708.0,135.00800000000001,105.042,73.857699999999994,101.379,4.3027899999999999,73.005200000000002,-20.9023
164709.0,101.538,134.50700000000001,81.322999999999993,66.246200000000002,-6.9216699999999998,44.077100000000002,-12.6531
164710.0,45.939,69.135000000000005,34.447000000000003,36.006399999999999,-4.9726499999999998,16.872499999999999,-3.1918600000000001
164711.0,48.232599999999998,75.243600000000001,39.6785,52.714199999999998,-9.6885999999999992,18.293099999999999,-4.8191300000000004
164712.0,56.0441,75.216999999999999,37.918399999999998,48.056899999999999,-19.2073,16.144100000000002,-6.7441800000000001
164713.0,60.7211,72.165099999999995,34.6006,46.8172,-23.6142,16.8184,-4.6247299999999996
164714.0,102.297,9.5377200000000002,-23.284099999999999,81.340000000000003,-16.238600000000002,-18.546199999999999,4.1684200000000002
164715.0,97.636200000000002,16.224900000000002,-13.863,87.601399999999998,-15.4876,-12.977,7.3153499999999996
164716.0,91.712900000000005,4.09077,-19.343399999999999,77.280900000000003,-11.962300000000001,-8.8419899999999991,6.48888
164717.0,98.406000000000006,17.739000000000001,5.2508100000000004,106.467,-7.4867299999999997,-3.54284,10.666399999999999
164718.0,81.655000000000001,9.2714200000000009,-2.5967099999999999,81.739000000000004,-5.8335299999999997,2.4945599999999999,9.9051600000000004
164719.0,60.564900000000002,13.9856,-2.6917800000000001,60.363399999999999,-7.7197100000000001,5.7101800000000003,7.9373699999999996
164720.0,59.445,9.5953199999999992,-8.2094000000000005,53.043300000000002,-7.3214899999999998,7.59877,8.5898800000000008
164721.0,57.853499999999997,15.470499999999999,-1.86738,57.996000000000002,-6.21983,9.3070400000000006,6.4492700000000003
164722.0,54.5473,13.2354,-1.5885800000000001,54.523200000000003,-5.0995799999999996,10.2592,3.8795099999999998
164723.0,54.5015,14.879300000000001,8.1973400000000005,61.536900000000003,-2.7740900000000002,11.747,0.047963199999999998
164724.0,59.907400000000003,17.813199999999998,20.6935,69.661500000000004,1.29596,18.079799999999999,-4.3209600000000004
164725.0,70.366200000000006,40.697000000000003,42.378100000000003,90.927599999999998,9.0552100000000006,24.285299999999999,-12.84
164726.0,83.941599999999994,52.436900000000001,42.604199999999999,95.628,12.293900000000001,26.241,-26.709299999999999
164727.0,75.130499999999998,25.664400000000001,11.0008,47.2164,5.3695199999999996,26.496300000000002,-28.614699999999999
164728.0,60.806199999999997,-35.353999999999999,-32.881500000000003,-9.9217099999999991,0.54296299999999997,24.134399999999999,-21.284300000000002
164729.0,48.234299999999998,-51.721200000000003,-42.6188,-30.0076,-3.47967,21.245799999999999,-13.8971
164730.0,45.9587,-51.297800000000002,-49.896799999999999,-43.968299999999999,-4.5814399999999997,24.426500000000001,-8.4431799999999999
164731.0,57.237699999999997,-26.8644,-24.4345,-7.1714000000000002,3.4030800000000001,30.061699999999998,-7.84063
164732.0,57.2851,68.802800000000005,60.4773,65.363299999999995,6.3927399999999999,29.5899,-12.6464
164733.0,95.812600000000003,58.721699999999998,29.020299999999999,24.3568,0.346329,46.942700000000002,-22.556699999999999
164734.0,130.81399999999999,113.622,70.904499999999999,94.789500000000004,7.0708799999999998,69.466800000000006,-19.238099999999999
164735.0,90.7393,96.288899999999998,45.5411,33.948500000000003,-8.8654899999999994,38.084800000000001,-10.777200000000001
164736.0,53.3431,70.258899999999997,35.709899999999998,44.070099999999996,-9.0894600000000008,22.834399999999999,-4.4243699999999997
164737.0,49.945700000000002,65.8078,33.6646,44.517699999999998,-13.802099999999999,18.5501,-5.4357800000000003
164738.0,50.506799999999998,61.516800000000003,29.524699999999999,35.257199999999997,-19.295200000000001,12.4625,-5.63096
164739.0,50.7851,61.8337,27.714400000000001,40.701000000000001,-18.610299999999999,13.5901,-5.6668700000000003
164740.0,98.8964,24.069400000000002,-7.2848499999999996,94.557000000000002,-13.0777,-18.872900000000001,3.5211399999999999
164741.0,82.240499999999997,20.834900000000001,-4.8977199999999996,81.756600000000006,-10.9002,-11.452,4.9096200000000003
164742.0,72.252899999999997,19.338899999999999,0.13917199999999999,76.457599999999999,-8.7898599999999991,-6.8007299999999997,6.38009
164743.0,85.842299999999994,23.835699999999999,12.9223,100.568,-5.4581400000000002,-3.1445799999999999,11.6267
164744.0,73.758399999999995,23.884599999999999,13.9084,89.9358,-4.0997899999999996,1.83891,9.2826599999999999
164745.0,57.858899999999998,17.158799999999999,1.2141999999999999,62.410699999999999,-6.1205999999999996,4.7365899999999996,6.9394200000000001
164746.0,57.620100000000001,27.6479,9.1056899999999992,69.636700000000005,-6.4942200000000003,6.6325200000000004,7.6625699999999997
164747.0,56.118600000000001,20.796900000000001,1.93347,60.927,-5.9982699999999998,8.38706,5.9745499999999998
164748.0,53.595700000000001,29.366199999999999,11.1699,67.713700000000003,-5.9569099999999997,9.0954499999999996,2.4795500000000001
164749.0,53.438899999999997,23.107900000000001,8.8604299999999991,63.568100000000001,-5.7541000000000002,10.399699999999999,-2.2694999999999999
164750.0,57.838500000000003,35.026200000000003,31.787500000000001,83.498999999999995,-5.0744400000000001,13.8795,-7.5944599999999998
164751.0,73.130200000000002,22.114899999999999,40.604199999999999,87.918999999999997,-2.3584800000000001,22.0093,-11.870799999999999
164752.0,93.987300000000005,51.615400000000001,81.690700000000007,124.443,-0.030093399999999999,35.467199999999998,-18.635000000000002
164753.0,83.724400000000003,59.6738,69.659700000000001,94.111699999999999,-1.4641,38.685600000000001,-22.889700000000001
164754.0,60.564500000000002,6.2569999999999997,7.0539899999999998,26.120699999999999,2.2449400000000002,26.0916,-20.258700000000001
164755.0,44.944099999999999,-16.4499,-18.5975,-4.8227599999999997,1.19011,18.846399999999999,-16.180199999999999
164756.0,42.094499999999996,-28.9986,-36.1389,-25.729700000000001,-2.0767799999999998,20.218699999999998,-12.2148
164757.0,53.273800000000001,-10.952299999999999,-4.54305,10.5898,1.3096000000000001,26.686199999999999,-10.478899999999999
164758.0,62.032899999999998,56.755600000000001,71.352400000000003,63.437100000000001,0.38700699999999999,32.174500000000002,-13.9267
164759.0,92.901799999999994,73.302800000000005,66.731499999999997,53.976999999999997,0.74643000000000004,48.6554,-20.308900000000001
164760.0,114.586,133.56800000000001,93.716800000000006,99.936700000000002,4.1248699999999996,61.447800000000001,-11.1426
164761.0,91.950800000000001,107.785,57.640500000000003,54.296999999999997,-16.100999999999999,40.638599999999997,-3.1286100000000001
164762.0,59.575000000000003,64.216800000000006,33.728299999999997,52.561999999999998,-14.095000000000001,26.514800000000001,-6.6840299999999999
164763.0,43.850900000000003,73.950299999999999,42.912599999999998,47.159300000000002,-12.842700000000001,12.444699999999999,-6.1623299999999999
164764.0,40.117800000000003,68.289400000000001,37.758600000000001,44.483400000000003,-12.263999999999999,10.6334,-3.95702
164765.0,34.268500000000003,61.091099999999997,34.2712,46.071300000000001,-10.385400000000001,9.1108600000000006,-4.4596200000000001
164766.0,93.742500000000007,15.909599999999999,-13.3988,83.1935,-10.979799999999999,-18.449400000000001,3.9479099999999998
164767.0,69.307199999999995,21.804600000000001,0.0193113,73.605900000000005,-8.4482999999999997,-9.0591600000000003,4.3467599999999997
164768.0,59.332700000000003,8.8963099999999997,-7.4585900000000001,55.103900000000003,-7.1996799999999999,-5.1986499999999998,6.4663300000000001
164769.0,68.498599999999996,20.218699999999998,10.3194,80.602400000000003,-4.6003400000000001,-3.4641099999999998,9.1400500000000005
164770.0,67.425799999999995,13.3192,2.9861300000000002,73.341999999999999,-4.0506700000000002,0.249609,7.4630400000000003
164771.0,57.460900000000002,18.054200000000002,2.2410299999999999,63.333399999999997,-5.6477899999999996,4.1338499999999998,6.7952000000000004
164772.0,54.955300000000001,11.473699999999999,-7.2578899999999997,51.248199999999997,-6.0344699999999998,5.7908400000000002,6.6412199999999997
164773.0,54.5884,19.103000000000002,-0.98499599999999998,57.274799999999999,-6.16716,7.3216200000000002,5.0848199999999997
164774.0,53.3735,13.774900000000001,-7.3381299999999996,49.762999999999998,-6.5907600000000004,8.2983799999999999,1.92374
164775.0,54.816800000000001,18.020700000000001,-1.34782,55.974699999999999,-7.0916199999999998,9.4895600000000009,-3.32098
164776.0,59.098799999999997,10.9604,-2.5200800000000001,53.920499999999997,-8.0398200000000006,11.9389,-9.3935300000000002
164777.0,69.746200000000002,25.7362,25.067299999999999,81.013000000000005,-8.5012000000000008,17.588200000000001,-14.453900000000001
164778.0,83.390500000000003,26.227699999999999,38.779800000000002,90.166600000000003,-7.3944200000000002,29.352399999999999,-15.9381
164779.0,79.599400000000003,43.305,52.680999999999997,86.020300000000006,-4.43994,36.471499999999999,-16.066500000000001
164780.0,60.9255,48.442399999999999,47.687600000000003,72.011499999999998,2.2893599999999998,28.582599999999999,-14.9604
164781.0,48.757899999999999,42.3309,29.6294,50.262300000000003,2.6961499999999998,20.851500000000001,-15.558400000000001
164782.0,49.383699999999997,9.0225200000000001,-6.2845700000000004,11.9499,0.74009199999999997,20.3904,-17.340900000000001
164783.0,56.970599999999997,8.0544600000000006,11.0801,24.168199999999999,1.49471,24.871500000000001,-19.690200000000001
164784.0,67.548299999999998,49.918399999999998,63.9816,53.764600000000002,-6.9680499999999999,32.568800000000003,-18.942599999999999
164785.0,74.093900000000005,81.762600000000006,85.944800000000001,75.748599999999996,-14.065099999999999,39.451300000000003,-7.0330399999999997
164786.0,88.739599999999996,73.941000000000003,49.517400000000002,52.055300000000003,-17.236599999999999,46.335799999999999,-0.69109299999999996
164787.0,82.899199999999993,56.257899999999999,17.535,21.810300000000002,-21.299600000000002,36.5642,-7.0297999999999998
164788.0,51.232599999999998,45.712600000000002,19.896699999999999,40.259399999999999,-9.9027100000000008,24.129200000000001,-3.0825999999999998
164789.0,39.401400000000002,70.497200000000007,36.863500000000002,42.194800000000001,-7.2308700000000004,11.7654,0.016826899999999999
164790.0,30.601299999999998,50.577100000000002,24.284300000000002,31.564800000000002,-6.3583299999999996,8.2825699999999998,-4.3382399999999999
164791.0,26.4956,58.931399999999996,37.176099999999998,47.2149,-8.0985399999999998,6.4581900000000001,-2.85541
164792.0,86.336600000000004,34.796700000000001,8.0303599999999999,97.121899999999997,-8.9613800000000001,-17.244900000000001,4.1567400000000001
164793.0,60.266100000000002,19.874400000000001,0.98288299999999995,64.918899999999994,-6.9336500000000001,-7.6866399999999997,4.9555699999999998
164794.0,53.386899999999997,31.576699999999999,15.758100000000001,72.002600000000001,-6.1432200000000003,-4.2032299999999996,7.3026099999999996
164795.0,56.325400000000002,22.3659,10.946199999999999,69.925899999999999,-4.2648999999999999,-2.8648500000000001,7.2543100000000003
164796.0,57.214300000000001,31.788399999999999,21.7254,82.376000000000005,-3.07666,-0.58095399999999997,4.9875499999999997
164797.0,55.734999999999999,22.195799999999998,6.7928699999999997,67.1173,-4.4851000000000001,2.7129699999999999,5.0611600000000001
164798.0,53.228700000000003,32.630899999999997,12.2623,69.9298,-5.5692300000000001,5.1093299999999999,5.6601499999999998
164799.0,52.701300000000003,26.349599999999999,3.5425300000000002,60.880899999999997,-5.7654899999999998,6.3366800000000003,4.3633800000000003
164800.0,53.887900000000002,32.806600000000003,7.8442100000000003,66.651300000000006,-6.2201399999999998,7.4612600000000002,1.56989
164801.0,55.869500000000002,30.656500000000001,6.0568600000000004,65.896199999999993,-6.6509499999999999,8.7348700000000008,-3.9129900000000002
164802.0,59.588299999999997,39.685499999999998,18.3249,78.117199999999997,-7.2514599999999998,10.8962,-9.7062399999999993
164803.0,66.003200000000007,25.012899999999998,9.5915300000000006,68.531700000000001,-8.9715399999999992,15.119199999999999,-14.449299999999999
164804.0,68.695300000000003,37.912100000000002,26.883500000000002,81.515900000000002,-10.0396,20.651700000000002,-14.530200000000001
164805.0,67.169899999999998,46.154600000000002,43.404400000000003,86.423500000000004,-8.3361900000000002,26.372399999999999,-12.6084
164806.0,64.447500000000005,52.963900000000002,58.366599999999998,85.070400000000006,-5.7810800000000002,31.267600000000002,-8.8254699999999993
164807.0,55.5214,61.312399999999997,64.873099999999994,81.399600000000007,-4.3433599999999997,28.677700000000002,-8.4490300000000005
164808.0,55.677300000000002,64.792699999999996,64.372699999999995,78.461200000000005,-2.1401599999999998,27.645600000000002,-14.149699999999999
164809.0,66.819900000000004,74.531499999999994,82.684899999999999,90.8489,-3.49166,30.3872,-22.049099999999999
164810.0,65.289599999999993,61.335799999999999,66.878799999999998,57.437100000000001,-12.9102,30.347200000000001,-17.628699999999998
164811.0,63.2089,11.056900000000001,-5.7119200000000001,-14.3316,-21.204999999999998,26.625,2.56318
164812.0,69.733400000000003,17.6981,0.22239300000000001,16.002300000000002,-13.2372,36.778300000000002,-0.40817599999999998
164813.0,63.542400000000001,71.090699999999998,51.075499999999998,49.280999999999999,-7.9372499999999997,31.267700000000001,-12.594799999999999
164814.0,38.075800000000001,33.699399999999997,11.5717,15.375400000000001,-4.28681,16.508500000000002,-7.2366999999999999
164815.0,34.306399999999996,81.721599999999995,55.009,64.489999999999995,-4.70634,13.187200000000001,-3.5861100000000001
164816.0,25.449999999999999,61.665900000000001,38.953800000000001,44.2943,-5.9085400000000003,5.9644000000000004,-2.0962100000000001
164817.0,24.1889,71.6023,51.253300000000003,60.739199999999997,-7.59917,5.2954999999999997,-2.35914
164818.0,81.1614,23.487300000000001,-4.7539800000000003,79.780100000000004,-9.4342199999999998,-14.7173,6.16791
164819.0,59.899999999999999,22.507400000000001,2.7295099999999999,66.298500000000004,-7.41479,-7.2018700000000004,5.5542299999999996
164820.0,49.482300000000002,15.688700000000001,-0.26608399999999999,52.1586,-5.8836899999999996,-3.4981399999999998,6.8665500000000002
164821.0,48.062100000000001,20.767600000000002,7.5998200000000002,58.387300000000003,-4.4430699999999996,-2.1855799999999999,7.1275899999999996
164822.0,51.827800000000003,16.471399999999999,4.3405800000000001,59.980200000000004,-3.8666999999999998,-0.64226300000000003,4.9010100000000003
164823.0,53.1036,22.567900000000002,6.67509,64.966700000000003,-4.4999500000000001,1.974,2.7976899999999998
164824.0,49.387300000000003,12.6812,-7.6167499999999997,46.904800000000002,-4.7380599999999999,3.95458,3.9541499999999998
164825.0,49.938800000000001,22.253599999999999,-0.25116100000000002,54.8429,-4.2493800000000004,5.4675599999999998,4.0035299999999996
164826.0,52.185000000000002,14.570399999999999,-9.4250699999999998,48.3904,-3.8155700000000001,6.9801900000000003,0.88065400000000005
164827.0,53.466200000000001,22.093699999999998,-0.304116,56.6023,-5.2690799999999998,9.2521599999999999,-4.2075800000000001
164828.0,55.262599999999999,11.682700000000001,-7.7748100000000004,47.397100000000002,-6.8490700000000002,10.856999999999999,-8.3781999999999996
164829.0,59.409399999999998,40.897599999999997,20.170999999999999,75.516499999999994,-7.8540900000000002,13.8415,-11.889200000000001
164830.0,57.079500000000003,27.5395,8.4506099999999993,56.522300000000001,-10.952,14.907400000000001,-12.5686
164831.0,57.824599999999997,21.854900000000001,12.098800000000001,55.110500000000002,-13.5047,17.767700000000001,-10.3908
164832.0,66.139799999999994,27.508500000000002,23.519600000000001,63.028599999999997,-12.953900000000001,27.105499999999999,-9.0858500000000006
164833.0,60.684100000000001,27.5533,26.741900000000001,55.576000000000001,-10.175800000000001,28.246700000000001,-7.5194599999999996
164834.0,62.616,34.656399999999998,40.840400000000002,58.252800000000001,-10.576499999999999,30.480699999999999,-10.7835
164835.0,69.933300000000003,61.976700000000001,71.840800000000002,79.562100000000001,-13.599399999999999,33.583100000000002,-15.484299999999999
164836.0,52.7256,69.885800000000003,59.816299999999998,57.385800000000003,-15.482799999999999,22.603200000000001,-11.494199999999999
164837.0,53.8812,14.5578,-28.178699999999999,-27.0932,-8.7134800000000006,16.110499999999998,-6.20669
164838.0,62.889600000000002,-31.083500000000001,-40.549399999999999,-15.776999999999999,4.1510699999999998,30.9833,-13.598000000000001
164839.0,52.0914,64.547899999999998,47.584800000000001,51.943199999999997,1.5099800000000001,26.684799999999999,-10.608599999999999
164840.0,42.161099999999998,58.340600000000002,20.728300000000001,25.1934,-3.6657600000000001,11.0143,-5.9617300000000002
164841.0,27.020099999999999,65.639499999999998,46.103900000000003,56.367699999999999,-4.8390599999999999,10.2758,-4.3431899999999999
164842.0,21.1145,42.508800000000001,23.685300000000002,30.040199999999999,-6.1425099999999997,4.3140000000000001,-0.755714
164843.0,23.6205,63.084400000000002,42.433700000000002,54.027900000000002,-7.5078399999999998,4.1985400000000004,-2.1977799999999998
164844.0,5211.7799999999997,-4369.3100000000004,13.949299999999999,827.33299999999997,-160.90000000000001,-1101.9000000000001,-29.489100000000001
164845.0,4972.6999999999998,-4197.0699999999997,21.183399999999999,1007.28,-160.761,-757.226,-37.956200000000003
164846.0,4735.5900000000001,-3979.46,27.1648,1135.4100000000001,-165.22999999999999,-452.85700000000003,-48.727400000000003
164847.0,4512.3699999999999,-3745.5599999999999,35.849899999999998,1214.8199999999999,-172.46799999999999,-194.21000000000001,-63.109699999999997
164848.0,4331.7700000000004,-3534.71,43.154499999999999,1261.6500000000001,-182.23099999999999,21.838200000000001,-76.923500000000004
164849.0,4223.04,-3365.6999999999998,47.230400000000003,1309.1099999999999,-195.929,221.71299999999999,-89.926599999999993
164850.0,4171.7700000000004,-3202.2600000000002,65.360500000000002,1371.48,-218.22999999999999,438.56,-104.242
164851.0,4181.0600000000004,-3069.02,86.381399999999999,1418.76,-248.989,663.46699999999998,-113.70099999999999
164852.0,4349.1099999999997,-3038.4699999999998,102.902,1454.71,-289.76299999999998,945.76599999999996,-111.494
164853.0,4917.29,-3207.4099999999999,100.627,1580.02,-356.0,1384.01,-95.774199999999993
164854.0,5955.6499999999996,-3594.2800000000002,82.448999999999998,1809.5,-472.899,1988.9000000000001,-164.02500000000001
164855.0,6928.9099999999999,-3782.77,108.886,1890.9200000000001,-610.60400000000004,2678.4899999999998,-193.75899999999999
164856.0,7490.5100000000002,-3532.25,213.745,1838.03,-732.36500000000001,3248.54,-167.51900000000001
164857.0,7752.9099999999999,-3191.7199999999998,244.56200000000001,1669.5899999999999,-838.16899999999998,3610.5799999999999,-227.75299999999999
164858.0,7715.1300000000001,-2761.3400000000001,231.54300000000001,1394.8800000000001,-875.98000000000002,3796.8800000000001,-244.81200000000001
164859.0,7382.0200000000004,-2384.7600000000002,229.59299999999999,1042.4100000000001,-887.14099999999996,3756.1500000000001,-249.47800000000001
164860.0,6501.9099999999999,-2000.3299999999999,213.23599999999999,512.16700000000003,-812.68499999999995,3393.3400000000001,-180.87899999999999
164861.0,5364.2299999999996,-1392.29,197.25399999999999,-277.19799999999998,-719.31899999999996,2899.71,-4.27454
164862.0,5020.1599999999999,-950.27300000000002,96.822299999999998,-1015.4400000000001,-707.18499999999995,2732.1599999999999,214.94800000000001
164863.0,5448.7399999999998,-710.62699999999995,27.824400000000001,-1480.0699999999999,-791.46400000000006,2928.8200000000002,351.14699999999999
164864.0,5943.6599999999999,-564.73500000000001,-13.025700000000001,-1874.9400000000001,-912.0,3142.4299999999998,392.99299999999999
164865.0,6045.8699999999999,-234.98400000000001,3.4332500000000001,-2250.96,-937.95000000000005,3090.6999999999998,467.00700000000001
164866.0,5956.7399999999998,165.614,-0.60836000000000001,-2660.52,-921.56600000000003,2848.2800000000002,592.15899999999999
164867.0,5984.3400000000001,435.64100000000002,-15.334,-3008.0799999999999,-909.59699999999998,2660.3899999999999,727.47900000000004
164868.0,6116.71,624.24099999999999,-62.4529,-3380.52,-886.99000000000001,2518.4400000000001,869.21600000000001
164869.0,6584.8100000000004,934.93600000000004,-115.771,-3897.54,-937.70500000000004,2455.75,1040.9100000000001
164870.0,3956.0300000000002,-3402.8499999999999,0.39913700000000002,392.58800000000002,-271.55500000000001,-884.67899999999997,-58.860999999999997
164871.0,3822.4299999999998,-3324.8400000000001,8.5415799999999997,538.69000000000005,-258.20299999999997,-643.96900000000005,-48.835500000000003
164872.0,3665.1300000000001,-3201.73,10.2067,641.00699999999995,-248.124,-409.262,-42.5533
164873.0,3498.6700000000001,-3040.02,15.680300000000001,712.78099999999995,-242.30199999999999,-188.363,-39.7151
164874.0,3347.25,-2869.71,17.070399999999999,758.33799999999997,-242.41300000000001,12.843,-38.322699999999998
164875.0,3217.9200000000001,-2689.0599999999999,23.857399999999998,797.06100000000004,-248.143,191.767,-39.052199999999999
164876.0,3101.2399999999998,-2534.9699999999998,9.0397099999999995,786.06500000000005,-257.80200000000002,346.60599999999999,-42.390700000000002
164877.0,2993.6500000000001,-2396.6300000000001,-13.2933,746.94200000000001,-270.80399999999997,471.43700000000001,-40.854100000000003
164878.0,2921.5799999999999,-2301.2600000000002,-37.9191,687.88999999999999,-289.49700000000001,572.94600000000003,-48.840400000000002
164879.0,2927.96,-2265.73,-73.294799999999995,632.71299999999997,-307.34699999999998,691.22500000000002,-32.071399999999997
164880.0,3274.2800000000002,-2404.9000000000001,-72.175200000000004,690.70799999999997,-358.07499999999999,917.51800000000003,-50.249000000000002
164881.0,4192.8000000000002,-2898.4400000000001,-99.897800000000004,824.22299999999996,-443.17599999999999,1379.8399999999999,-46.6494
164882.0,5194.1800000000003,-3238.2399999999998,-82.152900000000002,834.83000000000004,-560.38599999999997,2028.1400000000001,-22.718299999999999
164883.0,5834.7600000000002,-3210.6599999999999,-49.294600000000003,673.57600000000002,-721.41300000000001,2561.2199999999998,-22.372399999999999
164884.0,6152.75,-3091.8600000000001,-36.2834,558.29999999999995,-841.64099999999996,2841.5999999999999,-8.4096100000000007
164885.0,6198.71,-3037.5900000000001,-6.8970200000000004,427.46899999999999,-885.38499999999999,2908.73,0.59221900000000005
164886.0,6189.2700000000004,-3043.7600000000002,-29.003299999999999,116.15000000000001,-877.80399999999997,2968.9899999999998,33.282200000000003
164887.0,5758.9899999999998,-2697.29,-76.108699999999999,-560.41399999999999,-840.63,2895.9499999999998,129.93299999999999
164888.0,4869.0699999999997,-2014.3699999999999,-131.08000000000001,-1329.76,-742.21400000000006,2517.6100000000001,323.48099999999999
164889.0,4381.4499999999998,-1530.6700000000001,-171.715,-1749.5699999999999,-666.81600000000003,2235.1700000000001,477.13999999999999
164890.0,4593.79,-1282.0799999999999,-176.261,-2054.21,-706.15099999999995,2304.5999999999999,577.49400000000003
164891.0,5331.9499999999998,-1055.1900000000001,-230.15700000000001,-2593.3800000000001,-816.58799999999997,2611.8499999999999,741.22500000000002
164892.0,6128.29,-732.66200000000003,-345.21899999999999,-3351.21,-940.13199999999995,2824.0300000000002,992.87800000000004
164893.0,6573.0200000000004,-587.34100000000001,-435.48399999999998,-3910.0,-1020.99,2842.4000000000001,1193.3099999999999
164894.0,6707.4700000000003,-447.11200000000002,-512.49300000000005,-4336.5100000000002,-1000.83,2683.0500000000002,1355.4200000000001
164895.0,6691.6700000000001,-197.84299999999999,-575.00599999999997,-4681.5600000000004,-936.25599999999997,2358.1399999999999,1517.8199999999999
164896.0,3040.3200000000002,-2540.9000000000001,35.864600000000003,341.06299999999999,-321.44999999999999,-682.61900000000003,-73.890600000000006
164897.0,2923.9499999999998,-2495.0500000000002,32.059600000000003,394.07900000000001,-311.44900000000001,-521.11099999999999,-62.253900000000002
164898.0,2803.5700000000002,-2427.4899999999998,32.4589,429.017,-297.61200000000002,-366.24599999999998,-50.754899999999999
164899.0,2691.4699999999998,-2345.5999999999999,37.051099999999998,458.30500000000001,-283.41500000000002,-216.11699999999999,-39.622599999999998
164900.0,2588.8699999999999,-2264.2800000000002,30.823699999999999,468.16199999999998,-271.41699999999997,-73.183800000000005,-30.081499999999998
164901.0,2495.8400000000001,-2168.0,32.545699999999997,475.37099999999998,-261.202,57.395000000000003,-23.694700000000001
164902.0,2422.8200000000002,-2071.8299999999999,37.7393,481.28800000000001,-254.52199999999999,175.114,-18.143999999999998
164903.0,2393.5900000000001,-1976.5999999999999,57.773699999999998,520.73900000000003,-250.28899999999999,286.25700000000001,-15.2494
164904.0,2404.96,-1898.5,72.908900000000003,557.05499999999995,-255.12200000000001,413.19400000000002,-19.1187
164905.0,2426.5,-1796.26,91.698599999999999,592.94500000000005,-267.44600000000003,550.976,-14.505599999999999
164906.0,2424.7199999999998,-1657.53,92.970399999999998,562.33399999999995,-301.61599999999999,706.827,-20.9968
164907.0,2437.6500000000001,-1588.9300000000001,92.996899999999997,524.06100000000004,-340.92000000000002,786.00800000000004,-9.9113799999999994
164908.0,2717.1500000000001,-1769.04,90.315600000000003,536.61699999999996,-375.64800000000002,907.97400000000005,6.0243500000000001
164909.0,3345.4200000000001,-2064.3200000000002,108.152,502.53100000000001,-454.37299999999999,1269.9300000000001,27.789999999999999
164910.0,4176.79,-2449.1599999999999,83.784999999999997,391.03100000000001,-589.06500000000005,1742.0999999999999,61.734000000000002
164911.0,4935.0100000000002,-2885.4099999999999,63.371000000000002,316.42000000000002,-724.99699999999996,2102.7600000000002,49.070500000000003
164912.0,5316.1899999999996,-3059.1500000000001,66.119299999999996,98.496200000000002,-799.28200000000004,2342.0599999999999,81.817599999999999
164913.0,5357.0799999999999,-2857.8699999999999,53.534300000000002,-335.85599999999999,-824.35699999999997,2520.3600000000001,190.42599999999999
164914.0,4870.0100000000002,-2287.3200000000002,34.467599999999997,-1001.91,-794.74099999999999,2407.79,351.80599999999998
164915.0,4225.2799999999997,-1708.03,-37.534500000000001,-1609.77,-694.82899999999995,2065.4400000000001,568.726
164916.0,4255.8599999999997,-1442.0599999999999,-141.34399999999999,-2042.26,-699.56600000000003,2011.0999999999999,747.83799999999997
164917.0,4916.1599999999999,-1323.04,-247.482,-2520.5,-811.73500000000001,2291.1300000000001,924.72799999999995
164918.0,5551.8100000000004,-1225.3499999999999,-303.63900000000001,-3003.4499999999998,-910.21100000000001,2530.6100000000001,1076.27
164919.0,5921.79,-1043.05,-343.65199999999999,-3473.2199999999998,-933.97400000000005,2568.6799999999998,1233.1300000000001
164920.0,6153.1000000000004,-783.16700000000003,-428.53899999999999,-3941.0700000000002,-923.05600000000004,2453.96,1416.6600000000001
164921.0,6156.0600000000004,-551.09500000000003,-521.67600000000004,-4282.4099999999999,-853.13599999999997,2161.48,1598.3599999999999
164922.0,2378.6900000000001,-1952.27,-3.05253,317.75299999999999,-309.875,-525.07299999999998,-71.454499999999996
164923.0,2276.4099999999999,-1916.47,-2.0769199999999999,346.13499999999999,-300.87099999999998,-386.601,-55.783700000000003
164924.0,2191.5900000000001,-1856.6600000000001,8.9152299999999993,382.387,-296.274,-268.78500000000003,-46.2836
164925.0,2109.5700000000002,-1811.3399999999999,-2.5356200000000002,378.26299999999998,-292.08499999999998,-167.45099999999999,-39.245800000000003
164926.0,2020.6099999999999,-1728.4000000000001,18.309000000000001,381.65199999999999,-286.01799999999997,-74.728999999999999,-31.823399999999999
164927.0,1938.72,-1673.6099999999999,13.195600000000001,347.85700000000003,-279.76999999999998,12.7813,-22.378900000000002
164928.0,1887.3399999999999,-1617.8800000000001,18.125399999999999,339.88900000000001,-275.22199999999998,96.490099999999998,-11.5899
164929.0,1866.6900000000001,-1589.5799999999999,-1.9192899999999999,330.13499999999999,-273.83800000000002,183.79300000000001,-5.3304400000000003
164930.0,1868.6300000000001,-1538.77,0.96294000000000002,348.61599999999999,-275.488,281.15199999999999,0.39404600000000001
164931.0,1907.8199999999999,-1509.6500000000001,-19.414100000000001,341.55500000000001,-280.15300000000002,414.40300000000002,6.53817
164932.0,1913.45,-1389.1099999999999,-14.373200000000001,319.678,-291.399,561.17499999999995,19.093299999999999
164933.0,1830.5999999999999,-1243.4400000000001,-17.9087,276.07600000000002,-304.572,611.44200000000001,29.3887
164934.0,1796.0,-1188.5999999999999,-2.4133800000000001,292.36200000000002,-328.37,593.46900000000005,25.2271
164935.0,1915.4200000000001,-1331.45,-21.0639,257.18700000000001,-361.53300000000002,609.87,23.969899999999999
164936.0,2282.3400000000001,-1619.55,-21.442299999999999,191.18799999999999,-412.14699999999999,763.16499999999996,66.441199999999995
164937.0,3139.0999999999999,-2180.5700000000002,-64.308499999999995,141.15700000000001,-556.24099999999999,1147.26,84.799999999999997
164938.0,4002.04,-2692.0100000000002,-84.114999999999995,97.595500000000001,-699.86300000000006,1549.3599999999999,111.476
164939.0,4321.3599999999997,-2692.8200000000002,-90.100099999999998,-221.84899999999999,-793.91499999999996,1840.48,239.84100000000001
164940.0,4536.71,-2605.6900000000001,-146.22900000000001,-728.15200000000004,-879.822,2071.71,377.31700000000001
164941.0,4561.1700000000001,-2222.8800000000001,-251.62899999999999,-1513.2,-879.56700000000001,2184.8000000000002,625.25
164942.0,4591.4099999999999,-1699.8399999999999,-305.64800000000002,-2135.7399999999998,-860.88499999999999,2152.1100000000001,860.49900000000002
164943.0,4605.5100000000002,-1381.0599999999999,-377.863,-2494.0700000000002,-839.33199999999999,2051.5999999999999,1017.89
164944.0,4623.0600000000004,-1273.25,-410.84800000000001,-2628.71,-832.43600000000004,1991.03,1103.22
164945.0,4736.5900000000001,-1158.98,-485.72899999999998,-2869.3899999999999,-827.40200000000004,1954.05,1210.55
164946.0,4878.25,-972.06700000000001,-525.69399999999996,-3114.71,-807.90899999999999,1896.4200000000001,1329.5899999999999
164947.0,5001.5200000000004,-783.46199999999999,-588.43899999999996,-3393.4099999999999,-763.851,1788.28,1450.52
164948.0,1918.24,-1558.3800000000001,-25.921500000000002,286.94900000000001,-297.233,-398.87099999999998,-61.999099999999999
164949.0,1854.1800000000001,-1555.51,-41.831400000000002,299.28899999999999,-290.435,-291.28500000000003,-46.445099999999996
164950.0,1792.75,-1485.8199999999999,-11.3331,357.12,-281.06700000000001,-199.58199999999999,-37.891300000000001
164951.0,1720.1400000000001,-1437.02,-10.966100000000001,357.221,-271.423,-116.03,-32.929699999999997
164952.0,1639.75,-1371.3599999999999,3.4264299999999999,343.65499999999997,-263.92000000000002,-37.863500000000002,-25.704799999999999
164953.0,1570.22,-1334.78,-9.9942299999999999,298.61099999999999,-259.46300000000002,35.141800000000003,-16.161999999999999
164954.0,1520.46,-1265.99,13.637700000000001,297.17599999999999,-258.16000000000003,101.746,-6.9686000000000003
164955.0,1491.8499999999999,-1237.1600000000001,8.7791700000000006,270.79300000000001,-257.82400000000001,162.012,1.4638
164956.0,1495.6600000000001,-1196.9400000000001,26.979900000000001,274.91199999999998,-261.79300000000001,236.714,11.3606
164957.0,1505.3699999999999,-1174.76,7.9952500000000004,243.005,-273.137,320.702,23.527799999999999
164958.0,1499.4000000000001,-1115.54,22.417899999999999,237.92599999999999,-277.60599999999999,377.33300000000003,32.778199999999998
164959.0,1504.9200000000001,-1110.0899999999999,4.9897499999999999,193.499,-269.58199999999999,429.59500000000003,36.330599999999997
164960.0,1495.8199999999999,-1051.21,18.2791,173.143,-266.86599999999999,478.22800000000001,37.8172
164961.0,1470.48,-1040.0599999999999,5.6146799999999999,131.90000000000001,-283.96600000000001,474.06200000000001,39.900199999999998
164962.0,1514.05,-1112.6199999999999,9.7970400000000009,95.331500000000005,-315.77199999999999,455.07499999999999,54.100700000000003
164963.0,1848.5799999999999,-1437.9400000000001,-36.4953,41.836100000000002,-395.97300000000001,530.43499999999995,87.243200000000002
164964.0,2791.3200000000002,-2075.48,-29.928000000000001,236.791,-525.12699999999995,844.85900000000004,85.351100000000002
164965.0,3525.25,-2380.3099999999999,-31.942799999999998,36.0944,-676.63900000000001,1330.53,145.72399999999999
164966.0,3955.3099999999999,-2340.02,-75.616699999999994,-468.315,-805.88499999999999,1733.72,308.90100000000001
164967.0,4223.79,-2037.3199999999999,-212.21799999999999,-1176.9000000000001,-884.95699999999999,2002.45,565.86199999999997
164968.0,4160.3299999999999,-1546.74,-298.93700000000001,-1766.6900000000001,-863.33100000000002,1934.5599999999999,809.30100000000004
164969.0,3927.9000000000001,-1253.9300000000001,-370.77600000000001,-2050.0100000000002,-779.66499999999996,1711.49,948.74699999999996
164970.0,3826.9299999999998,-1092.0599999999999,-392.82100000000003,-2158.54,-725.98099999999999,1585.5,1024.8099999999999
164971.0,3875.46,-983.024,-451.65899999999999,-2328.1799999999998,-708.78499999999997,1528.28,1110.3499999999999
164972.0,3949.7600000000002,-856.18700000000001,-505.267,-2489.5900000000001,-689.85599999999999,1462.5799999999999,1209.8399999999999
164973.0,4011.46,-717.03200000000004,-576.55899999999997,-2649.79,-655.84500000000003,1370.9000000000001,1308.51
164974.0,1623.51,-1330.21,-86.029200000000003,236.94,-292.15800000000002,-325.14600000000002,-52.961799999999997
164975.0,1558.75,-1242.25,-31.170400000000001,323.24799999999999,-283.27199999999999,-232.422,-42.311700000000002
164976.0,1488.6199999999999,-1251.24,-72.144499999999994,276.46899999999999,-272.26499999999999,-149.637,-34.555500000000002
164977.0,1422.5,-1179.55,-31.880199999999999,293.70999999999998,-263.69299999999998,-73.599000000000004,-24.7514
164978.0,1373.25,-1173.02,-61.700800000000001,253.88999999999999,-257.94400000000002,-7.48691,-15.216900000000001
164979.0,1330.54,-1080.77,-8.0591399999999993,294.72899999999998,-253.904,56.334699999999998,-8.38584
164980.0,1285.6500000000001,-1081.74,-48.727899999999998,225.88999999999999,-250.41,113.408,0.45923900000000001
164981.0,1254.47,-1004.2,-8.3477599999999992,241.285,-250.40700000000001,165.97300000000001,9.8057300000000005
164982.0,1244.8,-1015.41,-52.930199999999999,182.06999999999999,-255.267,220.00899999999999,18.7119
164983.0,1241.4000000000001,-940.17700000000002,-4.31928,213.32900000000001,-257.89800000000002,266.18700000000001,26.3003
164984.0,1224.1900000000001,-953.73099999999999,-41.117800000000003,134.21899999999999,-259.13600000000002,300.262,32.154400000000003
164985.0,1185.4000000000001,-884.81899999999996,-0.085722400000000004,120.077,-262.69600000000003,310.26400000000001,44.146999999999998
164986.0,1169.49,-925.16600000000005,-39.028700000000001,56.576799999999999,-260.52999999999997,304.24200000000002,49.331200000000003
164987.0,1209.1400000000001,-923.13599999999997,10.9642,91.249899999999997,-255.84,318.76900000000001,47.7468
164988.0,1274.45,-1043.5999999999999,-60.135899999999999,-10.577,-267.86700000000002,357.38600000000002,49.586500000000001
164989.0,1384.26,-1071.2,-5.8100399999999999,17.6355,-302.536,393.34399999999999,74.943899999999999
164990.0,1862.3399999999999,-1396.3499999999999,4.5411999999999999,137.577,-390.03899999999999,525.87800000000004,72.405699999999996
164991.0,2585.5700000000002,-1704.26,10.5098,146.69200000000001,-559.52099999999996,916.74099999999999,103.645
164992.0,3110.0700000000002,-1798.27,-125.248,-286.62700000000001,-720.25400000000002,1335.98,262.45299999999997
164993.0,3332.04,-1574.0899999999999,-168.27500000000001,-720.14599999999996,-793.42200000000003,1535.1600000000001,461.411
164994.0,3301.52,-1337.1400000000001,-289.608,-1191.0999999999999,-770.98900000000003,1517.1900000000001,644.34299999999996
164995.0,3193.4899999999998,-1053.96,-304.94299999999998,-1443.1500000000001,-708.98000000000002,1396.8599999999999,781.60500000000002
164996.0,3124.0999999999999,-947.21799999999996,-409.80000000000001,-1685.3399999999999,-655.26199999999994,1280.8299999999999,879.39800000000002
164997.0,3116.5999999999999,-813.32500000000005,-415.32799999999997,-1773.1099999999999,-620.61800000000005,1208.75,950.94399999999996
164998.0,3114.0700000000002,-773.11599999999999,-496.15600000000001,-1918.02,-587.03800000000001,1142.21,1007.48
164999.0,3116.7199999999998,-613.00699999999995,-503.20699999999999,-1983.6900000000001,-537.07399999999996,1044.3499999999999,1085.55
165000.0,1449.5,-1140.46,-68.393199999999993,233.374,-293.262,-299.39299999999997,-58.335799999999999
165001.0,1349.45,-1118.45,-82.853300000000004,218.864,-273.25900000000001,-196.67500000000001,-40.884999999999998
165002.0,1267.0999999999999,-1041.9100000000001,-52.586799999999997,243.57599999999999,-262.43799999999999,-111.631,-26.3142
165003.0,1211.99,-1015.17,-68.691500000000005,227.69200000000001,-256.56,-46.454999999999998,-16.410799999999998
165004.0,1179.1700000000001,-959.41499999999996,-42.242899999999999,253.935,-251.27699999999999,7.6952999999999996,-9.3133099999999995
165005.0,1156.4100000000001,-957.57000000000005,-63.543500000000002,225.25800000000001,-248.399,61.282299999999999,-2.2666300000000001
165006.0,1130.0699999999999,-900.54399999999998,-37.396099999999997,237.06800000000001,-247.24100000000001,110.024,5.8447699999999996
165007.0,1108.98,-878.90800000000002,-50.189599999999999,210.64099999999999,-246.369,159.38,13.942500000000001
165008.0,1094.28,-820.55899999999997,-20.195,213.239,-246.458,209.68299999999999,21.802
165009.0,1066.8199999999999,-815.58000000000004,-42.125100000000003,138.69399999999999,-247.113,245.61099999999999,32.400199999999998
165010.0,1032.26,-774.63199999999995,-20.654399999999999,99.113399999999999,-247.82400000000001,259.69900000000001,44.185400000000001
165011.0,1014.71,-807.42999999999995,-45.900599999999997,21.835899999999999,-246.864,259.50599999999997,53.825400000000002
165012.0,1014.92,-818.18899999999996,-28.525700000000001,-1.9528099999999999,-248.68100000000001,251.16,57.843400000000003
165013.0,1027.1300000000001,-889.13199999999995,-66.919899999999998,-44.438400000000001,-250.994,231.245,59.293799999999997
165014.0,1052.9400000000001,-846.36500000000001,-12.1008,34.809199999999997,-250.81299999999999,239.208,60.487099999999998
165015.0,1121.4400000000001,-824.73500000000001,17.159099999999999,63.493200000000002,-266.45400000000001,305.46600000000001,70.138099999999994
165016.0,1423.6800000000001,-953.22000000000003,48.149700000000003,111.789,-340.20499999999998,443.30000000000001,80.806200000000004
165017.0,1982.6900000000001,-1254.6099999999999,-36.948799999999999,28.728100000000001,-488.81400000000002,729.67399999999998,129.066
165018.0,2450.3299999999999,-1368.78,-89.579800000000006,-155.00800000000001,-626.14700000000005,1017.59,234.20099999999999
165019.0,2629.5900000000001,-1325.4400000000001,-184.185,-487.95400000000001,-683.78399999999999,1161.9300000000001,371.37400000000002
165020.0,2640.9200000000001,-1119.8499999999999,-221.613,-750.78300000000002,-677.98000000000002,1187.6700000000001,500.75
165021.0,2553.6300000000001,-943.47699999999998,-293.642,-1007.04,-631.71299999999997,1118.1300000000001,607.06399999999996
165022.0,2474.54,-744.35000000000002,-319.08100000000002,-1164.6300000000001,-574.84199999999998,1021.48,698.93799999999999
165023.0,2438.1999999999998,-662.84299999999996,-387.47899999999998,-1294.8800000000001,-536.39800000000002,946.86900000000003,762.149
165024.0,2400.0599999999999,-579.23599999999999,-393.47500000000002,-1318.4100000000001,-508.995,893.37900000000002,789.61500000000001
165025.0,2282.25,-533.38,-422.66300000000001,-1369.4000000000001,-449.214,791.16800000000001,800.35400000000004
165026.0,1333.3299999999999,-1102.5,-128.804,127.974,-315.08800000000002,-260.80500000000001,-62.835700000000003
165027.0,1236.8199999999999,-1045.0599999999999,-107.658,137.447,-297.47399999999999,-173.274,-43.244900000000001
165028.0,1154.8900000000001,-997.68100000000004,-109.907,137.738,-277.19299999999998,-103.172,-25.822900000000001
165029.0,1099.6900000000001,-921.90200000000004,-79.494299999999996,182.565,-260.54000000000002,-44.592700000000001,-14.4938
165030.0,1061.9300000000001,-897.35699999999997,-92.582599999999999,175.79300000000001,-252.744,9.5158400000000007,-6.1786700000000003
165031.0,1036.1600000000001,-846.85799999999995,-72.703699999999998,194.941,-249.24000000000001,55.083199999999998,1.5428599999999999
165032.0,1018.38,-829.15800000000002,-81.850499999999997,184.441,-244.435,98.754099999999994,8.2782800000000005
165033.0,999.65300000000002,-780.17700000000002,-60.945,184.911,-240.881,152.536,16.9922
165034.0,969.84199999999998,-763.52800000000002,-76.834599999999995,115.358,-241.62100000000001,201.74199999999999,31.029299999999999
165035.0,937.41399999999999,-717.31299999999999,-58.692599999999999,72.491900000000001,-243.35300000000001,228.69999999999999,47.5458
165036.0,911.39099999999996,-714.85599999999999,-74.809600000000003,9.1809200000000004,-243.65799999999999,239.25299999999999,58.675800000000002
165037.0,889.46500000000003,-685.64700000000005,-51.835900000000002,-6.3339800000000004,-244.90899999999999,234.94,65.804100000000005
165038.0,876.77300000000002,-721.19799999999998,-71.447100000000006,-49.8429,-246.251,213.70400000000001,66.139099999999999
165039.0,883.87900000000002,-727.08199999999999,-38.607799999999997,-13.6404,-240.39500000000001,186.352,62.933900000000001
165040.0,902.846,-712.82899999999995,4.89642,32.103299999999997,-232.48599999999999,188.29300000000001,61.164000000000001
165041.0,1000.72,-682.86500000000001,39.241500000000002,58.293700000000001,-261.20600000000002,283.93099999999998,80.286000000000001
165042.0,1318.8199999999999,-843.92700000000002,-32.406300000000002,12.832599999999999,-354.375,456.53699999999998,115.38
165043.0,1663.7,-1005.38,-66.777799999999999,-28.971399999999999,-462.66300000000001,615.36099999999999,154.739
165044.0,1918.46,-1109.6900000000001,-122.509,-135.52099999999999,-537.36500000000001,756.34299999999996,213.053
165045.0,2071.98,-1039.1800000000001,-147.89099999999999,-289.24799999999999,-584.96600000000001,876.57399999999996,301.66500000000002
165046.0,2106.9899999999998,-924.14300000000003,-208.94,-507.00799999999998,-589.39099999999996,919.65099999999995,396.98399999999998
165047.0,2048.48,-728.971,-218.14599999999999,-655.37400000000002,-554.08199999999999,889.02599999999995,474.483
165048.0,1924.4100000000001,-562.16399999999999,-266.75999999999999,-795.20899999999995,-489.642,799.88699999999994,533.61099999999999
165049.0,1813.23,-414.57100000000003,-255.41,-811.86800000000005,-438.392,717.16800000000001,554.33000000000004
165050.0,1711.4000000000001,-358.63200000000001,-275.40100000000001,-836.91399999999999,-398.82799999999997,647.11199999999997,553.76099999999997
165051.0,1593.27,-268.30700000000002,-245.22399999999999,-793.45500000000004,-351.04399999999998,560.96400000000006,558.67399999999998
165052.0,1214.6500000000001,-1000.17,-135.87700000000001,85.136300000000006,-325.19,-230.679,-62.259
165053.0,1160.73,-976.54300000000001,-134.86600000000001,105.324,-312.81,-162.73099999999999,-44.8613
165054.0,1100.01,-922.10599999999999,-112.732,130.42500000000001,-299.34899999999999,-96.130300000000005,-28.5853
165055.0,1044.54,-902.29200000000003,-127.271,110.913,-284.67500000000001,-41.8339,-15.418799999999999
165056.0,1000.36,-836.56600000000003,-93.950800000000001,142.13999999999999,-269.55000000000001,7.1290399999999998,-4.2544300000000002
165057.0,965.10199999999998,-813.54600000000005,-101.94799999999999,128.11000000000001,-257.99599999999998,53.601900000000001,6.0338099999999999
165058.0,942.38900000000001,-763.923,-78.762,138.559,-252.33099999999999,101.179,16.315100000000001
165059.0,921.10500000000002,-752.53700000000003,-94.067999999999998,90.240899999999996,-250.69800000000001,150.857,29.997900000000001
165060.0,889.78099999999995,-700.90499999999997,-77.895300000000006,58.165500000000002,-248.06200000000001,190.727,46.744500000000002
165061.0,850.60799999999995,-677.79200000000003,-99.454400000000007,2.2667099999999998,-242.35499999999999,210.59,59.527700000000003
165062.0,808.52099999999996,-615.09799999999996,-80.980400000000003,1.2962400000000001,-237.51900000000001,212.81999999999999,64.775700000000001
165063.0,768.404,-611.55700000000002,-103.48,-45.204799999999999,-234.614,201.01300000000001,65.695700000000002
165064.0,745.63199999999995,-594.16600000000005,-87.366,-44.7941,-233.489,181.18000000000001,67.584500000000006
165065.0,774.84799999999996,-607.98699999999997,-54.314599999999999,-12.177,-239.82400000000001,164.87799999999999,69.834299999999999
165066.0,900.12699999999995,-629.83100000000002,13.639200000000001,64.562600000000003,-267.15499999999997,207.297,76.989199999999997
165067.0,1084.0799999999999,-710.64499999999998,-41.6051,-3.0658799999999999,-324.07299999999998,340.108,112.91
165068.0,1239.8399999999999,-750.76400000000001,-55.229399999999998,-29.729199999999999,-371.238,432.06200000000001,143.25700000000001
165069.0,1357.6600000000001,-813.13800000000003,-69.747900000000001,-52.732999999999997,-403.54899999999998,487.947,157.94200000000001
165070.0,1493.79,-825.44100000000003,-80.390000000000001,-89.956199999999995,-444.51900000000001,572.17600000000004,190.077
165071.0,1602.3499999999999,-815.13400000000001,-136.22800000000001,-214.84299999999999,-478.68000000000001,654.35599999999999,246.20400000000001
165072.0,1641.9400000000001,-698.25900000000001,-162.42599999999999,-334.45800000000003,-487.96499999999997,695.50699999999995,319.32400000000001
165073.0,1633.8599999999999,-581.22500000000002,-228.869,-481.05900000000003,-475.74099999999999,690.55399999999997,392.01600000000002
165074.0,1564.9300000000001,-409.512,-236.136,-551.75199999999995,-435.88,633.82799999999997,446.78500000000003
165075.0,1437.8399999999999,-321.33600000000001,-254.53800000000001,-591.89499999999998,-382.517,545.16300000000001,462.26900000000001
165076.0,1320.98,-280.91500000000002,-224.83699999999999,-545.49099999999999,-343.22899999999998,481.87700000000001,449.80799999999999
165077.0,1288.4400000000001,-289.154,-266.86399999999998,-594.62699999999995,-316.88900000000001,458.238,457.61799999999999
165078.0,1086.49,-872.70100000000002,-147.43000000000001,54.190100000000001,-321.62400000000002,-218.37700000000001,-68.726600000000005
165079.0,1066.99,-885.58500000000004,-145.57400000000001,78.681299999999993,-310.66300000000001,-160.06,-52.328000000000003
165080.0,1035.1900000000001,-899.423,-158.79499999999999,69.794799999999995,-301.226,-94.373099999999994,-29.430700000000002
165081.0,991.05999999999995,-842.89499999999998,-126.39400000000001,97.584199999999996,-291.34699999999998,-31.997299999999999,-12.359999999999999
165082.0,949.245,-831.06100000000004,-147.12700000000001,66.221900000000005,-283.18000000000001,20.6616,2.0435500000000002
165083.0,912.86099999999999,-778.69600000000003,-125.69499999999999,70.551000000000002,-275.06299999999999,64.805099999999996,14.8772
165084.0,881.02800000000002,-761.41999999999996,-138.78,32.865400000000001,-267.94900000000001,107.11199999999999,28.196999999999999
165085.0,849.51099999999997,-708.19299999999998,-125.74299999999999,23.095800000000001,-262.64800000000002,142.68899999999999,42.982700000000001
165086.0,808.40300000000002,-660.36199999999997,-139.56399999999999,2.1564700000000001,-254.429,168.55000000000001,54.659500000000001
165087.0,755.84400000000005,-572.18299999999999,-115.742,20.399999999999999,-241.774,179.78899999999999,57.5901
165088.0,701.64200000000005,-514.803,-100.648,13.244899999999999,-227.21000000000001,178.578,58.002499999999998
165089.0,661.33500000000004,-445.36200000000002,-45.678400000000003,35.403100000000002,-217.864,169.30699999999999,58.444899999999997
165090.0,641.47299999999996,-444.56200000000001,-29.666799999999999,28.942599999999999,-210.851,150.84800000000001,57.612499999999997
165091.0,709.03300000000002,-464.07299999999998,5.80565,55.345399999999998,-226.554,171.52199999999999,68.242900000000006
165092.0,923.76599999999996,-610.10000000000002,-73.723200000000006,-4.9088399999999996,-290.06799999999998,283.20100000000002,101.607
165093.0,1079.2,-631.024,-90.456000000000003,-48.574199999999998,-346.137,378.72199999999998,139.44800000000001
165094.0,1075.5,-637.96699999999998,-98.145899999999997,-83.172700000000006,-350.69299999999998,372.209,155.35499999999999
165095.0,1098.5799999999999,-642.02599999999995,-94.900899999999993,-74.292299999999997,-355.48500000000001,381.60000000000002,163.16800000000001
165096.0,1182.8499999999999,-666.88599999999997,-122.06699999999999,-111.268,-382.17500000000001,432.346,180.148
165097.0,1258.72,-625.79200000000003,-125.17700000000001,-148.59399999999999,-405.61500000000001,486.45299999999997,217.15000000000001
165098.0,1311.4200000000001,-571.35000000000002,-165.916,-238.20099999999999,-416.49700000000001,532.97199999999998,262.64800000000002
165099.0,1307.1199999999999,-458.22399999999999,-164.31,-296.988,-403.86700000000002,542.09400000000005,301.471
165100.0,1230.04,-392.32100000000003,-213.173,-408.27699999999999,-363.928,495.71100000000001,338.26900000000001
165101.0,1150.49,-321.35899999999998,-223.285,-452.96499999999997,-319.71699999999998,434.36799999999999,370.17500000000001
165102.0,1127.74,-323.55599999999998,-263.09699999999998,-505.25400000000002,-300.762,410.84399999999999,385.74099999999999
165103.0,1063.3900000000001,-237.363,-229.024,-479.29700000000003,-269.59399999999999,367.55399999999997,385.94200000000001
165104.0,959.16899999999998,-659.73900000000003,-85.465000000000003,132.65100000000001,-311.202,-193.554,-69.403800000000004
165105.0,951.00699999999995,-737.85699999999997,-140.988,87.4268,-308.94600000000003,-145.238,-57.818199999999997
165106.0,936.15899999999999,-772.99300000000005,-160.09999999999999,63.623600000000003,-307.43099999999998,-93.683199999999999,-35.188299999999998
165107.0,906.21799999999996,-786.404,-177.25899999999999,39.464199999999998,-298.21499999999997,-35.627099999999999,-13.9671
165108.0,870.62599999999998,-731.01800000000003,-144.44399999999999,63.613100000000003,-287.005,21.808399999999999,4.0782400000000001
165109.0,834.952,-710.33900000000006,-160.42699999999999,38.537599999999998,-277.62700000000001,66.458500000000001,20.504100000000001
165110.0,793.19799999999998,-638.30100000000004,-139.71100000000001,51.583100000000002,-267.928,99.732799999999997,33.688800000000001
165111.0,744.24800000000005,-577.66200000000003,-140.28200000000001,49.998699999999999,-253.06100000000001,123.69499999999999,41.433300000000003
165112.0,696.24199999999996,-462.48899999999998,-83.827100000000002,111.23099999999999,-232.67500000000001,142.37899999999999,45.571199999999997
165113.0,649.13300000000004,-390.11000000000001,-55.388199999999998,121.717,-215.27600000000001,156.417,45.670499999999997
165114.0,605.52300000000002,-338.37,-24.705400000000001,110.596,-204.88900000000001,157.85599999999999,47.722999999999999
165115.0,578.72699999999998,-360.47000000000003,-46.318199999999997,43.568100000000001,-201.06800000000001,151.96199999999999,55.838999999999999
165116.0,599.92600000000004,-376.13200000000001,-27.468699999999998,42.7637,-208.56399999999999,149.75,60.970700000000001
165117.0,713.03800000000001,-446.255,-60.309899999999999,16.1431,-241.30600000000001,207.41499999999999,82.401700000000005
165118.0,870.04499999999996,-443.33600000000001,-63.260399999999997,20.9847,-290.52100000000002,303.351,121.28700000000001
165119.0,934.91399999999999,-485.69299999999998,-100.992,-24.269600000000001,-320.33999999999997,330.04000000000002,136.66800000000001
165120.0,924.726,-483.85300000000001,-90.994399999999999,-33.498899999999999,-321.15800000000002,318.50299999999999,142.745
165121.0,912.21100000000001,-492.06900000000002,-96.745400000000004,-51.086599999999997,-315.91500000000002,312.22800000000001,145.88300000000001
165122.0,931.56200000000001,-470.07299999999998,-91.083799999999997,-51.180599999999998,-321.32600000000002,329.42399999999998,155.08000000000001
165123.0,991.65700000000004,-471.85700000000003,-123.56,-94.712800000000001,-339.56299999999999,371.67200000000003,174.03299999999999
165124.0,1034.5,-404.64299999999997,-139.35599999999999,-144.202,-348.97000000000003,407.89400000000001,213.39500000000001
165125.0,1029.52,-356.04199999999997,-162.63,-201.15700000000001,-344.13799999999998,411.08600000000001,235.369
165126.0,933.73400000000004,-249.524,-130.41300000000001,-202.053,-301.57600000000002,367.822,246.542
165127.0,831.22299999999996,-178.185,-128.108,-223.74799999999999,-255.077,315.197,252.20699999999999
165128.0,756.56799999999998,-108.498,-113.14,-220.24000000000001,-220.83600000000001,272.399,252.65000000000001
165129.0,701.49000000000001,-87.779899999999998,-125.419,-224.81399999999999,-195.94499999999999,240.464,250.59899999999999
165130.0,842.59199999999998,-556.81700000000001,-94.660399999999996,145.649,-279.27300000000002,-166.55600000000001,-58.7654
165131.0,829.70100000000002,-559.80200000000002,-89.859899999999996,160.346,-280.78699999999998,-120.93899999999999,-48.196800000000003
165132.0,816.35599999999999,-594.53999999999996,-118.679,122.848,-285.59300000000002,-78.983900000000006,-33.261499999999998
165133.0,796.899,-576.827,-101.21299999999999,129.285,-283.74599999999998,-35.485599999999998,-16.0075
165134.0,768.81700000000001,-597.91899999999998,-135.81100000000001,84.270200000000003,-275.072,11.601699999999999,-0.72916199999999998
165135.0,730.90599999999995,-552.89700000000005,-129.19800000000001,93.841300000000004,-259.66199999999998,49.308799999999998,17.198499999999999
165136.0,684.52999999999997,-472.08100000000002,-104.059,133.36199999999999,-237.01499999999999,78.757499999999993,27.439800000000002
165137.0,632.94500000000005,-367.685,-53.3414,185.83699999999999,-211.404,104.938,27.719100000000001
165138.0,588.255,-333.53300000000002,-57.361400000000003,160.36799999999999,-190.399,129.541,32.341200000000001
165139.0,556.79100000000005,-285.60899999999998,-31.758099999999999,153.989,-178.12299999999999,146.63200000000001,37.573700000000002
165140.0,523.89599999999996,-283.30200000000002,-42.642099999999999,107.54000000000001,-171.934,147.03299999999999,37.911799999999999
165141.0,493.81200000000001,-264.58699999999999,-25.413699999999999,82.309899999999999,-170.31899999999999,137.31800000000001,43.522399999999998
165142.0,559.28899999999999,-318.87700000000001,-54.347299999999997,38.708199999999998,-197.05699999999999,163.209,66.197900000000004
165143.0,725.27800000000002,-367.58800000000002,-92.244699999999995,16.202300000000001,-252.82499999999999,247.02600000000001,106.093
165144.0,797.67399999999998,-404.23500000000001,-136.34899999999999,-41.3309,-282.17200000000003,284.22000000000003,127.58199999999999
165145.0,791.43700000000001,-389.55000000000001,-108.32899999999999,-20.3566,-281.79599999999999,275.13799999999998,128.42400000000001
165146.0,789.97900000000004,-402.26799999999997,-114.857,-35.052700000000002,-284.68400000000003,272.02600000000001,125.203
165147.0,764.17600000000004,-384.68599999999998,-98.327399999999997,-34.163200000000003,-277.327,259.64600000000002,124.48999999999999
165148.0,756.149,-354.834,-104.20699999999999,-55.109499999999997,-270.339,269.43700000000001,138.07400000000001
165149.0,790.95699999999999,-314.23399999999998,-96.153099999999995,-50.198900000000002,-281.08300000000003,297.84300000000002,144.64599999999999
165150.0,774.673,-272.91399999999999,-105.188,-80.978800000000007,-272.99000000000001,300.02499999999998,156.76300000000001
165151.0,751.31200000000001,-216.16300000000001,-112.032,-103.142,-261.28399999999999,291.99900000000002,175.14099999999999
165152.0,725.74900000000002,-186.858,-141.28299999999999,-144.381,-248.69300000000001,280.46600000000001,185.506
165153.0,615.29100000000005,-106.767,-123.857,-144.46100000000001,-202.48099999999999,224.751,185.27500000000001
165154.0,529.70000000000005,-73.936099999999996,-112.90000000000001,-130.67599999999999,-170.023,182.929,174.10900000000001
165155.0,535.33399999999995,-66.154300000000006,-106.047,-134.19999999999999,-166.46299999999999,186.048,178.982
165156.0,757.20699999999999,-489.01400000000001,-112.572,131.73500000000001,-261.73899999999998,-147.92599999999999,-54.259500000000003
165157.0,734.47900000000004,-490.85399999999998,-108.999,146.52699999999999,-253.78999999999999,-104.723,-39.367800000000003
165158.0,710.03399999999999,-467.77699999999999,-88.939899999999994,165.541,-248.59800000000001,-63.714799999999997,-25.0474
165159.0,688.59000000000003,-466.45100000000002,-97.8613,155.55000000000001,-243.61600000000001,-26.829000000000001,-12.5282
165160.0,660.649,-431.45600000000002,-80.688299999999998,164.935,-235.68600000000001,9.7618200000000002,-1.1543600000000001
165161.0,628.82600000000002,-408.82900000000001,-80.768299999999996,159.78100000000001,-220.44900000000001,40.279600000000002,10.9313
165162.0,596.59400000000005,-352.673,-49.950600000000001,195.08600000000001,-196.30000000000001,66.9465,18.4114
165163.0,554.34699999999998,-318.80099999999999,-47.382100000000001,183.054,-173.21000000000001,94.5334,19.764700000000001
165164.0,523.86400000000003,-276.44900000000001,-35.9771,158.482,-164.90700000000001,125.738,31.712700000000002
165165.0,515.38099999999997,-276.85300000000001,-56.452599999999997,110.319,-168.24700000000001,143.36099999999999,44.325800000000001
165166.0,509.81299999999999,-254.434,-41.256799999999998,107.471,-173.346,146.05600000000001,46.533499999999997
165167.0,526.91099999999994,-280.96300000000002,-52.619300000000003,86.999300000000005,-185.524,145.964,48.114100000000001
165168.0,588.56299999999999,-302.85199999999998,-61.057600000000001,67.160899999999998,-210.559,177.23500000000001,66.476200000000006
165169.0,662.04999999999995,-317.05799999999999,-97.620099999999994,9.3158399999999997,-235.42599999999999,228.65600000000001,103.48699999999999
165170.0,699.95799999999997,-299.548,-95.510400000000004,3.2080899999999999,-253.661,245.55600000000001,121.788
165171.0,682.68399999999997,-315.608,-113.937,-24.8187,-254.90299999999999,230.86699999999999,121.991
165172.0,658.68299999999999,-306.77800000000002,-98.930199999999999,-18.0961,-248.173,217.30500000000001,116.752
165173.0,655.15700000000004,-304.50799999999998,-96.659899999999993,-21.577300000000001,-247.03299999999999,218.39699999999999,113.45699999999999
165174.0,640.57799999999997,-264.78899999999999,-98.217799999999997,-40.286200000000001,-238.66900000000001,223.09800000000001,128.298
165175.0,638.48000000000002,-240.36699999999999,-116.914,-62.264200000000002,-235.523,230.357,137.934
165176.0,619.20100000000002,-199.441,-95.290300000000002,-44.214799999999997,-229.94399999999999,228.83500000000001,127.691
165177.0,559.39200000000005,-147.24700000000001,-79.765799999999999,-52.492400000000004,-202.072,211.733,127.527
165178.0,537.71199999999999,-116.541,-70.572400000000002,-55.212600000000002,-191.12799999999999,204.928,129.74700000000001
165179.0,506.35599999999999,-83.838899999999995,-78.938999999999993,-80.040999999999997,-173.75999999999999,187.36099999999999,141.99299999999999
165180.0,476.19400000000002,-54.6068,-86.4816,-103.999,-153.18000000000001,168.381,152.12899999999999
165181.0,479.26600000000002,-40.8474,-105.044,-126.316,-147.79900000000001,161.578,163.19800000000001
165182.0,680.98699999999997,-430.66699999999997,-121.505,109.562,-247.517,-130.63800000000001,-52.7254
165183.0,660.24099999999999,-427.53800000000001,-115.057,129.27000000000001,-239.33600000000001,-93.668599999999998,-36.806600000000003
165184.0,631.26400000000001,-417.62900000000002,-110.827,139.06800000000001,-227.02199999999999,-55.573900000000002,-21.359500000000001
165185.0,605.87800000000004,-385.32100000000003,-93.121399999999994,165.91999999999999,-214.36699999999999,-17.6067,-6.43567
165186.0,583.10500000000002,-362.125,-86.174000000000007,172.541,-203.77000000000001,17.351400000000002,4.6858899999999997
165187.0,565.43600000000004,-343.32499999999999,-78.904399999999995,165.506,-197.238,51.915100000000002,14.636900000000001
165188.0,553.38400000000001,-350.57299999999998,-97.511200000000002,132.87200000000001,-192.83799999999999,76.183599999999998,24.7987
165189.0,552.03399999999999,-320.89600000000002,-72.664599999999993,140.727,-193.61799999999999,98.340800000000002,32.355800000000002
165190.0,553.38999999999999,-325.58199999999999,-79.808199999999999,101.167,-200.28700000000001,119.452,42.638100000000001
165191.0,544.92399999999998,-317.56299999999999,-76.867400000000004,64.908900000000003,-206.33199999999999,126.137,55.772399999999998
165192.0,580.89599999999996,-351.923,-105.503,29.9495,-226.12899999999999,138.476,68.464399999999998
165193.0,655.17700000000002,-388.99200000000002,-128.10499999999999,23.542200000000001,-257.274,163.48500000000001,81.408699999999996
165194.0,687.90999999999997,-377.63799999999998,-148.959,-8.0140999999999991,-269.44799999999998,198.708,104.19199999999999
165195.0,651.89499999999998,-301.25400000000002,-138.81800000000001,-33.535299999999999,-253.37899999999999,208.959,124.902
165196.0,601.16300000000001,-280.82999999999998,-141.40600000000001,-55.814999999999998,-232.63399999999999,194.34700000000001,125.208
165197.0,572.38300000000004,-261.30099999999999,-117.261,-38.8658,-222.25899999999999,183.465,115.84699999999999
165198.0,548.44000000000005,-250.28899999999999,-110.98399999999999,-38.569899999999997,-214.309,173.471,112.527
165199.0,556.14599999999996,-240.88800000000001,-108.05800000000001,-29.262699999999999,-215.988,181.59100000000001,109.697
165200.0,539.85799999999995,-205.87200000000001,-101.122,-34.038400000000003,-207.60499999999999,185.28999999999999,110.52800000000001
165201.0,487.89299999999997,-160.74000000000001,-79.884799999999998,-30.731000000000002,-184.393,167.751,113.56100000000001
165202.0,501.74000000000001,-154.166,-94.631900000000002,-40.586300000000001,-188.40799999999999,180.267,112.663
165203.0,487.452,-123.095,-81.666200000000003,-30.0943,-184.048,176.55799999999999,109.479
165204.0,436.76499999999999,-121.22799999999999,-72.990499999999997,-43.646000000000001,-165.73599999999999,151.72999999999999,107.532
165205.0,433.471,-102.726,-76.719399999999993,-61.372199999999999,-156.749,153.73699999999999,118.279
165206.0,415.74299999999999,-36.557299999999998,-79.496300000000005,-61.705399999999997,-139.12200000000001,143.68600000000001,130.95099999999999
165207.0,404.101,12.9392,-77.951999999999998,-56.781700000000001,-131.78200000000001,132.03800000000001,131.797
165208.0,621.88499999999999,-388.66699999999997,-130.887,80.762100000000004,-239.28700000000001,-116.246,-53.609000000000002
165209.0,592.40999999999997,-378.06400000000002,-120.755,98.063400000000001,-227.673,-83.871799999999993,-36.275799999999997
165210.0,570.28300000000002,-360.173,-107.718,123.785,-217.45500000000001,-46.627000000000002,-18.871500000000001
165211.0,550.28300000000002,-350.68099999999998,-106.233,133.72800000000001,-205.19200000000001,-12.348100000000001,-4.0363699999999998
165212.0,535.88099999999997,-330.44999999999999,-92.676100000000005,145.77600000000001,-195.584,25.424099999999999,11.202500000000001
165213.0,547.99400000000003,-336.298,-99.318200000000004,131.768,-201.209,64.418099999999995,26.271100000000001
165214.0,571.78700000000003,-340.24000000000001,-96.205699999999993,114.974,-220.81700000000001,83.413700000000006,36.977800000000002
165215.0,625.33500000000004,-389.82100000000003,-133.16,71.433700000000002,-251.69900000000001,104.402,51.7789
165216.0,651.62599999999998,-409.45600000000002,-148.99799999999999,39.888100000000001,-272.411,113.265,59.978900000000003
165217.0,641.03099999999995,-417.76999999999998,-160.78200000000001,-4.1618700000000004,-274.80000000000001,114.889,68.204400000000007
165218.0,644.428,-409.267,-151.12299999999999,-15.316800000000001,-274.93799999999999,127.438,80.938000000000002
165219.0,663.80700000000002,-415.76100000000002,-163.55099999999999,-37.878500000000003,-277.32900000000001,152.52099999999999,98.349100000000007
165220.0,673.86900000000003,-374.44799999999998,-165.62299999999999,-48.0914,-271.399,187.88900000000001,122.822
165221.0,631.12,-301.351,-163.15100000000001,-76.529899999999998,-245.70099999999999,200.67500000000001,138.83000000000001
165222.0,542.351,-210.946,-125.604,-66.303600000000003,-209.523,174.19,136.084
165223.0,476.24000000000001,-191.30000000000001,-114.08799999999999,-47.3797,-188.946,145.53100000000001,116.336
165224.0,453.18700000000001,-176.209,-97.632199999999997,-24.2728,-181.87799999999999,138.04900000000001,102.708
165225.0,452.327,-150.62100000000001,-95.035399999999996,-15.481400000000001,-178.542,145.011,103.34699999999999
165226.0,445.35300000000001,-135.63900000000001,-90.795400000000001,-4.8639599999999996,-177.37,146.64500000000001,93.443399999999997
165227.0,400.488,-108.80500000000001,-75.223699999999994,-4.8932700000000002,-159.16399999999999,131.84999999999999,89.071899999999999
165228.0,389.161,-92.567400000000006,-72.159700000000001,-1.61328,-152.78399999999999,132.35499999999999,85.6952
165229.0,413.07299999999998,-105.56,-64.612700000000004,12.1187,-162.768,145.14599999999999,75.808899999999994
165230.0,387.29399999999998,-99.709800000000001,-67.941699999999997,-27.533200000000001,-155.99799999999999,125.977,92.111699999999999
165231.0,381.26400000000001,-149.17400000000001,-123.60299999999999,-96.251999999999995,-145.00800000000001,121.40900000000001,109.48
165232.0,375.25799999999998,-101.28100000000001,-114.825,-93.831500000000005,-127.124,128.43799999999999,119.036
165233.0,352.42399999999998,0.49954300000000001,-70.724999999999994,-54.485500000000002,-113.846,117.875,114.68300000000001
165234.0,565.10199999999998,-341.97800000000001,-142.21600000000001,60.756700000000002,-231.542,-98.646000000000001,-50.539999999999999
165235.0,528.59100000000001,-320.178,-127.70999999999999,77.646100000000004,-214.62200000000001,-77.248800000000003,-39.064
165236.0,495.71100000000001,-310.22000000000003,-115.94799999999999,90.760900000000007,-200.327,-36.155999999999999,-16.188300000000002
165237.0,503.99400000000003,-315.92500000000001,-109.834,103.65600000000001,-201.61699999999999,-0.50437699999999996,1.9689000000000001
165238.0,538.476,-332.71899999999999,-111.98099999999999,112.89,-214.215,29.058,16.6267
165239.0,590.62099999999998,-362.25599999999997,-127.48699999999999,105.012,-240.32300000000001,55.481099999999998,29.320599999999999
165240.0,639.46100000000001,-424.483,-167.511,49.161999999999999,-273.09300000000002,66.051299999999998,33.7712
165241.0,665.59799999999996,-443.93799999999999,-177.905,14.872299999999999,-291.14299999999997,84.910499999999999,51.242600000000003
165242.0,667.11000000000001,-441.97199999999998,-181.422,1.0379400000000001,-292.702,96.052400000000006,62.226900000000001
165243.0,660.12599999999998,-413.54899999999998,-174.297,-3.64086,-288.69,118.217,74.430099999999996
165244.0,622.76300000000003,-371.39699999999999,-174.614,-31.4558,-273.39999999999998,130.81399999999999,91.041899999999998
165245.0,586.50999999999999,-307.48899999999998,-160.32499999999999,-30.0185,-254.75700000000001,139.148,105.5
165246.0,564.03099999999995,-262.11799999999999,-158.79900000000001,-34.600299999999997,-237.21600000000001,152.61699999999999,116.202
165247.0,523.62800000000004,-198.13300000000001,-141.25999999999999,-41.956099999999999,-210.917,157.50700000000001,125.911
165248.0,466.43900000000002,-163.49600000000001,-139.429,-60.959000000000003,-181.81100000000001,145.23599999999999,124.48999999999999
165249.0,405.67899999999997,-131.63399999999999,-111.018,-39.545200000000001,-160.35400000000001,123.31699999999999,107.715
165250.0,372.41399999999999,-121.82599999999999,-97.548299999999998,-19.314800000000002,-150.339,113.133,89.221000000000004
165251.0,353.96699999999998,-100.232,-87.898399999999995,-8.4093099999999996,-140.79300000000001,112.018,83.126400000000004
165252.0,350.67700000000002,-93.382400000000004,-78.908100000000005,2.7112500000000002,-140.86500000000001,113.28,75.045599999999993
165253.0,360.40899999999999,-76.698599999999999,-75.9405,6.4885000000000002,-143.49600000000001,123.199,72.410300000000007
165254.0,319.48500000000001,-53.421300000000002,-58.084499999999998,14.1999,-128.39500000000001,110.172,61.348199999999999
165255.0,299.33600000000001,-46.606900000000003,-26.645399999999999,45.353299999999997,-122.066,103.86199999999999,42.896599999999999
165256.0,305.94900000000001,-38.716000000000001,-50.002000000000002,9.3319600000000005,-126.548,101.27500000000001,62.753500000000003
165257.0,325.56200000000001,-71.8429,-98.4101,-39.597799999999999,-131.57499999999999,96.365499999999997,88.681600000000003
165258.0,331.84800000000001,-106.937,-138.923,-84.277600000000007,-124.39400000000001,100.453,101.928
165259.0,309.94200000000001,-65.185000000000002,-115.205,-78.553600000000003,-108.545,98.766300000000001,99.064999999999998
165260.0,485.70400000000001,-269.57600000000002,-134.51499999999999,59.663699999999999,-204.387,-85.4679,-46.5428
165261.0,456.62299999999999,-260.71100000000001,-117.83799999999999,70.450400000000002,-191.51900000000001,-62.606999999999999,-36.244
165262.0,459.84300000000002,-270.18299999999999,-106.70399999999999,87.328400000000002,-193.941,-26.405999999999999,-11.989100000000001
165263.0,504.36099999999999,-308.39600000000002,-130.083,76.132300000000001,-218.52099999999999,-2.8668,1.7988999999999999
165264.0,597.471,-372.56999999999999,-175.54300000000001,72.454300000000003,-262.25099999999998,17.872,12.9549
165265.0,653.67100000000005,-415.26600000000002,-201.26900000000001,55.532699999999998,-291.73399999999998,36.154699999999998,21.1431
165266.0,649.23000000000002,-409.666,-195.631,30.6904,-296.44499999999999,55.480200000000004,32.424500000000002
165267.0,620.51499999999999,-385.88,-191.49799999999999,10.5021,-285.19200000000001,72.694000000000003,49.426900000000003
165268.0,591.81500000000005,-350.411,-175.56999999999999,11.5526,-270.267,85.594399999999993,60.088799999999999
165269.0,577.62300000000005,-331.08600000000001,-178.67500000000001,0.46245599999999998,-259.70499999999998,104.753,72.498500000000007
165270.0,550.74599999999998,-291.60500000000002,-168.648,-9.5130400000000002,-244.22,118.381,86.294300000000007
165271.0,514.90700000000004,-252.21000000000001,-167.20699999999999,-33.107799999999997,-220.55099999999999,131.565,101.104
165272.0,471.33499999999998,-195.88800000000001,-150.011,-39.877099999999999,-195.05199999999999,133.41200000000001,108.533
165273.0,435.13400000000001,-153.97200000000001,-144.15899999999999,-49.595500000000001,-171.98500000000001,131.38900000000001,113.79600000000001
165274.0,392.72800000000001,-101.342,-113.828,-32.491,-150.51900000000001,121.80800000000001,109.544
165275.0,344.90600000000001,-85.3506,-100.634,-23.934999999999999,-133.06899999999999,105.884,95.323300000000003
165276.0,316.827,-62.9467,-81.247200000000007,1.1489499999999999,-123.74299999999999,100.79000000000001,78.209699999999998
165277.0,278.32900000000001,-45.265000000000001,-60.538899999999998,20.717199999999998,-110.629,89.809200000000004,60.439100000000003
165278.0,262.375,-29.0823,-49.419600000000003,29.0412,-104.648,86.778700000000001,52.982999999999997
165279.0,290.50400000000002,-23.377099999999999,-59.245199999999997,25.651399999999999,-113.51000000000001,101.63500000000001,55.682200000000002
165280.0,281.63099999999997,-24.308299999999999,-43.833199999999998,31.607800000000001,-114.40600000000001,97.496700000000004,48.0747
165281.0,256.08199999999999,-36.542499999999997,-27.295500000000001,37.349499999999999,-107.90300000000001,87.186899999999994,31.5258
165282.0,244.83199999999999,-1.2367300000000001,-22.800599999999999,34.609999999999999,-100.556,85.613699999999994,41.215299999999999
165283.0,262.78899999999999,11.402799999999999,-44.823399999999999,14.7125,-105.605,84.379499999999993,60.228499999999997
165284.0,282.43599999999998,-1.1379600000000001,-70.827500000000001,1.4432799999999999,-110.307,82.232799999999997,77.324600000000004
165285.0,279.68400000000003,-36.237099999999998,-101.07599999999999,-40.356200000000001,-109.182,75.521199999999993,84.452100000000002
165286.0,414.64299999999997,-221.864,-125.70399999999999,43.061,-178.78,-72.830500000000001,-45.359299999999998
165287.0,428.66500000000002,-241.72499999999999,-122.514,48.732999999999997,-190.875,-49.5794,-32.292700000000004
165288.0,528.45000000000005,-320.12900000000002,-174.93100000000001,51.168199999999999,-238.22800000000001,-32.864600000000003,-15.5787
165289.0,584.58799999999997,-357.697,-189.99199999999999,46.499600000000001,-267.42599999999999,-28.365200000000002,-18.843900000000001
165290.0,615.96900000000005,-389.93599999999998,-194.89699999999999,40.998199999999997,-282.56200000000001,7.0295399999999999,4.0642100000000001
165291.0,616.47000000000003,-393.64999999999998,-199.577,29.049099999999999,-284.54199999999997,25.482399999999998,17.228899999999999
165292.0,574.92700000000002,-357.33499999999998,-192.75,15.227499999999999,-266.83999999999997,53.1295,36.007100000000001
165293.0,539.52599999999995,-314.75,-176.267,22.0581,-247.91200000000001,68.264899999999997,47.443100000000001
165294.0,511.67700000000002,-291.48000000000002,-176.976,5.5910700000000002,-233.74299999999999,82.481499999999997,58.164099999999998
165295.0,486.83600000000001,-254.80500000000001,-164.13,7.1959900000000001,-219.82599999999999,91.675799999999995,67.615899999999996
165296.0,467.39699999999999,-223.71100000000001,-159.50800000000001,2.9339300000000001,-204.864,105.639,77.750600000000006
165297.0,435.46800000000002,-167.44300000000001,-140.06100000000001,0.29334300000000002,-183.613,115.77200000000001,89.422700000000006
165298.0,398.18299999999999,-126.479,-130.71899999999999,-16.042999999999999,-160.36000000000001,115.505,97.804900000000004
165299.0,368.84899999999999,-89.428899999999999,-118.45099999999999,-23.310199999999998,-140.75899999999999,112.84099999999999,102.108
165300.0,330.43299999999999,-74.695400000000006,-116.267,-34.4255,-122.69199999999999,101.20399999999999,97.082899999999995
165301.0,294.654,-49.782200000000003,-95.382199999999997,-14.953900000000001,-108.526,91.396799999999999,84.747900000000001
165302.0,267.74700000000001,-30.917899999999999,-81.165000000000006,4.1753499999999999,-98.511399999999995,87.463300000000004,68.571200000000005
165303.0,238.83500000000001,-16.384799999999998,-59.0501,29.284099999999999,-93.992199999999997,78.482600000000005,45.4801
165304.0,223.19999999999999,5.9542200000000003,-44.369900000000001,38.943600000000004,-86.237499999999997,75.390500000000003,41.533999999999999
165305.0,225.602,-4.81074,-48.132899999999999,33.510599999999997,-88.220699999999994,75.486199999999997,42.612699999999997
165306.0,250.80600000000001,-33.155799999999999,-56.859699999999997,28.1752,-106.265,78.730999999999995,39.385100000000001
165307.0,267.18299999999999,-38.029200000000003,-47.192700000000002,32.904000000000003,-116.89,83.836799999999997,34.380899999999997
165308.0,234.92099999999999,-11.891999999999999,-36.808700000000002,26.890000000000001,-98.918700000000001,77.825800000000001,39.034999999999997
165309.0,214.441,17.4192,-36.022399999999998,17.687899999999999,-86.159000000000006,72.650700000000001,40.865099999999998
165310.0,215.256,54.064999999999998,-19.9558,33.358800000000002,-81.980099999999993,71.229100000000003,46.822299999999998
165311.0,238.48699999999999,41.6006,-50.340000000000003,3.0224000000000002,-93.0548,60.800800000000002,66.867800000000003
165312.0,405.72899999999998,-209.47900000000001,-136.72999999999999,12.8658,-185.48400000000001,-69.866100000000003,-52.298499999999997
165313.0,502.209,-284.56999999999999,-185.923,24.821899999999999,-230.08699999999999,-64.666399999999996,-44.402099999999997
165314.0,567.83600000000001,-327.22899999999998,-202.70500000000001,34.334800000000001,-264.47800000000001,-50.302100000000003,-35.5383
165315.0,599.85299999999995,-364.84399999999999,-222.50299999999999,22.923400000000001,-284.12299999999999,-22.263500000000001,-15.5909
165316.0,586.51300000000003,-349.61799999999999,-223.327,20.805199999999999,-280.83699999999999,15.8499,9.1963200000000001
165317.0,507.952,-291.875,-190.66399999999999,15.884399999999999,-246.61799999999999,19.2517,14.500299999999999
165318.0,479.38600000000002,-261.72000000000003,-169.77000000000001,34.040100000000002,-224.83199999999999,44.6068,33.958599999999997
165319.0,460.98399999999998,-245.21000000000001,-167.91999999999999,29.340299999999999,-212.429,61.298000000000002,43.682299999999998
165320.0,437.19400000000002,-209.94300000000001,-151.375,33.6113,-198.17500000000001,73.782200000000003,53.235700000000001
165321.0,412.10700000000003,-188.32300000000001,-146.81999999999999,22.2713,-183.24199999999999,82.871600000000001,61.003100000000003
165322.0,390.46899999999999,-156.50899999999999,-134.429,21.683599999999998,-168.25700000000001,91.4649,68.633600000000001
165323.0,367.43799999999999,-133.77799999999999,-133.96000000000001,3.40638,-151.69300000000001,99.070700000000002,76.787199999999999
165324.0,342.63400000000001,-93.726900000000001,-120.214,-6.9991599999999998,-133.124,101.95,86.660499999999999
165325.0,312.91000000000003,-67.936099999999996,-117.143,-23.953099999999999,-114.36799999999999,96.167100000000005,90.200199999999995
165326.0,274.44200000000001,-30.2258,-89.053100000000001,-8.3605499999999999,-96.8904,84.103099999999998,83.086299999999994
165327.0,240.72,-16.844799999999999,-82.043599999999998,-4.4760299999999997,-81.864599999999996,76.295500000000004,71.104299999999995
165328.0,218.59399999999999,8.7366799999999998,-57.0411,28.7407,-70.134,75.573700000000002,57.301200000000001
165329.0,214.59800000000001,10.528499999999999,-34.3431,29.4938,-81.492900000000006,81.009299999999996,32.748199999999997
165330.0,210.46100000000001,-6.7586899999999996,-44.080800000000004,26.150700000000001,-72.703999999999994,83.626199999999997,35.363999999999997
165331.0,184.69399999999999,-5.4139299999999997,-37.009900000000002,35.725700000000003,-69.127499999999998,66.860399999999998,28.134
165332.0,189.23099999999999,-7.8384400000000003,-24.198599999999999,41.179400000000001,-84.294600000000003,57.285800000000002,19.785499999999999
165333.0,243.708,-34.619300000000003,-57.0259,25.662299999999998,-107.033,74.730500000000006,30.469200000000001
165334.0,250.81200000000001,-22.999700000000001,-56.305300000000003,24.019600000000001,-109.72499999999999,76.277500000000003,38.500399999999999
165335.0,192.03999999999999,11.9842,-34.454099999999997,24.500900000000001,-80.449200000000005,59.889400000000002,35.629300000000001
165336.0,178.74600000000001,45.9465,-21.942900000000002,28.294599999999999,-70.019499999999994,59.712200000000003,30.677
165337.0,207.75,65.449799999999996,-42.619399999999999,12.412100000000001,-78.560500000000005,55.163800000000002,47.453200000000002
165338.0,441.56700000000001,-228.21000000000001,-181.215,-4.4676600000000004,-204.85599999999999,-75.037899999999993,-58.982500000000002
165339.0,524.73000000000002,-283.13400000000001,-206.024,34.171300000000002,-242.02699999999999,-61.739800000000002,-44.771999999999998
165340.0,517.68299999999999,-285.66500000000002,-201.66800000000001,33.0426,-242.601,-43.909799999999997,-35.526000000000003
165341.0,497.27100000000002,-274.24700000000001,-196.57400000000001,36.155000000000001,-236.77699999999999,-14.1708,-8.4223400000000002
165342.0,459.745,-260.18000000000001,-191.286,23.6877,-219.92099999999999,10.2265,7.8741500000000002
165343.0,414.67200000000003,-216.57300000000001,-159.32599999999999,38.2393,-194.95599999999999,30.3566,22.701599999999999
165344.0,401.84399999999999,-200.75700000000001,-157.49600000000001,45.378799999999998,-183.102,43.785899999999998,33.374899999999997
165345.0,383.00599999999997,-182.27600000000001,-146.215,41.341900000000003,-174.191,52.6569,36.997199999999999
165346.0,368.97500000000002,-164.589,-139.51900000000001,36.8596,-163.46100000000001,65.610100000000003,47.995100000000001
165347.0,354.42500000000001,-146.517,-136.34200000000001,29.2149,-153.971,73.9499,54.446599999999997
165348.0,335.66699999999997,-119.193,-126.074,26.068200000000001,-141.66300000000001,79.924999999999997,60.978900000000003
165349.0,317.94099999999997,-94.416600000000003,-118.244,18.002400000000002,-129.77600000000001,84.093599999999995,66.987200000000001
165350.0,295.38799999999998,-66.293700000000001,-109.529,5.5411999999999999,-113.86199999999999,85.091300000000004,74.168800000000005
165351.0,259.29000000000002,-37.350700000000003,-96.169799999999995,-3.89432,-91.872799999999998,78.314800000000005,75.1952
165352.0,217.536,-15.0016,-80.081699999999998,-3.5547399999999998,-70.904200000000003,68.634200000000007,65.818899999999999
165353.0,183.28800000000001,10.0281,-56.858800000000002,11.6981,-54.964799999999997,62.533900000000003,52.316800000000001
165354.0,165.71100000000001,30.927900000000001,-38.052799999999998,43.784599999999998,-41.212699999999998,63.084800000000001,39.222499999999997
165355.0,187.52500000000001,51.327100000000002,-41.518799999999999,37.853299999999997,-63.7577,70.903000000000006,10.6122
165356.0,191.36500000000001,15.7281,-74.228700000000003,41.201500000000003,-59.055900000000001,70.475899999999996,8.6499100000000002
165357.0,148.09200000000001,44.320799999999998,-9.6288400000000003,79.823300000000003,-48.6111,54.0182,0.77198999999999995
165358.0,138.404,36.919699999999999,9.6598199999999999,62.003100000000003,-60.580800000000004,44.458500000000001,-7.2962600000000002
165359.0,175.03200000000001,2.6147800000000001,-21.475100000000001,43.783999999999999,-77.200599999999994,55.4285,9.5326199999999996
165360.0,214.596,-16.543399999999998,-45.606099999999998,25.266500000000001,-96.005399999999995,64.692599999999999,26.057500000000001
165361.0,197.47800000000001,-0.84321199999999996,-49.457500000000003,13.735200000000001,-83.794799999999995,59.651200000000003,36.393799999999999
165362.0,188.38900000000001,32.712499999999999,-37.078099999999999,19.694500000000001,-75.818399999999997,58.156500000000001,36.363100000000003
165363.0,208.68899999999999,70.128699999999995,-39.173699999999997,16.784500000000001,-78.160899999999998,60.281500000000001,42.269799999999996
165364.0,422.71300000000002,-197.80000000000001,-173.93100000000001,27.407499999999999,-195.941,-60.1509,-47.398200000000003
165365.0,445.60000000000002,-216.90600000000001,-190.09,41.627400000000002,-207.708,-43.115600000000001,-31.244199999999999
165366.0,445.322,-205.92599999999999,-183.541,66.204999999999998,-204.23500000000001,-32.381300000000003,-22.840800000000002
165367.0,392.90600000000001,-185.17400000000001,-159.304,70.1648,-177.709,-9.2987000000000002,-6.1367799999999999
165368.0,311.61599999999999,-131.47499999999999,-107.04600000000001,65.383799999999994,-144.286,4.5237600000000002,3.9380500000000001
165369.0,337.459,-151.64500000000001,-129.01400000000001,69.124399999999994,-148.77199999999999,25.715199999999999,20.332000000000001
165370.0,345.36700000000002,-145.786,-128.684,70.602099999999993,-151.91300000000001,38.1111,27.522500000000001
165371.0,322.31200000000001,-136.035,-129.34899999999999,45.610599999999998,-142.73099999999999,49.017400000000002,35.282800000000002
165372.0,316.78899999999999,-114.86499999999999,-120.46299999999999,50.853200000000001,-136.62799999999999,58.158900000000003,43.912999999999997
165373.0,305.678,-106.105,-122.38800000000001,38.5824,-129.31100000000001,64.879499999999993,48.620800000000003
165374.0,292.31599999999997,-81.253500000000003,-109.94799999999999,40.799199999999999,-119.334,70.430300000000003,53.614100000000001
165375.0,272.76400000000001,-69.144400000000005,-112.712,21.706700000000001,-106.387,73.608900000000006,57.9666
165376.0,247.119,-36.724600000000002,-93.679100000000005,22.165800000000001,-89.365300000000005,73.715000000000003,59.8384
165377.0,203.72,-15.969099999999999,-77.310100000000006,12.226000000000001,-67.542699999999996,64.056299999999993,55.4345
165378.0,160.77799999999999,19.378599999999999,-43.381799999999998,28.377199999999998,-45.470500000000001,55.155099999999997,44.482599999999998
165379.0,131.68799999999999,35.169699999999999,-27.527799999999999,36.383899999999997,-31.756599999999999,49.990900000000003,30.6069
165380.0,119.497,51.617400000000004,-7.78261,63.411799999999999,-19.437799999999999,52.073900000000002,14.6378
165381.0,160.77699999999999,103.56,18.942,82.317700000000002,-35.6646,73.238500000000002,-6.5290600000000003
165382.0,166.202,61.726900000000001,-2.77217,73.898700000000005,-44.012799999999999,74.335899999999995,-6.8490000000000002
165383.0,131.23500000000001,51.022399999999998,19.782299999999999,84.100399999999993,-33.971899999999998,58.886699999999998,-9.2014399999999998
165384.0,118.179,68.540199999999999,30.3718,69.849000000000004,-39.339399999999998,47.789499999999997,-17.920500000000001
165385.0,117.776,41.649700000000003,8.5174900000000004,53.103299999999997,-48.7851,39.957599999999999,-10.535299999999999
165386.0,158.26900000000001,12.114000000000001,-11.574,47.982700000000001,-73.228999999999999,45.536999999999999,3.8016200000000002
165387.0,199.322,4.9017400000000002,-40.4602,29.552499999999998,-89.460599999999999,58.695300000000003,23.100200000000001
165388.0,204.822,33.640599999999999,-49.473300000000002,20.8093,-83.4709,59.518500000000003,38.368600000000001
165389.0,213.44,56.274000000000001,-60.4587,7.8563299999999998,-79.946100000000001,59.258400000000002,42.930300000000003
165390.0,369.71899999999999,-161.71899999999999,-172.27699999999999,35.298900000000003,-170.39400000000001,-41.831899999999997,-33.332500000000003
165391.0,363.505,-155.59999999999999,-161.107,53.014200000000002,-165.251,-36.165199999999999,-23.0152
165392.0,355.07900000000001,-156.94499999999999,-153.06399999999999,69.432699999999997,-157.417,-18.772200000000002,-9.9976400000000005
165393.0,325.63099999999997,-134.922,-135.68600000000001,74.5321,-143.68000000000001,-4.9010300000000004,-0.064980099999999999
165394.0,303.32799999999997,-131.82300000000001,-135.90700000000001,59.032499999999999,-134.59,8.8440600000000007,8.3268199999999997
165395.0,294.96699999999998,-119.44,-123.925,63.301400000000001,-128.30799999999999,26.585000000000001,20.514800000000001
165396.0,284.06999999999999,-114.462,-119.215,59.628399999999999,-123.16500000000001,29.213699999999999,22.126300000000001
165397.0,278.5,-102.52500000000001,-115.63200000000001,53.778599999999997,-118.67,43.2226,31.9313
165398.0,270.803,-89.501499999999993,-112.89,47.3093,-112.898,51.4527,39.541400000000003
165399.0,266.87099999999998,-80.164100000000005,-112.854,42.479999999999997,-108.131,58.182200000000002,44.226900000000001
165400.0,248.85300000000001,-62.122199999999999,-103.621,38.4666,-97.454999999999998,60.946800000000003,45.7425
165401.0,230.93100000000001,-33.213700000000003,-87.771799999999999,39.406599999999997,-81.780199999999994,66.568799999999996,50.855400000000003
165402.0,207.54599999999999,-7.7721200000000001,-73.261300000000006,40.042299999999997,-64.837100000000007,67.483099999999993,48.632899999999999
165403.0,163.036,15.590999999999999,-49.901200000000003,37.321199999999997,-43.989600000000003,57.489899999999999,39.478200000000001
165404.0,128.29300000000001,32.390799999999999,-31.3964,38.442700000000002,-22.898499999999999,52.156399999999998,27.286999999999999
165405.0,97.498000000000005,56.411799999999999,2.37676,61.027799999999999,-9.5654800000000009,43.501300000000001,11.0115
165406.0,104.727,64.052099999999996,14.9176,74.0702,-5.8340100000000001,50.794899999999998,-6.2848800000000002
165407.0,139.71199999999999,89.488799999999998,25.657299999999999,69.561499999999995,-17.765000000000001,69.435100000000006,-17.411300000000001
165408.0,125.134,0.26081500000000002,-38.2834,1.2809999999999999,-33.2346,59.248699999999999,-9.7921800000000001
165409.0,123.712,-12.641999999999999,-33.348700000000001,22.320799999999998,-32.144500000000001,56.8536,-6.6547000000000001
165410.0,114.318,81.6768,46.189900000000002,84.190899999999999,-27.885000000000002,51.870199999999997,-20.892199999999999
165411.0,106.73399999999999,70.262500000000003,39.596800000000002,65.487499999999997,-37.794899999999998,40.2303,-21.868600000000001
165412.0,133.131,20.821100000000001,-2.5366499999999998,41.296100000000003,-60.509700000000002,41.433799999999998,-6.9795999999999996
165413.0,181.56,13.225,-23.983799999999999,39.681600000000003,-85.503299999999996,51.180300000000003,5.90137
165414.0,194.61099999999999,37.188200000000002,-45.060699999999997,28.3855,-82.857100000000003,55.475700000000003,25.341200000000001
165415.0,193.16800000000001,62.096400000000003,-49.427199999999999,21.762499999999999,-73.3489,50.998699999999999,35.613100000000003
165416.0,320.74000000000001,-124.039,-144.40100000000001,59.717300000000002,-141.10300000000001,-36.319299999999998,-20.524699999999999
165417.0,298.57600000000002,-113.639,-130.73400000000001,68.388199999999998,-129.91499999999999,-22.988299999999999,-11.4117
165418.0,279.43000000000001,-104.328,-118.033,71.913499999999999,-120.71899999999999,-14.344200000000001,-5.1542000000000003
165419.0,280.50099999999998,-112.90600000000001,-119.904,66.358900000000006,-122.2,-11.0349,-5.0821399999999999
165420.0,294.99299999999999,-122.876,-124.64100000000001,71.014499999999998,-127.501,6.7661699999999998,7.6467599999999996
165421.0,273.23700000000002,-101.88500000000001,-115.04900000000001,65.520899999999997,-115.349,28.476900000000001,25.218399999999999
165422.0,244.874,-77.336100000000002,-100.355,67.715599999999995,-101.38800000000001,29.313800000000001,23.368099999999998
165423.0,237.66,-74.709599999999995,-100.554,61.823300000000003,-96.825699999999998,34.901000000000003,24.930700000000002
165424.0,229.131,-60.191699999999997,-93.992800000000003,54.2301,-91.365200000000002,44.285299999999999,34.021299999999997
165425.0,220.80600000000001,-51.157499999999999,-94.740399999999994,46.527200000000001,-84.059200000000004,49.579300000000003,38.659799999999997
165426.0,199.24799999999999,-26.9999,-77.206599999999995,50.563400000000001,-69.376499999999993,53.477699999999999,37.638399999999997
165427.0,188.00399999999999,-5.3174400000000004,-67.765900000000002,52.3508,-52.021500000000003,61.620699999999999,40.860599999999998
165428.0,162.238,15.439299999999999,-50.9026,52.011600000000001,-35.4024,60.201000000000001,34.271999999999998
165429.0,133.56899999999999,42.792299999999997,-21.473400000000002,60.983600000000003,-18.069900000000001,56.012999999999998,24.620799999999999
165430.0,117.959,65.211299999999994,2.49641,71.009600000000006,-2.2494100000000001,54.7654,13.7966
165431.0,98.398600000000002,76.579599999999999,30.808499999999999,85.782799999999995,6.5653100000000002,48.068600000000004,-2.5988600000000002
165432.0,111.303,86.617199999999997,41.116500000000002,87.599900000000005,0.82775100000000001,56.2072,-16.254200000000001
165433.0,117.857,55.261200000000002,-1.20567,37.3504,-11.655200000000001,57.3795,-19.213999999999999
165434.0,88.319699999999997,-10.5587,-51.272199999999998,-5.5200399999999998,-25.073399999999999,34.593200000000003,-12.057600000000001
165435.0,108.268,-44.428100000000001,-68.357200000000006,-11.8123,-37.165100000000002,39.381799999999998,-13.019600000000001
165436.0,129.97,32.836799999999997,17.171700000000001,58.703099999999999,-35.692799999999998,57.495699999999999,-24.7211
165437.0,113.28700000000001,68.777900000000002,52.077399999999997,70.2744,-36.366900000000001,45.910699999999999,-27.305299999999999
165438.0,116.136,43.694400000000002,19.179500000000001,49.413699999999999,-50.383000000000003,38.0306,-15.9093
165439.0,152.203,41.314700000000002,4.4869700000000003,49.855600000000003,-71.923100000000005,44.093899999999998,-4.8468400000000003
165440.0,161.07300000000001,48.256399999999999,-25.796500000000002,34.079300000000003,-68.834800000000001,46.500900000000001,14.2341
165441.0,162.96899999999999,63.788800000000002,-35.279499999999999,28.965399999999999,-62.589100000000002,42.399999999999999,24.738900000000001
165442.0,254.054,-78.502099999999999,-110.84999999999999,71.650099999999995,-103.431,-33.3992,-14.7629
165443.0,247.89599999999999,-81.186999999999998,-105.23,78.123000000000005,-100.79300000000001,-19.153099999999998,-5.3561300000000003
165444.0,239.15799999999999,-76.776300000000006,-102.69199999999999,77.526700000000005,-96.857399999999998,-13.645799999999999,-2.15021
165445.0,238.21899999999999,-73.258499999999998,-102.357,80.819100000000006,-95.792199999999994,-6.7867899999999999,-1.9782200000000001
165446.0,239.809,-68.803100000000001,-101.52500000000001,86.676199999999994,-94.831999999999994,5.1125699999999998,6.2911000000000001
165447.0,233.803,-67.985799999999998,-97.974800000000002,82.388499999999993,-91.205200000000005,17.5627,15.9389
165448.0,222.13,-64.381200000000007,-93.785899999999998,73.175299999999993,-85.694500000000005,26.984999999999999,20.7776
165449.0,204.375,-54.577399999999997,-86.968999999999994,66.795000000000002,-78.6922,28.719200000000001,18.307700000000001
165450.0,186.34800000000001,-40.229399999999998,-77.885800000000003,58.981099999999998,-67.630700000000004,36.638599999999997,25.690799999999999
165451.0,156.60900000000001,-23.421099999999999,-62.316299999999998,49.498800000000003,-52.0261,38.424599999999998,27.752400000000002
165452.0,145.18799999999999,0.279586,-45.158299999999997,61.3889,-37.482599999999998,45.427799999999998,26.445599999999999
165453.0,148.78100000000001,34.474800000000002,-25.1876,82.567300000000003,-21.118300000000001,56.758299999999998,28.2333
165454.0,125.48099999999999,50.905999999999999,-4.1756599999999997,84.610699999999994,-6.1844799999999998,54.034799999999997,16.782900000000001
165455.0,115.21899999999999,65.017200000000003,15.034599999999999,87.708399999999997,5.7457099999999999,54.494100000000003,6.3312200000000001
165456.0,111.48099999999999,73.013199999999998,28.346699999999998,88.931899999999999,16.372699999999998,53.629300000000001,-3.4635799999999999
165457.0,111.241,88.996300000000005,49.402099999999997,98.363799999999998,15.8665,55.026800000000001,-13.028
165458.0,114.30500000000001,69.275400000000005,23.115400000000001,58.666800000000002,4.0752899999999999,59.302,-15.405799999999999
165459.0,102.611,7.3138100000000001,-39.538499999999999,-8.3087700000000009,-5.1564500000000004,52.400799999999997,-12.9686
165460.0,78.829099999999997,-8.2132900000000006,-31.051300000000001,3.3137699999999999,-13.908300000000001,36.003799999999998,-16.6051
165461.0,94.752799999999993,-23.1234,-37.865699999999997,-6.0777200000000002,-33.101799999999997,32.445300000000003,-24.314900000000002
165462.0,134.03800000000001,-16.222100000000001,-30.9925,12.0213,-42.077500000000001,52.197899999999997,-31.874199999999998
165463.0,116.58499999999999,46.256999999999998,34.225299999999997,61.023000000000003,-32.308999999999997,49.560499999999998,-29.161799999999999
165464.0,94.4739,59.381100000000004,32.173099999999998,46.248800000000003,-36.359099999999998,33.257199999999997,-19.0246
165465.0,127.999,57.282200000000003,23.827999999999999,50.990600000000001,-59.011899999999997,37.365499999999997,-16.3276
165466.0,126.616,52.546599999999998,-8.8433200000000003,37.296999999999997,-54.638399999999997,36.458300000000001,2.7559200000000001
165467.0,134.024,64.319699999999997,-20.962199999999999,34.268599999999999,-52.110599999999998,34.4086,14.729100000000001
165468.0,211.14599999999999,-48.631399999999999,-88.907700000000006,78.729600000000005,-80.230999999999995,-26.738700000000001,-7.1713300000000002
165469.0,209.90700000000001,-51.957900000000002,-88.680999999999997,83.290400000000005,-78.205799999999996,-18.774699999999999,-3.9809899999999998
165470.0,208.24199999999999,-46.649799999999999,-80.133300000000006,93.444500000000005,-75.836399999999998,-14.838699999999999,-2.02854
165471.0,204.25299999999999,-53.892099999999999,-84.399299999999997,87.533500000000004,-73.733900000000006,-7.2548399999999997,-1.2639499999999999
165472.0,206.142,-51.008000000000003,-80.375399999999999,93.932299999999998,-73.759500000000003,1.4080699999999999,3.6686800000000002
165473.0,203.68899999999999,-52.440399999999997,-84.184399999999997,87.604299999999995,-72.1357,13.073,9.9979099999999992
165474.0,193.45099999999999,-38.959400000000002,-74.372299999999996,86.0822,-69.011300000000006,19.892499999999998,14.499599999999999
165475.0,172.035,-39.378399999999999,-73.569400000000002,66.869600000000005,-60.992600000000003,24.692900000000002,13.1173
165476.0,145.22499999999999,-7.6988200000000004,-42.350499999999997,76.228899999999996,-42.772100000000002,32.262,21.0288
165477.0,114.831,0.275617,-31.503299999999999,64.214299999999994,-25.924499999999998,31.533799999999999,18.7684
165478.0,107.621,21.373999999999999,-7.3116500000000002,75.743600000000001,-19.651199999999999,38.860500000000002,13.598699999999999
165479.0,107.30200000000001,21.9802,-3.93892,73.911500000000004,-11.281000000000001,44.144599999999997,13.7958
165480.0,99.164199999999994,50.966099999999997,25.84,94.237399999999994,0.68377600000000005,44.879800000000003,8.1361100000000004
165481.0,103.672,65.267600000000002,35.1374,93.329300000000003,12.952299999999999,50.673499999999997,-0.39523599999999998
165482.0,109.607,96.213800000000006,68.433000000000007,120.43000000000001,21.353999999999999,52.925699999999999,-8.3955800000000007
165483.0,110.71899999999999,90.277799999999999,58.7988,96.430400000000006,15.524800000000001,56.862099999999998,-14.2989
165484.0,107.554,32.954300000000003,-8.9342100000000002,20.913,6.3776599999999997,56.053100000000001,-14.431900000000001
165485.0,96.990300000000005,2.2247300000000001,-40.193800000000003,-6.95824,5.2244700000000002,48.038899999999998,-17.3964
165486.0,96.366799999999998,15.0388,-11.1594,17.676200000000001,-3.2256200000000002,43.099200000000003,-31.200099999999999
165487.0,94.625100000000003,-5.0646899999999997,-21.058800000000002,-4.1178400000000002,-20.549299999999999,34.422600000000003,-35.872399999999999
165488.0,112.88,-3.8146800000000001,-25.181100000000001,3.3058900000000002,-31.662500000000001,40.718600000000002,-36.972700000000003
165489.0,121.22199999999999,47.249299999999998,28.120999999999999,62.999200000000002,-28.911899999999999,52.0869,-32.314900000000002
165490.0,84.924700000000001,70.055899999999994,43.016100000000002,50.616199999999999,-27.2121,33.289299999999997,-18.998000000000001
165491.0,106.087,74.099999999999994,46.743699999999997,52.686100000000003,-46.423699999999997,30.727699999999999,-21.096699999999998
165492.0,100.155,67.241600000000005,17.1968,45.2074,-41.5075,31.219999999999999,-4.1246600000000004
165493.0,101.669,60.337400000000002,-4.9282000000000004,35.001199999999997,-40.189599999999999,26.252500000000001,7.6490600000000004
165494.0,191.59,-40.914700000000003,-82.558199999999999,78.288600000000002,-67.150099999999995,-27.099399999999999,-4.7841300000000002
165495.0,185.69300000000001,-36.7866,-73.041200000000003,88.561400000000006,-63.2943,-17.2194,-0.95708599999999999
165496.0,181.08799999999999,-34.951700000000002,-70.595699999999994,92.391199999999998,-57.913600000000002,-15.263400000000001,-1.4436599999999999
165497.0,183.92699999999999,-31.711500000000001,-65.3904,102.568,-57.678800000000003,-7.3214600000000001,-0.011888299999999999
165498.0,182.893,-33.967300000000002,-67.150400000000005,100.881,-56.814399999999999,-0.52904399999999996,1.3660300000000001
165499.0,182.267,-28.7895,-62.620800000000003,104.053,-56.353299999999997,9.7920099999999994,6.3420899999999998
165500.0,160.75,-31.898599999999998,-64.853499999999997,79.534199999999998,-51.113999999999997,14.661099999999999,7.7924499999999997
165501.0,126.30800000000001,-10.8874,-41.000599999999999,70.496600000000001,-38.699199999999998,20.023800000000001,9.6101500000000009
165502.0,113.39,-2.9998999999999998,-32.122399999999999,67.024100000000004,-23.354900000000001,28.501799999999999,18.1937
165503.0,105.20099999999999,17.001200000000001,-8.2839600000000004,85.105999999999995,-10.4467,30.642299999999999,17.544499999999999
165504.0,99.700100000000006,23.109300000000001,-6.9028099999999997,66.549700000000001,-10.711600000000001,41.231299999999997,11.6089
165505.0,87.932100000000005,-18.771799999999999,-43.836199999999998,16.5474,-11.1357,36.7136,13.6069
165506.0,76.920400000000001,-11.253500000000001,-23.8721,29.048400000000001,-4.6469399999999998,32.486600000000003,11.457100000000001
165507.0,84.421199999999999,17.808599999999998,7.6140100000000004,52.0473,4.0533900000000003,42.545699999999997,2.7057600000000002
165508.0,96.259399999999999,39.771000000000001,30.022400000000001,71.763199999999998,10.6265,49.841799999999999,-3.8329800000000001
165509.0,100.018,35.252200000000002,13.6203,43.721499999999999,10.4803,53.560000000000002,-10.7258
165510.0,102.06,5.8868299999999998,-28.869700000000002,-1.4204699999999999,13.046799999999999,51.840899999999998,-16.689800000000002
165511.0,105.762,17.880400000000002,-9.4296699999999998,13.242000000000001,14.981999999999999,50.263199999999998,-27.642900000000001
165512.0,116.16,37.084899999999998,16.855899999999998,27.794,5.3013599999999999,53.465200000000003,-38.839599999999997
165513.0,100.01900000000001,18.0641,4.8450100000000003,6.4949599999999998,-10.118,41.577399999999997,-38.100499999999997
165514.0,100.99299999999999,8.2362199999999994,-5.8342299999999998,-2.9000900000000001,-20.1249,39.957999999999998,-36.648699999999998
165515.0,121.565,46.119599999999998,26.0975,51.853499999999997,-24.818999999999999,55.185099999999998,-32.890500000000003
165516.0,83.614199999999997,66.000799999999998,39.004800000000003,45.938200000000002,-22.294,35.267699999999998,-19.825500000000002
165517.0,87.777100000000004,87.662999999999997,59.072400000000002,52.227699999999999,-34.308300000000003,24.326599999999999,-21.121099999999998
165518.0,86.740600000000001,61.357999999999997,21.762899999999998,38.081099999999999,-35.6494,27.752800000000001,-8.4204600000000003
165519.0,68.957700000000003,53.674799999999998,9.6396499999999996,35.114199999999997,-27.350000000000001,18.037700000000001,4.7868500000000003
165520.0,169.63800000000001,-18.290800000000001,-61.957700000000003,90.006699999999995,-52.613100000000003,-26.287500000000001,-3.4391500000000002
165521.0,167.023,-21.756,-59.329900000000002,94.611099999999993,-50.099499999999999,-18.630199999999999,0.011680100000000001
165522.0,163.458,-16.465599999999998,-49.875599999999999,104.904,-45.061599999999999,-15.4443,-1.8084
165523.0,165.59100000000001,-21.1326,-54.282299999999999,104.88,-45.004100000000001,-7.6847200000000004,1.9815700000000001
165524.0,171.155,-21.342300000000002,-55.029699999999998,110.86499999999999,-45.5441,-0.24756800000000001,1.13235
165525.0,163.66499999999999,-17.5351,-50.8994,107.622,-42.648099999999999,9.2538400000000003,6.3106900000000001
165526.0,124.78100000000001,-8.3247599999999995,-38.435099999999998,80.9084,-33.865099999999998,12.613899999999999,5.66866
165527.0,94.014099999999999,1.4802,-23.450500000000002,63.311,-22.874400000000001,17.901499999999999,10.351599999999999
165528.0,91.653099999999995,10.207800000000001,-12.0471,71.1387,-12.526400000000001,23.822500000000002,14.867900000000001
165529.0,98.413899999999998,22.130500000000001,5.3387399999999996,94.687100000000001,-1.6233500000000001,27.9956,13.6791
165530.0,92.097499999999997,41.803800000000003,15.3515,83.588399999999993,-3.3004799999999999,39.733499999999999,7.3491799999999996
165531.0,70.623500000000007,-29.9483,-61.765700000000002,-9.9468399999999999,-6.4713700000000003,29.4373,8.4376300000000004
165532.0,57.209099999999999,-56.598399999999998,-76.323400000000007,-27.284199999999998,-1.4617899999999999,20.833300000000001,6.7766099999999998
165533.0,67.488600000000005,-44.1218,-59.212000000000003,-15.8332,4.2704500000000003,31.854099999999999,-0.60705200000000004
165534.0,83.087699999999998,-20.715399999999999,-35.391199999999998,6.3000100000000003,9.5073100000000004,41.255400000000002,-7.8461800000000004
165535.0,90.824399999999997,-14.076599999999999,-32.318300000000001,-2.1986400000000001,12.182399999999999,46.428400000000003,-14.680300000000001
165536.0,98.706699999999998,11.5227,-5.0532000000000004,15.128299999999999,16.684100000000001,49.3322,-20.4892
165537.0,115.03700000000001,39.8583,30.922499999999999,37.358400000000003,15.605600000000001,55.029699999999998,-33.438000000000002
165538.0,121.505,40.611499999999999,31.087,29.0383,11.670999999999999,56.722000000000001,-39.108199999999997
165539.0,105.008,20.078900000000001,8.7078500000000005,-5.6795999999999998,-3.5928100000000001,46.042499999999997,-37.0959
165540.0,111.514,27.5381,13.1632,4.0245600000000001,-13.6852,49.112499999999997,-37.486899999999999
165541.0,115.97,65.103700000000003,44.329799999999999,62.626100000000001,-12.7563,54.412700000000001,-35.082700000000003
165542.0,83.649100000000004,76.888000000000005,49.563600000000001,47.588799999999999,-21.1614,31.877099999999999,-24.500499999999999
165543.0,77.066100000000006,95.513999999999996,60.491900000000001,52.1633,-24.567799999999998,24.296399999999998,-16.0198
165544.0,68.686499999999995,64.318200000000004,30.054300000000001,41.201700000000002,-27.480699999999999,20.996099999999998,-8.4347899999999996
165545.0,49.044199999999996,42.558300000000003,8.9083000000000006,30.002500000000001,-19.060700000000001,12.2105,0.462586
165546.0,151.524,-13.436199999999999,-54.910299999999999,86.139200000000002,-42.365499999999997,-24.521799999999999,-1.3966499999999999
165547.0,152.82599999999999,-12.8766,-50.673000000000002,95.782300000000006,-40.3431,-19.403300000000002,0.65013200000000004
165548.0,154.08199999999999,-13.3377,-47.323700000000002,104.761,-36.046100000000003,-15.4657,-1.8002899999999999
165549.0,149.721,-9.4204699999999999,-40.415900000000001,108.824,-34.328099999999999,-9.5403900000000004,0.38603300000000002
165550.0,154.25200000000001,-15.4556,-46.223300000000002,108.571,-34.635899999999999,1.4045099999999999,3.8022300000000002
165551.0,141.732,-3.0447600000000001,-33.088900000000002,108.75,-30.825099999999999,9.5150400000000008,8.29162
165552.0,94.979600000000005,-7.7859400000000001,-31.285299999999999,61.828000000000003,-21.8659,11.778499999999999,6.74214
165553.0,80.5107,9.5917499999999993,-11.436,63.2864,-15.6717,17.118500000000001,11.7142
165554.0,81.765000000000001,4.9867800000000004,-13.097799999999999,62.325699999999998,-7.4085099999999997,20.8916,13.6591
165555.0,92.903300000000002,25.607800000000001,15.1305,99.0047,3.5450900000000001,26.0108,9.96251
165556.0,86.3476,36.671399999999998,19.463999999999999,81.464100000000002,1.91808,38.022799999999997,3.3874
165557.0,56.061999999999998,-14.190200000000001,-34.4163,2.89012,0.54694200000000004,26.1388,3.9176700000000002
165558.0,45.052599999999998,-51.329099999999997,-65.229100000000003,-27.3841,4.7912499999999998,16.856000000000002,1.7410300000000001
165559.0,59.456099999999999,-40.691299999999998,-54.8857,-16.111699999999999,8.8342600000000004,26.360700000000001,-4.5353500000000002
165560.0,78.373199999999997,-28.154599999999999,-40.0946,-2.9691700000000001,12.533799999999999,36.874400000000001,-13.093400000000001
165561.0,87.959800000000001,-17.6493,-26.261700000000001,-1.2067600000000001,13.9178,43.107700000000001,-19.1037
165562.0,97.1708,-2.74688,-3.3378999999999999,8.4122299999999992,16.070399999999999,47.511600000000001,-24.247900000000001
165563.0,113.983,14.3195,16.353999999999999,13.310700000000001,12.4611,54.992600000000003,-33.894599999999997
165564.0,109.108,24.867100000000001,26.2514,19.089400000000001,10.674200000000001,52.386800000000001,-33.097299999999997
165565.0,102.994,30.018599999999999,13.514900000000001,-7.3108000000000004,-2.5705499999999999,45.665199999999999,-33.077199999999998
165566.0,128.22499999999999,54.579000000000001,27.843399999999999,27.122399999999999,-5.0395000000000003,58.809899999999999,-41.8536
165567.0,119.886,97.4161,74.358199999999997,80.581800000000001,-1.0610299999999999,56.386400000000002,-38.315199999999997
165568.0,83.936599999999999,91.849699999999999,65.262900000000002,43.986499999999999,-19.894600000000001,27.658899999999999,-24.7501
165569.0,65.563199999999995,82.965199999999996,50.084699999999998,45.338900000000002,-16.9785,23.7407,-12.6906
165570.0,51.690199999999997,59.244300000000003,30.285299999999999,38.592399999999998,-18.7898,16.100200000000001,-7.4832999999999998
165571.0,46.582000000000001,54.260399999999997,22.686699999999998,38.942100000000003,-18.118400000000001,11.819599999999999,-2.4535499999999999
165572.0,136.46899999999999,1.7179500000000001,-38.846699999999998,92.675200000000004,-34.513599999999997,-21.895399999999999,1.0858300000000001
165573.0,141.607,-5.5571000000000002,-43.076999999999998,96.656899999999993,-32.814999999999998,-19.390899999999998,1.0766800000000001
165574.0,145.38300000000001,0.41388399999999997,-32.384399999999999,114.776,-29.485399999999998,-14.361800000000001,1.1219699999999999
165575.0,141.97200000000001,-1.98424,-30.315000000000001,115.283,-26.1129,-8.7837999999999994,0.87156199999999995
165576.0,133.19399999999999,1.02858,-24.2775,112.843,-23.4255,1.94374,6.0690799999999996
165577.0,107.02500000000001,3.3105899999999999,-20.0275,89.811199999999999,-19.4038,7.1453300000000004,6.4795499999999997
165578.0,80.5214,7.1064499999999997,-12.900700000000001,67.0929,-15.799099999999999,11.0067,7.5850900000000001
165579.0,74.464200000000005,11.9923,-8.1526800000000001,62.068899999999999,-12.4068,15.771100000000001,11.7568
165580.0,74.1387,12.8042,-2.1253099999999998,67.9071,-4.76065,17.9757,11.214700000000001
165581.0,90.461299999999994,30.2178,24.952400000000001,104.77,6.6393599999999999,24.684999999999999,9.02989
165582.0,80.936400000000006,44.028399999999998,33.052199999999999,87.597499999999997,3.9494799999999999,36.5276,1.1755199999999999
165583.0,48.881,-21.938099999999999,-31.4604,-2.6397599999999999,1.8587,23.921199999999999,2.27006
165584.0,38.957000000000001,-50.279400000000003,-50.575600000000001,-25.090199999999999,5.2638499999999997,16.177499999999998,1.56399
165585.0,56.255400000000002,-35.2789,-33.496099999999998,-6.3746099999999997,9.3825800000000008,26.083500000000001,-4.91296
165586.0,78.563800000000001,-16.735399999999998,-13.2163,12.5162,13.0785,37.774000000000001,-14.299200000000001
165587.0,87.832099999999997,-10.5829,-5.5422799999999999,10.1296,13.8246,42.784399999999998,-20.813400000000001
165588.0,95.133700000000005,-0.45238499999999998,6.29976,13.271800000000001,14.5098,45.949100000000001,-25.453099999999999
165589.0,103.093,10.797599999999999,13.4094,10.3453,10.135899999999999,50.003900000000002,-30.608599999999999
165590.0,91.383799999999994,10.9015,13.4826,6.6946199999999996,5.1958099999999998,44.543900000000001,-27.582000000000001
165591.0,92.951999999999998,15.303100000000001,-2.8332000000000002,-22.592199999999998,-4.0382300000000004,42.682400000000001,-26.128399999999999
165592.0,138.24700000000001,90.387100000000004,66.9238,68.557699999999997,1.9850300000000001,69.159099999999995,-37.579900000000002
165593.0,130.50299999999999,138.42599999999999,111.908,96.716700000000003,0.37055700000000003,63.869199999999999,-33.940600000000003
165594.0,75.405100000000004,91.723100000000002,63.678199999999997,34.6038,-13.896100000000001,24.3979,-17.064800000000002
165595.0,52.1404,76.265600000000006,45.726100000000002,45.688699999999997,-10.506399999999999,20.3217,-8.4604400000000002
165596.0,46.102600000000002,67.218800000000002,41.130899999999997,46.306399999999996,-14.620900000000001,16.334099999999999,-6.0931899999999999
165597.0,47.611600000000003,61.454900000000002,31.945799999999998,40.357900000000001,-18.681000000000001,12.966200000000001,-2.7237800000000001
165598.0,124.35599999999999,-0.065854399999999993,-37.0991,85.335300000000004,-28.4711,-19.732199999999999,3.5124
165599.0,130.30600000000001,1.5569999999999999,-32.454500000000003,98.658100000000005,-26.509599999999999,-17.741099999999999,3.61652
165600.0,134.12200000000001,-1.70167,-31.4663,106.127,-23.676400000000001,-13.4666,3.68038
165601.0,135.63399999999999,3.2927,-21.959199999999999,119.208,-20.161300000000001,-6.4958299999999998,4.0569699999999997
165602.0,118.589,2.2459099999999999,-19.595199999999998,103.07899999999999,-16.6282,3.44163,10.827500000000001
165603.0,80.174099999999996,7.5520199999999997,-11.1714,71.505600000000001,-13.200799999999999,6.5014500000000002,6.83725
165604.0,70.517899999999997,2.6997200000000001,-15.482100000000001,56.028700000000001,-12.163500000000001,9.3429500000000001,6.3997999999999999
165605.0,70.098500000000001,14.317,-5.0175400000000003,63.185600000000001,-10.445,13.638500000000001,10.354799999999999
165606.0,67.267600000000002,6.3697499999999998,-6.43248,57.677599999999998,-3.3640699999999999,16.1615,9.2040600000000001
165607.0,85.981700000000004,30.301400000000001,29.827100000000002,104.657,8.76403,21.656400000000001,7.9834899999999998
165608.0,75.581100000000006,33.741199999999999,26.457000000000001,74.7012,3.3115199999999998,34.878300000000003,0.56833199999999995
165609.0,45.344200000000001,-32.950699999999998,-42.497,-12.9076,-3.3826800000000001,21.054600000000001,1.6005499999999999
165610.0,35.078099999999999,-55.6098,-59.631,-29.946400000000001,1.01936,12.209,0.85636599999999996
165611.0,52.299900000000001,-35.374499999999998,-33.346400000000003,-6.9148100000000001,7.4313000000000002,23.3322,-7.7478899999999999
165612.0,76.914000000000001,-25.716899999999999,-15.949999999999999,5.8765599999999996,11.9566,36.173400000000001,-16.0869
165613.0,83.914199999999994,-17.995000000000001,-6.3294300000000003,4.64968,12.136799999999999,40.562800000000003,-20.647500000000001
165614.0,88.727199999999996,-11.830299999999999,-1.3708499999999999,2.35826,12.1547,43.767899999999997,-22.510000000000002
165615.0,88.654600000000002,-2.0606,0.38806600000000002,-1.01942,6.7059800000000003,45.473799999999997,-22.484100000000002
165616.0,73.872699999999995,-7.7469400000000004,-12.400700000000001,-13.8406,-2.8806699999999998,37.8508,-19.181699999999999
165617.0,78.291399999999996,11.0456,-6.5566000000000004,-18.6431,-6.5985800000000001,37.739699999999999,-18.774000000000001
165618.0,138.78,86.100800000000007,69.9358,71.650499999999994,2.91357,73.440100000000001,-30.646699999999999
165619.0,132.37899999999999,141.643,103.994,83.170699999999997,-3.71536,65.437299999999993,-25.831099999999999
165620.0,59.962000000000003,74.587299999999999,42.288600000000002,24.200900000000001,-8.4363299999999999,20.101500000000001,-8.4682700000000004
165621.0,44.023000000000003,74.9101,43.1815,47.582099999999997,-6.5003900000000003,16.982299999999999,-4.4581499999999998
165622.0,50.927599999999998,61.542099999999998,29.420300000000001,37.536200000000001,-15.1515,17.796700000000001,-6.2656200000000002
165623.0,50.589500000000001,66.507599999999996,35.416600000000003,43.976500000000001,-19.892399999999999,12.9725,-5.5835699999999999
165624.0,115.825,10.9581,-23.7973,91.850099999999998,-24.141400000000001,-18.482299999999999,5.1440900000000003
165625.0,119.38500000000001,6.2757800000000001,-26.0944,95.503900000000002,-22.559200000000001,-15.378,6.29087
165626.0,124.486,9.7552599999999998,-19.263500000000001,109.90000000000001,-19.780100000000001,-12.3903,5.3361200000000002
165627.0,124.541,9.3270499999999998,-11.8269,118.36199999999999,-14.9826,-4.7643300000000002,6.4874999999999998
165628.0,102.834,14.110799999999999,-2.8750900000000001,103.506,-11.7934,2.3496899999999998,10.6867
165629.0,68.282799999999995,8.0368700000000004,-9.4754199999999997,61.107100000000003,-11.2141,5.7356299999999996,6.68499
165630.0,63.773800000000001,16.3962,-1.3227500000000001,63.604199999999999,-9.9747599999999998,8.8818099999999998,7.1394900000000003
165631.0,64.388800000000003,15.957800000000001,-1.87134,62.707900000000002,-8.2867899999999999,11.428900000000001,8.3880700000000008
165632.0,61.573099999999997,16.695799999999998,4.4693399999999999,64.216899999999995,-3.73672,14.2858,7.0320600000000004
165633.0,76.835800000000006,28.0,30.226099999999999,97.019199999999998,7.3679300000000003,18.213200000000001,6.6020000000000003
165634.0,71.688400000000001,44.758400000000002,37.884799999999998,86.834500000000006,4.8739800000000004,31.417000000000002,-0.084719100000000006
165635.0,48.332700000000003,-41.456099999999999,-56.530299999999997,-20.251899999999999,-6.1482799999999997,20.109300000000001,-2.08304
165636.0,40.216299999999997,-65.144499999999994,-66.720699999999994,-33.311100000000003,-8.6436499999999992,10.219799999999999,-2.1491799999999999
165637.0,48.7943,-45.186100000000003,-39.1175,-12.105,-4.2364699999999997,20.3918,-7.0507600000000004
165638.0,65.715999999999994,-29.413399999999999,-20.2879,4.8051000000000004,1.5181800000000001,30.732600000000001,-13.370200000000001
165639.0,70.329599999999999,-20.946899999999999,-9.7859300000000005,3.1770299999999998,5.0702800000000003,34.665799999999997,-16.600100000000001
165640.0,75.894000000000005,-13.985900000000001,-4.3585700000000003,-1.7940199999999999,8.0896600000000003,38.9499,-17.207899999999999
165641.0,77.542500000000004,-0.64165799999999995,-2.3654700000000002,0.84723599999999999,7.1580399999999997,41.441299999999998,-15.2668
165642.0,64.077799999999996,-13.313800000000001,-29.201899999999998,-24.082699999999999,-3.7053400000000001,33.649099999999997,-12.525700000000001
165643.0,70.344200000000001,-6.82531,-28.614000000000001,-31.2209,-9.4262999999999995,34.226100000000002,-14.481299999999999
165644.0,133.33500000000001,95.697800000000001,71.600700000000003,86.344499999999996,2.4188100000000001,71.255700000000004,-26.367100000000001
165645.0,123.262,146.00800000000001,96.857200000000006,80.584900000000005,-5.5963200000000004,58.271900000000002,-21.850999999999999
165646.0,49.478700000000003,63.781399999999998,31.788699999999999,23.8337,-4.9386999999999999,17.915299999999998,-4.8573300000000001
165647.0,43.236800000000002,77.499600000000001,43.0122,50.956699999999998,-5.6314900000000003,16.162299999999998,-2.0089600000000001
165648.0,56.810400000000001,71.040000000000006,33.084299999999999,44.7699,-17.959,18.558700000000002,-5.56548
165649.0,56.690300000000001,73.236099999999993,39.077300000000001,48.827800000000003,-22.3125,15.1685,-5.8072999999999997
165650.0,108.116,9.4557599999999997,-24.496600000000001,84.858099999999993,-20.268999999999998,-17.997299999999999,5.3707000000000003
165651.0,109.706,7.8948900000000002,-23.451000000000001,89.1387,-19.519400000000001,-13.706799999999999,8.1427499999999995
165652.0,110.896,6.4203200000000002,-20.1343,95.856300000000005,-15.896800000000001,-10.679600000000001,6.2913899999999998
165653.0,111.378,10.6914,-6.2729100000000004,109.389,-10.614000000000001,-2.7223899999999999,10.669600000000001
165654.0,93.124099999999999,11.9954,-3.0772599999999999,92.616900000000001,-8.4258900000000008,2.8334700000000002,12.817
165655.0,63.1267,8.6184799999999999,-8.3620699999999992,57.066400000000002,-9.0473599999999994,5.7847900000000001,7.7633700000000001
165656.0,60.318800000000003,11.194900000000001,-6.1799799999999996,55.185099999999998,-8.3009900000000005,8.5517000000000003,8.3845500000000008
165657.0,60.450899999999997,14.329800000000001,-2.6714099999999998,58.974299999999999,-6.9959300000000004,10.153700000000001,7.2343299999999999
165658.0,56.794899999999998,13.5563,0.43191600000000002,57.1325,-4.3374300000000003,12.176299999999999,5.20852
165659.0,64.421499999999995,19.707599999999999,18.9863,77.542000000000002,2.6961400000000002,15.299300000000001,3.6086999999999998
165660.0,68.9268,33.891800000000003,31.2636,82.397800000000004,7.2262300000000002,26.495999999999999,-0.55161800000000005
165661.0,59.605800000000002,10.3604,-7.0888299999999997,39.503999999999998,4.36043,23.502199999999998,-7.6679399999999998
165662.0,53.970199999999998,-45.157600000000002,-61.368899999999996,-14.712,-2.6702699999999999,13.7803,-14.5876
165663.0,52.588999999999999,-46.355499999999999,-54.726599999999998,-17.3231,-6.2412900000000002,16.643899999999999,-14.8515
165664.0,58.290799999999997,-49.877200000000002,-49.333399999999997,-18.282599999999999,-4.5730399999999998,23.128900000000002,-15.799899999999999
165665.0,55.647799999999997,-35.591000000000001,-29.858599999999999,-11.5341,-1.63103,25.286100000000001,-15.2408
165666.0,57.640500000000003,-36.566400000000002,-33.901499999999999,-28.482600000000001,1.52142,30.446200000000001,-12.6973
165667.0,66.937700000000007,-11.465999999999999,-15.239800000000001,-5.5292500000000002,7.6092000000000004,36.060000000000002,-10.552899999999999
165668.0,61.459400000000002,19.662099999999999,-2.0327000000000002,6.26396,4.1067900000000002,31.6143,-11.0871
165669.0,77.934600000000003,19.943100000000001,-12.320399999999999,-11.165100000000001,-7.31989,36.594299999999997,-17.2301
165670.0,130.524,95.019199999999998,64.630300000000005,87.419600000000003,1.7041900000000001,70.255300000000005,-22.136199999999999
165671.0,109.34999999999999,133.16900000000001,84.580399999999997,67.709100000000007,-6.6203599999999998,49.994500000000002,-16.953399999999998
165672.0,47.933999999999997,65.755799999999994,32.2408,32.447099999999999,-4.0844399999999998,18.8889,-4.5042200000000001
165673.0,47.053600000000003,76.983599999999996,41.346200000000003,52.978999999999999,-9.2977000000000007,17.418099999999999,-4.2323899999999997
165674.0,55.325000000000003,58.841200000000001,22.574200000000001,32.740499999999997,-19.295100000000001,16.0154,-6.4425400000000002
165675.0,59.854599999999998,72.812799999999996,35.137700000000002,48.0899,-23.3492,16.175599999999999,-4.5780799999999999
165676.0,102.143,21.928999999999998,-10.6557,93.736500000000007,-16.604600000000001,-18.253399999999999,4.0281599999999997
165677.0,97.743600000000001,13.084,-16.3889,84.665999999999997,-15.961,-13.202199999999999,7.40015
165678.0,92.0565,18.226500000000001,-4.3928399999999996,92.445300000000003,-12.2514,-8.36252,6.2039900000000001
165679.0,97.775000000000006,16.5718,3.9411200000000002,104.527,-7.9899500000000003,-3.1228199999999999,10.529199999999999
165680.0,81.353999999999999,21.386600000000001,9.7782999999999998,93.479200000000006,-6.3316100000000004,1.37114,10.3857
165681.0,60.941600000000001,13.203200000000001,-3.0787,60.274900000000002,-7.8656199999999998,5.3168499999999996,8.08718
165682.0,59.3429,23.527100000000001,5.4364299999999997,66.459800000000001,-7.57864,7.7737499999999997,8.5791900000000005
165683.0,57.548000000000002,17.5716,-0.0027052399999999998,59.5289,-6.5474199999999998,9.1633600000000008,6.4454599999999997
165684.0,54.358199999999997,24.129200000000001,8.8249899999999997,64.769599999999997,-5.3908399999999999,10.3079,3.69828
165685.0,55.429000000000002,21.004100000000001,13.357100000000001,67.415599999999998,-2.3896299999999999,12.751899999999999,0.0222515
165686.0,62.529800000000002,34.579799999999999,37.509099999999997,86.511300000000006,3.33873,20.798300000000001,-2.91547
165687.0,73.357299999999995,44.101100000000002,51.395699999999998,96.392899999999997,10.786799999999999,27.902699999999999,-9.8377700000000008
165688.0,82.314999999999998,54.485799999999998,55.021799999999999,102.801,10.6378,28.6096,-23.6081
165689.0,70.509100000000004,26.710699999999999,19.871500000000001,54.5809,1.7958400000000001,24.683299999999999,-26.582699999999999
165690.0,57.634799999999998,-39.081000000000003,-35.7395,-11.4024,-2.7657500000000002,20.985099999999999,-20.759899999999998
165691.0,46.467100000000002,-41.514699999999998,-34.983499999999999,-18.8857,-5.2974699999999997,18.738900000000001,-14.3134
165692.0,42.6905,-42.556899999999999,-45.854700000000001,-37.122199999999999,-5.3998299999999997,21.955300000000001,-8.7667800000000007
165693.0,54.648499999999999,-5.3159900000000002,-7.66784,7.9449100000000001,2.8269099999999998,29.336099999999998,-7.4855400000000003
165694.0,59.728700000000003,72.677800000000005,66.305700000000002,66.523799999999994,6.4442000000000004,31.859300000000001,-10.933400000000001
165695.0,94.578000000000003,54.555300000000003,30.208200000000001,17.677399999999999,-0.86890699999999998,46.956800000000001,-20.599599999999999
165696.0,129.90299999999999,114.339,79.978999999999999,94.318799999999996,4.9111700000000003,69.654200000000003,-21.2425
165697.0,96.744500000000002,129.11099999999999,85.903999999999996,68.771500000000003,-7.6681400000000002,43.433500000000002,-14.4109
165698.0,53.768799999999999,60.082500000000003,26.1356,32.726599999999998,-7.3355899999999998,23.803999999999998,-4.3845499999999999
165699.0,49.721400000000003,79.208399999999997,46.054600000000001,57.069699999999997,-13.4373,18.349799999999998,-4.6572899999999997
165700.0,49.9148,66.076999999999998,33.751100000000001,41.6629,-19.046399999999998,12.449,-5.3680199999999996
165701.0,50.234499999999997,65.088200000000001,30.369499999999999,46.2042,-18.6585,12.863200000000001,-5.0446299999999997
165702.0,98.523899999999998,18.482900000000001,-12.710800000000001,88.616200000000006,-13.390599999999999,-18.730699999999999,3.5152800000000002
165703.0,82.303899999999999,15.505000000000001,-9.6197199999999992,76.309200000000004,-11.3994,-12.2234,5.1558900000000003
165704.0,72.617199999999997,10.6531,-7.5850900000000001,69.003600000000006,-8.8926400000000001,-6.27928,6.2212399999999999
165705.0,85.158299999999997,17.434100000000001,6.4164199999999996,93.4833,-5.8117000000000001,-2.5307499999999998,11.382
165706.0,73.413899999999998,14.908200000000001,4.9874599999999996,80.507000000000005,-4.4584000000000001,0.82602900000000001,9.5832899999999999
165707.0,58.101300000000002,13.7768,-1.6081300000000001,59.697600000000001,-6.1523300000000001,4.4459499999999998,7.0945299999999998
165708.0,57.383499999999998,14.277799999999999,-4.0567900000000003,56.058,-6.60588,6.7593800000000002,7.68363
165709.0,55.831899999999997,16.793099999999999,-1.99078,56.630400000000002,-6.1286199999999997,8.3477700000000006,5.9813000000000001
165710.0,53.366300000000003,17.638200000000001,-0.82235000000000003,55.485999999999997,-6.0941299999999998,9.0728899999999992,2.4254500000000001
165711.0,53.4495,17.8017,3.0484399999999998,57.680799999999998,-5.5762600000000004,10.8263,-2.27956
165712.0,57.577800000000003,19.966100000000001,16.8996,67.441599999999994,-3.5696599999999998,15.323,-7.3864700000000001
165713.0,75.671300000000002,29.999700000000001,51.531799999999997,94.996099999999998,1.78352,25.779599999999999,-12.030200000000001
165714.0,101.104,57.532699999999998,95.053399999999996,132.458,5.6881500000000003,40.115600000000001,-19.033000000000001
165715.0,86.249799999999993,58.327300000000001,78.071700000000007,99.722300000000004,2.0973299999999999,39.590899999999998,-21.889500000000002
165716.0,58.152700000000003,-6.1158900000000003,1.2804,18.937100000000001,1.33049,24.897200000000002,-18.437000000000001
165717.0,41.987900000000003,-30.223600000000001,-29.266400000000001,-14.6898,-1.4185000000000001,17.3308,-14.474500000000001
165718.0,38.6282,-51.683799999999998,-59.136400000000002,-47.8429,-4.7538299999999998,18.141200000000001,-10.616199999999999
165719.0,50.197699999999998,-26.2638,-21.736000000000001,-9.9953800000000008,-0.99398299999999995,25.806999999999999,-10.121499999999999
165720.0,66.426199999999994,58.155299999999997,75.387600000000006,59.6143,0.152031,34.018799999999999,-14.9064
165721.0,101.07599999999999,95.030100000000004,97.140199999999993,70.075199999999995,1.88245,51.847499999999997,-22.071400000000001
165722.0,118.44,126.374,97.754499999999993,90.802300000000002,4.5158500000000004,63.847799999999999,-14.9551
165723.0,90.840800000000002,96.960099999999997,50.479799999999997,46.276800000000001,-13.8653,41.698599999999999,-5.3399599999999996
165724.0,58.738700000000001,59.306800000000003,25.8734,46.964300000000001,-11.5932,26.3429,-5.9913999999999996
165725.0,45.010199999999998,77.919399999999996,45.268500000000003,50.442,-12.190099999999999,13.616199999999999,-5.7730800000000002
165726.0,39.494500000000002,45.598300000000002,14.835699999999999,24.163699999999999,-11.956,10.780900000000001,-3.4591500000000002
165727.0,33.867899999999999,63.089500000000001,36.490499999999997,48.906599999999997,-10.6722,8.7474500000000006,-3.8461599999999998
165728.0,93.323300000000003,31.672499999999999,1.81098,97.791899999999998,-11.400399999999999,-18.550699999999999,4.0429700000000004
165729.0,69.6036,19.273,-2.7928600000000001,70.544200000000004,-8.8444800000000008,-9.9733400000000003,4.6403499999999998
165730.0,59.714599999999997,26.5595,10.154299999999999,73.201599999999999,-7.3523300000000003,-4.8392900000000001,6.41899
165731.0,68.251300000000001,20.1265,9.7789199999999994,80.117999999999995,-4.83378,-2.65985,8.9461399999999998
165732.0,67.033900000000003,29.170200000000001,18.304099999999998,88.4101,-4.3401500000000004,-0.061060700000000002,7.4357899999999999
165733.0,57.7226,18.234999999999999,2.2714099999999999,63.683199999999999,-5.7872399999999997,3.73136,6.9225500000000002
165734.0,55.031700000000001,29.6097,10.335000000000001,68.896799999999999,-6.3086000000000002,5.8702199999999998,6.6703099999999997
165735.0,54.616900000000001,20.8444,0.099005700000000002,58.421700000000001,-6.4733299999999998,7.2207800000000004,5.1280400000000004
165736.0,53.414999999999999,29.084299999999999,7.21007,64.382400000000004,-6.9308899999999998,8.1925600000000003,1.92726
165737.0,54.7928,22.153600000000001,2.20458,59.456299999999999,-7.34748,9.5354399999999995,-3.3622200000000002
165738.0,58.682699999999997,31.345300000000002,17.818999999999999,73.590699999999998,-7.6442800000000002,12.233700000000001,-9.6660400000000006
165739.0,69.958299999999994,21.333200000000001,21.667300000000001,75.893900000000002,-6.4600099999999996,19.134,-15.404400000000001
165740.0,85.892899999999997,34.448099999999997,49.514600000000002,98.463499999999996,-3.17218,32.288499999999999,-16.924099999999999
165741.0,82.368799999999993,49.633000000000003,64.214699999999993,94.706400000000002,-0.200099,38.688400000000001,-15.3527
165742.0,61.782499999999999,56.055,62.520699999999998,82.864099999999993,3.6935799999999999,29.848099999999999,-13.117800000000001
165743.0,46.302799999999998,52.475200000000001,46.325400000000002,64.413600000000002,1.85205,21.257100000000001,-13.219900000000001
165744.0,45.397100000000002,23.3704,12.19,28.591100000000001,-1.74834,19.9116,-14.7386
165745.0,56.106200000000001,23.8277,29.587199999999999,38.632199999999997,-1.8206800000000001,25.0808,-19.006599999999999
165746.0,73.398399999999995,56.129899999999999,74.438800000000001,57.899099999999997,-8.4501899999999992,33.674900000000001,-22.099299999999999
165747.0,79.158199999999994,74.875699999999995,85.051000000000002,65.107600000000005,-11.9467,40.874000000000002,-13.259600000000001
165748.0,86.155600000000007,99.435000000000002,75.252399999999994,74.907200000000003,-13.7933,45.481000000000002,-4.21021
165749.0,78.042199999999994,57.735700000000001,13.104699999999999,28.398800000000001,-19.348299999999998,33.267000000000003,-5.8932599999999997
165750.0,52.222499999999997,46.738700000000001,15.492100000000001,42.421999999999997,-9.8886699999999994,22.776199999999999,-2.4133200000000001
165751.0,42.035499999999999,79.312200000000004,42.966999999999999,49.710000000000001,-6.9546299999999999,12.915800000000001,0.15282399999999999
165752.0,30.531400000000001,61.6706,35.276699999999998,44.100700000000003,-6.3353599999999997,8.7586999999999993,-3.6520999999999999
165753.0,26.385300000000001,64.724699999999999,43.2746,52.882800000000003,-8.5705100000000005,6.0387199999999996,-2.5880899999999998
165754.0,85.837599999999995,24.023499999999999,-3.5247999999999999,84.748500000000007,-9.4174699999999998,-17.593499999999999,4.2472899999999996
165755.0,60.450299999999999,17.982600000000001,-0.61674200000000001,62.955300000000001,-7.1320600000000001,-8.4968599999999999,5.1673400000000003
165756.0,53.404499999999999,15.7714,0.50604000000000005,56.6693,-6.1408800000000001,-4.0089899999999998,7.3188800000000001
165757.0,56.136499999999998,18.305,7.2155300000000002,65.939700000000002,-4.2295999999999996,-2.5388799999999998,7.2575200000000004
165758.0,56.874099999999999,16.989000000000001,7.1049300000000004,67.341300000000004,-3.17503,-0.52746300000000002,4.9280799999999996
165759.0,55.651800000000001,18.615200000000002,3.47641,63.6404,-4.4954000000000001,2.5047100000000002,5.1509900000000002
165760.0,53.145400000000002,15.003299999999999,-5.3552600000000004,52.195900000000002,-5.49085,5.1057399999999999,5.7975000000000003
165761.0,52.641399999999997,21.307400000000001,-1.8421799999999999,55.445799999999998,-5.8005100000000001,6.2949900000000003,4.4599599999999997
165762.0,53.833100000000002,18.118600000000001,-7.1230799999999999,51.535200000000003,-6.4103899999999996,7.5367499999999996,1.5296000000000001
165763.0,55.5608,23.197099999999999,-0.80980099999999999,58.244300000000003,-6.9383699999999999,9.0259,-4.1700900000000001
165764.0,59.152500000000003,20.1313,0.67034700000000003,58.779000000000003,-7.76478,11.437200000000001,-10.0204
165765.0,66.110500000000002,29.5837,16.2972,73.697500000000005,-9.1333199999999994,15.7347,-14.9323
165766.0,68.807199999999995,36.956899999999997,27.573599999999999,81.008200000000002,-8.3962500000000002,21.572800000000001,-15.1092
165767.0,67.677499999999995,42.243699999999997,41.997799999999998,82.203999999999994,-4.6759399999999998,28.308199999999999,-12.9598
165768.0,66.066800000000001,52.500500000000002,62.416899999999998,84.972099999999998,-1.66601,33.1188,-8.8541399999999992
165769.0,57.402900000000002,48.105800000000002,57.350499999999997,69.628299999999996,-1.7232400000000001,30.347999999999999,-7.6043099999999999
165770.0,57.177599999999998,50.291400000000003,56.502600000000001,64.298699999999997,-2.3235100000000002,29.6206,-12.5586
165771.0,71.651600000000002,55.115400000000001,71.064700000000002,70.979399999999998,-5.8567299999999998,33.556199999999997,-21.6022
165772.0,72.635400000000004,64.874600000000001,77.757999999999996,65.156199999999998,-13.9848,32.573,-21.163900000000002
165773.0,55.153399999999998,15.6953,-1.5661099999999999,-3.66154,-18.963200000000001,23.001300000000001,-3.5303800000000001
165774.0,61.576700000000002,-6.4287200000000002,-36.2926,-8.4776900000000008,-10.5328,29.574200000000001,-0.19398499999999999
165775.0,59.003,42.471499999999999,12.8348,24.2364,-8.0518000000000001,28.173500000000001,-8.85426
165776.0,39.505600000000001,36.144199999999998,9.5501400000000007,19.207899999999999,-6.7978699999999996,15.7722,-6.6355300000000002
165777.0,35.7517,68.995900000000006,40.154400000000003,49.965600000000002,-5.5686499999999999,12.955500000000001,-3.4879799999999999
165778.0,26.016300000000001,56.5411,34.632199999999997,38.713299999999997,-5.8872400000000003,7.1455200000000003,-2.0374300000000001
165779.0,23.726199999999999,58.372199999999999,38.714700000000001,47.182099999999998,-7.6786599999999998,5.0945,-2.3466800000000001
165780.0,80.952100000000002,35.000300000000003,5.1332399999999998,89.430599999999998,-9.7100799999999996,-14.981299999999999,6.2371100000000004
165781.0,60.291699999999999,27.009399999999999,5.7327700000000004,69.561700000000002,-7.5841799999999999,-8.0494800000000009,5.7556799999999999
165782.0,49.823300000000003,32.683999999999997,16.199100000000001,68.895700000000005,-6.3356599999999998,-3.5754700000000001,6.9185299999999996
165783.0,48.241700000000002,25.8491,12.4445,63.389299999999999,-5.0322300000000002,-1.89544,7.0320900000000002
165784.0,51.8003,33.2836,20.485700000000001,76.221800000000002,-4.3898799999999998,-0.32036300000000001,4.7662899999999997
165785.0,53.262,26.720199999999998,10.0457,68.532700000000006,-5.1357999999999997,1.67957,2.9285800000000002
165786.0,49.770200000000003,33.179200000000002,12.5053,67.123199999999997,-5.6740599999999999,3.9897,4.1382899999999996
165787.0,50.1541,26.285599999999999,3.7057000000000002,58.642699999999998,-5.2540699999999996,5.5756600000000001,4.1592099999999999
165788.0,52.115299999999998,31.9879,8.9812200000000004,66.348299999999995,-4.74831,6.9719499999999996,0.83316999999999997
165789.0,53.267400000000002,28.013100000000001,6.90299,63.481699999999996,-5.4118500000000003,8.8169299999999993,-4.6162200000000002
165790.0,55.017400000000002,36.311799999999998,18.056000000000001,72.953299999999999,-5.3566000000000003,10.3622,-9.5553299999999997
165791.0,58.827300000000001,33.637099999999997,14.9712,68.945300000000003,-6.3266200000000001,14.0372,-12.8491
165792.0,56.626800000000003,33.287999999999997,15.9817,63.079700000000003,-11.148899999999999,15.0846,-12.226100000000001
165793.0,57.5182,28.136199999999999,17.484999999999999,59.120600000000003,-13.924899999999999,18.554099999999998,-9.8382299999999994
165794.0,64.3489,40.239400000000003,32.952599999999997,71.6327,-11.3977,27.421199999999999,-8.7157999999999998
165795.0,59.816899999999997,41.2395,37.680100000000003,66.420500000000004,-7.37575,28.6768,-8.3943600000000007
165796.0,63.8217,65.318299999999994,71.525499999999994,86.190299999999993,-7.8341700000000003,31.666499999999999,-13.3687
165797.0,76.004999999999995,82.441699999999997,96.643000000000001,101.556,-11.127000000000001,36.229799999999997,-19.764800000000001
165798.0,56.018000000000001,81.408299999999997,76.841399999999993,75.622500000000002,-13.969900000000001,24.838000000000001,-14.987299999999999
165799.0,51.167999999999999,-18.962599999999998,-66.971699999999998,-57.341299999999997,-11.0663,10.1607,-1.3877900000000001
165800.0,50.345399999999998,-22.371200000000002,-46.548499999999997,-9.5252700000000008,0.381716,21.627099999999999,-4.8610699999999998
165801.0,52.8048,84.963300000000004,63.603900000000003,74.388000000000005,0.19808600000000001,26.925599999999999,-9.5058000000000007
165802.0,43.532600000000002,62.034199999999998,27.4057,31.403400000000001,-4.9295999999999998,13.815,-7.5923999999999996
165803.0,27.2546,68.296199999999999,49.627499999999998,59.707299999999996,-5.8462199999999998,10.3116,-4.4476000000000004
165804.0,21.9468,65.273700000000005,46.277500000000003,52.629899999999999,-6.4490999999999996,4.9531799999999997,-0.95738599999999996
165805.0,23.627400000000002,62.953899999999997,42.299700000000001,54.451599999999999,-7.6607900000000004,4.0342099999999999,-1.8339700000000001
165806.0,6998.1099999999997,2016.72,-741.00800000000004,-2641.5599999999999,281.661,-2498.3899999999999,2125.3499999999999
165807.0,7481.9300000000003,2211.3099999999999,-764.41200000000003,-2576.8299999999999,213.41999999999999,-2803.4099999999999,2216.0300000000002
165808.0,7536.9799999999996,1540.1400000000001,-1060.5999999999999,-2595.8400000000001,439.36099999999999,-3067.7800000000002,2227.0700000000002
165809.0,7927.5,665.74800000000005,-1354.27,-2764.7399999999998,857.16700000000003,-3460.5700000000002,2294.5900000000001
165810.0,9399.0300000000007,308.935,-1318.03,-2731.48,1259.23,-4377.7399999999998,2526.3000000000002
165811.0,11181.0,-595.66700000000003,-1513.97,-2526.6100000000001,1720.1199999999999,-5458.21,2826.3299999999999
165812.0,11951.799999999999,-1948.79,-1782.3499999999999,-1843.5,2281.9099999999999,-5795.5299999999997,2968.6199999999999
165813.0,11930.299999999999,-2996.0799999999999,-2139.6500000000001,-1379.29,2736.3099999999999,-5524.0,2964.4000000000001
165814.0,12256.700000000001,-3539.3099999999999,-2205.46,-880.40499999999997,3050.8499999999999,-5517.9300000000003,2924.48
165815.0,12755.200000000001,-4413.46,-2284.8400000000001,-305.18599999999998,3402.9000000000001,-5533.0600000000004,2795.6900000000001
165816.0,12710.1,-5321.7200000000003,-2309.8400000000001,216.73699999999999,3738.6300000000001,-5077.6700000000001,2529.9400000000001
165817.0,12468.0,-6028.0900000000001,-2254.0900000000001,578.44299999999998,3969.8099999999999,-4504.8500000000004,2185.96
165818.0,12558.9,-6741.25,-2241.3299999999999,968.976,4227.3999999999996,-4044.3099999999999,1829.5899999999999
165819.0,7153.4499999999998,2103.29,-714.81700000000001,-2803.5500000000002,182.18000000000001,-2665.2800000000002,1963.8699999999999
165820.0,7910.5799999999999,2300.8499999999999,-784.65999999999997,-2758.71,262.48099999999999,-3105.4899999999998,2154.8600000000001
165821.0,8563.0300000000007,1600.3499999999999,-1159.8099999999999,-2866.8600000000001,610.29200000000003,-3603.0100000000002,2450.77
165822.0,8926.1299999999992,615.62400000000002,-1423.6600000000001,-2992.2600000000002,1006.98,-3911.02,2641.1900000000001
165823.0,9732.1100000000006,-37.698599999999999,-1483.0899999999999,-3037.9499999999998,1320.21,-4513.2200000000003,2684.7399999999998
165824.0,11074.4,-794.96500000000003,-1491.0699999999999,-2610.8200000000002,1786.3900000000001,-5415.1300000000001,2743.48
165825.0,12238.299999999999,-2440.2800000000002,-2156.96,-2221.3699999999999,2480.6599999999999,-5934.1300000000001,2921.6500000000001
165826.0,12809.1,-3473.79,-2556.1399999999999,-1665.4100000000001,2983.1300000000001,-5917.0600000000004,3156.4200000000001
165827.0,12968.1,-3916.3400000000001,-2510.52,-1117.25,3122.6700000000001,-5856.54,3169.8699999999999
165828.0,12938.9,-4354.2799999999997,-2085.3600000000001,-102.861,3247.6399999999999,-5707.8900000000003,2855.2399999999998
165829.0,12606.700000000001,-5239.8400000000001,-2026.8099999999999,526.92999999999995,3450.6700000000001,-5180.4200000000001,2425.4200000000001
165830.0,12134.6,-5896.4200000000001,-1921.6300000000001,921.98199999999997,3588.3299999999999,-4513.3999999999996,2026.5
165831.0,11965.6,-6547.8800000000001,-1952.25,1195.6400000000001,3768.9400000000001,-3958.0100000000002,1639.9300000000001
165832.0,7469.96,2216.6799999999998,-875.64099999999996,-2894.6500000000001,210.84800000000001,-2802.98,2017.8099999999999
165833.0,8421.6700000000001,2305.8800000000001,-1106.1199999999999,-2970.52,356.72800000000001,-3344.0700000000002,2274.1599999999999
165834.0,9338.9500000000007,1824.5,-1236.8399999999999,-2919.54,719.41499999999996,-3992.1500000000001,2613.8800000000001
165835.0,9720.5200000000004,670.55499999999995,-1518.3699999999999,-3055.8000000000002,1105.0,-4308.04,2865.1500000000001
165836.0,10081.5,-61.863500000000002,-1478.0799999999999,-2971.5599999999999,1375.46,-4648.1099999999997,2874.8899999999999
165837.0,10991.5,-1037.51,-1646.8099999999999,-2666.23,1839.45,-5331.29,2790.6399999999999
165838.0,12267.0,-2268.9000000000001,-1989.51,-1948.1500000000001,2562.4899999999998,-5933.0600000000004,2891.71
165839.0,13233.9,-3339.6999999999998,-2503.96,-1464.3499999999999,3075.9299999999998,-6160.1400000000003,3176.0999999999999
165840.0,13496.0,-3763.25,-2419.98,-940.48699999999997,3177.5999999999999,-6166.2200000000003,3255.8899999999999
165841.0,13281.4,-4653.1400000000003,-2347.75,-326.48399999999998,3262.4200000000001,-5914.0500000000002,2914.1999999999998
165842.0,12784.1,-5552.1700000000001,-2272.6999999999998,394.78399999999999,3440.3800000000001,-5279.6499999999996,2427.73
165843.0,12118.5,-6288.4899999999998,-2286.8299999999999,680.91800000000001,3517.8099999999999,-4511.5299999999997,1997.95
165844.0,11686.0,-6587.5500000000002,-2014.1300000000001,1154.5999999999999,3575.6300000000001,-3883.1100000000001,1583.45
165845.0,7937.5,2366.6599999999999,-952.96600000000001,-3014.3099999999999,262.41399999999999,-2995.79,2141.7399999999998
165846.0,9029.2999999999993,2535.8200000000002,-1090.72,-2931.9000000000001,449.20100000000002,-3649.8699999999999,2431.6999999999998
165847.0,10014.5,1802.1199999999999,-1421.8,-3087.4299999999998,834.00999999999999,-4370.46,2730.3099999999999
165848.0,10397.799999999999,537.76199999999994,-1737.8900000000001,-3279.5700000000002,1178.3800000000001,-4689.2200000000003,2995.4699999999998
165849.0,10451.4,-197.55799999999999,-1561.6199999999999,-3085.6700000000001,1366.4100000000001,-4840.9899999999998,3003.4899999999998
165850.0,10941.5,-879.29300000000001,-1323.6900000000001,-2355.8400000000001,1765.02,-5322.4700000000003,2808.5100000000002
165851.0,12081.299999999999,-2127.4499999999998,-1744.96,-1650.23,2443.96,-5903.1300000000001,2787.3200000000002
165852.0,13255.5,-2996.1399999999999,-2220.0900000000001,-983.822,2991.8299999999999,-6272.5900000000001,3040.1599999999999
165853.0,13757.200000000001,-3639.6900000000001,-2458.98,-745.12699999999995,3178.0100000000002,-6382.4899999999998,3183.23
165854.0,13599.4,-4557.7399999999998,-2314.5,-153.97499999999999,3304.6599999999999,-6111.7600000000002,2919.6999999999998
165855.0,13041.1,-5575.25,-2229.1599999999999,545.39499999999998,3475.1199999999999,-5401.3599999999997,2458.8099999999999
165856.0,12212.799999999999,-6139.5799999999999,-2084.71,974.33600000000001,3524.8800000000001,-4536.29,1994.96
165857.0,11615.6,-6556.3299999999999,-2012.22,1219.0699999999999,3544.6900000000001,-3835.6799999999998,1561.76
165858.0,8427.6399999999994,2632.6599999999999,-949.49800000000005,-3045.04,293.65600000000001,-3210.1700000000001,2245.0799999999999
165859.0,9688.0100000000002,2657.3699999999999,-1207.3800000000001,-3036.29,496.92899999999997,-3991.8299999999999,2579.5999999999999
165860.0,10634.0,2007.3599999999999,-1278.76,-2888.2199999999998,890.16899999999998,-4748.0200000000004,2851.7199999999998
165861.0,10896.0,663.11599999999999,-1634.9100000000001,-3107.5700000000002,1234.3499999999999,-5001.6000000000004,3069.7800000000002
165862.0,10792.4,-123.61499999999999,-1568.46,-3063.1900000000001,1380.1500000000001,-5030.8100000000004,3074.2800000000002
165863.0,10966.1,-1129.5799999999999,-1570.3699999999999,-2592.3200000000002,1695.27,-5342.1199999999999,2847.8299999999999
165864.0,11933.0,-2045.5899999999999,-1615.8800000000001,-1520.5999999999999,2301.8800000000001,-5880.3000000000002,2740.5799999999999
165865.0,13219.6,-2858.4499999999998,-2046.4300000000001,-710.13199999999995,2843.4699999999998,-6354.1899999999996,2935.0799999999999
165866.0,13920.5,-3275.8099999999999,-2114.79,-180.88399999999999,3115.5900000000001,-6555.3299999999999,3077.27
165867.0,13809.5,-4532.5699999999997,-2319.1599999999999,56.3643,3291.3099999999999,-6264.0600000000004,2868.6399999999999
165868.0,13160.200000000001,-5487.5,-2176.73,802.09000000000003,3447.2199999999998,-5479.3500000000004,2434.04
165869.0,12205.299999999999,-6181.25,-2214.8099999999999,1058.8,3480.8299999999999,-4538.0,1949.97
165870.0,11506.6,-6401.0299999999997,-1977.1700000000001,1412.74,3481.9499999999998,-3789.29,1516.1700000000001
165871.0,8981.1000000000004,2789.9000000000001,-1060.22,-3230.1500000000001,343.77499999999998,-3452.6799999999998,2356.2800000000002
165872.0,10461.700000000001,2827.6599999999999,-1268.9100000000001,-3172.9200000000001,551.66600000000005,-4385.5799999999999,2746.3899999999999
165873.0,11266.799999999999,1885.73,-1412.9300000000001,-3038.79,894.88900000000001,-5122.6899999999996,2995.8099999999999
165874.0,11282.4,658.798,-1604.0999999999999,-2981.8200000000002,1223.54,-5267.2700000000004,3132.1900000000001
165875.0,11040.6,-83.413799999999995,-1570.54,-2955.0,1393.6400000000001,-5203.8699999999999,3089.7800000000002
165876.0,11058.0,-987.66399999999999,-1480.3800000000001,-2495.3400000000001,1674.71,-5399.6999999999998,2864.8099999999999
165877.0,11885.200000000001,-2061.2800000000002,-1649.4100000000001,-1618.6500000000001,2211.7399999999998,-5891.9099999999999,2723.6799999999998
165878.0,13245.5,-2796.5,-1978.28,-620.25599999999997,2724.1500000000001,-6443.1999999999998,2887.4400000000001
165879.0,14112.9,-3264.3099999999999,-2073.98,35.087000000000003,3033.4099999999999,-6727.8500000000004,3022.25
165880.0,13979.0,-4447.6800000000003,-2154.5300000000002,401.37400000000002,3219.5700000000002,-6396.4099999999999,2823.8000000000002
165881.0,13240.1,-5360.9499999999998,-1998.7,1132.1700000000001,3368.9499999999998,-5553.1000000000004,2387.98
165882.0,12233.9,-5978.6099999999997,-2024.98,1454.0999999999999,3419.8800000000001,-4557.7299999999996,1894.98
165883.0,11448.6,-6269.8199999999997,-1942.0799999999999,1641.0,3423.8800000000001,-3755.6999999999998,1473.3199999999999
165884.0,9588.4200000000001,2998.4499999999998,-1128.5,-3376.7199999999998,401.02300000000002,-3728.21,2476.04
165885.0,11276.9,2944.0599999999999,-1367.6099999999999,-3401.0999999999999,602.851,-4804.6300000000001,2905.8000000000002
165886.0,11896.4,1835.8299999999999,-1460.9200000000001,-3157.04,889.96100000000001,-5483.7299999999996,3140.9299999999998
165887.0,11673.0,694.803,-1544.72,-2881.52,1174.5599999999999,-5515.79,3217.29
165888.0,11252.299999999999,16.740300000000001,-1494.6700000000001,-2761.3400000000001,1358.97,-5363.3900000000003,3107.6900000000001
165889.0,11130.299999999999,-961.154,-1513.05,-2450.1599999999999,1658.75,-5458.1700000000001,2860.8899999999999
165890.0,11873.1,-1983.6099999999999,-1658.76,-1649.7,2177.8499999999999,-5905.6999999999998,2708.0700000000002
165891.0,13344.1,-2781.29,-2021.4000000000001,-696.33600000000001,2676.4899999999998,-6546.79,2866.6399999999999
165892.0,14398.6,-3310.5500000000002,-2072.9400000000001,146.74100000000001,2995.8299999999999,-6927.2200000000003,3012.7199999999998
165893.0,14173.0,-4561.2600000000002,-2177.3600000000001,522.26999999999998,3164.0599999999999,-6522.29,2817.2800000000002
165894.0,13345.5,-5383.3699999999999,-1953.72,1302.05,3304.8400000000001,-5630.1099999999997,2360.25
165895.0,12305.1,-6007.3000000000002,-2025.79,1653.74,3358.29,-4590.8800000000001,1854.03
165896.0,11431.200000000001,-6123.7200000000003,-1859.0699999999999,1934.99,3343.21,-3746.8899999999999,1444.5999999999999
165897.0,10277.200000000001,3131.8000000000002,-1287.01,-3608.6100000000001,446.66300000000001,-4041.71,2635.6999999999998
165898.0,12037.200000000001,3094.9299999999998,-1407.3199999999999,-3529.52,641.23699999999997,-5205.0900000000001,3057.9400000000001
165899.0,12462.9,1731.48,-1644.54,-3368.1799999999998,887.01499999999999,-5791.3100000000004,3274.0
165900.0,12065.200000000001,774.85000000000002,-1539.22,-2851.48,1129.54,-5737.5600000000004,3309.9899999999998
165901.0,11509.9,34.816499999999998,-1542.22,-2699.1300000000001,1317.52,-5536.1000000000004,3145.0900000000001
165902.0,11227.5,-800.25199999999995,-1396.0599999999999,-2251.8099999999999,1611.4000000000001,-5536.9200000000001,2869.23
165903.0,11850.0,-1886.3099999999999,-1631.0,-1604.04,2142.3899999999999,-5916.2600000000002,2681.5999999999999
165904.0,13441.200000000001,-2621.3000000000002,-1964.28,-624.88800000000003,2656.5,-6638.96,2838.0
165905.0,14651.200000000001,-3385.75,-2166.73,170.75,2990.0500000000002,-7097.6199999999999,2994.9299999999998
165906.0,14386.799999999999,-4601.0600000000004,-2201.5300000000002,632.48900000000003,3154.6300000000001,-6657.0299999999997,2803.9299999999998
165907.0,13496.299999999999,-5502.6700000000001,-1999.22,1355.79,3271.3499999999999,-5723.8800000000001,2343.29
165908.0,12438.0,-6035.46,-1989.1500000000001,1860.1300000000001,3321.96,-4642.3999999999996,1841.9200000000001
165909.0,11500.5,-6132.8400000000001,-1921.1099999999999,2094.3499999999999,3290.6300000000001,-3771.3299999999999,1452.97
165910.0,11051.700000000001,3359.6599999999999,-1360.6400000000001,-3799.3899999999999,454.69299999999998,-4394.4799999999996,2819.2800000000002
165911.0,12699.5,3228.0700000000002,-1372.6600000000001,-3566.1100000000001,623.74300000000005,-5580.9499999999998,3193.73
165912.0,12913.1,1913.8,-1543.1500000000001,-3264.7600000000002,871.71000000000004,-6052.71,3351.4400000000001
165913.0,12446.4,943.41499999999996,-1509.3800000000001,-2814.4699999999998,1098.95,-5956.1400000000003,3363.6199999999999
165914.0,11842.1,123.123,-1551.75,-2616.5999999999999,1291.1300000000001,-5738.7299999999996,3199.6599999999999
165915.0,11392.4,-789.03999999999996,-1455.2,-2223.8499999999999,1571.6600000000001,-5640.9200000000001,2908.0599999999999
165916.0,11862.1,-1795.8699999999999,-1627.6300000000001,-1546.8399999999999,2095.2199999999998,-5943.4899999999998,2678.0599999999999
165917.0,13519.0,-2492.9400000000001,-1909.4100000000001,-532.86199999999997,2597.77,-6724.0699999999997,2818.9499999999998
165918.0,14795.0,-3264.1900000000001,-2028.03,443.68599999999998,2956.9699999999998,-7210.0299999999997,2944.6599999999999
165919.0,14550.4,-4553.7399999999998,-2170.5799999999999,871.399,3162.75,-6754.04,2748.9899999999998
165920.0,13613.6,-5599.0699999999997,-2115.9299999999998,1402.3599999999999,3267.6399999999999,-5785.8699999999999,2316.8299999999999
165921.0,12562.1,-6082.5799999999999,-2054.8499999999999,1963.55,3304.6900000000001,-4702.2799999999997,1839.6600000000001
165922.0,11636.1,-6082.0200000000004,-1935.29,2303.6700000000001,3260.1999999999998,-3838.3000000000002,1480.1800000000001
165923.0,11864.6,3596.21,-1428.5,-4037.4000000000001,429.75700000000001,-4761.3999999999996,3002.1199999999999
165924.0,13277.299999999999,3350.5900000000001,-1322.53,-3628.3000000000002,547.59000000000003,-5909.5600000000004,3300.9099999999999
165925.0,13271.6,2070.8699999999999,-1458.0,-3170.4000000000001,817.69399999999996,-6278.7600000000002,3387.8699999999999
165926.0,12797.0,1109.77,-1494.8199999999999,-2758.3000000000002,1073.3199999999999,-6170.5900000000001,3386.6199999999999
165927.0,12223.4,217.59700000000001,-1581.9400000000001,-2575.1100000000001,1273.6199999999999,-5965.1300000000001,3254.9899999999998
165928.0,11638.799999999999,-683.65800000000002,-1433.54,-2117.9000000000001,1550.3800000000001,-5784.5699999999997,2962.21
165929.0,11960.799999999999,-1742.7,-1681.21,-1516.8399999999999,2052.5900000000001,-6007.1899999999996,2715.52
165930.0,13589.1,-2298.3699999999999,-1816.23,-430.95400000000001,2512.5100000000002,-6811.4200000000001,2811.96
165931.0,14896.4,-3250.0999999999999,-1979.46,584.09199999999998,2875.71,-7315.8900000000003,2891.5799999999999
165932.0,14662.200000000001,-4457.3599999999997,-2010.4200000000001,1248.01,3113.3699999999999,-6819.6000000000004,2695.8499999999999
165933.0,13652.799999999999,-5496.7799999999997,-1992.9200000000001,1684.0899999999999,3223.5599999999999,-5805.0699999999997,2269.2399999999998
165934.0,12640.700000000001,-5912.8400000000001,-1910.5899999999999,2245.8899999999999,3273.0500000000002,-4757.1999999999998,1809.8299999999999
165935.0,11808.0,-6096.5900000000001,-2023.53,2425.4299999999998,3243.9299999999998,-3942.8800000000001,1496.1900000000001
165936.0,12661.0,3879.9299999999998,-1386.9000000000001,-4220.3199999999997,382.77499999999998,-5132.9700000000003,3169.04
165937.0,13789.299999999999,3439.4000000000001,-1311.6199999999999,-3758.2800000000002,474.08999999999997,-6193.2600000000002,3377.27
165938.0,13636.0,2233.1900000000001,-1393.02,-3131.0300000000002,752.52999999999997,-6493.75,3428.5
165939.0,13160.299999999999,1268.04,-1467.03,-2713.4400000000001,1033.9400000000001,-6389.9799999999996,3418.0300000000002
165940.0,12627.4,368.24799999999999,-1533.1700000000001,-2476.0700000000002,1260.6099999999999,-6207.9099999999999,3305.1199999999999
165941.0,11964.9,-669.37400000000002,-1521.96,-2106.6599999999999,1549.1700000000001,-5967.1800000000003,3031.4499999999998
165942.0,12165.5,-1635.3599999999999,-1706.3199999999999,-1456.73,2016.77,-6119.29,2793.4400000000001
165943.0,13694.9,-2161.8499999999999,-1756.96,-363.70400000000001,2452.04,-6905.7700000000004,2815.0700000000002
165944.0,15012.5,-3275.46,-1934.29,645.71100000000001,2810.5799999999999,-7425.5900000000001,2848.5799999999999
165945.0,14807.4,-4472.6999999999998,-1906.0799999999999,1471.3699999999999,3051.9699999999998,-6910.8699999999999,2669.1500000000001
165946.0,13682.0,-5525.8999999999996,-1935.4300000000001,1841.8299999999999,3144.5999999999999,-5824.1400000000003,2239.6399999999999
165947.0,12670.700000000001,-5858.0299999999997,-1836.1700000000001,2411.8600000000001,3207.9899999999998,-4792.7700000000004,1775.21
165948.0,11989.6,-6026.8800000000001,-1994.1400000000001,2634.71,3220.6599999999999,-4064.5799999999999,1496.0799999999999
165949.0,13423.5,4076.4099999999999,-1349.6700000000001,-4449.4899999999998,304.15899999999999,-5499.8999999999996,3331.4099999999999
165950.0,14234.9,3518.54,-1309.01,-3900.6700000000001,416.14499999999998,-6432.8800000000001,3436.8000000000002
165951.0,14039.4,2364.5300000000002,-1388.6700000000001,-3201.1300000000001,710.59500000000003,-6710.1300000000001,3480.3800000000001
165952.0,13585.299999999999,1393.6300000000001,-1481.8299999999999,-2763.75,999.38300000000004,-6627.9899999999998,3472.5300000000002
165953.0,13061.299999999999,445.01999999999998,-1525.4100000000001,-2450.79,1234.7,-6467.29,3365.7800000000002
165954.0,12344.1,-600.423,-1550.5699999999999,-2041.98,1550.8299999999999,-6178.71,3110.3200000000002
165955.0,12488.200000000001,-1515.49,-1753.1600000000001,-1424.6500000000001,1998.6900000000001,-6293.6099999999997,2890.04
165956.0,13876.9,-2115.9200000000001,-1775.0999999999999,-368.82400000000001,2409.2600000000002,-7029.4200000000001,2848.6700000000001
165957.0,15102.6,-3363.54,-1926.8,591.94500000000005,2761.8099999999999,-7516.7399999999998,2809.21
165958.0,14979.1,-4658.2600000000002,-1907.02,1497.9200000000001,3019.98,-7015.5,2635.04
165959.0,13761.700000000001,-5667.6000000000004,-1960.75,1876.4400000000001,3092.5,-5856.5299999999997,2244.0700000000002
165960.0,12714.200000000001,-5864.3400000000001,-1826.6700000000001,2472.7199999999998,3154.02,-4834.29,1784.02
165961.0,12186.700000000001,-6025.7299999999996,-1997.54,2774.0100000000002,3199.5100000000002,-4192.9799999999996,1510.8599999999999
165962.0,14156.1,4223.1300000000001,-1350.74,-4736.8299999999999,194.28999999999999,-5838.2600000000002,3493.7600000000002
165963.0,14635.0,3646.1799999999998,-1270.24,-3995.8600000000001,359.81200000000001,-6635.54,3497.8000000000002
165964.0,14446.4,2506.5599999999999,-1394.6700000000001,-3303.8099999999999,691.34900000000005,-6924.5699999999997,3516.73
165965.0,14077.200000000001,1513.1900000000001,-1515.47,-2858.3099999999999,982.46100000000001,-6896.6000000000004,3537.3600000000001
165966.0,13519.700000000001,492.298,-1553.02,-2485.3699999999999,1203.54,-6730.1300000000001,3444.4200000000001
165967.0,12779.200000000001,-520.64099999999996,-1602.5,-2010.8199999999999,1558.6700000000001,-6416.8199999999997,3199.6100000000001
165968.0,12943.799999999999,-1422.24,-1831.23,-1410.6400000000001,2005.78,-6536.6800000000003,3006.3499999999999
165969.0,14127.4,-2086.2399999999998,-1797.73,-342.14100000000002,2389.3800000000001,-7173.7299999999996,2912.52
165970.0,15141.5,-3424.9000000000001,-1949.5599999999999,544.76300000000003,2727.0500000000002,-7566.4300000000003,2776.3499999999999
165971.0,15047.299999999999,-4860.0699999999997,-1990.6099999999999,1423.27,2989.8699999999999,-7068.79,2583.0799999999999
165972.0,13825.9,-5779.3000000000002,-2046.5599999999999,1847.5999999999999,3072.1300000000001,-5889.8500000000004,2246.3499999999999
165973.0,12793.200000000001,-5907.7799999999997,-1918.6700000000001,2431.9699999999998,3126.2399999999998,-4907.1599999999999,1817.3299999999999
165974.0,12380.4,-6016.5500000000002,-1979.3,2893.9499999999998,3171.7600000000002,-4329.96,1541.1900000000001
165975.0,14843.799999999999,4445.7200000000003,-1342.9300000000001,-5013.6599999999999,93.729100000000003,-6128.6199999999999,3624.0700000000002
165976.0,15055.6,3808.6900000000001,-1249.02,-4103.3699999999999,301.91399999999999,-6833.4700000000003,3565.8400000000001
165977.0,14836.1,2634.6700000000001,-1427.1600000000001,-3383.4400000000001,679.98500000000001,-7132.1800000000003,3551.9200000000001
165978.0,14575.4,1637.9200000000001,-1569.26,-2946.6799999999998,968.43600000000004,-7171.9300000000003,3592.46
165979.0,13975.9,579.72699999999998,-1569.9100000000001,-2521.4099999999999,1177.3599999999999,-6988.6999999999998,3515.2399999999998
165980.0,13313.200000000001,-381.86799999999999,-1599.1400000000001,-1951.8099999999999,1583.95,-6709.1599999999999,3298.5100000000002
165981.0,13531.200000000001,-1336.8,-1864.77,-1384.5899999999999,2019.4000000000001,-6855.8800000000001,3140.8499999999999
165982.0,14452.5,-2078.1799999999998,-1790.23,-279.36500000000001,2359.5500000000002,-7353.8900000000003,3007.3000000000002
165983.0,15164.4,-3411.23,-1871.8599999999999,659.71000000000004,2668.5,-7586.6499999999996,2783.7800000000002
165984.0,14926.6,-4818.0799999999999,-1853.49,1566.5699999999999,2913.7800000000002,-7016.4799999999996,2517.6599999999999
165985.0,13792.5,-5661.3800000000001,-1971.03,1985.26,3037.9200000000001,-5894.5100000000002,2193.9200000000001
165986.0,12892.299999999999,-5824.4700000000003,-1947.1500000000001,2502.21,3107.6999999999998,-5001.5600000000004,1835.8
165987.0,12532.9,-6027.2799999999997,-2041.5,2934.1999999999998,3141.5799999999999,-4455.3599999999997,1574.52
165988.0,15447.299999999999,4740.8299999999999,-1267.24,-5179.3699999999999,19.412700000000001,-6397.0200000000004,3694.4400000000001
165989.0,15531.5,4005.04,-1249.95,-4231.1800000000003,258.17899999999997,-7056.25,3627.96
165990.0,15259.700000000001,2788.8200000000002,-1437.02,-3410.5900000000001,638.26999999999998,-7356.6099999999997,3614.1399999999999
165991.0,14995.700000000001,1865.25,-1514.48,-2859.3499999999999,937.12400000000002,-7417.2700000000004,3624.5500000000002
165992.0,14406.5,703.20299999999997,-1634.73,-2587.5599999999999,1178.8599999999999,-7239.8299999999999,3536.9499999999998
165993.0,13966.0,-288.02800000000002,-1646.03,-1993.5699999999999,1614.1600000000001,-7076.8900000000003,3393.4899999999998
165994.0,14209.200000000001,-1349.9100000000001,-1914.8499999999999,-1414.8900000000001,2026.1800000000001,-7229.8400000000001,3290.8000000000002
165995.0,14871.6,-2096.0100000000002,-1787.3599999999999,-267.53899999999999,2314.3600000000001,-7589.1400000000003,3132.46
165996.0,15222.4,-3411.75,-1775.53,739.11900000000003,2542.25,-7640.4899999999998,2833.4099999999999
165997.0,14660.1,-4750.1400000000003,-1695.02,1662.4200000000001,2742.1199999999999,-6911.5600000000004,2462.21
165998.0,13656.200000000001,-5501.75,-1857.5599999999999,2132.1199999999999,2941.6599999999999,-5872.0200000000004,2109.79
165999.0,12989.4,-5710.6999999999998,-1920.05,2638.8499999999999,3060.3299999999999,-5103.8900000000003,1829.72
166000.0,12653.9,-5896.3800000000001,-1965.77,3103.9299999999998,3096.2600000000002,-4568.4099999999999,1599.01
166001.0,15978.5,5028.71,-1203.4000000000001,-5309.9700000000003,-57.581899999999997,-6639.9799999999996,3729.9499999999998
166002.0,16026.700000000001,4186.4300000000003,-1280.77,-4373.8400000000001,223.22800000000001,-7300.9799999999996,3670.8499999999999
166003.0,15747.700000000001,3011.7399999999998,-1411.5699999999999,-3437.9699999999998,562.649,-7606.7299999999996,3688.6500000000001
166004.0,15393.1,2091.9400000000001,-1429.27,-2714.3000000000002,871.88499999999999,-7656.54,3661.7600000000002
166005.0,14800.5,916.39400000000001,-1603.0899999999999,-2439.3000000000002,1216.23,-7483.6899999999996,3533.0500000000002
166006.0,14639.9,-273.77800000000002,-1830.6500000000001,-2153.79,1662.4200000000001,-7466.6599999999999,3452.1799999999998
166007.0,14930.200000000001,-1352.0599999999999,-1997.27,-1498.21,2029.27,-7636.21,3429.1599999999999
166008.0,15361.6,-2174.6799999999998,-1866.1800000000001,-364.23899999999998,2261.7600000000002,-7869.0500000000002,3268.6300000000001
166009.0,15292.4,-3440.9099999999999,-1739.28,733.83000000000004,2409.8000000000002,-7704.9799999999996,2893.4699999999998
166010.0,14373.4,-4735.29,-1698.27,1573.1700000000001,2576.7199999999998,-6807.0,2436.5500000000002
166011.0,13508.0,-5331.75,-1764.51,2227.98,2831.1599999999999,-5857.4499999999998,2048.0
166012.0,13073.299999999999,-5671.6700000000001,-1930.96,2698.5300000000002,2991.1300000000001,-5210.8599999999997,1813.72
166013.0,12792.6,-5833.9300000000003,-1921.5699999999999,3224.6300000000001,3046.4200000000001,-4691.8199999999997,1617.02
166014.0,16486.599999999999,5338.6599999999999,-1149.03,-5404.9300000000003,-127.90300000000001,-6866.0799999999999,3764.5799999999999
166015.0,16524.299999999999,4379.6199999999999,-1308.99,-4494.5900000000001,185.34100000000001,-7553.6400000000003,3703.4000000000001
166016.0,16257.0,3267.1100000000001,-1376.1800000000001,-3488.8000000000002,491.99299999999999,-7866.6300000000001,3745.1900000000001
166017.0,15874.200000000001,2280.0999999999999,-1424.8499999999999,-2711.8499999999999,803.20100000000002,-7931.7399999999998,3704.3800000000001
166018.0,15290.799999999999,1045.54,-1614.4200000000001,-2276.7199999999998,1223.52,-7776.6599999999999,3587.5599999999999
166019.0,15205.700000000001,-143.68100000000001,-1839.8299999999999,-2017.71,1700.98,-7800.54,3501.3899999999999
166020.0,15567.9,-1267.29,-2073.8299999999999,-1499.1900000000001,2051.8699999999999,-8010.4700000000003,3498.02
166021.0,15869.4,-2156.5,-1952.6300000000001,-431.28100000000001,2206.3600000000001,-8172.54,3376.2399999999998
166022.0,15324.9,-3420.3699999999999,-1721.6300000000001,720.47699999999998,2288.4299999999998,-7750.8299999999999,2939.21
166023.0,14135.200000000001,-4615.0699999999997,-1674.4300000000001,1516.71,2460.1599999999999,-6731.1700000000001,2415.7199999999998
166024.0,13411.200000000001,-5249.7399999999998,-1777.02,2207.6999999999998,2747.6799999999998,-5867.4300000000003,2012.95
166025.0,13153.1,-5640.9200000000001,-1937.5699999999999,2735.3299999999999,2938.8899999999999,-5308.2299999999996,1798.5999999999999
166026.0,12979.299999999999,-5884.6000000000004,-1962.45,3251.5599999999999,3026.5700000000002,-4830.9700000000003,1627.75
166027.0,17019.200000000001,5633.4200000000001,-1120.45,-5490.0200000000004,-200.27500000000001,-7110.8999999999996,3813.0700000000002
166028.0,16990.099999999999,4571.6800000000003,-1345.05,-4586.4899999999998,144.321,-7795.79,3723.0500000000002
166029.0,16769.599999999999,3532.23,-1360.4400000000001,-3551.2199999999998,446.87599999999998,-8132.5900000000001,3774.7199999999998
166030.0,16432.299999999999,2415.48,-1495.3399999999999,-2780.6900000000001,783.96100000000001,-8246.1000000000004,3750.9699999999998
166031.0,15954.299999999999,1186.45,-1644.6600000000001,-2183.1399999999999,1201.77,-8150.6099999999997,3700.48
166032.0,15760.200000000001,-23.654599999999999,-1821.6700000000001,-1838.52,1660.1199999999999,-8126.9700000000003,3592.1500000000001
166033.0,16061.4,-1072.6400000000001,-1980.2,-1240.3699999999999,2024.05,-8315.9899999999998,3536.0599999999999
166034.0,16263.6,-2001.52,-1894.9000000000001,-284.14299999999997,2132.8000000000002,-8427.8299999999999,3415.4400000000001
166035.0,15306.0,-3301.8099999999999,-1679.9200000000001,772.41499999999996,2177.2399999999998,-7778.3699999999999,2939.52
166036.0,13948.5,-4461.0,-1670.77,1489.29,2373.8499999999999,-6683.1899999999996,2385.5799999999999
166037.0,13355.299999999999,-5153.1999999999998,-1789.21,2194.1399999999999,2680.54,-5897.7700000000004,1989.52
166038.0,13231.4,-5610.29,-1954.6600000000001,2767.2800000000002,2902.4699999999998,-5394.4799999999996,1786.51
166039.0,13184.200000000001,-5969.0299999999997,-2044.0799999999999,3258.96,3031.27,-4965.0200000000004,1629.1500000000001
166040.0,17607.599999999999,5897.0,-1132.0999999999999,-5592.79,-290.411,-7389.4700000000003,3885.8600000000001
166041.0,17421.400000000001,4847.8299999999999,-1313.3399999999999,-4540.0900000000001,93.033000000000001,-8023.0100000000002,3747.0999999999999
166042.0,17256.900000000001,3776.0599999999999,-1403.4300000000001,-3584.3699999999999,430.06099999999998,-8398.5799999999999,3775.3200000000002
166043.0,17039.599999999999,2594.6100000000001,-1561.3599999999999,-2838.25,786.38499999999999,-8586.2900000000009,3790.8200000000002
166044.0,16709.700000000001,1333.28,-1669.4100000000001,-2141.5500000000002,1184.0999999999999,-8577.2099999999991,3814.1999999999998
166045.0,16418.0,97.872799999999998,-1821.9000000000001,-1704.5,1601.5799999999999,-8501.7399999999998,3721.2800000000002
166046.0,16553.599999999999,-938.66499999999996,-1929.5,-1068.01,1911.53,-8618.6700000000001,3621.5300000000002
166047.0,16517.200000000001,-1830.79,-1732.1199999999999,-52.236800000000002,1988.99,-8616.5699999999997,3426.1300000000001
166048.0,15255.5,-3161.54,-1596.3699999999999,906.17700000000002,2066.04,-7788.1000000000004,2905.7800000000002
166049.0,13829.4,-4296.8500000000004,-1653.8299999999999,1531.3699999999999,2299.1300000000001,-6661.46,2360.7600000000002
166050.0,13318.0,-5046.8500000000004,-1789.75,2210.1199999999999,2614.4400000000001,-5931.4700000000003,1973.3199999999999
166051.0,13314.4,-5556.8400000000001,-1956.6400000000001,2841.23,2864.9499999999998,-5474.1000000000004,1779.3199999999999
166052.0,13382.299999999999,-5960.7700000000004,-2041.4000000000001,3384.54,3029.7800000000002,-5083.2799999999997,1628.8199999999999
166053.0,18241.200000000001,6187.79,-1156.3,-5710.2299999999996,-388.024,-7681.4899999999998,3964.6399999999999
166054.0,17919.700000000001,5160.8599999999997,-1276.4100000000001,-4459.9300000000003,22.870899999999999,-8278.6800000000003,3805.1399999999999
166055.0,17711.299999999999,4045.77,-1402.8199999999999,-3443.7800000000002,415.12799999999999,-8664.4500000000007,3785.0999999999999
166056.0,17615.099999999999,2844.3800000000001,-1598.3199999999999,-2784.3400000000001,804.61199999999997,-8919.0799999999999,3798.5799999999999
166057.0,17464.299999999999,1471.8399999999999,-1755.3,-2187.6199999999999,1171.3900000000001,-9014.75,3876.9400000000001
166058.0,17161.5,193.809,-1877.4200000000001,-1661.3900000000001,1545.8699999999999,-8925.3400000000001,3850.29
166059.0,17106.0,-838.15499999999997,-1926.72,-1002.14,1784.8800000000001,-8944.4799999999996,3742.1900000000001
166060.0,16740.799999999999,-1746.8699999999999,-1644.6400000000001,30.8718,1829.1300000000001,-8783.75,3452.8099999999999
166061.0,15248.700000000001,-3114.9299999999998,-1583.9100000000001,956.50199999999995,1957.5599999999999,-7816.4399999999996,2889.52
166062.0,13796.200000000001,-4165.1000000000004,-1647.3900000000001,1591.21,2226.7399999999998,-6676.4399999999996,2363.1500000000001
166063.0,13310.799999999999,-4958.5200000000004,-1806.0699999999999,2220.6300000000001,2542.8600000000001,-5979.1599999999999,1973.3900000000001
166064.0,13411.0,-5486.6300000000001,-1937.8800000000001,2939.52,2812.9400000000001,-5565.4499999999998,1779.6900000000001
166065.0,13586.299999999999,-5976.1700000000001,-2047.1800000000001,3508.9099999999999,3007.46,-5207.8199999999997,1628.0599999999999
166066.0,18920.299999999999,6541.5200000000004,-1191.3800000000001,-5825.0900000000001,-463.72699999999998,-7989.8900000000003,4029.7800000000002
166067.0,18526.400000000001,5495.1700000000001,-1260.46,-4426.9700000000003,-55.561199999999999,-8582.4799999999996,3880.8299999999999
166068.0,18240.700000000001,4314.7700000000004,-1405.6500000000001,-3285.8800000000001,366.19200000000001,-8965.0699999999997,3837.9899999999998
166069.0,18145.599999999999,3117.3099999999999,-1565.6099999999999,-2537.1999999999998,800.75999999999999,-9242.1399999999994,3815.1300000000001
166070.0,18081.599999999999,1650.79,-1827.3599999999999,-2101.46,1178.1099999999999,-9389.5799999999999,3879.9699999999998
166071.0,17891.900000000001,389.99700000000001,-1964.9000000000001,-1630.5699999999999,1518.1600000000001,-9348.3899999999994,3922.46
166072.0,17701.900000000001,-704.47900000000004,-1968.74,-1016.74,1684.6600000000001,-9296.7900000000009,3840.5599999999999
166073.0,16970.799999999999,-1722.4000000000001,-1615.52,25.307400000000001,1704.6099999999999,-8945.4300000000003,3480.8699999999999
166074.0,15315.5,-3103.23,-1601.0599999999999,966.91499999999996,1874.3699999999999,-7875.8599999999997,2899.8400000000001
166075.0,13867.299999999999,-4065.2399999999998,-1664.5,1645.54,2168.75,-6740.54,2395.8299999999999
166076.0,13364.4,-4892.7700000000004,-1843.6800000000001,2232.3200000000002,2483.1799999999998,-6050.3800000000001,1995.74
166077.0,13538.700000000001,-5435.9200000000001,-1935.04,3021.7199999999998,2765.4299999999998,-5674.2799999999997,1787.1900000000001
166078.0,13827.4,-6016.96,-2049.6300000000001,3635.8400000000001,2991.5799999999999,-5348.96,1622.1900000000001
166079.0,19629.599999999999,6945.7399999999998,-1212.6900000000001,-5882.79,-509.858,-8331.7099999999991,4075.0500000000002
166080.0,19214.099999999999,5818.29,-1287.8800000000001,-4447.1899999999996,-111.914,-8929.7000000000007,3957.9000000000001
166081.0,18906.799999999999,4607.3800000000001,-1424.04,-3183.3699999999999,307.07100000000003,-9325.9599999999991,3923.46
166082.0,18745.0,3361.9299999999998,-1546.6700000000001,-2296.0900000000001,733.87199999999996,-9594.5,3884.1599999999999
166083.0,18586.900000000001,1903.3599999999999,-1749.4300000000001,-1758.53,1136.6700000000001,-9706.5300000000007,3897.4200000000001
166084.0,18467.400000000001,680.14999999999998,-1903.48,-1337.1400000000001,1494.96,-9704.4099999999999,3927.6799999999998
166085.0,18212.299999999999,-495.35599999999999,-1950.8499999999999,-892.10400000000004,1620.54,-9618.4899999999998,3854.2800000000002
166086.0,17167.599999999999,-1717.0599999999999,-1681.5899999999999,-43.155799999999999,1613.73,-9091.6000000000004,3473.6599999999999
166087.0,15428.6,-3058.1900000000001,-1637.6900000000001,955.16300000000001,1811.1900000000001,-7967.5500000000002,2905.8299999999999
166088.0,14039.799999999999,-3983.4499999999998,-1706.0,1695.75,2124.8499999999999,-6862.8500000000004,2433.6500000000001
166089.0,13502.5,-4822.5299999999997,-1880.5999999999999,2274.46,2437.1399999999999,-6162.8199999999997,2034.1400000000001
166090.0,13718.9,-5420.1999999999998,-1960.6300000000001,3092.4899999999998,2730.3400000000001,-5805.8199999999997,1801.53
166091.0,14105.299999999999,-6116.7600000000002,-2085.1999999999998,3740.7800000000002,2987.4499999999998,-5499.1400000000003,1610.3099999999999
166092.0,20336.299999999999,7346.1300000000001,-1230.3199999999999,-5877.6400000000003,-544.928,-8697.7099999999991,4111.4399999999996
166093.0,19951.700000000001,6148.6800000000003,-1328.21,-4469.4899999999998,-143.40199999999999,-9312.5599999999995,4024.1199999999999
166094.0,19684.5,4906.1800000000003,-1453.99,-3127.0999999999999,257.60399999999998,-9744.7600000000002,4021.04
166095.0,19439.799999999999,3608.0100000000002,-1552.27,-2137.7399999999998,643.42700000000002,-9984.7099999999991,3982.8000000000002
166096.0,19143.400000000001,2142.6199999999999,-1721.54,-1514.54,1031.25,-10036.0,3955.6399999999999
166097.0,18979.099999999999,944.38699999999994,-1828.4300000000001,-1020.12,1388.47,-10028.200000000001,3942.3499999999999
166098.0,18561.599999999999,-316.66199999999998,-1880.8,-616.51099999999997,1522.71,-9858.4099999999999,3827.2800000000002
166099.0,17241.299999999999,-1582.04,-1625.5599999999999,124.143,1541.4200000000001,-9168.1299999999992,3414.8600000000001
166100.0,15521.1,-2943.2199999999998,-1643.8299999999999,1020.01,1759.3399999999999,-8055.46,2869.4899999999998
166101.0,14271.799999999999,-3870.4400000000001,-1729.1400000000001,1798.98,2092.3800000000001,-7024.1400000000003,2445.9200000000001
166102.0,13741.200000000001,-4784.29,-1962.2,2333.75,2415.6799999999998,-6320.5900000000001,2075.3499999999999
166103.0,13969.200000000001,-5418.8999999999996,-2008.1099999999999,3197.21,2713.02,-5959.5200000000004,1828.0899999999999
166104.0,14401.9,-6211.6499999999996,-2134.2800000000002,3883.21,2990.2399999999998,-5642.9300000000003,1601.28
166105.0,21061.5,7743.6599999999999,-1242.98,-5821.75,-580.16399999999999,-9086.7000000000007,4163.4200000000001
166106.0,20705.200000000001,6469.5100000000002,-1384.8099999999999,-4456.25,-161.61199999999999,-9717.7900000000009,4085.3899999999999
166107.0,20509.5,5223.6300000000001,-1479.2,-3079.9299999999998,212.01499999999999,-10193.6,4105.1800000000003
166108.0,20189.799999999999,3872.0500000000002,-1564.78,-2030.0,567.13,-10400.799999999999,4075.4699999999998
166109.0,19799.299999999999,2388.3099999999999,-1718.55,-1325.97,944.54899999999998,-10407.799999999999,4039.8800000000001
166110.0,19546.700000000001,1139.01,-1809.95,-776.99300000000005,1258.9000000000001,-10365.700000000001,4010.7399999999998
166111.0,18845.299999999999,-113.01300000000001,-1738.1300000000001,-269.97399999999999,1370.25,-10053.200000000001,3825.5300000000002
166112.0,17247.599999999999,-1469.9000000000001,-1570.23,341.60199999999998,1430.8,-9204.6200000000008,3351.1500000000001
166113.0,15564.5,-2796.1900000000001,-1620.1700000000001,1159.95,1686.8800000000001,-8116.3999999999996,2811.1399999999999
166114.0,14516.299999999999,-3759.71,-1745.1900000000001,1940.75,2058.23,-7195.0900000000001,2424.6300000000001
166115.0,14078.5,-4722.5100000000002,-2005.6300000000001,2493.7199999999998,2406.2399999999998,-6523.7799999999997,2105.98
166116.0,14302.6,-5423.1199999999999,-2045.6099999999999,3370.6199999999999,2699.1199999999999,-6142.7399999999998,1868.27
166117.0,14727.6,-6259.1899999999996,-2130.5100000000002,4128.1400000000003,2981.3499999999999,-5786.1599999999999,1606.3699999999999
166118.0,21844.299999999999,8126.8999999999996,-1272.6300000000001,-5769.0699999999997,-621.94799999999998,-9511.5400000000009,4233.6199999999999
166119.0,21474.099999999999,6824.1400000000003,-1401.5999999999999,-4349.75,-193.49199999999999,-10141.799999999999,4157.5200000000004
166120.0,21302.0,5543.9399999999996,-1504.3900000000001,-2989.3200000000002,166.44200000000001,-10635.5,4163.2700000000004
166121.0,20952.299999999999,4174.1499999999996,-1584.76,-1913.1500000000001,516.62099999999998,-10827.799999999999,4135.5799999999999
166122.0,20542.900000000001,2602.8400000000001,-1783.3299999999999,-1263.54,865.27999999999997,-10825.6,4121.2200000000003
166123.0,20182.799999999999,1360.6700000000001,-1739.3599999999999,-581.85299999999995,1110.3900000000001,-10737.700000000001,4098.2700000000004
166124.0,19146.099999999999,-44.654800000000002,-1708.6800000000001,-74.251499999999993,1198.6900000000001,-10247.4,3851.96
166125.0,17275.299999999999,-1328.1700000000001,-1499.1099999999999,609.55100000000004,1306.01,-9239.4799999999996,3321.5900000000001
166126.0,15618.9,-2666.4200000000001,-1629.0699999999999,1300.5799999999999,1600.8,-8175.4399999999996,2771.9200000000001
166127.0,14762.0,-3619.4400000000001,-1710.51,2152.0700000000002,2014.1099999999999,-7363.1999999999998,2391.7199999999998
166128.0,14490.799999999999,-4716.5,-2068.25,2671.0900000000001,2397.6500000000001,-6763.0100000000002,2121.0599999999999
166129.0,14728.1,-5421.5200000000004,-2042.0599999999999,3617.96,2682.8000000000002,-6371.0,1912.3
166130.0,15111.299999999999,-6359.7399999999998,-2150.1999999999998,4362.7399999999998,2954.3899999999999,-5963.3800000000001,1625.5
166131.0,22682.900000000001,8525.1800000000003,-1291.52,-5705.4700000000003,-677.38599999999997,-9970.3299999999999,4310.1599999999999
166132.0,22282.200000000001,7199.25,-1402.28,-4208.3299999999999,-254.58500000000001,-10587.299999999999,4243.8800000000001
166133.0,22059.099999999999,5887.0299999999997,-1502.73,-2813.8499999999999,106.22199999999999,-11064.9,4213.3699999999999
166134.0,21688.200000000001,4501.54,-1586.5799999999999,-1675.1300000000001,475.45299999999997,-11251.5,4175.29
166135.0,21242.700000000001,2898.0500000000002,-1826.9200000000001,-1119.3800000000001,798.09400000000005,-11224.4,4159.2399999999998
166136.0,20789.200000000001,1566.26,-1781.2,-531.226,975.82100000000003,-11101.200000000001,4124.9200000000001
166137.0,19495.900000000001,110.61,-1674.9000000000001,97.694400000000002,1044.72,-10469.9,3864.0100000000002
166138.0,17404.5,-1235.3299999999999,-1537.5899999999999,780.06899999999996,1195.51,-9321.9300000000003,3325.29
166139.0,15756.1,-2533.48,-1655.4000000000001,1460.9000000000001,1526.28,-8269.1000000000004,2763.71
166140.0,15039.0,-3556.8600000000001,-1740.73,2314.1599999999999,1967.5599999999999,-7541.2799999999997,2369.3400000000001
166141.0,14947.1,-4704.2399999999998,-2078.5500000000002,2910.25,2379.9899999999998,-7024.3800000000001,2122.52
166142.0,15227.9,-5508.2600000000002,-2083.1599999999999,3844.4899999999998,2667.1100000000001,-6634.1000000000004,1944.54
166143.0,15567.700000000001,-6503.3800000000001,-2193.75,4599.3100000000004,2934.4699999999998,-6175.3500000000004,1645.3399999999999
166144.0,23559.299999999999,8907.7600000000002,-1335.8199999999999,-5681.9700000000003,-752.93799999999999,-10445.6,4384.4899999999998
166145.0,23132.599999999999,7640.0699999999997,-1346.22,-4009.27,-340.06200000000001,-11057.0,4329.1000000000004
166146.0,22837.200000000001,6231.6199999999999,-1515.9200000000001,-2636.73,18.2789,-11501.200000000001,4271.5900000000001
166147.0,22439.200000000001,4862.0,-1532.1600000000001,-1327.73,394.68400000000003,-11684.799999999999,4235.8800000000001
166148.0,21869.299999999999,3209.1900000000001,-1815.0,-797.69500000000005,709.476,-11585.5,4199.8900000000003
166149.0,21231.599999999999,1913.1300000000001,-1645.9300000000001,-188.35900000000001,857.88699999999994,-11382.799999999999,4093.3400000000001
166150.0,19772.5,225.34200000000001,-1705.1500000000001,268.96100000000001,932.78800000000001,-10660.799999999999,3811.1399999999999
166151.0,17637.099999999999,-998.88099999999997,-1499.8099999999999,1069.5599999999999,1122.8800000000001,-9465.2099999999991,3314.04
166152.0,16021.299999999999,-2422.4299999999998,-1729.05,1628.51,1475.03,-8425.9699999999993,2773.73
166153.0,15373.9,-3464.0599999999999,-1741.7,2548.8400000000001,1927.9400000000001,-7738.6899999999996,2364.8800000000001
166154.0,15412.9,-4759.9399999999996,-2159.4000000000001,3103.48,2352.5500000000002,-7288.3599999999997,2117.1900000000001
166155.0,15758.200000000001,-5573.8999999999996,-2119.1599999999999,4118.1899999999996,2647.3099999999999,-6914.5200000000004,1955.8299999999999
166156.0,16083.4,-6665.5600000000004,-2288.98,4854.3900000000003,2923.3299999999999,-6412.5200000000004,1656.3900000000001
166157.0,24464.200000000001,9335.6000000000004,-1348.5599999999999,-5641.9499999999998,-844.20799999999997,-10930.5,4452.6400000000003
166158.0,24019.700000000001,8072.29,-1314.1500000000001,-3844.46,-438.77699999999999,-11544.200000000001,4408.5100000000002
166159.0,23679.700000000001,6629.79,-1493.1099999999999,-2449.9200000000001,-91.075999999999993,-11964.1,4344.0799999999999
166160.0,23231.900000000001,5195.6400000000003,-1503.98,-1051.73,260.52300000000002,-12133.700000000001,4311.8299999999999
166161.0,22539.599999999999,3634.7399999999998,-1693.1900000000001,-388.06599999999997,545.73500000000001,-11965.0,4263.0299999999997
166162.0,21600.200000000001,2152.7600000000002,-1581.9400000000001,97.757499999999993,673.82299999999998,-11619.0,4070.4000000000001
166163.0,19957.299999999999,490.92399999999998,-1537.74,672.40800000000002,800.94399999999996,-10801.0,3735.8600000000001
166164.0,17918.200000000001,-856.80700000000002,-1539.95,1334.5,1067.5,-9638.2199999999993,3275.7399999999998
166165.0,16417.900000000001,-2277.4499999999998,-1759.3699999999999,1906.97,1444.8900000000001,-8648.3899999999994,2786.3800000000001
166166.0,15793.200000000001,-3458.71,-1823.1400000000001,2768.79,1890.8099999999999,-7965.3599999999997,2386.6700000000001
166167.0,15873.299999999999,-4692.5900000000001,-2130.9499999999998,3455.5300000000002,2309.3200000000002,-7535.8900000000003,2122.1700000000001
166168.0,16282.4,-5605.8800000000001,-2152.5100000000002,4453.8199999999997,2614.6599999999999,-7183.9399999999996,1949.1800000000001
166169.0,16646.700000000001,-6707.5900000000001,-2300.1500000000001,5290.6300000000001,2909.3000000000002,-6658.46,1654.77
166170.0,25398.0,9769.8700000000008,-1356.29,-5602.9899999999998,-943.68299999999999,-11431.200000000001,4520.1099999999997
166171.0,24937.900000000001,8515.4099999999999,-1290.96,-3715.5100000000002,-543.47199999999998,-12040.200000000001,4483.1700000000001
166172.0,24585.400000000001,7045.46,-1463.4400000000001,-2311.1700000000001,-214.24700000000001,-12456.200000000001,4415.9799999999996
166173.0,24065.400000000001,5526.1099999999997,-1486.8,-843.34299999999996,96.759600000000006,-12597.1,4395.9700000000003
166174.0,23256.700000000001,4043.5500000000002,-1608.6400000000001,-47.782200000000003,357.298,-12365.299999999999,4329.46
166175.0,21996.099999999999,2453.0100000000002,-1489.46,408.06799999999998,471.68200000000002,-11859.200000000001,4065.25
166176.0,20159.0,600.36699999999996,-1543.49,891.33600000000001,646.89999999999998,-10939.9,3686.9200000000001
166177.0,18271.700000000001,-616.93399999999997,-1464.1500000000001,1728.28,998.18799999999999,-9850.9200000000001,3242.48
166178.0,16929.0,-2185.3600000000001,-1803.6500000000001,2215.5500000000002,1406.9300000000001,-8930.2999999999993,2802.9400000000001
166179.0,16306.4,-3382.0300000000002,-1818.0999999999999,3120.3699999999999,1836.1800000000001,-8236.4300000000003,2429.6700000000001
166180.0,16369.700000000001,-4649.7799999999997,-2140.9499999999998,3799.2600000000002,2234.1799999999998,-7801.8299999999999,2152.77
166181.0,16817.799999999999,-5553.3400000000001,-2110.0500000000002,4892.3900000000003,2547.98,-7461.8000000000002,1942.8
166182.0,17269.099999999999,-6763.3299999999999,-2302.6999999999998,5781.8500000000004,2859.0999999999999,-6933.6999999999998,1648.1600000000001
166183.0,26371.700000000001,10207.6,-1348.3499999999999,-5564.1700000000001,-1060.5,-11956.5,4589.3900000000003
166184.0,25878.200000000001,8977.7600000000002,-1260.3800000000001,-3596.1599999999999,-657.55100000000004,-12541.700000000001,4557.5600000000004
166185.0,25499.099999999999,7439.1499999999996,-1480.4200000000001,-2230.0900000000001,-342.81400000000002,-12950.200000000001,4469.0200000000004
166186.0,24938.900000000001,5917.9899999999998,-1474.01,-695.56600000000003,-80.221500000000006,-13071.299999999999,4466.8199999999997
166187.0,24031.700000000001,4487.5900000000001,-1494.6900000000001,267.40499999999997,157.97900000000001,-12796.6,4390.8199999999997
166188.0,22441.700000000001,2680.8200000000002,-1480.79,637.048,285.90899999999999,-12120.9,4067.9499999999998
166189.0,20440.099999999999,828.51900000000001,-1477.3499999999999,1193.1099999999999,505.99700000000001,-11112.799999999999,3663.1999999999998
166190.0,18735.299999999999,-492.37200000000001,-1501.9000000000001,2016.28,927.20600000000002,-10121.6,3227.48
166191.0,17546.400000000001,-2099.0100000000002,-1815.9400000000001,2572.96,1353.8900000000001,-9270.0499999999993,2827.8299999999999
166192.0,16901.599999999999,-3358.5900000000001,-1854.78,3451.0500000000002,1764.53,-8553.2000000000007,2480.5799999999999
166193.0,16944.200000000001,-4540.1599999999999,-2097.5,4211.0,2146.8200000000002,-8117.1300000000001,2194.2399999999998
166194.0,17430.200000000001,-5542.6999999999998,-2097.48,5320.8000000000002,2471.7399999999998,-7781.6899999999996,1945.9200000000001
166195.0,17964.200000000001,-6836.8100000000004,-2279.1500000000001,6312.1599999999999,2786.6799999999998,-7246.25,1648.5
166196.0,27385.200000000001,10649.200000000001,-1316.5599999999999,-5535.29,-1208.6500000000001,-12502.5,4660.7700000000004
166197.0,26854.099999999999,9478.5400000000009,-1204.3399999999999,-3461.5900000000001,-807.48000000000002,-13054.700000000001,4639.4300000000003
166198.0,26381.900000000001,7869.5699999999997,-1460.1700000000001,-2067.9299999999998,-481.27699999999999,-13425.9,4526.3199999999997
166199.0,25809.099999999999,6361.3800000000001,-1460.75,-544.36099999999999,-242.66,-13539.799999999999,4512.8000000000002
166200.0,24827.200000000001,4918.8900000000003,-1418.99,544.10400000000004,-43.368699999999997,-13243.9,4419.8199999999997
166201.0,22941.200000000001,3007.0700000000002,-1449.21,931.77700000000004,116.161,-12407.4,4062.6100000000001
166202.0,20833.700000000001,989.56500000000005,-1575.3099999999999,1389.5799999999999,390.63999999999999,-11341.200000000001,3649.3099999999999
166203.0,19307.099999999999,-255.673,-1455.8699999999999,2407.98,849.53099999999995,-10455.0,3211.5999999999999
166204.0,18235.299999999999,-2039.0699999999999,-1841.97,2938.0300000000002,1272.0699999999999,-9654.2299999999996,2842.0100000000002
166205.0,17552.700000000001,-3278.1300000000001,-1858.24,3850.3899999999999,1674.22,-8904.0900000000001,2525.25
166206.0,17604.299999999999,-4478.7700000000004,-2137.2800000000002,4579.46,2061.21,-8485.6499999999996,2222.7800000000002
166207.0,18144.700000000001,-5576.46,-2127.73,5748.6400000000003,2392.0300000000002,-8156.2799999999997,1948.8800000000001
166208.0,18716.099999999999,-6982.1800000000003,-2319.54,6794.71,2693.1599999999999,-7593.8400000000001,1655.8900000000001
166209.0,28438.299999999999,11142.200000000001,-1235.6600000000001,-5531.8500000000004,-1391.29,-13052.799999999999,4724.2399999999998
166210.0,27883.099999999999,10031.4,-1118.2,-3338.6199999999999,-1007.23,-13581.700000000001,4726.9799999999996
166211.0,27273.599999999999,8361.7099999999991,-1411.77,-1865.6300000000001,-661.149,-13893.0,4594.5299999999997
166212.0,26684.700000000001,6862.9300000000003,-1408.6600000000001,-346.90100000000001,-427.37599999999998,-14009.1,4545.79
166213.0,25585.700000000001,5312.5,-1351.5599999999999,873.24400000000003,-245.41900000000001,-13673.5,4435.4099999999999
166214.0,23481.400000000001,3397.7800000000002,-1420.6300000000001,1340.29,-25.8613,-12708.6,4054.2199999999998
166215.0,21346.299999999999,1327.1800000000001,-1582.6600000000001,1816.02,299.93799999999999,-11627.9,3635.1100000000001
166216.0,19930.900000000001,-61.781700000000001,-1500.1600000000001,2805.3000000000002,769.02999999999997,-10811.1,3184.1999999999998
166217.0,18920.599999999999,-1943.1300000000001,-1906.99,3322.6399999999999,1175.8900000000001,-10040.9,2819.1999999999998
166218.0,18253.5,-3131.6500000000001,-1904.23,4288.9399999999996,1587.24,-9288.7800000000007,2537.9899999999998
166219.0,18349.799999999999,-4330.8000000000002,-2173.6700000000001,5070.2700000000004,1989.52,-8892.6499999999996,2224.7600000000002
166220.0,18904.299999999999,-5549.6800000000003,-2178.98,6258.3800000000001,2309.5799999999999,-8546.2999999999993,1937.3599999999999
166221.0,19473.0,-7029.0600000000004,-2373.0100000000002,7344.4499999999998,2585.29,-7949.7399999999998,1653.22
166222.0,29504.900000000001,11689.6,-1147.52,-5589.79,-1584.95,-13589.1,4741.9200000000001
166223.0,28960.0,10574.6,-1076.8199999999999,-3320.3499999999999,-1239.3199999999999,-14118.799999999999,4800.2700000000004
166224.0,28252.700000000001,8968.6599999999999,-1312.72,-1613.8499999999999,-877.08699999999999,-14388.200000000001,4688.7600000000002
166225.0,27583.700000000001,7389.0799999999999,-1364.6700000000001,-145.17699999999999,-660.625,-14480.5,4584.71
166226.0,26327.700000000001,5744.6000000000004,-1268.72,1236.0799999999999,-491.15800000000002,-14087.299999999999,4441.1499999999996
166227.0,24136.799999999999,3897.7600000000002,-1353.1400000000001,1862.97,-173.13,-13066.1,4053.8499999999999
166228.0,22048.900000000001,1632.8199999999999,-1648.9100000000001,2303.6100000000001,202.774,-12010.0,3646.5100000000002
166229.0,20611.299999999999,234.94200000000001,-1397.04,3467.3699999999999,652.94600000000003,-11173.6,3194.2600000000002
166230.0,19531.0,-1720.3599999999999,-1853.8900000000001,3929.5900000000001,1059.45,-10361.5,2788.04
166231.0,18982.299999999999,-2877.1500000000001,-1874.03,4923.4099999999999,1496.73,-9668.9899999999998,2523.71
166232.0,19178.799999999999,-4129.6999999999998,-2158.3600000000001,5758.3400000000001,1906.1300000000001,-9309.2900000000009,2218.9099999999999
166233.0,19671.799999999999,-5429.4700000000003,-2162.52,6944.6499999999996,2192.9099999999999,-8905.9400000000005,1935.71
166234.0,20196.0,-6866.8299999999999,-2267.0999999999999,8103.0900000000001,2433.8000000000002,-8278.5,1644.0
166235.0,30444.900000000001,12236.5,-1100.3099999999999,-5620.9399999999996,-1763.3499999999999,-14063.5,4676.6700000000001
166236.0,30063.200000000001,11214.1,-1016.55,-3338.8099999999999,-1462.8199999999999,-14657.200000000001,4812.8100000000004
166237.0,29402.099999999999,9642.7099999999991,-1192.6500000000001,-1447.4300000000001,-1137.6500000000001,-14960.799999999999,4792.0799999999999
166238.0,28533.400000000001,8005.9799999999996,-1231.6400000000001,156.22200000000001,-950.48500000000001,-14964.9,4660.2700000000004
166239.0,27073.599999999999,6222.8900000000003,-1223.77,1614.2,-752.38599999999997,-14482.200000000001,4461.21
166240.0,24973.700000000001,4507.8400000000001,-1229.76,2514.8299999999999,-322.24000000000001,-13519.799999999999,4064.79
166241.0,22979.400000000001,2008.73,-1644.73,2893.04,65.140799999999999,-12517.700000000001,3678.8800000000001
166242.0,21446.200000000001,474.99599999999998,-1321.6800000000001,4099.8800000000001,461.14800000000002,-11612.1,3260.8200000000002
166243.0,20216.900000000001,-1492.9000000000001,-1836.8299999999999,4538.3299999999999,890.67200000000003,-10707.799999999999,2816.96
166244.0,19811.400000000001,-2576.3299999999999,-1822.3099999999999,5624.3400000000001,1354.23,-10100.299999999999,2536.6799999999998
166245.0,20110.299999999999,-3910.3600000000001,-2084.6900000000001,6560.1300000000001,1757.9100000000001,-9771.0499999999993,2227.4499999999998
166246.0,20490.400000000001,-5226.6999999999998,-2073.0900000000001,7725.3900000000003,2000.6099999999999,-9299.3299999999999,1962.9300000000001
166247.0,20908.799999999999,-6683.6800000000003,-2143.9099999999999,8841.9599999999991,2198.8899999999999,-8630.0200000000004,1640.05
166248.0,31195.799999999999,12828.5,-1009.99,-5458.8199999999997,-1941.6600000000001,-14449.5,4569.6099999999997
166249.0,31055.400000000001,11857.9,-1036.5899999999999,-3319.71,-1643.4400000000001,-15147.200000000001,4729.5500000000002
166250.0,30620.400000000001,10377.200000000001,-1150.7,-1456.6199999999999,-1416.77,-15560.5,4784.8199999999997
166251.0,29630.099999999999,8704.8899999999994,-1091.1500000000001,360.089,-1270.8,-15515.799999999999,4726.5500000000002
166252.0,28013.099999999999,6837.5200000000004,-1132.4100000000001,1994.54,-1018.9299999999999,-14961.299999999999,4535.9099999999999
166253.0,26051.599999999999,5061.46,-1159.01,3151.8299999999999,-493.13099999999997,-14099.799999999999,4126.5900000000001
166254.0,24072.700000000001,2350.2800000000002,-1686.5,3481.5700000000002,-102.46299999999999,-13108.799999999999,3732.8299999999999
166255.0,22366.200000000001,705.61000000000001,-1350.28,4646.0100000000002,242.82400000000001,-12098.1,3322.6100000000001
166256.0,21098.599999999999,-1136.27,-1828.76,5206.1400000000003,730.53999999999996,-11161.1,2871.8800000000001
166257.0,20821.599999999999,-2295.6100000000001,-1850.02,6307.7200000000003,1199.23,-10628.799999999999,2577.3499999999999
166258.0,21110.5,-3737.7399999999998,-2047.3499999999999,7355.9200000000001,1567.7,-10262.799999999999,2245.7600000000002
166259.0,21365.799999999999,-5051.25,-2046.5,8471.0100000000002,1781.6099999999999,-9726.6499999999996,1991.8699999999999
166260.0,21635.599999999999,-6504.5,-2070.0500000000002,9544.3299999999999,1938.26,-8995.2199999999993,1635.5899999999999
166261.0,31888.099999999999,13502.4,-856.96199999999999,-5210.3400000000001,-2166.23,-14787.700000000001,4438.1000000000004
166262.0,31949.400000000001,12565.4,-892.11500000000001,-2990.96,-1832.5,-15618.1,4660.46
166263.0,31599.400000000001,11103.9,-1110.24,-1270.3599999999999,-1654.49,-16052.700000000001,4692.9899999999998
166264.0,30662.700000000001,9439.7399999999998,-1122.0799999999999,468.11599999999999,-1525.5599999999999,-16038.1,4628.4200000000001
166265.0,29256.799999999999,7612.4399999999996,-1176.5,2179.0100000000002,-1231.71,-15612.1,4516.0200000000004
166266.0,27479.799999999999,5648.6300000000001,-1167.98,3697.8099999999999,-685.17200000000003,-14877.0,4194.6599999999999
166267.0,25317.799999999999,2837.6100000000001,-1634.47,4255.7399999999998,-298.87299999999999,-13765.799999999999,3824.4299999999998
166268.0,23311.700000000001,1012.42,-1445.5899999999999,5258.5299999999997,52.2697,-12576.4,3387.4899999999998
166269.0,22170.200000000001,-635.70600000000002,-1779.24,6021.8500000000004,605.90599999999995,-11714.200000000001,2915.6799999999998
166270.0,22027.299999999999,-1995.95,-1869.8099999999999,7094.1999999999998,1044.72,-11254.1,2611.5100000000002
166271.0,22149.700000000001,-3510.48,-2008.55,8200.3099999999995,1350.4400000000001,-10767.5,2273.7199999999998
166272.0,22285.200000000001,-4770.8400000000001,-1997.28,9290.1800000000003,1547.26,-10181.0,2006.78
166273.0,22378.599999999999,-6267.9399999999996,-2046.27,10245.200000000001,1663.55,-9376.0900000000001,1630.05
166274.0,32555.200000000001,14159.4,-724.02800000000002,-4982.0799999999999,-2450.1700000000001,-15102.299999999999,4265.1199999999999
166275.0,32833.5,13291.0,-744.02800000000002,-2725.5500000000002,-2158.5599999999999,-16053.799999999999,4552.3500000000004
166276.0,32464.700000000001,11864.6,-985.28999999999996,-852.41899999999998,-1943.7,-16479.099999999999,4637.29
166277.0,31457.700000000001,10207.700000000001,-1075.1300000000001,1031.49,-1677.6300000000001,-16444.5,4542.5600000000004
166278.0,30449.099999999999,8411.9599999999991,-1167.72,2710.6199999999999,-1323.3699999999999,-16267.5,4409.8699999999999
166279.0,29002.599999999999,6189.7700000000004,-1191.3699999999999,4370.1000000000004,-868.27499999999998,-15721.5,4204.6199999999999
166280.0,26671.099999999999,3404.98,-1600.28,5124.9300000000003,-510.05599999999998,-14467.200000000001,3917.79
166281.0,24432.900000000001,1523.1900000000001,-1539.3399999999999,6029.1400000000003,-106.194,-13133.200000000001,3464.3699999999999
166282.0,23460.400000000001,-93.067499999999995,-1746.8,6939.4399999999996,474.28699999999998,-12376.700000000001,2963.54
166283.0,23329.700000000001,-1709.9100000000001,-1890.9300000000001,8003.9099999999999,865.85000000000002,-11903.0,2635.3499999999999
166284.0,23225.700000000001,-3242.1700000000001,-2029.3599999999999,9097.4500000000007,1122.51,-11265.799999999999,2318.5599999999999
166285.0,23204.700000000001,-4361.5900000000001,-1920.4100000000001,10236.799999999999,1297.8699999999999,-10610.9,2016.4200000000001
166286.0,23092.299999999999,-5870.0500000000002,-1992.8399999999999,11052.9,1375.9300000000001,-9729.6000000000004,1609.73
166287.0,33176.300000000003,14805.6,-609.47799999999995,-4718.1000000000004,-2805.96,-15375.6,4081.71
166288.0,33602.099999999999,14162.799999999999,-535.20699999999999,-2408.77,-2529.21,-16377.799999999999,4402.3699999999999
166289.0,33462.900000000001,12776.799999999999,-797.50900000000001,-440.27300000000002,-2293.6900000000001,-16951.0,4562.0900000000001
166290.0,32518.400000000001,11168.200000000001,-867.94100000000003,1714.99,-1925.8199999999999,-16966.5,4556.3800000000001
166291.0,31732.099999999999,9174.0400000000009,-1099.28,3334.2399999999998,-1530.2,-16959.200000000001,4374.6300000000001
166292.0,30469.5,6789.6599999999999,-1037.29,5208.6700000000001,-1158.0899999999999,-16527.200000000001,4224.3299999999999
166293.0,28080.900000000001,4092.9400000000001,-1424.9200000000001,6222.9899999999998,-737.202,-15186.299999999999,4012.48
166294.0,25834.200000000001,2197.6199999999999,-1540.6800000000001,7102.9499999999998,-227.09700000000001,-13813.6,3579.1500000000001
166295.0,24978.299999999999,413.62700000000001,-1738.24,7967.9099999999999,304.13299999999998,-13133.9,3064.98
166296.0,24692.299999999999,-1306.4300000000001,-1785.53,9135.4400000000005,629.601,-12548.0,2701.5900000000001
166297.0,24378.900000000001,-2828.1599999999999,-1971.5699999999999,10170.0,851.56399999999996,-11779.200000000001,2405.1399999999999
166298.0,24155.599999999999,-3757.5500000000002,-1714.79,11380.4,988.952,-11038.200000000001,2051.48
166299.0,23798.400000000001,-5393.0100000000002,-1957.1300000000001,11899.4,1043.03,-10067.799999999999,1591.4300000000001
166300.0,33735.199999999997,15680.4,-450.23899999999998,-4349.5,-3172.6900000000001,-15547.700000000001,3845.6799999999998
166301.0,34303.400000000001,15081.6,-408.495,-2179.8000000000002,-2889.6799999999998,-16619.900000000001,4182.9099999999999
166302.0,34468.5,13684.1,-722.67700000000002,-150.339,-2603.9200000000001,-17426.299999999999,4361.3599999999997
166303.0,33930.099999999999,12189.1,-720.053,2295.3600000000001,-2211.6100000000001,-17684.5,4529.2700000000004
166304.0,33220.900000000001,10068.0,-961.13800000000003,3965.5799999999999,-1849.5999999999999,-17737.099999999999,4396.2299999999996
166305.0,31938.400000000001,7362.0500000000002,-978.87599999999998,5792.0100000000002,-1548.78,-17316.799999999999,4255.0900000000001
166306.0,29716.5,4790.9399999999996,-1301.01,7206.3800000000001,-1012.98,-16037.299999999999,4112.9799999999996
166307.0,27725.200000000001,2887.5100000000002,-1570.4000000000001,8228.4500000000007,-391.74599999999998,-14758.200000000001,3768.5799999999999
166308.0,26762.700000000001,924.17100000000005,-1742.6099999999999,9071.0799999999999,57.738900000000001,-14014.200000000001,3257.3899999999999
166309.0,26171.5,-923.76499999999999,-1778.8499999999999,10226.700000000001,324.13,-13237.700000000001,2847.29
166310.0,25661.799999999999,-2309.77,-1924.0,11309.299999999999,524.19299999999998,-12354.6,2544.52
166311.0,25190.299999999999,-3175.79,-1666.6700000000001,12463.0,637.06700000000001,-11497.799999999999,2120.1900000000001
166312.0,24566.5,-4751.8000000000002,-1924.78,12883.799999999999,696.96500000000003,-10412.299999999999,1597.6700000000001
166313.0,34152.099999999999,16742.099999999999,-216.82900000000001,-3781.4899999999998,-3461.3699999999999,-15631.9,3492.0700000000002
166314.0,35024.599999999999,16123.200000000001,-209.75299999999999,-1801.4100000000001,-3165.9899999999998,-16889.900000000001,3896.6700000000001
166315.0,35499.199999999997,14603.0,-551.36199999999997,258.20499999999998,-2869.9200000000001,-17945.0,4138.2700000000004
166316.0,35408.5,13075.299999999999,-526.197,2908.8600000000001,-2526.5799999999999,-18479.299999999999,4474.96
166317.0,34771.300000000003,11002.5,-756.37400000000002,4591.1899999999996,-2213.8899999999999,-18547.200000000001,4410.7799999999997
166318.0,33411.699999999997,8077.0600000000004,-897.81399999999996,6326.0799999999999,-1927.8499999999999,-18101.200000000001,4255.7700000000004
166319.0,31579.299999999999,5591.8100000000004,-1150.3900000000001,8185.79,-1282.99,-17026.5,4200.5500000000002
166320.0,30052.200000000001,3710.4899999999998,-1453.3399999999999,9552.9200000000001,-600.22799999999995,-15950.4,3993.4200000000001
166321.0,28834.900000000001,1528.75,-1713.0899999999999,10324.299999999999,-238.46299999999999,-15025.799999999999,3538.8899999999999
166322.0,27830.0,-339.51299999999998,-1735.3399999999999,11430.4,-17.286899999999999,-14011.799999999999,3088.1199999999999
166323.0,27127.200000000001,-1592.45,-1802.98,12621.5,174.41999999999999,-13014.200000000001,2745.27
166324.0,26385.700000000001,-2437.8000000000002,-1587.24,13710.1,286.99799999999999,-12015.1,2245.3499999999999
166325.0,25500.599999999999,-3968.9000000000001,-1887.1900000000001,14053.4,380.00299999999999,-10800.200000000001,1662.5899999999999
166326.0,34373.800000000003,17798.599999999999,-136.96700000000001,-3128.3200000000002,-3687.1300000000001,-15594.700000000001,2994.5599999999999
166327.0,35714.599999999999,17081.099999999999,-182.45599999999999,-1422.03,-3370.0300000000002,-17171.0,3462.5599999999999
166328.0,36600.900000000001,15435.299999999999,-619.93399999999997,384.88799999999998,-3139.02,-18477.799999999999,3791.71
166329.0,36916.0,13975.0,-397.89800000000002,3312.9499999999998,-2922.2600000000002,-19277.200000000001,4294.3999999999996
166330.0,36299.900000000001,12062.0,-544.08500000000004,5176.2200000000003,-2586.8800000000001,-19340.0,4319.5500000000002
166331.0,34960.900000000001,8841.4300000000003,-1029.5,6676.0900000000001,-2236.23,-18924.700000000001,4166.5299999999997
166332.0,33703.900000000001,6424.0200000000004,-1145.6700000000001,8939.0,-1565.6099999999999,-18186.599999999999,4230.1199999999999
166333.0,32688.299999999999,4476.7799999999997,-1422.21,10741.700000000001,-902.99400000000003,-17346.799999999999,4176.8900000000003
166334.0,31222.700000000001,2224.29,-1744.45,11600.4,-580.06799999999998,-16211.5,3852.8400000000001
166335.0,29804.0,346.99099999999999,-1797.9300000000001,12627.5,-372.37099999999998,-14958.700000000001,3406.8299999999999
166336.0,28872.5,-821.99400000000003,-1729.25,13965.4,-208.85300000000001,-13822.4,3022.54
166337.0,27861.900000000001,-1661.95,-1507.4300000000001,15063.4,-80.891800000000003,-12663.5,2449.3899999999999
166338.0,26747.900000000001,-3102.48,-1765.0599999999999,15441.6,55.411900000000003,-11325.1,1807.51
166339.0,34551.400000000001,18863.099999999999,13.5701,-2224.8200000000002,-3836.6199999999999,-15575.6,2538.71
166340.0,36248.900000000001,17984.799999999999,-1.81013,-590.71400000000006,-3523.25,-17458.5,3048.6799999999998
166341.0,37341.0,16217.200000000001,-552.09799999999996,1015.96,-3324.3200000000002,-18870.799999999999,3439.9000000000001
166342.0,38001.400000000001,14734.0,-383.10899999999998,3795.4099999999999,-3235.4499999999998,-19850.0,3991.9299999999998
166343.0,37612.0,13076.200000000001,-334.71899999999999,5967.7299999999996,-2868.6799999999998,-20035.099999999999,4111.1400000000003
166344.0,36384.800000000003,9884.0400000000009,-985.73500000000001,7486.3199999999997,-2430.5100000000002,-19665.299999999999,4005.23
166345.0,35790.599999999999,7461.6300000000001,-1085.6199999999999,9810.3199999999997,-1836.1099999999999,-19328.299999999999,4141.4399999999996
166346.0,35299.5,5496.1599999999999,-1177.79,12121.0,-1257.98,-18752.900000000001,4228.8400000000001
166347.0,33785.800000000003,3230.6500000000001,-1583.78,13115.799999999999,-931.74099999999999,-17514.299999999999,4088.1999999999998
166348.0,32130.900000000001,1401.3599999999999,-1646.45,14131.200000000001,-738.47000000000003,-16117.700000000001,3709.6199999999999
166349.0,30971.799999999999,116.988,-1587.27,15424.299999999999,-632.34900000000005,-14850.0,3325.73
166350.0,29727.700000000001,-714.79600000000005,-1292.71,16639.599999999999,-488.024,-13538.5,2683.8699999999999
166351.0,28449.0,-2278.1300000000001,-1712.1700000000001,16931.099999999999,-308.84699999999998,-12094.200000000001,1984.23
166352.0,34849.099999999999,19815.099999999999,255.57300000000001,-1296.1199999999999,-4124.9499999999998,-15655.5,2065.4099999999999
166353.0,36735.599999999999,18711.599999999999,209.34100000000001,175.10599999999999,-3884.5599999999999,-17703.900000000001,2644.9499999999998
166354.0,37893.599999999999,16924.099999999999,-311.53199999999998,1876.76,-3670.79,-19161.700000000001,3154.4699999999998
166355.0,38702.400000000001,15664.6,-120.81699999999999,4535.3199999999997,-3619.2199999999998,-20174.0,3662.5599999999999
166356.0,38737.0,14009.4,-66.2684,6899.4899999999998,-3233.0500000000002,-20629.599999999999,3823.46
166357.0,37861.099999999999,11003.299999999999,-840.82600000000002,8542.0599999999995,-2683.0599999999999,-20405.900000000001,3893.0900000000001
166358.0,37726.800000000003,8463.7399999999998,-1061.05,10658.299999999999,-2183.5900000000001,-20358.200000000001,4049.6799999999998
166359.0,37640.0,6377.8000000000002,-959.48599999999999,13326.200000000001,-1720.6099999999999,-20018.599999999999,4185.6099999999997
166360.0,36352.099999999999,4223.29,-1354.77,14621.0,-1365.23,-18844.5,4215.5299999999997
166361.0,34684.800000000003,2432.54,-1535.23,15626.700000000001,-1147.03,-17419.099999999999,3942.4499999999998
166362.0,33404.300000000003,1023.34,-1508.5999999999999,16860.599999999999,-1067.1500000000001,-16089.299999999999,3582.4299999999998
166363.0,32006.5,134.54599999999999,-1150.9300000000001,18303.5,-890.08299999999997,-14624.299999999999,2904.4000000000001
166364.0,30613.700000000001,-1408.24,-1648.49,18714.799999999999,-615.24800000000005,-13066.200000000001,2164.8899999999999
166365.0,35183.099999999999,20702.099999999999,511.06700000000001,-400.012,-4550.3199999999997,-15711.299999999999,1662.9000000000001
166366.0,37114.599999999999,19447.900000000001,361.71199999999999,844.87199999999996,-4398.3100000000004,-17789.799999999999,2216.0599999999999
166367.0,38389.099999999999,17921.599999999999,141.62700000000001,2885.4400000000001,-4193.29,-19339.400000000001,2832.2399999999998
166368.0,39307.099999999999,16717.099999999999,172.18799999999999,5310.3900000000003,-4092.04,-20385.700000000001,3314.7199999999998
166369.0,39714.900000000001,14957.700000000001,56.512799999999999,7651.2600000000002,-3705.5799999999999,-21083.700000000001,3461.8699999999999
166370.0,39559.900000000001,12507.799999999999,-287.57600000000002,9890.7700000000004,-3082.0900000000001,-21270.5,3745.8600000000001
166371.0,39683.199999999997,9823.8199999999997,-615.36199999999997,11749.5,-2687.7800000000002,-21396.599999999999,3951.8600000000001
166372.0,39787.300000000003,7524.9700000000003,-437.38099999999997,14512.0,-2358.1399999999999,-21201.799999999999,4080.6500000000001
166373.0,38895.400000000001,5418.8299999999999,-790.89499999999998,16206.200000000001,-1945.8399999999999,-20213.200000000001,4237.2200000000003
166374.0,37437.300000000003,3752.1999999999998,-1019.34,17406.099999999999,-1625.73,-18880.299999999999,4077.3600000000001
166375.0,36195.0,2042.0,-1176.54,18560.099999999999,-1530.1199999999999,-17553.700000000001,3754.6399999999999
166376.0,34719.400000000001,953.19600000000003,-910.827,20224.5,-1316.24,-15920.1,3114.8000000000002
166377.0,33349.400000000001,-522.88,-1492.25,20905.200000000001,-907.70600000000002,-14283.299999999999,2366.7600000000002
166378.0,35515.0,21520.900000000001,830.721,430.14600000000002,-5163.8599999999997,-15697.9,1355.8800000000001
166379.0,37300.300000000003,20286.5,627.22699999999998,1639.48,-4936.6099999999997,-17706.900000000001,1825.49
166380.0,38830.199999999997,18846.200000000001,393.98200000000003,3590.3499999999999,-4782.8900000000003,-19403.900000000001,2442.6399999999999
166381.0,39902.0,17884.599999999999,634.32399999999996,6284.3599999999997,-4615.1099999999997,-20573.200000000001,2970.3400000000001
166382.0,40593.699999999997,16004.5,316.21499999999997,8465.9200000000001,-4199.1199999999999,-21450.200000000001,3158.3499999999999
166383.0,41174.099999999999,13655.5,147.66499999999999,10854.4,-3642.6700000000001,-22106.099999999999,3511.4899999999998
166384.0,41582.599999999999,10865.299999999999,-282.92899999999997,12571.4,-3309.5799999999999,-22412.299999999999,3790.3600000000001
166385.0,41730.300000000003,8323.0499999999993,-302.96800000000002,15099.6,-3069.9899999999998,-22270.200000000001,3936.1900000000001
166386.0,41283.699999999997,6297.5100000000002,-501.20699999999999,17261.299999999999,-2617.48,-21540.0,4119.3000000000002
166387.0,40321.599999999999,4688.9200000000001,-731.68200000000002,18879.200000000001,-2178.4699999999998,-20448.599999999999,4061.6700000000001
166388.0,39195.099999999999,2743.29,-1145.6099999999999,20082.099999999999,-2044.8399999999999,-19125.299999999999,3794.3299999999999
166389.0,37804.199999999997,1662.6700000000001,-976.202,22115.599999999999,-1749.51,-17415.299999999999,3205.75
166390.0,36739.699999999997,389.59800000000001,-1456.96,23484.0,-1205.3099999999999,-15782.799999999999,2499.75
166391.0,36000.400000000001,22577.5,1213.0799999999999,1193.0899999999999,-5945.9899999999998,-15592.6,1112.71
166392.0,37522.900000000001,21408.700000000001,1101.6500000000001,2555.7199999999998,-5597.1599999999999,-17536.799999999999,1461.25
166393.0,39187.199999999997,20015.700000000001,819.83600000000001,4389.96,-5448.6999999999998,-19339.0,1990.49
166394.0,40635.199999999997,19196.5,1121.6800000000001,7023.5200000000004,-5231.8800000000001,-20779.099999999999,2512.5100000000002
166395.0,41881.5,17343.700000000001,824.07500000000005,9177.8400000000001,-4847.4300000000003,-22025.400000000001,2800.6700000000001
166396.0,42785.400000000001,14943.200000000001,688.29200000000003,11601.200000000001,-4410.8699999999999,-22912.0,3193.9200000000001
166397.0,43447.099999999999,12234.200000000001,286.65100000000001,13462.5,-4063.25,-23399.099999999999,3494.2600000000002
166398.0,43608.300000000003,9685.5499999999993,125.93899999999999,15982.9,-3785.48,-23289.5,3662.4299999999998
166399.0,43459.0,7633.9899999999998,-191.31899999999999,18330.5,-3274.5300000000002,-22765.799999999999,3755.7399999999998
166400.0,43201.099999999999,5960.8400000000001,-467.21100000000001,20458.700000000001,-2770.46,-22038.799999999999,3718.6399999999999
166401.0,42246.199999999997,3883.0300000000002,-1008.88,22092.400000000001,-2492.8699999999999,-20684.799999999999,3555.4400000000001
166402.0,41073.5,2732.8400000000001,-912.226,24600.099999999999,-2048.3200000000002,-18930.599999999999,3064.1700000000001
166403.0,40476.400000000001,1504.8099999999999,-1183.21,26698.299999999999,-1504.0799999999999,-17356.299999999999,2460.8400000000001
166404.0,36806.400000000001,23991.400000000001,1581.3,1919.0,-6732.8100000000004,-15510.0,873.16200000000003
166405.0,38017.300000000003,22610.0,1372.6099999999999,3250.9499999999998,-6354.8900000000003,-17373.599999999999,1149.8800000000001
166406.0,39520.5,21243.5,1083.6400000000001,5080.3999999999996,-6113.2799999999997,-19154.0,1560.3900000000001
166407.0,41294.900000000001,20462.400000000001,1266.3299999999999,7490.6099999999997,-5800.0100000000002,-20859.599999999999,1934.4300000000001
166408.0,43100.800000000003,18448.700000000001,789.93899999999996,9494.4699999999993,-5462.7399999999998,-22503.299999999999,2240.8099999999999
166409.0,44217.300000000003,15971.5,569.10400000000004,11898.4,-5092.6599999999999,-23550.099999999999,2736.25
166410.0,44926.699999999997,13351.5,212.12299999999999,14000.5,-4719.5600000000004,-24100.900000000001,3023.8099999999999
166411.0,45097.099999999999,10762.200000000001,-48.505699999999997,16788.700000000001,-4331.3699999999999,-24002.900000000001,3199.3899999999999
166412.0,45137.900000000001,8843.1700000000001,-260.52199999999999,19559.200000000001,-3727.0300000000002,-23580.299999999999,3286.0
166413.0,45261.800000000003,7101.8900000000003,-392.00299999999999,22243.599999999999,-3214.29,-23009.299999999999,3186.04
166414.0,44837.199999999997,5092.0299999999997,-664.05999999999995,24608.0,-2893.6199999999999,-21842.0,3038.4000000000001
166415.0,44393.099999999999,3968.3299999999999,-289.46499999999997,27758.599999999999,-2507.0799999999999,-20372.700000000001,2667.98
166416.0,44316.699999999997,2603.2600000000002,-284.327,30330.900000000001,-2147.54,-18960.0,2195.9899999999998
166417.0,37906.0,25650.599999999999,1992.04,2708.3899999999999,-7504.3699999999999,-15529.9,604.41600000000005
166418.0,38778.400000000001,24257.099999999999,1821.8399999999999,4215.0,-7135.5299999999997,-17258.0,840.95100000000002
166419.0,40114.699999999997,22980.099999999999,1600.8299999999999,6113.2200000000003,-6776.0799999999999,-19028.0,1195.8599999999999
166420.0,42008.900000000001,22029.099999999999,1720.1099999999999,8456.7399999999998,-6381.3599999999997,-20934.599999999999,1503.6600000000001
166421.0,43828.699999999997,19869.099999999999,1231.4000000000001,10569.200000000001,-6053.8000000000002,-22662.799999999999,1796.9100000000001
166422.0,45120.199999999997,17710.400000000001,1280.0699999999999,13285.200000000001,-5733.8000000000002,-23838.900000000001,2272.3699999999999
166423.0,45978.400000000001,15310.299999999999,1141.8,15833.5,-5418.5900000000001,-24484.099999999999,2522.3200000000002
166424.0,46340.800000000003,12941.5,1063.73,19104.599999999999,-5012.8000000000002,-24480.200000000001,2706.4400000000001
166425.0,46872.300000000003,11043.700000000001,981.52099999999996,22128.200000000001,-4509.4399999999996,-24336.200000000001,2805.6199999999999
166426.0,47369.599999999999,9240.8400000000001,1141.1700000000001,25306.099999999999,-4135.8199999999997,-23930.5,2629.0100000000002
166427.0,47455.900000000001,6854.5600000000004,843.80499999999995,28011.299999999999,-3790.3000000000002,-22955.5,2393.7199999999998
166428.0,47713.5,5105.6800000000003,1118.6900000000001,31242.700000000001,-3407.04,-21802.5,2037.55
166429.0,48160.5,3122.1399999999999,1301.49,33865.900000000001,-3166.0300000000002,-20626.400000000001,1688.01
166430.0,39238.900000000001,27410.700000000001,2455.0100000000002,3632.4000000000001,-8373.1599999999999,-15645.0,302.279
166431.0,39758.099999999999,25970.099999999999,2126.3899999999999,5187.96,-7892.25,-17204.400000000001,569.72299999999996
166432.0,41224.0,24810.700000000001,1907.23,6942.6000000000004,-7501.5200000000004,-19094.099999999999,865.19200000000001
166433.0,43214.099999999999,23578.799999999999,2010.9000000000001,9243.0400000000009,-7241.1099999999997,-21172.299999999999,1133.95
166434.0,44901.300000000003,21543.099999999999,1831.6700000000001,11700.299999999999,-7020.29,-22880.599999999999,1448.9300000000001
166435.0,46241.099999999999,19422.5,1897.3299999999999,14479.200000000001,-6789.3199999999997,-24119.0,1810.4000000000001
166436.0,47241.400000000001,16891.900000000001,1691.8900000000001,17323.200000000001,-6543.4399999999996,-24857.400000000001,1986.8299999999999
166437.0,47861.900000000001,14575.9,1676.9100000000001,20875.700000000001,-6135.8400000000001,-25010.700000000001,2151.1300000000001
166438.0,48717.300000000003,12548.700000000001,1664.75,24076.799999999999,-5683.4499999999998,-25073.400000000001,2130.0700000000002
166439.0,49609.300000000003,10275.6,1850.23,27508.5,-5340.8599999999997,-24845.599999999999,1865.24
166440.0,50241.300000000003,7416.5100000000002,1841.0,30597.599999999999,-4964.5799999999999,-24115.400000000001,1622.1700000000001
166441.0,51062.300000000003,5038.3999999999996,2467.0999999999999,33932.699999999997,-4600.2200000000003,-23261.299999999999,1267.03
166442.0,51928.400000000001,1732.28,2266.3400000000001,35815.300000000003,-4486.1199999999999,-22281.599999999999,1006.1799999999999
166443.0,40877.300000000003,29482.200000000001,3018.96,4751.6700000000001,-9317.75,-15843.4,-29.680800000000001
166444.0,41248.699999999997,28548.5,3143.77,6745.3500000000004,-8748.2600000000002,-17365.700000000001,306.64499999999998
166445.0,42786.199999999997,27183.400000000001,2841.0500000000002,8299.6299999999992,-8426.0,-19385.200000000001,527.93200000000002
166446.0,44602.199999999997,25899.400000000001,3103.6700000000001,10821.799999999999,-8307.8999999999996,-21427.099999999999,744.27800000000002
166447.0,46222.5,23891.400000000001,2967.9299999999998,13340.1,-8184.4200000000001,-23123.799999999999,1013.85
166448.0,47636.599999999999,22008.200000000001,3273.1799999999998,16465.200000000001,-8045.8100000000004,-24444.299999999999,1237.4000000000001
166449.0,48799.599999999999,19460.900000000001,3221.4200000000001,19744.200000000001,-7848.6599999999999,-25316.599999999999,1343.01
166450.0,49706.699999999997,17220.400000000001,3591.5599999999999,23829.700000000001,-7416.29,-25689.200000000001,1465.24
166451.0,50783.400000000001,14435.4,3358.1599999999999,26924.5,-6968.21,-25888.900000000001,1361.02
166452.0,51986.5,11663.9,3554.73,30497.599999999999,-6669.3000000000002,-25773.599999999999,1021.28
166453.0,53138.900000000001,7963.1199999999999,3110.8899999999999,33174.800000000003,-6322.0,-25304.299999999999,685.52200000000005
166454.0,54460.800000000003,4243.0200000000004,2828.5599999999999,35526.900000000001,-5977.7600000000002,-24722.200000000001,308.08100000000002
166455.0,55350.199999999997,176.13,2221.1900000000001,36972.599999999999,-5848.04,-23650.299999999999,200.78800000000001
166456.0,42903.300000000003,32031.299999999999,3638.5300000000002,5865.9700000000003,-10171.6,-16143.1,-463.97500000000002
166457.0,43536.5,30686.099999999999,3473.6599999999999,7342.2299999999996,-9763.8199999999997,-17881.200000000001,-57.525199999999998
166458.0,44896.5,29117.400000000001,3298.8200000000002,9048.6399999999994,-9637.6700000000001,-19880.900000000001,165.732
166459.0,46439.0,27644.099999999999,3451.02,11557.6,-9621.0799999999999,-21783.900000000001,348.94
166460.0,47949.099999999999,25828.900000000001,3503.6500000000001,14386.4,-9546.8500000000004,-23459.299999999999,509.86900000000003
166461.0,49375.400000000001,23712.5,3518.1399999999999,17485.299999999999,-9445.2600000000002,-24822.799999999999,559.58799999999997
166462.0,50741.5,20943.700000000001,3243.8800000000001,20837.299999999999,-9264.9599999999991,-25852.200000000001,506.56900000000002
166463.0,52105.800000000003,18127.700000000001,3294.9200000000001,24792.599999999999,-8878.1000000000004,-26549.400000000001,466.13400000000001
166464.0,53491.300000000003,14862.6,3093.54,28273.599999999999,-8486.3600000000006,-26886.799999999999,342.81599999999997
166465.0,54641.900000000001,11574.700000000001,3098.25,31892.900000000001,-8069.4499999999998,-26667.400000000001,93.837699999999998
166466.0,55705.800000000003,7994.6899999999996,3038.98,34959.199999999997,-7452.1300000000001,-26147.5,-251.36000000000001
166467.0,56988.5,4289.6199999999999,3087.5100000000002,37538.699999999997,-6981.8299999999999,-25518.599999999999,-561.94299999999998
166468.0,57677.400000000001,632.20500000000004,3191.1599999999999,39427.699999999997,-6937.9899999999998,-24284.0,-512.351
166469.0,45183.300000000003,34701.699999999997,4025.73,6865.1899999999996,-10867.4,-16552.0,-1056.3800000000001
166470.0,46247.0,33892.800000000003,4381.0299999999997,8663.0400000000009,-10821.700000000001,-18466.799999999999,-701.51900000000001
166471.0,47493.400000000001,32199.599999999999,4279.3900000000003,10433.700000000001,-10906.4,-20434.099999999999,-423.71199999999999
166472.0,48861.199999999997,31096.5,4799.29,13441.9,-10933.5,-22283.200000000001,-260.45299999999997
166473.0,50230.099999999999,29047.599999999999,4634.04,16358.299999999999,-10896.4,-23941.0,-194.30600000000001
166474.0,51476.800000000003,27228.900000000001,4975.3000000000002,20206.599999999999,-10732.799999999999,-25270.599999999999,-260.375
166475.0,52776.199999999997,24661.900000000001,5062.04,24260.5,-10413.700000000001,-26349.900000000001,-443.40699999999998
166476.0,54211.800000000003,21715.700000000001,5336.6400000000003,28756.200000000001,-9945.7999999999993,-27128.400000000001,-617.89499999999998
166477.0,55649.0,17562.900000000001,4733.5799999999999,32169.299999999999,-9544.4200000000001,-27426.599999999999,-716.00999999999999
166478.0,56992.199999999997,14499.9,5578.0500000000002,36478.0,-9223.8500000000004,-27276.400000000001,-844.13800000000003
166479.0,58408.099999999999,10577.0,5982.1099999999997,39540.400000000001,-8968.3099999999995,-26918.200000000001,-1061.98
166480.0,59753.5,6433.1499999999996,6205.6800000000003,41790.800000000003,-9050.2199999999993,-26218.0,-1204.8
166481.0,60135.800000000003,3158.9099999999999,6948.2299999999996,43765.0,-9526.7999999999993,-24703.0,-1151.29
166482.0,47453.599999999999,37144.300000000003,4653.5,7986.3900000000003,-11588.1,-17161.0,-1529.1600000000001
166483.0,48456.5,35644.300000000003,4194.6800000000003,9011.1000000000004,-11658.200000000001,-18929.099999999999,-1232.9200000000001
166484.0,49669.900000000001,34224.400000000001,4165.1599999999999,11049.0,-11870.1,-20795.200000000001,-1010.58
166485.0,50999.400000000001,32987.800000000003,4424.7399999999998,14107.4,-11988.299999999999,-22613.0,-948.40899999999999
166486.0,52296.800000000003,31389.099999999999,4731.6999999999998,17851.0,-12061.1,-24239.099999999999,-988.08299999999997
166487.0,53580.300000000003,29439.0,5127.71,22071.799999999999,-11991.799999999999,-25620.700000000001,-1150.02
166488.0,55225.900000000001,26643.299999999999,5301.3100000000004,26329.400000000001,-11855.200000000001,-26915.400000000001,-1421.72
166489.0,57059.099999999999,22982.900000000001,5615.2399999999998,30828.900000000001,-11710.799999999999,-27910.200000000001,-1624.1099999999999
166490.0,58640.699999999997,19284.900000000001,6479.6300000000001,35452.0,-11555.799999999999,-28266.099999999999,-1715.6900000000001
166491.0,60207.699999999997,15277.9,7236.9200000000001,39161.099999999999,-11472.4,-28242.200000000001,-1838.23
166492.0,61841.5,10980.200000000001,7902.4099999999999,42055.699999999997,-11617.5,-27914.400000000001,-1916.23
166493.0,62931.800000000003,6936.5799999999999,8417.4799999999996,44380.5,-12060.200000000001,-26863.900000000001,-1850.1500000000001
166494.0,62673.800000000003,4030.4899999999998,9292.2399999999998,46184.599999999999,-12667.4,-24864.099999999999,-1740.45
166495.0,49601.400000000001,39318.5,5239.2299999999996,9206.6100000000006,-12561.0,-17638.799999999999,-1970.3699999999999
166496.0,50794.199999999997,40006.0,6490.2200000000003,11922.0,-12924.5,-19138.299999999999,-1764.3
166497.0,52248.199999999997,38876.099999999999,6378.3000000000002,14028.799999999999,-13224.6,-21058.799999999999,-1709.9200000000001
166498.0,53773.300000000003,38285.400000000001,7320.9300000000003,17967.5,-13511.299999999999,-23037.5,-1755.8199999999999
166499.0,55255.400000000001,36430.699999999997,7603.8199999999997,21902.200000000001,-13736.4,-24854.299999999999,-1882.46
166500.0,56692.5,34684.400000000001,8703.4200000000001,26958.400000000001,-13795.6,-26431.599999999999,-2099.1700000000001
166501.0,58651.699999999997,31843.5,9551.3500000000004,31763.299999999999,-13854.200000000001,-27998.700000000001,-2399.3400000000001
166502.0,60667.699999999997,28136.400000000001,10767.799999999999,36933.699999999997,-14001.799999999999,-29096.400000000001,-2630.7600000000002
166503.0,62367.300000000003,22627.599999999999,10974.4,40352.099999999999,-14022.4,-29552.0,-2788.6599999999999
166504.0,64057.300000000003,17268.400000000001,11701.6,43353.400000000001,-14104.9,-29589.900000000001,-2779.54
166505.0,65455.400000000001,11368.9,11612.4,45032.300000000003,-14436.5,-28953.0,-2532.8299999999999
166506.0,66069.199999999997,6441.5299999999997,11373.200000000001,46384.699999999997,-14941.299999999999,-27431.599999999999,-2246.25
166507.0,65254.800000000003,3806.4899999999998,12394.700000000001,48138.900000000001,-15430.799999999999,-24987.400000000001,-2030.1099999999999
166508.0,127296.0,16872.0,-6550.1999999999998,-31744.799999999999,-41139.800000000003,40695.199999999997,-38232.400000000001
166509.0,121873.0,24649.700000000001,-9285.7199999999993,7359.46,-46203.599999999999,39698.0,-30860.599999999999
166510.0,116302.0,27382.900000000001,-11210.4,14984.200000000001,-43273.699999999997,45885.199999999997,-11932.9
166511.0,103870.0,26807.599999999999,-6531.5200000000004,-6687.6199999999999,-29894.799999999999,48274.0,-173.01499999999999
166512.0,90045.0,32558.400000000001,1604.8,-21041.0,-16566.700000000001,41133.300000000003,-3510.4200000000001
166513.0,77986.800000000003,39000.199999999997,4819.2399999999998,-19114.099999999999,-11251.299999999999,31355.200000000001,-8031.4399999999996
166514.0,68410.300000000003,42761.199999999997,5471.79,-12434.0,-9796.6599999999999,24342.900000000001,-8859.9699999999993
166515.0,60689.400000000001,44186.300000000003,5504.6099999999997,-5852.0600000000004,-9024.5400000000009,19580.599999999999,-8643.5
166516.0,54575.300000000003,42655.5,4397.0200000000004,-2257.0,-8634.8700000000008,16334.4,-7995.3299999999999
166517.0,49777.199999999997,40521.300000000003,3920.0100000000002,-111.444,-8338.0599999999995,14190.700000000001,-7339.5600000000004
166518.0,45736.599999999999,37616.5,3328.8200000000002,622.98500000000001,-8196.7199999999993,12705.4,-6589.0900000000001
166519.0,42268.599999999999,34520.800000000003,2609.6500000000001,421.58600000000001,-7971.8000000000002,11539.299999999999,-5876.3000000000002
166520.0,39095.300000000003,31399.099999999999,1983.71,-227.65600000000001,-7552.8999999999996,10575.200000000001,-5372.6800000000003
166521.0,36008.900000000001,28701.700000000001,1809.73,-580.83900000000006,-7131.96,9676.8400000000001,-4828.4899999999998
166522.0,33091.900000000001,26038.700000000001,1432.6600000000001,-1132.6900000000001,-6650.5699999999997,8800.1800000000003,-4277.3699999999999
166523.0,30359.099999999999,23520.299999999999,1060.3199999999999,-1688.77,-6118.6800000000003,8016.3299999999999,-3778.0700000000002
166524.0,27828.799999999999,21234.0,797.53599999999994,-2203.0,-5548.6000000000004,7298.5799999999999,-3381.4299999999998
166525.0,25370.200000000001,19241.799999999999,869.38900000000001,-2423.5599999999999,-5064.3400000000001,6638.3000000000002,-2922.0
166526.0,23171.099999999999,17147.0,643.81899999999996,-2920.6500000000001,-4764.1400000000003,5943.3299999999999,-2513.5100000000002
166527.0,21588.599999999999,15667.299999999999,477.64299999999997,-3549.96,-4375.1499999999996,5357.0500000000002,-2192.6799999999998
166528.0,20188.5,14408.299999999999,384.07799999999997,-3882.8200000000002,-3913.5799999999999,5088.3000000000002,-1753.95
166529.0,18673.900000000001,12960.4,218.63300000000001,-4008.3699999999999,-3580.9699999999998,4856.3900000000003,-1343.21
166530.0,17215.700000000001,11514.200000000001,25.1782,-4207.2299999999996,-3301.77,4544.9300000000003,-1027.73
166531.0,15861.5,10245.299999999999,-90.710300000000004,-4311.6099999999997,-3020.6799999999998,4248.9300000000003,-770.06200000000001
166532.0,14700.700000000001,9124.7199999999993,-220.31,-4433.8000000000002,-2778.52,3975.8899999999999,-596.505
166533.0,13798.5,8364.6399999999994,-201.62700000000001,-4441.1700000000001,-2558.8099999999999,3763.0,-448.55399999999997
166534.0,13010.700000000001,7758.7399999999998,-136.39400000000001,-4320.5100000000002,-2363.6399999999999,3624.23,-281.26299999999998
166535.0,12264.5,7071.0,-181.363,-4273.7799999999997,-2226.0599999999999,3486.3400000000001,-145.494
166536.0,11620.0,6467.54,-222.101,-4295.3400000000001,-2102.21,3325.0300000000002,-52.800400000000003
166537.0,11037.299999999999,5970.5500000000002,-212.50899999999999,-4249.3599999999997,-1975.03,3195.3000000000002,29.048200000000001
166538.0,10494.200000000001,5493.3999999999996,-236.40899999999999,-4195.79,-1861.53,3082.71,96.809700000000007
166539.0,10035.200000000001,5091.8999999999996,-241.76300000000001,-4136.2399999999998,-1761.5,2997.0999999999999,144.78399999999999
166540.0,9655.1399999999994,4706.5600000000004,-275.05900000000003,-4117.29,-1677.1900000000001,2941.8499999999999,182.01499999999999
166541.0,9312.0200000000004,4414.6300000000001,-246.13800000000001,-4026.1999999999998,-1602.74,2900.3099999999999,217.78700000000001
166542.0,8980.9500000000007,4130.9499999999998,-227.43899999999999,-3929.48,-1537.9200000000001,2859.6399999999999,254.066
166543.0,8672.3899999999994,3871.3099999999999,-201.554,-3837.9699999999998,-1485.0799999999999,2812.54,283.05599999999998
166544.0,8402.9300000000003,3608.4200000000001,-210.93000000000001,-3805.0500000000002,-1438.6099999999999,2762.1700000000001,305.173
166545.0,8175.3599999999997,3445.4400000000001,-157.852,-3721.6300000000001,-1394.6500000000001,2717.7600000000002,325.17700000000002
166546.0,7981.8999999999996,3279.2800000000002,-138.13499999999999,-3673.52,-1357.71,2680.9000000000001,346.065
166547.0,7814.6700000000001,3148.8000000000002,-105.14700000000001,-3618.0900000000001,-1326.9100000000001,2647.1199999999999,367.62799999999999
166548.0,7666.7600000000002,2996.23,-116.254,-3609.5999999999999,-1297.6199999999999,2614.6300000000001,389.40199999999999
166549.0,7538.5200000000004,2910.7399999999998,-77.049800000000005,-3557.1100000000001,-1269.8099999999999,2585.4899999999998,409.166
166550.0,7425.3400000000001,2781.9499999999998,-98.528700000000001,-3568.73,-1245.3900000000001,2555.3099999999999,431.50900000000001
166551.0,7324.7600000000002,2737.4400000000001,-42.810099999999998,-3514.7199999999998,-1221.27,2524.2199999999998,456.702
166552.0,7231.6700000000001,2602.6500000000001,-81.028000000000006,-3565.25,-1198.26,2489.77,483.14100000000002
166553.0,7142.3299999999999,2558.2800000000002,-37.5505,-3544.0,-1170.1099999999999,2449.7600000000002,505.24799999999999
166554.0,7065.8999999999996,2427.73,-90.048599999999993,-3623.8200000000002,-1134.27,2416.0500000000002,526.37800000000004
166555.0,7032.0900000000001,2412.52,-29.012799999999999,-3612.1599999999999,-1096.73,2406.6900000000001,552.88900000000001
166556.0,7057.4399999999996,2270.3000000000002,-97.641499999999994,-3752.9099999999999,-1072.1099999999999,2430.02,583.29700000000003
166557.0,7119.0100000000002,2281.6300000000001,-1.5562499999999999,-3755.0500000000002,-1067.5,2469.1300000000001,605.56500000000005
166558.0,7184.6499999999996,2168.21,-47.382800000000003,-3900.1700000000001,-1068.0799999999999,2494.4400000000001,643.19500000000005
166559.0,7228.1999999999998,2157.1799999999998,-34.345399999999998,-3934.5999999999999,-1063.5599999999999,2515.5500000000002,660.08900000000006
166560.0,7367.0200000000004,2171.4200000000001,46.032200000000003,-4032.0999999999999,-1077.1700000000001,2555.6799999999998,678.62300000000005
166561.0,7593.7600000000002,2215.0599999999999,9.6656899999999997,-4111.7600000000002,-1134.53,2596.9099999999999,936.76199999999994
166562.0,172422.0,71760.800000000003,-13874.799999999999,18425.099999999999,-71233.5,38631.800000000003,-38378.400000000001
166563.0,162829.0,68536.0,-22344.700000000001,35101.400000000001,-65829.699999999997,47200.099999999999,-12786.299999999999
166564.0,139080.0,55431.599999999999,-18137.799999999999,5675.0,-47215.599999999999,51945.599999999999,10529.6
166565.0,114107.0,44408.199999999997,-6139.9200000000001,-30043.799999999999,-25955.200000000001,46023.900000000001,10165.299999999999
166566.0,94705.699999999997,44161.599999999999,3234.3299999999999,-35737.099999999999,-14600.200000000001,34349.300000000003,-643.06100000000004
166567.0,79200.600000000006,46543.5,6528.3000000000002,-25266.200000000001,-11501.9,25092.900000000001,-5846.0799999999999
166568.0,68188.199999999997,48319.099999999999,7384.8199999999997,-14552.9,-10655.5,19156.299999999999,-7146.7399999999998
166569.0,60416.400000000001,47019.199999999997,5726.7299999999996,-8259.7399999999998,-10040.200000000001,15430.5,-7192.54
166570.0,54294.5,44751.699999999997,4540.5600000000004,-4053.9099999999999,-9395.2800000000007,13041.799999999999,-6743.3199999999997
166571.0,49213.800000000003,41768.300000000003,3748.1399999999999,-1650.9200000000001,-8865.9699999999993,11343.9,-6329.2299999999996
166572.0,44805.599999999999,38757.5,3469.3200000000002,-45.543799999999997,-8670.9400000000005,10095.5,-5614.9499999999998
166573.0,41035.400000000001,35111.400000000001,2460.5700000000002,-158.32300000000001,-8414.1000000000004,8902.6800000000003,-5009.6999999999998
166574.0,37541.599999999999,31907.700000000001,2012.01,-540.13599999999997,-7874.0699999999997,7860.8500000000004,-4524.8299999999999
166575.0,34229.400000000001,28912.299999999999,1664.5999999999999,-1032.8199999999999,-7253.5299999999997,6899.96,-3990.3600000000001
166576.0,31214.799999999999,26177.5,1373.48,-1557.6700000000001,-6632.6800000000003,6035.75,-3490.9099999999999
166577.0,28524.0,23537.099999999999,922.19299999999998,-2265.6300000000001,-5991.7200000000003,5286.4300000000003,-3076.1500000000001
166578.0,26138.599999999999,21290.5,733.09799999999996,-2775.2800000000002,-5354.4099999999999,4698.1800000000003,-2826.0100000000002
166579.0,24064.0,19358.599999999999,708.12,-3125.9899999999998,-4867.96,4314.1300000000001,-2456.3600000000001
166580.0,22055.099999999999,17556.799999999999,647.92600000000004,-3313.8899999999999,-4441.7200000000003,3955.75,-1975.22
166581.0,20185.099999999999,15546.799999999999,312.62099999999998,-3782.9299999999998,-4062.6900000000001,3604.8099999999999,-1601.49
166582.0,18755.0,13954.5,117.94799999999999,-4302.3500000000004,-3700.1300000000001,3330.7399999999998,-1322.27
166583.0,17482.0,12586.200000000001,3.8586399999999998,-4631.54,-3336.5900000000001,3202.9200000000001,-1051.8399999999999
166584.0,16310.0,11391.6,-52.030500000000004,-4800.7200000000003,-3030.5900000000001,3091.8099999999999,-803.01599999999996
166585.0,15315.9,10345.700000000001,-125.878,-4946.5100000000002,-2787.1700000000001,2995.79,-570.39300000000003
166586.0,14409.9,9467.4799999999996,-152.73400000000001,-4981.3900000000003,-2575.1399999999999,2890.0,-354.70400000000001
166587.0,13570.9,8612.8700000000008,-250.547,-5033.2200000000003,-2388.8200000000002,2776.6500000000001,-177.404
166588.0,12884.1,7857.8400000000001,-358.24599999999998,-5118.8100000000004,-2229.1399999999999,2696.04,-44.880499999999998
166589.0,12274.6,7287.6000000000004,-333.375,-5052.6499999999996,-2098.4699999999998,2653.4000000000001,75.081400000000002
166590.0,11677.6,6719.3299999999999,-342.30500000000001,-4988.6000000000004,-1981.1800000000001,2597.1900000000001,172.18600000000001
166591.0,11133.5,6206.2200000000003,-354.72399999999999,-4931.9200000000001,-1860.03,2540.7800000000002,246.23699999999999
166592.0,10643.799999999999,5765.1599999999999,-336.22699999999998,-4837.3100000000004,-1755.6700000000001,2504.0900000000001,307.27300000000002
166593.0,10192.799999999999,5334.6899999999996,-334.79500000000002,-4764.4499999999998,-1676.3699999999999,2463.0599999999999,357.72300000000001
166594.0,9779.9599999999991,4960.7200000000003,-312.53500000000003,-4683.6999999999998,-1605.0699999999999,2413.5900000000001,399.20699999999999
166595.0,9421.3899999999994,4621.8199999999997,-306.37299999999999,-4626.7299999999996,-1534.76,2373.29,429.90300000000002
166596.0,9121.6399999999994,4343.8400000000001,-282.15499999999997,-4554.6199999999999,-1473.3199999999999,2356.48,452.798
166597.0,8859.8099999999995,4102.8100000000004,-249.589,-4469.1800000000003,-1427.25,2351.2399999999998,478.37
166598.0,8615.5300000000007,3886.7399999999998,-220.935,-4374.9200000000001,-1392.77,2341.5,506.029
166599.0,8388.0100000000002,3670.7399999999998,-218.18000000000001,-4305.8000000000002,-1363.0899999999999,2324.9200000000001,529.18600000000004
166600.0,8178.2200000000003,3466.48,-227.16399999999999,-4254.3900000000003,-1333.5699999999999,2302.6900000000001,548.995
166601.0,7989.9300000000003,3321.4099999999999,-198.34800000000001,-4175.3800000000001,-1304.1199999999999,2278.6500000000001,564.61099999999999
166602.0,7830.8500000000004,3186.6900000000001,-183.25899999999999,-4124.5,-1278.95,2254.0700000000002,577.625
166603.0,7698.6300000000001,3099.4499999999998,-147.42599999999999,-4064.9000000000001,-1255.74,2227.5,590.07500000000005
166604.0,7592.6400000000003,3024.6500000000001,-122.048,-4026.0599999999999,-1232.5699999999999,2203.8299999999999,603.36699999999996
166605.0,7516.5500000000002,2961.0599999999999,-105.837,-4010.5,-1212.1800000000001,2184.4899999999998,618.32000000000005
166606.0,7465.1999999999998,2900.6399999999999,-104.086,-4025.8299999999999,-1194.1099999999999,2164.96,631.976
166607.0,7437.1000000000004,2901.5599999999999,-58.238300000000002,-4013.5900000000001,-1175.6400000000001,2143.3699999999999,650.53399999999999
166608.0,7434.5100000000002,2875.6700000000001,-54.038600000000002,-4058.0599999999999,-1153.03,2124.6100000000001,682.02800000000002
166609.0,7457.1800000000003,2879.6399999999999,-14.051500000000001,-4087.25,-1125.02,2116.8899999999999,734.36599999999999
166610.0,7483.96,2739.0999999999999,-94.505200000000002,-4249.9200000000001,-1094.4400000000001,2118.6100000000001,791.46400000000006
166611.0,7514.0699999999997,2667.5999999999999,-89.156700000000001,-4345.1999999999998,-1058.5899999999999,2127.0700000000002,832.596
166612.0,7584.1199999999999,2595.4299999999998,-83.719999999999999,-4456.0500000000002,-1037.1199999999999,2163.04,865.35599999999999
166613.0,7657.4200000000001,2573.23,-82.870199999999997,-4506.7399999999998,-1051.1700000000001,2204.2600000000002,888.65899999999999
166614.0,7730.0699999999997,2506.3000000000002,-90.443600000000004,-4625.2799999999997,-1064.26,2237.8800000000001,865.68399999999997
166615.0,7873.8500000000004,2747.6700000000001,205.50800000000001,-4312.1899999999996,-1191.3599999999999,2317.0999999999999,1044.98
166616.0,221998.0,132251.0,-45117.199999999997,55013.800000000003,-80761.899999999994,43710.400000000001,-9281.2800000000007
166617.0,181114.0,105280.0,-40657.0,20532.900000000001,-53896.5,47124.300000000003,20925.599999999999
166618.0,141327.0,69911.199999999997,-25494.299999999999,-33489.300000000003,-30728.200000000001,41165.800000000003,26633.299999999999
166619.0,112729.0,53704.599999999999,-6415.4200000000001,-52793.099999999999,-16735.299999999999,31060.799999999999,11829.6
166620.0,91460.100000000006,51312.400000000001,2825.8400000000001,-41396.400000000001,-12220.799999999999,22106.900000000001,-85.675200000000004
166621.0,75926.600000000006,51443.199999999997,6381.79,-25323.5,-11409.799999999999,16834.799999999999,-4458.3900000000003
166622.0,65731.199999999997,50844.800000000003,6985.5600000000004,-14083.0,-11179.5,13477.6,-6031.7600000000002
166623.0,58824.099999999999,48025.699999999997,5208.4700000000003,-8640.8199999999997,-10822.0,11262.700000000001,-6062.8900000000003
166624.0,53266.5,45240.599999999999,4068.73,-5111.0600000000004,-10055.700000000001,9620.6100000000006,-5743.3599999999997
166625.0,48136.0,42122.300000000003,3501.6100000000001,-2591.4000000000001,-9188.5599999999995,8350.8299999999999,-5494.9200000000001
166626.0,43492.5,39021.599999999999,3585.3400000000001,-429.89299999999997,-8910.8099999999995,7480.6000000000004,-4877.7600000000002
166627.0,39785.599999999999,35455.300000000003,2680.29,-276.72199999999998,-8622.6399999999994,6413.4799999999996,-4343.0
166628.0,36411.199999999997,32366.200000000001,2232.1799999999998,-544.87800000000004,-7971.0799999999999,5534.7600000000002,-3821.23
166629.0,33329.900000000001,29414.700000000001,1750.8199999999999,-1143.2,-7247.6000000000004,4732.6599999999999,-3285.3699999999999
166630.0,30419.5,26754.799999999999,1498.53,-1628.1300000000001,-6524.7299999999996,4004.3800000000001,-2762.9699999999998
166631.0,27738.099999999999,23863.0,817.38,-2450.8400000000001,-5867.9499999999998,3305.48,-2325.8000000000002
166632.0,25212.099999999999,21618.900000000001,716.18799999999999,-2789.0799999999999,-5099.7399999999998,2697.46,-2106.7600000000002
166633.0,22767.299999999999,19209.400000000001,583.33399999999995,-3095.0100000000002,-4541.3400000000001,2403.3000000000002,-1841.5999999999999
166634.0,20981.599999999999,17271.700000000001,389.24200000000002,-3558.9699999999998,-4172.9200000000001,2128.0300000000002,-1542.9400000000001
166635.0,19423.700000000001,15591.4,226.023,-3993.6799999999998,-3750.48,1988.3900000000001,-1222.0699999999999
166636.0,17972.900000000001,13991.9,80.228700000000003,-4410.0600000000004,-3361.3099999999999,1857.0999999999999,-934.18799999999999
166637.0,16831.200000000001,12643.5,-55.375700000000002,-4848.4499999999998,-3024.0500000000002,1758.7,-701.19000000000005
166638.0,15874.9,11523.700000000001,-118.824,-5155.2600000000002,-2737.5700000000002,1756.1900000000001,-492.37700000000001
166639.0,15012.4,10524.6,-162.40100000000001,-5329.8999999999996,-2540.1500000000001,1789.8,-297.56200000000001
166640.0,14291.6,9671.3600000000006,-217.39099999999999,-5456.5,-2396.1799999999998,1820.3800000000001,-116.22499999999999
166641.0,13641.0,8940.7299999999996,-239.37799999999999,-5498.25,-2273.02,1857.9200000000001,69.101299999999995
166642.0,12975.0,8232.6200000000008,-280.07299999999998,-5499.3800000000001,-2148.5,1842.5899999999999,244.69900000000001
166643.0,12332.4,7504.25,-391.00099999999998,-5561.2200000000003,-2003.45,1804.1500000000001,363.33100000000002
166644.0,11781.700000000001,6914.9899999999998,-420.27199999999999,-5573.2700000000004,-1869.75,1787.47,438.351
166645.0,11307.799999999999,6420.2399999999998,-421.69099999999997,-5554.8599999999997,-1766.0899999999999,1777.3599999999999,500.03300000000002
166646.0,10866.4,5980.9200000000001,-417.16000000000003,-5502.0600000000004,-1677.0899999999999,1770.1099999999999,552.50300000000004
166647.0,10447.4,5598.9099999999999,-386.07299999999998,-5400.6199999999999,-1596.9000000000001,1774.49,598.26800000000003
166648.0,10068.299999999999,5230.7700000000004,-374.63999999999999,-5316.8999999999996,-1526.49,1789.21,639.63099999999997
166649.0,9724.7800000000007,4884.5600000000004,-367.33199999999999,-5241.7399999999998,-1467.1900000000001,1806.97,677.19100000000003
166650.0,9405.6900000000005,4560.5600000000004,-365.25999999999999,-5176.2799999999997,-1412.2,1812.4200000000001,712.19100000000003
166651.0,9108.8299999999999,4262.3999999999996,-365.32100000000003,-5111.1599999999999,-1357.28,1816.5,740.25599999999997
166652.0,8841.7000000000007,4017.4099999999999,-339.95600000000002,-5019.9700000000003,-1312.72,1826.47,756.37699999999995
166653.0,8608.9799999999996,3824.9899999999998,-295.221,-4913.1999999999998,-1281.5999999999999,1834.1600000000001,767.19299999999998
166654.0,8412.25,3686.1999999999998,-233.923,-4794.54,-1259.1199999999999,1838.74,779.32399999999996
166655.0,8246.0200000000004,3528.9499999999998,-226.47499999999999,-4733.2399999999998,-1239.6600000000001,1839.7,794.596
166656.0,8097.8199999999997,3414.9200000000001,-202.08099999999999,-4655.2200000000003,-1218.96,1837.8699999999999,809.01900000000001
166657.0,7971.4300000000003,3290.98,-208.36199999999999,-4616.25,-1200.7,1835.8099999999999,818.23299999999995
166658.0,7874.5600000000004,3207.0500000000002,-193.51900000000001,-4574.1400000000003,-1189.98,1832.05,824.81299999999999
166659.0,7805.1300000000001,3137.21,-180.56299999999999,-4551.5299999999997,-1186.78,1825.4000000000001,833.35699999999997
166660.0,7762.8699999999999,3102.6999999999998,-152.70500000000001,-4530.0699999999997,-1184.76,1817.3699999999999,843.30899999999997
166661.0,7757.9399999999996,3057.96,-151.809,-4560.1599999999999,-1178.8099999999999,1818.2,858.95000000000005
166662.0,7796.7200000000003,3032.8299999999999,-141.953,-4608.3299999999999,-1171.9300000000001,1835.4400000000001,885.92700000000002
166663.0,7887.8000000000002,2987.52,-151.98500000000001,-4717.0200000000004,-1168.6099999999999,1870.03,931.18899999999996
166664.0,8017.9799999999996,2948.0100000000002,-156.77000000000001,-4849.7700000000004,-1168.5699999999999,1909.9400000000001,1002.1799999999999
166665.0,8143.9300000000003,2887.27,-183.36199999999999,-4997.0299999999997,-1159.95,1938.5599999999999,1100.27
166666.0,8189.1000000000004,2707.3800000000001,-296.07900000000001,-5182.3999999999996,-1144.3599999999999,1946.8199999999999,1181.75
166667.0,8116.4099999999999,2647.96,-241.49000000000001,-5119.54,-1136.22,1917.77,1255.7
166668.0,7926.9200000000001,2416.9000000000001,-336.392,-5162.5500000000002,-1095.8800000000001,1846.3800000000001,1270.9100000000001
166669.0,7560.4899999999998,2242.5500000000002,-320.23000000000002,-4912.1999999999998,-1074.48,1786.3599999999999,1251.9300000000001
166670.0,217558.0,155067.0,-65406.300000000003,29089.599999999999,-37999.699999999997,30403.0,34264.599999999999
166671.0,161602.0,98491.699999999997,-42076.699999999997,-32679.099999999999,-21182.400000000001,23674.5,38990.800000000003
166672.0,124398.0,67766.0,-15607.200000000001,-58732.199999999997,-13435.6,16708.299999999999,23731.900000000001
166673.0,99396.899999999994,55952.900000000001,-1099.77,-52751.599999999999,-11142.700000000001,12688.5,7175.7799999999997
166674.0,81582.600000000006,55173.0,5914.1499999999996,-33763.900000000001,-11171.4,10372.4,-1043.76
166675.0,69368.899999999994,53782.400000000001,7299.5500000000002,-19407.099999999999,-11427.200000000001,9047.0900000000001,-4451.3000000000002
166676.0,61666.5,51586.800000000003,7000.7200000000003,-10941.4,-11684.799999999999,8025.0799999999999,-5481.6400000000003
166677.0,56191.400000000001,47932.0,5257.3900000000003,-7433.4099999999999,-11444.4,7175.1400000000003,-5364.7700000000004
166678.0,51599.599999999999,44704.800000000003,3867.3800000000001,-5324.0100000000002,-10696.6,6259.6000000000004,-4972.9099999999999
166679.0,46997.400000000001,41958.699999999997,3325.6300000000001,-3142.9299999999998,-9479.4699999999993,5445.6499999999996,-4688.8000000000002
166680.0,42191.599999999999,38873.599999999999,3462.9000000000001,-715.54999999999995,-8811.6200000000008,4990.2299999999996,-4208.9200000000001
166681.0,38664.5,35215.699999999997,2579.5599999999999,-496.97899999999998,-8614.7600000000002,4235.2299999999996,-3807.8099999999999
166682.0,35831.800000000003,32298.299999999999,2053.4699999999998,-1023.39,-8096.2700000000004,3488.3499999999999,-3340.9000000000001
166683.0,33019.0,29311.5,1431.3299999999999,-1848.24,-7381.46,2826.9000000000001,-2788.5500000000002
166684.0,30372.200000000001,26771.700000000001,1164.8900000000001,-2432.6900000000001,-6627.75,2189.6700000000001,-2275.3699999999999
166685.0,27756.799999999999,24074.5,686.39599999999996,-3064.46,-5899.2399999999998,1602.2,-1783.1600000000001
166686.0,25335.0,21804.0,321.00799999999998,-3483.0999999999999,-4994.6800000000003,996.87699999999995,-1452.4400000000001
166687.0,22771.900000000001,19580.799999999999,268.22199999999998,-3515.2399999999998,-4150.1700000000001,824.88699999999994,-1223.4400000000001
166688.0,20580.700000000001,17376.799999999999,224.25700000000001,-3674.3000000000002,-3766.5,741.87400000000002,-1012.25
166689.0,19185.400000000001,15599.700000000001,6.6633100000000001,-4277.1000000000004,-3498.5799999999999,592.524,-819.81299999999999
166690.0,18039.299999999999,14221.0,-63.776000000000003,-4757.4700000000003,-3168.3600000000001,612.21900000000005,-590.09199999999998
166691.0,16968.200000000001,12869.1,-206.40600000000001,-5195.3999999999996,-2897.96,658.55399999999997,-333.08699999999999
166692.0,16003.5,11663.1,-340.77800000000002,-5552.4700000000003,-2639.8499999999999,673.16700000000003,-97.606499999999997
166693.0,15072.4,10598.700000000001,-417.012,-5740.9099999999999,-2395.0799999999999,729.822,106.90000000000001
166694.0,14228.1,9667.6700000000001,-446.61799999999999,-5830.1300000000001,-2209.29,794.27099999999996,238.684
166695.0,13560.299999999999,8917.1700000000001,-416.31200000000001,-5885.8400000000001,-2094.21,877.36099999999999,334.58499999999998
166696.0,13083.299999999999,8296.4300000000003,-432.68900000000002,-5992.8000000000002,-2013.9000000000001,958.22799999999995,448.40100000000001
166697.0,12679.700000000001,7796.54,-433.42000000000002,-6048.8100000000004,-1929.1800000000001,1022.55,575.56100000000004
166698.0,12248.0,7277.6800000000003,-469.39400000000001,-6089.3000000000002,-1832.26,1048.9300000000001,707.726
166699.0,11761.9,6779.5699999999997,-488.673,-6049.1599999999999,-1716.0599999999999,1054.4100000000001,818.90300000000002
166700.0,11269.1,6301.7299999999996,-501.28199999999998,-5987.1599999999999,-1584.8099999999999,1065.8,885.82899999999995
166701.0,10811.1,5844.0200000000004,-508.43700000000001,-5933.6700000000001,-1467.8699999999999,1099.5899999999999,919.84000000000003
166702.0,10402.5,5433.4899999999998,-496.024,-5871.8500000000004,-1385.5599999999999,1141.8199999999999,932.22699999999998
166703.0,10053.6,5084.0100000000002,-460.40699999999998,-5799.9799999999996,-1335.6600000000001,1188.6199999999999,935.95899999999995
166704.0,9763.7900000000009,4808.6899999999996,-401.44400000000002,-5704.4899999999998,-1307.0999999999999,1236.95,951.95899999999995
166705.0,9514.9799999999996,4525.6999999999998,-402.76400000000001,-5660.8000000000002,-1280.6500000000001,1276.3599999999999,979.24900000000002
166706.0,9277.0200000000004,4281.8199999999997,-400.19999999999999,-5595.0200000000004,-1248.6400000000001,1304.3299999999999,1008.63
166707.0,9041.8799999999992,4053.4099999999999,-408.04000000000002,-5523.6099999999997,-1212.8900000000001,1321.76,1033.55
166708.0,8819.5100000000002,3831.2399999999998,-423.46800000000002,-5463.0900000000001,-1179.3499999999999,1338.54,1047.8
166709.0,8623.75,3672.2399999999998,-389.88499999999999,-5367.4399999999996,-1158.3299999999999,1356.1099999999999,1053.6199999999999
166710.0,8461.5200000000004,3526.3699999999999,-370.00999999999999,-5293.4799999999996,-1154.1400000000001,1371.3499999999999,1057.25
166711.0,8320.0300000000007,3436.3699999999999,-321.36599999999999,-5188.1800000000003,-1156.1900000000001,1379.5799999999999,1065.8699999999999
166712.0,8183.2299999999996,3348.21,-290.43299999999999,-5091.0699999999997,-1147.3900000000001,1387.6500000000001,1077.8800000000001
166713.0,8059.7700000000004,3270.1100000000001,-258.02300000000002,-5003.8400000000001,-1122.1099999999999,1409.02,1081.99
166714.0,7971.6499999999996,3171.2199999999998,-249.98500000000001,-4973.6199999999999,-1094.77,1449.72,1075.26
166715.0,7940.46,3136.98,-187.46700000000001,-4933.21,-1081.5,1503.0899999999999,1066.6099999999999
166716.0,7971.2299999999996,3057.0599999999999,-188.501,-4996.0699999999997,-1090.28,1559.8699999999999,1068.52
166717.0,8052.96,3050.3400000000001,-129.58799999999999,-5034.6800000000003,-1117.74,1608.3299999999999,1091.22
166718.0,8163.1199999999999,2947.7600000000002,-168.49600000000001,-5193.1800000000003,-1157.7,1645.26,1137.01
166719.0,8281.9899999999998,2931.6399999999999,-119.88,-5267.71,-1200.26,1667.6700000000001,1211.79
166720.0,8342.8299999999999,2777.23,-222.631,-5446.4499999999998,-1218.6900000000001,1659.1700000000001,1281.98
166721.0,8308.7199999999993,2819.6500000000001,-134.12299999999999,-5349.7399999999998,-1195.96,1620.4000000000001,1358.1500000000001
166722.0,8138.6599999999999,2606.6599999999999,-272.50200000000001,-5409.04,-1144.3,1537.0999999999999,1385.52
166723.0,7769.3400000000001,2574.8400000000001,-298.95800000000003,-5150.8500000000004,-1024.6900000000001,1370.0999999999999,1395.04
166724.0,161630.0,98089.699999999997,-51018.400000000001,-39307.5,4027.4499999999998,-3704.73,42466.0
166725.0,125389.0,68146.199999999997,-22672.799999999999,-61190.699999999997,-3603.3800000000001,-4875.6999999999998,28179.5
166726.0,101098.0,56881.5,-5172.2299999999996,-55927.800000000003,-7566.6800000000003,-2325.0700000000002,12336.0
166727.0,82583.399999999994,55396.0,3621.6700000000001,-37733.400000000001,-9580.3199999999997,500.988,1996.9400000000001
166728.0,70866.800000000003,55116.900000000001,6853.04,-22467.599999999999,-11266.1,2209.0700000000002,-2735.8899999999999
166729.0,62958.599999999999,53429.199999999997,7200.2799999999997,-12555.6,-11866.299999999999,3255.7600000000002,-4790.6000000000004
166730.0,57332.0,50412.0,6440.8199999999997,-7461.29,-12007.5,3638.4699999999998,-5055.5
166731.0,53043.5,47026.199999999997,5285.4899999999998,-5355.1300000000001,-11618.0,3563.0500000000002,-4862.6800000000003
166732.0,49480.0,43661.400000000001,3865.1300000000001,-4657.2600000000002,-10911.1,3256.96,-4609.9499999999998
166733.0,46254.199999999997,41280.300000000003,3025.3299999999999,-3686.0300000000002,-9904.6900000000005,2818.5799999999999,-4323.8400000000001
166734.0,42287.099999999999,38941.0,3075.4299999999998,-1762.0599999999999,-9001.2299999999996,2519.1399999999999,-3779.6199999999999
166735.0,38300.400000000001,35491.800000000003,2700.3299999999999,-723.34100000000001,-8678.0300000000007,2025.8099999999999,-3131.6500000000001
166736.0,35443.900000000001,32274.200000000001,2037.95,-1212.4200000000001,-8296.75,1281.8800000000001,-2692.7800000000002
166737.0,32931.300000000003,29537.099999999999,1618.6199999999999,-2038.7,-7588.4200000000001,780.32500000000005,-2233.54
166738.0,30528.5,27083.700000000001,1303.04,-2726.6700000000001,-6777.1400000000003,297.70400000000001,-1748.1099999999999
166739.0,28272.200000000001,24732.200000000001,923.19399999999996,-3389.8099999999999,-5945.6800000000003,-109.389,-1299.5799999999999
166740.0,26275.900000000001,22539.5,369.80399999999997,-4031.7199999999998,-5125.8400000000001,-459.58699999999999,-916.255
166741.0,24202.400000000001,20610.400000000001,79.830100000000002,-4301.1599999999999,-4187.9200000000001,-631.52700000000004,-659.40700000000004
166742.0,21743.599999999999,18383.900000000001,10.408099999999999,-4230.0600000000004,-3572.5900000000001,-439.68099999999998,-381.03800000000001
166743.0,19807.299999999999,16282.6,-145.97499999999999,-4451.6400000000003,-3283.0700000000002,-488.916,-183.47300000000001
166744.0,18371.200000000001,14570.9,-267.505,-4911.21,-2950.54,-482.97899999999998,-110.563
166745.0,17236.299999999999,13300.700000000001,-155.727,-5216.8500000000004,-2707.9200000000001,-314.00200000000001,-21.5124
166746.0,16402.900000000001,12245.700000000001,-142.24299999999999,-5531.9799999999996,-2555.6700000000001,-192.02600000000001,152.85400000000001
166747.0,15666.9,11252.6,-274.87700000000001,-5834.8100000000004,-2388.3200000000002,-86.161699999999996,378.38
166748.0,14888.0,10291.299999999999,-450.108,-6027.96,-2175.8699999999999,-9.1198899999999998,590.68200000000002
166749.0,14050.299999999999,9410.3199999999997,-520.56799999999998,-6053.9099999999999,-1973.8599999999999,98.526300000000006,707.83399999999995
166750.0,13360.0,8639.2099999999991,-504.39600000000002,-6094.1499999999996,-1882.47,205.71899999999999,767.90599999999995
166751.0,12884.9,8048.9899999999998,-463.26100000000002,-6171.1099999999997,-1830.76,271.06299999999999,840.87199999999996
166752.0,12506.0,7577.1599999999999,-445.822,-6238.8199999999997,-1741.0999999999999,358.55700000000002,915.62099999999998
166753.0,12198.4,7144.3800000000001,-473.49200000000002,-6337.8000000000002,-1648.26,453.952,989.52499999999998
166754.0,11928.1,6709.9399999999996,-550.22799999999995,-6467.6300000000001,-1558.9100000000001,510.89800000000002,1083.1099999999999
166755.0,11610.6,6317.1700000000001,-594.529,-6498.04,-1449.8399999999999,540.02800000000002,1182.9200000000001
166756.0,11216.700000000001,5893.6300000000001,-640.93899999999996,-6477.3100000000004,-1327.6700000000001,569.09299999999996,1245.3299999999999
166757.0,10791.4,5535.0,-600.48900000000003,-6350.9700000000003,-1220.4300000000001,607.226,1276.01
166758.0,10389.299999999999,5157.8500000000004,-595.41200000000003,-6262.2399999999998,-1139.96,652.00199999999995,1284.22
166759.0,10059.700000000001,4875.4499999999998,-526.279,-6152.29,-1095.8499999999999,712.87599999999998,1271.3499999999999
166760.0,9813.3199999999997,4649.3000000000002,-462.05000000000001,-6064.5,-1085.3099999999999,770.91800000000001,1269.55
166761.0,9610.6399999999994,4483.8000000000002,-395.46199999999999,-5959.3800000000001,-1084.1800000000001,814.35599999999999,1282.75
166762.0,9416.9799999999996,4303.5200000000004,-374.726,-5879.9799999999996,-1075.49,837.77300000000002,1310.8699999999999
166763.0,9196.5599999999995,4117.2600000000002,-369.23099999999999,-5783.5799999999999,-1047.3699999999999,845.94100000000003,1342.0999999999999
166764.0,8936.8199999999997,3928.27,-363.14499999999998,-5656.5600000000004,-997.86599999999999,857.52499999999998,1356.5599999999999
166765.0,8684.6900000000005,3765.4000000000001,-333.45299999999997,-5523.6300000000001,-942.60299999999995,893.41700000000003,1335.5899999999999
166766.0,8516.4899999999998,3601.8200000000002,-329.42500000000001,-5482.3999999999996,-913.93499999999995,951.15099999999995,1296.8199999999999
166767.0,8448.2199999999993,3510.3499999999999,-307.19200000000001,-5472.3999999999996,-916.98000000000002,997.70500000000004,1277.01
166768.0,8429.7900000000009,3423.0700000000002,-329.928,-5513.1400000000003,-925.10199999999998,1025.6400000000001,1282.5599999999999
166769.0,8411.3600000000006,3366.6599999999999,-332.71800000000002,-5521.8199999999997,-930.39599999999996,1049.99,1295.8900000000001
166770.0,8372.9500000000007,3309.0700000000002,-317.608,-5505.2299999999996,-941.59100000000001,1071.0999999999999,1307.25
166771.0,8313.8899999999994,3264.6900000000001,-271.25900000000001,-5448.3900000000003,-956.26800000000003,1084.28,1321.48
166772.0,8244.6900000000005,3172.8400000000001,-259.13900000000001,-5436.6000000000004,-973.774,1085.1800000000001,1322.0999999999999
166773.0,8197.6299999999992,3147.8699999999999,-181.92699999999999,-5390.0299999999997,-997.45299999999997,1056.78,1330.6900000000001
166774.0,8187.6800000000003,3062.1100000000001,-215.66499999999999,-5467.8800000000001,-1020.98,989.48699999999997,1345.1900000000001
166775.0,8231.0499999999993,3107.1300000000001,-200.10900000000001,-5493.6599999999999,-1041.46,902.98900000000003,1364.25
166776.0,8288.6200000000008,3157.75,-237.768,-5572.3100000000004,-1059.47,787.26300000000003,1338.3900000000001
166777.0,8416.6299999999992,3593.9299999999998,-56.712699999999998,-5255.1300000000001,-1022.65,672.22400000000005,1529.51
166778.0,110552.0,50048.0,-14850.4,-57549.900000000001,4632.8599999999997,-24679.400000000001,22538.200000000001
166779.0,93899.899999999994,49287.099999999999,-4799.5500000000002,-50523.5,-3576.21,-17146.299999999999,11658.0
166780.0,80068.399999999994,54127.800000000003,4353.3500000000004,-34128.5,-7948.75,-10168.700000000001,3532.3200000000002
166781.0,68649.199999999997,54218.900000000001,6890.2299999999996,-20655.799999999999,-10419.9,-5052.3100000000004,-1624.1199999999999
166782.0,61900.900000000001,54168.300000000003,8150.1400000000003,-10740.4,-11868.799999999999,-2324.3299999999999,-4044.4200000000001
166783.0,57158.199999999997,51347.5,6894.8000000000002,-6533.3199999999997,-12085.299999999999,-622.78599999999994,-4982.0
166784.0,53522.400000000001,48602.199999999997,6150.3500000000004,-4399.8999999999996,-11984.700000000001,272.56200000000001,-4905.3000000000002
166785.0,50628.800000000003,45109.0,4459.71,-4485.3900000000003,-11597.200000000001,319.02600000000001,-4600.4899999999998
166786.0,47843.599999999999,42617.800000000003,3862.9200000000001,-3977.3699999999999,-11062.6,117.753,-4264.71
166787.0,45260.300000000003,40278.900000000001,3131.5500000000002,-3531.0500000000002,-10513.0,-212.768,-3871.9400000000001
166788.0,42320.099999999999,38772.5,3321.7399999999998,-2117.8000000000002,-9664.7099999999991,-369.18299999999999,-3223.8699999999999
166789.0,38562.099999999999,35827.199999999997,2829.98,-1132.8399999999999,-8853.4099999999999,-349.26499999999999,-2326.3000000000002
166790.0,35233.900000000001,32397.200000000001,2095.8299999999999,-1130.1300000000001,-8237.2800000000007,-696.97199999999998,-1833.1400000000001
166791.0,32805.400000000001,29398.099999999999,1490.5999999999999,-2112.3000000000002,-7595.9700000000003,-1117.8299999999999,-1526.76
166792.0,30842.299999999999,27067.700000000001,1109.5599999999999,-3074.5300000000002,-6844.3500000000004,-1481.6900000000001,-1180.8900000000001
166793.0,29045.200000000001,24960.200000000001,758.98800000000006,-3964.5799999999999,-6061.6499999999996,-1719.3499999999999,-855.84400000000005
166794.0,27382.599999999999,22963.599999999999,370.60000000000002,-4678.3699999999999,-5432.8199999999997,-1867.6500000000001,-513.42600000000004
166795.0,25885.700000000001,21394.799999999999,110.11499999999999,-5126.0699999999997,-4671.8199999999997,-2045.26,-212.126
166796.0,23791.400000000001,19646.099999999999,5.2617900000000004,-5057.75,-3913.3899999999999,-1747.1099999999999,171.49299999999999
166797.0,21597.799999999999,17351.900000000001,-429.26900000000001,-5179.0299999999997,-3455.6799999999998,-1513.3299999999999,439.613
166798.0,19828.200000000001,15346.799999999999,-715.26400000000001,-5533.1000000000004,-3022.7399999999998,-1465.0799999999999,490.30599999999998
166799.0,18252.200000000001,13699.1,-738.15200000000004,-5765.6800000000003,-2666.6999999999998,-1259.8099999999999,501.65600000000001
166800.0,17067.799999999999,12456.9,-615.51099999999997,-5918.6499999999996,-2491.6399999999999,-1087.6900000000001,516.33000000000004
166801.0,16261.700000000001,11647.799999999999,-383.24400000000003,-5988.5799999999999,-2393.71,-910.99800000000005,622.03700000000003
166802.0,15689.0,10896.1,-414.50700000000001,-6213.1400000000003,-2252.52,-784.10299999999995,803.61000000000001
166803.0,15063.4,10154.0,-523.38300000000004,-6368.0699999999997,-2034.26,-622.53200000000004,958.52200000000005
166804.0,14261.6,9365.6800000000003,-578.79600000000005,-6340.1499999999996,-1833.4100000000001,-440.63099999999997,1056.3499999999999
166805.0,13534.5,8590.1000000000004,-629.57399999999996,-6357.7399999999998,-1710.3099999999999,-308.52999999999997,1079.3099999999999
166806.0,13103.1,7926.8100000000004,-710.53800000000001,-6583.8100000000004,-1654.4300000000001,-232.11699999999999,1078.4100000000001
166807.0,12855.200000000001,7567.5600000000004,-610.16300000000001,-6683.9200000000001,-1634.77,-176.131,1112.22
166808.0,12675.4,7328.4499999999998,-486.80900000000003,-6708.7700000000004,-1618.8,-131.441,1202.26
166809.0,12507.9,7033.3000000000002,-507.608,-6799.5900000000001,-1559.24,-93.380799999999994,1319.8
166810.0,12296.700000000001,6696.1000000000004,-592.30799999999999,-6904.2799999999997,-1440.25,-40.828400000000002,1415.9000000000001
166811.0,12012.1,6385.1099999999997,-625.27999999999997,-6894.6400000000003,-1311.3199999999999,41.2361,1497.26
166812.0,11661.299999999999,5998.4700000000003,-709.91600000000005,-6878.7799999999997,-1199.75,112.71599999999999,1548.1199999999999
166813.0,11265.799999999999,5602.1599999999999,-765.01999999999998,-6828.5200000000004,-1108.1400000000001,171.40799999999999,1552.5
166814.0,10876.700000000001,5275.6300000000001,-737.76700000000005,-6705.8299999999999,-1059.6900000000001,218.363,1540.8599999999999
166815.0,10542.5,4987.1199999999999,-719.85500000000002,-6600.1800000000003,-1042.3599999999999,240.523,1527.9200000000001
166816.0,10281.200000000001,4781.96,-670.07500000000005,-6494.7600000000002,-1029.53,255.43700000000001,1518.77
166817.0,10090.1,4648.21,-620.40899999999999,-6393.6999999999998,-991.36099999999999,259.93400000000003,1544.1600000000001
166818.0,9952.7399999999998,4496.8800000000001,-658.38099999999997,-6388.0699999999997,-908.15200000000004,278.38099999999997,1571.24
166819.0,9864.9300000000003,4329.75,-731.19899999999996,-6464.4099999999999,-836.91399999999999,324.71800000000002,1570.6600000000001
166820.0,9786.7199999999993,4285.71,-672.40099999999995,-6417.7700000000004,-825.93100000000004,352.25599999999997,1558.0899999999999
166821.0,9691.1000000000004,4304.9099999999999,-551.024,-6259.71,-863.78399999999999,351.815,1572.4200000000001
166822.0,9585.8899999999994,4307.0100000000002,-469.642,-6092.6300000000001,-898.505,324.77800000000002,1618.3599999999999
166823.0,9464.8999999999996,4205.7299999999996,-489.20299999999997,-6027.8199999999997,-896.49800000000005,300.58199999999999,1651.27
166824.0,9326.2600000000002,4145.6199999999999,-444.21699999999998,-5915.71,-873.88999999999999,284.52999999999997,1666.1600000000001
166825.0,9177.1299999999992,4030.3600000000001,-461.26999999999998,-5845.0200000000004,-856.56799999999998,264.09399999999999,1680.0699999999999
166826.0,9023.5100000000002,3928.2399999999998,-469.25099999999998,-5766.8299999999999,-854.154,222.42400000000001,1672.1500000000001
166827.0,8877.0499999999993,3898.23,-408.702,-5611.6300000000001,-860.33000000000004,157.976,1681.04
166828.0,8708.1299999999992,3870.8699999999999,-353.108,-5424.3299999999999,-863.09100000000001,74.465400000000002,1693.1400000000001
166829.0,8501.7600000000002,3765.73,-367.94200000000001,-5286.1599999999999,-864.25099999999998,-20.995999999999999,1676.45
166830.0,8273.3999999999996,3722.5599999999999,-296.12799999999999,-5110.4899999999998,-871.29399999999998,-133.285,1575.1300000000001
166831.0,8244.0100000000002,3945.0799999999999,-23.733499999999999,-4709.2799999999997,-882.53200000000004,-166.63800000000001,1755.1800000000001
166832.0,83907.100000000006,42242.699999999997,580.125,-37880.0,-3672.77,-25783.200000000001,7922.8000000000002
166833.0,72952.300000000003,47979.599999999999,5090.1400000000003,-26657.099999999999,-7918.7799999999997,-17400.5,2350.46
166834.0,65891.800000000003,52679.900000000001,7998.5500000000002,-15724.9,-10385.4,-11410.9,-1664.1099999999999
166835.0,59972.199999999997,52660.699999999997,7819.0600000000004,-8418.7199999999993,-11639.0,-6964.3100000000004,-3750.5799999999999
166836.0,56412.099999999999,51518.199999999997,7291.7700000000004,-4251.4700000000003,-12234.5,-4785.0900000000001,-4648.8000000000002
166837.0,53525.099999999999,48756.5,5930.8100000000004,-3262.3800000000001,-12171.6,-3602.8099999999999,-4806.2600000000002
166838.0,50817.400000000001,46034.800000000003,5284.0699999999997,-2788.2600000000002,-12165.700000000001,-2967.48,-4368.1899999999996
166839.0,48586.699999999997,43205.400000000001,4246.29,-3195.3200000000002,-11908.0,-2956.0100000000002,-3913.5100000000002
166840.0,45894.300000000003,41225.0,4171.4399999999996,-2517.3400000000001,-11274.799999999999,-2860.2600000000002,-3407.6999999999998
166841.0,43064.599999999999,39093.5,3846.9000000000001,-1779.5699999999999,-10521.1,-2844.6199999999999,-2938.8800000000001
166842.0,40518.699999999997,37161.699999999997,3419.4000000000001,-1319.23,-9648.1499999999996,-2810.6999999999998,-2443.5100000000002
166843.0,38095.800000000003,34736.199999999997,2519.6500000000001,-1630.9300000000001,-8766.75,-2668.6900000000001,-1871.8
166844.0,35461.099999999999,32315.400000000001,2174.8600000000001,-1731.4200000000001,-7952.0900000000001,-2651.7199999999998,-1321.0599999999999
166845.0,32993.599999999999,29446.700000000001,1594.5999999999999,-2367.4400000000001,-7326.2299999999996,-2802.6700000000001,-856.30200000000002
166846.0,31225.900000000001,27092.700000000001,1158.5699999999999,-3289.5900000000001,-6754.21,-3133.8400000000001,-579.96699999999998
166847.0,29710.700000000001,25174.400000000001,926.11699999999996,-4159.1899999999996,-6120.4899999999998,-3312.3200000000002,-304.95600000000002
166848.0,28187.900000000001,23426.0,737.62300000000005,-4722.9700000000003,-5532.3400000000001,-3379.5300000000002,-5.4666300000000003
166849.0,26824.799999999999,21874.900000000001,468.28500000000003,-5222.4700000000003,-4897.4300000000003,-3416.0100000000002,232.495
166850.0,25426.400000000001,20566.700000000001,303.52800000000002,-5509.9799999999996,-4227.5799999999999,-3155.1999999999998,525.53999999999996
166851.0,23742.700000000001,18960.900000000001,67.436099999999996,-5629.0100000000002,-3745.7199999999998,-2746.6300000000001,807.19799999999998
166852.0,22114.700000000001,17324.5,-97.012699999999995,-5743.4099999999999,-3327.2399999999998,-2527.71,987.077
166853.0,20446.5,15687.200000000001,-259.95999999999998,-5821.4499999999998,-2906.21,-2235.3400000000001,1125.3800000000001
166854.0,18780.099999999999,14061.6,-430.04899999999998,-5838.5699999999997,-2539.8299999999999,-1975.5699999999999,1153.4300000000001
166855.0,17406.799999999999,12584.1,-556.53300000000002,-6028.4399999999996,-2330.4699999999998,-1692.55,1093.52
166856.0,16618.200000000001,11511.200000000001,-577.95399999999995,-6381.46,-2273.48,-1549.7,1074.96
166857.0,16200.200000000001,10839.1,-576.97299999999996,-6716.0600000000004,-2136.1300000000001,-1512.26,1124.8900000000001
166858.0,15811.799999999999,10421.0,-532.38599999999997,-6832.8599999999997,-1946.72,-1369.6400000000001,1201.5799999999999
166859.0,15350.1,9963.5900000000001,-502.63999999999999,-6840.6599999999999,-1841.74,-1212.3299999999999,1289.9400000000001
166860.0,14781.1,9467.2299999999996,-424.05200000000002,-6699.1300000000001,-1790.73,-1124.46,1388.6500000000001
166861.0,14188.6,8844.8700000000008,-475.87299999999999,-6666.5299999999997,-1704.3800000000001,-1085.1900000000001,1433.75
166862.0,13690.9,8319.8600000000006,-475.79300000000001,-6674.3900000000003,-1629.04,-1000.64,1433.9200000000001
166863.0,13429.9,7882.1400000000003,-491.55000000000001,-6840.3000000000002,-1602.1800000000001,-955.21400000000006,1453.4400000000001
166864.0,13344.9,7615.5699999999997,-485.12400000000002,-7020.6099999999997,-1558.3900000000001,-936.66499999999996,1515.8599999999999
166865.0,13283.200000000001,7417.0299999999997,-495.702,-7164.8400000000001,-1492.1099999999999,-880.94200000000001,1589.26
166866.0,13177.6,7270.8100000000004,-477.05500000000001,-7187.1199999999999,-1444.3,-803.58600000000001,1674.3299999999999
166867.0,12986.0,7112.2799999999997,-484.54500000000002,-7117.4200000000001,-1381.0999999999999,-752.99199999999996,1743.4100000000001
166868.0,12667.799999999999,6971.2799999999997,-435.73000000000002,-6901.7299999999996,-1301.0599999999999,-676.54300000000001,1775.3399999999999
166869.0,12281.5,6746.2600000000002,-444.834,-6687.71,-1245.75,-608.79399999999998,1778.54
166870.0,11950.9,6567.1700000000001,-414.286,-6504.6700000000001,-1196.3399999999999,-571.46799999999996,1750.8399999999999
166871.0,11796.4,6469.8999999999996,-359.91500000000002,-6419.9899999999998,-1175.1600000000001,-518.03200000000004,1774.52
166872.0,11831.200000000001,6306.9700000000003,-435.024,-6583.3599999999997,-1183.25,-500.351,1854.47
166873.0,11854.5,6165.0,-490.94999999999999,-6701.21,-1178.6900000000001,-503.69499999999999,1949.0699999999999
166874.0,11681.700000000001,6043.7299999999996,-492.40199999999999,-6592.6199999999999,-1149.5,-499.45499999999998,1995.46
166875.0,11352.1,5932.9300000000003,-445.17599999999999,-6306.3199999999997,-1118.8699999999999,-462.339,2004.6600000000001
166876.0,11009.799999999999,5719.1199999999999,-479.86399999999998,-6100.4799999999996,-1102.72,-425.93200000000002,2013.53
166877.0,10751.799999999999,5429.8199999999997,-584.85699999999997,-6073.8699999999999,-1082.6900000000001,-419.791,2019.5
166878.0,10557.0,5254.1899999999996,-579.76599999999996,-6005.5600000000004,-1052.4000000000001,-427.089,2037.3099999999999
166879.0,10325.1,5076.0100000000002,-582.322,-5879.9200000000001,-1027.8900000000001,-436.601,2066.3400000000001
166880.0,9990.5499999999993,4885.6099999999997,-562.39700000000005,-5660.0799999999999,-1003.05,-460.548,2058.8800000000001
166881.0,9575.2900000000009,4662.9200000000001,-538.327,-5379.4700000000003,-974.98900000000003,-481.23599999999999,2038.78
166882.0,9110.7999999999993,4368.5699999999997,-558.12199999999996,-5121.3000000000002,-943.38199999999995,-512.24000000000001,1997.78
166883.0,8594.6499999999996,4005.8200000000002,-629.077,-4894.3900000000003,-881.11900000000003,-556.89099999999996,1929.0899999999999
166884.0,7998.0600000000004,3729.73,-567.73199999999997,-4573.5200000000004,-769.02200000000005,-590.82899999999995,1771.8499999999999
166885.0,7557.3000000000002,3601.3200000000002,-304.846,-4141.8800000000001,-680.82299999999998,-525.88599999999997,1818.74
166886.0,67320.100000000006,47093.199999999997,9064.5200000000004,-14246.6,-8482.4200000000001,-21905.0,437.64800000000002
166887.0,62265.0,50417.0,8817.7700000000004,-8869.7700000000004,-11000.4,-15485.200000000001,-2265.48
166888.0,59181.5,52327.900000000001,8636.1499999999996,-4336.8500000000004,-12048.6,-11237.200000000001,-3831.2800000000002
166889.0,56042.900000000001,50736.400000000001,7006.1300000000001,-2403.3299999999999,-12403.9,-8404.7299999999996,-4280.1499999999996
166890.0,53355.400000000001,48675.599999999999,6222.6199999999999,-1064.8900000000001,-12685.9,-6978.9499999999998,-4209.0500000000002
166891.0,50783.599999999999,45882.5,5302.1400000000003,-1137.6600000000001,-12537.299999999999,-6144.25,-3855.5100000000002
166892.0,47721.5,43366.599999999999,5216.4499999999998,-525.09799999999996,-12234.200000000001,-5434.5200000000004,-3279.9000000000001
166893.0,45172.199999999997,40496.699999999997,4366.1599999999999,-858.70100000000002,-11706.6,-5233.8800000000001,-2928.1500000000001
166894.0,42790.400000000001,38488.300000000003,3980.0,-909.46100000000001,-10799.299999999999,-5064.3999999999996,-2629.2399999999998
166895.0,40490.599999999999,36202.400000000001,3173.4400000000001,-1360.24,-9862.2000000000007,-4882.8000000000002,-2233.5300000000002
166896.0,38456.900000000001,34178.199999999997,2599.3499999999999,-1688.27,-9106.2999999999993,-4819.2700000000004,-1777.1400000000001
166897.0,36684.099999999999,32125.099999999999,2025.8599999999999,-2305.3600000000001,-8441.3500000000004,-4875.1300000000001,-1361.5799999999999
166898.0,35064.599999999999,30407.200000000001,1744.77,-2933.1500000000001,-7710.71,-4875.9899999999998,-881.57100000000003
166899.0,33231.900000000001,28362.299999999999,1323.1300000000001,-3548.5700000000002,-7081.8299999999999,-4724.1400000000003,-354.64600000000002
166900.0,31492.200000000001,26295.700000000001,1015.4400000000001,-4084.1900000000001,-6547.7600000000002,-4799.9399999999996,32.4407
166901.0,29935.0,24352.400000000001,704.94200000000001,-4739.5600000000004,-5961.46,-4883.7600000000002,336.815
166902.0,28521.5,22683.700000000001,454.99099999999999,-5323.1999999999998,-5338.9399999999996,-4865.8699999999999,573.77499999999998
166903.0,27277.700000000001,21226.799999999999,208.376,-5888.5100000000002,-4748.0699999999997,-4744.0299999999997,781.51900000000001
166904.0,26169.5,19957.700000000001,-9.6928099999999997,-6396.7200000000003,-4212.1599999999999,-4535.2200000000003,981.10299999999995
166905.0,25008.099999999999,18736.0,-213.327,-6787.4799999999996,-3721.25,-4205.5500000000002,1144.51
166906.0,23788.299999999999,17552.0,-364.94799999999998,-7024.5500000000002,-3300.1199999999999,-3827.29,1235.49
166907.0,22669.200000000001,16506.599999999999,-428.96800000000002,-7171.1700000000001,-2956.96,-3466.73,1310.25
166908.0,21615.599999999999,15580.0,-487.72000000000003,-7148.79,-2701.3899999999999,-3137.5100000000002,1441.9000000000001
166909.0,20440.700000000001,14577.0,-481.24900000000002,-6994.0699999999997,-2468.4200000000001,-2903.5900000000001,1528.71
166910.0,19207.5,13443.4,-450.54599999999999,-6848.04,-2357.1399999999999,-2678.4200000000001,1621.01
166911.0,18435.599999999999,12373.9,-567.99599999999998,-7082.6400000000003,-2287.1100000000001,-2688.4000000000001,1658.46
166912.0,17910.599999999999,11599.299999999999,-615.00199999999995,-7344.4700000000003,-2168.8200000000002,-2659.1700000000001,1712.01
166913.0,17327.200000000001,11046.0,-556.20100000000002,-7304.6800000000003,-2032.72,-2576.8000000000002,1776.1800000000001
166914.0,16684.799999999999,10504.4,-573.40899999999999,-7191.5799999999999,-1889.54,-2448.9000000000001,1811.5
166915.0,16134.200000000001,10010.0,-605.18600000000004,-7132.6300000000001,-1755.51,-2350.8099999999999,1817.21
166916.0,15646.6,9608.4400000000005,-552.47199999999998,-7036.8000000000002,-1646.51,-2264.4699999999998,1836.76
166917.0,15174.299999999999,9195.3999999999996,-470.67099999999999,-6943.4899999999998,-1578.8699999999999,-2193.1900000000001,1866.6900000000001
166918.0,14826.0,8742.4699999999993,-475.83999999999997,-7001.3100000000004,-1551.5699999999999,-2152.4099999999999,1912.8399999999999
166919.0,14610.299999999999,8386.4200000000001,-483.72300000000001,-7111.0699999999997,-1510.6300000000001,-2141.9899999999998,1954.78
166920.0,14406.9,8150.8100000000004,-455.24200000000002,-7131.2600000000002,-1468.78,-2072.96,2009.0599999999999
166921.0,14220.0,7910.4399999999996,-526.75099999999998,-7173.2799999999997,-1429.51,-2008.9200000000001,2043.6400000000001
166922.0,14064.700000000001,7792.5699999999997,-567.024,-7163.6300000000001,-1371.01,-1914.3499999999999,2052.5
166923.0,13885.5,7798.7299999999996,-527.89800000000002,-7007.9499999999998,-1329.4200000000001,-1771.75,2066.1500000000001
166924.0,13690.1,7779.3699999999999,-505.35000000000002,-6840.1899999999996,-1310.25,-1624.1400000000001,2090.0300000000002
166925.0,13452.700000000001,7668.3400000000001,-469.60399999999998,-6688.2700000000004,-1334.8099999999999,-1447.6199999999999,2147.6199999999999
166926.0,13148.0,7303.7799999999997,-531.21199999999999,-6671.4399999999996,-1392.99,-1314.5799999999999,2211.0900000000001
166927.0,12835.5,6912.1099999999997,-598.73699999999997,-6679.4300000000003,-1418.9400000000001,-1246.8699999999999,2235.1799999999998
166928.0,12535.799999999999,6706.0699999999997,-587.57399999999996,-6556.2700000000004,-1392.6500000000001,-1191.8900000000001,2214.3299999999999
166929.0,12226.5,6656.1899999999996,-505.98599999999999,-6278.8699999999999,-1352.99,-1105.96,2187.6799999999998
166930.0,11889.700000000001,6577.4700000000003,-432.81200000000001,-5967.7700000000004,-1339.24,-1003.24,2189.6300000000001
166931.0,11510.799999999999,6322.0,-444.77199999999999,-5757.6199999999999,-1336.71,-929.45399999999995,2204.4699999999998
166932.0,11083.799999999999,5977.5600000000004,-464.17599999999999,-5588.1300000000001,-1319.73,-877.23299999999995,2202.96
166933.0,10604.5,5576.4499999999998,-517.76999999999998,-5427.6800000000003,-1288.9100000000001,-836.52800000000002,2175.8099999999999
166934.0,10083.299999999999,5238.6700000000001,-523.07899999999995,-5181.5600000000004,-1240.21,-817.84900000000005,2106.4400000000001
166935.0,9540.6700000000001,4981.8800000000001,-475.46499999999997,-4839.8400000000001,-1178.8599999999999,-801.49400000000003,2023.1900000000001
166936.0,8980.7900000000009,4760.4700000000003,-389.46800000000002,-4454.0200000000004,-1105.49,-802.38699999999994,1921.99
166937.0,8453.2800000000007,4491.1999999999998,-371.51600000000002,-4170.0799999999999,-1008.95,-818.40499999999997,1811.8399999999999
166938.0,8022.1300000000001,4250.71,-347.31999999999999,-4001.8899999999999,-884.40200000000004,-835.28899999999999,1694.4400000000001
166939.0,7748.0299999999997,4035.8099999999999,-280.83300000000003,-3845.27,-709.35599999999999,-789.26800000000003,1819.2
166940.0,60836.099999999999,49932.699999999997,9784.3299999999999,-1611.1199999999999,-12136.1,-18524.799999999999,-3183.6900000000001
166941.0,58319.300000000003,50584.099999999999,8057.4200000000001,-562.05100000000004,-12838.1,-14326.4,-3722.77
166942.0,56069.400000000001,49945.0,7137.5500000000002,421.46100000000001,-13284.200000000001,-11628.700000000001,-3812.7600000000002
166943.0,53386.099999999999,47825.199999999997,6143.7200000000003,622.79700000000003,-13227.4,-9818.8899999999994,-3559.3099999999999
166944.0,50049.400000000001,45481.400000000001,5950.8100000000004,1471.3599999999999,-12901.1,-8503.2600000000002,-3103.9499999999998
166945.0,47030.300000000003,42536.800000000003,5201.3999999999996,1316.24,-12283.6,-7779.46,-2801.8499999999999
166946.0,44072.099999999999,39752.900000000001,4633.0200000000004,1020.37,-11485.700000000001,-7175.4499999999998,-2502.7199999999998
166947.0,41661.599999999999,36977.800000000003,3804.9099999999999,312.471,-10740.700000000001,-6968.46,-2268.1599999999999
166948.0,39901.0,34851.699999999997,3187.8000000000002,-552.53399999999999,-9966.8500000000004,-6999.0500000000002,-2007.4300000000001
166949.0,38296.599999999999,33081.0,2772.1300000000001,-1305.1700000000001,-9242.8999999999996,-6932.54,-1561.9400000000001
166950.0,36710.300000000003,31375.299999999999,2412.9699999999998,-1875.8900000000001,-8593.8899999999994,-6867.2299999999996,-1028.27
166951.0,35153.900000000001,29490.700000000001,1900.0799999999999,-2610.5799999999999,-7949.6300000000001,-6810.1599999999999,-586.94600000000003
166952.0,33771.099999999999,27728.299999999999,1502.99,-3389.4000000000001,-7397.1099999999997,-6738.5,-187.005
166953.0,32535.0,26190.599999999999,1261.7,-4058.3299999999999,-6843.3299999999999,-6720.4099999999999,233.85300000000001
166954.0,31141.099999999999,24606.700000000001,994.35699999999997,-4622.2700000000004,-6188.3100000000004,-6633.9499999999998,616.87599999999998
166955.0,29787.799999999999,23037.700000000001,689.69100000000003,-5213.5699999999997,-5525.0299999999997,-6512.0600000000004,876.91499999999996
166956.0,28681.400000000001,21640.799999999999,435.75299999999999,-5918.3900000000003,-4936.5900000000001,-6360.1800000000003,1063.1400000000001
166957.0,27769.700000000001,20426.200000000001,242.64699999999999,-6618.2399999999998,-4462.9099999999999,-6155.6000000000004,1265.05
166958.0,26987.599999999999,19250.400000000001,-18.121300000000002,-7328.8599999999997,-4045.0500000000002,-5981.6700000000001,1450.6500000000001
166959.0,26305.799999999999,18221.400000000001,-275.44400000000002,-7933.0299999999997,-3660.6599999999999,-5823.6000000000004,1595.4100000000001
166960.0,25678.099999999999,17402.0,-431.221,-8327.5200000000004,-3332.75,-5662.1300000000001,1700.45
166961.0,25001.400000000001,16827.299999999999,-387.57499999999999,-8371.0400000000009,-3104.5700000000002,-5427.8199999999997,1848.1099999999999
166962.0,24258.0,16148.799999999999,-471.96100000000001,-8345.9300000000003,-2973.8299999999999,-5184.6000000000004,2013.3099999999999
166963.0,23504.0,15627.299999999999,-447.87599999999998,-8163.3400000000001,-2736.0599999999999,-4971.0200000000004,2150.98
166964.0,22498.200000000001,15000.9,-432.14600000000002,-7899.5699999999997,-2497.1700000000001,-4555.2200000000003,2311.2600000000002
166965.0,21368.299999999999,13930.200000000001,-584.899,-7814.2799999999997,-2390.2800000000002,-4258.9399999999996,2391.8000000000002
166966.0,20398.200000000001,12950.0,-612.048,-7752.6300000000001,-2243.2800000000002,-4160.6999999999998,2401.21
166967.0,19594.599999999999,12213.700000000001,-599.53399999999999,-7660.04,-2069.6199999999999,-4053.7600000000002,2401.29
166968.0,18983.0,11609.4,-622.822,-7614.4399999999996,-1934.5999999999999,-3987.1500000000001,2408.23
166969.0,18434.200000000001,11068.0,-628.72400000000005,-7567.2600000000002,-1823.0999999999999,-3907.1900000000001,2445.0799999999999
166970.0,17874.599999999999,10530.700000000001,-667.51700000000005,-7499.8500000000004,-1706.22,-3807.8699999999999,2495.3000000000002
166971.0,17279.0,10015.1,-700.23500000000001,-7404.5500000000002,-1573.77,-3664.9200000000001,2531.8699999999999
166972.0,16631.5,9441.6000000000004,-730.87699999999995,-7317.2399999999998,-1471.71,-3496.25,2554.71
166973.0,16028.299999999999,8869.9799999999996,-753.75999999999999,-7255.6400000000003,-1380.8499999999999,-3379.3299999999999,2547.1399999999999
166974.0,15513.0,8451.1100000000006,-713.39999999999998,-7177.0200000000004,-1304.49,-3242.6100000000001,2516.73
166975.0,15092.799999999999,8147.5600000000004,-649.28700000000003,-7083.6400000000003,-1288.3,-3097.6399999999999,2492.6999999999998
166976.0,14759.4,7905.6199999999999,-613.36699999999996,-6993.9300000000003,-1295.4000000000001,-2979.96,2484.9400000000001
166977.0,14430.4,7689.8699999999999,-622.298,-6898.8000000000002,-1302.75,-2823.5700000000002,2487.8400000000001
166978.0,14049.799999999999,7469.4300000000003,-626.94299999999998,-6763.1700000000001,-1324.6900000000001,-2626.4400000000001,2486.8000000000002
166979.0,13612.1,7204.79,-634.76800000000003,-6603.6700000000001,-1333.6500000000001,-2426.3200000000002,2477.46
166980.0,13146.799999999999,6973.0799999999999,-585.85900000000004,-6386.4499999999998,-1323.8299999999999,-2238.0700000000002,2444.2199999999998
166981.0,12708.299999999999,6754.29,-507.98700000000002,-6162.7600000000002,-1324.74,-2089.0799999999999,2405.5500000000002
166982.0,12289.5,6523.1400000000003,-470.81999999999999,-5936.3699999999999,-1323.21,-1983.47,2377.8499999999999
166983.0,11844.700000000001,6282.3800000000001,-467.54300000000001,-5710.9200000000001,-1312.29,-1858.78,2332.3299999999999
166984.0,11366.1,6015.6800000000003,-470.56799999999998,-5482.3199999999997,-1303.74,-1708.6300000000001,2282.8899999999999
166985.0,10863.299999999999,5709.0299999999997,-484.50200000000001,-5262.9499999999998,-1285.98,-1572.2,2224.54
166986.0,10360.6,5424.9899999999998,-462.96199999999999,-5028.6999999999998,-1253.4000000000001,-1460.4300000000001,2147.3299999999999
166987.0,9869.2900000000009,5216.4899999999998,-373.11399999999998,-4725.21,-1217.01,-1376.97,2062.3899999999999
166988.0,9379.7600000000002,5026.5200000000004,-298.43200000000002,-4398.8900000000003,-1169.8800000000001,-1319.0899999999999,1970.6700000000001
166989.0,8907.6000000000004,4836.6800000000003,-261.28399999999999,-4116.1700000000001,-1099.77,-1265.75,1862.72
166990.0,8501.9300000000003,4662.04,-257.43099999999998,-3926.2800000000002,-1014.12,-1201.25,1747.2
166991.0,8200.3299999999999,4504.0299999999997,-276.702,-3853.8400000000001,-955.82100000000003,-1120.0699999999999,1631.8099999999999
166992.0,8012.04,4412.96,-197.07599999999999,-3812.3299999999999,-956.34699999999998,-1064.48,1534.1199999999999
166993.0,8058.75,4489.71,-24.2956,-3679.5,-887.33600000000001,-1011.48,1758.3699999999999
166994.0,58155.0,49864.0,8529.4899999999998,4192.8800000000001,-13928.6,-16892.400000000001,-3527.4200000000001
166995.0,55616.900000000001,48858.599999999999,7507.8000000000002,3714.6999999999998,-13999.299999999999,-14033.6,-3334.3699999999999
166996.0,52725.699999999997,47161.199999999997,7001.5699999999997,3842.73,-13782.6,-12019.200000000001,-3005.9000000000001
166997.0,49708.5,44402.400000000001,5997.9899999999998,3194.02,-13111.6,-10687.700000000001,-2711.7800000000002
166998.0,46541.5,41588.599999999999,5239.6499999999996,2714.3200000000002,-12203.5,-9720.8400000000001,-2340.4299999999998
166999.0,43673.199999999997,38501.800000000003,4224.2799999999997,1950.4000000000001,-11269.799999999999,-9231.75,-2047.6600000000001
167000.0,41240.800000000003,35840.599999999999,3524.1399999999999,1190.6700000000001,-10370.1,-9008.4400000000005,-1781.52
167001.0,39139.900000000001,33479.0,3034.0100000000002,457.65699999999998,-9644.8099999999995,-8834.3700000000008,-1500.46
167002.0,37457.900000000001,31489.900000000001,2722.3400000000001,-308.09899999999999,-9036.2199999999993,-8754.2099999999991,-1196.3399999999999
167003.0,35985.0,29839.900000000001,2539.5100000000002,-1037.9300000000001,-8461.6700000000001,-8609.3099999999995,-814.31299999999999
167004.0,34752.699999999997,28104.5,2031.4200000000001,-2016.46,-7927.5900000000001,-8506.4699999999993,-366.31099999999998
167005.0,33652.5,26718.200000000001,1768.1300000000001,-2724.5999999999999,-7346.1400000000003,-8481.1599999999999,78.186700000000002
167006.0,32365.5,25182.900000000001,1480.79,-3377.0300000000002,-6743.9200000000001,-8361.5900000000001,518.572
167007.0,31197.099999999999,23622.400000000001,1116.1700000000001,-4108.71,-6132.9899999999998,-8304.3099999999995,838.90499999999997
167008.0,30394.599999999999,22227.200000000001,660.03700000000003,-5167.8900000000003,-5480.8500000000004,-8279.4799999999996,1042.9100000000001
167009.0,29800.599999999999,21175.0,388.57100000000003,-6149.6199999999999,-4895.9099999999999,-8181.9200000000001,1239.1199999999999
167010.0,29327.900000000001,20246.599999999999,194.78700000000001,-7032.3299999999999,-4409.4799999999996,-8086.1300000000001,1462.8199999999999
167011.0,28915.200000000001,19446.799999999999,58.027000000000001,-7736.5500000000002,-4037.8699999999999,-7967.1899999999996,1726.1199999999999
167012.0,28685.900000000001,18758.299999999999,-62.529200000000003,-8396.6700000000001,-3750.9200000000001,-7922.0699999999997,1987.9400000000001
167013.0,28440.099999999999,18192.200000000001,-166.62700000000001,-8838.5499999999993,-3534.9400000000001,-7839.04,2276.6100000000001
167014.0,28014.900000000001,17701.599999999999,-166.18299999999999,-8968.3799999999992,-3294.5799999999999,-7733.4799999999996,2505.8499999999999
167015.0,27219.200000000001,17140.400000000001,-202.124,-8839.8400000000001,-3094.2399999999998,-7394.3699999999999,2766.3299999999999
167016.0,26265.200000000001,16339.0,-383.91899999999998,-8695.6100000000006,-2900.0700000000002,-7107.9300000000003,2905.5599999999999
167017.0,25369.700000000001,15494.5,-621.64800000000002,-8717.8999999999996,-2705.8299999999999,-6815.3299999999999,2974.9400000000001
167018.0,24608.299999999999,14782.4,-759.88199999999995,-8767.6299999999992,-2529.1799999999998,-6556.46,3015.2600000000002
167019.0,23766.299999999999,14190.5,-757.40800000000002,-8609.8700000000008,-2368.7600000000002,-6249.7299999999996,3074.0700000000002
167020.0,22954.0,13540.700000000001,-786.00099999999998,-8449.1800000000003,-2196.6100000000001,-6050.5,3099.4499999999998
167021.0,22153.900000000001,12929.1,-785.48500000000001,-8279.6599999999999,-2045.1099999999999,-5815.1999999999998,3149.8099999999999
167022.0,21305.900000000001,12220.799999999999,-817.798,-8123.0,-1929.1900000000001,-5592.0799999999999,3180.29
167023.0,20471.200000000001,11510.200000000001,-847.053,-7982.79,-1793.25,-5385.6300000000001,3194.1500000000001
167024.0,19687.700000000001,10858.200000000001,-857.60400000000004,-7842.7200000000003,-1654.47,-5191.8299999999999,3195.8800000000001
167025.0,18981.799999999999,10206.5,-907.18600000000004,-7771.3199999999997,-1517.8299999999999,-5023.4899999999998,3202.98
167026.0,18301.400000000001,9630.1399999999994,-919.64700000000005,-7655.2399999999998,-1364.9200000000001,-4847.7399999999998,3221.1100000000001
167027.0,17598.700000000001,9022.4799999999996,-981.69399999999996,-7549.0500000000002,-1205.6400000000001,-4654.3699999999999,3237.8299999999999
167028.0,16841.5,8391.1900000000005,-1066.0999999999999,-7428.7700000000004,-1043.74,-4446.9899999999998,3211.6500000000001
167029.0,15989.9,7830.8000000000002,-1063.1600000000001,-7226.6599999999999,-944.91800000000001,-4157.3500000000004,3121.9099999999999
167030.0,15149.9,7381.5600000000004,-953.73299999999995,-6916.3299999999999,-946.80600000000004,-3862.4400000000001,3019.0999999999999
167031.0,14383.1,6967.8900000000003,-872.88499999999999,-6593.6599999999999,-973.74199999999996,-3616.4000000000001,2928.7600000000002
167032.0,13672.200000000001,6601.4700000000003,-796.77599999999995,-6292.9399999999996,-971.63699999999994,-3388.71,2830.96
167033.0,13041.799999999999,6275.1599999999999,-743.45699999999999,-6042.7600000000002,-966.19399999999996,-3163.9499999999998,2751.8200000000002
167034.0,12459.4,5901.4399999999996,-774.61800000000005,-5887.9799999999996,-976.86500000000001,-2952.52,2668.8400000000001
167035.0,11857.6,5600.2299999999996,-722.49400000000003,-5644.2600000000002,-989.29700000000003,-2726.96,2584.3699999999999
167036.0,11225.299999999999,5289.0500000000002,-680.57100000000003,-5361.7700000000004,-986.93600000000004,-2507.52,2498.5500000000002
167037.0,10609.200000000001,4975.6800000000003,-647.91800000000001,-5106.6300000000001,-965.26599999999996,-2316.1199999999999,2386.5700000000002
167038.0,10048.299999999999,4729.8900000000003,-566.78300000000002,-4833.3900000000003,-940.77499999999998,-2151.8099999999999,2277.8099999999999
167039.0,9549.9500000000007,4532.2299999999996,-474.589,-4545.4200000000001,-921.90200000000004,-2024.51,2185.8699999999999
167040.0,9087.4699999999993,4259.3000000000002,-494.83300000000003,-4361.46,-896.15899999999999,-1922.96,2093.1900000000001
167041.0,8641.3299999999999,4097.8500000000004,-423.37700000000001,-4104.6700000000001,-854.15800000000002,-1827.25,1985.78
167042.0,8229.1499999999996,3867.0799999999999,-465.54300000000001,-3973.1900000000001,-799.01700000000005,-1729.23,1876.2
167043.0,7910.3400000000001,3822.02,-360.42599999999999,-3779.6900000000001,-740.11000000000001,-1634.78,1772.72
167044.0,7689.8299999999999,3642.6100000000001,-437.99799999999999,-3827.8299999999999,-700.52800000000002,-1529.0599999999999,1700.21
167045.0,7519.3699999999999,3666.1399999999999,-307.40100000000001,-3719.4299999999998,-695.54899999999998,-1416.29,1641.46
167046.0,7329.21,3419.8800000000001,-396.08600000000001,-3862.4099999999999,-719.86699999999996,-1319.6400000000001,1542.0799999999999
167047.0,7235.0299999999997,3679.5300000000002,-41.635300000000001,-3511.6100000000001,-789.33000000000004,-1170.3599999999999,1588.2
167048.0,54959.0,47519.400000000001,8086.8999999999996,7351.2799999999997,-14472.299999999999,-16123.1,-3044.8600000000001
167049.0,52104.900000000001,45966.199999999997,7335.2799999999997,6491.2200000000003,-13939.0,-13937.6,-2803.9699999999998
167050.0,49381.300000000003,43375.900000000001,6184.8000000000002,5168.5600000000004,-13191.700000000001,-12601.9,-2450.5999999999999
167051.0,46520.099999999999,40629.900000000001,5235.79,4126.5100000000002,-12199.1,-11711.299999999999,-2078.7600000000002
167052.0,44007.099999999999,37798.800000000003,4260.2799999999997,2907.2800000000002,-11218.200000000001,-11224.4,-1739.5999999999999
167053.0,41699.599999999999,35232.199999999997,3576.1999999999998,1934.03,-10337.799999999999,-10899.1,-1303.1400000000001
167054.0,39540.0,32777.5,2981.1799999999998,1168.22,-9493.4300000000003,-10734.299999999999,-863.28099999999995
167055.0,37339.699999999997,30444.700000000001,2510.9400000000001,593.39499999999998,-8689.8700000000008,-10478.1,-517.72500000000002
167056.0,35392.699999999997,28266.5,2116.1799999999998,-74.662700000000001,-7997.4399999999996,-10239.799999999999,-300.20499999999998
167057.0,33860.199999999997,26371.299999999999,1770.52,-933.63300000000004,-7420.9799999999996,-10037.5,-77.2761
167058.0,32710.599999999999,24882.099999999999,1640.28,-1737.01,-6946.5600000000004,-9917.0100000000002,178.113
167059.0,31842.299999999999,23596.200000000001,1478.96,-2610.25,-6424.2299999999996,-9883.5699999999997,492.85300000000001
167060.0,31150.700000000001,22448.200000000001,1186.6700000000001,-3574.29,-5762.29,-9879.8799999999992,810.173
167061.0,30661.200000000001,21309.599999999999,748.19899999999996,-4706.0799999999999,-5154.96,-9866.6499999999996,1105.95
167062.0,30529.799999999999,20345.400000000001,434.27800000000002,-5868.6199999999999,-4655.1700000000001,-9997.4699999999993,1357.47
167063.0,30552.900000000001,19622.5,255.20500000000001,-6945.8500000000004,-4246.29,-10078.5,1657.3599999999999
167064.0,30637.799999999999,19089.5,140.09999999999999,-7801.4700000000003,-3905.79,-10135.200000000001,2008.73
167065.0,30607.200000000001,18546.900000000001,-36.473599999999998,-8515.3099999999995,-3656.1500000000001,-10074.1,2411.04
167066.0,30385.5,17875.099999999999,-230.86600000000001,-9037.7099999999991,-3465.27,-9982.4599999999991,2796.5799999999999
167067.0,29900.0,17135.400000000001,-436.22399999999999,-9325.5200000000004,-3289.3299999999999,-9810.4899999999998,3100.27
167068.0,29299.799999999999,16508.0,-541.98500000000001,-9397.3299999999999,-3031.6399999999999,-9640.5,3265.3400000000001
167069.0,28528.0,16109.0,-538.09799999999996,-9204.8500000000004,-2745.9299999999998,-9304.0400000000009,3416.4299999999998
167070.0,27770.400000000001,15602.299999999999,-660.14300000000003,-9117.4899999999998,-2538.3800000000001,-8971.7000000000007,3505.1500000000001
167071.0,27006.5,15148.5,-650.87400000000002,-8961.8299999999999,-2391.0,-8628.7399999999998,3597.9400000000001
167072.0,26190.0,14551.200000000001,-680.66200000000003,-8801.9899999999998,-2261.9299999999998,-8334.5400000000009,3674.3899999999999
167073.0,25397.200000000001,13926.5,-762.87300000000005,-8691.2900000000009,-2140.0599999999999,-8043.0,3746.3899999999999
167074.0,24563.5,13291.5,-843.99400000000003,-8580.9599999999991,-2027.24,-7722.8000000000002,3789.21
167075.0,23660.0,12627.0,-912.06200000000001,-8444.3299999999999,-1891.9400000000001,-7384.75,3805.02
167076.0,22737.200000000001,11963.0,-960.73800000000006,-8285.1800000000003,-1741.48,-7056.96,3792.5300000000002
167077.0,21864.599999999999,11309.4,-1000.0700000000001,-8151.6800000000003,-1597.1800000000001,-6755.5699999999997,3776.9000000000001
167078.0,21027.0,10633.9,-1054.99,-8066.9700000000003,-1464.04,-6464.8999999999996,3766.3499999999999
167079.0,20199.599999999999,9973.1299999999992,-1082.5699999999999,-7964.8299999999999,-1336.0999999999999,-6180.2700000000004,3759.3600000000001
167080.0,19412.400000000001,9292.5599999999995,-1141.1500000000001,-7908.2799999999997,-1209.5899999999999,-5911.1899999999996,3757.8600000000001
167081.0,18652.099999999999,8638.9699999999993,-1186.8800000000001,-7857.6800000000003,-1084.3299999999999,-5633.46,3767.1399999999999
167082.0,17866.5,7940.2600000000002,-1311.8099999999999,-7810.21,-941.56600000000003,-5357.2700000000004,3763.73
167083.0,16952.700000000001,7266.2799999999997,-1430.5799999999999,-7645.8599999999997,-780.68299999999999,-5056.8599999999997,3675.6199999999999
167084.0,15856.799999999999,6767.2600000000002,-1343.28,-7171.4399999999996,-670.40300000000002,-4678.3100000000004,3531.4099999999999
167085.0,14720.200000000001,6257.6300000000001,-1253.3599999999999,-6618.0600000000004,-622.81799999999998,-4310.1000000000004,3381.3499999999999
167086.0,13673.5,5693.0900000000001,-1249.3,-6221.7299999999996,-588.279,-3974.1199999999999,3219.8899999999999
167087.0,12690.9,5174.5299999999997,-1206.01,-5893.7600000000002,-572.47400000000005,-3631.7399999999998,3050.23
167088.0,11754.4,4731.6199999999999,-1088.4000000000001,-5523.3000000000002,-571.13,-3323.21,2869.5799999999999
167089.0,10918.799999999999,4378.0299999999997,-955.75800000000004,-5155.6700000000001,-560.68499999999995,-3060.8499999999999,2688.2800000000002
167090.0,10219.299999999999,4077.7600000000002,-867.97000000000003,-4862.5200000000004,-552.59299999999996,-2835.6700000000001,2531.3099999999999
167091.0,9629.0900000000001,3804.0100000000002,-823.10799999999995,-4623.8500000000004,-542.34400000000005,-2654.1999999999998,2398.6199999999999
167092.0,9086.1399999999994,3566.3000000000002,-784.69600000000003,-4405.9200000000001,-528.26400000000001,-2482.8499999999999,2267.6599999999999
167093.0,8568.7299999999996,3383.2199999999998,-704.04999999999995,-4156.8000000000002,-521.02800000000002,-2314.8499999999999,2144.25
167094.0,8101.2299999999996,3189.0900000000001,-652.97699999999998,-3946.7600000000002,-509.97500000000002,-2178.3699999999999,2028.8199999999999
167095.0,7729.3999999999996,3050.4499999999998,-587.26700000000005,-3777.7199999999998,-482.428,-2076.3600000000001,1923.0
167096.0,7455.8400000000001,2945.7800000000002,-547.39599999999996,-3674.8600000000001,-450.34199999999998,-1987.75,1845.6700000000001
167097.0,7248.4200000000001,2874.8899999999999,-494.99900000000002,-3604.25,-421.73399999999998,-1898.3199999999999,1797.5699999999999
167098.0,7038.2399999999998,2714.3200000000002,-534.15099999999995,-3627.4899999999998,-407.36599999999999,-1786.3499999999999,1760.3
167099.0,6816.7399999999998,2653.4699999999998,-440.88200000000001,-3536.4200000000001,-391.608,-1658.97,1733.54
167100.0,6555.9300000000003,2380.3099999999999,-509.82900000000001,-3650.4099999999999,-377.97800000000001,-1531.76,1655.28
167101.0,6056.4700000000003,2132.9400000000001,-566.78200000000004,-3559.1799999999998,-470.66000000000003,-1341.3,1448.8399999999999
167102.0,51924.900000000001,44098.800000000003,6908.6899999999996,8363.2299999999996,-13751.6,-16103.299999999999,-2568.75
167103.0,49243.199999999997,42572.599999999999,6524.9899999999998,7553.2399999999998,-13075.0,-14517.299999999999,-2334.02
167104.0,46968.5,39731.400000000001,5203.8400000000001,5584.9099999999999,-12298.6,-13678.5,-1985.7
167105.0,44688.800000000003,37141.599999999999,4311.9200000000001,4045.6100000000001,-11359.299999999999,-13121.700000000001,-1510.75
167106.0,42450.800000000003,34491.699999999997,3555.79,2831.8299999999999,-10479.9,-12772.799999999999,-1032.9400000000001
167107.0,40317.900000000001,32121.900000000001,3099.4899999999998,2013.74,-9668.6499999999996,-12505.799999999999,-550.51900000000001
167108.0,38314.800000000003,29788.099999999999,2507.98,1190.6700000000001,-8822.5400000000009,-12282.6,-125.47199999999999
167109.0,36395.5,27704.299999999999,1991.1199999999999,507.55599999999998,-7920.1599999999999,-12039.1,192.63999999999999
167110.0,34549.599999999999,25774.0,1598.99,-78.0124,-7102.3800000000001,-11747.0,440.69900000000001
167111.0,32914.800000000003,23905.200000000001,1247.6199999999999,-709.95899999999995,-6460.4799999999996,-11479.4,655.51800000000003
167112.0,31624.700000000001,22145.799999999999,926.29200000000003,-1530.6199999999999,-5888.6099999999997,-11342.0,760.41300000000001
167113.0,30937.200000000001,20746.700000000001,633.59500000000003,-2642.6300000000001,-5375.4700000000003,-11356.5,883.99000000000001
167114.0,31023.0,19817.5,407.82799999999997,-3941.0599999999999,-4908.5200000000004,-11639.200000000001,1106.6400000000001
167115.0,31352.900000000001,19261.200000000001,300.16899999999998,-5152.7299999999996,-4464.3400000000001,-11889.5,1470.49
167116.0,31684.0,18617.099999999999,105.839,-6350.6000000000004,-4079.6799999999998,-12105.200000000001,1867.8800000000001
167117.0,31887.400000000001,18019.799999999999,-76.618899999999996,-7322.8599999999997,-3755.3499999999999,-12208.6,2325.4400000000001
167118.0,31911.799999999999,17415.099999999999,-256.04000000000002,-8053.2399999999998,-3527.6399999999999,-12212.299999999999,2754.3499999999999
167119.0,31693.799999999999,16864.400000000001,-326.92899999999997,-8466.1800000000003,-3339.1199999999999,-12093.4,3192.8899999999999
167120.0,31218.700000000001,16237.1,-437.66199999999998,-8648.2800000000007,-3102.0599999999999,-11914.9,3534.3299999999999
167121.0,30588.900000000001,15579.200000000001,-572.68600000000004,-8788.0699999999997,-2822.25,-11674.200000000001,3735.3299999999999
167122.0,29968.5,15030.700000000001,-680.66800000000001,-8832.2700000000004,-2542.4699999999998,-11435.299999999999,3875.3200000000002
167123.0,29371.400000000001,14534.700000000001,-867.58799999999997,-8924.6900000000005,-2310.6799999999998,-11148.700000000001,3980.5799999999999
167124.0,28664.400000000001,14087.200000000001,-975.86300000000006,-8898.7099999999991,-2173.27,-10775.9,4087.02
167125.0,27879.0,13581.9,-1070.01,-8782.7900000000009,-2066.4299999999998,-10405.4,4180.8299999999999
167126.0,27008.599999999999,13119.799999999999,-1112.3800000000001,-8612.3700000000008,-1944.25,-9976.5,4242.1999999999998
167127.0,26034.799999999999,12601.1,-1130.79,-8426.4400000000005,-1820.97,-9512.4899999999998,4259.3900000000003
167128.0,25058.799999999999,12016.799999999999,-1156.9300000000001,-8270.8799999999992,-1689.8499999999999,-9082.2399999999998,4244.3599999999997
167129.0,24148.0,11464.0,-1168.45,-8141.1899999999996,-1552.6099999999999,-8688.4599999999991,4209.0
167130.0,23281.400000000001,10942.200000000001,-1177.55,-8049.6400000000003,-1425.8,-8292.1200000000008,4173.1599999999999
167131.0,22412.5,10392.0,-1199.0699999999999,-7984.3000000000002,-1316.95,-7889.0200000000004,4137.96
167132.0,21557.400000000001,9827.1900000000005,-1208.0799999999999,-7908.4499999999998,-1211.9200000000001,-7509.25,4104.2399999999998
167133.0,20731.099999999999,9241.6200000000008,-1227.72,-7848.21,-1101.5699999999999,-7153.6499999999996,4076.9099999999999
167134.0,19910.299999999999,8644.5799999999999,-1239.6400000000001,-7771.7600000000002,-981.78999999999996,-6813.9799999999996,4054.02
167135.0,19105.799999999999,8025.1800000000003,-1261.6500000000001,-7697.2700000000004,-854.83199999999999,-6497.7600000000002,4031.0100000000002
167136.0,18324.0,7427.9799999999996,-1287.47,-7595.3500000000004,-754.56299999999999,-6195.1199999999999,4008.25
167137.0,17523.5,6866.29,-1331.95,-7404.0600000000004,-649.63999999999999,-5923.0600000000004,3945.2800000000002
167138.0,16607.599999999999,6491.8800000000001,-1290.0799999999999,-7001.3699999999999,-503.173,-5582.3699999999999,3827.1900000000001
167139.0,15532.1,6144.9899999999998,-1235.3399999999999,-6483.04,-363.452,-5146.4799999999996,3681.2600000000002
167140.0,14386.799999999999,5618.04,-1274.8800000000001,-6053.3299999999999,-256.31299999999999,-4712.3000000000002,3506.2399999999998
167141.0,13273.6,5070.8000000000002,-1271.0899999999999,-5664.4899999999998,-160.71100000000001,-4327.1300000000001,3294.21
167142.0,12231.5,4611.2299999999996,-1212.9000000000001,-5277.8699999999999,-81.584299999999999,-3966.3400000000001,3069.9899999999998
167143.0,11270.299999999999,4206.5200000000004,-1147.9300000000001,-4939.96,-62.761800000000001,-3623.1399999999999,2844.4400000000001
167144.0,10400.1,3871.1300000000001,-1026.9100000000001,-4573.3699999999999,-90.234999999999999,-3319.8299999999999,2654.27
167145.0,9612.0,3550.4200000000001,-928.33299999999997,-4221.5900000000001,-120.749,-3057.8000000000002,2492.7800000000002
167146.0,8923.8999999999996,3222.6100000000001,-885.02499999999998,-3972.4499999999998,-134.52600000000001,-2844.9000000000001,2324.8299999999999
167147.0,8356.1800000000003,3032.4299999999998,-769.40499999999997,-3714.98,-130.80099999999999,-2669.0100000000002,2166.0
167148.0,7901.29,2874.4699999999998,-695.57600000000002,-3532.9400000000001,-125.46899999999999,-2517.0,2037.3099999999999
167149.0,7541.8999999999996,2756.4299999999998,-621.98199999999997,-3394.3800000000001,-123.47799999999999,-2385.2399999999998,1940.8099999999999
167150.0,7238.5900000000001,2578.9200000000001,-622.19100000000003,-3366.79,-125.095,-2258.5599999999999,1869.1500000000001
167151.0,6975.2200000000003,2471.6900000000001,-543.67999999999995,-3295.73,-128.91499999999999,-2141.9000000000001,1814.3800000000001
167152.0,6732.04,2239.6300000000001,-593.17399999999998,-3343.52,-127.825,-2041.8099999999999,1768.6199999999999
167153.0,6501.1599999999999,2180.8800000000001,-485.024,-3212.04,-111.40300000000001,-1946.45,1736.6800000000001
167154.0,6285.1000000000004,1932.24,-514.52499999999998,-3290.5900000000001,-78.044899999999998,-1864.5699999999999,1690.03
167155.0,5839.3599999999997,1686.8900000000001,-669.24000000000001,-3179.6300000000001,-76.781199999999998,-1759.8399999999999,1529.8199999999999
167156.0,50145.0,41621.400000000001,6319.8999999999996,8895.8099999999995,-12963.4,-16669.799999999999,-2222.9499999999998
167157.0,47865.800000000003,39870.800000000003,5677.8400000000001,7904.6300000000001,-12219.0,-15645.5,-1906.01
167158.0,45647.599999999999,36992.300000000003,4554.5,6188.1199999999999,-11551.700000000001,-14997.1,-1500.29
167159.0,43722.599999999999,34316.599999999999,3799.1999999999998,4595.6999999999998,-10852.299999999999,-14693.299999999999,-1005.6799999999999
167160.0,41674.699999999997,31931.299999999999,3300.0500000000002,3472.2600000000002,-9977.5300000000007,-14406.1,-475.05700000000002
167161.0,39560.900000000001,29738.599999999999,2881.2800000000002,2719.3099999999999,-9021.8099999999995,-14085.4,-27.188199999999998
167162.0,37761.599999999999,27590.400000000001,2275.1999999999998,1876.8299999999999,-8132.8400000000001,-13857.9,307.56400000000002
167163.0,36366.199999999997,25787.400000000001,1809.8,1083.24,-7313.8400000000001,-13762.200000000001,564.25
167164.0,35053.800000000003,24224.0,1461.55,397.55399999999997,-6486.5500000000002,-13626.200000000001,823.90099999999995
167165.0,33736.099999999999,22757.599999999999,1150.47,-184.19999999999999,-5702.1499999999996,-13414.9,1035.4400000000001
167166.0,32834.5,21417.0,823.44500000000005,-941.30499999999995,-5047.54,-13337.9,1213.79
167167.0,32424.299999999999,20359.799999999999,657.39700000000005,-1849.01,-4587.1899999999996,-13388.4,1484.72
167168.0,32378.700000000001,19217.0,356.47300000000001,-3017.7800000000002,-4269.5299999999997,-13572.0,1857.4200000000001
167169.0,32653.700000000001,18142.299999999999,10.6677,-4390.9399999999996,-4013.1900000000001,-13845.9,2227.1999999999998
167170.0,32980.800000000003,17369.099999999999,-117.185,-5502.0100000000002,-3737.6399999999999,-14088.700000000001,2672.0700000000002
167171.0,33038.699999999997,16719.900000000001,-224.63499999999999,-6233.8699999999999,-3445.9499999999998,-14157.4,3140.1100000000001
167172.0,32721.299999999999,16081.6,-286.47399999999999,-6632.4200000000001,-3154.21,-14044.299999999999,3514.52
167173.0,32144.5,15454.700000000001,-364.18700000000001,-6822.9899999999998,-2845.5799999999999,-13794.4,3829.5799999999999
167174.0,31564.099999999999,14699.799999999999,-639.39200000000005,-7147.29,-2571.1100000000001,-13543.799999999999,4028.52
167175.0,31049.5,14116.200000000001,-791.26499999999999,-7396.2399999999998,-2291.8899999999999,-13312.4,4176.75
167176.0,30456.5,13659.6,-901.66399999999999,-7559.7600000000002,-2067.5500000000002,-12982.799999999999,4312.8599999999997
167177.0,29749.299999999999,13244.700000000001,-934.22400000000005,-7557.4300000000003,-1927.3099999999999,-12600.299999999999,4425.6300000000001
167178.0,28890.099999999999,12876.6,-891.24300000000005,-7366.3800000000001,-1789.26,-12151.799999999999,4524.29
167179.0,27873.0,12440.1,-904.22799999999995,-7149.0100000000002,-1650.5799999999999,-11629.6,4567.6099999999997
167180.0,26839.599999999999,11876.299999999999,-998.82100000000003,-7046.3100000000004,-1514.99,-11123.0,4550.2399999999998
167181.0,25861.900000000001,11335.0,-1076.6700000000001,-7008.3999999999996,-1377.99,-10635.700000000001,4506.5600000000004
167182.0,24917.799999999999,10828.5,-1131.3499999999999,-7006.1199999999999,-1259.6500000000001,-10147.1,4451.0500000000002
167183.0,23999.799999999999,10307.200000000001,-1188.9200000000001,-7043.1400000000003,-1164.75,-9666.25,4392.3000000000002
167184.0,23114.599999999999,9782.8299999999999,-1233.6700000000001,-7079.8699999999999,-1082.6300000000001,-9212.1599999999999,4329.3800000000001
167185.0,22275.299999999999,9296.3700000000008,-1244.28,-7083.6700000000001,-1002.35,-8788.7600000000002,4269.79
167186.0,21469.599999999999,8814.0699999999997,-1257.3800000000001,-7090.8299999999999,-924.27599999999995,-8384.1200000000008,4214.54
167187.0,20698.0,8334.5,-1260.4000000000001,-7091.0600000000004,-843.46500000000003,-8003.0900000000001,4168.2299999999996
167188.0,19975.0,7830.0100000000002,-1294.8499999999999,-7117.4300000000003,-757.04399999999998,-7649.79,4140.4200000000001
167189.0,19256.700000000001,7313.1899999999996,-1349.3399999999999,-7119.5500000000002,-671.83500000000004,-7306.5200000000004,4122.8000000000002
167190.0,18465.5,6775.6599999999999,-1396.6700000000001,-7031.8699999999999,-585.74800000000005,-6961.1000000000004,4081.6900000000001
167191.0,17623.400000000001,6268.5200000000004,-1407.71,-6823.3400000000001,-486.23399999999998,-6633.4899999999998,4001.7199999999998
167192.0,16827.700000000001,5799.2600000000002,-1454.0899999999999,-6616.4300000000003,-363.23099999999999,-6341.6000000000004,3891.1100000000001
167193.0,16084.0,5442.1899999999996,-1499.6600000000001,-6406.7600000000002,-225.88,-6041.04,3773.8600000000001
167194.0,15334.700000000001,5135.7299999999996,-1529.72,-6172.5299999999997,-99.272800000000004,-5718.5,3655.6100000000001
167195.0,14555.299999999999,4830.8900000000003,-1534.3,-5888.4700000000003,23.0184,-5390.4200000000001,3535.3400000000001
167196.0,13706.700000000001,4464.5100000000002,-1586.77,-5615.0699999999997,120.884,-5034.6300000000001,3394.46
167197.0,12750.0,4100.3900000000003,-1562.1099999999999,-5237.7600000000002,182.24199999999999,-4666.1099999999997,3201.98
167198.0,11735.5,3832.8200000000002,-1415.49,-4715.7399999999998,236.5,-4282.3699999999999,2987.79
167199.0,10765.200000000001,3553.54,-1313.4200000000001,-4284.6300000000001,271.57900000000001,-3903.5500000000002,2767.54
167200.0,9920.5799999999999,3243.4400000000001,-1251.5599999999999,-4014.8699999999999,276.54300000000001,-3573.3800000000001,2557.3000000000002
167201.0,9211.7099999999991,2984.3000000000002,-1158.8,-3810.0300000000002,256.20299999999997,-3294.0500000000002,2375.4099999999999
167202.0,8601.4300000000003,2765.4499999999998,-1064.8499999999999,-3632.0900000000001,218.90100000000001,-3048.0500000000002,2226.6500000000001
167203.0,8081.0200000000004,2563.7199999999998,-978.30200000000002,-3486.3200000000002,177.18100000000001,-2841.0700000000002,2103.4899999999998
167204.0,7660.8699999999999,2360.5900000000001,-924.19600000000003,-3388.8000000000002,146.11199999999999,-2682.3899999999999,2006.6099999999999
167205.0,7324.3900000000003,2207.8499999999999,-843.154,-3286.4499999999998,125.054,-2566.1500000000001,1924.54
167206.0,7050.5900000000001,2089.9299999999998,-755.35900000000004,-3173.5500000000002,115.376,-2475.7199999999998,1867.23
167207.0,6789.6300000000001,1944.96,-734.30700000000002,-3084.3899999999999,107.423,-2395.5599999999999,1812.04
167208.0,6609.79,1880.1600000000001,-599.05100000000004,-2957.4200000000001,144.93700000000001,-2336.3299999999999,1797.75
167209.0,6383.5799999999999,1682.6900000000001,-773.673,-2864.5,244.21799999999999,-2212.1100000000001,1857.4000000000001
167210.0,67426.300000000003,-695.798,14895.5,47336.0,-16908.5,-25004.400000000001,-1973.76
167211.0,70650.899999999994,-10125.6,19320.5,44436.099999999999,-17100.700000000001,-24982.599999999999,-1216.4200000000001
167212.0,79713.5,-34061.599999999999,22541.900000000001,32456.599999999999,-14407.700000000001,-24951.200000000001,332.34100000000001
167213.0,105345.0,-78327.300000000003,25312.099999999999,7805.21,-5358.8000000000002,-24156.700000000001,3033.2199999999998
167214.0,156955.0,-153156.0,17702.900000000001,-41769.800000000003,13965.1,-21162.799999999999,6780.0100000000002
167215.0,224233.0,-241972.0,-2560.9699999999998,-113006.0,46028.099999999999,-13075.4,10608.4
167216.0,267289.0,-299934.0,-43855.599999999999,-192195.0,84003.0,3747.5100000000002,14579.200000000001
167217.0,263399.0,-241456.0,-85899.800000000003,-226911.0,120037.0,30290.0,20438.5
167218.0,324632.0,1509.48,-141673.0,-181064.0,143895.0,65002.099999999999,31088.299999999999
167219.0,586625.0,410308.0,-193083.0,-33606.300000000003,65915.699999999997,106210.0,36362.099999999999
167220.0,804896.0,671227.0,-156249.0,111341.0,-145280.0,127258.0,18785.400000000001
167221.0,762297.0,556178.0,-67875.399999999994,114923.0,-284162.0,100104.0,-1639.71
167222.0,526161.0,289394.0,-22289.200000000001,40566.199999999997,-251505.0,42978.800000000003,-3294.52
167223.0,69048.5,809.45500000000004,13970.6,45162.0,-16610.5,-28097.099999999999,-2235.6799999999998
167224.0,73106.399999999994,-8169.9899999999998,18915.0,43153.199999999997,-17163.599999999999,-28712.900000000001,-1816.53
167225.0,83473.5,-32416.400000000001,23727.099999999999,32608.700000000001,-14471.1,-29490.599999999999,-536.71299999999997
167226.0,112319.0,-79634.899999999994,27892.799999999999,9445.9699999999993,-5001.3199999999997,-29491.400000000001,2027.9100000000001
167227.0,170752.0,-161906.0,20843.0,-38004.0,16493.599999999999,-26694.400000000001,5667.7700000000004
167228.0,246300.0,-262896.0,-3898.71,-106109.0,53568.800000000003,-16403.400000000001,8032.2399999999998
167229.0,295020.0,-325314.0,-48876.900000000001,-174195.0,98820.800000000003,8386.7999999999993,4058.1700000000001
167230.0,293601.0,-255461.0,-97123.5,-202034.0,140617.0,49371.800000000003,-5866.6000000000004
167231.0,352193.0,11175.6,-149533.0,-166962.0,148097.0,98476.100000000006,-8502.75
167232.0,596896.0,413512.0,-169093.0,-64799.5,46564.400000000001,141549.0,-6536.29
167233.0,798440.0,644125.0,-125023.0,2878.0300000000002,-145170.0,144757.0,-24809.0
167234.0,753915.0,549415.0,-45187.5,-21146.700000000001,-258198.0,86404.699999999997,-45297.099999999999
167235.0,525822.0,281926.0,-14621.6,-92761.0,-228131.0,8510.5100000000002,-31206.799999999999
167236.0,69415.399999999994,4563.4700000000003,13334.9,42933.599999999999,-16351.700000000001,-30456.099999999999,-2645.0
167237.0,74169.600000000006,-3764.02,18354.400000000001,41522.099999999999,-17139.599999999999,-31961.900000000001,-2362.9200000000001
167238.0,85430.0,-29224.700000000001,22545.599999999999,30850.099999999999,-14585.299999999999,-34048.199999999997,-1033.5699999999999
167239.0,117089.0,-78744.699999999997,27199.5,9017.25,-5221.9099999999999,-36462.800000000003,1914.3099999999999
167240.0,182183.0,-170358.0,17243.900000000001,-38516.0,17963.900000000001,-37662.400000000001,6436.1099999999997
167241.0,267275.0,-283353.0,-11901.299999999999,-101183.0,59303.800000000003,-32511.0,9871.7099999999991
167242.0,324965.0,-351477.0,-64439.699999999997,-145912.0,114843.0,-10666.200000000001,4143.1599999999999
167243.0,340241.0,-257327.0,-120283.0,-118493.0,173142.0,41151.199999999997,-23947.099999999999
167244.0,470342.0,77793.899999999994,-165937.0,-23174.599999999999,193839.0,118308.0,-84696.300000000003
167245.0,775240.0,558292.0,-167812.0,81635.899999999994,89821.399999999994,165363.0,-169737.0
167246.0,985152.0,832377.0,-105929.0,106632.0,-128093.0,118379.0,-225912.0
167247.0,905157.0,698583.0,-22194.299999999999,33660.199999999997,-271416.0,9908.9699999999993,-196328.0
167248.0,613041.0,337339.0,5789.1700000000001,-85081.0,-243670.0,-70731.300000000003,-107043.0
167249.0,68506.399999999994,10083.4,12605.799999999999,40475.400000000001,-16092.6,-31780.400000000001,-3309.25
167250.0,73847.5,3171.8000000000002,17921.400000000001,39718.5,-17129.0,-34285.099999999999,-3301.0500000000002
167251.0,85300.199999999997,-22394.299999999999,21333.099999999999,28594.400000000001,-14614.4,-38042.400000000001,-1947.21
167252.0,117889.0,-71031.399999999994,26943.0,7759.3299999999999,-5524.7600000000002,-43644.099999999999,1189.0699999999999
167253.0,187189.0,-165211.0,16637.5,-40093.5,17811.400000000001,-51507.699999999997,7251.9099999999999
167254.0,280198.0,-283097.0,-14771.1,-99648.0,61929.0,-57640.199999999997,14260.6
167255.0,345222.0,-354895.0,-75785.800000000003,-128992.0,121149.0,-53258.900000000001,15862.299999999999
167256.0,391098.0,-239827.0,-142577.0,-29850.299999999999,198980.0,-17869.400000000001,-5583.8100000000004
167257.0,693851.0,225113.0,-234617.0,246714.0,268818.0,61693.099999999999,-102422.0
167258.0,1239840.0,952921.0,-273465.0,591730.0,138154.0,106841.0,-291078.0
167259.0,1511080.0,1309040.0,-150098.0,692926.0,-212653.0,23631.400000000001,-422821.0
167260.0,1269370.0,978690.0,2841.1999999999998,449530.0,-402140.0,-103541.0,-355005.0
167261.0,764876.0,417281.0,36140.900000000001,120895.0,-309384.0,-154218.0,-188310.0
167262.0,66579.100000000006,18068.799999999999,13469.9,39346.800000000003,-15972.0,-31925.200000000001,-3561.5799999999999
167263.0,72283.600000000006,11562.700000000001,17386.200000000001,37708.599999999999,-17294.400000000001,-35189.0,-3982.23
167264.0,82855.199999999997,-11138.9,20574.799999999999,27270.799999999999,-14690.6,-40520.5,-3102.4200000000001
167265.0,113751.0,-57132.5,24977.0,5940.8800000000001,-6010.1300000000001,-49293.900000000001,-55.9101
167266.0,181246.0,-144406.0,15653.9,-40973.300000000003,15796.9,-63746.900000000001,7028.6400000000003
167267.0,277209.0,-256507.0,-17376.200000000001,-102216.0,59561.599999999999,-83807.0,18595.700000000001
167268.0,348510.0,-318148.0,-81649.199999999997,-129506.0,116350.0,-102365.0,28910.400000000001
167269.0,416667.0,-187562.0,-151829.0,-8353.1299999999992,190072.0,-106035.0,38775.099999999999
167270.0,816281.0,361353.0,-282773.0,397586.0,267676.0,-56205.199999999997,27900.0
167271.0,1560850.0,1284030.0,-368628.0,1036630.0,86873.800000000003,22234.400000000001,-97464.5
167272.0,1938570.0,1674810.0,-219363.0,1319960.0,-389499.0,-7014.5100000000002,-295023.0
167273.0,1603960.0,1159010.0,6781.6599999999999,970938.0,-592173.0,-119291.0,-332501.0
167274.0,914950.0,450136.0,59517.0,432277.0,-399146.0,-166877.0,-207936.0
167275.0,64582.900000000001,23865.5,12027.5,35580.599999999999,-15920.700000000001,-31412.0,-3383.8699999999999
167276.0,70442.300000000003,21063.5,17550.099999999999,36392.900000000001,-17640.099999999999,-35004.699999999997,-4139.3999999999996
167277.0,78670.800000000003,872.27999999999997,18039.700000000001,24874.5,-14970.799999999999,-40877.400000000001,-3875.6199999999999
167278.0,105316.0,-34707.0,26016.0,8030.0600000000004,-7177.7700000000004,-51684.800000000003,-1186.99
167279.0,164899.0,-111293.0,13374.0,-40265.699999999997,12686.700000000001,-70374.600000000006,6297.5100000000002
167280.0,255826.0,-200110.0,-13988.0,-99692.399999999994,50629.300000000003,-100553.0,21516.299999999999
167281.0,335471.0,-247596.0,-79845.199999999997,-141569.0,99499.399999999994,-135833.0,44318.199999999997
167282.0,414895.0,-110303.0,-142991.0,-54815.5,147097.0,-165046.0,80712.899999999994
167283.0,752492.0,371874.0,-252248.0,265832.0,185200.0,-140774.0,151992.0
167284.0,1450680.0,1198410.0,-354876.0,880455.0,9001.3799999999992,-21896.900000000001,166208.0
167285.0,1889600.0,1604120.0,-221053.0,1346970.0,-459490.0,54633.199999999997,8628.9300000000003
167286.0,1637920.0,1101660.0,4399.4499999999998,1155850.0,-671856.0,-5521.8800000000001,-143912.0
167287.0,965668.0,381553.0,57568.599999999999,616957.0,-454252.0,-77776.199999999997,-139861.0
167288.0,62338.599999999999,29661.5,11134.700000000001,31447.099999999999,-15526.299999999999,-30288.599999999999,-3224.6599999999999
167289.0,68198.600000000006,28333.099999999999,15576.799999999999,32014.900000000001,-17397.400000000001,-33971.199999999997,-4384.6999999999998
167290.0,74358.600000000006,13440.700000000001,15871.799999999999,22367.799999999999,-15057.799999999999,-39683.099999999999,-4503.6000000000004
167291.0,94523.199999999997,-13227.299999999999,23399.5,7506.8299999999999,-8621.5200000000004,-50608.5,-2308.1700000000001
167292.0,142569.0,-71389.5,13307.200000000001,-36166.199999999997,7827.4399999999996,-69787.300000000003,5786.5900000000001
167293.0,220898.0,-137347.0,-10248.5,-97014.600000000006,36990.699999999997,-100585.0,23695.200000000001
167294.0,303595.0,-169896.0,-63716.300000000003,-159120.0,72842.899999999994,-137639.0,55292.199999999997
167295.0,388323.0,-57140.699999999997,-123791.0,-142314.0,99323.399999999994,-166996.0,102495.0
167296.0,613594.0,299140.0,-196438.0,29987.0,99764.800000000003,-152448.0,175368.0
167297.0,1079970.0,883627.0,-255076.0,431668.0,-36413.5,-35902.400000000001,239595.0
167298.0,1439590.0,1184390.0,-181744.0,838569.0,-377939.0,110470.0,176842.0
167299.0,1332000.0,828882.0,-11429.1,862679.0,-572661.0,132217.0,27612.099999999999
167300.0,860258.0,236071.0,38838.199999999997,532038.0,-423647.0,58804.599999999999,-46067.699999999997
167301.0,59990.099999999999,34143.800000000003,10237.299999999999,27102.099999999999,-15257.1,-28409.400000000001,-2967.5799999999999
167302.0,65285.300000000003,34971.699999999997,14174.4,27994.799999999999,-17000.200000000001,-31647.599999999999,-4255.6199999999999
167303.0,70196.899999999994,25215.5,14876.799999999999,20463.799999999999,-15220.700000000001,-36910.599999999999,-4657.54
167304.0,83609.399999999994,6745.2299999999996,20627.900000000001,7664.1300000000001,-9907.9099999999999,-46500.900000000001,-3066.5999999999999
167305.0,118625.0,-34145.800000000003,15332.200000000001,-29361.299999999999,2463.0500000000002,-62646.699999999997,3895.6700000000001
167306.0,180497.0,-83104.100000000006,-3001.1300000000001,-90479.899999999994,25132.900000000001,-86421.300000000003,20138.200000000001
167307.0,253443.0,-105353.0,-43516.699999999997,-167243.0,51948.300000000003,-112580.0,47024.199999999997
167308.0,337771.0,-21972.599999999999,-91511.800000000003,-208446.0,65695.0,-130082.0,88951.199999999997
167309.0,491485.0,202975.0,-147534.0,-166458.0,40369.0,-113549.0,150710.0
167310.0,734116.0,532585.0,-172775.0,22880.400000000001,-59071.5,-19195.200000000001,207803.0
167311.0,933357.0,703876.0,-143363.0,271122.0,-245854.0,128520.0,184235.0
167312.0,908761.0,514036.0,-32406.900000000001,397423.0,-382743.0,199829.0,77673.600000000006
167313.0,663142.0,88875.699999999997,9678.5599999999995,275283.0,-321565.0,156789.0,-2159.8699999999999
167314.0,58330.599999999999,37946.400000000001,9644.3400000000001,22932.200000000001,-15104.0,-26418.0,-2759.1199999999999
167315.0,63065.699999999997,40168.199999999997,12756.5,23807.700000000001,-16776.0,-28955.900000000001,-3959.7800000000002
167316.0,67052.899999999994,34612.099999999999,13542.200000000001,18019.900000000001,-15474.6,-33405.099999999999,-4485.5699999999997
167317.0,74980.5,22367.900000000001,17950.900000000001,7663.6800000000003,-11205.799999999999,-40980.800000000003,-3478.79
167318.0,97171.199999999997,-6903.3500000000004,14905.4,-21987.099999999999,-1324.1300000000001,-52917.900000000001,1147.54
167319.0,140529.0,-41978.0,1886.95,-73549.899999999994,17646.5,-68597.399999999994,11423.0
167320.0,195321.0,-53044.599999999999,-28820.299999999999,-143201.0,42688.800000000003,-80746.199999999997,27231.0
167321.0,268448.0,14693.9,-65698.100000000006,-206197.0,50801.599999999999,-81637.699999999997,47714.5
167322.0,387860.0,142785.0,-97705.100000000006,-251637.0,13291.700000000001,-62255.199999999997,81093.600000000006
167323.0,513959.0,280351.0,-107003.0,-224372.0,-51893.400000000001,3894.4400000000001,124831.0
167324.0,600485.0,358755.0,-108419.0,-100851.0,-134889.0,117605.0,128752.0
167325.0,597649.0,269286.0,-53578.099999999999,38149.199999999997,-219535.0,196885.0,66499.0
167326.0,489741.0,-7955.8100000000004,-20815.5,36264.800000000003,-209381.0,187642.0,1498.4100000000001
167327.0,56616.599999999999,39545.699999999997,8047.7200000000003,17829.099999999999,-14771.6,-24169.099999999999,-2496.8400000000001
167328.0,60930.699999999997,43899.800000000003,11740.1,19830.200000000001,-16408.5,-25994.5,-3567.1500000000001
167329.0,64484.900000000001,40364.400000000001,11221.9,14178.700000000001,-15526.1,-29507.700000000001,-4129.6599999999999
167330.0,69051.899999999994,34135.699999999997,16279.700000000001,7682.9499999999998,-12182.9,-35289.900000000001,-3675.0900000000001
167331.0,81985.800000000003,12085.0,13053.799999999999,-15519.4,-4019.48,-44284.400000000001,-258.67399999999998
167332.0,109607.0,-11987.700000000001,3546.1999999999998,-50933.800000000003,11888.0,-55054.099999999999,6678.2299999999996
167333.0,147365.0,-12951.0,-24702.099999999999,-96522.699999999997,39492.300000000003,-58775.5,13338.1
167334.0,207006.0,61131.400000000001,-59381.300000000003,-132949.0,48857.900000000001,-46759.800000000003,10475.700000000001
167335.0,301446.0,150392.0,-71844.600000000006,-187903.0,3341.3200000000002,-26375.799999999999,5707.6300000000001
167336.0,388294.0,182661.0,-60146.400000000001,-251754.0,-45132.800000000003,11144.5,26435.099999999999
167337.0,432698.0,177462.0,-72770.5,-251947.0,-73957.800000000003,86442.399999999994,54298.599999999999
167338.0,423545.0,118868.0,-52314.300000000003,-160379.0,-115183.0,158219.0,40862.099999999999
167339.0,372659.0,-49816.0,-38180.5,-109409.0,-121564.0,173360.0,-126.223
167340.0,54818.099999999999,41444.0,7889.4099999999999,14724.0,-14319.4,-21841.5,-2268.2399999999998
167341.0,58841.0,45687.800000000003,10337.1,15907.5,-15888.700000000001,-23029.799999999999,-3162.6199999999999
167342.0,62267.5,44920.0,10286.6,11756.1,-15425.799999999999,-25630.799999999999,-3734.3699999999999
167343.0,65155.599999999999,41511.400000000001,13652.4,6406.5600000000004,-12789.5,-29913.900000000001,-3629.4400000000001
167344.0,72800.399999999994,26354.700000000001,11736.0,-10675.299999999999,-6561.3699999999999,-37081.800000000003,-808.72199999999998
167345.0,91837.100000000006,7548.7399999999998,2668.1399999999999,-36920.900000000001,6169.6199999999999,-46263.199999999997,6182.8400000000001
167346.0,122998.0,12389.200000000001,-27143.700000000001,-59873.900000000001,31167.0,-50150.599999999999,15717.5
167347.0,175839.0,92162.300000000003,-63899.800000000003,-48448.699999999997,40602.900000000001,-33628.300000000003,11519.700000000001
167348.0,248985.0,178500.0,-76701.0,-58359.900000000001,-1940.45,-6099.6700000000001,-19038.799999999999
167349.0,306080.0,180708.0,-51005.0,-136169.0,-50970.400000000001,14591.799999999999,-39049.099999999999
167350.0,327835.0,128301.0,-38395.199999999997,-212953.0,-61012.900000000001,51189.900000000001,-19068.900000000001
167351.0,315128.0,57166.699999999997,-33593.5,-208573.0,-62192.099999999999,104825.0,423.52800000000002
167352.0,286944.0,-50019.900000000001,-36169.0,-167225.0,-63415.599999999999,134813.0,-8088.0299999999997
167353.0,52978.400000000001,41126.300000000003,6358.3999999999996,11069.4,-13795.200000000001,-19633.799999999999,-2009.8599999999999
167354.0,56669.5,46390.599999999999,9268.2399999999998,12999.200000000001,-15255.799999999999,-20293.200000000001,-2845.29
167355.0,59946.800000000003,46863.5,9050.0699999999997,9368.0799999999999,-15182.9,-21976.599999999999,-3425.75
167356.0,62453.800000000003,46738.699999999997,11816.799999999999,5551.96,-13224.0,-24899.700000000001,-3572.5100000000002
167357.0,67258.300000000003,37905.0,11702.799999999999,-6624.1599999999999,-8869.3299999999999,-30434.0,-1456.8399999999999
167358.0,81757.100000000006,24764.299999999999,4361.9799999999996,-27970.299999999999,540.95699999999999,-38618.099999999999,5415.3900000000003
167359.0,110882.0,26051.099999999999,-19918.299999999999,-48614.300000000003,15578.700000000001,-44688.699999999997,20973.0
167360.0,154321.0,80400.300000000003,-55942.699999999997,-28939.900000000001,25578.299999999999,-30138.799999999999,34109.699999999997
167361.0,230879.0,177504.0,-86606.100000000006,18521.700000000001,1213.4200000000001,3821.25,8492.2199999999993
167362.0,281306.0,215210.0,-61028.0,12284.6,-59271.800000000003,20706.0,-44261.699999999997
167363.0,264964.0,135953.0,-29900.400000000001,-83760.399999999994,-78695.699999999997,29129.0,-56979.699999999997
167364.0,229113.0,52895.599999999999,-15193.5,-144862.0,-51514.400000000001,59260.5,-35200.599999999999
167365.0,213732.0,-25234.0,-22959.299999999999,-149839.0,-36098.699999999997,89772.199999999997,-24358.200000000001
167366.0,51458.5,42683.099999999999,7295.7799999999997,10861.0,-13439.0,-17830.099999999999,-2130.8299999999999
167367.0,54415.300000000003,45381.0,7690.1999999999998,10142.0,-14528.200000000001,-17994.599999999999,-2720.77
167368.0,57605.699999999997,48401.400000000001,9049.0400000000009,8796.8299999999999,-14925.799999999999,-18800.099999999999,-3222.1199999999999
167369.0,60257.800000000003,48397.400000000001,9006.0599999999995,3915.4200000000001,-13653.799999999999,-20464.200000000001,-3523.8400000000001
167370.0,63509.900000000001,45806.400000000001,11163.200000000001,-3641.0999999999999,-10862.9,-24029.200000000001,-2244.9400000000001
167371.0,73925.0,36780.300000000003,5376.2299999999996,-22773.5,-4542.6400000000003,-30026.799999999999,3441.8899999999999
167372.0,97766.0,33282.099999999999,-8758.8299999999999,-47944.800000000003,3068.21,-35721.300000000003,15827.299999999999
167373.0,130670.0,57286.599999999999,-33753.0,-50907.0,14373.700000000001,-28564.700000000001,35883.699999999997
167374.0,204819.0,140333.0,-79353.0,2722.5300000000002,6936.6099999999997,2577.1300000000001,40078.099999999999
167375.0,266948.0,205533.0,-75344.5,67343.300000000003,-56375.0,29147.900000000001,-1159.1400000000001
167376.0,245796.0,144961.0,-35670.300000000003,26992.200000000001,-93565.800000000003,31297.900000000001,-44638.400000000001
167377.0,180996.0,64305.199999999997,-8777.7199999999993,-48788.199999999997,-62931.300000000003,37905.699999999997,-47265.300000000003
167378.0,155006.0,1732.8599999999999,-11353.799999999999,-89931.0,-34180.099999999999,56001.099999999999,-35306.199999999997
167379.0,7135.7799999999997,1732.98,-844.90200000000004,-2978.04,273.50200000000001,-2585.2800000000002,2156.3200000000002
167380.0,7640.5200000000004,1610.4000000000001,-937.64700000000005,-3273.8699999999999,298.10599999999999,-2864.02,2280.3400000000001
167381.0,7849.6599999999999,888.16899999999998,-1193.8499999999999,-3465.8200000000002,551.60199999999998,-3212.75,2273.9299999999998
167382.0,8358.8700000000008,156.08099999999999,-1399.47,-3390.4200000000001,895.99699999999996,-3696.0900000000001,2380.3600000000001
167383.0,9708.4400000000005,-277.82400000000001,-1559.1600000000001,-3188.8600000000001,1288.5799999999999,-4505.6700000000001,2706.9899999999998
167384.0,11269.6,-926.67899999999997,-1737.6500000000001,-2715.2199999999998,1796.0999999999999,-5414.4499999999998,2998.3899999999999
167385.0,12004.700000000001,-2183.6599999999999,-2000.4000000000001,-2068.1999999999998,2333.02,-5789.46,3011.3299999999999
167386.0,12052.6,-3290.5900000000001,-2229.6500000000001,-1603.4000000000001,2726.6799999999998,-5631.9099999999999,2922.5500000000002
167387.0,12348.700000000001,-3881.0799999999999,-2325.9899999999998,-1105.8099999999999,3076.3099999999999,-5559.2299999999996,2920.02
167388.0,12792.5,-4536.6800000000003,-2465.5900000000001,-434.71499999999997,3513.4699999999998,-5477.1599999999999,2828.3099999999999
167389.0,12766.700000000001,-5236.2600000000002,-2509.8699999999999,210.05199999999999,3868.02,-5032.4200000000001,2574.3299999999999
167390.0,12501.5,-5917.1899999999996,-2562.3600000000001,579.77499999999998,4090.0999999999999,-4443.8400000000001,2250.1399999999999
167391.0,12466.700000000001,-6352.5500000000002,-2476.7800000000002,1164.0999999999999,4303.96,-3938.4099999999999,1908.24
167392.0,7471.1700000000001,1714.9300000000001,-820.06299999999999,-3304.3400000000001,252.45500000000001,-2773.7800000000002,2133.0799999999999
167393.0,8144.0200000000004,1769.3800000000001,-865.596,-3361.4699999999998,358.93000000000001,-3157.3299999999999,2329.75
167394.0,8728.8400000000001,1385.04,-1028.3499999999999,-3208.1199999999999,692.49900000000002,-3646.29,2518.6700000000001
167395.0,9156.1200000000008,682.80600000000004,-1189.0,-3000.5900000000001,1032.1800000000001,-4050.3400000000001,2661.21
167396.0,9931.5,-19.610299999999999,-1358.8199999999999,-2891.23,1344.8699999999999,-4593.0699999999997,2812.2199999999998
167397.0,11074.200000000001,-872.86400000000003,-1636.95,-2510.52,1822.1500000000001,-5326.4899999999998,2918.1799999999998
167398.0,12011.6,-1937.27,-1906.3399999999999,-1643.8199999999999,2384.8899999999999,-5806.8599999999997,2942.71
167399.0,12490.9,-2842.27,-2099.23,-1009.64,2774.8899999999999,-5870.2600000000002,2999.6399999999999
167400.0,12806.5,-3619.8699999999999,-2246.6799999999998,-809.36400000000003,3045.6700000000001,-5843.46,3044.9099999999999
167401.0,13043.299999999999,-4668.4899999999998,-2411.54,-454.04300000000001,3406.0,-5697.96,2862.5
167402.0,12888.4,-5692.4099999999999,-2504.8499999999999,52.641100000000002,3715.3200000000002,-5201.1199999999999,2496.0700000000002
167403.0,12449.9,-6375.3000000000002,-2484.2199999999998,448.58100000000002,3866.4000000000001,-4527.79,2121.0700000000002
167404.0,12205.1,-6923.6700000000001,-2549.8000000000002,778.47000000000003,4016.75,-3931.4499999999998,1772.5699999999999
167405.0,7750.1899999999996,1908.1400000000001,-839.82500000000005,-3301.1500000000001,233.44300000000001,-2919.9400000000001,2156.4400000000001
167406.0,8556.5799999999999,1937.6700000000001,-962.96400000000006,-3333.1100000000001,369.399,-3411.4000000000001,2379.54
167407.0,9328.7999999999993,1465.0899999999999,-1224.47,-3260.9899999999998,693.17499999999995,-4035.4000000000001,2573.79
167408.0,9698.7900000000009,684.14099999999996,-1388.1800000000001,-3039.4899999999998,1004.46,-4419.1199999999999,2708.6599999999999
167409.0,10077.700000000001,-78.695899999999995,-1486.96,-2861.29,1299.0699999999999,-4715.5799999999999,2827.27
167410.0,10908.799999999999,-956.37,-1693.24,-2391.1799999999998,1827.52,-5244.5600000000004,2882.2399999999998
167411.0,11995.200000000001,-2037.6500000000001,-2065.8699999999999,-1563.96,2448.9400000000001,-5774.4700000000003,2922.4099999999999
167412.0,12818.6,-2872.8400000000001,-2334.4499999999998,-946.80799999999999,2840.3499999999999,-6034.0200000000004,3050.8400000000001
167413.0,13207.700000000001,-3517.7600000000002,-2372.6500000000001,-745.66899999999998,3043.0999999999999,-6097.9300000000003,3124.4299999999998
167414.0,13268.799999999999,-4498.5100000000002,-2344.0300000000002,-281.786,3338.0999999999999,-5892.1300000000001,2895.0500000000002
167415.0,12949.6,-5507.9300000000003,-2347.0900000000001,369.61799999999999,3624.71,-5294.0600000000004,2465.5599999999999
167416.0,12359.6,-6166.2200000000003,-2300.0100000000002,779.71600000000001,3756.6799999999998,-4522.4799999999996,2059.5500000000002
167417.0,12001.4,-6697.5299999999997,-2290.02,1030.98,3885.1399999999999,-3865.9000000000001,1714.9000000000001
167418.0,8137.04,2080.3899999999999,-905.46500000000003,-3338.75,239.917,-3099.9299999999998,2244.1399999999999
167419.0,9126.0699999999997,2094.8099999999999,-1043.1700000000001,-3333.5500000000002,436.54399999999998,-3711.23,2524.1399999999999
167420.0,9999.8400000000001,1628.28,-1276.3699999999999,-3178.1300000000001,796.35299999999995,-4405.4700000000003,2725.9299999999998
167421.0,10306.6,865.48900000000003,-1385.54,-2885.0900000000001,1078.96,-4753.9399999999996,2842.6999999999998
167422.0,10408.0,-5.0140599999999997,-1466.4400000000001,-2800.6199999999999,1316.52,-4889.9200000000001,2917.0599999999999
167423.0,10965.799999999999,-1072.7,-1656.49,-2414.0100000000002,1840.9100000000001,-5268.75,2912.3600000000001
167424.0,12113.4,-2217.8099999999999,-2006.04,-1596.55,2520.4699999999998,-5810.4399999999996,2949.1300000000001
167425.0,13206.200000000001,-2994.1500000000001,-2310.5700000000002,-928.02200000000005,2977.8899999999999,-6200.6999999999998,3116.1500000000001
167426.0,13668.799999999999,-3500.0799999999999,-2417.1999999999998,-676.25400000000002,3157.8499999999999,-6334.0500000000002,3186.9899999999998
167427.0,13551.200000000001,-4406.1099999999997,-2411.0100000000002,-146.179,3355.0100000000002,-6071.1199999999999,2924.8200000000002
167428.0,13040.1,-5448.0100000000002,-2428.0599999999999,539.56100000000004,3580.0999999999999,-5370.6099999999997,2461.21
167429.0,12277.6,-6069.2200000000003,-2342.6199999999999,957.25699999999995,3671.8099999999999,-4512.75,2010.3599999999999
167430.0,11732.200000000001,-6542.1999999999998,-2296.5,1165.8299999999999,3728.1700000000001,-3793.5999999999999,1639.1099999999999
167431.0,8612.8299999999999,2256.7800000000002,-940.00400000000002,-3427.5700000000002,248.84,-3326.8099999999999,2340.4000000000001
167432.0,9782.9400000000005,2228.4400000000001,-1101.6700000000001,-3414.8499999999999,484.76499999999999,-4071.6199999999999,2653.4899999999998
167433.0,10646.700000000001,1624.25,-1366.9400000000001,-3202.5,870.90099999999995,-4794.2799999999997,2846.8600000000001
167434.0,10828.4,814.90599999999995,-1504.0,-2885.02,1151.01,-5059.9799999999996,2942.9000000000001
167435.0,10713.0,23.4511,-1532.0999999999999,-2809.23,1329.04,-5065.6599999999999,2969.23
167436.0,11011.4,-1041.25,-1598.9200000000001,-2403.4000000000001,1781.8599999999999,-5319.9200000000001,2910.5500000000002
167437.0,12114.0,-2315.29,-1932.26,-1663.1700000000001,2455.1500000000001,-5850.7700000000004,2923.9299999999998
167438.0,13420.9,-3187.1999999999998,-2264.1999999999998,-979.54899999999998,2983.7800000000002,-6340.79,3114.9000000000001
167439.0,14074.0,-3681.3299999999999,-2445.1500000000001,-654.36300000000006,3245.9899999999998,-6552.4700000000003,3199.75
167440.0,13913.9,-4445.21,-2407.3800000000001,10.6412,3429.3099999999999,-6253.3400000000001,2948.1799999999998
167441.0,13255.700000000001,-5424.4399999999996,-2401.4299999999998,741.53399999999999,3608.77,-5468.6199999999999,2477.0599999999999
167442.0,12340.299999999999,-5987.5600000000004,-2290.1999999999998,1183.5599999999999,3663.4400000000001,-4533.0500000000002,1982.6800000000001
167443.0,11636.4,-6383.1700000000001,-2228.8000000000002,1379.6900000000001,3665.7399999999998,-3752.8099999999999,1588.6600000000001
167444.0,9136.9200000000001,2441.6599999999999,-988.24599999999998,-3533.5900000000001,257.67099999999999,-3581.1500000000001,2438.3800000000001
167445.0,10484.9,2403.48,-1155.27,-3494.7199999999998,516.85000000000002,-4457.8100000000004,2772.0500000000002
167446.0,11271.1,1690.3099999999999,-1356.3299999999999,-3164.9499999999998,901.73500000000001,-5176.4300000000003,2952.3000000000002
167447.0,11307.700000000001,789.99800000000005,-1492.49,-2834.3000000000002,1203.77,-5348.0200000000004,3035.4099999999999
167448.0,11045.1,25.2681,-1573.4100000000001,-2811.0300000000002,1387.0699999999999,-5245.3800000000001,3033.9499999999998
167449.0,11122.299999999999,-999.96600000000001,-1638.5799999999999,-2439.4499999999998,1767.1700000000001,-5381.54,2937.9200000000001
167450.0,12087.4,-2246.0799999999999,-1885.5899999999999,-1689.03,2375.6599999999999,-5874.3999999999996,2910.23
167451.0,13524.799999999999,-3189.23,-2166.9899999999998,-950.351,2916.3899999999999,-6449.8100000000004,3100.2399999999998
167452.0,14383.1,-3791.3899999999999,-2377.04,-538.99400000000003,3249.9899999999998,-6753.2399999999998,3182.6900000000001
167453.0,14219.799999999999,-4566.75,-2364.46,163.19999999999999,3445.52,-6425.1099999999997,2940.3299999999999
167454.0,13463.5,-5536.8400000000001,-2399.5,857.50699999999995,3609.6100000000001,-5573.8500000000004,2470.1799999999998
167455.0,12453.0,-6044.96,-2288.52,1342.4000000000001,3653.6999999999998,-4571.9799999999996,1948.22
167456.0,11628.1,-6345.96,-2222.1199999999999,1549.71,3625.4299999999998,-3734.8600000000001,1543.51
167457.0,9722.3299999999999,2646.6900000000001,-1036.53,-3634.0999999999999,272.21800000000002,-3869.04,2550.3099999999999
167458.0,11193.1,2587.77,-1233.0799999999999,-3565.9299999999998,543.32000000000005,-4845.3100000000004,2887.6100000000001
167459.0,11831.200000000001,1783.8599999999999,-1387.45,-3134.9099999999999,895.27800000000002,-5512.3599999999997,3042.0500000000002
167460.0,11720.299999999999,755.30700000000002,-1534.0799999999999,-2849.0900000000001,1200.9300000000001,-5597.5600000000004,3112.27
167461.0,11368.299999999999,-5.7335099999999999,-1588.73,-2821.9099999999999,1424.0,-5434.4499999999998,3086.3899999999999
167462.0,11289.1,-967.78099999999995,-1639.8299999999999,-2449.9400000000001,1777.5,-5474.1999999999998,2967.1700000000001
167463.0,12085.5,-2125.8000000000002,-1860.26,-1690.1900000000001,2326.23,-5897.3500000000004,2906.52
167464.0,13569.299999999999,-3081.0599999999999,-2138.3000000000002,-909.79200000000003,2838.8800000000001,-6528.7600000000002,3083.1599999999999
167465.0,14588.5,-3785.0700000000002,-2347.2800000000002,-376.24599999999998,3201.0900000000001,-6915.1400000000003,3153.8400000000001
167466.0,14426.799999999999,-4608.25,-2312.5,357.173,3402.8800000000001,-6567.5,2913.8099999999999
167467.0,13623.200000000001,-5566.4700000000003,-2310.8499999999999,1051.8900000000001,3564.9499999999998,-5677.3400000000001,2443.5799999999999
167468.0,12580.4,-6083.71,-2215.9099999999999,1562.1300000000001,3617.3400000000001,-4626.8699999999999,1909.6300000000001
167469.0,11696.200000000001,-6342.1499999999996,-2171.0100000000002,1748.26,3584.3800000000001,-3755.02,1511.24
167470.0,10379.9,2869.0500000000002,-1094.77,-3738.96,284.70600000000002,-4190.9499999999998,2684.6399999999999
167471.0,11889.5,2751.25,-1319.99,-3620.75,577.48800000000006,-5217.5200000000004,3025.21
167472.0,12358.700000000001,1922.51,-1424.27,-3099.1399999999999,905.53499999999997,-5795.4099999999999,3157.29
167473.0,12128.5,830.05200000000002,-1553.53,-2864.1599999999999,1191.6900000000001,-5817.6499999999996,3203.1999999999998
167474.0,11700.799999999999,7.6161599999999998,-1591.9300000000001,-2823.0900000000001,1435.45,-5631.3999999999996,3138.2399999999998
167475.0,11483.4,-987.00900000000001,-1661.1099999999999,-2480.8099999999999,1775.3699999999999,-5593.3999999999996,2993.0999999999999
167476.0,12134.5,-2060.0599999999999,-1842.3499999999999,-1699.5699999999999,2299.5599999999999,-5940.96,2909.6700000000001
167477.0,13652.799999999999,-2968.4200000000001,-2129.9299999999998,-871.14999999999998,2803.7399999999998,-6605.8800000000001,3085.52
167478.0,14772.299999999999,-3717.6700000000001,-2348.6999999999998,-198.381,3189.3499999999999,-7037.6800000000003,3145.1300000000001
167479.0,14584.9,-4576.7600000000002,-2318.6999999999998,561.29999999999995,3375.1199999999999,-6676.04,2883.3200000000002
167480.0,13711.799999999999,-5540.6700000000001,-2283.9099999999999,1252.4200000000001,3494.1799999999998,-5757.3500000000004,2402.52
167481.0,12663.4,-6086.5799999999999,-2193.23,1776.77,3547.9200000000001,-4679.25,1874.1300000000001
167482.0,11774.700000000001,-6308.7700000000004,-2137.1500000000001,1964.3499999999999,3525.0599999999999,-3801.0,1493.1800000000001
167483.0,11118.9,3104.1100000000001,-1161.1300000000001,-3886.73,290.37,-4541.0200000000004,2844.1300000000001
167484.0,12570.9,2857.5500000000002,-1383.8699999999999,-3720.3699999999999,605.649,-5575.2600000000002,3178.9200000000001
167485.0,12872.4,1983.3599999999999,-1481.8199999999999,-3171.27,939.28200000000004,-6055.4399999999996,3282.77
167486.0,12551.200000000001,913.39300000000003,-1595.6099999999999,-2940.1999999999998,1197.5999999999999,-6034.1999999999998,3292.3600000000001
167487.0,12065.0,62.5867,-1610.96,-2823.9000000000001,1438.0799999999999,-5841.8299999999999,3197.8000000000002
167488.0,11710.299999999999,-948.327,-1656.0899999999999,-2459.4099999999999,1762.9200000000001,-5734.7700000000004,3023.79
167489.0,12223.299999999999,-2004.5699999999999,-1818.2,-1686.8099999999999,2264.52,-6010.6599999999999,2919.1199999999999
167490.0,13771.5,-2904.98,-2115.3699999999999,-863.23000000000002,2773.0799999999999,-6698.3199999999997,3098.4099999999999
167491.0,14973.4,-3741.04,-2352.5900000000001,-88.213899999999995,3205.71,-7152.4499999999998,3146.4899999999998
167492.0,14775.0,-4604.3599999999997,-2353.5300000000002,743.81799999999998,3408.0300000000002,-6765.0100000000002,2859.3699999999999
167493.0,13812.299999999999,-5471.21,-2281.4000000000001,1476.0699999999999,3484.52,-5805.6400000000003,2377.6500000000001
167494.0,12759.799999999999,-6032.1099999999997,-2196.2199999999998,1978.5599999999999,3515.7199999999998,-4731.54,1862.9300000000001
167495.0,11902.299999999999,-6259.8900000000003,-2128.4000000000001,2166.9400000000001,3485.5999999999999,-3882.1999999999998,1498.6600000000001
167496.0,11906.6,3348.29,-1223.27,-4083.04,286.38299999999998,-4902.9399999999996,3014.0100000000002
167497.0,13199.1,2963.29,-1394.3599999999999,-3848.27,603.45799999999997,-5903.0200000000004,3310.77
167498.0,13348.799999999999,2018.3699999999999,-1493.76,-3287.8400000000001,956.36500000000001,-6306.6899999999996,3379.73
167499.0,12983.200000000001,1010.13,-1603.73,-3010.6399999999999,1211.6500000000001,-6261.0500000000002,3369.8699999999999
167500.0,12470.1,138.20400000000001,-1635.3099999999999,-2828.1399999999999,1444.97,-6070.54,3266.0300000000002
167501.0,11989.6,-897.726,-1679.3499999999999,-2437.8699999999999,1753.4100000000001,-5904.96,3062.7399999999998
167502.0,12374.0,-1936.2,-1813.8099999999999,-1663.8,2225.9099999999999,-6111.2600000000002,2952.6300000000001
167503.0,13903.4,-2847.0300000000002,-2094.1999999999998,-879.447,2730.77,-6803.9799999999996,3114.1500000000001
167504.0,15151.700000000001,-3779.4000000000001,-2299.8800000000001,6.5911299999999997,3190.79,-7271.6099999999997,3134.8200000000002
167505.0,14983.9,-4728.0200000000004,-2350.1999999999998,897.71400000000006,3434.52,-6857.5299999999997,2835.8400000000001
167506.0,13953.9,-5534.1499999999996,-2276.23,1617.9300000000001,3503.8899999999999,-5852.1099999999997,2357.54
167507.0,12888.799999999999,-6053.8400000000001,-2210.4899999999998,2095.6700000000001,3512.6900000000001,-4792.5900000000001,1855.97
167508.0,12078.6,-6213.7200000000003,-2115.0799999999999,2356.8800000000001,3466.3000000000002,-3994.4099999999999,1511.6500000000001
167509.0,12695.0,3581.9299999999998,-1267.52,-4312.3699999999999,266.80799999999999,-5264.8400000000001,3174.8299999999999
167510.0,13743.0,3087.6999999999998,-1393.74,-3984.0599999999999,578.54999999999995,-6181.3400000000001,3407.6799999999998
167511.0,13773.799999999999,2083.0300000000002,-1499.1800000000001,-3402.6300000000001,937.07500000000005,-6536.3699999999999,3446.6199999999999
167512.0,13409.700000000001,1102.3199999999999,-1606.21,-3083.9099999999999,1207.0899999999999,-6495.6300000000001,3432.5
167513.0,12899.4,210.13999999999999,-1650.9100000000001,-2835.6300000000001,1447.78,-6318.6700000000001,3329.4899999999998
167514.0,12329.4,-813.60000000000002,-1689.9000000000001,-2386.2800000000002,1750.0899999999999,-6107.3299999999999,3112.52
167515.0,12614.299999999999,-1846.3099999999999,-1815.8800000000001,-1643.6700000000001,2189.1799999999998,-6258.5500000000002,3011.0900000000001
167516.0,14044.799999999999,-2782.1900000000001,-2074.0900000000001,-894.41399999999999,2679.0599999999999,-6922.0500000000002,3122.5599999999999
167517.0,15263.0,-3775.5999999999999,-2229.75,100.849,3132.7399999999998,-7376.8500000000004,3100.52
167518.0,15137.6,-4834.3400000000001,-2297.0700000000002,1053.5799999999999,3395.75,-6951.8100000000004,2793.1500000000001
167519.0,14046.700000000001,-5599.1999999999998,-2188.3400000000001,1776.6900000000001,3459.4000000000001,-5900.3699999999999,2315.52
167520.0,12982.700000000001,-6088.2600000000002,-2168.0300000000002,2203.4499999999998,3473.5799999999999,-4851.2700000000004,1837.97
167521.0,12275.4,-6213.3900000000003,-2111.7600000000002,2504.6599999999999,3449.2800000000002,-4121.6899999999996,1523.0899999999999
167522.0,13437.5,3815.8099999999999,-1288.79,-4534.0299999999997,213.34,-5608.3800000000001,3312.3299999999999
167523.0,14207.799999999999,3242.3699999999999,-1383.3099999999999,-4094.8899999999999,545.23699999999997,-6410.79,3482.54
167524.0,14170.0,2209.9699999999998,-1501.8800000000001,-3490.8400000000001,901.34100000000001,-6744.8999999999996,3500.25
167525.0,13832.299999999999,1250.97,-1585.5699999999999,-3119.2800000000002,1176.6400000000001,-6734.8400000000001,3481.1500000000001
167526.0,13324.4,299.56999999999999,-1655.8399999999999,-2826.4400000000001,1426.9100000000001,-6573.3100000000004,3382.52
167527.0,12721.1,-728.31399999999996,-1714.0599999999999,-2343.73,1744.8800000000001,-6337.5799999999999,3173.25
167528.0,12949.299999999999,-1747.6099999999999,-1842.51,-1636.54,2157.6799999999998,-6459.5600000000004,3082.6100000000001
167529.0,14204.6,-2689.6599999999999,-2053.6500000000001,-858.31299999999999,2623.6100000000001,-7050.3100000000004,3130.8899999999999
167530.0,15286.799999999999,-3717.5999999999999,-2174.6799999999998,205.471,3048.9299999999998,-7444.8800000000001,3044.1900000000001
167531.0,15172.299999999999,-4831.6300000000001,-2235.9200000000001,1243.8599999999999,3301.5100000000002,-7010.1300000000001,2720.0100000000002
167532.0,14039.4,-5587.5,-2138.8099999999999,1939.4000000000001,3355.9699999999998,-5926.5600000000004,2262.3600000000001
167533.0,13012.0,-6056.8400000000001,-2127.7199999999998,2313.4000000000001,3391.2800000000002,-4905.6599999999999,1825.8399999999999
167534.0,12452.5,-6209.8100000000004,-2096.0900000000001,2639.5999999999999,3412.3299999999999,-4251.4499999999998,1535.9300000000001
167535.0,14123.4,4088.6999999999998,-1301.4100000000001,-4724.6099999999997,130.565,-5907.1999999999998,3440.4400000000001
167536.0,14629.700000000001,3399.2600000000002,-1389.47,-4214.2200000000003,504.26999999999998,-6609.1700000000001,3548.8800000000001
167537.0,14548.4,2378.5500000000002,-1502.48,-3546.6900000000001,864.21900000000005,-6942.4499999999998,3542.48
167538.0,14251.6,1431.72,-1591.54,-3134.25,1132.6300000000001,-6973.0,3521.6999999999998
167539.0,13742.799999999999,444.76299999999998,-1649.5,-2787.8499999999999,1387.8299999999999,-6820.5200000000004,3438.1500000000001
167540.0,13172.1,-624.33799999999997,-1747.0599999999999,-2311.04,1739.52,-6596.4899999999998,3249.25
167541.0,13390.6,-1626.26,-1872.2,-1606.74,2141.4899999999998,-6717.3900000000003,3168.29
167542.0,14419.200000000001,-2612.1700000000001,-2063.8600000000001,-795.64599999999996,2583.0599999999999,-7196.2200000000003,3158.9000000000001
167543.0,15268.0,-3634.3299999999999,-2158.1900000000001,328.01400000000001,2985.8000000000002,-7470.0799999999999,2996.1199999999999
167544.0,15104.6,-4752.54,-2221.3099999999999,1427.9300000000001,3227.21,-6996.1499999999996,2652.3499999999999
167545.0,13992.700000000001,-5476.8900000000003,-2132.4499999999998,2097.0799999999999,3282.1199999999999,-5927.0100000000002,2226.3699999999999
167546.0,13039.200000000001,-5950.6099999999997,-2118.3299999999999,2419.0999999999999,3319.6199999999999,-4973.8400000000001,1833.1099999999999
167547.0,12596.200000000001,-6185.2399999999998,-2101.5599999999999,2745.7800000000002,3360.4699999999998,-4379.4700000000003,1557.5899999999999
167548.0,14775.1,4381.71,-1317.9000000000001,-4925.3900000000003,54.1036,-6164.9099999999999,3569.1100000000001
167549.0,15057.5,3592.5900000000001,-1391.01,-4328.4399999999996,457.50400000000002,-6802.7299999999996,3613.1199999999999
167550.0,14930.9,2555.1900000000001,-1513.21,-3575.6999999999998,830.12300000000005,-7141.4799999999996,3590.0599999999999
167551.0,14667.299999999999,1633.5799999999999,-1612.79,-3117.0999999999999,1098.26,-7201.3699999999999,3570.5500000000002
167552.0,14164.5,618.779,-1655.4000000000001,-2763.6399999999999,1348.4200000000001,-7063.1400000000003,3492.5599999999999
167553.0,13699.9,-497.95400000000001,-1769.0999999999999,-2286.75,1728.05,-6901.8000000000002,3330.77
167554.0,13929.799999999999,-1513.1099999999999,-1895.0699999999999,-1564.8399999999999,2125.6900000000001,-7034.7700000000004,3260.46
167555.0,14714.4,-2546.1799999999998,-2059.27,-713.09299999999996,2543.7600000000002,-7382.8199999999997,3208.3099999999999
167556.0,15289.299999999999,-3608.5999999999999,-2143.6700000000001,420.346,2941.0599999999999,-7498.6800000000003,2980.3400000000001
167557.0,14998.1,-4733.8100000000004,-2200.4899999999998,1517.3900000000001,3184.6599999999999,-6939.4099999999999,2607.1700000000001
167558.0,13966.6,-5430.0500000000002,-2151.5599999999999,2155.0599999999999,3258.7800000000002,-5923.6499999999996,2200.25
167559.0,13132.1,-5866.8000000000002,-2140.4499999999998,2490.7600000000002,3293.9899999999998,-5066.0200000000004,1854.4000000000001
167560.0,12742.0,-6135.8599999999997,-2118.52,2833.9200000000001,3332.96,-4502.9700000000003,1595.8599999999999
167561.0,15387.9,4660.21,-1320.6700000000001,-5138.9099999999999,-6.53735,-6406.4300000000003,3673.0700000000002
167562.0,15515.299999999999,3813.3400000000001,-1399.77,-4442.8299999999999,409.92700000000002,-7010.8500000000004,3672.5900000000001
167563.0,15356.299999999999,2743.5799999999999,-1516.47,-3599.6799999999998,787.56399999999996,-7359.0100000000002,3657.2800000000002
167564.0,15091.9,1786.9100000000001,-1651.28,-3121.0799999999999,1083.98,-7427.8400000000001,3637.21
167565.0,14588.0,812.40499999999997,-1665.1199999999999,-2720.6599999999999,1334.5599999999999,-7306.0600000000004,3533.77
167566.0,14267.0,-329.57999999999998,-1787.9000000000001,-2238.8699999999999,1694.9300000000001,-7244.2700000000004,3391.29
167567.0,14509.700000000001,-1364.3499999999999,-1889.1199999999999,-1476.6700000000001,2077.2800000000002,-7390.5500000000002,3341.4000000000001
167568.0,15065.4,-2457.8000000000002,-2042.2,-629.86300000000006,2473.3299999999999,-7613.1599999999999,3264.8699999999999
167569.0,15326.299999999999,-3580.9099999999999,-2086.3000000000002,489.43099999999998,2848.0500000000002,-7556.6199999999999,2974.0599999999999
167570.0,14823.700000000001,-4738.5299999999997,-2125.02,1528.73,3089.1399999999999,-6873.2799999999997,2559.7600000000002
167571.0,13922.6,-5426.2299999999996,-2117.9499999999998,2164.8600000000001,3215.1300000000001,-5925.3599999999997,2163.5799999999999
167572.0,13274.6,-5852.3500000000004,-2143.96,2534.25,3278.1300000000001,-5179.46,1871.7
167573.0,12921.9,-6150.8400000000001,-2139.4000000000001,2872.0900000000001,3325.75,-4633.54,1640.6700000000001
167574.0,15947.200000000001,4921.6599999999999,-1325.51,-5332.75,-64.923400000000001,-6634.79,3747.0100000000002
167575.0,15994.0,4071.0799999999999,-1391.98,-4521.7700000000004,361.75099999999998,-7235.3100000000004,3725.0599999999999
167576.0,15827.200000000001,2950.5700000000002,-1516.8699999999999,-3656.02,724.61900000000003,-7596.4799999999996,3728.8899999999999
167577.0,15542.700000000001,1929.4200000000001,-1642.0,-3130.71,1059.22,-7678.0699999999997,3699.6700000000001
167578.0,15037.0,935.53599999999994,-1708.3900000000001,-2667.6700000000001,1350.28,-7571.04,3569.96
167579.0,14830.299999999999,-106.676,-1817.8,-2105.0500000000002,1680.0,-7579.9899999999998,3444.7800000000002
167580.0,15082.9,-1171.75,-1930.1199999999999,-1365.47,2019.53,-7741.4099999999999,3415.8099999999999
167581.0,15441.700000000001,-2282.1300000000001,-2024.96,-521.125,2378.54,-7865.7600000000002,3324.0900000000001
167582.0,15332.9,-3484.8099999999999,-2051.5900000000001,542.30600000000004,2717.8200000000002,-7615.0,2970.6300000000001
167583.0,14582.799999999999,-4633.1300000000001,-2042.98,1532.76,2950.3699999999999,-6802.3400000000001,2514.79
167584.0,13829.700000000001,-5402.1499999999996,-2095.6100000000001,2144.9000000000001,3128.0599999999999,-5928.1400000000003,2124.6399999999999
167585.0,13389.9,-5832.6700000000001,-2113.0100000000002,2589.4400000000001,3229.96,-5292.5,1872.6500000000001
167586.0,13101.6,-6191.0600000000004,-2133.6599999999999,2913.0599999999999,3294.2600000000002,-4772.29,1669.55
167587.0,16480.900000000001,5193.79,-1332.0599999999999,-5486.7700000000004,-121.95399999999999,-6856.9200000000001,3810.5500000000002
167588.0,16471.0,4329.9399999999996,-1390.23,-4579.4499999999998,309.05399999999997,-7466.54,3769.3499999999999
167589.0,16309.200000000001,3204.0900000000001,-1506.22,-3709.7600000000002,648.79300000000001,-7839.5799999999999,3782.8000000000002
167590.0,16016.1,2118.52,-1618.47,-3120.7600000000002,1004.04,-7952.46,3738.5900000000001
167591.0,15551.700000000001,1050.1600000000001,-1728.1400000000001,-2556.6399999999999,1351.1300000000001,-7882.2399999999998,3618.5999999999999
167592.0,15407.5,31.706800000000001,-1877.3399999999999,-1970.48,1699.8800000000001,-7911.3400000000001,3517.7399999999998
167593.0,15656.9,-976.75800000000004,-1988.5,-1231.98,2013.23,-8070.5299999999997,3499.8699999999999
167594.0,15842.6,-2084.0,-2061.4299999999998,-428.50299999999999,2314.52,-8116.6400000000003,3394.75
167595.0,15336.200000000001,-3329.9299999999998,-2036.1700000000001,588.87099999999998,2606.4699999999998,-7664.2700000000004,2979.6100000000001
167596.0,14361.200000000001,-4480.9899999999998,-2010.0899999999999,1506.6800000000001,2826.9499999999998,-6748.4799999999996,2482.0599999999999
167597.0,13729.4,-5294.6499999999996,-2063.6900000000001,2159.04,3031.6700000000001,-5939.4300000000003,2096.0
167598.0,13458.200000000001,-5794.25,-2108.8000000000002,2637.8099999999999,3165.0999999999999,-5386.4899999999998,1863.71
167599.0,13257.9,-6188.0299999999997,-2127.54,2995.52,3246.1799999999998,-4904.1499999999996,1680.4400000000001
167600.0,17030.900000000001,5483.8000000000002,-1336.5599999999999,-5609.6499999999996,-181.286,-7093.75,3875.9699999999998
167601.0,16933.599999999999,4592.5600000000004,-1390.1800000000001,-4598.5900000000001,256.29399999999998,-7695.3900000000003,3812.6999999999998
167602.0,16777.0,3479.6399999999999,-1512.4200000000001,-3733.9200000000001,580.49900000000002,-8079.4499999999998,3815.7399999999998
167603.0,16518.599999999999,2385.4099999999999,-1602.5,-3052.7199999999998,941.77300000000002,-8242.2000000000007,3768.7399999999998
167604.0,16153.700000000001,1209.1800000000001,-1750.3599999999999,-2432.04,1319.3399999999999,-8239.5400000000009,3688.25
167605.0,16017.799999999999,141.99199999999999,-1888.6900000000001,-1830.5,1696.9100000000001,-8266.2000000000007,3602.4200000000001
167606.0,16231.799999999999,-888.67100000000005,-2031.4200000000001,-1142.3399999999999,2020.8399999999999,-8397.0100000000002,3587.4400000000001
167607.0,16251.0,-1959.05,-2087.7800000000002,-368.56200000000001,2292.48,-8358.1399999999994,3464.1199999999999
167608.0,15365.1,-3207.6399999999999,-2030.8900000000001,608.23699999999997,2534.3600000000001,-7715.4700000000003,2987.5799999999999
167609.0,14208.4,-4324.0100000000002,-1986.74,1493.4300000000001,2732.1999999999998,-6724.9300000000003,2456.4499999999998
167610.0,13660.200000000001,-5179.7700000000004,-2056.4099999999999,2170.8400000000001,2947.9899999999998,-5964.8999999999996,2078.5
167611.0,13518.299999999999,-5734.4700000000003,-2114.52,2700.5,3113.04,-5464.7399999999998,1858.6600000000001
167612.0,13422.4,-6172.8000000000002,-2149.9200000000001,3095.5700000000002,3222.3800000000001,-5021.8900000000003,1688.23
167613.0,17624.700000000001,5812.3699999999999,-1326.5899999999999,-5702.7399999999998,-253.20699999999999,-7355.4200000000001,3948.6300000000001
167614.0,17411.5,4829.3100000000004,-1412.8800000000001,-4618.5,208.34800000000001,-7934.2600000000002,3869.6300000000001
167615.0,17238.5,3758.3400000000001,-1526.76,-3690.5100000000002,542.375,-8322.7099999999991,3848.4200000000001
167616.0,17049.799999999999,2672.3899999999999,-1619.97,-2957.1399999999999,896.12699999999995,-8543.2099999999991,3802.3800000000001
167617.0,16816.700000000001,1447.79,-1755.29,-2296.1599999999999,1267.9000000000001,-8627.8500000000004,3758.27
167618.0,16665.099999999999,291.96499999999997,-1890.45,-1700.9000000000001,1645.3900000000001,-8650.0599999999995,3685.54
167619.0,16785.799999999999,-783.67700000000002,-2009.51,-1051.6300000000001,1967.9400000000001,-8727.8600000000006,3668.5
167620.0,16598.200000000001,-1913.97,-2073.4200000000001,-346.15699999999998,2239.0,-8580.9300000000003,3503.77
167621.0,15407.5,-3138.6500000000001,-2001.02,633.69100000000003,2467.4299999999998,-7774.5799999999999,2975.5599999999999
167622.0,14133.9,-4215.6800000000003,-1979.95,1489.53,2653.1700000000001,-6734.1800000000003,2436.5
167623.0,13636.4,-5073.4399999999996,-2043.8900000000001,2194.6500000000001,2876.1599999999999,-6008.21,2070.0500000000002
167624.0,13606.700000000001,-5706.6000000000004,-2132.1700000000001,2751.1500000000001,3075.6399999999999,-5545.5600000000004,1864.1900000000001
167625.0,13627.700000000001,-6205.1300000000001,-2185.3499999999999,3182.6399999999999,3227.27,-5138.9399999999996,1702.0
167626.0,18272.200000000001,6178.0699999999997,-1322.8299999999999,-5794.1700000000001,-334.05200000000002,-7638.5500000000002,4029.1399999999999
167627.0,17952.5,5081.6899999999996,-1423.4400000000001,-4637.8100000000004,154.63800000000001,-8207.2399999999998,3940.6700000000001
167628.0,17735.900000000001,3982.5999999999999,-1552.6900000000001,-3627.23,528.61699999999996,-8596.2600000000002,3899.1700000000001
167629.0,17597.599999999999,2929.9200000000001,-1656.48,-2832.9699999999998,883.72900000000004,-8854.4899999999998,3843.3099999999999
167630.0,17469.599999999999,1725.6600000000001,-1779.1500000000001,-2142.5500000000002,1221.1700000000001,-9008.7600000000002,3810.0500000000002
167631.0,17326.5,541.14300000000003,-1899.26,-1548.3199999999999,1566.3199999999999,-9040.1900000000005,3761.6500000000001
167632.0,17317.599999999999,-591.56899999999996,-1993.6900000000001,-969.78999999999996,1861.6800000000001,-9053.9899999999998,3741.6300000000001
167633.0,16857.299999999999,-1805.74,-2019.47,-290.30599999999998,2127.9000000000001,-8772.3899999999994,3514.3699999999999
167634.0,15444.700000000001,-3063.3400000000001,-1958.9000000000001,696.13599999999997,2372.7600000000002,-7838.25,2951.4000000000001
167635.0,14126.299999999999,-4114.5500000000002,-1967.6400000000001,1523.95,2571.3800000000001,-6776.79,2425.27
167636.0,13656.4,-4987.0799999999999,-2040.27,2218.9299999999998,2803.9299999999998,-6073.9799999999996,2070.0599999999999
167637.0,13723.700000000001,-5691.6999999999998,-2137.9099999999999,2804.1500000000001,3035.1399999999999,-5642.6300000000001,1877.1099999999999
167638.0,13864.700000000001,-6280.8699999999999,-2208.6199999999999,3264.6500000000001,3229.1599999999999,-5269.6099999999997,1713.8900000000001
167639.0,18971.0,6583.46,-1321.6900000000001,-5875.8500000000004,-405.161,-7946.29,4112.7200000000003
167640.0,18574.099999999999,5367.2299999999996,-1438.1199999999999,-4666.54,89.819900000000004,-8521.6299999999992,4017.0900000000001
167641.0,18309.200000000001,4201.8199999999997,-1556.8699999999999,-3552.0500000000002,505.70100000000002,-8919.5,3964.6700000000001
167642.0,18176.599999999999,3110.4000000000001,-1701.6900000000001,-2705.7199999999998,888.75400000000002,-9190.5400000000009,3899.8200000000002
167643.0,18086.900000000001,1973.9100000000001,-1817.23,-1954.79,1216.8900000000001,-9361.5699999999997,3867.0300000000002
167644.0,17978.400000000001,817.322,-1952.71,-1393.95,1523.28,-9407.9500000000007,3842.4899999999998
167645.0,17831.299999999999,-306.77600000000001,-1988.47,-860.53599999999994,1762.3299999999999,-9364.5699999999997,3801.21
167646.0,17055.799999999999,-1622.8399999999999,-1986.99,-204.649,1993.8800000000001,-8933.8199999999997,3505.9099999999999
167647.0,15490.6,-2930.1599999999999,-1926.29,796.81799999999998,2258.5999999999999,-7909.7200000000003,2932.8899999999999
167648.0,14188.5,-4009.04,-1977.6900000000001,1574.8299999999999,2488.6199999999999,-6857.5100000000002,2428.5700000000002
167649.0,13730.799999999999,-4885.8199999999997,-2033.1099999999999,2272.6700000000001,2732.8299999999999,-6168.9399999999996,2081.75
167650.0,13866.200000000001,-5682.5600000000004,-2152.4299999999998,2857.3299999999999,2988.0599999999999,-5758.71,1893.1900000000001
167651.0,14110.799999999999,-6350.9499999999998,-2220.4200000000001,3373.3099999999999,3214.8899999999999,-5410.6000000000004,1715.3800000000001
167652.0,19704.700000000001,6981.8999999999996,-1338.8599999999999,-5949.3599999999997,-455.76299999999998,-8287.6499999999996,4192.9300000000003
167653.0,19265.099999999999,5708.0100000000002,-1445.75,-4667.8999999999996,26.895900000000001,-8873.4400000000005,4095.5300000000002
167654.0,18973.099999999999,4450.2600000000002,-1571.1800000000001,-3487.2800000000002,463.36799999999999,-9289.7099999999991,4040.27
167655.0,18809.900000000001,3288.4000000000001,-1714.1700000000001,-2568.6399999999999,869.63099999999997,-9560.8099999999995,3970.0799999999999
167656.0,18698.099999999999,2118.9000000000001,-1849.99,-1802.8900000000001,1219.1800000000001,-9714.7099999999991,3935.52
167657.0,18608.0,1011.21,-1988.9400000000001,-1250.49,1519.55,-9763.1599999999999,3917.5799999999999
167658.0,18302.0,-79.031499999999994,-2021.47,-746.38599999999997,1709.05,-9645.5,3837.1999999999998
167659.0,17215.799999999999,-1380.9400000000001,-1962.74,-55.959499999999998,1890.46,-9060.7099999999991,3488.52
167660.0,15568.5,-2763.2800000000002,-1929.4000000000001,899.21199999999999,2158.3899999999999,-7993.0799999999999,2925.6599999999999
167661.0,14332.1,-3872.9899999999998,-1985.1400000000001,1661.9100000000001,2417.0,-6981.4200000000001,2443.6100000000001
167662.0,13881.1,-4799.3800000000001,-2055.73,2336.5100000000002,2668.9699999999998,-6302.4899999999998,2104.1100000000001
167663.0,14047.4,-5650.9700000000003,-2160.79,2953.73,2940.9499999999998,-5894.4799999999996,1911.21
167664.0,14363.0,-6414.7299999999996,-2252.5100000000002,3509.52,3195.1199999999999,-5550.1099999999997,1707.9000000000001
167665.0,20457.0,7364.1899999999996,-1358.98,-5984.2600000000002,-490.09699999999998,-8664.5200000000004,4270.5799999999999
167666.0,20003.400000000001,6060.8599999999997,-1468.1199999999999,-4646.9799999999996,-23.0123,-9258.1499999999996,4174.1700000000001
167667.0,19712.5,4755.6800000000003,-1584.5,-3408.3200000000002,412.65800000000002,-9695.0499999999993,4123.1999999999998
167668.0,19497.5,3511.54,-1724.25,-2446.8200000000002,820.86199999999997,-9954.3700000000008,4047.3699999999999
167669.0,19325.200000000001,2290.98,-1838.6900000000001,-1650.3599999999999,1177.96,-10082.4,4000.8299999999999
167670.0,19202.0,1138.02,-1998.8800000000001,-1113.1300000000001,1487.29,-10112.799999999999,3976.02
167671.0,18705.599999999999,65.8673,-2020.1700000000001,-586.54300000000001,1675.5999999999999,-9890.5799999999999,3855.29
167672.0,17350.700000000001,-1234.53,-1975.49,77.1113,1833.0899999999999,-9160.5799999999999,3462.8600000000001
167673.0,15678.4,-2601.9400000000001,-1932.6600000000001,1010.27,2087.1999999999998,-8085.8100000000004,2916.7800000000002
167674.0,14548.6,-3763.4499999999998,-2021.55,1750.0699999999999,2364.96,-7139.1300000000001,2459.73
167675.0,14127.200000000001,-4701.8000000000002,-2076.5900000000001,2459.9299999999998,2625.5799999999999,-6476.8400000000001,2134.4400000000001
167676.0,14298.799999999999,-5639.8699999999999,-2203.4299999999998,3075.27,2910.6399999999999,-6054.0100000000002,1938.51
167677.0,14648.700000000001,-6463.9499999999998,-2289.5500000000002,3695.1799999999998,3194.0,-5686.6599999999999,1706.9200000000001
167678.0,21234.799999999999,7716.3699999999999,-1395.5699999999999,-5995.1300000000001,-516.24800000000005,-9076.2000000000007,4354.6700000000001
167679.0,20773.599999999999,6415.9899999999998,-1491.24,-4584.4399999999996,-56.892200000000003,-9670.8299999999999,4258.5600000000004
167680.0,20489.599999999999,5075.1599999999999,-1615.1199999999999,-3325.9299999999998,365.56599999999997,-10118.4,4208.8100000000004
167681.0,20218.900000000001,3799.9099999999999,-1728.28,-2316.21,762.49900000000002,-10359.700000000001,4120.4799999999996
167682.0,19987.099999999999,2524.0900000000001,-1843.8900000000001,-1511.5999999999999,1106.6300000000001,-10464.5,4064.2399999999998
167683.0,19787.0,1321.1700000000001,-1973.04,-943.245,1409.76,-10460.0,4033.5700000000002
167684.0,19052.900000000001,141.036,-2010.6800000000001,-434.65199999999999,1610.1800000000001,-10112.200000000001,3861.7399999999998
167685.0,17461.299999999999,-1132.5699999999999,-1940.6500000000001,249.12899999999999,1773.0599999999999,-9248.6200000000008,3424.23
167686.0,15801.5,-2492.77,-1940.98,1116.4300000000001,2025.3900000000001,-8181.8900000000003,2898.8899999999999
167687.0,14813.299999999999,-3663.9400000000001,-2037.5699999999999,1880.5,2327.73,-7314.8199999999997,2469.2600000000002
167688.0,14474.200000000001,-4659.4399999999996,-2129.3499999999999,2601.7800000000002,2604.48,-6690.75,2167.9000000000001
167689.0,14647.6,-5640.3500000000004,-2234.27,3254.1799999999998,2897.7800000000002,-6250.7600000000002,1976.9300000000001
167690.0,15001.5,-6569.75,-2344.0700000000002,3883.8400000000001,3206.7199999999998,-5841.04,1720.5699999999999
167691.0,22057.099999999999,8075.04,-1421.73,-5973.5100000000002,-540.70399999999995,-9523.1399999999994,4450.96
167692.0,21579.099999999999,6733.8599999999997,-1535.96,-4522.5,-81.272099999999995,-10111.299999999999,4355.6800000000003
167693.0,21275.400000000001,5397.0500000000002,-1638.96,-3216.4200000000001,331.303,-10549.0,4296.4300000000003
167694.0,20952.200000000001,4094.8099999999999,-1762.74,-2176.71,718.40099999999995,-10768.700000000001,4188.9799999999996
167695.0,20668.700000000001,2849.4400000000001,-1836.6900000000001,-1334.48,1027.6099999999999,-10850.299999999999,4122.3599999999997
167696.0,20367.099999999999,1558.22,-1968.23,-797.89800000000002,1295.24,-10803.4,4081.1700000000001
167697.0,19371.5,301.92399999999998,-1953.8699999999999,-226.434,1500.8099999999999,-10322.5,3858.2600000000002
167698.0,17571.299999999999,-1052.8,-1935.5699999999999,416.65300000000002,1683.73,-9338.7800000000007,3384.8099999999999
167699.0,15941.1,-2370.79,-1925.3800000000001,1266.3,1951.05,-8287.5400000000009,2877.6999999999998
167700.0,15103.4,-3612.4400000000001,-2071.5100000000002,2015.0699999999999,2285.4499999999998,-7500.29,2470.4299999999998
167701.0,14892.200000000001,-4618.1300000000001,-2145.46,2816.0100000000002,2587.0700000000002,-6934.0500000000002,2195.25
167702.0,15078.5,-5685.7399999999998,-2280.6999999999998,3454.77,2880.6799999999998,-6488.0900000000001,2013.3399999999999
167703.0,15407.200000000001,-6658.0299999999997,-2349.8200000000002,4138.8199999999997,3195.8099999999999,-6029.6000000000004,1737.46
167704.0,22931.400000000001,8431.5499999999993,-1456.02,-5957.2200000000003,-569.97900000000004,-10001.200000000001,4556.0500000000002
167705.0,22426.599999999999,7048.9099999999999,-1568.4400000000001,-4451.9399999999996,-107.53400000000001,-10578.299999999999,4464.3800000000001
167706.0,22075.0,5687.0600000000004,-1671.3099999999999,-3111.3800000000001,305.97800000000001,-10991.5,4388.2399999999998
167707.0,21700.599999999999,4366.71,-1799.52,-2003.22,695.70799999999997,-11188.6,4265.6099999999997
167708.0,21339.599999999999,3160.6199999999999,-1873.1700000000001,-1154.8599999999999,974.40899999999999,-11221.299999999999,4184.8299999999999
167709.0,20905.599999999999,1885.22,-1958.2,-608.39400000000001,1191.8399999999999,-11114.299999999999,4114.5799999999999
167710.0,19680.400000000001,505.63200000000001,-1950.03,-24.354900000000001,1386.53,-10521.299999999999,3848.9400000000001
167711.0,17734.799999999999,-883.77599999999995,-1916.6900000000001,645.71500000000003,1589.77,-9452.9799999999996,3360.4899999999998
167712.0,16138.5,-2238.9699999999998,-1938.6800000000001,1438.1500000000001,1874.3800000000001,-8421.8600000000006,2864.7199999999998
167713.0,15417.1,-3523.1700000000001,-2075.8600000000001,2224.0599999999999,2231.2199999999998,-7695.6400000000003,2468.1100000000001
167714.0,15335.0,-4606.5100000000002,-2184.7600000000002,3048.1399999999999,2554.2399999999998,-7188.5500000000002,2209.4000000000001
167715.0,15549.9,-5690.6199999999999,-2301.2600000000002,3740.1100000000001,2847.3200000000002,-6747.3199999999997,2035.97
167716.0,15843.0,-6727.6000000000004,-2382.9299999999998,4435.5299999999997,3160.0799999999999,-6241.8500000000004,1748.27
167717.0,23849.700000000001,8822.0599999999995,-1471.28,-5926.1700000000001,-607.97199999999998,-10500.5,4664.0600000000004
167718.0,23314.099999999999,7353.8599999999997,-1608.8599999999999,-4403.7600000000002,-144.37100000000001,-11067.5,4576.1700000000001
167719.0,22908.5,5992.4200000000001,-1680.98,-2995.8400000000001,273.97800000000001,-11454.9,4480.7200000000003
167720.0,22480.700000000001,4590.9899999999998,-1837.72,-1838.1199999999999,667.55600000000004,-11630.4,4355.6700000000001
167721.0,22008.5,3428.0500000000002,-1885.3900000000001,-961.404,939.47799999999995,-11592.200000000001,4258.8100000000004
167722.0,21392.0,2132.98,-1984.2,-450.202,1122.1700000000001,-11394.5,4137.1999999999998
167723.0,19976.400000000001,748.77099999999996,-1917.25,237.24199999999999,1304.5599999999999,-10706.299999999999,3832.9299999999998
167724.0,17980.400000000001,-730.17200000000003,-1953.1500000000001,861.39200000000005,1518.51,-9606.3299999999999,3344.48
167725.0,16436.700000000001,-2070.8800000000001,-1945.9100000000001,1680.01,1809.3199999999999,-8605.7900000000009,2860.6300000000001
167726.0,15778.6,-3446.3099999999999,-2118.3600000000001,2461.6900000000001,2175.1500000000001,-7908.5799999999999,2470.5900000000001
167727.0,15783.700000000001,-4538.2399999999998,-2199.2600000000002,3361.27,2516.27,-7437.8000000000002,2218.96
167728.0,16046.700000000001,-5689.2299999999996,-2360.3099999999999,4057.71,2818.6399999999999,-7009.7299999999996,2050.73
167729.0,16329.6,-6733.4499999999998,-2413.5100000000002,4826.5900000000001,3136.3200000000002,-6467.9099999999999,1759.5599999999999
167730.0,24797.299999999999,9223.6499999999996,-1491.8199999999999,-5901.6700000000001,-657.17999999999995,-11014.0,4766.6000000000004
167731.0,24229.900000000001,7699.3800000000001,-1625.79,-4339.2299999999996,-197.03700000000001,-11570.0,4681.5299999999997
167732.0,23782.0,6319.3500000000004,-1693.0799999999999,-2894.2600000000002,223.089,-11938.5,4567.4300000000003
167733.0,23293.0,4850.9200000000001,-1834.6800000000001,-1663.3099999999999,603.01300000000003,-12090.5,4447.8999999999996
167734.0,22685.0,3648.46,-1896.96,-808.54100000000005,875.84500000000003,-11974.799999999999,4328.9799999999996
167735.0,21832.799999999999,2384.1100000000001,-1936.5799999999999,-239.374,1034.0,-11660.200000000001,4137.7299999999996
167736.0,20248.5,900.68399999999997,-1911.77,467.18799999999999,1215.6199999999999,-10883.9,3799.5999999999999
167737.0,18296.599999999999,-549.62199999999996,-1942.5699999999999,1154.1099999999999,1462.25,-9797.5200000000004,3324.6999999999998
167738.0,16849.299999999999,-1931.8499999999999,-1987.6400000000001,1958.1199999999999,1760.71,-8844.3600000000006,2862.4000000000001
167739.0,16218.0,-3327.0599999999999,-2131.77,2795.2800000000002,2123.79,-8151.8900000000003,2485.96
167740.0,16258.299999999999,-4499.7299999999996,-2253.2199999999998,3670.1999999999998,2479.3699999999999,-7690.3100000000004,2237.98
167741.0,16580.700000000001,-5663.4799999999996,-2394.9400000000001,4434.4700000000003,2801.6500000000001,-7278.5900000000001,2065.0100000000002
167742.0,16900.299999999999,-6789.3900000000003,-2483.0900000000001,5237.79,3135.1599999999999,-6714.7799999999997,1776.0899999999999
167743.0,25763.400000000001,9656.7600000000002,-1502.3199999999999,-5851.4899999999998,-721.13300000000004,-11537.0,4861.7299999999996
167744.0,25158.200000000001,8080.0200000000004,-1641.51,-4262.75,-266.12,-12075.700000000001,4774.6099999999997
167745.0,24674.5,6704.6800000000003,-1692.5699999999999,-2773.8800000000001,145.84800000000001,-12429.299999999999,4638.3400000000001
167746.0,24122.400000000001,5177.29,-1823.0899999999999,-1492.71,496.99099999999999,-12552.5,4533.2399999999998
167747.0,23367.599999999999,3930.8299999999999,-1881.8599999999999,-636.077,774.38,-12361.200000000001,4387.5200000000004
167748.0,22250.5,2646.77,-1905.6400000000001,-17.6386,912.86300000000006,-11916.700000000001,4117.7299999999996
167749.0,20515.299999999999,1133.21,-1848.45,786.09699999999998,1090.8599999999999,-11060.200000000001,3757.0599999999999
167750.0,18673.299999999999,-404.23000000000002,-1960.8499999999999,1452.6400000000001,1389.27,-10024.4,3300.3000000000002
167751.0,17364.0,-1780.72,-2005.4100000000001,2318.52,1709.0999999999999,-9134.9200000000001,2865.4000000000001
167752.0,16742.900000000001,-3229.5599999999999,-2168.8400000000001,3152.4499999999998,2063.7800000000002,-8436.6599999999999,2512.0300000000002
167753.0,16779.900000000001,-4412.3299999999999,-2260.1900000000001,4041.1399999999999,2424.8400000000001,-7970.6899999999996,2267.8400000000001
167754.0,17157.099999999999,-5658.4899999999998,-2431.1300000000001,4823.46,2766.8400000000001,-7571.7299999999996,2077.6199999999999
167755.0,17542.799999999999,-6838.1300000000001,-2502.4200000000001,5729.8199999999997,3115.2600000000002,-6994.2600000000002,1790.1700000000001
167756.0,26749.900000000001,10119.6,-1507.6900000000001,-5777.8000000000002,-806.96000000000004,-12069.4,4950.3999999999996
167757.0,26090.5,8504.2099999999991,-1655.0999999999999,-4156.1300000000001,-350.29300000000001,-12578.1,4859.5699999999997
167758.0,25556.5,7146.0,-1695.5599999999999,-2616.4499999999998,50.305199999999999,-12906.299999999999,4699.1800000000003
167759.0,24955.799999999999,5592.8800000000001,-1806.26,-1310.1700000000001,364.63400000000001,-13004.700000000001,4608.1300000000001
167760.0,24055.0,4270.6400000000003,-1869.53,-444.02499999999998,646.72000000000003,-12747.700000000001,4430.9499999999998
167761.0,22673.0,2998.4099999999999,-1855.8900000000001,285.10599999999999,775.01700000000005,-12171.700000000001,4084.9200000000001
167762.0,20826.700000000001,1404.4000000000001,-1834.5799999999999,1116.5599999999999,944.48099999999999,-11254.700000000001,3716.2399999999998
167763.0,19123.799999999999,-168.596,-1941.22,1845.22,1293.99,-10290.4,3278.7199999999998
167764.0,17956.299999999999,-1613.2,-2023.6500000000001,2737.0900000000001,1637.21,-9466.6200000000008,2866.8099999999999
167765.0,17332.200000000001,-3068.9400000000001,-2169.0300000000002,3591.3600000000001,1978.51,-8758.7600000000002,2539.0100000000002
167766.0,17352.599999999999,-4295.1599999999999,-2278.1700000000001,4435.21,2336.6100000000001,-8291.4500000000007,2295.79
167767.0,17775.099999999999,-5584.9799999999996,-2429.8299999999999,5297.7600000000002,2688.0500000000002,-7899.8299999999999,2081.7800000000002
167768.0,18215.299999999999,-6854.5500000000002,-2512.5100000000002,6285.3100000000004,3041.3200000000002,-7301.5200000000004,1794.1400000000001
167769.0,27755.299999999999,10635.5,-1492.27,-5672.4899999999998,-930.62800000000004,-12605.9,5025.8800000000001
167770.0,27037.5,8973.3600000000006,-1658.8299999999999,-4030.0,-455.44999999999999,-13079.0,4944.5600000000004
167771.0,26429.900000000001,7618.79,-1698.99,-2436.4099999999999,-56.2121,-13369.200000000001,4763.8000000000002
167772.0,25785.5,6071.3599999999997,-1793.6600000000001,-1115.8699999999999,223.59899999999999,-13445.700000000001,4668.6700000000001
167773.0,24736.200000000001,4672.8699999999999,-1841.96,-184.33000000000001,502.81999999999999,-13129.1,4457.5100000000002
167774.0,23123.900000000001,3380.5900000000001,-1842.9100000000001,631.96000000000004,643.00099999999998,-12432.799999999999,4052.5799999999999
167775.0,21229.299999999999,1790.1500000000001,-1805.5699999999999,1546.95,808.63300000000004,-11486.9,3685.9200000000001
167776.0,19657.200000000001,94.490399999999994,-1964.51,2269.0500000000002,1186.51,-10597.200000000001,3257.3899999999999
167777.0,18594.400000000001,-1380.8900000000001,-2028.04,3236.3600000000001,1537.8900000000001,-9822.0900000000001,2858.2600000000002
167778.0,17965.5,-2861.1199999999999,-2191.23,4075.0700000000002,1869.4100000000001,-9105.0,2559.9699999999998
167779.0,17981.599999999999,-4073.02,-2280.75,4929.8900000000003,2229.0999999999999,-8646.0699999999997,2312.23
167780.0,18435.200000000001,-5426.1800000000003,-2444.21,5862.6899999999996,2577.4699999999998,-8252.8500000000004,2075.9499999999998
167781.0,18892.5,-6744.1999999999998,-2511.1999999999998,6948.4499999999998,2922.5599999999999,-7621.2200000000003,1789.51
167782.0,28755.299999999999,11224.799999999999,-1461.6600000000001,-5537.3999999999996,-1107.77,-13124.200000000001,5072.1499999999996
167783.0,28006.700000000001,9511.1200000000008,-1637.1600000000001,-3894.2800000000002,-601.75400000000002,-13579.200000000001,5018.6400000000003
167784.0,27319.700000000001,8124.3699999999999,-1695.53,-2254.5900000000001,-188.523,-13831.700000000001,4833.3000000000002
167785.0,26617.0,6596.1099999999997,-1777.7,-902.49000000000001,72.533699999999996,-13883.0,4714.4799999999996
167786.0,25408.299999999999,5104.0900000000001,-1811.22,136.19399999999999,346.03500000000003,-13502.6,4476.4899999999998
167787.0,23640.900000000001,3780.25,-1840.1500000000001,1030.78,528.65599999999995,-12721.799999999999,4034.27
167788.0,21769.599999999999,2163.6999999999998,-1830.76,2003.9300000000001,703.33900000000006,-11784.799999999999,3671.7600000000002
167789.0,20271.900000000001,414.72199999999998,-1978.95,2799.8000000000002,1091.1700000000001,-10934.5,3243.6599999999999
167790.0,19247.700000000001,-1089.3399999999999,-2041.3099999999999,3811.3099999999999,1441.4300000000001,-10171.700000000001,2843.8899999999999
167791.0,18649.5,-2585.1399999999999,-2219.9200000000001,4637.9300000000003,1769.74,-9465.8999999999996,2577.5
167792.0,18693.700000000001,-3816.98,-2319.46,5505.4799999999996,2139.77,-9025.0400000000009,2321.8899999999999
167793.0,19152.400000000001,-5200.0900000000001,-2478.4699999999998,6522.8199999999997,2479.8800000000001,-8612.8299999999999,2073.04
167794.0,19592.700000000001,-6550.1800000000003,-2538.7800000000002,7670.0100000000002,2815.5700000000002,-7941.8199999999997,1790.1199999999999
167795.0,29698.900000000001,11912.700000000001,-1422.8299999999999,-5344.0200000000004,-1327.51,-13588.1,5076.8199999999997
167796.0,28991.299999999999,10165.0,-1582.1400000000001,-3729.4499999999998,-797.13900000000001,-14067.200000000001,5069.6700000000001
167797.0,28267.900000000001,8699.9200000000001,-1678.0599999999999,-2079.0700000000002,-360.03100000000001,-14310.1,4909.9799999999996
167798.0,27466.799999999999,7177.5200000000004,-1750.8499999999999,-659.42999999999995,-100.886,-14322.299999999999,4755.5799999999999
167799.0,26093.099999999999,5576.8299999999999,-1775.8299999999999,497.29599999999999,170.191,-13874.9,4498.6700000000001
167800.0,24275.700000000001,4182.54,-1848.3299999999999,1456.3900000000001,424.06900000000002,-13071.0,4035.5700000000002
167801.0,22487.299999999999,2564.29,-1826.4400000000001,2550.4000000000001,612.47400000000005,-12177.299999999999,3673.21
167802.0,20989.0,700.38099999999997,-1995.77,3385.3699999999999,990.22199999999998,-11317.200000000001,3247.6500000000001
167803.0,19928.400000000001,-804.05499999999995,-2045.49,4430.6899999999996,1344.3800000000001,-10522.799999999999,2833.6100000000001
167804.0,19409.400000000001,-2310.6700000000001,-2244.8299999999999,5256.8400000000001,1679.05,-9853.8400000000001,2594.8299999999999
167805.0,19514.0,-3573.7199999999998,-2346.73,6176.3699999999999,2064.3600000000001,-9435.4500000000007,2332.4200000000001
167806.0,19938.400000000001,-4973.3999999999996,-2493.9000000000001,7248.9200000000001,2386.7199999999998,-8985.6200000000008,2081.46
167807.0,20328.0,-6357.8500000000004,-2554.2399999999998,8400.4599999999991,2706.52,-8275.4500000000007,1794.7
167808.0,30534.400000000001,12669.200000000001,-1385.1500000000001,-5066.6000000000004,-1556.5599999999999,-13975.200000000001,5044.7600000000002
167809.0,29953.599999999999,10919.5,-1535.6900000000001,-3534.0100000000002,-1028.54,-14522.4,5077.1899999999996
167810.0,29282.5,9399.8400000000001,-1625.99,-1899.1900000000001,-590.57600000000002,-14807.9,4964.7799999999997
167811.0,28368.599999999999,7827.4200000000001,-1703.6199999999999,-407.63400000000001,-315.50099999999998,-14778.6,4798.8999999999996
167812.0,26855.200000000001,6136.0500000000002,-1715.6700000000001,886.15099999999995,-26.216899999999999,-14277.1,4535.3400000000001
167813.0,25077.299999999999,4604.7299999999996,-1856.4400000000001,1915.9100000000001,307.17399999999998,-13511.700000000001,4053.4200000000001
167814.0,23377.700000000001,2983.3400000000001,-1821.6199999999999,3156.5300000000002,496.017,-12667.1,3672.4299999999998
167815.0,21808.400000000001,1052.78,-1968.0699999999999,4063.8099999999999,826.64499999999998,-11754.4,3254.0799999999999
167816.0,20679.799999999999,-452.488,-2014.97,5119.6800000000003,1196.3800000000001,-10910.1,2832.5
167817.0,20269.900000000001,-1998.24,-2248.8200000000002,5943.9700000000003,1548.4200000000001,-10297.1,2611.3600000000001
167818.0,20421.299999999999,-3320.0700000000002,-2341.4699999999998,6940.0900000000001,1941.51,-9884.6900000000005,2338.8600000000001
167819.0,20765.0,-4717.6300000000001,-2478.3400000000001,8026.7799999999997,2233.9099999999999,-9385.2700000000004,2087.2800000000002
167820.0,21056.700000000001,-6087.21,-2504.5500000000002,9187.6499999999996,2518.25,-8629.4599999999991,1781.6900000000001
167821.0,31263.200000000001,13443.799999999999,-1340.99,-4727.3100000000004,-1781.8399999999999,-14293.9,4992.9300000000003
167822.0,30851.799999999999,11750.799999999999,-1493.49,-3242.52,-1255.3099999999999,-14929.799999999999,5058.8000000000002
167823.0,30275.299999999999,10235.1,-1566.3499999999999,-1649.24,-855.14099999999996,-15275.700000000001,4969.8800000000001
167824.0,29307.099999999999,8597.1599999999999,-1634.9000000000001,-125.739,-585.62,-15242.0,4809.4200000000001
167825.0,27775.599999999999,6811.5699999999997,-1658.4200000000001,1266.3399999999999,-261.01299999999998,-14755.799999999999,4566.3199999999997
167826.0,26090.599999999999,5123.8000000000002,-1840.02,2463.8299999999999,152.11799999999999,-14065.6,4085.9099999999999
167827.0,24404.099999999999,3496.5599999999999,-1805.1900000000001,3879.5700000000002,350.5,-13222.1,3671.4099999999999
167828.0,22711.200000000001,1551.52,-1940.24,4844.8100000000004,625.88300000000004,-12222.200000000001,3262.9699999999998
167829.0,21566.400000000001,8.9212900000000008,-2016.5999999999999,5866.3800000000001,1024.27,-11361.9,2852.48
167830.0,21266.0,-1563.8599999999999,-2238.0900000000001,6747.75,1387.72,-10810.9,2626.6500000000001
167831.0,21381.099999999999,-2961.8000000000002,-2316.7199999999998,7821.4499999999998,1757.5699999999999,-10355.700000000001,2339.9699999999998
167832.0,21599.0,-4311.7399999999998,-2431.8000000000002,8908.6399999999994,2018.4000000000001,-9795.9400000000005,2077.9899999999998
167833.0,21759.700000000001,-5653.4799999999996,-2455.3600000000001,10057.1,2254.7600000000002,-8986.4599999999991,1746.8699999999999
167834.0,31930.200000000001,14246.1,-1258.54,-4355.0100000000002,-2030.53,-14570.1,4909.6899999999996
167835.0,31689.599999999999,12565.6,-1449.45,-2911.3600000000001,-1497.05,-15306.0,5021.4399999999996
167836.0,31171.099999999999,11103.700000000001,-1531.29,-1306.6400000000001,-1108.6600000000001,-15680.700000000001,4947.9799999999996
167837.0,30209.400000000001,9472.5499999999993,-1596.1600000000001,267.83800000000002,-839.66099999999994,-15666.200000000001,4790.4799999999996
167838.0,28847.799999999999,7642.3999999999996,-1632.6400000000001,1725.8099999999999,-484.73099999999999,-15303.0,4574.7200000000003
167839.0,27316.0,5757.9799999999996,-1834.3599999999999,3125.1399999999999,-26.9099,-14724.5,4129.04
167840.0,25550.0,4051.9499999999998,-1834.78,4673.6700000000001,196.726,-13821.9,3690.0999999999999
167841.0,23720.900000000001,2163.0300000000002,-1930.6900000000001,5706.8900000000003,440.16899999999998,-12726.0,3287.4400000000001
167842.0,22638.900000000001,551.78300000000002,-2038.3199999999999,6688.0100000000002,860.10799999999995,-11902.700000000001,2888.0300000000002
167843.0,22407.900000000001,-1049.6500000000001,-2233.8600000000001,7676.8500000000004,1215.7,-11387.5,2630.73
167844.0,22384.099999999999,-2485.1199999999999,-2300.1399999999999,8815.1900000000005,1535.28,-10830.6,2340.3499999999999
167845.0,22440.5,-3777.73,-2405.6900000000001,9864.4200000000001,1775.5999999999999,-10200.4,2057.4000000000001
167846.0,22463.799999999999,-5036.7299999999996,-2405.8600000000001,11028.799999999999,1968.8199999999999,-9336.75,1704.04
167847.0,32549.799999999999,15131.700000000001,-1129.71,-3910.3000000000002,-2342.02,-14802.0,4773.4700000000003
167848.0,32468.799999999999,13452.700000000001,-1351.8800000000001,-2527.3699999999999,-1800.4400000000001,-15629.6,4956.1400000000003
167849.0,32031.599999999999,11973.0,-1470.03,-909.36400000000003,-1363.6600000000001,-16060.700000000001,4936.8299999999999
167850.0,31122.200000000001,10312.299999999999,-1585.99,724.75599999999997,-1033.77,-16092.9,4796.8900000000003
167851.0,30023.200000000001,8485.5200000000004,-1644.1300000000001,2271.5,-652.98099999999999,-15905.6,4578.0900000000001
167852.0,28674.400000000001,6458.1599999999999,-1813.4200000000001,3913.2399999999998,-202.17400000000001,-15446.700000000001,4181.2299999999996
167853.0,26809.200000000001,4645.9499999999998,-1850.54,5555.3100000000004,60.188699999999997,-14465.9,3741.73
167854.0,24908.900000000001,2817.3299999999999,-1936.6099999999999,6631.6899999999996,297.73099999999999,-13311.0,3334.52
167855.0,23921.700000000001,1143.4200000000001,-2056.6500000000001,7623.4300000000003,702.93899999999996,-12543.1,2932.8400000000001
167856.0,23668.799999999999,-472.79399999999998,-2212.4899999999998,8763.2600000000002,1036.0599999999999,-11997.5,2631.5900000000001
167857.0,23446.700000000001,-1902.9300000000001,-2274.1999999999998,9924.1299999999992,1307.98,-11307.700000000001,2353.25
167858.0,23310.200000000001,-3145.1900000000001,-2368.3200000000002,10898.9,1529.51,-10598.200000000001,2037.3299999999999
167859.0,23190.700000000001,-4326.79,-2355.5999999999999,12053.200000000001,1676.9300000000001,-9681.8799999999992,1658.52
167860.0,33098.199999999997,16134.799999999999,-995.851,-3364.7600000000002,-2725.0599999999999,-14944.9,4601.0200000000004
167861.0,33191.699999999997,14448.700000000001,-1253.4300000000001,-2145.3000000000002,-2165.4200000000001,-15871.9,4848.0799999999999
167862.0,32942.300000000003,12898.799999999999,-1374.03,-513.95899999999995,-1674.95,-16458.200000000001,4898.5500000000002
167863.0,32180.099999999999,11134.200000000001,-1545.1500000000001,1189.9000000000001,-1250.9000000000001,-16610.400000000001,4816.1800000000003
167864.0,31301.599999999999,9351.2600000000002,-1602.8099999999999,2900.0300000000002,-842.97500000000002,-16570.400000000001,4582.0100000000002
167865.0,30087.099999999999,7176.6599999999999,-1773.1400000000001,4730.6400000000003,-432.33199999999999,-16195.6,4226.5
167866.0,28192.299999999999,5233.4899999999998,-1844.76,6467.0500000000002,-102.574,-15175.0,3811.46
167867.0,26353.700000000001,3446.98,-1974.1800000000001,7601.9099999999999,171.88900000000001,-14030.1,3402.0900000000001
167868.0,25429.900000000001,1790.6800000000001,-2054.3800000000001,8706.1900000000005,526.01700000000005,-13289.299999999999,2990.6700000000001
167869.0,25042.299999999999,120.009,-2205.3200000000002,9940.4899999999998,819.18100000000004,-12640.299999999999,2651.1700000000001
167870.0,24596.900000000001,-1259.6500000000001,-2230.71,11103.700000000001,1055.5899999999999,-11815.4,2383.8499999999999
167871.0,24238.5,-2485.5999999999999,-2343.71,11960.5,1250.3299999999999,-11013.6,2021.01
167872.0,23954.799999999999,-3515.6399999999999,-2259.3899999999999,13163.1,1351.6400000000001,-10029.799999999999,1607.8199999999999
167873.0,33556.5,17239.099999999999,-868.84400000000005,-2759.0,-3129.8299999999999,-14973.4,4410.0100000000002
167874.0,33888.300000000003,15622.1,-1115.72,-1689.5899999999999,-2543.7800000000002,-16048.299999999999,4700.1199999999999
167875.0,33919.0,13983.4,-1246.95,-25.3551,-2025.55,-16870.400000000001,4813.5500000000002
167876.0,33395.400000000001,12066.299999999999,-1460.6500000000001,1747.78,-1535.4400000000001,-17211.599999999999,4816.3299999999999
167877.0,32667.599999999999,10302.799999999999,-1544.0599999999999,3568.04,-1105.72,-17269.599999999999,4577.54
167878.0,31535.0,8099.1400000000003,-1654.8,5615.0200000000004,-747.61400000000003,-16945.900000000001,4250.8100000000004
167879.0,29752.700000000001,5955.4899999999998,-1786.29,7450.5200000000004,-333.863,-15975.299999999999,3894.9499999999998
167880.0,28119.0,4165.3800000000001,-1970.1700000000001,8702.7700000000004,29.900600000000001,-14919.299999999999,3504.4099999999999
167881.0,27185.0,2528.5900000000001,-2042.4000000000001,9930.0,322.21100000000001,-14151.299999999999,3078.5500000000002
167882.0,26560.5,864.59900000000005,-2146.4699999999998,11254.200000000001,555.14999999999998,-13343.6,2713.3899999999999
167883.0,25873.599999999999,-514.01700000000005,-2180.7600000000002,12347.5,769.93600000000004,-12385.1,2440.04
167884.0,25271.5,-1683.1600000000001,-2278.73,13145.799999999999,943.64999999999998,-11469.700000000001,2019.25
167885.0,24812.0,-2635.5100000000002,-2204.9000000000001,14336.1,1013.79,-10396.4,1569.0899999999999
167886.0,33895.300000000003,18380.200000000001,-740.726,-2107.8200000000002,-3516.6100000000001,-14904.799999999999,4151.71
167887.0,34576.900000000001,16867.299999999999,-985.67100000000005,-1156.8900000000001,-2924.9200000000001,-16207.4,4473.4499999999998
167888.0,34946.300000000003,15193.299999999999,-1116.29,575.67399999999998,-2423.98,-17295.099999999999,4654.3299999999999
167889.0,34679.599999999999,13152.299999999999,-1321.8599999999999,2441.98,-1910.8299999999999,-17835.0,4770.4499999999998
167890.0,34048.199999999997,11410.799999999999,-1447.1900000000001,4313.54,-1441.24,-17951.900000000001,4538.25
167891.0,33026.5,9229.7199999999993,-1553.8599999999999,6518.7200000000003,-1127.96,-17689.900000000001,4232.3199999999997
167892.0,31534.599999999999,6879.8999999999996,-1730.98,8482.4699999999993,-650.41499999999996,-16883.0,3980.9499999999998
167893.0,30201.099999999999,4972.5,-1974.8399999999999,9875.9300000000003,-174.23099999999999,-15979.799999999999,3632.0700000000002
167894.0,29198.0,3377.5700000000002,-2038.24,11260.299999999999,78.539900000000003,-15139.4,3201.1599999999999
167895.0,28287.599999999999,1735.8900000000001,-2122.0799999999999,12610.1,252.547,-14152.4,2830.8800000000001
167896.0,27348.299999999999,330.233,-2155.9099999999999,13636.4,462.64699999999999,-13059.200000000001,2539.27
167897.0,26493.799999999999,-814.92100000000005,-2240.54,14407.5,640.51999999999998,-12007.700000000001,2056.25
167898.0,25867.200000000001,-1709.95,-2169.9299999999998,15607.5,705.46600000000001,-10833.799999999999,1574.25
167899.0,34120.199999999997,19545.599999999999,-617.22799999999995,-1317.9300000000001,-3852.4000000000001,-14768.299999999999,3838.5
167900.0,35206.900000000001,18174.099999999999,-859.29499999999996,-375.22800000000001,-3280.1500000000001,-16344.1,4185.75
167901.0,35909.0,16565.400000000001,-973.41999999999996,1442.01,-2836.3699999999999,-17659.099999999999,4423.71
167902.0,35878.400000000001,14416.700000000001,-1166.1500000000001,3310.75,-2366.75,-18371.900000000001,4646.6800000000003
167903.0,35346.599999999999,12645.799999999999,-1350.01,5169.8500000000004,-1819.3399999999999,-18556.299999999999,4445.8299999999999
167904.0,34542.5,10609.6,-1441.3800000000001,7553.0799999999999,-1498.98,-18406.299999999999,4176.4799999999996
167905.0,33505.5,8101.3400000000001,-1650.25,9619.0300000000007,-1007.6900000000001,-17870.200000000001,4055.5500000000002
167906.0,32509.599999999999,6007.9899999999998,-1912.27,11194.4,-435.71300000000002,-17155.799999999999,3769.7199999999998
167907.0,31445.5,4388.0,-2018.51,12692.299999999999,-171.989,-16244.200000000001,3361.8899999999999
167908.0,30293.799999999999,2799.4299999999998,-2071.7600000000002,14055.1,-42.624299999999998,-15115.0,3003.7800000000002
167909.0,29110.200000000001,1315.6500000000001,-2101.5599999999999,15023.200000000001,146.464,-13894.5,2692.6799999999998
167910.0,28006.599999999999,134.535,-2166.1399999999999,15803.6,332.05000000000001,-12693.6,2144.1500000000001
167911.0,27228.400000000001,-773.09900000000005,-2118.9200000000001,17005.0,393.10899999999998,-11419.1,1626.48
167912.0,34328.099999999999,20688.099999999999,-468.13400000000001,-409.43700000000001,-4154.8699999999999,-14647.200000000001,3495.54
167913.0,35753.0,19398.200000000001,-743.90899999999999,602.18700000000001,-3627.25,-16465.900000000001,3874.3699999999999
167914.0,36684.5,17888.400000000001,-869.15999999999997,2496.1100000000001,-3228.48,-17909.299999999999,4171.7700000000004
167915.0,36860.900000000001,15801.200000000001,-1021.52,4338.46,-2819.6799999999998,-18739.200000000001,4465.9099999999999
167916.0,36505.800000000003,13943.5,-1234.3699999999999,6178.7600000000002,-2203.3899999999999,-19056.200000000001,4316.29
167917.0,36040.300000000003,11992.799999999999,-1408.47,8615.7900000000009,-1827.95,-19083.799999999999,4105.2799999999997
167918.0,35539.5,9484.5900000000001,-1608.7,10779.299999999999,-1377.9100000000001,-18867.799999999999,4093.8699999999999
167919.0,34878.300000000003,7145.9300000000003,-1876.71,12517.299999999999,-765.94299999999998,-18354.900000000001,3885.9000000000001
167920.0,33834.199999999997,5468.9899999999998,-1995.3599999999999,14135.1,-447.82999999999998,-17429.299999999999,3526.6399999999999
167921.0,32571.799999999999,3915.4299999999998,-2068.9099999999999,15484.9,-347.49400000000003,-16239.299999999999,3189.1599999999999
167922.0,31210.900000000001,2419.8299999999999,-2042.25,16503.200000000001,-205.87,-14923.9,2871.27
167923.0,29885.799999999999,1144.26,-2109.6500000000001,17335.400000000001,-19.013200000000001,-13569.200000000001,2263.1599999999999
167924.0,28980.200000000001,278.95699999999999,-2029.8800000000001,18649.099999999999,43.826599999999999,-12191.9,1704.3299999999999
167925.0,34589.599999999999,21875.5,-258.03300000000002,647.00400000000002,-4529.3699999999999,-14555.1,3091.1300000000001
167926.0,36224.199999999997,20655.700000000001,-534.48699999999997,1776.1300000000001,-4062.73,-16532.5,3526.1599999999999
167927.0,37272.699999999997,19192.5,-672.74599999999998,3674.4499999999998,-3669.3699999999999,-18033.900000000001,3916.96
167928.0,37640.599999999999,17211.5,-853.44000000000005,5396.46,-3277.4699999999998,-18959.299999999999,4231.6099999999997
167929.0,37564.599999999999,15295.1,-1059.95,7286.0799999999999,-2645.3899999999999,-19474.299999999999,4152.1899999999996
167930.0,37535.300000000003,13414.9,-1296.0999999999999,9755.2700000000004,-2162.3200000000002,-19745.900000000001,4049.79
167931.0,37545.099999999999,11048.700000000001,-1476.9000000000001,12009.299999999999,-1751.55,-19833.299999999999,4102.8800000000001
167932.0,37175.099999999999,8536.6700000000001,-1691.6300000000001,13946.0,-1188.26,-19505.900000000001,3962.25
167933.0,36245.800000000003,6722.0799999999999,-1842.25,15660.299999999999,-805.05200000000002,-18634.5,3664.8899999999999
167934.0,35041.699999999997,5230.0100000000002,-1951.4300000000001,17059.099999999999,-685.89599999999996,-17477.200000000001,3352.0599999999999
167935.0,33646.0,3733.6199999999999,-1907.8299999999999,18201.5,-595.35000000000002,-16131.200000000001,3032.1999999999998
167936.0,32171.299999999999,2341.5500000000002,-1983.6400000000001,19189.400000000001,-415.89999999999998,-14626.9,2394.8800000000001
167937.0,31180.400000000001,1451.76,-1941.1300000000001,20607.799999999999,-315.387,-13149.299999999999,1802.6400000000001
167938.0,34924.199999999997,23214.299999999999,-36.771000000000001,1886.1600000000001,-5027.0799999999999,-14410.5,2664.3000000000002
167939.0,36620.300000000003,22048.400000000001,-296.37,3075.04,-4617.9799999999996,-16454.400000000001,3135.8499999999999
167940.0,37750.099999999999,20556.700000000001,-447.178,4837.46,-4236.1000000000004,-18018.799999999999,3611.0900000000001
167941.0,38302.400000000001,18733.700000000001,-640.75,6500.6099999999997,-3805.1500000000001,-19054.299999999999,3934.3499999999999
167942.0,38595.900000000001,16853.0,-842.09299999999996,8469.5300000000007,-3191.8499999999999,-19809.599999999999,3948.2800000000002
167943.0,39053.400000000001,14872.1,-1155.1500000000001,10843.6,-2642.7399999999998,-20400.700000000001,3963.02
167944.0,39482.699999999997,12706.0,-1290.8299999999999,13215.200000000001,-2267.8699999999999,-20748.400000000001,4027.5100000000002
167945.0,39352.400000000001,10158.6,-1477.1800000000001,15352.200000000001,-1831.1700000000001,-20568.0,3942.6700000000001
167946.0,38615.800000000003,8218.9500000000007,-1607.1700000000001,17224.900000000001,-1397.6700000000001,-19810.900000000001,3730.6100000000001
167947.0,37638.0,6696.6800000000003,-1792.4000000000001,18713.700000000001,-1188.3699999999999,-18782.099999999999,3444.5999999999999
167948.0,36382.699999999997,5239.1800000000003,-1733.3599999999999,20140.900000000001,-1113.8499999999999,-17474.799999999999,3124.8200000000002
167949.0,34888.699999999997,3719.8499999999999,-1837.55,21389.099999999999,-915.44200000000001,-15857.1,2521.7600000000002
167950.0,33892.400000000001,2737.8600000000001,-1839.8,22958.5,-705.21000000000004,-14303.299999999999,1920.21
167951.0,35387.699999999997,24805.200000000001,250.423,3272.71,-5654.6000000000004,-14179.299999999999,2261.6799999999998
167952.0,36980.199999999997,23661.299999999999,-8.3542000000000005,4452.1700000000001,-5254.4700000000003,-16204.0,2733.9499999999998
167953.0,38193.699999999997,22232.599999999999,-114.274,6102.3299999999999,-4906.5,-17849.700000000001,3245.0799999999999
167954.0,38965.199999999997,20474.299999999999,-349.02199999999999,7667.0299999999997,-4433.4899999999998,-19057.099999999999,3598.7199999999998
167955.0,39694.699999999997,18724.299999999999,-522.25199999999995,9718.2199999999993,-3844.8299999999999,-20100.5,3698.3400000000001
167956.0,40588.699999999997,16766.700000000001,-783.48199999999997,12147.5,-3339.4000000000001,-20998.0,3783.8000000000002
167957.0,41317.099999999999,14801.9,-894.36599999999999,14680.0,-2997.0700000000002,-21536.0,3841.9499999999998
167958.0,41403.300000000003,12434.9,-1054.49,17055.200000000001,-2665.5799999999999,-21475.799999999999,3814.7399999999998
167959.0,40930.199999999997,10359.1,-1205.75,19056.0,-2221.04,-20894.5,3686.6599999999999
167960.0,40318.800000000003,8716.7299999999996,-1437.0,20755.400000000001,-1894.3599999999999,-20077.900000000001,3425.75
167961.0,39346.900000000001,7188.1199999999999,-1476.8099999999999,22512.599999999999,-1749.49,-18858.0,3131.3600000000001
167962.0,38017.900000000001,5457.71,-1671.8199999999999,24040.799999999999,-1452.47,-17221.400000000001,2623.8699999999999
167963.0,37142.599999999999,4149.3299999999999,-1778.8,25740.599999999999,-1070.99,-15644.299999999999,2047.23
167964.0,36074.199999999997,26705.900000000001,596.82000000000005,4733.6899999999996,-6417.9799999999996,-13864.6,1853.6700000000001
167965.0,37438.599999999999,25501.099999999999,304.07999999999998,5832.2700000000004,-6011.9399999999996,-15825.200000000001,2291.6300000000001
167966.0,38685.0,24178.099999999999,217.09100000000001,7397.9399999999996,-5702.04,-17530.5,2793.0799999999999
167967.0,39737.400000000001,22566.900000000001,-0.94547300000000001,8923.5499999999993,-5243.3500000000004,-18966.799999999999,3152.1799999999998
167968.0,40919.0,20980.599999999999,-150.06299999999999,11085.200000000001,-4723.5200000000004,-20326.099999999999,3299.1199999999999
167969.0,42132.599999999999,19113.900000000001,-423.06700000000001,13627.700000000001,-4311.3800000000001,-21441.0,3446.5900000000001
167970.0,43044.199999999997,17299.599999999999,-571.25099999999998,16303.299999999999,-3974.8600000000001,-22102.099999999999,3527.9899999999998
167971.0,43325.199999999997,15082.799999999999,-794.78599999999994,18832.099999999999,-3646.9699999999998,-22161.599999999999,3562.2399999999998
167972.0,43155.900000000001,12993.799999999999,-958.28599999999994,21031.0,-3162.9200000000001,-21788.299999999999,3504.23
167973.0,42964.900000000001,11123.200000000001,-1266.71,22988.799999999999,-2696.52,-21216.400000000001,3288.5700000000002
167974.0,42385.699999999997,9375.6700000000001,-1366.3900000000001,25121.5,-2357.0,-20159.299999999999,3067.6999999999998
167975.0,41438.800000000003,7308.3699999999999,-1599.8399999999999,26965.5,-1886.3800000000001,-18656.099999999999,2675.73
167976.0,40826.099999999999,5559.6800000000003,-1708.6099999999999,28899.900000000001,-1368.9000000000001,-17127.400000000001,2150.3499999999999
167977.0,37052.800000000003,28964.400000000001,975.47400000000005,6284.0299999999997,-7271.5500000000002,-13480.5,1429.02
167978.0,38143.0,27749.099999999999,705.73299999999995,7371.6499999999996,-6861.9399999999996,-15361.200000000001,1845.9200000000001
167979.0,39337.800000000003,26546.200000000001,616.851,8885.3099999999995,-6547.7299999999996,-17091.5,2322.48
167980.0,40654.400000000001,25173.599999999999,402.79700000000003,10489.6,-6111.4499999999998,-18746.900000000001,2640.4099999999999
167981.0,42181.400000000001,23792.599999999999,241.11000000000001,12851.700000000001,-5676.9300000000003,-20347.400000000001,2818.5999999999999
167982.0,43590.199999999997,22129.900000000001,12.4064,15573.0,-5309.3599999999997,-21606.400000000001,3048.1399999999999
167983.0,44610.800000000003,20387.200000000001,-155.15799999999999,18349.0,-4920.1700000000001,-22382.099999999999,3180.8400000000001
167984.0,45071.400000000001,18242.799999999999,-385.55200000000002,21039.5,-4506.4700000000003,-22592.799999999999,3279.3200000000002
167985.0,45220.5,16026.299999999999,-624.90200000000004,23349.799999999999,-3929.3600000000001,-22458.900000000001,3292.9299999999998
167986.0,45422.300000000003,13876.5,-919.35500000000002,25597.099999999999,-3343.9000000000001,-22141.099999999999,3122.5
167987.0,45326.5,11693.4,-1065.5999999999999,28019.299999999999,-2880.6599999999999,-21339.299999999999,2936.3400000000001
167988.0,44984.0,9206.5200000000004,-1305.6800000000001,30216.599999999999,-2378.5700000000002,-20112.200000000001,2600.8899999999999
167989.0,44767.400000000001,7108.5600000000004,-1293.3599999999999,32551.599999999999,-1919.99,-18692.400000000001,2092.1599999999999
167990.0,38359.699999999997,31552.099999999999,1390.51,7966.5900000000001,-8200.5200000000004,-13067.200000000001,973.50400000000002
167991.0,39188.400000000001,30250.299999999999,1051.8900000000001,8962.6100000000006,-7801.75,-14868.700000000001,1384.71
167992.0,40341.699999999997,29180.599999999999,957.24699999999996,10435.799999999999,-7469.9700000000003,-16644.299999999999,1832.6900000000001
167993.0,41820.900000000001,27984.799999999999,718.80700000000002,12196.1,-7053.29,-18474.5,2129.21
167994.0,43478.900000000001,26781.400000000001,573.61199999999997,14769.5,-6663.0,-20199.599999999999,2368.5
167995.0,44979.900000000001,25176.700000000001,311.62,17490.5,-6314.6300000000001,-21573.900000000001,2647.71
167996.0,46094.300000000003,23398.099999999999,147.697,20333.5,-5914.2600000000002,-22488.900000000001,2815.23
167997.0,46777.800000000003,21155.700000000001,-127.596,23076.700000000001,-5450.6300000000001,-22913.299999999999,2967.4699999999998
167998.0,47285.5,18874.700000000001,-271.69,25613.799999999999,-4860.1199999999999,-23070.200000000001,3018.0
167999.0,47860.5,16431.099999999999,-529.15700000000004,28166.599999999999,-4297.5299999999997,-22996.5,2845.3299999999999
168000.0,48264.900000000001,14100.1,-517.279,31142.200000000001,-3851.3099999999999,-22443.700000000001,2622.9200000000001
168001.0,48605.699999999997,11566.200000000001,-609.26700000000005,34006.5,-3495.1500000000001,-21492.900000000001,2236.0900000000001
168002.0,48878.599999999999,9590.2199999999993,-316.541,37115.199999999997,-3350.52,-20156.900000000001,1641.3800000000001
168003.0,40040.599999999999,34488.0,1882.02,9837.1100000000006,-9231.1000000000004,-12646.1,512.89099999999996
168004.0,40645.099999999999,33238.800000000003,1565.3800000000001,10794.6,-8767.0799999999999,-14405.200000000001,974.43499999999995
168005.0,41814.699999999997,32310.299999999999,1467.72,12262.9,-8416.6200000000008,-16282.700000000001,1381.5899999999999
168006.0,43348.599999999999,31266.700000000001,1301.97,14261.700000000001,-8080.5699999999997,-18232.799999999999,1674.02
168007.0,44979.900000000001,30124.200000000001,1182.3599999999999,16900.799999999999,-7762.5200000000004,-20010.200000000001,1950.8199999999999
168008.0,46527.599999999999,28693.599999999999,1031.7,19731.0,-7465.8699999999999,-21488.5,2217.02
168009.0,47754.199999999997,26970.299999999999,955.86300000000006,22769.599999999999,-7106.1899999999996,-22557.200000000001,2406.6500000000001
168010.0,48691.599999999999,24794.0,766.24400000000003,25736.599999999999,-6659.9700000000003,-23218.0,2563.71
168011.0,49579.099999999999,22513.900000000001,650.06700000000001,28598.900000000001,-6174.7200000000003,-23636.0,2557.73
168012.0,50533.300000000003,20116.799999999999,536.08799999999997,31762.299999999999,-5789.2700000000004,-23733.599999999999,2321.2199999999998
168013.0,51429.800000000003,17851.299999999999,626.06100000000004,35360.199999999997,-5561.9300000000003,-23349.599999999999,1978.6600000000001
168014.0,52473.400000000001,15622.9,575.53700000000003,39044.900000000001,-5583.79,-22556.700000000001,1421.9200000000001
168015.0,53315.099999999999,14397.9,1073.04,43250.900000000001,-5912.3400000000001,-21148.299999999999,677.24199999999996
168016.0,42207.300000000003,37872.800000000003,2470.6599999999999,11878.299999999999,-10404.799999999999,-12218.9,-1.5754699999999999
168017.0,42721.599999999999,36499.400000000001,2040.4100000000001,12569.6,-9925.6700000000001,-14065.0,462.35899999999998
168018.0,43911.099999999999,35724.199999999997,2002.4400000000001,14188.0,-9645.5799999999999,-16044.4,831.78200000000004
168019.0,45414.5,34764.5,1818.24,16320.799999999999,-9444.2900000000009,-18009.900000000001,1132.8800000000001
168020.0,46996.900000000001,33864.800000000003,1830.27,19108.799999999999,-9238.1499999999996,-19794.799999999999,1406.1600000000001
168021.0,48602.099999999999,32566.799999999999,1653.46,22005.0,-9052.5499999999993,-21352.200000000001,1621.77
168022.0,50008.699999999997,30993.099999999999,1617.0699999999999,25287.799999999999,-8827.8999999999996,-22579.299999999999,1798.1199999999999
168023.0,51254.099999999999,28909.0,1427.27,28544.5,-8496.0499999999993,-23482.5,1896.1900000000001
168024.0,52506.099999999999,26965.099999999999,1503.98,32195.700000000001,-8178.1300000000001,-24068.400000000001,1787.0899999999999
168025.0,53794.699999999997,24822.900000000001,1363.8900000000001,36062.199999999997,-8007.0200000000004,-24185.099999999999,1468.6700000000001
168026.0,55149.0,23243.099999999999,1583.54,40613.400000000001,-7983.4200000000001,-23807.599999999999,948.65999999999997
168027.0,56842.900000000001,21974.200000000001,1589.3099999999999,45453.0,-8261.7199999999993,-22954.900000000001,225.226
168028.0,58210.199999999997,21805.799999999999,2115.6700000000001,50708.099999999999,-8801.2999999999993,-21315.099999999999,-549.678
168029.0,44938.199999999997,41842.900000000001,3111.5300000000002,14127.799999999999,-11667.0,-11764.0,-608.29300000000001
168030.0,45516.900000000001,40751.900000000001,2893.1599999999999,14963.200000000001,-11246.0,-13787.700000000001,-142.32599999999999
168031.0,46661.699999999997,40069.400000000001,2882.3899999999999,16740.299999999999,-11078.299999999999,-15805.0,232.69200000000001
168032.0,48095.699999999997,39423.699999999997,2848.6300000000001,19133.700000000001,-10998.200000000001,-17721.700000000001,526.38099999999997
168033.0,49666.5,38722.900000000001,2827.71,22001.099999999999,-10918.799999999999,-19489.799999999999,750.16700000000003
168034.0,51334.0,37841.699999999997,2778.2800000000002,25263.400000000001,-10836.1,-21085.5,912.65599999999995
168035.0,52929.300000000003,36664.099999999999,2822.1999999999998,28989.700000000001,-10690.200000000001,-22442.900000000001,1026.5
168036.0,54540.300000000003,35069.900000000001,2763.1599999999999,32985.599999999999,-10496.299999999999,-23526.599999999999,981.35599999999999
168037.0,56195.599999999999,33375.400000000001,2702.0,37394.599999999999,-10375.200000000001,-24172.0,784.88099999999997
168038.0,57730.599999999999,31783.099999999999,2705.1100000000001,42217.699999999997,-10298.799999999999,-24195.299999999999,434.25299999999999
168039.0,59402.0,30630.700000000001,2783.3499999999999,47424.599999999999,-10308.299999999999,-23695.700000000001,-238.15899999999999
168040.0,61541.699999999997,30020.299999999999,2757.8299999999999,53069.400000000001,-10710.5,-22636.5,-1020.24
168041.0,63197.099999999999,30511.5,3333.3000000000002,58745.5,-11401.6,-20749.700000000001,-1739.1199999999999
168042.0,48184.599999999999,46381.099999999999,3830.23,16774.200000000001,-12986.0,-11299.200000000001,-1351.9000000000001
168043.0,48951.900000000001,45253.699999999997,3411.4499999999998,17493.599999999999,-12828.700000000001,-13415.4,-964.52099999999996
168044.0,50128.199999999997,44904.900000000001,3560.7600000000002,19519.700000000001,-12878.799999999999,-15383.9,-584.46000000000004
168045.0,51580.199999999997,44468.699999999997,3446.3400000000001,21946.400000000001,-12931.4,-17247.400000000001,-297.41699999999997
168046.0,53182.900000000001,44242.400000000001,3566.5999999999999,25174.700000000001,-12941.1,-19004.099999999999,-87.601200000000006
168047.0,54885.5,43583.099999999999,3437.7600000000002,28680.900000000001,-12908.200000000001,-20632.299999999999,48.673200000000001
168048.0,56662.099999999999,42708.199999999997,3435.23,32831.599999999999,-12823.799999999999,-22099.799999999999,59.0518
168049.0,58605.699999999997,41431.0,3304.3099999999999,37529.199999999997,-12720.0,-23303.0,-99.503900000000002
168050.0,60582.099999999999,40371.900000000001,3541.1100000000001,43099.699999999997,-12701.0,-23954.799999999999,-334.45600000000002
168051.0,62474.900000000001,39006.5,3552.8899999999999,48576.5,-12821.200000000001,-23947.299999999999,-752.80399999999997
168052.0,64567.5,38486.599999999999,4096.6599999999999,54802.5,-13159.799999999999,-23325.700000000001,-1547.0799999999999
168053.0,67077.800000000003,38581.400000000001,4430.3100000000004,61200.400000000001,-14010.4,-21938.799999999999,-2327.54
168054.0,68894.399999999994,40018.099999999999,5427.3800000000001,67113.100000000006,-15134.1,-19691.5,-3063.8699999999999
168055.0,51712.699999999997,51132.300000000003,4515.2700000000004,19784.5,-14349.799999999999,-10787.9,-2067.8299999999999
168056.0,52598.099999999999,50875.699999999997,4487.1099999999997,21088.5,-14330.700000000001,-12707.299999999999,-1696.1800000000001
168057.0,53967.400000000001,51035.199999999997,4633.1800000000003,23209.900000000001,-14529.700000000001,-14575.700000000001,-1358.6700000000001
168058.0,55595.0,51256.099999999999,4764.0299999999997,26023.099999999999,-14725.299999999999,-16446.299999999999,-1120.5699999999999
168059.0,57332.300000000003,51289.5,4846.7399999999998,29444.299999999999,-14873.0,-18266.799999999999,-957.18700000000001
168060.0,59160.0,51084.400000000001,4968.8400000000001,33514.0,-14959.4,-20009.299999999999,-883.59100000000001
168061.0,61161.5,50692.300000000003,5240.5799999999999,38452.400000000001,-15003.200000000001,-21626.299999999999,-1001.02
168062.0,63466.400000000001,50004.699999999997,5444.79,44187.400000000001,-15169.5,-22894.599999999999,-1284.1700000000001
168063.0,65990.399999999994,49163.300000000003,5640.3500000000004,50373.800000000003,-15575.200000000001,-23594.0,-1686.8399999999999
168064.0,68714.399999999994,48811.400000000001,6276.9399999999996,57260.199999999997,-16321.4,-23567.700000000001,-2329.1300000000001
168065.0,71720.699999999997,49138.5,6951.6300000000001,64409.599999999999,-17464.0,-22658.200000000001,-3241.7600000000002
168066.0,74986.699999999997,50322.400000000001,7396.46,71386.5,-19062.0,-20777.5,-3969.6999999999998
168067.0,77196.600000000006,53048.599999999999,8648.6800000000003,77370.399999999994,-20652.599999999999,-17974.299999999999,-4751.1099999999997
168068.0,55236.0,56035.199999999997,5596.2600000000002,23113.799999999999,-15852.5,-10130.6,-2697.9099999999999
168069.0,56621.199999999997,56026.099999999999,5243.9399999999996,24124.400000000001,-16292.5,-11740.1,-2557.77
168070.0,58477.800000000003,57244.900000000001,5640.7799999999997,26656.799999999999,-16697.099999999999,-13493.4,-2374.6700000000001
168071.0,60585.400000000001,58004.400000000001,5714.8299999999999,29643.799999999999,-17169.599999999999,-15442.799999999999,-2251.1199999999999
168072.0,62747.099999999999,58854.099999999999,6217.96,33799.699999999997,-17621.900000000001,-17434.5,-2175.5
168073.0,65073.0,59159.400000000001,6508.0299999999997,38556.699999999997,-18094.099999999999,-19365.099999999999,-2266.5599999999999
168074.0,67785.100000000006,59330.199999999997,6882.1899999999996,44319.599999999999,-18708.200000000001,-21107.400000000001,-2544.9099999999999
168075.0,70812.399999999994,59403.099999999999,7372.2200000000003,51056.599999999999,-19493.200000000001,-22398.5,-2986.8499999999999
168076.0,74361.800000000003,60228.400000000001,8416.2800000000007,59051.099999999999,-20591.0,-23029.400000000001,-3730.9499999999998
168077.0,78632.800000000003,61230.900000000001,8970.75,67258.800000000003,-22209.200000000001,-22786.0,-4593.0200000000004
168078.0,82903.5,63564.0,10093.700000000001,75968.899999999994,-24042.0,-21410.5,-5399.4700000000003
168079.0,86991.800000000003,66346.100000000006,10666.9,83570.199999999997,-25995.5,-18949.299999999999,-5977.46
168080.0,89742.800000000003,70435.399999999994,12170.200000000001,89653.100000000006,-27709.0,-15593.6,-6758.96
168081.0,7714.8000000000002,1835.99,-203.077,-4478.0600000000004,-1190.4200000000001,2622.6100000000001,1077.4000000000001
168082.0,8029.1700000000001,2100.2800000000002,-277.04000000000002,-4972.4300000000003,-1173.8199999999999,2381.1599999999999,1219.76
168083.0,7840.6700000000001,2083.46,-441.04199999999997,-5318.46,-1043.53,1868.8599999999999,1323.6199999999999
168084.0,8083.5100000000002,2360.5500000000002,-469.20100000000002,-5645.0799999999999,-1038.6300000000001,1419.8199999999999,1484.98
168085.0,8672.0599999999995,2947.8899999999999,-543.52499999999998,-6020.29,-983.85799999999995,727.09500000000003,1770.8900000000001
168086.0,8568.1700000000001,3177.5,-643.41800000000001,-5726.04,-765.25400000000002,-113.289,1980.3599999999999
168087.0,7953.8400000000001,3121.71,-651.24900000000002,-5005.1899999999996,-619.59900000000005,-569.78599999999994,1959.47
168088.0,7977.8800000000001,3469.6500000000001,-531.50400000000002,-4579.3599999999997,-682.90700000000004,-814.71199999999999,1971.95
168089.0,8191.6400000000003,3665.9499999999998,-495.54500000000002,-4606.5699999999997,-757.75900000000001,-928.16999999999996,1955.26
168090.0,7526.7600000000002,3028.8400000000001,-558.97199999999998,-4505.3599999999997,-621.88199999999995,-1108.04,1751.5
168091.0,6446.5299999999997,2002.26,-635.31299999999999,-4099.3100000000004,-372.23399999999998,-1385.0699999999999,1559.3
168092.0,6110.6700000000001,1509.49,-718.06399999999996,-3562.3400000000001,-27.695900000000002,-1835.8099999999999,1616.55
168093.0,6542.3299999999999,1542.3800000000001,-824.89999999999998,-3087.3000000000002,246.892,-2301.1300000000001,1884.6300000000001
168094.0,7585.04,1851.1300000000001,-82.5608,-4372.4300000000003,-1150.1400000000001,2610.8699999999999,944.62099999999998
168095.0,7938.1400000000003,2259.9699999999998,-159.21100000000001,-4864.8500000000004,-1102.48,2319.23,1133.1300000000001
168096.0,8129.6899999999996,2571.1599999999999,-195.09,-5118.0600000000004,-1111.5899999999999,1920.26,1392.47
168097.0,8369.7800000000007,2699.3099999999999,-254.41800000000001,-5474.3800000000001,-1149.6900000000001,1589.2,1540.5999999999999
168098.0,8604.8600000000006,3134.5500000000002,-211.51499999999999,-5729.6300000000001,-1027.96,865.27200000000005,1685.02
168099.0,8704.1800000000003,3431.0599999999999,-402.04399999999998,-5697.2200000000003,-788.74300000000005,-73.337100000000007,1901.9000000000001
168100.0,8476.2000000000007,3637.79,-411.97800000000001,-5116.3000000000002,-694.72199999999998,-607.37400000000002,1975.5599999999999
168101.0,8396.7000000000007,3746.0599999999999,-418.51299999999998,-4828.0500000000002,-784.89099999999996,-840.02200000000005,1948.3199999999999
168102.0,8298.8799999999992,3843.46,-328.14400000000001,-4616.1499999999996,-761.40099999999995,-994.73299999999995,1869.6300000000001
168103.0,7656.2700000000004,3386.23,-344.452,-4203.7399999999998,-563.60699999999997,-1243.9300000000001,1808.6400000000001
168104.0,6830.1099999999997,2613.6199999999999,-412.08999999999997,-3666.6599999999999,-314.10700000000003,-1508.22,1819.8599999999999
168105.0,6512.1599999999999,1977.51,-558.74400000000003,-3370.9899999999998,-27.536300000000001,-1883.3,1852.1800000000001
168106.0,6883.8000000000002,1700.45,-728.10199999999998,-3257.9299999999998,205.49799999999999,-2403.25,1957.1600000000001
168107.0,7393.79,1878.8399999999999,-143.73099999999999,-4209.1499999999996,-1135.51,2564.6199999999999,861.64099999999996
168108.0,7764.2799999999997,2365.0,-201.739,-4676.9399999999996,-1101.76,2242.75,1072.4300000000001
168109.0,8206.5,2629.3899999999999,-321.096,-5193.3900000000003,-1161.95,1943.1900000000001,1310.0
168110.0,8421.5400000000009,2755.7800000000002,-319.05700000000002,-5491.3199999999997,-1198.5999999999999,1667.8900000000001,1432.49
168111.0,8411.2000000000007,3035.02,-348.13600000000002,-5628.3599999999997,-1059.75,965.79100000000005,1569.5599999999999
168112.0,8710.0,3558.75,-502.72199999999998,-5622.6400000000003,-861.48000000000002,-4.3144400000000003,1837.9300000000001
168113.0,8855.0,3907.7399999999998,-547.63999999999999,-5285.8299999999999,-826.95000000000005,-596.774,1989.97
168114.0,8723.7900000000009,4044.3600000000001,-437.48000000000002,-4904.8400000000001,-902.03499999999997,-828.601,1961.0799999999999
168115.0,8384.2999999999993,3970.98,-419.53399999999999,-4570.75,-796.63900000000001,-1054.5999999999999,1854.8
168116.0,7716.1800000000003,3431.0900000000001,-484.87099999999998,-4169.8699999999999,-583.76400000000001,-1372.47,1781.5599999999999
168117.0,7032.5500000000002,2615.9299999999998,-576.03999999999996,-3810.6799999999998,-349.87599999999998,-1677.5899999999999,1795.3800000000001
168118.0,6732.3299999999999,2063.8299999999999,-632.36800000000005,-3511.75,-76.061599999999999,-1999.51,1824.76
168119.0,7080.2399999999998,1842.3,-744.00699999999995,-3340.8099999999999,144.434,-2487.4299999999998,1945.6600000000001
168120.0,7301.6499999999996,2009.0799999999999,-91.538300000000007,-4028.75,-1132.3399999999999,2531.23,828.94200000000001
168121.0,7697.3400000000001,2450.7800000000002,-179.06899999999999,-4572.6099999999997,-1105.1500000000001,2196.9000000000001,1053.9300000000001
168122.0,8277.5100000000002,2808.7399999999998,-235.86000000000001,-5094.5799999999999,-1187.45,1973.01,1283.1300000000001
168123.0,8467.2000000000007,2852.1599999999999,-266.80599999999998,-5420.0,-1224.4100000000001,1723.6700000000001,1405.5699999999999
168124.0,8401.0400000000009,3112.3800000000001,-265.89100000000002,-5503.46,-1066.73,1057.26,1556.8699999999999
168125.0,8901.2199999999993,3720.96,-455.40499999999997,-5663.8699999999999,-907.58799999999997,84.271100000000004,1863.4000000000001
168126.0,9320.9400000000005,4255.7700000000004,-493.76600000000002,-5454.4099999999999,-916.68399999999997,-551.77099999999996,2059.0300000000002
168127.0,9163.1100000000006,4359.4899999999998,-425.42899999999997,-5077.6300000000001,-993.61000000000001,-812.03700000000003,2018.5599999999999
168128.0,8648.7600000000002,4187.5100000000002,-388.20699999999999,-4588.8999999999996,-837.53399999999999,-1132.51,1918.75
168129.0,7918.9899999999998,3601.5100000000002,-445.38799999999998,-4122.6800000000003,-575.16700000000003,-1490.8800000000001,1850.0699999999999
168130.0,7295.2799999999997,2816.8699999999999,-521.21199999999999,-3780.1599999999999,-349.452,-1807.1099999999999,1863.3
168131.0,6992.79,2246.9099999999999,-629.25800000000004,-3541.3800000000001,-86.590000000000003,-2095.6999999999998,1877.25
168132.0,7319.2200000000003,2041.2,-740.54399999999998,-3359.4200000000001,114.82599999999999,-2568.1300000000001,1988.6300000000001
168133.0,7238.9399999999996,2055.5700000000002,-126.559,-3971.3200000000002,-1127.5799999999999,2503.0799999999999,786.99800000000005
168134.0,7643.8299999999999,2521.5700000000002,-175.727,-4491.8999999999996,-1119.3099999999999,2164.5100000000002,1011.1900000000001
168135.0,8257.1499999999996,2810.1999999999998,-281.62200000000001,-5089.8999999999996,-1199.6500000000001,1977.0799999999999,1237.1099999999999
168136.0,8436.2000000000007,2866.0999999999999,-274.63400000000001,-5387.6599999999999,-1220.95,1741.04,1358.6400000000001
168137.0,8407.5699999999997,3097.3000000000002,-325.54899999999998,-5540.3400000000001,-1066.8900000000001,1110.04,1507.3699999999999
168138.0,9046.8400000000001,3852.5500000000002,-432.95800000000003,-5731.79,-950.25099999999998,146.23400000000001,1818.49
168139.0,9708.3700000000008,4486.2399999999998,-528.70299999999997,-5694.2700000000004,-990.46400000000006,-528.04600000000005,2060.3400000000001
168140.0,9614.4099999999999,4703.9200000000001,-405.25999999999999,-5251.0200000000004,-1080.48,-814.23099999999999,2049.6100000000001
168141.0,8986.9400000000005,4371.8400000000001,-419.41399999999999,-4747.04,-908.601,-1202.26,1960.7
168142.0,8142.9899999999998,3695.8000000000002,-485.72199999999998,-4207.1700000000001,-597.74400000000003,-1605.6600000000001,1880.28
168143.0,7513.7799999999997,2883.7600000000002,-581.55100000000004,-3868.4099999999999,-365.51999999999998,-1926.29,1890.54
168144.0,7242.4499999999998,2368.04,-673.47500000000002,-3612.02,-96.150800000000004,-2208.4699999999998,1912.23
168145.0,7604.1800000000003,2199.8299999999999,-770.33900000000006,-3432.0,97.073700000000002,-2679.75,2036.3499999999999
168146.0,7208.9099999999999,2174.7399999999998,-91.641800000000003,-3866.1799999999998,-1130.0,2480.71,761.09100000000001
168147.0,7637.0299999999997,2568.8299999999999,-176.61500000000001,-4446.54,-1143.0599999999999,2161.7600000000002,981.89099999999996
168148.0,8205.3500000000004,2851.0,-231.59899999999999,-5015.3199999999997,-1196.8800000000001,1970.7,1189.74
168149.0,8379.2000000000007,2891.3299999999999,-256.54300000000001,-5341.7399999999998,-1194.8499999999999,1727.4000000000001,1316.5999999999999
168150.0,8462.2199999999993,3192.6900000000001,-312.30000000000001,-5522.8500000000004,-1064.6099999999999,1131.4100000000001,1491.1900000000001
168151.0,9196.8700000000008,3963.21,-444.22699999999998,-5802.3999999999996,-987.24000000000001,196.92400000000001,1806.5599999999999
168152.0,10057.200000000001,4745.0299999999997,-516.95100000000002,-5841.2799999999997,-1055.8699999999999,-508.77199999999999,2079.5
168153.0,10079.1,5002.8599999999997,-436.69900000000001,-5468.2600000000002,-1157.79,-821.89300000000003,2102.7800000000002
168154.0,9396.3500000000004,4641.9200000000001,-413.63200000000001,-4905.1899999999996,-980.399,-1255.5599999999999,2019.78
168155.0,8446.1900000000005,3870.9099999999999,-483.39800000000002,-4297.8599999999997,-638.54399999999998,-1706.47,1937.3
168156.0,7758.1300000000001,3032.5999999999999,-562.21000000000004,-3908.6300000000001,-383.86700000000002,-2031.3499999999999,1933.6099999999999
168157.0,7524.6899999999996,2499.8699999999999,-699.42899999999997,-3678.2399999999998,-99.602099999999993,-2336.1700000000001,1964.6199999999999
168158.0,7951.0600000000004,2384.0300000000002,-795.16399999999999,-3503.8800000000001,92.540700000000001,-2820.7600000000002,2102.9899999999998
168159.0,7218.96,2224.4099999999999,-112.22499999999999,-3854.52,-1142.6300000000001,2475.5700000000002,730.78599999999994
168160.0,7640.9899999999998,2605.9699999999998,-171.88999999999999,-4415.7600000000002,-1160.9400000000001,2174.9899999999998,937.00400000000002
168161.0,8116.2799999999997,2848.1700000000001,-234.964,-4959.4499999999998,-1189.28,1947.46,1134.3699999999999
168162.0,8294.8600000000006,2907.8200000000002,-272.69900000000001,-5295.1800000000003,-1167.26,1685.6400000000001,1275.1500000000001
168163.0,8531.5699999999997,3252.77,-345.70100000000002,-5569.3800000000001,-1064.05,1122.9300000000001,1480.46
168164.0,9362.1599999999999,4075.4400000000001,-450.82600000000002,-5882.4700000000003,-1018.09,229.03399999999999,1808.1600000000001
168165.0,10367.6,4936.3299999999999,-525.06600000000003,-6001.4300000000003,-1110.8800000000001,-494.52600000000001,2107.4899999999998
168166.0,10552.299999999999,5287.7299999999996,-466.51100000000002,-5701.6199999999999,-1218.01,-838.23400000000004,2171.77
168167.0,9845.7299999999996,4912.1000000000004,-439.863,-5112.75,-1041.1400000000001,-1312.04,2084.3699999999999
168168.0,8808.1700000000001,4054.1100000000001,-518.505,-4456.4499999999998,-695.29100000000005,-1801.52,1997.8399999999999
168169.0,8037.0299999999997,3167.9899999999998,-596.14300000000003,-4012.1399999999999,-412.87599999999998,-2131.8299999999999,1979.25
168170.0,7839.7700000000004,2630.52,-731.62800000000004,-3766.9299999999998,-110.833,-2477.4499999999998,2023.99
168171.0,8377.3299999999999,2551.4299999999998,-851.98000000000002,-3629.1700000000001,100.399,-3004.75,2184.4899999999998
168172.0,7254.54,2331.1199999999999,-84.069400000000002,-3793.5999999999999,-1164.0999999999999,2489.8899999999999,685.87400000000002
168173.0,7634.7200000000003,2651.3800000000001,-161.24299999999999,-4364.0600000000004,-1175.73,2192.73,879.80499999999995
168174.0,8039.8100000000004,2880.3899999999999,-216.756,-4883.5799999999999,-1185.6400000000001,1919.71,1086.3
168175.0,8229.4500000000007,2951.3400000000001,-278.42099999999999,-5245.29,-1144.1099999999999,1630.53,1248.76
168176.0,8600.9799999999996,3348.0100000000002,-337.36700000000002,-5587.9499999999998,-1063.5,1100.28,1466.4000000000001
168177.0,9536.3500000000004,4162.6099999999997,-472.56900000000002,-6003.1099999999997,-1047.5699999999999,246.72399999999999,1803.72
168178.0,10643.799999999999,5098.71,-507.80599999999998,-6152.5200000000004,-1156.52,-487.072,2131.02
168179.0,11023.200000000001,5514.8800000000001,-520.27499999999998,-5993.71,-1256.1800000000001,-872.13900000000001,2242.0700000000002
168180.0,10327.799999999999,5203.3699999999999,-455.49599999999998,-5322.0600000000004,-1085.8499999999999,-1390.6800000000001,2166.3299999999999
168181.0,9224.8299999999999,4279.2299999999996,-544.73099999999999,-4633.2399999999998,-749.38199999999995,-1895.3599999999999,2075.7600000000002
168182.0,8394.5400000000009,3374.3400000000001,-603.75900000000001,-4125.0900000000001,-442.74599999999998,-2243.6500000000001,2044.9200000000001
168183.0,8211.6000000000004,2791.5999999999999,-758.27800000000002,-3879.4699999999998,-130.21299999999999,-2631.7199999999998,2095.9000000000001
168184.0,8883.7099999999991,2757.73,-900.02300000000002,-3752.54,109.994,-3232.1399999999999,2279.9099999999999
168185.0,7314.5200000000004,2387.5799999999999,-119.057,-3783.1300000000001,-1192.76,2521.52,649.83500000000004
168186.0,7631.2600000000002,2702.4899999999998,-159.328,-4299.1899999999996,-1192.8699999999999,2214.8200000000002,831.69600000000003
168187.0,7988.9399999999996,2909.98,-225.197,-4832.4499999999998,-1189.95,1898.3099999999999,1043.0699999999999
168188.0,8197.2199999999993,3006.0599999999999,-296.053,-5220.2600000000002,-1132.6800000000001,1568.5,1231.9300000000001
168189.0,8651.3500000000004,3406.4499999999998,-364.70400000000001,-5620.8000000000002,-1063.5799999999999,1072.9300000000001,1452.45
168190.0,9699.8199999999997,4270.9300000000003,-472.86700000000002,-6085.9499999999998,-1080.95,263.48200000000003,1801.4100000000001
168191.0,10906.0,5221.1300000000001,-515.28999999999996,-6323.9399999999996,-1197.6700000000001,-481.91800000000001,2158.0999999999999
168192.0,11465.299999999999,5741.5799999999999,-536.53599999999994,-6260.5699999999997,-1277.25,-927.50800000000004,2299.4000000000001
168193.0,10831.700000000001,5455.4300000000003,-492.11500000000001,-5582.7200000000003,-1117.8099999999999,-1501.6400000000001,2254.52
168194.0,9684.6900000000005,4512.4099999999999,-578.42200000000003,-4850.9799999999996,-790.95799999999997,-2003.21,2156.8299999999999
168195.0,8821.3199999999997,3589.4299999999998,-641.15300000000002,-4291.7700000000004,-474.89400000000001,-2381.98,2117.2600000000002
168196.0,8657.3299999999999,2998.8299999999999,-796.10299999999995,-4017.9899999999998,-158.33699999999999,-2802.4400000000001,2183.5900000000001
168197.0,9481.5499999999993,2977.71,-976.303,-3912.0100000000002,114.384,-3496.21,2403.4499999999998
168198.0,7396.5600000000004,2488.54,-110.15900000000001,-3747.4000000000001,-1218.22,2561.0599999999999,617.81299999999999
168199.0,7650.4499999999998,2761.5599999999999,-158.83099999999999,-4249.7700000000004,-1209.9300000000001,2238.4200000000001,794.65800000000002
168200.0,7979.6999999999998,2962.8800000000001,-231.22499999999999,-4794.3800000000001,-1198.0899999999999,1890.22,1008.41
168201.0,8216.9500000000007,3086.6399999999999,-303.58600000000001,-5216.3900000000003,-1137.4000000000001,1511.25,1224.8599999999999
168202.0,8696.5400000000009,3469.71,-376.20299999999997,-5639.9899999999998,-1060.6300000000001,1046.0,1441.0699999999999
168203.0,9852.8500000000004,4361.5100000000002,-465.80799999999999,-6184.25,-1105.76,282.529,1785.4000000000001
168204.0,11189.299999999999,5354.8400000000001,-511.26900000000001,-6524.0200000000004,-1230.99,-491.31299999999999,2167.5100000000002
168205.0,11851.1,5947.5500000000002,-531.28499999999997,-6495.9799999999996,-1290.3199999999999,-1009.99,2323.5300000000002
168206.0,11323.299999999999,5695.1800000000003,-517.64499999999998,-5839.8000000000002,-1144.8099999999999,-1642.1700000000001,2324.2199999999998
168207.0,10178.6,4778.8800000000001,-604.07299999999998,-5062.5200000000004,-823.36300000000006,-2138.8000000000002,2235.5300000000002
168208.0,9304.1399999999994,3839.0500000000002,-675.06200000000001,-4458.2200000000003,-510.21899999999999,-2543.4299999999998,2206.9400000000001
168209.0,9210.4099999999999,3260.5300000000002,-847.92600000000004,-4201.7399999999998,-184.797,-2994.54,2303.6900000000001
168210.0,10194.6,3248.98,-1041.9200000000001,-4105.4399999999996,109.14400000000001,-3796.1799999999998,2563.8000000000002
168211.0,7488.8400000000001,2558.02,-138.459,-3761.2800000000002,-1241.3199999999999,2598.71,587.55100000000004
168212.0,7695.9700000000003,2824.2800000000002,-166.982,-4230.1300000000001,-1228.51,2260.1599999999999,766.89599999999996
168213.0,8009.9700000000003,3026.2600000000002,-247.99700000000001,-4784.1599999999999,-1207.6900000000001,1892.1199999999999,982.09400000000005
168214.0,8287.3899999999994,3177.6300000000001,-312.80099999999999,-5246.2700000000004,-1156.0999999999999,1467.6199999999999,1220.27
168215.0,8742.6299999999992,3520.6599999999999,-412.42200000000003,-5679.5799999999999,-1053.9300000000001,1011.0700000000001,1426.6700000000001
168216.0,9957.6900000000005,4492.6499999999996,-433.63099999999997,-6213.04,-1118.8599999999999,287.12299999999999,1733.2
168217.0,11448.799999999999,5525.1499999999996,-510.572,-6683.0600000000004,-1271.1099999999999,-525.94399999999996,2130.1799999999998
168218.0,12155.5,6166.8699999999999,-501.92399999999998,-6624.1199999999999,-1316.6800000000001,-1108.27,2315.8699999999999
168219.0,11775.299999999999,5912.3199999999997,-559.58699999999999,-6070.2399999999998,-1175.49,-1788.6500000000001,2380.2800000000002
168220.0,10715.9,5065.5799999999999,-642.95000000000005,-5272.9399999999996,-852.08399999999995,-2301.9499999999998,2331.0599999999999
168221.0,9845.1000000000004,4087.8400000000001,-727.18100000000004,-4668.4700000000003,-545.38599999999997,-2721.1799999999998,2318.3099999999999
168222.0,9880.5,3570.3099999999999,-897.23000000000002,-4451.79,-205.40000000000001,-3225.0799999999999,2437.2399999999998
168223.0,11024.5,3563.6300000000001,-1092.3699999999999,-4366.9200000000001,83.541899999999998,-4138.75,2737.6799999999998
168224.0,7588.2200000000003,2672.9000000000001,-130.142,-3747.2800000000002,-1263.8399999999999,2632.4000000000001,554.03599999999994
168225.0,7768.96,2897.46,-177.494,-4237.8500000000004,-1248.9000000000001,2280.5900000000001,740.91099999999994
168226.0,8075.54,3106.9699999999998,-263.13900000000001,-4796.1099999999997,-1218.78,1897.78,961.149
168227.0,8395.2900000000009,3286.25,-316.666,-5294.8900000000003,-1179.1400000000001,1440.04,1209.52
168228.0,8824.5799999999999,3619.7800000000002,-442.70999999999998,-5712.4700000000003,-1054.3599999999999,959.16099999999994,1425.4400000000001
168229.0,10028.0,4621.3500000000004,-452.096,-6194.6499999999996,-1131.05,269.17899999999997,1698.3800000000001
168230.0,11647.6,5716.75,-523.61500000000001,-6732.5900000000001,-1324.8299999999999,-558.63999999999999,2099.6100000000001
168231.0,12414.700000000001,6361.04,-516.67700000000002,-6702.9799999999996,-1358.9400000000001,-1186.8299999999999,2326.4499999999998
168232.0,12201.4,6138.79,-589.06500000000005,-6264.0900000000001,-1207.45,-1919.1800000000001,2435.8000000000002
168233.0,11302.1,5356.6199999999999,-680.17499999999995,-5515.1599999999999,-877.04899999999998,-2494.6900000000001,2432.48
168234.0,10455.0,4377.6899999999996,-761.44500000000005,-4901.1700000000001,-577.20799999999997,-2925.8099999999999,2436.04
168235.0,10632.9,3926.6900000000001,-952.94799999999998,-4724.3699999999999,-229.053,-3498.8600000000001,2565.0100000000002
168236.0,11917.299999999999,3956.0999999999999,-1117.78,-4635.6599999999999,23.9192,-4505.5100000000002,2895.4899999999998
168237.0,7696.96,2765.0599999999999,-160.25999999999999,-3767.9499999999998,-1290.02,2664.3600000000001,525.28800000000001
168238.0,7867.1400000000003,2993.3800000000001,-187.55500000000001,-4253.5299999999997,-1273.52,2302.0799999999999,717.28200000000004
168239.0,8168.4799999999996,3196.52,-285.25900000000001,-4831.3199999999997,-1234.9300000000001,1902.28,944.30200000000002
168240.0,8521.7700000000004,3415.1999999999998,-325.08199999999999,-5344.5600000000004,-1199.52,1423.1099999999999,1192.9300000000001
168241.0,8983.4799999999996,3752.5999999999999,-480.29500000000002,-5788.7700000000004,-1077.53,900.69600000000003,1439.71
168242.0,10130.0,4742.0100000000002,-476.947,-6188.8599999999997,-1152.75,237.34299999999999,1711.5799999999999
168243.0,11793.9,5839.6199999999999,-548.572,-6765.1800000000003,-1368.46,-568.23800000000006,2108.73
168244.0,12700.5,6537.4200000000001,-557.24099999999999,-6820.2399999999998,-1386.75,-1242.3399999999999,2374.0799999999999
168245.0,12626.0,6372.9399999999996,-619.57600000000002,-6452.0200000000004,-1230.3699999999999,-2045.6500000000001,2491.5599999999999
168246.0,11896.200000000001,5654.7600000000002,-717.84400000000005,-5749.5699999999997,-902.04399999999998,-2711.4000000000001,2518.54
168247.0,11147.0,4713.46,-811.72799999999995,-5153.9300000000003,-611.08900000000006,-3166.9899999999998,2560.77
168248.0,11464.5,4328.6300000000001,-1023.95,-4984.7299999999996,-259.83600000000001,-3808.6900000000001,2718.8400000000001
168249.0,12823.4,4390.9099999999999,-1171.3699999999999,-4892.04,-49.928199999999997,-4859.8599999999997,3060.52
168250.0,7824.6899999999996,2895.6799999999998,-163.77099999999999,-3773.6799999999998,-1318.8900000000001,2697.0799999999999,499.54700000000003
168251.0,7994.4200000000001,3105.8699999999999,-202.92500000000001,-4286.1999999999998,-1301.05,2326.6700000000001,697.70799999999997
168252.0,8289.25,3304.6300000000001,-305.10000000000002,-4881.4399999999996,-1256.77,1904.97,929.89300000000003
168253.0,8664.8199999999997,3561.98,-342.55099999999999,-5394.9700000000003,-1217.8599999999999,1408.9100000000001,1179.6500000000001
168254.0,9211.5,3940.6199999999999,-486.48500000000001,-5878.9899999999998,-1123.04,860.221,1448.75
168255.0,10289.0,4832.0699999999997,-496.13600000000002,-6271.7200000000003,-1189.78,209.126,1728.6900000000001
168256.0,11907.5,5898.5200000000004,-535.84299999999996,-6831.8100000000004,-1384.52,-571.45600000000002,2121.8400000000001
168257.0,13030.299999999999,6691.1000000000004,-607.35500000000002,-7024.0500000000002,-1376.6800000000001,-1319.3499999999999,2422.5799999999999
168258.0,13072.299999999999,6625.8900000000003,-640.31600000000003,-6626.6400000000003,-1241.8,-2201.54,2555.2199999999998
168259.0,12486.700000000001,5946.0100000000002,-773.88999999999999,-5965.0900000000001,-922.10000000000002,-2936.0999999999999,2615.0300000000002
168260.0,11945.200000000001,5123.2799999999997,-866.55700000000002,-5416.1700000000001,-646.09400000000005,-3444.0999999999999,2709.4200000000001
168261.0,12400.1,4753.4300000000003,-1100.2,-5290.0699999999997,-306.62900000000002,-4153.2200000000003,2909.02
168262.0,13730.9,4809.4499999999998,-1221.99,-5166.6800000000003,-112.902,-5201.46,3245.6900000000001
168263.0,7972.6199999999999,3019.6999999999998,-189.642,-3809.96,-1351.6800000000001,2731.23,475.13600000000002
168264.0,8149.9399999999996,3239.25,-221.339,-4334.0299999999997,-1331.0699999999999,2352.0100000000002,680.23800000000006
168265.0,8434.7099999999991,3439.1599999999999,-321.78800000000001,-4937.2799999999997,-1282.79,1905.49,914.50900000000001
168266.0,8831.7900000000009,3725.6300000000001,-364.24200000000002,-5453.6300000000001,-1241.3699999999999,1392.22,1171.7
168267.0,9455.3500000000004,4137.0699999999997,-498.25900000000001,-5978.4099999999999,-1173.8099999999999,843.81600000000003,1439.1300000000001
168268.0,10473.6,4964.46,-483.22699999999998,-6361.0100000000002,-1238.55,195.76400000000001,1706.25
168269.0,12017.5,5947.1800000000003,-515.65499999999997,-6934.5,-1391.5799999999999,-597.41999999999996,2088.5300000000002
168270.0,13342.200000000001,6848.3699999999999,-627.26199999999994,-7215.3599999999997,-1348.3499999999999,-1456.5699999999999,2425.98
168271.0,13527.4,6868.6800000000003,-657.625,-6799.9300000000003,-1248.6199999999999,-2396.6599999999999,2612.71
168272.0,13097.200000000001,6236.1199999999999,-822.19100000000003,-6194.1499999999996,-937.08799999999997,-3168.77,2719.4099999999999
168273.0,12846.9,5571.0299999999997,-934.41999999999996,-5724.1899999999996,-679.86099999999999,-3756.9200000000001,2880.4499999999998
168274.0,13426.700000000001,5225.96,-1161.1199999999999,-5641.04,-374.988,-4519.8299999999999,3113.9499999999998
168275.0,14603.0,5178.2399999999998,-1247.03,-5468.3800000000001,-180.53,-5537.4799999999996,3412.27
168276.0,8142.2200000000003,3180.6399999999999,-197.39400000000001,-3835.8099999999999,-1388.21,2767.0900000000001,448.786
168277.0,8331.4500000000007,3397.29,-240.21199999999999,-4392.25,-1364.1600000000001,2376.29,662.30999999999995
168278.0,8604.3500000000004,3600.7399999999998,-341.92399999999998,-4998.1700000000001,-1312.27,1903.01,898.35299999999995
168279.0,9025.8400000000001,3910.48,-380.88600000000002,-5519.2200000000003,-1274.98,1373.5,1163.46
168280.0,9678.3799999999992,4346.0600000000004,-508.04300000000001,-6046.4399999999996,-1215.73,833.21400000000006,1418.24
168281.0,10666.299999999999,5156.46,-484.95800000000003,-6407.9899999999998,-1290.3099999999999,186.786,1668.21
168282.0,12164.200000000001,6098.6199999999999,-508.45299999999997,-6977.0600000000004,-1421.98,-643.31799999999998,2035.1099999999999
168283.0,13574.1,7016.3000000000002,-621.553,-7286.8699999999999,-1343.3299999999999,-1629.78,2394.6500000000001
168284.0,13941.299999999999,7091.8500000000004,-676.97799999999995,-6938.0,-1254.1700000000001,-2610.6799999999998,2645.5500000000002
168285.0,13736.6,6566.4399999999996,-850.43200000000002,-6418.0200000000004,-959.529,-3411.9400000000001,2810.9699999999998
168286.0,13824.1,6051.3599999999997,-983.93499999999995,-6072.9499999999998,-723.86300000000006,-4096.6099999999997,3054.5900000000001
168287.0,14516.0,5731.3999999999996,-1209.24,-6034.0600000000004,-452.267,-4905.3900000000003,3315.3000000000002
168288.0,15416.700000000001,5542.3100000000004,-1245.46,-5733.5799999999999,-264.17099999999999,-5856.8599999999997,3553.1999999999998
168289.0,8336.75,3352.8400000000001,-218.685,-3875.5599999999999,-1431.1199999999999,2806.4099999999999,424.36200000000002
168290.0,8535.3600000000006,3575.8200000000002,-266.38099999999997,-4461.3100000000004,-1400.46,2397.8099999999999,643.51499999999999
168291.0,8801.4300000000003,3805.2800000000002,-354.35199999999998,-5050.3699999999999,-1347.52,1896.5899999999999,882.75400000000002
168292.0,9239.5100000000002,4109.8100000000004,-400.98599999999999,-5592.2399999999998,-1316.4000000000001,1353.8199999999999,1148.6500000000001
168293.0,9883.2199999999993,4564.1599999999999,-525.06100000000004,-6092.2299999999996,-1248.23,806.23500000000001,1393.75
168294.0,10899.799999999999,5409.1300000000001,-494.99099999999999,-6431.8900000000003,-1342.5699999999999,165.59100000000001,1649.02
168295.0,12394.200000000001,6336.9899999999998,-528.303,-7005.6999999999998,-1473.02,-694.48699999999997,2008.54
168296.0,13744.4,7188.6300000000001,-608.39499999999998,-7259.2600000000002,-1370.47,-1793.8,2361.8800000000001
168297.0,14291.700000000001,7298.3800000000001,-702.59299999999996,-7018.0600000000004,-1262.95,-2816.27,2661.0700000000002
168298.0,14409.9,6951.1999999999998,-876.31100000000004,-6625.1499999999996,-988.625,-3662.6900000000001,2895.3200000000002
168299.0,14839.0,6577.4700000000003,-1011.26,-6441.5500000000002,-791.46100000000001,-4449.5100000000002,3195.6199999999999
168300.0,15597.6,6262.5600000000004,-1213.72,-6403.5600000000004,-550.19500000000005,-5308.8299999999999,3473.52
168301.0,16188.1,5904.8100000000004,-1243.1600000000001,-5973.0299999999997,-361.47300000000001,-6158.2399999999998,3679.5799999999999
168302.0,8564.7800000000007,3565.9499999999998,-226.18199999999999,-3908.8200000000002,-1478.5899999999999,2852.1700000000001,402.089
168303.0,8760.7299999999996,3784.4499999999998,-293.30599999999998,-4531.3800000000001,-1440.52,2414.5900000000001,622.66499999999996
168304.0,9029.0699999999997,4041.9099999999999,-368.65800000000002,-5104.5600000000004,-1392.02,1886.52,868.75300000000004
168305.0,9464.3700000000008,4332.0299999999997,-426.24599999999998,-5657.4099999999999,-1360.1700000000001,1330.3699999999999,1127.97
168306.0,10095.9,4824.04,-533.92200000000003,-6107.2700000000004,-1281.75,754.95399999999995,1373.0999999999999
168307.0,11189.200000000001,5700.7399999999998,-514.78099999999995,-6478.1800000000003,-1398.6099999999999,124.64400000000001,1635.3099999999999
168308.0,12674.6,6627.7799999999997,-535.35000000000002,-7033.3199999999997,-1532.5,-760.68899999999996,1981.99
168309.0,13893.0,7365.1899999999996,-599.32299999999998,-7191.1499999999996,-1418.1300000000001,-1931.8599999999999,2338.0300000000002
168310.0,14608.1,7515.1800000000003,-724.94299999999998,-7054.96,-1279.24,-2995.0599999999999,2673.71
168311.0,15121.9,7376.6599999999999,-916.23599999999999,-6820.3500000000004,-1020.12,-3932.8499999999999,2975.23
168312.0,15843.4,7170.5100000000002,-1039.8800000000001,-6740.5,-884.49000000000001,-4800.7200000000003,3307.2199999999998
168313.0,16585.200000000001,6810.8000000000002,-1211.04,-6678.6400000000003,-683.16600000000005,-5679.3599999999997,3596.1500000000001
168314.0,16943.400000000001,6303.9399999999996,-1236.99,-6192.6300000000001,-473.21699999999998,-6439.5100000000002,3795.2399999999998
168315.0,8830.8400000000001,3790.9200000000001,-255.61699999999999,-3974.8200000000002,-1529.0599999999999,2902.6700000000001,381.45800000000003
168316.0,9008.4699999999993,4036.96,-309.82799999999997,-4586.6999999999998,-1487.74,2425.9699999999998,599.91300000000001
168317.0,9288.7800000000007,4301.2600000000002,-387.22500000000002,-5167.6099999999997,-1446.96,1876.0899999999999,855.27700000000004
168318.0,9706.0799999999999,4593.6800000000003,-447.85300000000001,-5704.2200000000003,-1403.0699999999999,1299.1900000000001,1109.3299999999999
168319.0,10353.9,5117.6099999999997,-556.56299999999999,-6130.7299999999996,-1329.24,685.577,1365.73
168320.0,11520.1,6030.1800000000003,-541.50400000000002,-6523.9099999999999,-1465.29,68.387200000000007,1629.7
168321.0,12935.700000000001,6922.3699999999999,-533.36000000000001,-7024.54,-1600.45,-829.84799999999996,1954.6199999999999
168322.0,14057.6,7541.9499999999998,-601.14599999999996,-7144.2299999999996,-1473.96,-2036.02,2328.1300000000001
168323.0,14955.4,7771.4099999999999,-748.52800000000002,-7092.7200000000003,-1301.46,-3155.5999999999999,2696.8800000000001
168324.0,15884.1,7836.4300000000003,-969.12,-6998.6499999999996,-1069.1900000000001,-4220.2399999999998,3079.9699999999998
168325.0,16818.599999999999,7762.5699999999997,-1097.45,-6988.7299999999996,-986.09500000000003,-5122.3900000000003,3455.7600000000002
168326.0,17487.599999999999,7361.5,-1224.54,-6903.4200000000001,-813.56500000000005,-5979.5900000000001,3734.3699999999999
168327.0,17720.200000000001,6744.3400000000001,-1252.1300000000001,-6424.1599999999999,-585.45299999999997,-6712.29,3905.6700000000001
168328.0,9131.5400000000009,4073.2199999999998,-266.52199999999999,-4031.9499999999998,-1583.28,2951.5599999999999,354.39800000000002
168329.0,9281.6599999999999,4316.1400000000003,-329.75099999999998,-4639.3400000000001,-1546.3900000000001,2435.9499999999998,575.87
168330.0,9577.8999999999996,4589.7600000000002,-402.68599999999998,-5231.0500000000002,-1507.8299999999999,1868.49,836.38900000000001
168331.0,9977.3600000000006,4892.3400000000001,-473.404,-5752.2200000000003,-1446.3099999999999,1256.45,1088.47
168332.0,10686.700000000001,5471.21,-559.572,-6164.3599999999997,-1398.97,614.30999999999995,1368.22
168333.0,11879.1,6356.0600000000004,-570.20799999999997,-6593.8100000000004,-1541.0999999999999,6.9075100000000003,1634.1199999999999
168334.0,13150.9,7185.3699999999999,-521.92700000000002,-6995.71,-1660.6300000000001,-891.52800000000002,1921.8399999999999
168335.0,14259.700000000001,7738.1199999999999,-608.38400000000001,-7140.5699999999997,-1529.8,-2119.3099999999999,2308.71
168336.0,15391.6,8090.4099999999999,-769.54100000000005,-7164.29,-1342.03,-3314.8600000000001,2737.6700000000001
168337.0,16693.599999999999,8293.7600000000002,-1012.11,-7232.7600000000002,-1149.6800000000001,-4491.1400000000003,3215.3499999999999
168338.0,17765.599999999999,8284.2099999999991,-1137.3399999999999,-7299.3500000000004,-1075.3199999999999,-5412.9799999999996,3626.5700000000002
168339.0,18366.0,7875.4099999999999,-1244.04,-7174.1400000000003,-906.93600000000004,-6253.8000000000002,3877.4099999999999
168340.0,18528.799999999999,7223.0100000000002,-1268.02,-6639.21,-680.60699999999997,-7000.9399999999996,4013.79
168341.0,9456.6299999999992,4382.8999999999996,-288.40199999999999,-4089.7600000000002,-1649.04,2996.0100000000002,322.95600000000002
168342.0,9590.1200000000008,4627.6400000000003,-344.745,-4683.21,-1617.5699999999999,2455.52,551.524
168343.0,9893.4400000000005,4911.2799999999997,-422.77800000000002,-5291.3100000000004,-1571.5599999999999,1859.1099999999999,812.02700000000004
168344.0,10286.9,5254.9099999999999,-490.30399999999997,-5775.9399999999996,-1499.8299999999999,1203.3699999999999,1067.0
168345.0,11075.799999999999,5851.25,-568.70799999999997,-6227.79,-1490.1099999999999,554.66899999999998,1355.97
168346.0,12224.5,6679.4499999999998,-574.245,-6655.54,-1622.8099999999999,-58.9251,1614.1400000000001
168347.0,13316.9,7425.1099999999997,-511.38900000000001,-6935.1999999999998,-1712.3199999999999,-953.00999999999999,1878.1199999999999
168348.0,14500.0,7990.3800000000001,-616.37800000000004,-7129.4099999999999,-1593.25,-2185.1100000000001,2291.9200000000001
168349.0,15930.700000000001,8466.3899999999994,-793.63699999999994,-7302.5200000000004,-1412.96,-3461.2600000000002,2797.0799999999999
168350.0,17500.099999999999,8754.4400000000005,-1009.8099999999999,-7524.5,-1254.7,-4720.3699999999999,3331.3600000000001
168351.0,18660.700000000001,8753.8799999999992,-1148.21,-7652.3699999999999,-1155.45,-5693.0500000000002,3751.6599999999999
168352.0,19242.599999999999,8371.5300000000007,-1245.4400000000001,-7451.7299999999996,-981.58500000000004,-6551.3100000000004,3997.4099999999999
168353.0,19343.5,7673.75,-1295.25,-6841.4200000000001,-753.44299999999998,-7317.1000000000004,4119.0699999999997
168354.0,9808.4400000000005,4729.8800000000001,-296.29899999999998,-4126.0500000000002,-1729.76,3043.8699999999999,291.70100000000002
168355.0,9945.6299999999992,4967.3100000000004,-366.49700000000001,-4735.6300000000001,-1695.0999999999999,2491.96,523.72699999999998
168356.0,10243.4,5283.2399999999998,-435.59199999999998,-5337.9799999999996,-1643.1500000000001,1844.3499999999999,784.79700000000003
168357.0,10650.299999999999,5654.3599999999997,-516.90300000000002,-5805.96,-1572.5799999999999,1149.77,1055.8099999999999
168358.0,11481.1,6269.8800000000001,-564.47400000000005,-6257.0900000000001,-1597.4000000000001,514.33000000000004,1335.1600000000001
168359.0,12520.5,6994.4200000000001,-572.97500000000002,-6662.9899999999998,-1714.99,-117.322,1576.8900000000001
168360.0,13468.700000000001,7654.2600000000002,-513.62599999999998,-6861.1800000000003,-1767.8499999999999,-1001.9299999999999,1840.9200000000001
168361.0,14810.200000000001,8282.7399999999998,-630.88900000000001,-7164.1700000000001,-1661.0599999999999,-2230.6500000000001,2292.5300000000002
168362.0,16552.799999999999,8898.6100000000006,-802.31600000000003,-7502.0,-1502.05,-3597.1599999999999,2853.0599999999999
168363.0,18267.599999999999,9221.0100000000002,-997.72400000000005,-7821.6499999999996,-1371.0,-4917.0200000000004,3406.6100000000001
168364.0,19510.0,9232.0900000000001,-1150.4400000000001,-7961.54,-1239.4100000000001,-5967.3500000000004,3842.7600000000002
168365.0,20120.900000000001,8853.4200000000001,-1254.8299999999999,-7713.2799999999997,-1058.22,-6874.9200000000001,4103.8999999999996
168366.0,20146.700000000001,8099.0600000000004,-1306.8800000000001,-7003.6700000000001,-812.44899999999996,-7660.8599999999997,4216.4700000000003
168367.0,10203.0,5085.5200000000004,-319.07299999999998,-4178.6999999999998,-1824.4100000000001,3106.5900000000001,255.99799999999999
168368.0,10347.799999999999,5366.0299999999997,-377.17099999999999,-4775.8400000000001,-1775.05,2537.25,488.93599999999998
168369.0,10634.6,5701.3699999999999,-448.31099999999998,-5376.2200000000003,-1728.1700000000001,1829.52,749.51400000000001
168370.0,11067.9,6094.3000000000002,-527.72900000000004,-5839.2700000000004,-1667.4000000000001,1104.24,1042.73
168371.0,11871.200000000001,6669.0200000000004,-568.005,-6281.9799999999996,-1705.99,492.029,1302.8199999999999
168372.0,12774.5,7300.5100000000002,-557.88099999999997,-6628.8800000000001,-1805.29,-156.221,1529.49
168373.0,13670.0,7922.3999999999996,-514.12800000000004,-6805.71,-1824.3900000000001,-1038.98,1808.01
168374.0,15208.9,8655.3700000000008,-624.03300000000002,-7233.2799999999997,-1733.1199999999999,-2283.52,2275.6799999999998
168375.0,17200.200000000001,9364.5100000000002,-796.57500000000005,-7707.8900000000003,-1609.23,-3739.1599999999999,2880.6700000000001
168376.0,19007.5,9721.7900000000009,-979.83299999999997,-8071.9300000000003,-1492.23,-5093.6000000000004,3466.6100000000001
168377.0,20350.599999999999,9729.2000000000007,-1158.4400000000001,-8240.8299999999999,-1332.1800000000001,-6237.71,3927.77
168378.0,21000.400000000001,9346.75,-1256.8399999999999,-7933.9899999999998,-1135.6700000000001,-7219.2299999999996,4202.0900000000001
168379.0,20949.0,8503.5,-1321.5899999999999,-7133.3500000000004,-867.29200000000003,-8031.54,4308.0100000000002
168380.0,10658.700000000001,5503.7600000000002,-323.31599999999997,-4212.04,-1931.8199999999999,3191.0900000000001,205.84800000000001
168381.0,10790.200000000001,5811.3999999999996,-393.33199999999999,-4811.8100000000004,-1863.8800000000001,2580.2600000000002,445.78100000000001
168382.0,11064.6,6174.9700000000003,-453.50299999999999,-5384.3400000000001,-1828.04,1822.52,707.36500000000001
168383.0,11521.9,6558.0699999999997,-532.28499999999997,-5871.6599999999999,-1784.9200000000001,1073.8,1015.96
168384.0,12212.1,7071.0699999999997,-556.49800000000005,-6253.8299999999999,-1801.79,470.04700000000003,1243.26
168385.0,12996.4,7638.5100000000002,-525.71799999999996,-6537.6199999999999,-1881.9000000000001,-194.006,1447.76
168386.0,13978.200000000001,8267.0100000000002,-534.00099999999998,-6790.04,-1893.1099999999999,-1092.8199999999999,1770.25
168387.0,15670.6,9109.9899999999998,-619.49000000000001,-7278.3500000000004,-1825.8299999999999,-2353.4699999999998,2248.02
168388.0,17817.5,9856.4400000000005,-776.495,-7858.9499999999998,-1742.53,-3866.2199999999998,2885.8099999999999
168389.0,19753.099999999999,10241.9,-973.34299999999996,-8316.7900000000009,-1616.96,-5262.3699999999999,3521.1100000000001
168390.0,21201.400000000001,10266.0,-1152.1600000000001,-8487.3299999999999,-1433.24,-6511.9700000000003,4007.8800000000001
168391.0,21881.299999999999,9836.0200000000004,-1270.0699999999999,-8127.8400000000001,-1212.1700000000001,-7583.1099999999997,4294.8199999999997
168392.0,21769.900000000001,8920.4200000000001,-1329.6400000000001,-7220.0299999999997,-920.19899999999996,-8429.2299999999996,4400.6000000000004
168393.0,11176.700000000001,5971.8599999999997,-340.666,-4233.8299999999999,-2054.48,3297.2600000000002,141.11600000000001
168394.0,11276.4,6321.3000000000002,-394.983,-4816.7600000000002,-1972.3199999999999,2623.9499999999998,396.81299999999999
168395.0,11528.0,6679.5500000000002,-466.64100000000002,-5376.8800000000001,-1940.71,1827.48,660.55100000000004
168396.0,11993.1,7061.2299999999996,-516.28499999999997,-5870.4899999999998,-1914.6099999999999,1060.3099999999999,967.31299999999999
168397.0,12516.5,7469.8299999999999,-573.11300000000006,-6183.54,-1888.8299999999999,422.30900000000003,1173.97
168398.0,13217.5,8045.6899999999996,-506.12099999999998,-6359.6499999999996,-1956.23,-245.95099999999999,1364.3800000000001
168399.0,14409.299999999999,8722.9300000000003,-553.37800000000004,-6780.9200000000001,-1995.1700000000001,-1157.9100000000001,1737.96
168400.0,16179.700000000001,9622.0900000000001,-605.16600000000005,-7294.3400000000001,-1942.9400000000001,-2430.6199999999999,2234.54
168401.0,18398.799999999999,10362.700000000001,-763.42200000000003,-7970.3299999999999,-1888.0699999999999,-3958.9099999999999,2880.27
168402.0,20522.799999999999,10816.799999999999,-952.63900000000001,-8537.7700000000004,-1752.0999999999999,-5432.6700000000001,3564.0599999999999
168403.0,22069.599999999999,10816.200000000001,-1155.5,-8731.1000000000004,-1542.8599999999999,-6795.3000000000002,4082.3000000000002
168404.0,22772.099999999999,10341.700000000001,-1271.3099999999999,-8282.0,-1289.8800000000001,-7967.4200000000001,4385.96
168405.0,22620.5,9333.6499999999996,-1353.8199999999999,-7296.4499999999998,-970.67999999999995,-8853.25,4497.0900000000001
168406.0,11755.200000000001,6506.96,-348.661,-4215.3999999999996,-2190.8000000000002,3430.6300000000001,76.976500000000001
168407.0,11819.5,6883.3999999999996,-394.45100000000002,-4810.6199999999999,-2100.5300000000002,2677.6199999999999,339.661
168408.0,12027.799999999999,7229.9499999999998,-471.49099999999999,-5343.3100000000004,-2067.0,1841.4400000000001,608.52300000000002
168409.0,12457.4,7597.0799999999999,-501.59500000000003,-5822.29,-2040.99,1051.1700000000001,891.99699999999996
168410.0,12844.9,7933.6999999999998,-571.30499999999995,-6056.3299999999999,-1987.52,341.72000000000003,1113.47
168411.0,13512.200000000001,8506.6900000000005,-515.31100000000004,-6179.4200000000001,-2037.6800000000001,-310.904,1323.3
168412.0,14918.6,9268.8099999999995,-558.83299999999997,-6767.2200000000003,-2111.6700000000001,-1218.8499999999999,1692.1099999999999
168413.0,16733.900000000001,10167.4,-580.90599999999995,-7317.7600000000002,-2084.27,-2517.5700000000002,2210.1799999999998
168414.0,18978.400000000001,10911.299999999999,-739.02499999999998,-8049.9799999999996,-2036.74,-4025.2199999999998,2873.5700000000002
168415.0,21317.700000000001,11424.1,-942.50800000000004,-8756.1599999999999,-1896.45,-5604.2600000000002,3597.0900000000001
168416.0,22960.599999999999,11409.5,-1142.51,-8947.9699999999993,-1664.3499999999999,-7089.96,4148.3999999999996
168417.0,23674.299999999999,10846.700000000001,-1278.26,-8422.8700000000008,-1375.71,-8367.5400000000009,4474.3500000000004
168418.0,23506.599999999999,9764.5300000000007,-1373.25,-7353.6300000000001,-1020.48,-9302.3299999999999,4597.4799999999996
168419.0,12407.4,7109.04,-351.61900000000003,-4196.2399999999998,-2326.48,3586.0300000000002,6.54596
168420.0,12417.1,7519.96,-381.911,-4774.2299999999996,-2245.4699999999998,2733.3299999999999,261.61700000000002
168421.0,12575.799999999999,7833.3900000000003,-468.44200000000001,-5291.29,-2209.3299999999999,1861.54,545.85400000000004
168422.0,12904.9,8173.6300000000001,-494.96499999999997,-5705.7799999999997,-2158.7600000000002,1026.55,801.54399999999998
168423.0,13243.4,8480.25,-555.13199999999995,-5904.6300000000001,-2105.9899999999998,246.773,1050.29
168424.0,13953.4,9038.9099999999999,-537.39800000000002,-6081.7600000000002,-2131.4000000000001,-401.39699999999999,1296.6700000000001
168425.0,15430.9,9899.4799999999996,-531.18499999999995,-6662.1099999999997,-2222.7800000000002,-1305.9000000000001,1616.3099999999999
168426.0,17301.400000000001,10766.0,-552.15499999999997,-7289.79,-2254.4200000000001,-2606.0300000000002,2157.4099999999999
168427.0,19609.0,11507.0,-724.22299999999996,-8145.5100000000002,-2200.0,-4080.6599999999999,2862.9099999999999
168428.0,22120.200000000001,12071.1,-919.10000000000002,-8942.8600000000006,-2047.96,-5779.9099999999999,3612.1100000000001
168429.0,23865.599999999999,12025.9,-1135.9100000000001,-9147.3099999999995,-1798.3399999999999,-7394.4799999999996,4202.0200000000004
168430.0,24592.799999999999,11383.700000000001,-1271.51,-8540.3400000000001,-1475.9400000000001,-8773.1200000000008,4560.21
168431.0,24430.799999999999,10195.5,-1404.5999999999999,-7416.3800000000001,-1073.98,-9775.5699999999997,4700.3100000000004
168432.0,13131.700000000001,7837.6199999999999,-332.21100000000001,-4136.5900000000001,-2470.71,3732.48,-104.637
168433.0,13055.4,8235.6100000000006,-357.255,-4674.3500000000004,-2415.04,2786.6900000000001,162.185
168434.0,13170.4,8507.0400000000009,-458.50999999999999,-5206.6099999999997,-2359.21,1883.4300000000001,455.89600000000002
168435.0,13366.700000000001,8828.0900000000001,-476.38400000000001,-5513.1099999999997,-2277.46,969.40099999999995,703.21199999999999
168436.0,13744.200000000001,9143.2700000000004,-537.16499999999996,-5728.5699999999997,-2239.0900000000001,144.96199999999999,980.13400000000001
168437.0,14545.6,9715.4200000000001,-537.51400000000001,-5992.3599999999997,-2256.75,-533.02499999999998,1243.27
168438.0,15904.5,10530.9,-516.03599999999994,-6463.0,-2355.0500000000002,-1427.8399999999999,1538.77
168439.0,17852.099999999999,11391.9,-546.17999999999995,-7193.8400000000001,-2443.0,-2658.1399999999999,2123.4299999999998
168440.0,20344.099999999999,12192.9,-734.67100000000005,-8262.2299999999996,-2379.3099999999999,-4128.5900000000001,2867.3200000000002
168441.0,22920.900000000001,12754.799999999999,-884.23299999999995,-9081.3999999999996,-2215.5100000000002,-5955.3800000000001,3615.8800000000001
168442.0,24755.400000000001,12663.5,-1122.6199999999999,-9305.7600000000002,-1939.54,-7698.6099999999997,4238.8500000000004
168443.0,25540.400000000001,11957.5,-1262.75,-8655.0599999999995,-1590.0,-9183.8299999999999,4638.5
168444.0,25389.5,10652.799999999999,-1421.96,-7466.3299999999999,-1140.99,-10268.299999999999,4799.0
168445.0,13923.0,8699.9300000000003,-299.61900000000003,-3961.2600000000002,-2659.5999999999999,3877.3800000000001,-242.11099999999999
168446.0,13752.1,9020.5300000000007,-337.62799999999999,-4519.96,-2610.04,2856.1799999999998,40.1265
168447.0,13795.0,9302.0799999999999,-425.54399999999998,-5021.8000000000002,-2509.2199999999998,1882.3399999999999,327.60199999999998
168448.0,13903.200000000001,9589.4099999999999,-462.12700000000001,-5264.7200000000003,-2418.8099999999999,878.94299999999998,593.42499999999995
168449.0,14374.700000000001,9935.9899999999998,-520.17200000000003,-5532.6800000000003,-2401.1500000000001,32.084099999999999,906.36800000000005
168450.0,15198.6,10484.700000000001,-532.65099999999995,-5830.3400000000001,-2425.6199999999999,-687.02599999999995,1171.29
168451.0,16358.0,11175.6,-479.68000000000001,-6181.6700000000001,-2525.27,-1532.53,1482.3
168452.0,18450.900000000001,12034.0,-545.346,-7152.3900000000003,-2622.8600000000001,-2659.0300000000002,2127.6300000000001
168453.0,21227.400000000001,12973.0,-745.90300000000002,-8440.9699999999993,-2542.4699999999998,-4207.4399999999996,2893.3800000000001
168454.0,23737.200000000001,13468.5,-848.08100000000002,-9185.0,-2393.8499999999999,-6143.7700000000004,3614.8899999999999
168455.0,25601.799999999999,13310.799999999999,-1104.8299999999999,-9418.0599999999995,-2086.79,-7990.0900000000001,4246.6499999999996
168456.0,26507.599999999999,12578.0,-1240.8399999999999,-8741.9200000000001,-1717.55,-9605.7900000000009,4694.2600000000002
168457.0,26372.5,11144.5,-1432.5799999999999,-7502.6499999999996,-1231.21,-10769.799999999999,4886.1700000000001
168458.0,14832.0,9675.25,-261.214,-3711.3200000000002,-2892.0500000000002,4064.3600000000001,-374.10700000000003
168459.0,14540.4,9940.8700000000008,-306.56200000000001,-4278.6899999999996,-2823.7800000000002,2942.3600000000001,-114.044
168460.0,14458.200000000001,10227.0,-386.98000000000002,-4711.0900000000001,-2678.6100000000001,1841.29,175.35300000000001
168461.0,14562.5,10500.299999999999,-437.74000000000001,-4942.4799999999996,-2604.5,778.18899999999996,481.06400000000002
168462.0,15094.6,10841.0,-475.45100000000002,-5281.7200000000003,-2603.25,-71.061199999999999,806.077
168463.0,15832.1,11298.0,-492.62799999999999,-5563.6800000000003,-2616.2399999999998,-832.90200000000004,1082.3
168464.0,16885.5,11868.1,-454.43099999999998,-5926.1800000000003,-2700.7600000000002,-1609.27,1444.1900000000001
168465.0,19210.900000000001,12795.9,-525.85599999999999,-7216.1899999999996,-2781.1100000000001,-2672.0599999999999,2087.9899999999998
168466.0,22200.099999999999,13820.6,-707.21299999999997,-8614.1599999999999,-2705.9899999999998,-4395.9700000000003,2855.1999999999998
168467.0,24553.700000000001,14207.0,-804.00199999999995,-9218.5900000000001,-2575.8400000000001,-6368.8800000000001,3598.3800000000001
168468.0,26403.299999999999,13995.1,-1076.3499999999999,-9455.9400000000005,-2242.0,-8264.0799999999999,4223.3699999999999
168469.0,27448.599999999999,13231.1,-1205.99,-8766.1299999999992,-1864.3800000000001,-10027.4,4712.5600000000004
168470.0,27370.5,11695.9,-1425.9200000000001,-7508.4200000000001,-1347.74,-11270.299999999999,4954.6599999999999
168471.0,15919.6,10780.1,-230.78899999999999,-3470.6199999999999,-3153.9099999999999,4295.1099999999997,-528.30600000000004
168472.0,15433.5,11045.5,-249.04300000000001,-3915.6500000000001,-3059.0799999999999,3024.77,-286.93900000000002
168473.0,15208.9,11283.6,-348.50200000000001,-4291.9499999999998,-2889.98,1782.0999999999999,11.276199999999999
168474.0,15340.0,11548.299999999999,-383.04700000000003,-4546.5900000000001,-2836.5799999999999,690.63400000000001,353.625
168475.0,15828.6,11815.799999999999,-431.87299999999999,-4934.3299999999999,-2815.3200000000002,-159.88200000000001,650.42499999999995
168476.0,16495.200000000001,12220.6,-421.40800000000002,-5183.8999999999996,-2813.6999999999998,-987.85500000000002,949.34299999999996
168477.0,17638.299999999999,12720.700000000001,-444.798,-5743.6199999999999,-2882.5300000000002,-1735.1400000000001,1412.0699999999999
168478.0,20132.5,13784.0,-496.53699999999998,-7198.9399999999996,-2944.5999999999999,-2765.6999999999998,1982.3299999999999
168479.0,23104.099999999999,14734.200000000001,-621.88699999999994,-8554.8500000000004,-2941.1700000000001,-4647.0699999999997,2738.6900000000001
168480.0,25341.099999999999,14938.299999999999,-778.94200000000001,-9189.6700000000001,-2772.8299999999999,-6608.3800000000001,3565.04
168481.0,27169.0,14719.299999999999,-1043.8800000000001,-9402.3700000000008,-2402.2600000000002,-8533.9400000000005,4173.71
168482.0,28311.400000000001,13912.1,-1160.5799999999999,-8695.3500000000004,-2033.3299999999999,-10420.799999999999,4684.2600000000002
168483.0,28358.200000000001,12316.4,-1393.0999999999999,-7461.21,-1493.75,-11762.700000000001,4981.4899999999998
168484.0,17181.700000000001,12081.799999999999,-177.87899999999999,-3169.3600000000001,-3453.9099999999999,4543.2200000000003,-724.95799999999997
168485.0,16450.400000000001,12325.299999999999,-180.31399999999999,-3456.3699999999999,-3324.3299999999999,3092.6500000000001,-475.61700000000002
168486.0,16084.5,12488.799999999999,-296.76600000000002,-3763.4200000000001,-3154.1100000000001,1729.26,-167.84200000000001
168487.0,16196.0,12712.6,-303.678,-4048.6399999999999,-3101.3400000000001,620.82899999999995,186.03
168488.0,16597.299999999999,12921.799999999999,-391.70299999999997,-4423.3500000000004,-3023.8000000000002,-269.47399999999999,462.49400000000003
168489.0,17334.299999999999,13371.0,-344.96600000000001,-4682.2799999999997,-3050.3600000000001,-1169.5699999999999,822.81399999999996
168490.0,18688.700000000001,13798.4,-443.73000000000002,-5608.8199999999997,-3126.9499999999998,-1926.54,1381.21
168491.0,21105.400000000001,14898.299999999999,-470.15300000000002,-7012.04,-3140.1300000000001,-2931.96,1874.72
168492.0,23879.599999999999,15686.700000000001,-523.5,-8262.1299999999992,-3221.71,-4849.8699999999999,2609.79
168493.0,26115.400000000001,15732.299999999999,-726.28800000000001,-9087.4300000000003,-2993.2600000000002,-6837.1499999999996,3487.73
168494.0,27902.299999999999,15490.299999999999,-974.21299999999997,-9223.3600000000006,-2578.96,-8817.5699999999997,4098.4300000000003
168495.0,29069.0,14604.4,-1126.5999999999999,-8517.3199999999997,-2216.3200000000002,-10771.0,4614.4700000000003
168496.0,29273.0,13020.0,-1332.48,-7293.5799999999999,-1673.8099999999999,-12219.5,4948.96
168497.0,18573.0,13575.799999999999,-99.636700000000005,-2767.0900000000001,-3786.8600000000001,4779.0500000000002,-967.13
168498.0,17612.099999999999,13793.1,-87.400000000000006,-2880.5,-3637.79,3153.6700000000001,-685.41999999999996
168499.0,17091.799999999999,13831.200000000001,-220.249,-3126.98,-3473.4400000000001,1713.8,-358.37700000000001
168500.0,17135.0,14001.1,-221.16800000000001,-3433.79,-3384.4099999999999,565.46199999999999,-10.2721
168501.0,17520.900000000001,14219.299999999999,-355.47899999999998,-3785.3600000000001,-3267.4099999999999,-415.18000000000001,294.67599999999999
168502.0,18451.5,14720.4,-297.72899999999998,-4202.9300000000003,-3359.3600000000001,-1350.52,750.09900000000005
168503.0,19964.5,15105.0,-404.93599999999998,-5443.1999999999998,-3439.3400000000001,-2132.3400000000001,1337.51
168504.0,22072.299999999999,16071.6,-411.71499999999997,-6661.5299999999997,-3371.75,-3163.8400000000001,1758.1300000000001
168505.0,24558.900000000001,16663.200000000001,-429.68700000000001,-7821.1199999999999,-3488.3600000000001,-5022.6000000000004,2436.7600000000002
168506.0,26844.700000000001,16633.700000000001,-636.91700000000003,-8826.25,-3243.1799999999998,-7056.8199999999997,3312.2199999999998
168507.0,28593.5,16284.5,-889.89200000000005,-8939.8199999999997,-2810.46,-9102.1599999999999,3972.1999999999998
168508.0,29725.099999999999,15318.0,-1078.8599999999999,-8214.1599999999999,-2418.98,-11075.0,4520.25
168509.0,30064.700000000001,13769.200000000001,-1277.6400000000001,-6994.1800000000003,-1873.1600000000001,-12606.5,4881.5900000000001
168510.0,20033.400000000001,15275.4,40.108499999999999,-2139.3800000000001,-4168.8199999999997,4970.9399999999996,-1291.23
168511.0,18907.099999999999,15387.200000000001,1.77667,-2191.5500000000002,-4008.5900000000001,3239.7199999999998,-916.27499999999998
168512.0,18262.0,15330.5,-120.008,-2405.3299999999999,-3829.9200000000001,1756.2,-575.68299999999999
168513.0,18215.200000000001,15448.5,-139.09399999999999,-2717.1599999999999,-3698.8400000000001,513.41399999999999,-225.28899999999999
168514.0,18695.5,15725.5,-293.904,-3112.9400000000001,-3595.7199999999998,-549.86599999999999,182.62700000000001
168515.0,19833.400000000001,16239.799999999999,-246.34800000000001,-3810.8600000000001,-3740.1199999999999,-1482.8800000000001,715.65499999999997
168516.0,21353.200000000001,16573.400000000001,-335.529,-5203.0,-3784.1100000000001,-2332.0700000000002,1261.97
168517.0,23071.599999999999,17297.0,-353.94200000000001,-6181.1499999999996,-3656.4200000000001,-3446.5500000000002,1651.95
168518.0,25166.299999999999,17685.400000000001,-350.714,-7182.3000000000002,-3760.2399999999998,-5179.6599999999999,2254.96
168519.0,27425.900000000001,17607.0,-550.50699999999995,-8286.4500000000007,-3525.8699999999999,-7223.3000000000002,3074.1399999999999
168520.0,29205.0,17175.099999999999,-781.80999999999995,-8470.6900000000005,-3110.6799999999998,-9325.2999999999993,3802.6700000000001
168521.0,30307.900000000001,16058.9,-1021.47,-7839.2200000000003,-2665.7199999999998,-11319.1,4404.9899999999998
168522.0,30740.299999999999,14519.9,-1219.76,-6613.25,-2085.27,-12924.200000000001,4799.3599999999997
168523.0,21540.0,17071.700000000001,191.613,-1196.1500000000001,-4635.0500000000002,5199.4300000000003,-1645.95
168524.0,20368.799999999999,17135.099999999999,123.017,-1382.54,-4420.4300000000003,3407.0700000000002,-1176.5699999999999
168525.0,19640.799999999999,17059.700000000001,19.9526,-1578.47,-4220.4200000000001,1835.45,-831.33799999999997
168526.0,19487.799999999999,17101.799999999999,-25.3443,-1890.22,-4069.5300000000002,497.84699999999998,-444.16800000000001
168527.0,20147.799999999999,17429.700000000001,-181.048,-2527.3699999999999,-3994.8000000000002,-598.81100000000004,75.255899999999997
168528.0,21444.200000000001,17936.700000000001,-141.124,-3528.9899999999998,-4151.4700000000003,-1564.8299999999999,651.96299999999997
168529.0,22803.900000000001,18182.900000000001,-211.036,-4849.1999999999998,-4143.5600000000004,-2544.96,1142.3299999999999
168530.0,24125.599999999999,18581.900000000001,-260.42399999999998,-5619.2200000000003,-4001.0300000000002,-3744.46,1553.28
168531.0,25750.799999999999,18684.799999999999,-303.25,-6487.8800000000001,-4044.8499999999999,-5303.1599999999999,2114.8000000000002
168532.0,27834.400000000001,18566.599999999999,-470.30099999999999,-7549.1800000000003,-3813.23,-7288.1300000000001,2858.3699999999999
168533.0,29714.200000000001,18086.900000000001,-710.90599999999995,-7915.8999999999996,-3425.8800000000001,-9443.4799999999996,3627.46
168534.0,30858.099999999999,16904.299999999999,-929.84199999999998,-7388.0100000000002,-2952.6900000000001,-11496.4,4267.21
168535.0,31329.200000000001,15268.799999999999,-1156.6400000000001,-6197.0299999999997,-2334.54,-13177.5,4698.6700000000001
168536.0,23223.099999999999,19003.5,368.18400000000003,-67.741500000000002,-5109.3299999999999,5585.7399999999998,-1983.8399999999999
168537.0,22087.200000000001,19145.099999999999,279.351,-456.661,-4858.8599999999997,3632.3299999999999,-1537.74
168538.0,21245.299999999999,19048.5,191.52699999999999,-606.33100000000002,-4656.4399999999996,1924.49,-1145.54
168539.0,21063.400000000001,19038.099999999999,104.542,-1020.52,-4483.0100000000002,536.54999999999995,-698.43700000000001
168540.0,21931.799999999999,19481.5,10.1914,-1929.8299999999999,-4438.79,-619.255,-160.15000000000001
168541.0,23234.200000000001,19872.099999999999,34.2226,-3160.9699999999998,-4603.1000000000004,-1695.0999999999999,410.39699999999999
168542.0,24259.299999999999,19887.799999999999,-41.258099999999999,-4303.04,-4556.3699999999999,-2794.04,922.27200000000005
168543.0,25178.700000000001,19908.599999999999,-126.02500000000001,-4964.8900000000003,-4401.8500000000004,-4004.9499999999998,1411.3900000000001
168544.0,26359.599999999999,19710.900000000001,-215.79300000000001,-5780.5799999999999,-4340.3199999999997,-5410.1000000000004,1964.7
168545.0,28141.599999999999,19482.700000000001,-359.524,-6752.4399999999996,-4082.8200000000002,-7295.3199999999997,2636.1199999999999
168546.0,30100.400000000001,18996.200000000001,-611.03399999999999,-7284.29,-3714.48,-9490.4699999999993,3397.02
168547.0,31372.200000000001,17824.599999999999,-814.90599999999995,-6876.8900000000003,-3256.3800000000001,-11621.9,4083.5599999999999
168548.0,31877.700000000001,16078.1,-1064.01,-5752.1700000000001,-2623.77,-13372.299999999999,4578.5100000000002
168549.0,25246.700000000001,21271.900000000001,521.51800000000003,1112.4300000000001,-5545.1400000000003,6032.2700000000004,-2402.75
168550.0,24068.0,21555.200000000001,511.98399999999998,805.86500000000001,-5365.5500000000002,3838.9200000000001,-1997.51
168551.0,23151.799999999999,21374.0,389.78300000000002,560.48699999999997,-5159.3599999999997,2040.3199999999999,-1513.5899999999999
168552.0,23076.900000000001,21435.700000000001,296.899,-7.7256499999999999,-4999.5299999999997,597.50699999999995,-1017.12
168553.0,23964.5,21819.799999999999,195.96299999999999,-1076.9300000000001,-5020.0600000000004,-642.75300000000004,-489.24400000000003
168554.0,24991.200000000001,21987.099999999999,256.11500000000001,-2304.96,-5179.3699999999999,-1790.8399999999999,68.941500000000005
168555.0,25625.0,21647.700000000001,153.90199999999999,-3431.5500000000002,-5078.5299999999997,-2949.3000000000002,649.48500000000001
168556.0,26215.099999999999,21312.5,43.337000000000003,-4182.6300000000001,-4853.6099999999997,-4161.6199999999999,1222.6700000000001
168557.0,27034.599999999999,20805.400000000001,-117.532,-5038.4799999999996,-4666.1999999999998,-5513.2700000000004,1771.6900000000001
168558.0,28435.599999999999,20404.400000000001,-235.46100000000001,-5889.8900000000003,-4360.3199999999997,-7300.2399999999998,2379.3600000000001
168559.0,30327.599999999999,19867.900000000001,-503.072,-6500.6199999999999,-3993.0100000000002,-9489.4200000000001,3091.1100000000001
168560.0,31764.5,18791.200000000001,-664.51199999999994,-6212.1800000000003,-3568.0100000000002,-11691.200000000001,3808.0999999999999
168561.0,32398.599999999999,16963.0,-946.89300000000003,-5261.71,-2956.4099999999999,-13529.700000000001,4382.6999999999998
168562.0,27569.700000000001,23978.400000000001,723.62699999999995,2537.2800000000002,-6071.0799999999999,6413.6599999999999,-2840.77
168563.0,26268.099999999999,24198.700000000001,709.83600000000001,2346.8800000000001,-5977.1499999999996,4054.0900000000001,-2420.0500000000002
168564.0,25411.900000000001,24008.200000000001,564.27200000000005,1926.8599999999999,-5784.3400000000001,2241.04,-1896.47
168565.0,25386.299999999999,24080.799999999999,519.11599999999999,1212.8299999999999,-5710.4099999999999,783.56700000000001,-1354.8499999999999
168566.0,25970.099999999999,24176.700000000001,426.89699999999999,71.002600000000001,-5751.3000000000002,-494.22399999999999,-785.14400000000001
168567.0,26567.700000000001,24039.099999999999,477.839,-1138.4200000000001,-5816.54,-1670.0999999999999,-225.75999999999999
168568.0,26933.200000000001,23436.200000000001,347.17899999999997,-2396.9200000000001,-5653.54,-2891.9000000000001,378.363
168569.0,27315.799999999999,22841.099999999999,223.47999999999999,-3330.8400000000001,-5355.25,-4184.8599999999997,999.30799999999999
168570.0,27827.200000000001,22052.0,11.5618,-4208.6099999999997,-5049.9099999999999,-5595.8299999999999,1560.45
168571.0,28790.5,21402.299999999999,-101.702,-4924.5200000000004,-4677.0600000000004,-7314.8400000000001,2109.9299999999998
168572.0,30417.700000000001,20726.700000000001,-379.49700000000001,-5510.1199999999999,-4287.5200000000004,-9439.0900000000001,2751.6799999999998
168573.0,31963.200000000001,19752.0,-526.96799999999996,-5325.8800000000001,-3878.5500000000002,-11674.700000000001,3465.9400000000001
168574.0,32817.400000000001,17975.099999999999,-809.57100000000003,-4562.1899999999996,-3330.4699999999998,-13608.1,4112.0900000000001
168575.0,30040.099999999999,26833.0,950.96799999999996,4080.71,-6707.4399999999996,6768.3299999999999,-3231.9899999999998
168576.0,28651.400000000001,26986.599999999999,967.81899999999996,4008.0300000000002,-6663.0,4384.1700000000001,-2764.9499999999998
168577.0,27843.799999999999,26812.200000000001,859.79499999999996,3501.52,-6519.1499999999996,2639.6199999999999,-2231.0599999999999
168578.0,27736.799999999999,26743.599999999999,832.60799999999995,2583.7800000000002,-6505.2200000000003,1229.3199999999999,-1709.6099999999999
168579.0,27917.900000000001,26489.400000000001,741.17499999999995,1300.05,-6496.6400000000003,-123.29300000000001,-1133.0999999999999
168580.0,28105.0,26077.0,744.96799999999996,76.188100000000006,-6432.21,-1387.22,-547.58399999999995
168581.0,28284.900000000001,25325.200000000001,581.60799999999995,-1294.3399999999999,-6229.4499999999998,-2671.5700000000002,82.774900000000002
168582.0,28554.099999999999,24547.799999999999,426.46300000000002,-2448.04,-5901.0500000000002,-4072.3299999999999,747.62
168583.0,28791.5,23477.700000000001,177.90799999999999,-3347.0900000000001,-5510.4099999999999,-5626.9499999999998,1345.1800000000001
168584.0,29245.799999999999,22478.700000000001,20.604399999999998,-3894.75,-5049.9499999999998,-7321.1000000000004,1860.78
168585.0,30451.5,21611.799999999999,-243.417,-4359.8000000000002,-4611.7799999999997,-9332.1100000000006,2426.2800000000002
168586.0,31979.700000000001,20660.200000000001,-409.14800000000002,-4267.8500000000004,-4191.9099999999999,-11560.299999999999,3106.5900000000001
168587.0,33053.5,19017.599999999999,-678.13199999999995,-3682.98,-3709.5500000000002,-13558.0,3814.7800000000002
168588.0,32610.900000000001,29863.700000000001,1273.46,5816.7700000000004,-7353.1700000000001,7111.9700000000003,-3713.48
168589.0,31200.799999999999,29887.5,1280.51,5718.7799999999997,-7343.6000000000004,4818.1199999999999,-3213.04
168590.0,30345.5,29598.0,1183.5,5078.9499999999998,-7234.5100000000002,3177.27,-2688.25
168591.0,30128.099999999999,29437.599999999999,1169.72,4060.6399999999999,-7246.3800000000001,1819.21,-2201.0999999999999
168592.0,29976.700000000001,28931.099999999999,1098.5,2680.6799999999998,-7242.8000000000002,375.00999999999999,-1600.6300000000001
168593.0,29757.599999999999,28176.599999999999,1016.25,1337.6300000000001,-7094.3000000000002,-996.37900000000002,-910.45399999999995
168594.0,29727.400000000001,27271.099999999999,799.25800000000004,-190.346,-6818.9799999999996,-2320.0700000000002,-215.71199999999999
168595.0,29947.0,26426.599999999999,635.67700000000002,-1558.1800000000001,-6460.75,-3848.4699999999998,447.39699999999999
168596.0,29941.799999999999,25115.400000000001,408.90699999999998,-2452.8499999999999,-6047.2700000000004,-5597.1499999999996,1082.79
168597.0,29839.900000000001,23676.0,188.43700000000001,-2848.9899999999998,-5490.1499999999996,-7295.96,1639.6199999999999
168598.0,30533.400000000001,22545.200000000001,-104.05800000000001,-3183.1599999999999,-4960.2799999999997,-9175.5200000000004,2136.6900000000001
168599.0,31872.599999999999,21541.799999999999,-266.66899999999998,-3085.3899999999999,-4521.9799999999996,-11355.799999999999,2746.3200000000002
168600.0,33070.199999999997,20005.299999999999,-537.553,-2688.23,-4077.3299999999999,-13372.1,3488.7800000000002
168601.0,35292.800000000003,33139.199999999997,1621.51,7930.2399999999998,-7996.3000000000002,7385.5100000000002,-4312.46
168602.0,33934.699999999997,33083.0,1670.9100000000001,7798.9499999999998,-8022.2299999999996,5268.54,-3805.6399999999999
168603.0,32978.0,32658.900000000001,1639.51,7077.4700000000003,-7961.54,3733.75,-3290.0599999999999
168604.0,32602.200000000001,32308.299999999999,1581.1600000000001,5903.79,-7994.5299999999997,2449.71,-2777.27
168605.0,32188.299999999999,31517.900000000001,1463.8299999999999,4278.0100000000002,-8028.4899999999998,980.24199999999996,-2101.0100000000002
168606.0,31619.599999999999,30455.5,1352.48,2641.5700000000002,-7812.6599999999999,-467.65800000000002,-1277.72
168607.0,31383.299999999999,29420.5,1098.8599999999999,866.43700000000001,-7408.6000000000004,-1881.78,-539.92200000000003
168608.0,31491.900000000001,28524.700000000001,914.34799999999996,-553.23800000000006,-7019.1300000000001,-3601.7800000000002,73.879300000000001
168609.0,31214.599999999999,26940.400000000001,678.34299999999996,-1431.77,-6636.5600000000004,-5508.3100000000004,737.31799999999998
168610.0,30619.200000000001,25032.400000000001,405.899,-1846.74,-6000.6899999999996,-7228.3800000000001,1383.9000000000001
168611.0,30764.299999999999,23585.299999999999,75.350300000000004,-2046.6900000000001,-5344.1099999999997,-9008.4500000000007,1843.97
168612.0,31729.0,22408.599999999999,-108.661,-1847.55,-4880.3000000000002,-11088.6,2394.1799999999998
168613.0,32934.199999999997,20920.599999999999,-413.39699999999999,-1641.98,-4425.4499999999998,-13077.0,3163.6999999999998
168614.0,38048.800000000003,36756.300000000003,2081.0500000000002,10598.299999999999,-8669.9099999999999,7548.3500000000004,-4888.6999999999998
168615.0,36834.900000000001,36519.400000000001,2033.1700000000001,10304.799999999999,-8737.3600000000006,5670.9499999999998,-4428.8299999999999
168616.0,35749.199999999997,35862.300000000003,2054.6100000000001,9459.2099999999991,-8733.6800000000003,4281.0200000000004,-3947.0300000000002
168617.0,35153.900000000001,35239.199999999997,1978.0799999999999,8033.8999999999996,-8756.8700000000008,3120.1599999999999,-3414.98
168618.0,34580.599999999999,34332.900000000001,1912.77,6071.3299999999999,-8803.6299999999992,1697.1900000000001,-2653.6300000000001
168619.0,33867.900000000001,33074.099999999999,1725.6099999999999,3907.79,-8539.2800000000007,135.21899999999999,-1745.54
168620.0,33404.400000000001,31911.099999999999,1440.22,1982.3,-8033.8599999999997,-1501.8900000000001,-1033.6199999999999
168621.0,33154.400000000001,30768.400000000001,1214.21,695.61199999999997,-7631.0,-3413.9499999999998,-412.67599999999999
168622.0,32537.799999999999,28917.200000000001,968.35400000000004,-170.221,-7249.5,-5368.8000000000002,322.577
168623.0,31598.900000000001,26674.299999999999,704.03499999999997,-727.14400000000001,-6568.5900000000001,-7123.6199999999999,1023.3200000000001
168624.0,31214.099999999999,24799.700000000001,292.565,-886.471,-5807.8699999999999,-8860.9699999999993,1493.22
168625.0,31672.599999999999,23377.0,108.471,-554.95699999999999,-5287.6999999999998,-10790.6,2054.6399999999999
168626.0,32818.400000000001,21824.900000000001,-277.935,-635.92100000000005,-4767.6000000000004,-12755.4,2839.2199999999998
168627.0,40844.599999999999,40588.099999999999,2603.4299999999998,13610.200000000001,-9323.6800000000003,7560.3400000000001,-5480.8100000000004
168628.0,39816.400000000001,40307.0,2565.0100000000002,13296.299999999999,-9421.2399999999998,5973.8900000000003,-5079.54
168629.0,38652.800000000003,39485.400000000001,2690.1300000000001,12378.299999999999,-9463.4799999999996,4778.21,-4676.21
168630.0,37885.800000000003,38619.699999999997,2585.8200000000002,10677.1,-9451.25,3764.5900000000001,-4183.0299999999997
168631.0,37360.699999999997,37689.400000000001,2489.21,8164.2799999999997,-9499.4099999999999,2427.8699999999999,-3460.54
168632.0,36655.400000000001,36393.300000000003,2303.1199999999999,5508.1099999999997,-9316.5100000000002,651.26800000000003,-2503.7199999999998
168633.0,35730.0,34852.800000000003,1930.5799999999999,3606.1100000000001,-8796.6900000000005,-1239.79,-1669.6800000000001
168634.0,34886.900000000001,33220.699999999997,1616.6199999999999,2402.3800000000001,-8342.2600000000002,-3216.1599999999999,-945.50800000000004
168635.0,33912.5,31027.200000000001,1285.9200000000001,1348.3,-7890.1000000000004,-5181.4499999999998,-147.285
168636.0,32726.700000000001,28556.5,998.76400000000001,640.23400000000004,-7177.6400000000003,-6978.5200000000004,561.74599999999998
168637.0,31907.799999999999,26290.099999999999,551.91099999999994,452.44799999999998,-6372.9899999999998,-8710.3999999999996,1099.1900000000001
168638.0,31884.099999999999,24541.0,332.08999999999997,709.33900000000006,-5760.6300000000001,-10503.799999999999,1729.5699999999999
168639.0,32901.099999999999,22902.200000000001,-88.189400000000006,401.98700000000002,-5162.6599999999999,-12472.200000000001,2471.8400000000001
168640.0,43858.0,45075.800000000003,3373.4899999999998,17320.299999999999,-9874.6599999999999,7282.6499999999996,-6322.1400000000003
168641.0,43041.0,44618.599999999999,3149.8699999999999,16840.700000000001,-9965.2600000000002,5961.6800000000003,-6017.5100000000002
168642.0,41929.199999999997,43704.699999999997,3316.4499999999998,15865.799999999999,-10065.6,4988.8299999999999,-5703.6099999999997
168643.0,41151.0,42707.900000000001,3180.1100000000001,13910.799999999999,-10091.4,4136.7200000000003,-5263.8699999999999
168644.0,40747.5,41871.300000000003,3099.9000000000001,11143.200000000001,-10225.299999999999,2919.3000000000002,-4656.9099999999999
168645.0,39894.5,40301.900000000001,2912.0599999999999,8062.4300000000003,-10269.4,1001.47,-3661.8499999999999
168646.0,38236.800000000003,38015.599999999999,2468.9099999999999,5831.0299999999997,-9742.6499999999996,-1027.6400000000001,-2501.04
168647.0,36732.599999999999,35833.800000000003,2053.71,4445.2700000000004,-9121.7299999999996,-2956.7399999999998,-1571.99
168648.0,35395.300000000003,33325.800000000003,1664.5599999999999,3176.3400000000001,-8586.8999999999996,-4940.8999999999996,-715.28999999999996
168649.0,33952.800000000003,30654.799999999999,1333.96,2341.3699999999999,-7824.8100000000004,-6780.2700000000004,55.6233
168650.0,32865.300000000003,28089.200000000001,832.36900000000003,1977.01,-7004.0299999999997,-8533.3299999999999,698.38900000000001
168651.0,32526.200000000001,26054.5,574.12800000000004,1966.55,-6316.7600000000002,-10272.9,1407.55
168652.0,33318.599999999999,24309.200000000001,152.56100000000001,1569.1199999999999,-5656.7299999999996,-12242.0,2097.9200000000001
168653.0,47480.900000000001,50485.099999999999,4148.1499999999996,22098.200000000001,-10446.6,6510.8400000000001,-7355.1800000000003
168654.0,46881.599999999999,49973.400000000001,3872.1199999999999,21719.0,-10561.4,5413.9300000000003,-7170.46
168655.0,45863.800000000003,48991.900000000001,4104.04,20740.799999999999,-10764.6,4735.21,-6920.4700000000003
168656.0,45100.0,47705.199999999997,3873.79,18518.799999999999,-10997.700000000001,4139.8800000000001,-6480.4700000000003
168657.0,44411.900000000001,46415.699999999997,3695.5100000000002,15533.0,-11252.5,3214.2399999999998,-5834.5100000000002
168658.0,43190.099999999999,44532.599999999999,3612.7800000000002,12098.799999999999,-11397.200000000001,1465.73,-4832.3699999999999
168659.0,40971.300000000003,41622.800000000003,3200.9000000000001,9029.8099999999995,-10869.1,-660.11300000000006,-3496.3099999999999
168660.0,38816.599999999999,38802.800000000003,2648.9400000000001,7033.8000000000002,-10028.5,-2628.8699999999999,-2344.5599999999999
168661.0,37040.699999999997,35891.599999999999,2128.8000000000002,5434.8800000000001,-9360.9400000000005,-4621.3999999999996,-1393.5599999999999
168662.0,35345.699999999997,32922.300000000003,1677.4300000000001,4272.6999999999998,-8535.1000000000004,-6534.6000000000004,-509.88799999999998
168663.0,34122.900000000001,30217.599999999999,1159.8,3650.21,-7685.6700000000001,-8341.0799999999999,288.30200000000002
168664.0,33626.900000000001,27977.700000000001,849.178,3272.1700000000001,-6967.9399999999996,-10092.9,1066.3900000000001
168665.0,34127.0,26063.400000000001,431.89299999999997,2826.4099999999999,-6280.5100000000002,-12056.5,1722.79
168666.0,51856.199999999997,57175.800000000003,5408.1099999999997,28332.099999999999,-11158.0,5249.7799999999997,-8449.7999999999993
168667.0,51289.699999999997,56012.699999999997,4730.9300000000003,27859.0,-11362.0,4380.6999999999998,-8308.5900000000001
168668.0,50107.5,54441.300000000003,4856.4799999999996,26836.5,-11723.6,4200.8500000000004,-8032.9799999999996
168669.0,49094.0,52546.800000000003,4619.9499999999998,24243.400000000001,-12191.6,4160.3000000000002,-7545.9200000000001
168670.0,47775.5,50597.5,4484.7299999999996,20820.299999999999,-12417.4,3680.7399999999998,-6814.5799999999999
168671.0,46316.599999999999,48439.300000000003,4179.5,16764.900000000001,-12455.799999999999,2251.1799999999998,-5895.9499999999998
168672.0,44015.0,45486.300000000003,3863.21,12953.200000000001,-12075.9,12.6447,-4585.5600000000004
168673.0,41264.300000000003,42012.699999999997,3221.5599999999999,10113.4,-11148.299999999999,-2139.8499999999999,-3227.25
168674.0,38928.800000000003,38720.599999999999,2624.46,8106.8400000000001,-10244.700000000001,-4162.7200000000003,-2122.1999999999998
168675.0,37026.099999999999,35539.0,2095.4499999999998,6532.8800000000001,-9350.0900000000001,-6195.1199999999999,-1119.8199999999999
168676.0,35717.599999999999,32662.0,1529.24,5427.2799999999997,-8466.4300000000003,-8114.4700000000003,-163.96700000000001
168677.0,35102.599999999999,30300.599999999999,1197.28,4721.9799999999996,-7721.3400000000001,-9918.8600000000006,667.80100000000004
168678.0,35270.699999999997,28180.5,766.66600000000005,4242.7700000000004,-7040.71,-11857.4,1317.3099999999999
168679.0,57192.900000000001,64665.199999999997,6647.7299999999996,35786.300000000003,-12003.5,3249.3400000000001,-9704.9500000000007
168680.0,56077.900000000001,62478.699999999997,6005.2299999999996,35598.800000000003,-12196.4,2863.1199999999999,-9662.7399999999998
168681.0,54103.900000000001,60034.099999999999,6473.8000000000002,34476.300000000003,-12561.4,3555.5100000000002,-9361.5200000000004
168682.0,52704.599999999999,57119.199999999997,5911.04,30983.799999999999,-13148.200000000001,4335.25,-8865.0900000000001
168683.0,50948.599999999999,54504.099999999999,5570.4099999999999,26678.599999999999,-13386.700000000001,4382.4399999999996,-8028.4200000000001
168684.0,49393.5,52420.099999999999,5157.9799999999996,22084.900000000001,-13399.4,3300.6100000000001,-7028.1599999999999
168685.0,47213.199999999997,49577.400000000001,4693.3400000000001,17526.599999999999,-13239.700000000001,1055.9000000000001,-5674.7399999999998
168686.0,44126.699999999997,45749.0,4038.25,13797.5,-12415.799999999999,-1341.9100000000001,-4136.6199999999999
168687.0,41203.699999999997,41913.0,3229.3699999999999,11039.4,-11270.9,-3513.9899999999998,-2845.9099999999999
168688.0,39067.599999999999,38524.099999999999,2572.8000000000002,8974.9699999999993,-10269.9,-5701.8500000000004,-1733.72
168689.0,37671.199999999997,35475.300000000003,1955.9200000000001,7357.0500000000002,-9380.1299999999992,-7791.2700000000004,-676.21299999999997
168690.0,36865.5,32967.099999999999,1610.6099999999999,6394.3000000000002,-8599.3600000000006,-9677.5900000000001,210.571
168691.0,36671.0,30600.5,1121.4200000000001,5823.4700000000003,-7906.6400000000003,-11580.5,889.65200000000004
168692.0,63142.800000000003,73573.399999999994,9056.5,45287.699999999997,-12878.200000000001,479.464,-10819.299999999999
168693.0,61422.800000000003,69318.399999999994,7584.0799999999999,45139.599999999999,-12747.5,576.45799999999997,-11272.1
168694.0,58560.300000000003,65176.199999999997,7774.2299999999996,43824.099999999999,-12994.4,2358.29,-11266.700000000001
168695.0,56682.300000000003,61593.0,7278.1000000000004,39390.199999999997,-13680.0,4402.7299999999996,-10896.1
168696.0,54579.199999999997,58807.800000000003,7084.1599999999999,33826.400000000001,-14145.9,5152.5299999999997,-9859.8199999999997
168697.0,52753.300000000003,56196.599999999999,6131.8299999999999,27812.599999999999,-14303.799999999999,4461.4700000000003,-8530.4200000000001
168698.0,50573.400000000001,53645.900000000001,5571.5699999999997,22423.299999999999,-14257.700000000001,2378.3899999999999,-6973.0900000000001
168699.0,47500.099999999999,49806.0,4789.96,17640.599999999999,-13671.200000000001,-277.88099999999997,-5235.3299999999999
168700.0,44101.400000000001,45620.599999999999,3947.4099999999999,14148.5,-12467.4,-2730.0599999999999,-3681.4400000000001
168701.0,41554.699999999997,41914.900000000001,3146.6199999999999,11551.799999999999,-11321.200000000001,-5070.5500000000002,-2406.6100000000001
168702.0,39959.599999999999,38680.599999999999,2475.5100000000002,9498.8299999999999,-10416.200000000001,-7317.5699999999997,-1262.6600000000001
168703.0,38883.199999999997,35958.800000000003,2111.0599999999999,8271.25,-9595.5499999999993,-9315.0,-295.21100000000001
168704.0,38342.400000000001,33353.300000000003,1559.02,7558.04,-8852.7099999999991,-11229.9,435.00400000000002
168705.0,69538.399999999994,80589.399999999994,9347.2800000000007,53577.400000000001,-14373.799999999999,-3636.5799999999999,-9923.0900000000001
168706.0,67272.0,75453.399999999994,8494.2199999999993,56343.699999999997,-13081.0,-2656.77,-11858.4
168707.0,63565.699999999997,71425.800000000003,10478.1,56428.5,-12803.6,665.88599999999997,-13190.700000000001
168708.0,61693.900000000001,66653.300000000003,9103.5300000000007,50504.699999999997,-13815.9,4123.8299999999999,-13404.9
168709.0,59385.599999999999,63358.099999999999,8536.0200000000004,43034.300000000003,-14845.0,5934.2600000000002,-12322.799999999999
168710.0,56952.599999999999,60800.300000000003,7810.5100000000002,35258.0,-15312.1,5747.8699999999999,-10555.5
168711.0,54430.199999999997,58155.300000000003,6809.7200000000003,28215.700000000001,-15283.9,3840.1300000000001,-8604.8799999999992
168712.0,51476.800000000003,54643.400000000001,5873.6999999999998,22298.900000000001,-14940.299999999999,981.35400000000004,-6585.8900000000003
168713.0,47736.400000000001,50025.699999999997,4850.6999999999998,17657.700000000001,-13870.6,-1819.03,-4669.5799999999999
168714.0,44573.400000000001,45820.199999999997,3907.6399999999999,14384.6,-12564.9,-4323.5200000000004,-3150.1300000000001
168715.0,42572.099999999999,42220.400000000001,3060.6100000000001,11868.799999999999,-11555.700000000001,-6693.5600000000004,-1934.3299999999999
168716.0,41200.699999999997,39303.199999999997,2683.1500000000001,10370.4,-10689.299999999999,-8823.8400000000001,-915.27700000000004
168717.0,40387.099999999999,36453.300000000003,2051.8699999999999,9447.4200000000001,-9917.0,-10836.700000000001,-118.155
168718.0,70683.600000000006,86032.199999999997,13714.700000000001,56651.199999999997,-16701.700000000001,-6553.7799999999997,-4552.4700000000003
168719.0,69787.0,78801.0,9249.8600000000006,63408.800000000003,-13537.9,-6751.6800000000003,-7743.8999999999996
168720.0,68953.399999999994,73104.0,8769.8500000000004,68030.399999999994,-12411.799999999999,-2142.5999999999999,-12116.4
168721.0,67939.699999999997,70504.800000000003,9982.1100000000006,64298.599999999999,-13556.1,3883.8499999999999,-15202.6
168722.0,65465.400000000001,68684.0,10871.5,55162.0,-15289.0,7120.8800000000001,-15154.200000000001
168723.0,62597.599999999999,65570.899999999994,9248.2700000000004,44170.599999999999,-16451.299999999999,7324.2200000000003,-13174.5
168724.0,59313.0,63130.300000000003,8239.8299999999999,35208.599999999999,-16580.799999999999,5545.5699999999997,-10662.200000000001
168725.0,56066.400000000001,59707.900000000001,6887.9399999999996,27514.400000000001,-16306.700000000001,2487.48,-8190.3000000000002
168726.0,52123.400000000001,55088.900000000001,5846.4700000000003,21702.599999999999,-15440.6,-721.08600000000001,-5905.0900000000001
168727.0,48246.099999999999,50220.800000000003,4760.6999999999998,17498.599999999999,-14049.299999999999,-3496.6100000000001,-4043.7199999999998
168728.0,45578.800000000003,46189.900000000001,3798.8200000000002,14586.9,-12823.5,-5964.1999999999998,-2665.6100000000001
168729.0,43867.400000000001,43054.900000000001,3318.6799999999998,12810.799999999999,-11867.9,-8210.0900000000001,-1602.98
168730.0,42837.400000000001,40008.300000000003,2612.8699999999999,11660.1,-11104.799999999999,-10352.6,-735.40200000000004
168731.0,74651.300000000003,65536.199999999997,166.91900000000001,37105.699999999997,-25871.599999999999,-8312.5799999999999,6696.5900000000001
168732.0,65265.900000000001,66769.899999999994,5151.8400000000001,52607.300000000003,-16257.200000000001,-7614.1099999999997,7486.1300000000001
168733.0,61641.800000000003,71223.0,12965.700000000001,72543.0,-9574.5100000000002,-3284.8699999999999,-2567.7199999999998
168734.0,70198.399999999994,70730.600000000006,10396.799999999999,75845.899999999994,-11727.1,4230.0,-12735.799999999999
168735.0,72800.199999999997,71738.5,10819.1,68432.699999999997,-15194.799999999999,9029.8700000000008,-16752.0
168736.0,70117.399999999994,71826.600000000006,11807.1,56255.800000000003,-17685.099999999999,9791.8099999999995,-16127.4
168737.0,65725.600000000006,69155.399999999994,10281.200000000001,43804.400000000001,-18300.900000000001,7680.5799999999999,-13188.200000000001
168738.0,61487.599999999999,65686.699999999997,8605.2800000000007,34129.400000000001,-17936.200000000001,4302.6099999999997,-10120.1
168739.0,57250.5,60922.599999999999,7084.3199999999997,26622.200000000001,-17180.900000000001,615.47299999999996,-7360.5799999999999
168740.0,52665.0,55395.099999999999,5866.8000000000002,21285.799999999999,-15800.200000000001,-2557.8499999999999,-5096.3900000000003
168741.0,49150.5,50598.900000000001,4627.6000000000004,17617.599999999999,-14301.9,-5200.5,-3467.5799999999999
168742.0,46891.599999999999,47086.5,3967.0700000000002,15535.700000000001,-13153.1,-7518.8000000000002,-2304.6199999999999
168743.0,45643.099999999999,43928.400000000001,3177.2600000000002,14122.799999999999,-12355.200000000001,-9749.7299999999996,-1384.52
168744.0,81413.100000000006,30906.400000000001,-26440.799999999999,1672.6099999999999,-33878.0,-15259.4,2552.8200000000002
168745.0,74841.100000000006,7530.7700000000004,-37660.699999999997,-715.92399999999998,-26602.5,-9824.1599999999999,21992.200000000001
168746.0,65964.699999999997,33024.699999999997,-11427.6,41133.300000000003,-10427.0,-2187.4299999999998,23156.099999999999
168747.0,62882.300000000003,57736.699999999997,5653.6899999999996,72624.100000000006,-5495.0,6703.8199999999997,2524.2399999999998
168748.0,75395.0,72734.899999999994,12697.6,79730.100000000006,-12651.200000000001,13132.700000000001,-14299.799999999999
168749.0,79237.800000000003,77078.5,12284.0,68154.100000000006,-18478.599999999999,13543.6,-18296.099999999999
168750.0,74447.100000000006,76154.600000000006,12504.299999999999,54563.800000000003,-20623.099999999999,10493.4,-16256.799999999999
168751.0,68591.5,72298.100000000006,10266.1,41768.099999999999,-20167.599999999999,6527.9899999999998,-12523.9
168752.0,63120.900000000001,67289.300000000003,8530.5100000000002,32443.900000000001,-19169.5,2186.3600000000001,-9095.4300000000003
168753.0,57932.699999999997,61216.900000000001,6951.6700000000001,25613.799999999999,-17774.799999999999,-1469.0,-6366.6899999999996
168754.0,53391.400000000001,55665.699999999997,5707.5699999999997,21166.400000000001,-16042.799999999999,-4433.1800000000003,-4361.2600000000002
168755.0,50319.300000000003,51559.699999999997,4864.0100000000002,18592.599999999999,-14571.6,-6842.5200000000004,-2982.4000000000001
168756.0,48761.099999999999,48208.199999999997,3871.7600000000002,16801.099999999999,-13596.9,-9146.3999999999996,-2033.5999999999999
168757.0,86768.300000000003,36354.099999999999,-13984.799999999999,-1078.6700000000001,-33250.400000000001,-22387.299999999999,-14804.299999999999
168758.0,68352.399999999994,-52238.400000000001,-71496.800000000003,-59901.199999999997,-32596.700000000001,-18429.799999999999,7818.9499999999998
168759.0,68538.699999999997,-58517.599999999999,-80198.300000000003,-46167.0,-12364.5,-3891.29,33181.900000000001
168760.0,73853.800000000003,11611.700000000001,-27308.599999999999,31213.299999999999,5347.8999999999996,10640.799999999999,28089.099999999999
168761.0,72141.5,60067.599999999999,4627.6300000000001,75009.600000000006,-4201.1700000000001,18494.5,-143.989
168762.0,87436.399999999994,81360.5,12317.1,79549.800000000003,-17931.5,19179.200000000001,-17623.200000000001
168763.0,85731.199999999997,85404.199999999997,15630.700000000001,67475.699999999997,-23399.5,15060.5,-19043.299999999999
168764.0,77776.300000000003,80515.300000000003,12597.200000000001,51098.800000000003,-23298.200000000001,9244.1599999999999,-15100.6
168765.0,70301.899999999994,74970.300000000003,10640.9,39727.699999999997,-21667.700000000001,4112.21,-11105.200000000001
168766.0,64068.900000000001,67999.0,8347.6599999999999,30809.599999999999,-19982.900000000001,-391.08699999999999,-7820.5200000000004
168767.0,58402.099999999999,61427.199999999997,6928.2200000000003,25214.200000000001,-17999.0,-3744.4899999999998,-5444.0
168768.0,54312.400000000001,56339.699999999997,5815.7399999999998,21762.099999999999,-16146.4,-6397.8999999999996,-3813.5900000000001
168769.0,52294.599999999999,52711.400000000001,4651.7200000000003,19676.900000000001,-14938.299999999999,-8725.1399999999994,-2798.6100000000001
168770.0,102470.0,63327.400000000001,2029.5999999999999,27358.200000000001,-33437.300000000003,-28265.5,-25183.799999999999
168771.0,76108.300000000003,-50932.099999999999,-45215.099999999999,-57439.400000000001,-29628.599999999999,-28103.700000000001,-15024.700000000001
168772.0,54126.800000000003,-141333.0,-113176.0,-120467.0,-20177.200000000001,-10442.4,15711.4
168773.0,87561.199999999997,-89841.600000000006,-112748.0,-72295.300000000003,14081.6,14507.200000000001,41658.300000000003
168774.0,86714.899999999994,31643.700000000001,-18884.299999999999,44261.400000000001,19594.700000000001,24079.799999999999,20642.0
168775.0,87142.899999999994,83079.100000000006,15421.299999999999,84639.300000000003,-13800.700000000001,25048.0,-12311.799999999999
168776.0,100601.0,94084.899999999994,13041.299999999999,76836.600000000006,-25839.0,21540.700000000001,-20476.299999999999
168777.0,88828.399999999994,91581.5,17022.099999999999,62496.0,-27228.099999999999,12469.299999999999,-17920.799999999999
168778.0,79875.100000000006,83827.600000000006,12194.6,47146.300000000003,-24971.299999999999,6188.4499999999998,-13481.1
168779.0,71043.199999999997,75984.399999999994,10492.0,37109.199999999997,-22543.5,503.87799999999999,-9438.1900000000005
168780.0,64333.900000000001,67918.899999999994,8104.2299999999996,29732.599999999999,-20186.0,-3366.8099999999999,-6596.1599999999999
168781.0,58821.300000000003,61672.900000000001,7036.9799999999996,25668.799999999999,-17905.700000000001,-6322.6300000000001,-4615.9899999999998
168782.0,56007.099999999999,57139.400000000001,5387.9300000000003,22767.5,-16389.099999999999,-8479.0100000000002,-3389.3200000000002
168783.0,107370.0,93417.800000000003,17197.099999999999,105240.0,-36236.5,-12878.0,-8963.5
168784.0,131897.0,122415.0,23409.400000000001,123674.0,-47435.699999999997,-10443.700000000001,-11412.4
168785.0,166295.0,162277.0,33376.699999999997,147934.0,-62863.800000000003,-8809.2900000000009,-14065.299999999999
168786.0,214737.0,215820.0,45103.300000000003,177224.0,-83641.600000000006,-8400.8299999999999,-17008.700000000001
168787.0,276352.0,287393.0,58803.0,213934.0,-106498.0,-9878.4200000000001,-19951.400000000001
168788.0,336625.0,362701.0,63332.900000000001,247015.0,-119802.0,-12428.799999999999,-21782.599999999999
168789.0,360342.0,414416.0,56894.900000000001,265617.0,-102070.0,-17040.400000000001,-17859.900000000001
168790.0,309217.0,369919.0,23613.5,232955.0,-31148.599999999999,-21945.400000000001,-1248.8499999999999
168791.0,271654.0,168233.0,-21078.700000000001,119549.0,111783.0,-34296.099999999999,35535.5
168792.0,452056.0,-261875.0,-251792.0,-200718.0,241976.0,-43822.400000000001,81057.100000000006
168793.0,434157.0,-719461.0,-413294.0,-514880.0,164161.0,-58436.699999999997,90268.899999999994
168794.0,515669.0,-763791.0,-204425.0,-463962.0,29832.900000000001,-63578.699999999997,73130.699999999997
168795.0,412434.0,-512131.0,-54096.400000000001,-290520.0,-31388.5,-29832.200000000001,48560.5
168796.0,104200.0,88750.199999999997,15539.0,99091.399999999994,-34636.5,-16632.799999999999,-8260.2700000000004
168797.0,128576.0,117665.0,21649.700000000001,117346.0,-46119.199999999997,-14154.799999999999,-10973.5
168798.0,164128.0,157961.0,31088.599999999999,140712.0,-62447.5,-11940.4,-14205.799999999999
168799.0,215771.0,214466.0,43799.900000000001,170419.0,-85082.699999999997,-10478.0,-17894.299999999999
168800.0,284217.0,290801.0,55725.599999999999,204227.0,-110515.0,-10720.9,-21519.0
168801.0,350146.0,377134.0,62492.0,236140.0,-123487.0,-14568.799999999999,-23819.799999999999
168802.0,376162.0,428687.0,46849.800000000003,237608.0,-98565.0,-22265.0,-22481.299999999999
168803.0,320597.0,387966.0,27505.799999999999,196894.0,-14592.9,-36989.300000000003,-12547.4
168804.0,309064.0,164736.0,-41933.900000000001,63846.5,129905.0,-62559.5,19264.099999999999
168805.0,430888.0,-269710.0,-222151.0,-200622.0,224339.0,-76549.5,66712.0
168806.0,468686.0,-646982.0,-271149.0,-383721.0,159710.0,-72361.600000000006,72622.300000000003
168807.0,510976.0,-679271.0,-116204.0,-337629.0,47505.199999999997,-59046.0,28699.299999999999
168808.0,382825.0,-441585.0,-7400.8000000000002,-191574.0,-26828.900000000001,-25127.299999999999,-3207.0500000000002
168809.0,99506.0,85115.699999999997,14996.799999999999,91471.5,-32582.900000000001,-19370.299999999999,-7919.7200000000003
168810.0,123453.0,113582.0,20995.900000000001,109627.0,-44052.699999999997,-16739.799999999999,-10901.4
168811.0,158974.0,154300.0,31328.599999999999,133526.0,-60784.0,-13485.799999999999,-14652.299999999999
168812.0,213117.0,212636.0,44831.400000000001,163200.0,-85025.600000000006,-10013.299999999999,-19348.400000000001
168813.0,286678.0,294944.0,59757.599999999999,198514.0,-113040.0,-6464.04,-24444.400000000001
168814.0,360527.0,388898.0,64462.699999999997,222355.0,-127386.0,-5140.1899999999996,-27423.799999999999
168815.0,388344.0,449178.0,49142.199999999997,208955.0,-94659.5,-11389.5,-25182.5
168816.0,342690.0,377420.0,2183.5999999999999,107240.0,20217.0,-29026.200000000001,-20528.799999999999
168817.0,419670.0,116198.0,-47587.5,-102145.0,206628.0,-53287.900000000001,-16133.0
168818.0,653613.0,-296130.0,-99921.399999999994,-377105.0,339456.0,-73941.0,-37300.400000000001
168819.0,733362.0,-685262.0,-124484.0,-570900.0,274917.0,-85361.399999999994,-92739.600000000006
168820.0,684245.0,-764006.0,-59261.699999999997,-507573.0,102237.0,-70145.600000000006,-116004.0
168821.0,469577.0,-487993.0,19718.299999999999,-257174.0,-23991.099999999999,-17387.5,-89462.699999999997
168822.0,94238.699999999997,81654.5,14186.200000000001,82395.699999999997,-30372.299999999999,-21163.299999999999,-7468.1300000000001
168823.0,117359.0,108290.0,19446.799999999999,99820.800000000003,-41577.199999999997,-18391.5,-10954.299999999999
168824.0,152531.0,148388.0,29923.599999999999,124534.0,-58141.300000000003,-14507.4,-15451.5
168825.0,206640.0,204777.0,43151.5,154274.0,-82771.0,-8467.5200000000004,-21762.400000000001
168826.0,283646.0,288932.0,58776.199999999997,190530.0,-112369.0,-277.89600000000002,-29252.900000000001
168827.0,359311.0,383629.0,65824.100000000006,212989.0,-128011.0,12018.200000000001,-34751.599999999999
168828.0,396034.0,448276.0,45001.0,179244.0,-93676.899999999994,21164.799999999999,-29766.5
168829.0,357933.0,368176.0,6176.7600000000002,36522.300000000003,44980.0,15921.299999999999,-10112.4
168830.0,654057.0,-16767.200000000001,-131922.0,-328529.0,342284.0,570.08100000000002,-24212.299999999999
168831.0,1064470.0,-747016.0,-513060.0,-989881.0,550580.0,-39386.400000000001,-127146.0
168832.0,1073260.0,-1343610.0,-616947.0,-1378130.0,365014.0,-98523.100000000006,-237168.0
168833.0,1017840.0,-1198940.0,-211525.0,-1025360.0,93675.600000000006,-95088.199999999997,-222731.0
168834.0,658672.0,-630686.0,34735.699999999997,-478473.0,-38418.199999999997,-12989.299999999999,-146340.0
168835.0,88253.100000000006,78019.399999999994,12871.4,71873.100000000006,-28070.599999999999,-21673.5,-6680.5799999999999
168836.0,109818.0,103418.0,18855.200000000001,89180.199999999997,-38637.699999999997,-19111.900000000001,-10583.9
168837.0,143305.0,140237.0,27437.0,112154.0,-54090.599999999999,-14646.0,-16027.5
168838.0,194065.0,194378.0,42805.699999999997,144328.0,-77241.199999999997,-7114.2299999999996,-23928.099999999999
168839.0,269306.0,270352.0,54536.5,177837.0,-105915.0,7032.5600000000004,-34420.300000000003
168840.0,341562.0,363163.0,69785.300000000003,208475.0,-121239.0,28616.400000000001,-42797.900000000001
168841.0,383213.0,408110.0,36003.699999999997,163058.0,-87043.0,62769.5,-40721.800000000003
168842.0,358172.0,325552.0,10016.9,11892.200000000001,46960.199999999997,86846.5,-4854.4200000000001
168843.0,737582.0,-141467.0,-185522.0,-423063.0,378544.0,86115.300000000003,87678.100000000006
168844.0,1153220.0,-1222910.0,-953966.0,-1445520.0,604568.0,62818.0,115204.0
168845.0,1045130.0,-2039600.0,-1160640.0,-2066450.0,311956.0,-23413.0,-24499.400000000001
168846.0,1219820.0,-1668690.0,-407636.0,-1518810.0,5938.3800000000001,-81469.399999999994,-121412.0
168847.0,815295.0,-801633.0,3004.9200000000001,-744982.0,-80596.100000000006,-21769.299999999999,-113622.0
168848.0,82846.800000000003,75747.300000000003,12286.200000000001,62913.400000000001,-26068.900000000001,-21228.200000000001,-5637.7299999999996
168849.0,102624.0,97788.5,16667.599999999999,77361.0,-35781.300000000003,-18907.099999999999,-9618.7299999999996
168850.0,132123.0,132035.0,25945.400000000001,100174.0,-49124.800000000003,-14120.6,-15582.5
168851.0,178176.0,177935.0,37160.199999999997,128083.0,-69660.0,-5744.9700000000003,-24530.299999999999
168852.0,243422.0,245444.0,52745.400000000001,166674.0,-94138.199999999997,11364.700000000001,-37069.900000000001
168853.0,314057.0,315786.0,52737.699999999997,189964.0,-107610.0,40074.599999999999,-48806.0
168854.0,347340.0,345562.0,32783.599999999999,173515.0,-78763.300000000003,85639.100000000006,-46239.5
168855.0,343006.0,223094.0,-44223.0,19002.700000000001,32184.200000000001,136567.0,-3618.5999999999999
168856.0,651177.0,-154906.0,-105332.0,-315447.0,287632.0,157899.0,147024.0
168857.0,1181040.0,-1045980.0,-653476.0,-1158000.0,508955.0,160410.0,331658.0
168858.0,1106600.0,-1976990.0,-1064070.0,-1938890.0,238266.0,73527.100000000006,281617.0
168859.0,1225530.0,-1752900.0,-478679.0,-1589910.0,-80225.699999999997,-46983.5,105649.0
168860.0,848238.0,-845406.0,-32861.699999999997,-841471.0,-137934.0,-41827.300000000003,6715.5600000000004
168861.0,78393.199999999997,73708.899999999994,11161.4,54391.5,-24333.5,-20156.0,-4941.3599999999997
168862.0,95808.800000000003,93234.199999999997,14998.4,66952.199999999997,-32811.099999999999,-17880.900000000001,-8851.5400000000009
168863.0,120889.0,123144.0,23380.299999999999,87357.100000000006,-43886.699999999997,-13277.9,-14649.799999999999
168864.0,159763.0,161119.0,32296.299999999999,112234.0,-60791.800000000003,-4251.0699999999997,-23773.900000000001
168865.0,213160.0,216351.0,47635.400000000001,150345.0,-80588.199999999997,11944.700000000001,-35778.0
168866.0,276152.0,264836.0,39281.5,176366.0,-92233.600000000006,42523.0,-46788.300000000003
168867.0,303465.0,279019.0,28923.299999999999,184182.0,-73726.399999999994,86590.199999999997,-42687.599999999999
168868.0,307092.0,173420.0,-34023.0,100592.0,8203.1499999999996,142437.0,-1816.3199999999999
168869.0,457676.0,-135505.0,-97738.100000000006,-129204.0,175529.0,164887.0,106841.0
168870.0,879039.0,-724579.0,-365696.0,-653543.0,337350.0,149879.0,291864.0
168871.0,995826.0,-1361610.0,-615455.0,-1225290.0,171894.0,77035.600000000006,370409.0
168872.0,1044360.0,-1327520.0,-331965.0,-1170540.0,-97670.100000000006,-33309.099999999999,257722.0
168873.0,765334.0,-673016.0,-13000.200000000001,-687043.0,-170206.0,-67467.5,115606.0
168874.0,74349.0,71831.0,10075.5,46785.599999999999,-22849.900000000001,-18318.299999999999,-4487.71
168875.0,89041.899999999994,88959.399999999994,13828.299999999999,57642.900000000001,-29888.700000000001,-16107.299999999999,-8114.9399999999996
168876.0,110343.0,113787.0,19950.599999999999,74263.100000000006,-39016.400000000001,-11583.0,-13511.0
168877.0,141055.0,145439.0,28775.799999999999,97546.300000000003,-52017.900000000001,-3388.4299999999998,-21815.0
168878.0,184781.0,186855.0,38448.400000000001,128976.0,-67722.0,11044.700000000001,-32834.5
168879.0,231984.0,228675.0,43174.300000000003,166344.0,-76901.600000000006,35786.300000000003,-42816.0
168880.0,257659.0,234995.0,31666.299999999999,189317.0,-60868.0,71109.5,-44580.099999999999
168881.0,256317.0,153335.0,-4997.8599999999997,169102.0,-5704.5500000000002,110495.0,-19657.400000000001
168882.0,312880.0,-72204.100000000006,-80696.699999999997,49474.400000000001,82515.199999999997,127094.0,66075.399999999994
168883.0,525929.0,-435558.0,-202208.0,-215171.0,156733.0,100187.0,200996.0
168884.0,662859.0,-750537.0,-278132.0,-520045.0,108762.0,26473.099999999999,279515.0
168885.0,672256.0,-769432.0,-189638.0,-626511.0,-59511.400000000001,-60528.400000000001,228466.0
168886.0,566964.0,-386995.0,16463.799999999999,-401567.0,-156447.0,-98231.0,129361.0
168887.0,70707.899999999994,69874.899999999994,9154.0200000000004,40479.900000000001,-21602.400000000001,-16148.4,-4127.7799999999997
168888.0,83150.800000000003,84627.0,12397.6,49371.099999999999,-27472.5,-13863.9,-7295.0100000000002
168889.0,100631.0,105461.0,17652.299999999999,63525.5,-34796.900000000001,-9475.8099999999995,-12084.6
168890.0,125194.0,130886.0,24431.799999999999,82725.699999999997,-44816.300000000003,-2321.8899999999999,-19208.099999999999
168891.0,159280.0,163860.0,33304.400000000001,110714.0,-56543.300000000003,9641.9500000000007,-29264.099999999999
168892.0,194390.0,195824.0,37585.599999999999,143038.0,-61026.199999999997,27028.700000000001,-40620.300000000003
168893.0,207215.0,199653.0,33390.0,172269.0,-42272.599999999999,50053.400000000001,-45536.300000000003
168894.0,206480.0,130028.0,-2723.8800000000001,165130.0,810.67200000000003,70694.399999999994,-37075.800000000003
168895.0,208010.0,-7670.25,-39997.300000000003,123314.0,38810.800000000003,73663.399999999994,-3370.4400000000001
168896.0,278098.0,-169148.0,-40673.0,67143.0,66458.699999999997,43925.199999999997,73752.800000000003
168897.0,372942.0,-331195.0,-109993.0,-78406.600000000006,63735.900000000001,-14950.4,152002.0
168898.0,362762.0,-378567.0,-147044.0,-225509.0,-38151.800000000003,-82948.699999999997,147191.0
168899.0,360836.0,-149753.0,1850.76,-144509.0,-120657.0,-116953.0,88087.100000000006
168900.0,67452.699999999997,68121.0,8658.2199999999993,35685.699999999997,-20479.5,-13973.0,-3945.9899999999998
168901.0,78011.0,80255.800000000003,10898.5,42589.599999999999,-25397.599999999999,-11537.299999999999,-6696.6800000000003
168902.0,92221.899999999994,98001.699999999997,15833.0,54841.599999999999,-31206.5,-7461.4099999999999,-10774.200000000001
168903.0,112061.0,117789.0,20294.599999999999,70007.5,-39019.099999999999,-810.21699999999998,-16916.299999999999
168904.0,137808.0,144388.0,29326.400000000001,94300.100000000006,-47811.599999999999,9026.5400000000009,-25192.299999999999
168905.0,164893.0,166838.0,27361.099999999999,116205.0,-49423.699999999997,22389.799999999999,-33677.400000000001
168906.0,160937.0,163793.0,26758.400000000001,133518.0,-23610.5,35884.0,-40078.699999999997
168907.0,172820.0,88847.100000000006,-30205.799999999999,98528.899999999994,26080.400000000001,45420.599999999999,-45522.800000000003
168908.0,166003.0,-37876.099999999999,-83758.800000000003,53135.800000000003,30661.599999999999,32942.900000000001,-48016.599999999999
168909.0,173504.0,-89274.300000000003,-23960.599999999999,98631.100000000006,25012.200000000001,-2838.9000000000001,-17332.200000000001
168910.0,209340.0,-95845.600000000006,-15850.0,105635.0,32547.400000000001,-39243.900000000001,41428.699999999997
168911.0,218163.0,-113997.0,-72470.0,20084.099999999999,-23696.799999999999,-78808.300000000003,66192.100000000006
168912.0,247647.0,-1186.4300000000001,-17787.099999999999,24018.099999999999,-82117.899999999994,-105999.0,44952.199999999997
168913.0,64438.699999999997,65664.899999999994,7715.8000000000002,31443.599999999999,-19469.900000000001,-11901.799999999999,-3831.8800000000001
168914.0,73147.300000000003,76044.300000000003,9866.6399999999994,37428.900000000001,-23461.099999999999,-9465.9300000000003,-6198.9300000000003
168915.0,84788.100000000006,90265.5,13501.6,47107.699999999997,-28109.5,-5610.6199999999999,-9692.3500000000004
168916.0,100176.0,106279.0,17623.799999999999,60208.800000000003,-34011.800000000003,461.00299999999999,-14903.6
168917.0,120389.0,126272.0,24242.900000000001,79439.899999999994,-40862.0,9132.2099999999991,-21674.200000000001
168918.0,140950.0,144384.0,25405.099999999999,97853.899999999994,-42285.599999999999,21818.599999999999,-27626.599999999999
168919.0,131114.0,136991.0,16626.5,103810.0,-16136.700000000001,30673.799999999999,-25769.299999999999
168920.0,140469.0,33652.900000000001,-75669.5,27772.5,33587.0,34644.699999999997,-21628.700000000001
168921.0,127812.0,-100920.0,-145635.0,-58710.099999999999,40025.800000000003,20000.900000000001,-39416.400000000001
168922.0,139924.0,-118428.0,-68783.699999999997,-11611.299999999999,18387.700000000001,-15306.4,-55647.599999999999
168923.0,151116.0,-50934.0,-3084.5900000000001,79275.0,11177.799999999999,-46436.099999999999,-31510.299999999999
168924.0,160723.0,14683.1,-12829.799999999999,105679.0,-14820.799999999999,-67409.100000000006,-16.259799999999998
168925.0,196608.0,90243.300000000003,-4585.6499999999996,109940.0,-51539.099999999999,-80201.100000000006,6854.7299999999996
168926.0,61723.0,63565.800000000003,7212.6300000000001,28666.900000000001,-18529.900000000001,-10160.0,-3787.3000000000002
168927.0,68409.800000000003,71506.100000000006,8799.25,33137.599999999999,-21603.799999999999,-7811.6800000000003,-5725.3000000000002
168928.0,77803.800000000003,82938.699999999997,11676.6,40935.400000000001,-25335.900000000001,-4236.8500000000004,-8651.1200000000008
168929.0,89206.800000000003,95172.5,15073.0,51577.400000000001,-29594.200000000001,1198.27,-12930.4
168930.0,105359.0,109975.0,19352.599999999999,66991.399999999994,-34886.800000000003,8897.7800000000007,-18680.700000000001
168931.0,120714.0,122591.0,23066.299999999999,85522.699999999997,-36791.300000000003,20219.5,-23765.900000000001
168932.0,118364.0,117931.0,10988.9,86770.600000000006,-21884.700000000001,30258.599999999999,-15823.299999999999
168933.0,103166.0,49215.800000000003,-31148.400000000001,43576.900000000001,15606.700000000001,35014.099999999999,8114.0299999999997
168934.0,114402.0,-103654.0,-148405.0,-83025.399999999994,49889.199999999997,26459.099999999999,7516.0900000000001
168935.0,80994.100000000006,-204450.0,-183039.0,-157126.0,18105.400000000001,-8794.4799999999996,-34928.0
168936.0,135560.0,-108958.0,-48671.099999999999,-37558.300000000003,-9889.6299999999992,-44338.099999999999,-50850.800000000003
168937.0,128831.0,24971.099999999999,-1537.3800000000001,69965.899999999994,-12897.9,-53510.900000000001,-34583.5
168938.0,164159.0,113301.0,4333.4499999999998,113045.0,-35865.900000000001,-56469.800000000003,-23639.299999999999
168939.0,59053.800000000003,60604.300000000003,6136.1899999999996,25655.200000000001,-17582.5,-8857.0699999999997,-3650.1100000000001
168940.0,63611.800000000003,66942.199999999997,8091.8900000000003,29600.099999999999,-19736.5,-6749.6099999999997,-5196.2700000000004
168941.0,71010.899999999994,74968.899999999994,9347.0400000000009,34734.099999999999,-22689.200000000001,-3530.04,-7658.9499999999998
168942.0,79417.100000000006,85409.699999999997,13142.299999999999,44469.099999999999,-25756.200000000001,1118.8099999999999,-11152.4
168943.0,91872.100000000006,95352.100000000006,14760.1,55918.300000000003,-29483.299999999999,7871.5900000000001,-16070.1
168944.0,102849.0,106334.0,21905.799999999999,75485.600000000006,-31818.799999999999,16298.5,-20562.0
168945.0,112179.0,105409.0,11219.1,80829.300000000003,-25880.799999999999,27757.299999999999,-19170.599999999999
168946.0,82383.899999999994,83144.300000000003,20604.900000000001,80101.0,-1938.54,31841.0,1180.4200000000001
168947.0,121583.0,-29356.099999999999,-74898.5,-18391.700000000001,44883.5,30127.0,33277.699999999997
168948.0,51878.699999999997,-199344.0,-204391.0,-175591.0,14630.1,8128.6000000000004,19506.299999999999
168949.0,94028.399999999994,-165918.0,-101538.0,-124383.0,-26313.400000000001,-28745.799999999999,-19054.599999999999
168950.0,97202.600000000006,-12997.1,-15395.700000000001,-2209.0500000000002,-21321.400000000001,-40382.199999999997,-31855.700000000001
168951.0,133550.0,89349.600000000006,-1086.8199999999999,68303.600000000006,-33396.800000000003,-39337.800000000003,-32294.200000000001
168952.0,519419.0,-815313.0,-283384.0,-717519.0,80322.699999999997,-17334.299999999999,-54915.5
168953.0,433080.0,-686728.0,-262636.0,-593016.0,93628.0,-19975.200000000001,-61016.400000000001
168954.0,344173.0,-535037.0,-218405.0,-443965.0,85037.800000000003,-25492.0,-70940.0
168955.0,244112.0,-382414.0,-173529.0,-284893.0,63881.0,-26594.599999999999,-64429.400000000001
168956.0,169140.0,-246580.0,-136085.0,-138873.0,41405.0,-27376.099999999999,-55701.800000000003
168957.0,130326.0,-119162.0,-80443.5,-14124.4,22657.799999999999,-25274.299999999999,-41082.199999999997
168958.0,111973.0,-30545.200000000001,-41896.400000000001,64062.699999999997,6325.5600000000004,-21384.900000000001,-17248.799999999999
168959.0,110331.0,14943.6,-25366.5,93391.5,-6131.3400000000001,-19184.799999999999,-2221.1599999999999
168960.0,102003.0,41040.300000000003,-9383.9599999999991,99552.699999999997,-14672.299999999999,-16578.900000000001,2418.1999999999998
168961.0,92198.300000000003,58055.800000000003,4198.0799999999999,98798.300000000003,-19874.599999999999,-13448.9,2450.04
168962.0,83715.899999999994,70650.199999999997,15136.5,96660.399999999994,-22129.799999999999,-10424.200000000001,1909.98
168963.0,76297.199999999997,72934.100000000006,19413.0,87221.699999999997,-24364.400000000001,-7359.54,3854.3299999999999
168964.0,70275.5,54732.599999999999,12690.799999999999,60064.699999999997,-29423.799999999999,-3295.73,9809.4599999999991
168965.0,71574.399999999994,9226.0400000000009,-3800.52,9245.8500000000004,-36971.900000000001,2999.9899999999998,16585.099999999999
168966.0,86015.899999999994,-48959.300000000003,-19686.0,-48098.099999999999,-44066.5,8544.0200000000004,13187.200000000001
168967.0,101011.0,-86017.399999999994,-24674.400000000001,-78091.800000000003,-45583.099999999999,9181.7199999999993,-11214.9
168968.0,113218.0,-77791.899999999994,-14943.9,-61945.300000000003,-40578.0,6611.3400000000001,-38911.699999999997
168969.0,100020.0,-29637.200000000001,4653.6300000000001,-11030.799999999999,-30838.299999999999,5269.6800000000003,-45400.5
168970.0,64531.5,22200.700000000001,22967.799999999999,39313.099999999999,-21407.599999999999,7694.6800000000003,-27877.900000000001
168971.0,41582.199999999997,45933.0,32772.099999999999,56525.199999999997,-16323.799999999999,11992.200000000001,-4947.6800000000003
168972.0,46370.699999999997,25046.799999999999,15781.799999999999,24565.700000000001,-14824.9,17606.099999999999,12641.0
168973.0,48821.5,-35846.099999999999,-49301.0,-38187.099999999999,-15184.700000000001,17553.400000000001,14287.9
168974.0,35599.5,-49648.699999999997,-74180.100000000006,-54625.0,-8279.1000000000004,9399.8199999999997,-9868.2199999999993
168975.0,34824.900000000001,-2974.6500000000001,-23197.900000000001,-16525.900000000001,-761.07600000000002,7923.5799999999999,-15320.1
168976.0,23559.099999999999,15994.200000000001,-3612.7399999999998,5069.9099999999999,-79.063500000000005,9331.5900000000001,-1182.78
168977.0,25974.599999999999,15452.9,-9690.2000000000007,7648.9399999999996,1098.5599999999999,7557.8500000000004,971.82899999999995
168978.0,24574.599999999999,19012.700000000001,-5153.0299999999997,10156.0,1035.28,7123.7299999999996,-135.696
168979.0,23319.200000000001,20394.200000000001,-2750.46,12078.6,-1392.95,6371.5699999999997,-1127.1700000000001
168980.0,22461.599999999999,22085.200000000001,689.75699999999995,14015.9,-3783.54,5999.1300000000001,-1061.3299999999999
168981.0,22076.0,21932.0,2012.49,14321.799999999999,-5214.5799999999999,5846.4200000000001,-200.685
168982.0,21414.799999999999,20987.400000000001,2030.5999999999999,13520.0,-5474.3100000000004,5630.8999999999996,-20.698
168983.0,20435.700000000001,19765.400000000001,1926.1900000000001,12128.799999999999,-5317.0799999999999,5552.1700000000001,-29.471900000000002
168984.0,19499.900000000001,18571.799999999999,1657.98,10677.5,-5077.1599999999999,5415.9499999999998,-116.06100000000001
168985.0,18575.700000000001,17427.0,1431.23,9235.8099999999995,-4796.0100000000002,5291.8599999999997,-187.86600000000001
168986.0,17649.299999999999,16335.700000000001,1255.1500000000001,7846.96,-4495.1499999999996,5138.0100000000002,-267.267
168987.0,16732.900000000001,15271.5,1109.3099999999999,6582.8800000000001,-4196.71,4958.6099999999997,-355.40800000000002
168988.0,15844.799999999999,14208.700000000001,968.06100000000004,5441.9099999999999,-3911.3899999999999,4778.3400000000001,-436.00099999999998
168989.0,14987.299999999999,13173.6,853.84000000000003,4417.3800000000001,-3630.4099999999999,4609.21,-507.13499999999999
168990.0,14154.9,12147.299999999999,730.62800000000004,3458.3000000000002,-3346.9499999999998,4438.7799999999997,-578.93700000000001
168991.0,13348.799999999999,11202.5,644.18200000000002,2632.8200000000002,-3065.27,4254.0200000000004,-652.18399999999997
168992.0,12576.9,10304.1,551.80100000000004,1892.51,-2797.3800000000001,4055.9499999999998,-711.904
168993.0,11853.1,9457.75,457.24799999999999,1220.8499999999999,-2549.9400000000001,3853.1599999999999,-759.05700000000002
168994.0,11193.299999999999,8707.0300000000007,398.21699999999998,646.11800000000005,-2323.46,3656.8400000000001,-803.97199999999998
168995.0,10600.0,7999.3999999999996,330.80399999999997,119.355,-2119.8699999999999,3477.3200000000002,-842.57100000000003
168996.0,10062.4,7346.1700000000001,274.38,-342.17000000000002,-1935.52,3313.6500000000001,-879.654
168997.0,9572.2000000000007,6708.3199999999997,180.27099999999999,-778.822,-1760.8900000000001,3160.8800000000001,-922.88199999999995
168998.0,9127.4200000000001,6164.6499999999996,136.72300000000001,-1120.1199999999999,-1598.8499999999999,3022.1999999999998,-957.10500000000002
168999.0,8725.9799999999996,5632.25,59.7776,-1452.0999999999999,-1448.3099999999999,2895.46,-989.20399999999995
169000.0,8370.0900000000001,5194.3800000000001,41.9465,-1703.1500000000001,-1310.1600000000001,2783.4099999999999,-1013.64
169001.0,8060.2399999999998,4759.4799999999996,-15.080399999999999,-1975.6099999999999,-1179.72,2677.1300000000001,-1047.3
169002.0,7777.6099999999997,4412.7799999999997,-23.606000000000002,-2165.0900000000001,-1072.21,2570.6900000000001,-1072.25
169003.0,7539.6700000000001,4069.5799999999999,-36.274999999999999,-2377.04,-966.601,2470.6900000000001,-1122.9100000000001
169004.0,7277.29,3702.0700000000002,-137.73599999999999,-2555.4000000000001,-909.76700000000005,2377.4499999999998,-1102.52
169005.0,7189.0600000000004,3781.3899999999999,153.89400000000001,-2461.5100000000002,-765.07899999999995,2257.8299999999999,-1309.8099999999999
169006.0,493143.0,-716156.0,-353504.0,-694803.0,194357.0,-37830.099999999999,-21173.099999999999
169007.0,401769.0,-572243.0,-287185.0,-547635.0,161431.0,-48095.900000000001,-21982.0
169008.0,311539.0,-425402.0,-220775.0,-396418.0,125790.0,-56072.400000000001,-33534.300000000003
169009.0,225658.0,-282666.0,-158881.0,-244236.0,92032.0,-57060.599999999999,-35126.300000000003
169010.0,154893.0,-160987.0,-110856.0,-108067.0,58646.800000000003,-52859.400000000001,-29611.799999999999
169011.0,117113.0,-65637.699999999997,-66628.300000000003,-4605.1700000000001,28142.5,-46387.400000000001,-19128.0
169012.0,104893.0,-1776.0799999999999,-32242.5,58515.5,5189.4499999999998,-38538.099999999999,-4694.1899999999996
169013.0,99375.899999999994,31564.0,-12260.1,82429.600000000006,-7390.5100000000002,-30886.099999999999,6133.3500000000004
169014.0,87502.600000000006,45405.400000000001,-585.44500000000005,82289.199999999997,-12534.0,-24084.900000000001,9543.9200000000001
169015.0,74494.699999999997,50565.099999999999,7230.9300000000003,76323.899999999994,-15044.5,-18581.700000000001,7681.21
169016.0,64295.099999999999,52249.699999999997,13585.299999999999,72286.399999999994,-16383.299999999999,-14240.799999999999,4045.8200000000002
169017.0,52926.800000000003,51536.0,21173.0,69207.800000000003,-15004.700000000001,-9993.75,4298.2299999999996
169018.0,41117.599999999999,31176.5,21106.299999999999,47556.800000000003,-11754.200000000001,-3630.0900000000001,15296.700000000001
169019.0,78055.699999999997,-37916.900000000001,2957.1199999999999,-26374.400000000001,-11464.4,9495.6200000000008,36949.300000000003
169020.0,139464.0,-188273.0,-83514.0,-174607.0,-20844.700000000001,20672.5,48768.900000000001
169021.0,121423.0,-313800.0,-193365.0,-300936.0,-21405.0,9089.5100000000002,368.62700000000001
169022.0,137064.0,-278552.0,-196136.0,-283742.0,-2691.79,-7402.04,-61517.599999999999
169023.0,127871.0,-137620.0,-107007.0,-146611.0,9565.5200000000004,-9606.5900000000001,-69537.5
169024.0,66484.300000000003,-17816.599999999999,-21361.700000000001,-11833.9,3280.8400000000001,-3903.1300000000001,-37738.599999999999
169025.0,27006.799999999999,28198.400000000001,13154.200000000001,39243.0,-5473.3699999999999,3073.6399999999999,-5676.9899999999998
169026.0,30604.799999999999,29111.099999999999,13112.9,29146.299999999999,-4163.25,9222.7999999999993,11150.1
169027.0,40426.5,5659.2399999999998,-18549.799999999999,-1232.3299999999999,2087.1700000000001,11005.4,16239.200000000001
169028.0,36301.800000000003,-2303.1900000000001,-37446.199999999997,-11245.799999999999,7604.3100000000004,6876.2700000000004,766.28399999999999
169029.0,30641.0,17075.299999999999,-11517.4,5624.4799999999996,4562.5799999999999,6352.9200000000001,-6685.3500000000004
169030.0,23950.5,26891.400000000001,4246.6099999999997,19369.700000000001,-3331.9400000000001,6309.5900000000001,-2699.0999999999999
169031.0,25047.5,28268.400000000001,7076.7600000000002,23955.400000000001,-7075.3999999999996,5643.1199999999999,-1338.1700000000001
169032.0,24674.599999999999,27249.5,7626.0200000000004,23126.0,-7774.6999999999998,5944.8299999999999,-320.16300000000001
169033.0,24210.5,24997.400000000001,5046.4300000000003,20384.5,-7321.6999999999998,5716.6199999999999,-8.3213100000000004
169034.0,23302.299999999999,23311.299999999999,3505.5999999999999,17947.0,-6641.71,5650.6300000000001,155.87700000000001
169035.0,22423.900000000001,21835.400000000001,2441.1500000000001,15902.700000000001,-6177.1599999999999,5539.8299999999999,75.556200000000004
169036.0,21436.599999999999,20858.799999999999,2348.3800000000001,14412.4,-5890.8199999999997,5493.8199999999997,58.310099999999998
169037.0,20477.900000000001,19639.599999999999,2011.74,12767.6,-5618.6000000000004,5410.1700000000001,1.6321099999999999
169038.0,19546.099999999999,18552.200000000001,1835.1099999999999,11256.0,-5337.1400000000003,5349.4200000000001,-88.286799999999999
169039.0,18683.0,17381.299999999999,1597.48,9701.9200000000001,-5070.1400000000003,5321.0200000000004,-185.10900000000001
169040.0,17848.599999999999,16262.799999999999,1464.3699999999999,8262.2199999999993,-4777.1300000000001,5328.5500000000002,-327.584
169041.0,17033.200000000001,15108.1,1281.5799999999999,6923.8699999999999,-4456.6700000000001,5317.25,-493.42200000000003
169042.0,16215.9,14020.200000000001,1123.1300000000001,5796.6099999999997,-4120.3400000000001,5256.5,-640.52499999999998
169043.0,15398.0,12955.799999999999,945.26900000000001,4784.1199999999999,-3786.0300000000002,5150.0699999999997,-740.65999999999997
169044.0,14597.299999999999,11988.700000000001,827.76499999999999,3895.1199999999999,-3462.4299999999998,5014.0799999999999,-806.32000000000005
169045.0,13834.9,11033.700000000001,667.53800000000001,3022.54,-3158.3800000000001,4852.6000000000004,-865.255
169046.0,13120.5,10185.1,565.00599999999997,2265.1799999999998,-2883.6199999999999,4676.5699999999997,-914.678
169047.0,12448.4,9374.9099999999999,470.92599999999999,1553.73,-2636.0799999999999,4492.9499999999998,-956.34699999999998
169048.0,11811.4,8636.6900000000005,403.709,928.846,-2404.0799999999999,4295.3599999999997,-1014.12
169049.0,11212.200000000001,7952.3100000000004,340.33100000000002,384.36000000000001,-2190.4899999999998,4096.2799999999997,-1060.1500000000001
169050.0,10655.299999999999,7321.7600000000002,274.16300000000001,-86.849100000000007,-1995.5,3903.2199999999998,-1086.4200000000001
169051.0,10145.0,6753.71,207.64099999999999,-493.05200000000002,-1815.9000000000001,3713.8000000000002,-1113.99
169052.0,9686.5200000000004,6261.1300000000001,184.691,-833.56899999999996,-1654.5,3541.5599999999999,-1131.5699999999999
169053.0,9270.0900000000001,5780.9300000000003,132.904,-1160.2,-1507.1900000000001,3379.98,-1150.53
169054.0,8888.7900000000009,5350.0699999999997,115.116,-1437.8900000000001,-1371.98,3233.3400000000001,-1162.4300000000001
169055.0,8536.6599999999999,4907.46,56.605499999999999,-1726.73,-1242.8800000000001,3092.02,-1182.76
169056.0,8211.5699999999997,4520.5100000000002,29.682700000000001,-1958.8699999999999,-1127.22,2961.5900000000001,-1190.6300000000001
169057.0,7929.6199999999999,4137.7399999999998,-9.1156600000000001,-2213.1300000000001,-1003.63,2839.2399999999998,-1221.9200000000001
169058.0,7625.9700000000003,3778.7199999999998,-68.660499999999999,-2399.8400000000001,-916.56600000000003,2711.23,-1207.9200000000001
169059.0,7378.3599999999997,3530.8800000000001,-4.0174399999999997,-2543.5500000000002,-769.28099999999995,2542.6700000000001,-1335.1199999999999
169060.0,414126.0,-346767.0,-221176.0,-413751.0,211170.0,-41594.5,35863.800000000003
169061.0,309903.0,-283288.0,-201469.0,-343496.0,154130.0,-48710.800000000003,28328.5
169062.0,222505.0,-216799.0,-175996.0,-261152.0,106779.0,-57249.699999999997,3093.6799999999998
169063.0,162636.0,-119734.0,-116995.0,-147695.0,69656.800000000003,-59691.0,-10636.9
169064.0,121268.0,-38964.699999999997,-72648.699999999997,-45821.699999999997,38236.5,-55362.800000000003,-7618.1199999999999
169065.0,106114.0,12044.700000000001,-46780.300000000003,21836.799999999999,12878.4,-46995.300000000003,1244.21
169066.0,101992.0,38995.099999999999,-29328.5,55089.099999999999,-3551.1900000000001,-37312.599999999999,7329.4799999999996
169067.0,90936.699999999997,52368.300000000003,-11514.200000000001,66375.399999999994,-11618.6,-27669.900000000001,11484.299999999999
169068.0,73925.399999999994,51046.099999999999,1074.1800000000001,62100.0,-14947.799999999999,-19610.0,12506.5
169069.0,56682.099999999999,36428.400000000001,6276.7299999999996,48972.099999999999,-16979.700000000001,-13409.299999999999,11012.299999999999
169070.0,44649.0,13824.700000000001,5574.2299999999996,34216.400000000001,-18107.599999999999,-9308.5499999999993,5709.6199999999999
169071.0,41472.699999999997,-5852.5799999999999,9675.3899999999994,25755.5,-16955.599999999999,-5967.6000000000004,-655.84299999999996
169072.0,43893.599999999999,-25259.0,15476.799999999999,12113.700000000001,-11087.299999999999,879.29200000000003,2696.9400000000001
169073.0,83553.899999999994,-67270.600000000006,-1438.52,-49513.699999999997,3167.1199999999999,17304.5,29283.799999999999
169074.0,145496.0,-184939.0,-126574.0,-200691.0,23780.900000000001,32227.099999999999,62670.400000000001
169075.0,121024.0,-277377.0,-274661.0,-324080.0,54200.699999999997,18650.0,28721.700000000001
169076.0,153158.0,-183708.0,-216511.0,-253654.0,74727.300000000003,-3675.9400000000001,-31571.900000000001
169077.0,125727.0,-38307.400000000001,-71011.0,-96916.300000000003,55922.099999999999,-10386.200000000001,-34224.300000000003
169078.0,52095.800000000003,18540.299999999999,-14333.700000000001,-7811.1499999999996,19480.799999999999,-9097.7099999999991,-11808.9
169079.0,27290.700000000001,31307.799999999999,1792.2,22433.799999999999,-2007.8499999999999,-3795.1999999999998,702.19799999999998
169080.0,25309.0,32733.799999999999,10233.799999999999,27912.0,-7741.0900000000001,1425.8599999999999,3349.8499999999999
169081.0,23842.099999999999,32295.099999999999,12959.299999999999,28972.599999999999,-8088.6800000000003,3673.5500000000002,1916.0
169082.0,23867.400000000001,32193.5,12073.700000000001,29181.400000000001,-7490.29,3984.6500000000001,-378.21600000000001
169083.0,25147.700000000001,29077.799999999999,7606.9399999999996,25628.400000000001,-7346.0699999999997,4835.8299999999999,-712.58500000000004
169084.0,26820.200000000001,26644.0,3400.9000000000001,22437.0,-7531.8500000000004,5430.6800000000003,-409.57299999999998
169085.0,27147.700000000001,25662.799999999999,2008.3,20751.599999999999,-7603.3999999999996,5659.0900000000001,7.1063900000000002
169086.0,26367.299999999999,24739.0,1790.77,19692.0,-7452.1999999999998,5547.1499999999996,114.235
169087.0,24929.700000000001,24160.900000000001,2712.9000000000001,19124.5,-7244.0900000000001,5372.8100000000004,181.17500000000001
169088.0,23443.5,22830.200000000001,2885.9400000000001,17770.400000000001,-6947.1199999999999,5236.6099999999997,164.404
169089.0,22132.700000000001,21593.700000000001,2921.54,16294.299999999999,-6587.8000000000002,5223.3299999999999,98.890600000000006
169090.0,21066.299999999999,20073.299999999999,2420.3299999999999,14377.0,-6219.6700000000001,5298.3199999999997,-7.2866499999999998
169091.0,20119.700000000001,18909.5,2217.3099999999999,12728.200000000001,-5877.1300000000001,5399.5200000000004,-139.84200000000001
169092.0,19239.799999999999,17648.200000000001,1921.7,11044.0,-5555.4899999999998,5485.2399999999998,-282.34300000000002
169093.0,18375.400000000001,16467.0,1741.3900000000001,9530.2299999999996,-5211.1199999999999,5561.2299999999996,-444.77800000000002
169094.0,17543.099999999999,15262.5,1501.53,8089.8699999999999,-4838.5200000000004,5606.6199999999999,-610.21699999999998
169095.0,16771.799999999999,14170.200000000001,1302.0999999999999,6827.3699999999999,-4467.4700000000003,5617.8000000000002,-757.77999999999997
169096.0,16061.1,13134.0,1099.8399999999999,5685.7299999999996,-4117.4099999999999,5599.1499999999996,-891.48599999999999
169097.0,15384.5,12190.1,957.47000000000003,4714.6099999999997,-3792.5300000000002,5550.0,-1006.5599999999999
169098.0,14721.200000000001,11264.700000000001,829.404,3809.3600000000001,-3488.5700000000002,5474.7299999999996,-1096.3399999999999
169099.0,14072.9,10423.6,754.96299999999997,3021.8499999999999,-3192.8699999999999,5370.1300000000001,-1189.6099999999999
169100.0,13436.200000000001,9615.2099999999991,637.94000000000005,2324.1300000000001,-2909.5500000000002,5229.0500000000002,-1265.9100000000001
169101.0,12799.6,8859.4599999999991,522.31700000000001,1685.9300000000001,-2640.0700000000002,5057.7200000000003,-1293.3299999999999
169102.0,12176.700000000001,8186.5200000000004,440.084,1085.7,-2385.5799999999999,4852.3800000000001,-1308.8599999999999
169103.0,11593.9,7593.5600000000004,369.66000000000003,544.87099999999998,-2168.1100000000001,4623.3000000000002,-1321.8099999999999
169104.0,11072.1,7074.71,327.44400000000002,71.270899999999997,-1983.2,4402.5500000000002,-1332.27
169105.0,10608.4,6561.1599999999999,263.476,-379.11200000000002,-1819.1300000000001,4205.5600000000004,-1345.24
169106.0,10181.1,6089.54,226.06899999999999,-748.35400000000004,-1668.1199999999999,4030.3800000000001,-1357.8499999999999
169107.0,9775.5799999999999,5614.8500000000004,153.55000000000001,-1089.3599999999999,-1521.6700000000001,3863.9299999999998,-1374.4100000000001
169108.0,9399.2099999999991,5220.8400000000001,142.25800000000001,-1348.02,-1381.3900000000001,3711.6399999999999,-1379.6500000000001
169109.0,9054.9599999999991,4803.5500000000002,71.382300000000001,-1643.3900000000001,-1248.4400000000001,3564.0700000000002,-1385.6700000000001
169110.0,8739.9099999999999,4482.7399999999998,79.616399999999999,-1852.99,-1127.01,3423.9400000000001,-1387.28
169111.0,8458.0100000000002,4097.4499999999998,25.686399999999999,-2140.8600000000001,-1006.75,3292.1599999999999,-1400.8900000000001
169112.0,8159.6700000000001,3705.2800000000002,-56.0075,-2387.5300000000002,-915.25800000000004,3159.71,-1386.01
169113.0,7931.6599999999999,3415.75,-19.153700000000001,-2572.8699999999999,-748.83000000000004,3031.25,-1480.0699999999999
169114.0,217425.0,-14905.799999999999,-73589.600000000006,-130011.0,98284.300000000003,-27044.599999999999,45319.599999999999
169115.0,179424.0,-20675.400000000001,-97966.899999999994,-125623.0,71578.199999999997,-31414.900000000001,40766.5
169116.0,146314.0,-9407.8299999999999,-106144.0,-99312.0,48772.400000000001,-37375.400000000001,21112.400000000001
169117.0,126252.0,27641.400000000001,-79801.100000000006,-42238.599999999999,26766.0,-39666.5,7092.8000000000002
169118.0,117478.0,65371.900000000001,-45612.599999999999,18345.099999999999,7235.9700000000003,-37364.900000000001,6970.8199999999997
169119.0,113472.0,85764.100000000006,-22475.5,58150.099999999999,-5489.5500000000002,-30780.700000000001,12299.1
169120.0,103335.0,93227.300000000003,-4372.0699999999997,76270.800000000003,-10724.4,-22369.200000000001,14986.299999999999
169121.0,85621.5,89517.699999999997,10270.700000000001,77377.100000000006,-12256.4,-13685.0,16863.799999999999
169122.0,64076.699999999997,69252.399999999994,14196.6,60477.300000000003,-12395.700000000001,-5951.1400000000003,17450.799999999999
169123.0,46899.800000000003,26665.799999999999,2747.9899999999998,25588.400000000001,-13199.5,2305.4699999999998,19265.799999999999
169124.0,41706.400000000001,-35085.5,-31796.5,-21141.400000000001,-15385.0,6948.6199999999999,15546.6
169125.0,31387.200000000001,-81753.699999999997,-69288.199999999997,-60635.900000000001,-12608.200000000001,7407.4799999999996,1358.1700000000001
169126.0,27064.099999999999,-87019.100000000006,-79196.399999999994,-79105.0,-1420.23,13093.0,-7076.2600000000002
169127.0,50745.599999999999,-73438.600000000006,-75825.899999999994,-90821.800000000003,13375.5,23445.5,6401.9700000000003
169128.0,87936.300000000003,-59122.099999999999,-83552.699999999997,-101100.0,31996.5,25055.700000000001,21944.400000000001
169129.0,102235.0,-23258.099999999999,-70538.399999999994,-81577.800000000003,46088.800000000003,15531.299999999999,12603.0
169130.0,85573.800000000003,18147.700000000001,-30480.200000000001,-42270.0,36700.400000000001,5020.0200000000004,-6571.1599999999999
169131.0,50771.0,39832.099999999999,1654.9400000000001,-9072.5799999999999,11367.299999999999,-1239.6400000000001,-8232.3400000000001
169132.0,34035.699999999997,40952.5,8153.6899999999996,9507.4799999999996,-5256.29,-3592.3699999999999,-1100.5799999999999
169133.0,30118.700000000001,35512.300000000003,6534.8100000000004,17453.5,-9085.7600000000002,-2148.5500000000002,1019.02
169134.0,27767.5,32240.5,6105.3699999999999,20804.900000000001,-9185.6499999999996,541.91499999999996,832.05399999999997
169135.0,28369.099999999999,29890.200000000001,3617.4499999999998,21175.5,-9182.0699999999997,2194.5300000000002,-246.02799999999999
169136.0,28783.200000000001,29094.200000000001,3197.52,21349.099999999999,-9468.8299999999999,3131.3699999999999,-95.834400000000002
169137.0,27975.5,28935.5,4252.4200000000001,22318.099999999999,-9284.1900000000005,3370.0799999999999,294.863
169138.0,26321.0,28268.5,5433.6300000000001,22846.799999999999,-8640.7600000000002,3724.4299999999998,238.98500000000001
169139.0,25088.400000000001,26638.799999999999,5304.5900000000001,22107.700000000001,-8047.8100000000004,4324.2700000000004,74.855199999999996
169140.0,24322.900000000001,25025.200000000001,4676.8999999999996,20854.799999999999,-7583.0900000000001,4916.1899999999996,-19.543800000000001
169141.0,23576.599999999999,23014.200000000001,3472.2199999999998,18751.099999999999,-7167.2200000000003,5322.6899999999996,-42.096299999999999
169142.0,22610.200000000001,21567.299999999999,2914.8899999999999,16935.0,-6778.3299999999999,5489.4099999999999,-74.920299999999997
169143.0,21506.200000000001,20045.599999999999,2401.79,15001.6,-6418.6599999999999,5510.54,-153.87
169144.0,20406.5,18899.799999999999,2335.4200000000001,13494.5,-6075.6999999999998,5519.8599999999997,-269.28699999999998
169145.0,19396.5,17513.200000000001,2029.9400000000001,11795.700000000001,-5728.46,5580.7299999999996,-387.39299999999997
169146.0,18440.799999999999,16267.200000000001,1855.5699999999999,10252.5,-5353.4300000000003,5658.6800000000003,-527.245
169147.0,17531.400000000001,14995.0,1591.74,8755.7299999999996,-4949.1800000000003,5698.6300000000001,-705.82000000000005
169148.0,16702.900000000001,13911.799999999999,1438.9300000000001,7545.2299999999996,-4565.5900000000001,5702.3400000000001,-857.52099999999996
169149.0,15959.9,12846.9,1261.95,6394.4200000000001,-4216.4099999999999,5698.6300000000001,-977.83600000000001
169150.0,15319.4,11901.0,1127.1400000000001,5384.1999999999998,-3889.1900000000001,5695.7299999999996,-1102.8099999999999
169151.0,14770.299999999999,10967.5,915.37099999999998,4406.1199999999999,-3580.75,5691.2799999999997,-1208.4400000000001
169152.0,14253.200000000001,10150.0,811.32299999999998,3515.0500000000002,-3274.8299999999999,5677.8599999999997,-1290.1099999999999
169153.0,13733.799999999999,9325.6200000000008,659.88699999999994,2610.6599999999999,-2968.02,5608.3699999999999,-1394.3900000000001
169154.0,13218.1,8636.6700000000001,533.04200000000003,1907.3199999999999,-2699.1599999999999,5470.0600000000004,-1491.8199999999999
169155.0,12728.4,8006.9099999999999,435.26499999999999,1291.51,-2477.6500000000001,5322.0299999999997,-1532.22
169156.0,12276.799999999999,7437.9499999999998,405.92599999999999,710.274,-2270.2199999999998,5180.3999999999996,-1564.95
169157.0,11840.4,6855.0799999999999,311.75599999999997,140.38900000000001,-2079.4299999999998,5016.5200000000004,-1608.29
169158.0,11402.0,6371.8100000000004,261.56299999999999,-297.791,-1895.46,4827.7600000000002,-1657.28
169159.0,10974.4,5964.1599999999999,266.50099999999998,-652.327,-1723.21,4638.7399999999998,-1676.51
169160.0,10578.299999999999,5593.3900000000003,267.37799999999999,-966.91300000000001,-1573.8699999999999,4459.1800000000003,-1668.5599999999999
169161.0,10232.4,5214.8400000000001,208.566,-1293.5799999999999,-1437.3599999999999,4294.3900000000003,-1667.3599999999999
169162.0,9935.3500000000004,4896.3500000000004,192.399,-1557.9400000000001,-1309.8499999999999,4154.6400000000003,-1669.0
169163.0,9664.8600000000006,4545.6899999999996,123.51300000000001,-1836.8399999999999,-1188.0799999999999,4029.23,-1673.6199999999999
169164.0,9420.4699999999993,4249.6099999999997,113.66800000000001,-2054.96,-1071.4200000000001,3920.6399999999999,-1674.21
169165.0,9202.9899999999998,3881.9000000000001,43.417200000000001,-2344.1599999999999,-951.25999999999999,3824.6900000000001,-1682.8800000000001
169166.0,8960.6399999999994,3523.2399999999998,-39.887999999999998,-2578.8499999999999,-846.67200000000003,3721.79,-1673.1600000000001
169167.0,8774.5900000000001,3210.23,-81.918400000000005,-2815.9699999999998,-668.78800000000001,3602.3099999999999,-1770.8199999999999
169168.0,163066.0,155247.0,-20904.5,36253.099999999999,670.80100000000004,-3719.5500000000002,27807.200000000001
169169.0,157946.0,140915.0,-31071.400000000001,33485.400000000001,-991.55600000000004,-10227.299999999999,25730.700000000001
169170.0,151924.0,143250.0,-24847.5,49698.699999999997,-2886.3400000000001,-14825.6,19267.400000000001
169171.0,145166.0,149818.0,-10672.0,75216.699999999997,-9103.3700000000008,-15923.5,15429.4
169172.0,134908.0,150515.0,5744.3999999999996,96284.199999999997,-17321.799999999999,-13450.4,15370.700000000001
169173.0,118388.0,141683.0,21110.799999999999,105267.0,-23238.099999999999,-8934.8700000000008,15091.5
169174.0,96614.100000000006,124151.0,33287.400000000001,101479.0,-25948.700000000001,-3677.29,13706.0
169175.0,74700.300000000003,99403.0,35827.099999999999,86052.5,-24865.0,565.86400000000003,10847.6
169176.0,51763.800000000003,74555.699999999997,35346.699999999997,63275.800000000003,-18443.5,6602.0200000000004,10098.299999999999
169177.0,52076.0,32927.099999999999,14932.6,21446.400000000001,-11940.9,17240.099999999999,19523.200000000001
169178.0,61297.5,-41365.0,-59812.5,-48856.0,-7963.9099999999999,22761.599999999999,24184.0
169179.0,47492.300000000003,-82584.199999999997,-119871.0,-94786.899999999994,1766.74,18446.799999999999,6858.6199999999999
169180.0,55241.800000000003,-45556.099999999999,-88459.699999999997,-76119.100000000006,13879.9,16345.299999999999,-8339.3500000000004
169181.0,55074.199999999997,1043.8499999999999,-35578.900000000001,-37592.900000000001,13448.9,17896.599999999999,-6073.21
169182.0,46002.099999999999,27776.900000000001,-4192.9099999999999,-7418.9300000000003,2247.8000000000002,14775.5,-10173.1
169183.0,47865.599999999999,47409.099999999999,22485.0,11776.0,-10733.9,10600.1,-14207.700000000001
169184.0,47658.0,47071.599999999999,21249.400000000001,11712.5,-17819.700000000001,6578.7299999999996,-7849.0100000000002
169185.0,42713.800000000003,38992.800000000003,7492.5900000000001,7585.3199999999997,-16123.200000000001,2646.0999999999999,-3378.3699999999999
169186.0,36322.800000000003,37491.300000000003,6915.0699999999997,11054.1,-12714.9,993.92700000000002,-1401.3900000000001
169187.0,31976.299999999999,35993.400000000001,7280.4399999999996,14792.5,-10904.200000000001,362.92000000000002,-268.34100000000001
169188.0,29499.400000000001,34116.199999999997,6697.1099999999997,17265.5,-9926.3199999999997,543.01199999999994,67.562299999999993
169189.0,27812.900000000001,32951.800000000003,7097.0600000000004,19813.5,-9450.4899999999998,1174.9300000000001,168.79499999999999
169190.0,26787.0,31193.900000000001,6740.9200000000001,21287.299999999999,-9110.1000000000004,2214.6100000000001,48.139400000000002
169191.0,26400.299999999999,28617.200000000001,5194.6899999999996,20703.599999999999,-8857.4099999999999,3450.6100000000001,-68.431799999999996
169192.0,26090.400000000001,26243.900000000001,3630.6599999999999,19349.200000000001,-8574.0499999999993,4363.1300000000001,-157.66800000000001
169193.0,25400.5,24498.799999999999,2958.4699999999998,18324.599999999999,-8202.5900000000001,4967.8800000000001,-247.39099999999999
169194.0,24368.5,22763.400000000001,2609.54,17250.299999999999,-7726.1300000000001,5444.3599999999997,-346.82299999999998
169195.0,23168.200000000001,21424.299999999999,2735.5,16393.700000000001,-7180.3299999999999,5801.3900000000003,-434.44600000000003
169196.0,21909.599999999999,19782.200000000001,2487.4400000000001,14942.9,-6635.3900000000003,6009.1499999999996,-510.452
169197.0,20650.799999999999,18371.5,2346.3699999999999,13486.700000000001,-6130.96,6059.9099999999999,-615.41600000000005
169198.0,19457.5,16827.599999999999,1932.3800000000001,11847.700000000001,-5680.3699999999999,5991.3800000000001,-734.12300000000005
169199.0,18340.700000000001,15587.700000000001,1768.3199999999999,10550.9,-5278.4399999999996,5891.8000000000002,-799.27200000000005
169200.0,17312.099999999999,14313.700000000001,1540.8800000000001,9204.3700000000008,-4885.9300000000003,5829.4899999999998,-847.11900000000003
169201.0,16426.5,13209.200000000001,1396.4200000000001,7978.8699999999999,-4507.6999999999998,5806.46,-933.23900000000003
169202.0,15684.299999999999,12104.299999999999,1193.22,6757.3199999999997,-4158.4499999999998,5819.0799999999999,-1038.3499999999999
169203.0,15012.1,11082.799999999999,1050.5999999999999,5644.3199999999997,-3808.3699999999999,5835.1499999999996,-1160.76
169204.0,14369.5,10111.799999999999,865.97699999999998,4642.5900000000001,-3461.9000000000001,5791.1700000000001,-1301.8399999999999
169205.0,13770.799999999999,9300.8899999999994,746.21100000000001,3869.9499999999998,-3152.79,5706.1300000000001,-1404.51
169206.0,13242.0,8551.9200000000001,657.93200000000002,3125.3200000000002,-2863.3200000000002,5642.0200000000004,-1452.79
169207.0,12806.0,7951.79,612.71299999999997,2417.1300000000001,-2582.1199999999999,5577.8999999999996,-1503.0699999999999
169208.0,12470.799999999999,7418.9899999999998,499.20999999999998,1696.0899999999999,-2347.5300000000002,5497.0500000000002,-1560.03
169209.0,12228.1,6935.29,413.98000000000002,992.60199999999998,-2160.0900000000001,5438.4399999999996,-1603.0999999999999
169210.0,12040.6,6457.0799999999999,341.73200000000003,286.31799999999998,-1972.26,5392.7799999999997,-1665.3499999999999
169211.0,11848.5,6005.1300000000001,249.25399999999999,-351.68099999999998,-1783.6900000000001,5316.2299999999996,-1742.1600000000001
169212.0,11627.9,5598.6599999999999,152.52199999999999,-880.149,-1606.77,5201.8100000000004,-1819.8599999999999
169213.0,11392.700000000001,5245.7700000000004,104.871,-1304.6500000000001,-1452.02,5074.1000000000004,-1876.8399999999999
169214.0,11154.0,4930.5,91.868499999999997,-1654.3199999999999,-1325.72,4944.29,-1905.3599999999999
169215.0,10933.799999999999,4608.8199999999997,53.503100000000003,-1984.0699999999999,-1215.6300000000001,4821.0299999999997,-1932.51
169216.0,10753.200000000001,4333.2299999999996,53.708799999999997,-2241.8000000000002,-1109.6600000000001,4723.2299999999996,-1966.74
169217.0,10593.5,4032.3600000000001,-1.4542900000000001,-2484.8600000000001,-1004.5,4643.6800000000003,-2003.8900000000001
169218.0,10440.9,3786.6700000000001,7.5026299999999999,-2640.5999999999999,-898.423,4580.9700000000003,-2027.5
169219.0,10277.299999999999,3447.7800000000002,-63.982900000000001,-2863.4299999999998,-774.72400000000005,4515.3999999999996,-2053.9200000000001
169220.0,10049.9,3127.9400000000001,-129.59100000000001,-3015.9400000000001,-655.31200000000001,4423.3199999999997,-2055.1199999999999
169221.0,9831.8700000000008,2873.4000000000001,-140.01499999999999,-3136.1300000000001,-485.84899999999999,4295.9200000000001,-2121.8499999999999
169222.0,191818.0,219575.0,20636.0,135183.0,-46843.599999999999,6933.5699999999997,7239.7600000000002
169223.0,179100.0,210709.0,24406.799999999999,136595.0,-42860.0,3025.23,6947.3500000000004
169224.0,163240.0,203980.0,37811.0,143374.0,-42124.0,74.390199999999993,6041.7399999999998
169225.0,146434.0,194856.0,52507.900000000001,149993.0,-42614.099999999999,-815.52599999999995,5878.46
169226.0,127970.0,175680.0,59174.900000000001,145126.0,-41830.400000000001,1930.47,7491.5200000000004
169227.0,108908.0,145874.0,56079.099999999999,126644.0,-39778.699999999997,7337.3199999999997,9060.8999999999996
169228.0,92424.5,105202.0,38423.400000000001,94160.600000000006,-36546.5,12292.5,8908.2600000000002
169229.0,75492.800000000003,68593.199999999997,17204.0,61221.699999999997,-29946.400000000001,14794.4,3454.4000000000001
169230.0,57879.199999999997,52681.699999999997,15893.799999999999,40997.0,-20296.900000000001,18744.599999999999,-34.523400000000002
169231.0,55840.699999999997,32658.599999999999,5126.6199999999999,13753.1,-12578.6,24438.700000000001,9253.0499999999993
169232.0,59319.800000000003,-392.59800000000001,-37725.5,-23307.200000000001,-5181.4300000000003,24175.400000000001,14394.4
169233.0,54212.099999999999,-10175.700000000001,-58905.0,-36197.099999999999,1775.6600000000001,19305.099999999999,3042.8600000000001
169234.0,49706.5,11946.700000000001,-29073.400000000001,-17958.799999999999,1707.22,16407.099999999999,-10068.9
169235.0,46016.0,36814.599999999999,8223.9400000000005,4959.8500000000004,-5076.2200000000003,15760.299999999999,-11159.4
169236.0,45339.699999999997,40565.599999999999,11184.6,7688.8900000000003,-10877.6,13964.4,-6771.0
169237.0,45165.599999999999,36473.400000000001,1382.24,1961.95,-12024.200000000001,10670.1,-4213.1899999999996
169238.0,41591.699999999997,39482.400000000001,4533.6999999999998,6374.1700000000001,-11516.299999999999,7024.6099999999997,-2797.4099999999999
169239.0,37119.300000000003,42074.699999999997,9940.6299999999992,13566.200000000001,-11301.299999999999,4319.1999999999998,-1777.3199999999999
169240.0,34562.900000000001,38942.0,7965.3800000000001,14939.6,-11065.6,3274.29,-989.01199999999994
169241.0,33122.400000000001,36237.699999999997,5950.25,15778.9,-10840.700000000001,3027.0999999999999,-514.678
169242.0,31605.099999999999,33969.400000000001,5164.6499999999996,16743.900000000001,-10611.0,3197.4400000000001,-240.565
169243.0,30145.099999999999,31026.700000000001,3956.4499999999998,16601.099999999999,-10262.5,3751.8200000000002,-222.05000000000001
169244.0,28626.200000000001,28504.200000000001,3327.1900000000001,16326.200000000001,-9780.2800000000007,4342.5,-340.18700000000001
169245.0,26889.099999999999,26626.200000000001,3539.7600000000002,16544.700000000001,-9147.6800000000003,4807.9300000000003,-502.423
169246.0,25225.299999999999,24884.700000000001,3865.6599999999999,16649.700000000001,-8476.9500000000007,5256.0299999999997,-668.75599999999997
169247.0,23881.799999999999,22821.799999999999,3583.79,16019.1,-7853.46,5704.5900000000001,-851.12199999999996
169248.0,22853.400000000001,20991.299999999999,3209.5300000000002,15286.0,-7275.7600000000002,6138.2299999999996,-1023.87
169249.0,21972.400000000001,18995.099999999999,2482.02,14058.299999999999,-6734.0600000000004,6519.9399999999996,-1108.26
169250.0,20992.0,17436.599999999999,2167.1900000000001,12897.9,-6190.5799999999999,6767.7399999999998,-1130.99
169251.0,19849.200000000001,15828.5,1763.02,11405.1,-5641.9899999999998,6810.1499999999996,-1179.5599999999999
169252.0,18653.200000000001,14581.5,1642.21,10199.200000000001,-5139.7399999999998,6684.6800000000003,-1253.1199999999999
169253.0,17515.799999999999,13234.1,1359.3399999999999,8937.7000000000007,-4703.8199999999997,6501.8100000000004,-1310.6400000000001
169254.0,16467.900000000001,12095.700000000001,1233.6400000000001,7902.7799999999997,-4311.1300000000001,6323.8599999999997,-1346.6199999999999
169255.0,15515.299999999999,10965.799999999999,1044.01,6855.4099999999999,-3942.3499999999999,6160.4099999999999,-1377.6199999999999
169256.0,14672.5,9987.5699999999997,937.02200000000005,5935.9799999999996,-3592.1199999999999,6028.1700000000001,-1402.05
169257.0,13951.6,9040.1200000000008,791.85199999999998,5007.2700000000004,-3244.9400000000001,5941.0200000000004,-1430.29
169258.0,13348.0,8216.3799999999992,661.726,4154.1000000000004,-2904.3699999999999,5870.5299999999997,-1481.77
169259.0,12840.1,7455.7299999999996,488.52600000000001,3342.9400000000001,-2599.6399999999999,5792.6400000000003,-1541.24
169260.0,12433.9,6836.6999999999998,401.58699999999999,2639.77,-2344.9400000000001,5731.2399999999998,-1586.02
169261.0,12148.9,6252.7200000000003,298.27699999999999,1907.8699999999999,-2128.4200000000001,5699.9099999999999,-1640.6700000000001
169262.0,11957.4,5775.3999999999996,247.22999999999999,1258.22,-1935.6500000000001,5683.0200000000004,-1718.0999999999999
169263.0,11810.0,5323.8299999999999,200.928,655.63,-1752.3399999999999,5671.9300000000003,-1791.71
169264.0,11697.700000000001,4912.4300000000003,159.358,98.099199999999996,-1564.4200000000001,5662.9899999999998,-1861.72
169265.0,11635.9,4556.9399999999996,95.578999999999994,-426.64699999999999,-1384.27,5654.9700000000003,-1932.55
169266.0,11634.6,4280.8199999999997,38.565199999999997,-909.06700000000001,-1230.47,5654.5600000000004,-1998.74
169267.0,11687.700000000001,4053.3400000000001,-5.3747100000000003,-1365.95,-1099.46,5665.2700000000004,-2069.0500000000002
169268.0,11754.299999999999,3837.96,-49.4786,-1789.54,-980.86199999999997,5673.6000000000004,-2145.1100000000001
169269.0,11782.299999999999,3611.0999999999999,-93.768699999999995,-2163.9499999999998,-868.36300000000006,5660.6199999999999,-2217.3800000000001
169270.0,11754.299999999999,3363.21,-128.465,-2483.8699999999999,-753.95100000000002,5620.3199999999997,-2289.8499999999999
169271.0,11660.1,3109.96,-168.63499999999999,-2719.3800000000001,-641.99099999999999,5549.8699999999999,-2359.4499999999998
169272.0,11519.799999999999,2851.9899999999998,-206.94,-2886.3699999999999,-533.27499999999998,5470.1300000000001,-2405.0799999999999
169273.0,11357.6,2597.8800000000001,-246.59800000000001,-3018.0100000000002,-419.08199999999999,5386.6300000000001,-2433.5599999999999
169274.0,11176.5,2362.3899999999999,-266.69200000000001,-3110.3699999999999,-304.52499999999998,5299.0500000000002,-2444.0700000000002
169275.0,10978.700000000001,2103.5799999999999,-329.03399999999999,-3241.3299999999999,-171.61799999999999,5180.4200000000001,-2479.8299999999999
169276.0,186449.0,218524.0,55048.5,177501.0,-65404.199999999997,5771.6800000000003,-6568.7600000000002
169277.0,170628.0,203836.0,59517.300000000003,172628.0,-62243.300000000003,4859.8000000000002,-6393.7799999999997
169278.0,154662.0,182201.0,60480.599999999999,162787.0,-60293.5,6739.3800000000001,-4011.27
169279.0,137891.0,154570.0,55208.900000000001,146596.0,-56525.5,8019.5299999999997,-5528.7399999999998
169280.0,115718.0,133074.0,56537.800000000003,130566.0,-49185.599999999999,11534.299999999999,-4537.4200000000001
169281.0,95923.899999999994,105459.0,46949.900000000001,105509.0,-40628.0,16555.700000000001,579.63199999999995
169282.0,80464.399999999994,74349.5,25144.5,73830.600000000006,-30722.0,20165.799999999999,3008.6100000000001
169283.0,67965.600000000006,53487.199999999997,8784.9099999999999,49613.699999999997,-20776.200000000001,22226.400000000001,855.38199999999995
169284.0,59185.800000000003,45519.099999999999,6267.7600000000002,34930.699999999997,-13661.200000000001,23798.099999999999,-1511.3399999999999
169285.0,55310.800000000003,38248.0,3036.21,22373.599999999999,-10797.799999999999,24319.900000000001,861.39599999999996
169286.0,51258.599999999999,33563.300000000003,-2314.3899999999999,15344.299999999999,-8776.1900000000005,21821.799999999999,-880.47000000000003
169287.0,48862.099999999999,36724.599999999999,1441.8599999999999,15980.9,-7536.8400000000001,20168.599999999999,-4222.8299999999999
169288.0,49362.0,37883.800000000003,2409.9699999999998,14086.200000000001,-8438.8199999999997,19729.299999999999,-4990.1700000000001
169289.0,49308.800000000003,38460.099999999999,1897.1900000000001,10285.299999999999,-9835.5200000000004,17958.599999999999,-4936.1099999999997
169290.0,45957.0,42097.400000000001,6564.1599999999999,12163.0,-10891.0,14402.1,-3602.0799999999999
169291.0,41562.099999999999,44610.300000000003,10743.200000000001,17251.200000000001,-11142.5,10925.9,-3049.04
169292.0,39515.400000000001,41555.199999999997,8421.0100000000002,17141.299999999999,-11398.1,9443.1499999999996,-2531.27
169293.0,38680.300000000003,37221.300000000003,3952.8499999999999,14575.299999999999,-11688.799999999999,8323.9300000000003,-2015.2
169294.0,36517.099999999999,36287.0,4677.1300000000001,15868.4,-11665.200000000001,7002.54,-1579.97
169295.0,33757.5,34148.5,5121.5799999999999,16724.400000000001,-11299.1,6087.6999999999998,-1288.74
169296.0,31292.700000000001,31477.900000000001,4890.71,16833.799999999999,-10734.0,5710.25,-1121.9300000000001
169297.0,29006.700000000001,29139.099999999999,4928.2700000000004,16989.599999999999,-10053.299999999999,5639.3100000000004,-1025.45
169298.0,27060.0,26652.099999999999,4615.3900000000003,16750.900000000001,-9302.9400000000005,5882.7700000000004,-1053.5899999999999
169299.0,25652.599999999999,23947.400000000001,3702.9899999999998,15829.6,-8598.1000000000004,6350.3500000000004,-1139.8
169300.0,24465.0,21388.700000000001,2769.48,14566.0,-7928.3100000000004,6812.8199999999997,-1228.6400000000001
169301.0,23237.299999999999,19395.0,2367.1100000000001,13541.700000000001,-7260.6599999999999,7108.9399999999996,-1374.8800000000001
169302.0,22023.700000000001,17494.299999999999,1992.0599999999999,12520.299999999999,-6636.5900000000001,7249.0,-1561.49
169303.0,20910.299999999999,16013.700000000001,1969.71,11912.0,-6063.1400000000003,7347.1099999999997,-1689.2
169304.0,19891.299999999999,14361.200000000001,1667.75,10939.700000000001,-5501.4200000000001,7447.8999999999996,-1737.0699999999999
169305.0,18920.799999999999,13047.1,1529.3699999999999,9970.6100000000006,-4950.9700000000003,7493.8199999999997,-1760.48
169306.0,17972.200000000001,11682.5,1167.5699999999999,8690.9599999999991,-4443.1099999999997,7439.1400000000003,-1797.72
169307.0,17032.099999999999,10644.299999999999,1010.3099999999999,7653.2799999999997,-3991.9499999999998,7285.6000000000004,-1834.98
169308.0,16097.4,9580.5100000000002,774.71799999999996,6595.1400000000003,-3592.0300000000002,7072.2299999999996,-1844.0799999999999
169309.0,15184.200000000001,8679.1900000000005,663.98500000000001,5716.25,-3229.6799999999998,6826.5699999999997,-1842.71
169310.0,14342.6,7786.7600000000002,517.79300000000001,4882.0600000000004,-2903.2199999999998,6586.1599999999999,-1837.5
169311.0,13645.6,7016.8599999999997,438.82499999999999,4183.5500000000002,-2609.7600000000002,6403.79,-1833.4400000000001
169312.0,13154.4,6317.25,348.16699999999997,3533.7199999999998,-2336.6599999999999,6314.7299999999996,-1850.1400000000001
169313.0,12864.6,5748.2600000000002,280.03899999999999,2978.79,-2080.7800000000002,6308.6099999999997,-1887.3
169314.0,12700.0,5194.6000000000004,179.017,2395.6399999999999,-1848.3399999999999,6350.5900000000001,-1923.52
169315.0,12578.299999999999,4694.96,135.857,1826.45,-1623.72,6393.9300000000003,-1976.6500000000001
169316.0,12462.0,4181.8199999999997,50.130499999999998,1242.3699999999999,-1399.98,6407.5799999999999,-2056.1999999999998
169317.0,12363.1,3721.04,-40.018599999999999,722.35699999999997,-1193.1099999999999,6404.6199999999999,-2133.6599999999999
169318.0,12310.5,3325.2199999999998,-111.124,246.77000000000001,-1009.8200000000001,6408.71,-2203.6199999999999
169319.0,12305.6,3003.5999999999999,-164.232,-182.56200000000001,-849.00900000000001,6416.4799999999996,-2284.5700000000002
169320.0,12326.9,2728.6900000000001,-208.30600000000001,-564.78700000000003,-716.69000000000005,6425.5500000000002,-2362.8299999999999
169321.0,12365.9,2460.5300000000002,-239.226,-930.03800000000001,-598.65800000000002,6439.8999999999996,-2435.3000000000002
169322.0,12403.4,2213.7800000000002,-267.67200000000003,-1254.23,-474.49299999999999,6443.5,-2518.8200000000002
169323.0,12406.0,1988.8,-317.36399999999998,-1528.77,-352.827,6426.0900000000001,-2586.54
169324.0,12373.700000000001,1784.3800000000001,-355.33199999999999,-1782.9200000000001,-232.93299999999999,6392.21,-2626.3099999999999
169325.0,12299.4,1591.6700000000001,-409.16000000000003,-2032.48,-113.301,6326.9200000000001,-2662.1799999999998
169326.0,12189.9,1457.1500000000001,-429.85500000000002,-2211.0100000000002,-8.6668800000000008,6237.9499999999998,-2693.3299999999999
169327.0,12066.0,1284.05,-477.73200000000003,-2398.4499999999998,68.768500000000003,6147.8400000000001,-2708.6500000000001
169328.0,11968.799999999999,1120.3699999999999,-461.18099999999998,-2541.9299999999998,165.96199999999999,6069.4200000000001,-2740.6900000000001
169329.0,11781.700000000001,910.12699999999995,-552.79999999999995,-2680.8400000000001,274.88600000000002,5937.6800000000003,-2770.8299999999999
169330.0,158376.0,157898.0,50321.699999999997,153323.0,-67031.5,929.06100000000004,-12901.799999999999
169331.0,141717.0,144144.0,53232.400000000001,145247.0,-60980.5,3777.8499999999999,-13147.5
169332.0,124397.0,122769.0,46510.699999999997,130806.0,-53376.300000000003,8487.8099999999995,-8537.3999999999996
169333.0,108673.0,99131.0,33601.5,111433.0,-44513.5,12492.200000000001,-6967.4300000000003
169334.0,92845.100000000006,81117.5,26986.400000000001,93499.100000000006,-36133.400000000001,16749.099999999999,-6001.46
169335.0,79762.100000000006,65339.900000000001,19673.700000000001,75333.800000000003,-28674.099999999999,20121.799999999999,-3607.73
169336.0,69541.899999999994,54273.300000000003,13204.6,60154.099999999999,-21498.299999999999,22026.099999999999,-3232.7600000000002
169337.0,62658.699999999997,48408.400000000001,10788.4,49457.599999999999,-16444.200000000001,23186.900000000001,-3922.0500000000002
169338.0,58569.800000000003,44487.900000000001,9361.2099999999991,41114.5,-13824.4,23557.200000000001,-4672.29
169339.0,56528.400000000001,42419.900000000001,8786.1399999999994,35889.300000000003,-12700.9,23696.700000000001,-4922.3400000000001
169340.0,55460.400000000001,40767.300000000003,7003.9300000000003,30739.099999999999,-12194.799999999999,23275.099999999999,-5847.4899999999998
169341.0,53655.199999999997,41027.900000000001,7493.2799999999997,26533.400000000001,-12219.9,22035.5,-6471.1099999999997
169342.0,50442.599999999999,41900.199999999997,9007.2600000000002,24496.200000000001,-12527.799999999999,19708.700000000001,-5655.3000000000002
169343.0,47144.0,41543.199999999997,8822.3400000000001,23883.0,-12338.299999999999,17199.599999999999,-4956.4200000000001
169344.0,45255.599999999999,38858.0,6169.1400000000003,21686.099999999999,-12207.4,15680.1,-4520.3699999999999
169345.0,43590.699999999997,35450.5,2779.27,17992.400000000001,-12319.4,14094.5,-3960.75
169346.0,40288.400000000001,34828.900000000001,3726.8099999999999,17907.5,-12113.6,11859.5,-3347.25
169347.0,36465.400000000001,34549.199999999997,6173.75,19714.0,-11565.200000000001,10005.700000000001,-2818.1399999999999
169348.0,33693.199999999997,31254.599999999999,5061.8100000000004,18540.400000000001,-10941.700000000001,9011.3799999999992,-2432.8400000000001
169349.0,31461.0,28595.200000000001,4190.1300000000001,17529.5,-10331.799999999999,8321.1900000000005,-2147.2399999999998
169350.0,29257.400000000001,26154.700000000001,3707.4000000000001,16814.200000000001,-9683.0900000000001,7786.0299999999997,-1948.0899999999999
169351.0,27314.5,23555.599999999999,3035.6300000000001,15896.9,-9013.1499999999996,7516.3500000000004,-1854.27
169352.0,25617.599999999999,21250.599999999999,2558.6500000000001,15087.799999999999,-8354.3199999999997,7407.9499999999998,-1832.1300000000001
169353.0,24041.799999999999,19335.700000000001,2510.02,14623.4,-7684.0200000000004,7411.1599999999999,-1832.8299999999999
169354.0,22639.5,17518.799999999999,2527.3200000000002,14120.6,-6979.8000000000002,7549.7299999999996,-1830.23
169355.0,21430.799999999999,15545.5,2187.5700000000002,13097.5,-6258.6499999999996,7739.6199999999999,-1856.24
169356.0,20390.0,13877.299999999999,1888.1500000000001,12055.9,-5577.7299999999996,7872.5,-1938.3099999999999
169357.0,19512.099999999999,12184.6,1368.6800000000001,10843.200000000001,-4983.0,7949.5600000000004,-2030.4300000000001
169358.0,18761.5,10901.4,1159.1600000000001,9938.0200000000004,-4462.7200000000003,8014.2600000000002,-2090.2399999999998
169359.0,18071.299999999999,9597.7299999999996,867.49599999999998,8853.2900000000009,-3982.0500000000002,8064.1800000000003,-2132.04
169360.0,17385.799999999999,8622.5499999999993,798.61099999999999,7935.1899999999996,-3522.9200000000001,8047.9200000000001,-2192.21
169361.0,16714.5,7635.8999999999996,574.76199999999994,6932.25,-3105.3299999999999,7954.0500000000002,-2255.1500000000001
169362.0,16092.6,6874.6599999999999,470.29300000000001,6133.0200000000004,-2742.1500000000001,7832.0600000000004,-2278.3800000000001
169363.0,15558.5,6134.4899999999998,312.03199999999998,5307.2299999999996,-2416.8400000000001,7729.0299999999997,-2277.48
169364.0,15140.1,5530.79,216.35900000000001,4574.7399999999998,-2125.46,7656.6899999999996,-2288.9499999999998
169365.0,14830.6,4947.8299999999999,110.345,3873.8600000000001,-1867.1800000000001,7614.0799999999999,-2324.29
169366.0,14599.1,4411.8999999999996,35.193300000000001,3277.4499999999998,-1630.5899999999999,7581.3000000000002,-2397.9699999999998
169367.0,14420.1,3874.4499999999998,-55.3782,2792.71,-1417.96,7548.5799999999999,-2490.0100000000002
169368.0,14280.799999999999,3355.3200000000002,-107.878,2435.3699999999999,-1212.79,7534.04,-2555.4000000000001
169369.0,14164.0,2809.2399999999998,-195.952,2048.3299999999999,-986.61199999999997,7532.5900000000001,-2592.0100000000002
169370.0,14057.799999999999,2363.79,-261.44400000000002,1664.3699999999999,-753.23199999999997,7519.6099999999997,-2629.4899999999998
169371.0,13963.1,2014.1900000000001,-324.15199999999999,1293.51,-548.577,7490.0100000000002,-2674.79
169372.0,13883.0,1715.5599999999999,-378.428,929.00400000000002,-381.346,7457.6700000000001,-2713.9000000000001
169373.0,13801.700000000001,1442.98,-425.04300000000001,560.846,-234.15199999999999,7413.4399999999996,-2758.2800000000002
169374.0,13683.5,1185.1900000000001,-470.85300000000001,219.69800000000001,-101.744,7337.7600000000002,-2805.0
169375.0,13515.299999999999,934.87,-498.96100000000001,-84.965299999999999,23.406400000000001,7232.7399999999998,-2833.7600000000002
169376.0,13305.4,695.60000000000002,-533.44399999999996,-379.524,150.916,7097.6499999999996,-2857.1199999999999
169377.0,13068.299999999999,511.37099999999998,-561.21100000000001,-609.13400000000001,258.67099999999999,6942.2700000000004,-2874.6799999999998
169378.0,12856.700000000001,359.82100000000003,-569.928,-788.66099999999994,345.83699999999999,6807.3000000000002,-2875.29
169379.0,12687.200000000001,231.232,-589.45100000000002,-964.13800000000003,426.88799999999998,6696.4700000000003,-2873.3200000000002
169380.0,12539.700000000001,132.756,-608.29999999999995,-1136.96,501.17399999999998,6594.4499999999998,-2875.6900000000001
169381.0,12375.6,-2.6657500000000001,-649.0,-1340.1900000000001,556.94399999999996,6488.8500000000004,-2861.6999999999998
169382.0,12239.6,-115.73999999999999,-612.57500000000005,-1522.6600000000001,653.80799999999999,6384.6499999999996,-2869.7399999999998
169383.0,11993.299999999999,-287.44999999999999,-779.36000000000001,-1734.1800000000001,747.76400000000001,6207.8500000000004,-2882.4299999999998
169384.0,120727.0,96861.899999999994,20321.799999999999,106384.0,-50161.800000000003,2060.8699999999999,-10577.4
169385.0,105456.0,85171.5,21160.700000000001,99681.0,-42635.0,6765.7200000000003,-9895.8899999999994
169386.0,92736.199999999997,74179.899999999994,19345.900000000001,92067.399999999994,-35381.599999999999,10295.0,-8542.1599999999999
169387.0,80965.300000000003,65301.0,18242.700000000001,83365.399999999994,-28575.299999999999,14182.4,-6094.3000000000002
169388.0,73266.300000000003,55323.599999999999,12846.9,72113.600000000006,-23003.799999999999,17416.700000000001,-4866.0900000000001
169389.0,68054.5,48999.900000000001,9458.8600000000006,62791.099999999999,-18760.400000000001,20079.5,-4725.3400000000001
169390.0,64724.699999999997,45300.800000000003,7959.6499999999996,55305.0,-16168.6,22009.099999999999,-5285.1400000000003
169391.0,62464.5,42664.900000000001,7105.4300000000003,48744.300000000003,-14817.299999999999,23275.299999999999,-5782.7299999999996
169392.0,60833.5,40818.800000000003,6524.0200000000004,43527.900000000001,-14024.299999999999,23945.200000000001,-6169.0799999999999
169393.0,59071.800000000003,39170.800000000003,5966.5900000000001,38681.900000000001,-13406.6,24038.799999999999,-6586.7799999999997
169394.0,56501.800000000003,38597.099999999999,6433.29,35114.699999999997,-12944.1,23273.200000000001,-6589.29
169395.0,53446.800000000003,37354.400000000001,5882.8900000000003,31766.099999999999,-12536.9,21763.900000000001,-6277.79
169396.0,50518.5,35517.199999999997,4539.6000000000004,28621.299999999999,-12241.4,20006.0,-6008.1599999999999
169397.0,47265.099999999999,33757.800000000003,3820.52,25777.900000000001,-12078.200000000001,18119.099999999999,-5489.6000000000004
169398.0,43133.699999999997,32858.400000000001,4734.6499999999996,24381.0,-11654.799999999999,15894.799999999999,-4853.8900000000003
169399.0,39061.199999999997,32366.900000000001,6435.5200000000004,24659.900000000001,-10982.0,13863.200000000001,-4297.8699999999999
169400.0,36280.5,29635.700000000001,5308.3000000000002,23028.799999999999,-10399.799999999999,12563.5,-3809.3499999999999
169401.0,34063.400000000001,26164.900000000001,3013.8699999999999,20081.599999999999,-9931.0100000000002,11525.200000000001,-3357.0599999999999
169402.0,31469.400000000001,24715.799999999999,3203.4200000000001,19274.599999999999,-9382.6900000000005,10405.0,-2949.1300000000001
169403.0,28940.799999999999,22715.5,3143.0100000000002,18297.599999999999,-8729.2700000000004,9521.4799999999996,-2637.0799999999999
169404.0,26795.0,20623.299999999999,2844.7600000000002,17157.5,-8063.1999999999998,8923.3299999999999,-2420.6399999999999
169405.0,24868.099999999999,18743.200000000001,2703.9499999999998,16195.799999999999,-7409.4700000000003,8468.4200000000001,-2286.8099999999999
169406.0,23185.900000000001,16812.200000000001,2501.7399999999998,15301.5,-6767.2200000000003,8158.8500000000004,-2239.48
169407.0,21825.299999999999,14708.799999999999,2014.7,14286.9,-6141.6599999999999,8002.6000000000004,-2243.3800000000001
169408.0,20730.299999999999,12692.0,1488.3599999999999,13293.0,-5530.3699999999999,7964.0,-2243.4099999999999
169409.0,19823.5,11064.6,1247.0999999999999,12506.799999999999,-4922.8299999999999,8015.9499999999998,-2226.9899999999998
169410.0,19059.400000000001,9541.2600000000002,965.92999999999995,11571.200000000001,-4329.1999999999998,8103.4899999999998,-2233.96
169411.0,18428.799999999999,8366.6800000000003,896.57000000000005,10806.799999999999,-3782.0799999999999,8189.9899999999998,-2272.7600000000002
169412.0,17929.599999999999,7100.6700000000001,641.62599999999998,9849.2999999999993,-3290.21,8281.3500000000004,-2325.4299999999998
169413.0,17533.200000000001,6075.0900000000001,533.17600000000004,9022.25,-2826.71,8380.5699999999997,-2381.1799999999998
169414.0,17211.200000000001,5045.5,255.065,8023.6099999999997,-2383.9000000000001,8468.7099999999991,-2445.2199999999998
169415.0,16959.099999999999,4348.21,126.339,7192.9200000000001,-1997.71,8538.5100000000002,-2516.2399999999998
169416.0,16805.200000000001,3717.5,-54.285499999999999,6348.96,-1683.79,8614.3600000000006,-2595.5100000000002
169417.0,16743.599999999999,3248.6199999999999,-126.128,5650.1499999999996,-1425.03,8706.4699999999993,-2682.4099999999999
169418.0,16728.900000000001,2776.5999999999999,-213.09899999999999,4961.0299999999997,-1194.6099999999999,8796.4899999999998,-2780.8699999999999
169419.0,16713.099999999999,2343.8499999999999,-272.88900000000001,4354.54,-966.66600000000005,8857.1299999999992,-2888.21
169420.0,16640.599999999999,1908.46,-365.00599999999997,3802.5,-733.91999999999996,8860.9500000000007,-2982.3699999999999
169421.0,16481.0,1517.55,-436.202,3352.7600000000002,-506.892,8797.1800000000003,-3050.0999999999999
169422.0,16268.700000000001,1130.4400000000001,-531.04999999999995,2969.1799999999998,-296.30900000000003,8689.7700000000004,-3091.6100000000001
169423.0,16063.5,817.91700000000003,-573.29999999999995,2683.0900000000001,-114.084,8585.4799999999996,-3101.46
169424.0,15880.799999999999,506.11599999999999,-621.75199999999995,2347.4499999999998,49.258699999999997,8495.6800000000003,-3104.96
169425.0,15669.799999999999,226.76400000000001,-674.45000000000005,1987.23,201.12100000000001,8377.9799999999996,-3127.9499999999998
169426.0,15391.9,-18.1313,-710.66899999999998,1656.3900000000001,330.15699999999998,8216.2600000000002,-3142.0700000000002
169427.0,15060.0,-250.53399999999999,-727.81299999999999,1339.3800000000001,451.483,8024.1899999999996,-3136.5599999999999
169428.0,14683.700000000001,-446.041,-751.00400000000002,1048.05,574.86900000000003,7802.6099999999997,-3119.6700000000001
169429.0,14285.4,-602.13,-787.39099999999996,781.03499999999997,679.16800000000001,7573.9300000000003,-3076.4000000000001
169430.0,13913.200000000001,-709.64099999999996,-798.04999999999995,526.52700000000004,764.15800000000002,7366.3800000000001,-3021.4899999999998
169431.0,13567.0,-796.12800000000004,-821.25300000000004,256.52100000000002,835.23000000000002,7168.6000000000004,-2981.5100000000002
169432.0,13229.9,-842.73800000000006,-832.58199999999999,17.701499999999999,888.04899999999998,6970.3599999999997,-2953.8400000000001
169433.0,12902.9,-890.03399999999999,-846.10799999999995,-207.376,917.33000000000004,6778.9099999999999,-2924.7600000000002
169434.0,12608.200000000001,-904.84500000000003,-804.21600000000001,-373.142,948.94600000000003,6602.0799999999999,-2901.8899999999999
169435.0,12313.1,-997.03200000000004,-834.61500000000001,-582.33600000000001,972.48000000000002,6431.04,-2861.79
169436.0,12084.200000000001,-1043.1300000000001,-760.245,-750.85900000000004,1034.6199999999999,6286.4700000000003,-2838.6700000000001
169437.0,11785.799999999999,-1140.24,-863.48299999999995,-964.90999999999997,1075.8099999999999,6091.3400000000001,-2831.9699999999998
169438.0,85420.399999999994,67693.300000000003,9061.2900000000009,82804.699999999997,-29268.5,5777.1300000000001,-4983.3299999999999
169439.0,77221.399999999994,59908.300000000003,9906.0400000000009,78612.5,-24923.299999999999,9242.0799999999999,-4398.7399999999998
169440.0,72402.100000000006,53176.0,8244.8400000000001,73401.699999999997,-21512.099999999999,12077.5,-5147.8599999999997
169441.0,67803.100000000006,48349.099999999999,8369.5400000000009,67845.300000000003,-18968.599999999999,15154.0,-4864.6599999999999
169442.0,64672.5,44477.400000000001,7457.1499999999996,62208.199999999997,-16908.400000000001,17339.5,-5214.9099999999999
169443.0,62527.699999999997,41923.800000000003,7354.6400000000003,57311.0,-15525.9,19328.5,-5832.4799999999996
169444.0,61094.0,39392.199999999997,6677.1400000000003,52215.199999999997,-14712.200000000001,20886.400000000001,-6329.8100000000004
169445.0,59624.900000000001,37484.0,6432.5100000000002,47757.5,-14019.200000000001,21906.200000000001,-6760.8900000000003
169446.0,57867.699999999997,35588.199999999997,6077.9799999999996,43495.199999999997,-13402.9,22305.200000000001,-7082.3100000000004
169447.0,55778.5,33974.400000000001,5869.21,39926.0,-12816.700000000001,22141.099999999999,-7191.5200000000004
169448.0,53297.199999999997,31845.200000000001,5023.54,36272.400000000001,-12213.9,21501.900000000001,-7031.0799999999999
169449.0,50036.900000000001,30088.700000000001,4641.5900000000001,33063.300000000003,-11535.6,20311.299999999999,-6701.5799999999999
169450.0,46179.400000000001,28827.900000000001,4803.8599999999997,30700.099999999999,-10839.799999999999,18584.200000000001,-6279.1300000000001
169451.0,42580.800000000003,27448.599999999999,4758.2399999999998,29009.599999999999,-10220.299999999999,16812.099999999999,-5747.9799999999996
169452.0,39794.800000000003,25357.099999999999,3762.6700000000001,26972.099999999999,-9716.6200000000008,15448.299999999999,-5184.3800000000001
169453.0,37307.699999999997,22666.799999999999,2024.25,24030.700000000001,-9288.9200000000001,14283.5,-4648.6700000000001
169454.0,34315.199999999997,21374.200000000001,2131.5900000000001,22500.099999999999,-8774.8299999999999,12938.1,-4129.04
169455.0,31295.299999999999,20646.700000000001,3201.9000000000001,22088.099999999999,-8129.6700000000001,11672.299999999999,-3690.04
169456.0,28912.299999999999,18427.400000000001,2516.8200000000002,20300.599999999999,-7502.1199999999999,10749.6,-3364.2399999999998
169457.0,26890.0,16634.400000000001,2037.5699999999999,18807.200000000001,-6946.3500000000004,10006.799999999999,-3077.27
169458.0,25029.0,14937.0,1760.29,17532.099999999999,-6401.0,9398.6100000000006,-2827.0999999999999
169459.0,23393.900000000001,13114.9,1411.1900000000001,16235.1,-5830.04,8965.3500000000004,-2642.1500000000001
169460.0,21955.700000000001,11367.799999999999,1077.52,15017.700000000001,-5222.9700000000003,8649.3099999999995,-2517.4099999999999
169461.0,20734.299999999999,9880.6499999999996,944.82299999999998,14100.1,-4609.8199999999997,8426.0300000000007,-2436.5300000000002
169462.0,19813.200000000001,8502.6200000000008,875.34699999999998,13363.5,-4023.6300000000001,8322.6299999999992,-2402.6399999999999
169463.0,19188.599999999999,7007.1800000000003,638.64099999999996,12543.700000000001,-3469.6799999999998,8329.8799999999992,-2412.1999999999998
169464.0,18774.5,5660.29,475.483,11827.0,-2931.8800000000001,8401.0499999999993,-2454.8600000000001
169465.0,18477.099999999999,4279.1800000000003,156.09100000000001,10962.700000000001,-2412.52,8481.1499999999996,-2511.8899999999999
169466.0,18243.799999999999,3213.3600000000001,15.7431,10268.799999999999,-1917.0899999999999,8555.25,-2560.4499999999998
169467.0,18078.700000000001,2234.0999999999999,-232.03399999999999,9467.5200000000004,-1459.47,8637.4799999999996,-2606.9000000000001
169468.0,17996.599999999999,1614.25,-309.887,8816.3400000000001,-1082.0,8753.1800000000003,-2650.8200000000002
169469.0,17993.400000000001,1031.3299999999999,-448.06299999999999,8027.29,-786.65499999999997,8913.0799999999999,-2713.7600000000002
169470.0,18029.599999999999,601.25400000000002,-489.62700000000001,7288.9499999999998,-535.56899999999996,9074.4200000000001,-2826.0
169471.0,18049.599999999999,163.28999999999999,-594.60799999999995,6526.6999999999998,-310.37299999999999,9189.9400000000005,-2957.75
169472.0,18010.200000000001,-208.97200000000001,-659.81200000000001,5820.5799999999999,-103.586,9252.5200000000004,-3067.6100000000001
169473.0,17907.099999999999,-549.39800000000002,-733.78099999999995,5135.6599999999999,95.418000000000006,9256.8700000000008,-3170.98
169474.0,17770.299999999999,-818.38999999999999,-785.97500000000002,4585.4499999999998,283.029,9211.5200000000004,-3263.8899999999999
169475.0,17609.400000000001,-1062.8599999999999,-865.68899999999996,4134.8199999999997,461.495,9133.9099999999999,-3323.5500000000002
169476.0,17396.5,-1227.53,-916.26599999999996,3779.8099999999999,617.50300000000004,9022.6200000000008,-3349.5999999999999
169477.0,17117.799999999999,-1402.6900000000001,-981.96900000000005,3426.5500000000002,740.87599999999998,8874.6000000000004,-3348.0799999999999
169478.0,16784.200000000001,-1555.49,-997.91600000000005,3106.6500000000001,853.84199999999998,8698.8199999999997,-3319.9000000000001
169479.0,16394.900000000001,-1703.98,-1019.02,2760.9000000000001,969.06700000000001,8493.3799999999992,-3277.04
169480.0,15956.6,-1831.1800000000001,-1038.96,2409.8499999999999,1074.99,8261.2299999999996,-3222.1900000000001
169481.0,15497.799999999999,-1955.97,-1072.01,2044.3699999999999,1170.47,8018.0699999999997,-3159.8800000000001
169482.0,15040.6,-2019.29,-1082.25,1719.28,1251.76,7771.7600000000002,-3107.3699999999999
169483.0,14586.200000000001,-2054.8200000000002,-1092.46,1429.0699999999999,1304.1199999999999,7524.3800000000001,-3060.3099999999999
169484.0,14139.0,-2055.4400000000001,-1068.8,1187.5799999999999,1342.6700000000001,7280.8999999999996,-3009.8699999999999
169485.0,13683.299999999999,-2049.8600000000001,-1079.71,929.26199999999994,1371.21,7036.2399999999998,-2951.8600000000001
169486.0,13232.0,-1966.5699999999999,-1031.0599999999999,719.02700000000004,1376.6600000000001,6803.29,-2885.1199999999999
169487.0,12814.200000000001,-1970.71,-1035.9100000000001,432.44600000000003,1363.3800000000001,6592.1400000000003,-2819.8499999999999
169488.0,12462.4,-1918.8299999999999,-960.28800000000001,239.33199999999999,1378.3399999999999,6398.21,-2786.3899999999999
169489.0,12096.0,-1993.24,-1044.0899999999999,-29.265000000000001,1371.8299999999999,6197.1400000000003,-2742.2199999999998
169490.0,11812.200000000001,-1926.5899999999999,-875.85900000000004,-120.274,1412.01,6028.8500000000004,-2710.3400000000001
169491.0,11396.0,-2203.27,-1119.21,-552.44000000000005,1402.3199999999999,5801.2600000000002,-2639.1599999999999
169492.0,69771.5,53990.099999999999,10689.299999999999,75665.899999999994,-21294.099999999999,7534.4399999999996,-4245.6899999999996
169493.0,65549.100000000006,48574.199999999997,9781.0,70700.699999999997,-18976.400000000001,9932.1000000000004,-4746.21
169494.0,63157.5,44571.199999999997,8446.1399999999994,66539.300000000003,-17119.400000000001,12224.1,-5168.4300000000003
169495.0,61553.400000000001,40996.400000000001,7153.9799999999996,62209.0,-15775.0,14608.299999999999,-5443.7399999999998
169496.0,60204.599999999999,38319.199999999997,6550.3500000000004,57989.900000000001,-14861.4,16704.0,-5882.8199999999997
169497.0,58818.199999999997,35456.199999999997,5774.4300000000003,53348.199999999997,-14145.200000000001,18302.900000000001,-6380.3699999999999
169498.0,57272.0,33291.099999999999,5609.6000000000004,49466.699999999997,-13421.1,19351.0,-6846.8100000000004
169499.0,55556.0,30998.099999999999,5112.2799999999997,45596.099999999999,-12707.9,19907.799999999999,-7117.79
169500.0,53585.400000000001,29088.200000000001,4840.0900000000001,42275.800000000003,-12002.299999999999,20019.200000000001,-7194.1099999999997
169501.0,51335.300000000003,26933.599999999999,4312.3100000000004,39002.300000000003,-11292.9,19754.900000000001,-7108.0600000000004
169502.0,48826.0,25153.599999999999,4211.2299999999996,36486.099999999999,-10519.200000000001,19199.099999999999,-6876.6700000000001
169503.0,46195.599999999999,23223.599999999999,3798.0300000000002,34036.0,-9686.1399999999994,18447.400000000001,-6515.3900000000003
169504.0,43478.900000000001,21301.299999999999,3030.1199999999999,31456.5,-8906.3099999999995,17487.700000000001,-6123.0699999999997
169505.0,40595.400000000001,19654.299999999999,2362.0900000000001,29002.799999999999,-8287.8099999999995,16286.5,-5718.3800000000001
169506.0,37461.300000000003,18468.200000000001,2381.3099999999999,27165.0,-7756.9700000000003,14891.299999999999,-5267.9799999999996
169507.0,34425.800000000003,17683.700000000001,3072.73,26274.0,-7193.1899999999996,13514.0,-4804.2600000000002
169508.0,32014.900000000001,15867.799999999999,2588.1999999999998,24644.299999999999,-6641.7299999999996,12457.799999999999,-4362.6400000000003
169509.0,29882.900000000001,13554.700000000001,1330.4400000000001,22159.799999999999,-6150.3000000000002,11607.5,-3942.8000000000002
169510.0,27686.099999999999,12472.4,1358.3099999999999,20748.200000000001,-5667.8500000000004,10765.200000000001,-3581.8600000000001
169511.0,25719.599999999999,11136.9,1284.0699999999999,19315.799999999999,-5183.1599999999999,10055.1,-3318.1999999999998
169512.0,24081.200000000001,9702.1299999999992,1097.1800000000001,17946.799999999999,-4673.7700000000004,9522.2299999999996,-3129.8299999999999
169513.0,22710.799999999999,8371.5100000000002,930.24000000000001,16794.900000000001,-4128.0900000000001,9111.8899999999994,-2975.9000000000001
169514.0,21666.0,7105.6599999999999,756.245,15836.1,-3599.27,8835.8999999999996,-2849.6799999999998
169515.0,20944.299999999999,5741.96,474.649,14897.9,-3108.4200000000001,8697.4500000000007,-2765.1700000000001
169516.0,20446.099999999999,4312.9700000000003,159.339,13976.6,-2621.9699999999998,8648.6399999999994,-2722.9499999999998
169517.0,20103.0,3034.3200000000002,-1.97763,13227.799999999999,-2111.73,8651.8799999999992,-2714.75
169518.0,19878.799999999999,1744.3800000000001,-247.28800000000001,12414.4,-1584.51,8683.6299999999992,-2729.6999999999998
169519.0,19747.799999999999,737.36099999999999,-350.28899999999999,11773.1,-1065.01,8732.75,-2757.71
169520.0,19685.400000000001,-215.67599999999999,-599.61300000000006,11024.200000000001,-589.00300000000004,8797.2299999999996,-2798.8499999999999
169521.0,19642.400000000001,-844.83399999999995,-710.57500000000005,10428.200000000001,-200.41800000000001,8865.1399999999994,-2848.6599999999999
169522.0,19569.200000000001,-1484.54,-897.94899999999996,9692.5799999999999,90.340800000000002,8926.5200000000004,-2896.1999999999998
169523.0,19428.200000000001,-1976.1800000000001,-933.56200000000001,8990.3299999999999,337.65800000000002,8965.1200000000008,-2948.1599999999999
169524.0,19189.700000000001,-2455.8699999999999,-1041.25,8174.1199999999999,587.48099999999999,8943.5699999999997,-3015.8699999999999
169525.0,18845.200000000001,-2739.5999999999999,-1103.04,7458.3599999999997,808.375,8850.7999999999993,-3065.0500000000002
169526.0,18447.900000000001,-2957.21,-1167.29,6755.75,968.94100000000003,8740.0900000000001,-3064.9499999999998
169527.0,18064.200000000001,-3115.21,-1176.96,6063.4300000000003,1096.8599999999999,8649.1800000000003,-3058.8000000000002
169528.0,17716.400000000001,-3244.6599999999999,-1210.46,5389.8299999999999,1221.3599999999999,8553.5799999999999,-3097.0500000000002
169529.0,17385.799999999999,-3293.9899999999998,-1242.8299999999999,4862.0699999999997,1319.6700000000001,8431.6399999999994,-3149.8800000000001
169530.0,17064.099999999999,-3350.4299999999998,-1270.1400000000001,4415.0799999999999,1381.96,8303.3899999999994,-3169.6100000000001
169531.0,16745.700000000001,-3399.6599999999999,-1253.3699999999999,4024.4099999999999,1447.8699999999999,8168.3400000000001,-3171.5100000000002
169532.0,16409.099999999999,-3466.5300000000002,-1264.7,3653.4699999999998,1524.0699999999999,8008.7700000000004,-3162.4099999999999
169533.0,16059.799999999999,-3541.0700000000002,-1274.5699999999999,3313.27,1596.96,7837.4200000000001,-3130.8699999999999
169534.0,15709.200000000001,-3599.0900000000001,-1274.75,3003.6500000000001,1680.3299999999999,7657.8000000000002,-3094.71
169535.0,15325.0,-3611.4699999999998,-1291.0999999999999,2721.8699999999999,1755.0699999999999,7459.3699999999999,-3048.9099999999999
169536.0,14905.700000000001,-3596.8699999999999,-1292.7,2425.6300000000001,1795.3,7259.7700000000004,-2983.0799999999999
169537.0,14488.700000000001,-3594.2199999999998,-1296.5799999999999,2082.3200000000002,1825.0,7065.5299999999997,-2927.27
169538.0,14075.4,-3530.2600000000002,-1292.9400000000001,1793.0899999999999,1857.5,6862.2299999999996,-2890.23
169539.0,13643.5,-3452.3000000000002,-1313.8800000000001,1537.28,1857.0899999999999,6652.4200000000001,-2842.3099999999999
169540.0,13224.9,-3361.1199999999999,-1264.4300000000001,1332.6800000000001,1836.8,6453.2799999999997,-2784.1599999999999
169541.0,12814.1,-3348.1900000000001,-1261.98,1069.05,1824.78,6251.96,-2726.5799999999999
169542.0,12411.0,-3227.1599999999999,-1182.4200000000001,884.69200000000001,1840.21,6043.1400000000003,-2685.48
169543.0,11947.700000000001,-3234.2199999999998,-1261.0799999999999,576.68899999999996,1796.03,5820.3000000000002,-2616.9299999999998
169544.0,11636.1,-3116.1799999999998,-1037.27,453.976,1820.49,5653.6599999999999,-2576.77
169545.0,11205.200000000001,-3327.3200000000002,-1300.96,64.541600000000003,1806.1199999999999,5427.6700000000001,-2493.5700000000002
169546.0,64419.699999999997,43725.300000000003,7198.7200000000003,68832.0,-18085.0,8634.7800000000007,-4597.7799999999997
169547.0,61610.800000000003,40346.5,6201.2299999999996,64760.400000000001,-16247.200000000001,10582.9,-4913.4700000000003
169548.0,59607.5,37427.099999999999,5580.6300000000001,61176.300000000003,-15031.700000000001,12278.5,-5427.0600000000004
169549.0,58009.400000000001,34687.400000000001,5272.0600000000004,57709.699999999997,-14242.4,13935.4,-5815.9700000000003
169550.0,56274.800000000003,31826.200000000001,5078.1400000000003,53918.199999999997,-13483.1,15416.1,-6166.1999999999998
169551.0,54398.0,29297.0,4972.8100000000004,50262.300000000003,-12595.700000000001,16479.299999999999,-6514.2600000000002
169552.0,52522.699999999997,26840.299999999999,4485.4399999999996,46606.099999999999,-11710.6,17094.5,-6788.8400000000001
169553.0,50641.199999999997,24801.900000000001,4153.4899999999998,43508.5,-10916.700000000001,17342.700000000001,-6883.3000000000002
169554.0,48707.0,22706.0,3690.9499999999998,40586.800000000003,-10168.299999999999,17331.5,-6825.2700000000004
169555.0,46782.5,20843.200000000001,3442.0799999999999,38197.900000000001,-9430.5499999999993,17146.0,-6680.1199999999999
169556.0,44966.5,18721.200000000001,2862.9099999999999,35807.800000000003,-8688.7399999999998,16875.700000000001,-6499.5299999999997
169557.0,43101.0,16842.700000000001,2446.3600000000001,33714.5,-7950.71,16494.099999999999,-6247.3699999999999
169558.0,40956.900000000001,15230.6,2257.1700000000001,31784.900000000001,-7189.3299999999999,15915.299999999999,-5927.4200000000001
169559.0,38589.0,13790.799999999999,2084.8299999999999,29947.400000000001,-6447.0600000000004,15092.5,-5593.6899999999996
169560.0,36312.699999999997,12227.4,1582.03,28066.700000000001,-5811.0699999999997,14164.799999999999,-5245.8199999999997
169561.0,34164.599999999999,10364.799999999999,623.15499999999997,25827.799999999999,-5280.0500000000002,13262.4,-4874.0900000000001
169562.0,31887.700000000001,9286.3299999999999,462.98200000000003,24278.700000000001,-4774.8599999999997,12299.299999999999,-4460.9399999999996
169563.0,29707.599999999999,8747.75,956.45600000000002,23436.299999999999,-4273.0100000000002,11373.0,-4034.3299999999999
169564.0,27843.299999999999,7374.25,588.20799999999997,21768.099999999999,-3825.6100000000001,10651.700000000001,-3654.3400000000001
169565.0,26160.0,6184.7299999999996,327.70600000000002,20139.0,-3398.4200000000001,10087.0,-3351.2800000000002
169566.0,24744.200000000001,5100.3999999999996,133.298,18657.400000000001,-2967.23,9664.8299999999999,-3153.46
169567.0,23724.799999999999,4015.0300000000002,-56.7592,17381.299999999999,-2568.3200000000002,9403.0100000000002,-3063.9899999999998
169568.0,23004.0,2854.0999999999999,-225.00899999999999,16293.799999999999,-2167.2800000000002,9232.1800000000003,-3049.6799999999998
169569.0,22441.099999999999,1715.0599999999999,-323.423,15428.5,-1713.74,9064.8500000000004,-3060.9099999999999
169570.0,21989.5,653.42100000000005,-395.99200000000002,14718.4,-1232.51,8895.4699999999993,-3050.0700000000002
169571.0,21649.0,-453.41800000000001,-598.02200000000005,13936.1,-760.15300000000002,8765.6100000000006,-3015.3800000000001
169572.0,21440.799999999999,-1363.3399999999999,-717.19799999999998,13284.799999999999,-306.40699999999998,8701.0,-2988.04
169573.0,21346.799999999999,-2272.8699999999999,-966.88699999999994,12543.1,108.91500000000001,8700.0799999999999,-2983.7199999999998
169574.0,21285.200000000001,-2920.4400000000001,-1059.1900000000001,11953.9,470.72699999999998,8721.3700000000008,-3010.1700000000001
169575.0,21157.099999999999,-3587.1599999999999,-1230.55,11241.1,779.83799999999997,8706.3199999999997,-3050.1199999999999
169576.0,20882.599999999999,-4072.3000000000002,-1256.2,10586.1,1053.6199999999999,8623.5100000000002,-3062.6599999999999
169577.0,20449.099999999999,-4558.6300000000001,-1353.4000000000001,9754.4500000000007,1314.05,8482.9699999999993,-3046.3600000000001
169578.0,19892.400000000001,-4816.8599999999997,-1384.0999999999999,8976.4099999999999,1550.8,8291.8899999999994,-3029.6999999999998
169579.0,19266.900000000001,-4981.96,-1461.8699999999999,8212.3500000000004,1718.6300000000001,8066.54,-3006.0500000000002
169580.0,18623.099999999999,-5059.5699999999997,-1473.29,7534.8699999999999,1813.95,7839.2200000000003,-2959.4200000000001
169581.0,17991.5,-5135.21,-1467.28,6848.5500000000002,1886.95,7628.8100000000004,-2904.3899999999999
169582.0,17368.099999999999,-5139.4099999999999,-1451.6400000000001,6193.21,1962.97,7420.0500000000002,-2868.4699999999998
169583.0,16760.5,-5106.9700000000003,-1468.9300000000001,5602.5500000000002,2012.27,7201.5799999999999,-2840.73
169584.0,16233.9,-5073.25,-1449.8099999999999,5131.4300000000003,2031.6099999999999,7010.0699999999997,-2795.46
169585.0,15836.9,-5114.7299999999996,-1454.6400000000001,4685.1300000000001,2061.6599999999999,6874.2200000000003,-2752.4200000000001
169586.0,15545.700000000001,-5152.3599999999997,-1450.29,4304.7799999999997,2107.04,6778.25,-2731.52
169587.0,15331.200000000001,-5220.6300000000001,-1454.0799999999999,3954.0900000000001,2162.3400000000001,6706.3599999999997,-2725.73
169588.0,15152.799999999999,-5281.5299999999997,-1474.5,3633.4099999999999,2244.9400000000001,6631.7399999999998,-2739.6700000000001
169589.0,14925.6,-5282.1599999999999,-1530.8399999999999,3368.1599999999999,2322.54,6518.0900000000001,-2749.7600000000002
169590.0,14629.5,-5224.1899999999996,-1543.1099999999999,3159.6399999999999,2357.3400000000001,6385.04,-2712.23
169591.0,14314.6,-5174.4499999999998,-1526.77,2900.3499999999999,2380.5799999999999,6262.3599999999997,-2658.4299999999998
169592.0,13982.1,-5073.3999999999996,-1501.98,2643.4200000000001,2405.8800000000001,6125.1800000000003,-2635.52
169593.0,13613.299999999999,-4982.1099999999997,-1502.26,2399.6399999999999,2402.7800000000002,5962.2600000000002,-2610.4200000000001
169594.0,13238.4,-4884.1700000000001,-1463.3499999999999,2184.3499999999999,2401.5500000000002,5793.7600000000002,-2566.77
169595.0,12833.4,-4791.3199999999997,-1486.0799999999999,1926.1600000000001,2404.9099999999999,5614.4499999999998,-2512.2399999999998
169596.0,12403.9,-4584.4899999999998,-1444.3199999999999,1734.4100000000001,2393.21,5436.8999999999996,-2452.7199999999998
169597.0,11941.1,-4509.9300000000003,-1471.5799999999999,1427.1099999999999,2306.52,5273.7700000000004,-2362.8699999999999
169598.0,11674.299999999999,-4387.79,-1265.72,1197.0999999999999,2325.1100000000001,5171.25,-2334.0
169599.0,11251.5,-4419.8599999999997,-1539.1800000000001,775.42600000000004,2286.1799999999998,4978.8699999999999,-2325.5599999999999
169600.0,60441.699999999997,39338.0,6933.8199999999997,65955.899999999994,-15701.700000000001,8591.9599999999991,-4866.1899999999996
169601.0,58240.300000000003,35539.900000000001,5818.8199999999997,62085.599999999999,-14590.200000000001,10035.799999999999,-4972.2700000000004
169602.0,56202.800000000003,32861.400000000001,5409.5799999999999,58832.900000000001,-13487.299999999999,11285.1,-5473.5900000000001
169603.0,54296.0,29511.200000000001,4833.8999999999996,55057.199999999997,-12769.299999999999,12471.799999999999,-5781.5799999999999
169604.0,52247.599999999999,26625.900000000001,4626.8500000000004,51601.699999999997,-11804.799999999999,13460.4,-6082.8599999999997
169605.0,50228.599999999999,23772.599999999999,4003.4899999999998,47891.599999999999,-10872.0,14167.1,-6240.6000000000004
169606.0,48260.800000000003,21639.5,3641.1599999999999,44789.699999999997,-9948.8899999999994,14546.0,-6347.3299999999999
169607.0,46444.099999999999,19528.700000000001,3127.0300000000002,41891.099999999999,-9186.7900000000009,14694.5,-6329.9099999999999
169608.0,44782.099999999999,17726.099999999999,2857.96,39559.099999999999,-8491.5799999999999,14711.200000000001,-6258.3299999999999
169609.0,43232.699999999997,15701.799999999999,2442.04,37267.199999999997,-7831.3000000000002,14662.9,-6143.9700000000003
169610.0,41732.800000000003,13944.1,2273.1900000000001,35434.199999999997,-7118.8800000000001,14505.1,-6042.96
169611.0,40375.400000000001,12065.799999999999,1952.98,33738.5,-6414.7799999999997,14271.9,-5902.2799999999997
169612.0,39128.0,10133.6,1530.9300000000001,32084.599999999999,-5717.29,14032.4,-5701.6499999999996
169613.0,37764.300000000003,8285.8500000000004,1088.3699999999999,30323.700000000001,-4996.9799999999996,13731.0,-5462.6499999999996
169614.0,36073.699999999997,6882.9799999999996,861.85699999999997,28640.700000000001,-4261.6400000000003,13221.5,-5219.9399999999996
169615.0,34214.300000000003,6065.3500000000004,1001.83,27421.900000000001,-3599.8000000000002,12493.6,-4952.75
169616.0,32590.900000000001,4938.0799999999999,686.178,26024.5,-3079.27,11773.799999999999,-4672.0299999999997
169617.0,31108.400000000001,3455.9299999999998,-45.373899999999999,24221.799999999999,-2668.5999999999999,11148.700000000001,-4370.4099999999999
169618.0,29559.799999999999,2691.9099999999999,-88.579999999999998,22974.200000000001,-2247.8099999999999,10552.799999999999,-4043.02
169619.0,28096.0,1980.52,-201.93000000000001,21634.400000000001,-1852.96,10052.799999999999,-3740.6199999999999
169620.0,26831.400000000001,1292.6099999999999,-293.64299999999997,20280.400000000001,-1559.3699999999999,9701.9899999999998,-3515.2800000000002
169621.0,25782.900000000001,430.32900000000001,-354.226,18943.200000000001,-1265.6600000000001,9442.5699999999997,-3396.02
169622.0,24938.700000000001,-524.18200000000002,-446.19299999999998,17745.0,-877.83299999999997,9195.2600000000002,-3347.9000000000001
169623.0,24256.700000000001,-1497.1700000000001,-650.524,16641.200000000001,-448.62099999999998,8957.0900000000001,-3303.3499999999999
169624.0,23706.5,-2405.1199999999999,-890.40300000000002,15627.200000000001,-42.883000000000003,8758.5200000000004,-3251.1300000000001
169625.0,23293.5,-3144.9499999999998,-997.49199999999996,14805.700000000001,332.31599999999997,8622.3600000000006,-3211.1100000000001
169626.0,22980.799999999999,-3880.1500000000001,-1168.9300000000001,13980.700000000001,692.07799999999997,8520.5200000000004,-3211.6900000000001
169627.0,22694.400000000001,-4411.9899999999998,-1213.97,13356.5,1015.26,8398.4099999999999,-3226.02
169628.0,22369.099999999999,-5020.8100000000004,-1358.1600000000001,12643.1,1303.4200000000001,8238.5799999999999,-3210.6300000000001
169629.0,21971.599999999999,-5482.5799999999999,-1401.25,12012.1,1581.5,8043.5500000000002,-3153.4699999999998
169630.0,21520.0,-5965.5500000000002,-1546.8399999999999,11270.0,1841.3399999999999,7841.5,-3057.2800000000002
169631.0,21036.799999999999,-6278.0,-1599.77,10587.9,2077.96,7660.9300000000003,-2948.54
169632.0,20496.400000000001,-6531.5500000000002,-1712.51,9832.5100000000002,2284.23,7476.5100000000002,-2864.0799999999999
169633.0,19870.599999999999,-6627.7399999999998,-1759.52,9149.6200000000008,2431.73,7255.8000000000002,-2789.54
169634.0,19181.299999999999,-6696.1599999999999,-1803.0899999999999,8454.0499999999993,2528.9200000000001,7011.5,-2702.5700000000002
169635.0,18463.099999999999,-6699.6700000000001,-1807.9300000000001,7778.4700000000003,2600.0999999999999,6767.8199999999997,-2612.29
169636.0,17744.599999999999,-6659.2200000000003,-1814.6400000000001,7115.1300000000001,2649.0100000000002,6532.75,-2537.3899999999999
169637.0,17057.799999999999,-6573.1599999999999,-1794.3299999999999,6529.1000000000004,2670.9000000000001,6303.9799999999996,-2480.3000000000002
169638.0,16439.5,-6516.1599999999999,-1773.76,6010.5,2679.0300000000002,6081.75,-2433.1100000000001
169639.0,15896.700000000001,-6463.9399999999996,-1727.24,5586.7299999999996,2692.75,5866.9200000000001,-2388.6199999999999
169640.0,15411.299999999999,-6452.1400000000003,-1705.8099999999999,5183.04,2712.1700000000001,5667.3299999999999,-2338.4499999999998
169641.0,14988.200000000001,-6460.6099999999997,-1691.9000000000001,4783.6800000000003,2738.6399999999999,5503.8400000000001,-2288.6900000000001
169642.0,14640.200000000001,-6438.25,-1679.1700000000001,4421.5900000000001,2780.2399999999998,5382.0,-2261.75
169643.0,14350.0,-6373.9099999999999,-1692.45,4125.2799999999997,2818.1300000000001,5285.4200000000001,-2257.6700000000001
169644.0,14091.299999999999,-6289.7299999999996,-1708.21,3898.5,2829.3800000000001,5204.8800000000001,-2248.2399999999998
169645.0,13842.5,-6236.3999999999996,-1711.3399999999999,3654.4699999999998,2825.46,5142.0500000000002,-2220.71
169646.0,13570.1,-6174.0299999999997,-1695.5599999999999,3363.6399999999999,2838.8200000000002,5070.8400000000001,-2200.0
169647.0,13242.0,-6089.5200000000004,-1714.4400000000001,3047.5500000000002,2858.4899999999998,4962.2700000000004,-2184.2800000000002
169648.0,12880.700000000001,-5919.9399999999996,-1704.05,2805.25,2864.1399999999999,4838.2600000000002,-2157.0700000000002
169649.0,12498.1,-5745.54,-1721.8199999999999,2563.1500000000001,2831.5300000000002,4720.6800000000003,-2121.5799999999999
169650.0,12121.299999999999,-5494.5200000000004,-1637.53,2406.4099999999999,2780.0999999999999,4610.8199999999997,-2092.3000000000002
169651.0,11699.200000000001,-5423.9300000000003,-1663.8499999999999,2075.5700000000002,2685.9699999999998,4496.46,-2032.3299999999999
169652.0,11353.4,-5191.5500000000002,-1468.48,1798.73,2703.6799999999998,4402.0,-2011.4400000000001
169653.0,10671.700000000001,-5092.8599999999997,-1704.5599999999999,1195.26,2578.6599999999999,4185.5500000000002,-1971.97
169654.0,9579.5400000000009,-5206.0,-1670.8199999999999,1338.47,2622.0300000000002,3230.25,-1596.5799999999999
169655.0,8624.9200000000001,-4944.6300000000001,-1533.02,1410.6199999999999,2597.6199999999999,2506.1599999999999,-1285.45
169656.0,8088.8900000000003,-4876.9200000000001,-1560.52,1242.55,2583.8699999999999,2109.8099999999999,-1139.48
169657.0,8101.8999999999996,-5136.6300000000001,-1609.5899999999999,1121.8599999999999,2657.1599999999999,1959.9300000000001,-1064.6600000000001
169658.0,8537.7199999999993,-5998.0200000000004,-1836.9300000000001,1013.77,2822.5300000000002,1760.72,-892.37199999999996
169659.0,9645.8899999999994,-7088.6999999999998,-2049.5100000000002,1472.98,3227.4699999999998,1285.1300000000001,-654.97799999999995
169660.0,11408.700000000001,-8079.6899999999996,-2375.3400000000001,2407.54,3910.52,605.28700000000003,-401.96100000000001
169661.0,12783.5,-8238.1299999999992,-2437.2399999999998,3339.9099999999999,4572.8000000000002,-192.137,-110.56699999999999
169662.0,13274.799999999999,-8265.9099999999999,-2614.46,3342.0900000000001,4923.1999999999998,-881.149,177.453
169663.0,13312.5,-8306.6800000000003,-2690.5799999999999,2932.4499999999998,4958.5900000000001,-1616.23,542.88099999999997
169664.0,13253.299999999999,-8257.3400000000001,-2775.75,2411.54,4855.9099999999999,-2366.4099999999999,952.25300000000004
169665.0,13142.1,-7762.9099999999999,-2660.9400000000001,2149.4200000000001,4707.54,-3012.9000000000001,1327.4300000000001
169666.0,12818.700000000001,-7016.5,-2553.3299999999999,1716.6700000000001,4515.8500000000004,-3555.9200000000001,1632.54
169667.0,10232.5,-5354.1000000000004,-1495.1800000000001,1853.9000000000001,2763.3600000000001,3387.4299999999998,-1667.4100000000001
169668.0,9092.4699999999993,-5257.9300000000003,-1501.3199999999999,1635.9200000000001,2683.8800000000001,2598.4200000000001,-1299.77
169669.0,8554.1800000000003,-5136.8699999999999,-1427.1300000000001,1509.9100000000001,2642.3899999999999,2233.1700000000001,-1152.1199999999999
169670.0,8652.1900000000005,-5436.0500000000002,-1543.5799999999999,1394.4000000000001,2794.0500000000002,2058.3600000000001,-1081.76
169671.0,9208.4599999999991,-5917.0600000000004,-1675.1199999999999,1686.3399999999999,3135.75,1768.45,-887.34400000000005
169672.0,10435.700000000001,-6820.8199999999997,-1989.8099999999999,2353.8299999999999,3613.4000000000001,1297.1800000000001,-706.10900000000004
169673.0,11922.6,-7853.6499999999996,-2225.2399999999998,3141.5500000000002,4057.4000000000001,658.65700000000004,-506.78100000000001
169674.0,12724.9,-8724.9400000000005,-2461.96,3149.8099999999999,4314.7200000000003,-195.82400000000001,-176.727
169675.0,13058.6,-9078.1800000000003,-2553.0,2887.9899999999998,4470.7200000000003,-958.34299999999996,204.24100000000001
169676.0,13315.0,-9051.8500000000004,-2651.9299999999998,2697.8000000000002,4590.25,-1756.3800000000001,579.11000000000001
169677.0,13382.0,-8674.3199999999997,-2666.8699999999999,2515.2399999999998,4606.1800000000003,-2502.6199999999999,924.41099999999994
169678.0,13064.200000000001,-8170.1999999999998,-2678.7600000000002,2013.4200000000001,4441.4700000000003,-3106.98,1237.5799999999999
169679.0,12503.700000000001,-7462.21,-2601.8000000000002,1341.0699999999999,4211.5900000000001,-3560.0500000000002,1502.6400000000001
169680.0,10664.299999999999,-5659.5500000000002,-1657.8,2113.1900000000001,2785.0,3483.9499999999998,-1704.9200000000001
169681.0,9437.6200000000008,-5463.5100000000002,-1590.51,1869.8199999999999,2733.54,2644.6999999999998,-1328.23
169682.0,8859.2900000000009,-5329.6400000000003,-1560.9000000000001,1691.9300000000001,2677.96,2297.4899999999998,-1168.1700000000001
169683.0,9050.0100000000002,-5673.6000000000004,-1644.4000000000001,1679.51,2820.52,2140.5300000000002,-1097.8099999999999
169684.0,9757.9599999999991,-6397.6899999999996,-1883.9100000000001,1954.8099999999999,3201.6100000000001,1786.97,-903.67100000000005
169685.0,11060.700000000001,-7322.29,-2196.3200000000002,2624.5300000000002,3714.1599999999999,1297.4400000000001,-747.69799999999998
169686.0,12288.0,-8157.3400000000001,-2423.7199999999998,3258.5,4129.6099999999997,648.87599999999998,-525.87900000000002
169687.0,12688.1,-8441.0799999999999,-2362.5799999999999,3427.0999999999999,4286.3699999999999,-208.322,-161.48599999999999
169688.0,12782.200000000001,-8569.6399999999994,-2342.6799999999998,3234.6300000000001,4310.8800000000001,-980.28399999999999,215.66800000000001
169689.0,13090.200000000001,-8579.5300000000007,-2359.5799999999999,3168.6500000000001,4363.7299999999996,-1792.8900000000001,562.34699999999998
169690.0,13299.299999999999,-8433.2000000000007,-2454.4000000000001,2945.3699999999999,4393.7200000000003,-2552.0,862.21000000000004
169691.0,12896.0,-7862.1300000000001,-2373.46,2359.8800000000001,4267.46,-3120.9699999999998,1146.1800000000001
169692.0,12235.5,-7228.3800000000001,-2328.4400000000001,1508.98,4067.3400000000001,-3488.1399999999999,1418.73
169693.0,11129.700000000001,-5779.8100000000004,-1632.4200000000001,2476.0900000000001,2854.9299999999998,3608.7199999999998,-1754.05
169694.0,9861.4200000000001,-5644.7600000000002,-1604.03,2149.9099999999999,2809.6799999999998,2723.0,-1382.28
169695.0,9276.6100000000006,-5467.3299999999999,-1594.02,1968.6800000000001,2791.52,2367.4400000000001,-1206.72
169696.0,9565.3199999999997,-5839.0799999999999,-1702.75,2059.8200000000002,2943.0900000000001,2230.6199999999999,-1118.5599999999999
169697.0,10410.299999999999,-6617.6599999999999,-1842.26,2491.8800000000001,3314.8499999999999,1860.8299999999999,-954.97799999999995
169698.0,11695.200000000001,-7649.6499999999996,-2110.6399999999999,3049.3099999999999,3805.0900000000001,1347.74,-817.697
169699.0,12635.700000000001,-8360.8999999999996,-2277.8000000000002,3503.73,4165.2299999999996,621.46699999999998,-533.67700000000002
169700.0,12740.700000000001,-8546.0799999999999,-2423.2399999999998,3430.5100000000002,4260.5100000000002,-277.64400000000001,-115.627
169701.0,12616.200000000001,-8397.7700000000004,-2451.8000000000002,3264.75,4231.3199999999997,-1040.0899999999999,249.30699999999999
169702.0,12856.9,-8315.5,-2510.5799999999999,3269.0300000000002,4242.8500000000004,-1799.45,556.77599999999995
169703.0,13074.799999999999,-8106.6899999999996,-2486.8600000000001,3221.7800000000002,4232.3900000000003,-2519.4099999999999,799.00900000000001
169704.0,12545.1,-7614.75,-2390.1399999999999,2496.6100000000001,4062.1799999999998,-3051.1500000000001,1039.1700000000001
169705.0,11835.0,-6995.0100000000002,-2287.8299999999999,1623.6800000000001,3858.4299999999998,-3383.0799999999999,1316.47
169706.0,11532.0,-5980.8000000000002,-1709.3900000000001,2723.9200000000001,2904.98,3714.9099999999999,-1773.23
169707.0,10290.299999999999,-5839.7299999999996,-1643.96,2425.5300000000002,2852.3600000000001,2832.1399999999999,-1435.29
169708.0,9767.9899999999998,-5752.1599999999999,-1663.1199999999999,2204.2399999999998,2882.9299999999998,2466.0700000000002,-1257.6199999999999
169709.0,10142.200000000001,-6149.5900000000001,-1822.0899999999999,2378.71,3079.1999999999998,2309.8400000000001,-1134.53
169710.0,11009.700000000001,-6904.6800000000003,-1978.1500000000001,2899.0900000000001,3406.3499999999999,1942.45,-999.63099999999997
169711.0,12113.1,-7868.3699999999999,-2153.75,3414.5900000000001,3783.0300000000002,1412.48,-880.23099999999999
169712.0,12767.700000000001,-8477.4699999999993,-2232.3099999999999,3712.6100000000001,4065.0799999999999,589.44299999999998,-555.98599999999999
169713.0,12756.4,-8489.6299999999992,-2271.2800000000002,3620.21,4174.71,-363.22300000000001,-104.93000000000001
169714.0,12599.299999999999,-8272.6200000000008,-2316.9299999999998,3394.3600000000001,4189.8100000000004,-1119.21,268.33800000000002
169715.0,12836.0,-8154.8599999999997,-2423.25,3385.8299999999999,4244.71,-1817.25,550.92899999999997
169716.0,12995.6,-7943.1000000000004,-2478.1700000000001,3312.1300000000001,4232.5900000000001,-2468.2600000000002,780.327
169717.0,12349.799999999999,-7350.2600000000002,-2330.02,2663.6500000000001,4004.6999999999998,-2954.98,999.81100000000004
169718.0,11627.299999999999,-6766.79,-2221.1900000000001,1818.9300000000001,3771.0300000000002,-3290.5900000000001,1251.5
169719.0,11918.0,-6135.1800000000003,-1704.05,3008.0100000000002,2965.25,3802.4699999999998,-1785.75
169720.0,10751.0,-6003.6499999999996,-1683.3900000000001,2737.2800000000002,2905.5,2964.9899999999998,-1480.9400000000001
169721.0,10323.5,-5965.7600000000002,-1658.8800000000001,2578.4699999999998,2949.77,2610.29,-1326.1700000000001
169722.0,10784.700000000001,-6484.1300000000001,-1866.0,2763.0300000000002,3207.2600000000002,2392.8499999999999,-1174.8900000000001
169723.0,11665.299999999999,-7165.1000000000004,-2027.26,3340.1599999999999,3552.0900000000001,2013.9000000000001,-1044.8599999999999
169724.0,12534.200000000001,-7984.4099999999999,-2203.7399999999998,3783.8000000000002,3837.4499999999998,1470.5599999999999,-923.94899999999996
169725.0,12863.1,-8396.9699999999993,-2176.8499999999999,4005.98,4000.52,586.66999999999996,-588.79600000000005
169726.0,12700.4,-8468.4599999999991,-2261.8800000000001,3721.8299999999999,4053.8400000000001,-402.05900000000003,-129.63200000000001
169727.0,12509.700000000001,-8232.7700000000004,-2251.3200000000002,3467.3200000000002,4064.9000000000001,-1162.6700000000001,245.40600000000001
169728.0,12734.299999999999,-8189.1999999999998,-2347.3099999999999,3366.79,4136.1700000000001,-1818.75,501.75599999999997
169729.0,12852.0,-7955.3999999999996,-2352.5300000000002,3256.3299999999999,4137.5500000000002,-2437.6399999999999,755.26900000000001
169730.0,12220.6,-7330.9799999999996,-2292.6399999999999,2652.8099999999999,3926.23,-2906.1700000000001,1000.08
169731.0,11550.6,-6668.4799999999996,-2186.8600000000001,1978.99,3711.6700000000001,-3241.27,1219.27
169732.0,12262.0,-6338.7299999999996,-1728.4400000000001,3247.2199999999998,2989.29,3870.2800000000002,-1794.48
169733.0,11237.9,-6173.6199999999999,-1737.8599999999999,3070.9299999999998,2968.6500000000001,3099.1799999999998,-1517.28
169734.0,10935.299999999999,-6203.3000000000002,-1727.0699999999999,2973.2399999999998,3008.9400000000001,2792.5500000000002,-1397.0899999999999
169735.0,11442.200000000001,-6811.6300000000001,-1893.1600000000001,3192.6599999999999,3282.3899999999999,2508.5300000000002,-1245.1199999999999
169736.0,12306.200000000001,-7539.2200000000003,-2084.02,3699.1300000000001,3653.6399999999999,2082.71,-1100.0
169737.0,12952.700000000001,-8172.3699999999999,-2226.3000000000002,4084.9000000000001,3900.5500000000002,1496.8800000000001,-947.45600000000002
169738.0,12970.5,-8380.9799999999996,-2187.3600000000001,4201.8100000000004,3972.4299999999998,587.93499999999995,-606.24099999999999
169739.0,12634.700000000001,-8289.1100000000006,-2173.1199999999999,3942.2199999999998,3953.0300000000002,-398.83300000000003,-158.78800000000001
169740.0,12393.0,-8077.46,-2159.25,3643.6799999999998,3933.5,-1155.6800000000001,199.37899999999999
169741.0,12506.799999999999,-8032.29,-2193.5799999999999,3474.02,3962.6300000000001,-1775.01,431.202
169742.0,12527.1,-7816.4799999999996,-2179.02,3249.5,3931.0700000000002,-2394.5300000000002,710.57399999999996
169743.0,12037.5,-7213.0799999999999,-2143.5100000000002,2718.79,3771.6399999999999,-2902.0999999999999,994.56500000000005
169744.0,11541.5,-6631.5500000000002,-2126.3200000000002,2121.6100000000001,3634.48,-3251.3600000000001,1208.8099999999999
169745.0,12584.200000000001,-6448.2200000000003,-1716.9000000000001,3544.9200000000001,2990.5100000000002,3940.5900000000001,-1823.9400000000001
169746.0,11781.700000000001,-6375.1400000000003,-1805.77,3419.73,3050.6300000000001,3238.29,-1567.0599999999999
169747.0,11609.200000000001,-6390.0799999999999,-1781.28,3458.9099999999999,3097.5799999999999,2984.0500000000002,-1463.3299999999999
169748.0,12107.6,-7050.9499999999998,-1910.52,3696.3699999999999,3331.79,2664.4899999999998,-1330.28
169749.0,12893.0,-7817.4099999999999,-2050.1300000000001,4140.7299999999996,3681.6300000000001,2172.0500000000002,-1171.99
169750.0,13300.4,-8368.8299999999999,-2180.0799999999999,4368.46,3897.5100000000002,1501.6500000000001,-975.30200000000002
169751.0,13062.200000000001,-8388.5799999999999,-2139.9499999999998,4366.0799999999999,3934.1900000000001,579.46299999999997,-619.65200000000004
169752.0,12596.4,-8207.6100000000006,-2180.9899999999998,4056.0900000000001,3887.3699999999999,-376.16399999999999,-183.16399999999999
169753.0,12299.4,-7929.0600000000004,-2146.5300000000002,3804.6999999999998,3838.4299999999998,-1116.52,149.685
169754.0,12231.700000000001,-7820.0500000000002,-2138.9000000000001,3558.4499999999998,3801.79,-1707.0699999999999,369.36599999999999
169755.0,12123.0,-7542.0100000000002,-2076.5500000000002,3275.0100000000002,3718.8499999999999,-2335.75,671.03999999999996
169756.0,11802.0,-7023.3800000000001,-2080.1599999999999,2783.9200000000001,3603.1900000000001,-2905.77,977.85400000000004
169757.0,11521.6,-6537.8599999999997,-2080.4200000000001,2283.6700000000001,3539.77,-3288.3699999999999,1204.1199999999999
169758.0,12933.9,-6545.0100000000002,-1756.6099999999999,3813.8099999999999,2999.0300000000002,4049.0100000000002,-1869.79
169759.0,12408.700000000001,-6603.4399999999996,-1841.97,3820.3899999999999,3129.5500000000002,3408.9499999999998,-1636.72
169760.0,12350.799999999999,-6683.0200000000004,-1883.21,3915.7399999999998,3214.9899999999998,3164.5799999999999,-1526.3399999999999
169761.0,12786.700000000001,-7246.5500000000002,-1955.8900000000001,4226.8199999999997,3391.7199999999998,2835.4299999999998,-1407.29
169762.0,13408.299999999999,-8012.0,-2072.5,4588.6000000000004,3663.1500000000001,2279.9000000000001,-1254.3900000000001
169763.0,13528.9,-8430.9099999999999,-2119.2800000000002,4676.7700000000004,3832.1199999999999,1513.25,-1031.02
169764.0,13082.0,-8390.6700000000001,-2101.1199999999999,4477.9099999999999,3856.48,585.11400000000003,-651.42100000000005
169765.0,12594.1,-8132.1800000000003,-2103.2199999999998,4207.8400000000001,3825.3099999999999,-341.67899999999997,-211.952
169766.0,12283.299999999999,-7856.2600000000002,-2111.8800000000001,3952.7399999999998,3775.6300000000001,-1074.6500000000001,107.386
169767.0,12021.799999999999,-7604.4799999999996,-2062.5100000000002,3663.2800000000002,3686.8299999999999,-1652.0799999999999,330.45299999999997
169768.0,11780.700000000001,-7248.9700000000003,-2005.8199999999999,3311.96,3566.2399999999998,-2288.3899999999999,650.24000000000001
169769.0,11618.1,-6788.3500000000004,-2016.1199999999999,2888.8600000000001,3486.5300000000002,-2912.0599999999999,971.64099999999996
169770.0,11557.799999999999,-6461.0200000000004,-2077.1100000000001,2429.1300000000001,3472.8000000000002,-3349.8800000000001,1218.8699999999999
169771.0,13355.6,-6632.6999999999998,-1783.75,4120.3199999999997,3024.4299999999998,4204.8500000000004,-1905.26
169772.0,13100.200000000001,-6828.29,-1849.21,4297.1599999999999,3180.4499999999998,3618.5799999999999,-1714.27
169773.0,13135.9,-7002.8100000000004,-1928.3699999999999,4432.0299999999997,3316.1900000000001,3337.3800000000001,-1598.6800000000001
169774.0,13492.6,-7456.8100000000004,-2009.6199999999999,4754.1499999999996,3482.9299999999998,2990.3400000000001,-1479.45
169775.0,13901.4,-8104.6099999999997,-2108.0300000000002,5048.6899999999996,3678.1900000000001,2393.0900000000001,-1340.1199999999999
169776.0,13706.5,-8413.4599999999991,-2093.3899999999999,4953.4899999999998,3775.02,1560.2,-1106.74
169777.0,13063.299999999999,-8334.3700000000008,-2053.0900000000001,4600.2299999999996,3763.9200000000001,628.375,-695.596
169778.0,12581.799999999999,-8093.0,-2049.1700000000001,4346.0100000000002,3731.8000000000002,-290.60599999999999,-251.98599999999999
169779.0,12268.200000000001,-7821.3500000000004,-2068.8400000000001,4093.8899999999999,3684.6100000000001,-1040.1700000000001,63.459800000000001
169780.0,11862.5,-7459.1700000000001,-1995.4000000000001,3747.5599999999999,3573.6100000000001,-1624.71,302.17700000000002
169781.0,11531.200000000001,-7058.4099999999999,-1955.6900000000001,3316.8499999999999,3441.52,-2270.77,639.03099999999995
169782.0,11508.4,-6643.1300000000001,-1974.4200000000001,2954.3899999999999,3393.6100000000001,-2938.4200000000001,981.46100000000001
169783.0,11666.200000000001,-6398.7299999999996,-2066.9699999999998,2589.3499999999999,3421.9000000000001,-3447.3600000000001,1252.0599999999999
169784.0,13847.799999999999,-6760.7799999999997,-1827.3599999999999,4479.8400000000001,3051.3099999999999,4376.8199999999997,-1925.5999999999999
169785.0,13816.5,-7017.3999999999996,-1863.4300000000001,4842.3299999999999,3209.04,3842.7399999999998,-1789.6900000000001
169786.0,13931.0,-7308.9799999999996,-1967.6800000000001,4985.4200000000001,3375.5700000000002,3524.9499999999998,-1693.1900000000001
169787.0,14216.9,-7727.1800000000003,-2043.29,5253.5699999999997,3566.2800000000002,3139.3499999999999,-1567.6800000000001
169788.0,14386.4,-8263.3400000000001,-2148.0,5406.3199999999997,3721.9099999999999,2498.0599999999999,-1417.4000000000001
169789.0,13873.9,-8388.6000000000004,-2066.1300000000001,5190.0,3737.1799999999998,1632.9300000000001,-1166.6800000000001
169790.0,13051.299999999999,-8260.3700000000008,-2020.6700000000001,4740.4300000000003,3670.73,694.98000000000002,-737.28700000000003
169791.0,12573.0,-8003.1700000000001,-1987.4100000000001,4537.6000000000004,3634.8800000000001,-227.39500000000001,-299.46199999999999
169792.0,12253.0,-7756.7399999999998,-2033.27,4258.54,3593.6100000000001,-1006.34,17.237300000000001
169793.0,11741.5,-7320.7700000000004,-1937.8299999999999,3857.1999999999998,3466.9499999999998,-1614.24,279.11700000000002
169794.0,11349.1,-6890.4300000000003,-1901.1400000000001,3362.3800000000001,3323.2199999999998,-2280.6700000000001,634.27099999999996
169795.0,11455.6,-6518.6000000000004,-1924.78,3042.3600000000001,3302.3699999999999,-2995.6999999999998,999.48199999999997
169796.0,11822.700000000001,-6372.0299999999997,-2072.0700000000002,2728.98,3378.0999999999999,-3575.9200000000001,1290.5799999999999
169797.0,14414.1,-6889.1300000000001,-1863.95,4934.7799999999997,3083.5999999999999,4547.8599999999997,-1962.29
169798.0,14538.799999999999,-7179.3500000000004,-1912.3399999999999,5403.8599999999997,3252.04,4055.4899999999998,-1871.4100000000001
169799.0,14729.9,-7523.6499999999996,-1994.74,5589.0799999999999,3419.5100000000002,3746.7199999999998,-1803.98
169800.0,14922.799999999999,-7986.4399999999996,-2047.1700000000001,5757.7700000000004,3598.8499999999999,3309.2199999999998,-1676.77
169801.0,14797.700000000001,-8421.4599999999991,-2107.73,5728.9200000000001,3717.6700000000001,2589.5700000000002,-1487.45
169802.0,14021.0,-8410.8700000000008,-2043.45,5373.9300000000003,3690.23,1696.4000000000001,-1198.5799999999999
169803.0,13079.299999999999,-8169.9899999999998,-1990.27,4924.6499999999996,3596.5799999999999,760.66899999999998,-772.30600000000004
169804.0,12592.299999999999,-7941.0,-1980.4400000000001,4710.1099999999997,3556.9400000000001,-158.78299999999999,-348.44900000000001
169805.0,12267.1,-7692.25,-2008.0599999999999,4433.4200000000001,3522.3600000000001,-973.21699999999998,-25.566800000000001
169806.0,11688.799999999999,-7228.1599999999999,-1928.23,3965.25,3390.4200000000001,-1619.78,267.28100000000001
169807.0,11267.5,-6755.6999999999998,-1890.1400000000001,3440.4200000000001,3244.1100000000001,-2318.3200000000002,641.44399999999996
169808.0,11475.799999999999,-6432.7799999999997,-1928.6500000000001,3129.79,3240.0599999999999,-3076.9400000000001,1022.63
169809.0,11992.200000000001,-6330.3100000000004,-2054.0599999999999,2880.6100000000001,3338.5599999999999,-3713.5700000000002,1324.75
169810.0,15061.5,-7042.4700000000003,-1906.6199999999999,5427.6099999999997,3120.2600000000002,4738.4700000000003,-2036.8900000000001
169811.0,15281.9,-7369.4399999999996,-1973.72,5934.9499999999998,3325.27,4259.8800000000001,-1965.53
169812.0,15536.9,-7718.4300000000003,-2048.0300000000002,6171.6300000000001,3479.3099999999999,3992.8899999999999,-1908.28
169813.0,15592.9,-8173.7200000000003,-2050.8000000000002,6280.6000000000004,3597.8299999999999,3500.5300000000002,-1791.6900000000001
169814.0,15112.299999999999,-8515.1700000000001,-2065.6300000000001,6032.4099999999999,3658.5700000000002,2676.8299999999999,-1562.8800000000001
169815.0,14133.9,-8404.1399999999994,-2003.9300000000001,5569.8400000000001,3621.54,1742.74,-1226.1400000000001
169816.0,13164.4,-8131.96,-1984.51,5105.7600000000002,3545.5799999999999,815.59199999999998,-804.73699999999997
169817.0,12665.0,-7896.0699999999997,-1969.55,4898.1000000000004,3508.5300000000002,-96.335300000000004,-389.334
169818.0,12321.299999999999,-7660.6700000000001,-1994.79,4599.4799999999996,3472.1700000000001,-946.60900000000004,-58.221699999999998
169819.0,11731.0,-7186.0500000000002,-1927.2,4099.0299999999997,3346.3400000000001,-1647.4300000000001,269.41500000000002
169820.0,11328.200000000001,-6692.5799999999999,-1893.1199999999999,3559.5500000000002,3212.52,-2389.5300000000002,658.37900000000002
169821.0,11593.1,-6395.3199999999997,-1940.6099999999999,3237.2199999999998,3212.21,-3183.8000000000002,1051.23
169822.0,12159.200000000001,-6307.9200000000001,-2057.3800000000001,2997.1199999999999,3300.8800000000001,-3852.8899999999999,1357.1600000000001
169823.0,15773.700000000001,-7203.0600000000004,-1928.1199999999999,5939.0100000000002,3146.6300000000001,4973.5900000000001,-2135.4200000000001
169824.0,16061.700000000001,-7607.1599999999999,-2004.26,6459.8599999999997,3398.2800000000002,4474.0200000000004,-2067.7399999999998
169825.0,16336.1,-7939.1000000000004,-2093.1199999999999,6725.6599999999999,3548.23,4230.29,-1992.6700000000001
169826.0,16218.799999999999,-8302.1000000000004,-2054.4499999999998,6802.96,3592.9000000000001,3686.8400000000001,-1890.2
169827.0,15385.299999999999,-8528.4400000000005,-2036.1300000000001,6347.5200000000004,3588.5999999999999,2774.2800000000002,-1645.04
169828.0,14248.0,-8374.2800000000007,-1977.52,5778.0500000000002,3552.8400000000001,1792.9300000000001,-1267.1400000000001
169829.0,13302.200000000001,-8134.0900000000001,-1982.3,5302.7399999999998,3504.98,866.13599999999997,-839.10599999999999
169830.0,12788.799999999999,-7912.6400000000003,-1971.6400000000001,5073.96,3474.6999999999998,-53.201700000000002,-420.36000000000001
169831.0,12414.4,-7673.0500000000002,-1993.8800000000001,4749.04,3437.54,-937.35900000000004,-75.717600000000004
169832.0,11863.5,-7203.6999999999998,-1943.79,4251.7700000000004,3325.4000000000001,-1701.29,286.23599999999999
169833.0,11514.1,-6718.0100000000002,-1923.3499999999999,3708.9299999999998,3207.7399999999998,-2490.4099999999999,679.24099999999999
169834.0,11791.299999999999,-6412.9799999999996,-1970.5799999999999,3356.3400000000001,3207.77,-3312.4499999999998,1076.0899999999999
169835.0,12335.1,-6280.0200000000004,-2069.7800000000002,3098.5,3286.1500000000001,-3991.3000000000002,1386.8099999999999
169836.0,16512.200000000001,-7350.5500000000002,-1931.49,6476.8400000000001,3146.02,5242.96,-2225.7800000000002
169837.0,16873.200000000001,-7860.0900000000001,-2013.1500000000001,7020.5500000000002,3434.2600000000002,4708.2399999999998,-2176.1700000000001
169838.0,17090.799999999999,-8176.6300000000001,-2111.0900000000001,7261.5500000000002,3591.4299999999998,4437.3599999999997,-2068.9099999999999
169839.0,16771.599999999999,-8413.0900000000001,-2058.8299999999999,7277.5200000000004,3588.8499999999999,3837.21,-1966.77
169840.0,15658.9,-8510.75,-2025.53,6661.6800000000003,3535.3099999999999,2883.98,-1721.3399999999999
169841.0,14412.5,-8350.6700000000001,-1965.5599999999999,6011.3999999999996,3500.0999999999999,1862.0699999999999,-1320.55
169842.0,13499.9,-8173.2700000000004,-1996.4200000000001,5521.9499999999998,3479.1100000000001,916.29700000000003,-875.21699999999998
169843.0,12955.1,-7950.6099999999997,-1975.46,5269.8699999999999,3452.0599999999999,-33.7224,-444.34500000000003
169844.0,12545.5,-7716.25,-2005.04,4895.2799999999997,3416.1300000000001,-952.28700000000003,-78.899500000000003
169845.0,12080.9,-7265.8000000000002,-1975.3399999999999,4424.6800000000003,3331.1199999999999,-1784.45,315.71699999999998
169846.0,11809.1,-6797.5200000000004,-1973.77,3897.77,3236.73,-2611.79,705.92499999999995
169847.0,12062.799999999999,-6477.5799999999999,-2006.8699999999999,3500.1100000000001,3233.4899999999998,-3446.52,1091.54
169848.0,12544.299999999999,-6323.8100000000004,-2102.5500000000002,3158.3099999999999,3299.8899999999999,-4124.6400000000003,1408.4300000000001
169849.0,17242.599999999999,-7426.7600000000002,-1908.3,7089.1800000000003,3129.1199999999999,5506.8599999999997,-2301.9099999999999
169850.0,17697.400000000001,-8085.21,-2045.3499999999999,7614.9200000000001,3436.1500000000001,4961.25,-2293.9699999999998
169851.0,17778.400000000001,-8346.2000000000007,-2076.96,7821.0299999999997,3588.04,4624.9200000000001,-2156.6599999999999
169852.0,17232.299999999999,-8537.1900000000005,-2063.3699999999999,7665.6499999999996,3566.02,3951.27,-2034.55
169853.0,15947.700000000001,-8498.4400000000005,-2003.76,6977.1000000000004,3500.5799999999999,2994.9499999999998,-1778.98
169854.0,14661.5,-8382.2700000000004,-1987.72,6262.6499999999996,3471.9000000000001,1948.3499999999999,-1377.5
169855.0,13775.6,-8238.7700000000004,-2007.04,5790.9799999999996,3475.5500000000002,964.04399999999998,-913.02300000000002
169856.0,13180.1,-8046.4399999999996,-2020.97,5455.1899999999996,3455.5,-38.511299999999999,-462.30500000000001
169857.0,12733.9,-7776.8000000000002,-2021.8299999999999,5063.2799999999997,3420.1199999999999,-992.40499999999997,-68.120599999999996
169858.0,12375.9,-7395.5299999999997,-2033.0899999999999,4590.3699999999999,3360.9000000000001,-1893.8900000000001,351.38999999999999
169859.0,12193.6,-6939.2799999999997,-2023.3199999999999,4106.2700000000004,3289.9099999999999,-2750.9699999999998,739.09799999999996
169860.0,12384.5,-6614.1000000000004,-2050.0900000000001,3645.73,3267.7399999999998,-3578.96,1102.4400000000001
169861.0,12772.0,-6394.2200000000003,-2091.0100000000002,3255.1100000000001,3301.3699999999999,-4253.4799999999996,1419.77
169862.0,17958.200000000001,-7509.9399999999996,-1923.21,7693.7200000000003,3118.0900000000001,5742.1599999999999,-2379.6599999999999
169863.0,18508.5,-8229.5300000000007,-2068.8299999999999,8242.5799999999999,3431.9899999999998,5225.4899999999998,-2415.8099999999999
169864.0,18402.5,-8456.3799999999992,-2059.9899999999998,8353.7800000000007,3551.04,4813.9399999999996,-2260.5300000000002
169865.0,17602.299999999999,-8596.3700000000008,-2034.0799999999999,8027.1300000000001,3508.71,4052.8899999999999,-2106.5999999999999
169866.0,16245.9,-8530.8500000000004,-1997.73,7271.4399999999996,3465.25,3097.8899999999999,-1821.95
169867.0,15003.1,-8454.8999999999996,-2006.3299999999999,6568.6800000000003,3466.1999999999998,2040.3699999999999,-1431.6400000000001
169868.0,14136.9,-8373.4400000000005,-2044.6099999999999,6079.6400000000003,3494.5999999999999,1005.72,-950.03999999999996
169869.0,13483.299999999999,-8176.8000000000002,-2052.6900000000001,5681.6899999999996,3483.9200000000001,-64.638800000000003,-476.86700000000002
169870.0,13002.799999999999,-7912.8900000000003,-2073.0100000000002,5223.4200000000001,3450.9400000000001,-1062.6900000000001,-44.882300000000001
169871.0,12728.700000000001,-7547.5900000000001,-2077.4299999999998,4782.6499999999996,3404.46,-2023.4400000000001,390.30500000000001
169872.0,12615.799999999999,-7131.7700000000004,-2087.0599999999999,4304.3699999999999,3340.3800000000001,-2905.8899999999999,776.69299999999998
169873.0,12719.0,-6741.7200000000003,-2076.73,3827.6900000000001,3291.1799999999998,-3713.79,1115.55
169874.0,13001.1,-6480.3999999999996,-2116.0900000000001,3363.9400000000001,3285.2800000000002,-4379.4499999999998,1427.75
169875.0,18656.299999999999,-7582.54,-1914.0,8304.8400000000001,3105.8000000000002,5953.3500000000004,-2470.48
169876.0,19261.900000000001,-8359.6399999999994,-2106.6599999999999,8806.9200000000001,3427.2399999999998,5482.2200000000003,-2527.7800000000002
169877.0,18981.5,-8495.3700000000008,-2043.28,8871.2000000000007,3511.0999999999999,5010.3999999999996,-2368.25
169878.0,17934.599999999999,-8612.7399999999998,-2025.51,8359.2000000000007,3444.1399999999999,4167.2700000000004,-2185.0799999999999
169879.0,16569.799999999999,-8562.8899999999994,-1989.25,7597.5799999999999,3432.8099999999999,3196.04,-1863.7
169880.0,15427.700000000001,-8589.9200000000001,-2046.9400000000001,6904.3900000000003,3478.5999999999999,2129.9200000000001,-1482.8800000000001
169881.0,14577.299999999999,-8551.8400000000001,-2082.4699999999998,6412.21,3532.25,1034.4000000000001,-981.452
169882.0,13867.4,-8374.2999999999993,-2109.3899999999999,5927.3500000000004,3529.23,-106.669,-488.35199999999998
169883.0,13358.200000000001,-8088.6300000000001,-2123.6500000000001,5424.1199999999999,3503.1300000000001,-1162.28,-18.175799999999999
169884.0,13129.9,-7744.2200000000003,-2148.6799999999998,4963.2200000000003,3466.02,-2169.29,429.40499999999997
169885.0,13054.0,-7317.6400000000003,-2158.9899999999998,4501.9200000000001,3404.48,-3070.5100000000002,818.89999999999998
169886.0,13080.700000000001,-6877.6400000000003,-2145.9400000000001,3999.9699999999998,3338.4200000000001,-3853.3699999999999,1137.4300000000001
169887.0,13258.5,-6537.8900000000003,-2154.21,3512.6300000000001,3295.71,-4501.9899999999998,1440.72
169888.0,19323.299999999999,-7667.5799999999999,-1909.8599999999999,8868.3400000000001,3069.9099999999999,6158.6199999999999,-2578.9699999999998
169889.0,19915.5,-8449.5499999999993,-2103.4400000000001,9311.7900000000009,3408.1700000000001,5716.7600000000002,-2627.6700000000001
169890.0,19524.0,-8541.7700000000004,-2043.8599999999999,9326.7800000000007,3481.1100000000001,5204.5799999999999,-2461.0900000000001
169891.0,18295.200000000001,-8611.2099999999991,-2015.97,8714.0400000000009,3392.8200000000002,4300.9399999999996,-2257.54
169892.0,16954.700000000001,-8627.3299999999999,-2002.25,7951.3100000000004,3413.98,3296.8899999999999,-1912.9400000000001
169893.0,15931.299999999999,-8769.6200000000008,-2091.77,7286.0600000000004,3509.0100000000002,2213.0900000000001,-1529.0599999999999
169894.0,15087.700000000001,-8779.7700000000004,-2133.0599999999999,6774.71,3587.4299999999998,1042.0699999999999,-1006.41
169895.0,14336.299999999999,-8609.9099999999999,-2173.8400000000001,6219.29,3597.7399999999998,-163.36500000000001,-493.55200000000002
169896.0,13806.4,-8325.9599999999991,-2196.6700000000001,5652.3100000000004,3578.1799999999998,-1281.0,4.8879099999999998
169897.0,13579.799999999999,-7976.04,-2215.7199999999998,5151.5500000000002,3545.02,-2322.29,459.75400000000002
169898.0,13517.5,-7545.8000000000002,-2233.98,4669.7399999999998,3487.77,-3238.8299999999999,858.27700000000004
169899.0,13496.6,-7063.7299999999996,-2216.5599999999999,4158.8400000000001,3415.3499999999999,-4002.1300000000001,1164.8499999999999
169900.0,13568.0,-6662.6499999999996,-2215.8699999999999,3634.8600000000001,3339.5100000000002,-4626.8900000000003,1459.22
169901.0,19944.5,-7698.9899999999998,-1874.75,9415.2700000000004,2996.0,6374.6700000000001,-2695.8600000000001
169902.0,20451.099999999999,-8509.2299999999996,-2064.1999999999998,9743.4400000000005,3342.5300000000002,5933.3599999999997,-2711.54
169903.0,20018.700000000001,-8606.5200000000004,-2028.9200000000001,9746.6700000000001,3435.6500000000001,5377.8500000000004,-2529.1500000000001
169904.0,18707.900000000001,-8630.8600000000006,-2022.49,9102.1299999999992,3359.3699999999999,4437.1899999999996,-2318.1599999999999
169905.0,17430.099999999999,-8728.0499999999993,-2033.8099999999999,8355.4300000000003,3417.1700000000001,3407.6100000000001,-1970.29
169906.0,16508.299999999999,-8998.2800000000007,-2144.6199999999999,7711.7600000000002,3552.5,2282.0500000000002,-1566.96
169907.0,15659.1,-9047.3700000000008,-2180.6700000000001,7173.4799999999996,3652.0500000000002,1026.05,-1025.3099999999999
169908.0,14890.9,-8908.6800000000003,-2240.46,6545.3599999999997,3679.02,-236.68100000000001,-490.64699999999999
169909.0,14334.4,-8601.3400000000001,-2247.8499999999999,5933.04,3661.4699999999998,-1412.3599999999999,20.852399999999999
169910.0,14058.6,-8251.5799999999999,-2277.3499999999999,5347.1999999999998,3619.3699999999999,-2468.8899999999999,476.66500000000002
169911.0,13981.799999999999,-7797.5500000000002,-2278.7399999999998,4845.2700000000004,3556.1900000000001,-3400.6599999999999,881.77599999999995
169912.0,13929.799999999999,-7301.1999999999998,-2271.6799999999998,4309.2399999999998,3479.8899999999999,-4155.29,1184.3599999999999
169913.0,13905.700000000001,-6823.54,-2243.8400000000001,3770.8000000000002,3375.6399999999999,-4759.4799999999996,1475.3499999999999
169914.0,20500.900000000001,-7677.5799999999999,-1844.26,9936.2900000000009,2878.04,6592.5299999999997,-2800.21
169915.0,20865.099999999999,-8454.1399999999994,-1980.45,10178.4,3213.2600000000002,6131.1400000000003,-2777.6900000000001
169916.0,20452.299999999999,-8652.4099999999999,-2005.29,10154.799999999999,3355.1300000000001,5523.5100000000002,-2589.5500000000002
169917.0,19192.799999999999,-8682.0599999999995,-2029.5599999999999,9536.6399999999994,3350.9200000000001,4573.4300000000003,-2377.04
169918.0,18027.900000000001,-8905.4699999999993,-2094.8200000000002,8810.0799999999999,3453.8200000000002,3526.4499999999998,-2028.0999999999999
169919.0,17150.099999999999,-9252.5499999999993,-2195.73,8197.9099999999999,3610.0799999999999,2324.3499999999999,-1596.6900000000001
169920.0,16271.9,-9346.9699999999993,-2249.3499999999999,7596.6199999999999,3717.71,984.01400000000001,-1033.3699999999999
169921.0,15485.200000000001,-9214.3099999999995,-2295.3000000000002,6929.4799999999996,3740.7199999999998,-330.27800000000002,-479.86099999999999
169922.0,14880.9,-8901.9200000000001,-2306.79,6234.1300000000001,3718.6900000000001,-1547.1099999999999,23.8018
169923.0,14536.299999999999,-8514.8500000000004,-2320.73,5587.8900000000003,3671.0599999999999,-2600.0999999999999,480.54399999999998
169924.0,14424.200000000001,-8043.8000000000002,-2320.8899999999999,5044.71,3599.73,-3543.8499999999999,884.90300000000002
169925.0,14343.1,-7522.2399999999998,-2304.8400000000001,4494.3299999999999,3516.25,-4299.5799999999999,1190.3299999999999
169926.0,14242.0,-6993.2799999999997,-2274.3400000000001,3922.6100000000001,3385.4899999999998,-4896.7200000000003,1483.3900000000001
169927.0,20979.5,-7540.5900000000001,-1783.6400000000001,10495.299999999999,2729.9699999999998,6786.7299999999996,-2886.6999999999998
169928.0,21190.099999999999,-8306.4699999999993,-1921.7,10601.5,3048.4299999999998,6311.5600000000004,-2833.1500000000001
169929.0,20829.099999999999,-8615.3299999999999,-1941.25,10590.5,3236.5500000000002,5659.9899999999998,-2651.52
169930.0,19770.900000000001,-8811.5499999999993,-2050.4699999999998,10003.799999999999,3341.3000000000002,4727.3800000000001,-2438.02
169931.0,18753.200000000001,-9145.9200000000001,-2135.0799999999999,9362.6100000000006,3503.73,3644.0100000000002,-2086.4400000000001
169932.0,17861.200000000001,-9562.7800000000007,-2269.9299999999998,8715.3099999999995,3687.4400000000001,2333.5900000000001,-1624.8699999999999
169933.0,16939.900000000001,-9650.3799999999992,-2333.29,8064.3299999999999,3810.5999999999999,908.83000000000004,-1030.9200000000001
169934.0,16097.299999999999,-9496.8299999999999,-2390.6100000000001,7330.0299999999997,3821.6999999999998,-449.27100000000002,-459.95400000000001
169935.0,15417.9,-9134.8600000000006,-2371.9699999999998,6578.7700000000004,3783.6300000000001,-1670.99,23.199200000000001
169936.0,15009.6,-8762.8799999999992,-2400.4099999999999,5849.1599999999999,3721.0,-2710.3200000000002,478.96499999999997
169937.0,14848.200000000001,-8244.7099999999991,-2363.5,5295.2200000000003,3635.0,-3662.9400000000001,873.83100000000002
169938.0,14734.5,-7723.1499999999996,-2364.3600000000001,4701.75,3538.0,-4427.7200000000003,1186.97
169939.0,14570.1,-7107.0600000000004,-2294.6500000000001,4137.1999999999998,3383.1799999999998,-5029.3800000000001,1481.6500000000001
169940.0,21388.099999999999,-7384.1199999999999,-1776.8599999999999,11000.4,2564.29,6952.1999999999998,-2965.2199999999998
169941.0,21457.200000000001,-8039.8199999999997,-1831.1400000000001,11083.9,2870.1300000000001,6467.1599999999999,-2869.0500000000002
169942.0,21157.5,-8525.7199999999993,-1906.6500000000001,11020.9,3084.3400000000001,5793.2700000000004,-2702.6199999999999
169943.0,20435.599999999999,-8916.2800000000007,-2033.6400000000001,10598.799999999999,3309.5900000000001,4903.1300000000001,-2499.1199999999999
169944.0,19582.0,-9448.5599999999995,-2190.6199999999999,9989.2399999999998,3544.0700000000002,3760.6500000000001,-2154.0
169945.0,18657.0,-9898.5699999999997,-2317.9899999999998,9309.7000000000007,3773.8600000000001,2325.9899999999998,-1664.5799999999999
169946.0,17692.700000000001,-10037.700000000001,-2432.8099999999999,8537.4099999999999,3927.7199999999998,806.23500000000001,-1031.77
169947.0,16748.099999999999,-9808.5499999999993,-2471.6500000000001,7718.8299999999999,3933.0300000000002,-596.49699999999996,-440.70999999999998
169948.0,15978.200000000001,-9425.7700000000004,-2480.8299999999999,6864.9200000000001,3881.6199999999999,-1790.6800000000001,30.032299999999999
169949.0,15512.4,-8996.5799999999999,-2475.0,6140.3000000000002,3799.1199999999999,-2810.23,483.86700000000002
169950.0,15294.200000000001,-8458.9699999999993,-2445.27,5549.8800000000001,3696.9899999999998,-3764.5900000000001,861.50999999999999
169951.0,15142.9,-7889.4799999999996,-2425.1700000000001,4955.0699999999997,3585.2399999999998,-4541.7799999999997,1184.2
169952.0,14920.1,-7232.5299999999997,-2362.8600000000001,4354.0299999999997,3406.3099999999999,-5153.6599999999999,1481.1199999999999
169953.0,21766.5,-7111.3000000000002,-1701.01,11566.700000000001,2387.25,7111.0699999999997,-3049.3699999999999
169954.0,21696.099999999999,-7790.8400000000001,-1817.8399999999999,11542.299999999999,2705.9899999999998,6575.9499999999998,-2889.9699999999998
169955.0,21481.799999999999,-8318.4099999999999,-1867.8,11543.299999999999,2950.3099999999999,5911.1000000000004,-2741.8200000000002
169956.0,21156.299999999999,-9046.5200000000004,-2089.2199999999998,11229.1,3271.8499999999999,5083.3999999999996,-2550.0999999999999
169957.0,20487.700000000001,-9713.2700000000004,-2199.2399999999998,10753.5,3568.4699999999998,3880.8699999999999,-2220.8800000000001
169958.0,19540.700000000001,-10295.6,-2367.6300000000001,9961.0100000000002,3838.7600000000002,2323.8200000000002,-1716.6600000000001
169959.0,18486.799999999999,-10429.799999999999,-2457.0900000000001,9088.0499999999993,4004.5500000000002,695.32600000000002,-1049.3800000000001
169960.0,17399.900000000001,-10164.200000000001,-2525.6999999999998,8092.6400000000003,4011.6599999999999,-748.21299999999997,-445.03800000000001
169961.0,16545.900000000001,-9724.2000000000007,-2519.0700000000002,7175.8500000000004,3962.3499999999999,-1906.5899999999999,29.034700000000001
169962.0,16040.0,-9298.2800000000007,-2545.98,6405.1499999999996,3870.9699999999998,-2913.46,485.38099999999997
169963.0,15780.700000000001,-8705.4500000000007,-2492.3099999999999,5831.3599999999997,3764.52,-3863.0,845.28800000000001
169964.0,15596.1,-8131.3900000000003,-2497.54,5191.8100000000004,3643.4699999999998,-4656.7299999999996,1179.1199999999999
169965.0,15323.299999999999,-7384.9499999999998,-2403.1999999999998,4598.0699999999997,3445.3000000000002,-5286.75,1486.5
169966.0,22166.200000000001,-6889.8699999999999,-1687.74,12073.1,2184.1900000000001,7291.0500000000002,-3138.02
169967.0,21975.599999999999,-7500.7200000000003,-1738.0799999999999,12104.6,2571.4200000000001,6655.1499999999996,-2922.4499999999998
169968.0,21898.799999999999,-8220.1499999999996,-1934.25,12041.5,2887.73,6017.7399999999998,-2781.8099999999999
169969.0,21906.200000000001,-9108.6599999999999,-2110.0300000000002,11975.5,3272.79,5224.7600000000002,-2574.8400000000001
169970.0,21414.0,-9998.6000000000004,-2282.1799999999998,11544.0,3584.0599999999999,3975.0999999999999,-2252.7600000000002
169971.0,20448.799999999999,-10612.0,-2372.8299999999999,10752.799999999999,3845.4499999999998,2321.4400000000001,-1761.6400000000001
169972.0,19241.099999999999,-10776.6,-2482.9000000000001,9675.1700000000001,4007.7199999999998,591.45000000000005,-1087.28
169973.0,18011.599999999999,-10442.4,-2518.9699999999998,8542.9300000000003,4027.75,-868.78599999999994,-478.94400000000002
169974.0,17086.0,-10043.0,-2558.2800000000002,7496.3599999999997,3980.1700000000001,-2002.75,4.2771299999999997
169975.0,16535.299999999999,-9542.4200000000001,-2535.46,6748.1999999999998,3884.4499999999998,-3009.77,461.98899999999998
169976.0,16258.1,-8980.2199999999993,-2528.0300000000002,6131.1099999999997,3783.9099999999999,-3954.3200000000002,812.04100000000005
169977.0,16059.299999999999,-8342.9699999999993,-2494.98,5515.8900000000003,3659.0700000000002,-4777.6199999999999,1159.97
169978.0,15756.1,-7581.8100000000004,-2446.1799999999998,4845.5,3449.48,-5444.71,1487.05
169979.0,22602.799999999999,-6509.4499999999998,-1559.2,12750.4,1949.1300000000001,7491.2200000000003,-3215.96
169980.0,22359.400000000001,-7340.29,-1721.8699999999999,12646.1,2429.25,6753.7399999999998,-2981.5500000000002
169981.0,22471.700000000001,-8181.3699999999999,-1919.73,12668.0,2854.1599999999999,6141.2799999999997,-2830.8400000000001
169982.0,22708.599999999999,-9324.8600000000006,-2198.6300000000001,12688.299999999999,3313.1900000000001,5298.6400000000003,-2584.0300000000002
169983.0,22332.299999999999,-10222.0,-2358.27,12413.299999999999,3651.3699999999999,3978.4200000000001,-2239.9099999999999
169984.0,21310.200000000001,-10841.299999999999,-2466.4200000000001,11559.0,3868.23,2274.9899999999998,-1769.52
169985.0,19908.5,-10947.6,-2515.1999999999998,10326.0,3981.0100000000002,497.61799999999999,-1122.0
169986.0,18560.299999999999,-10633.799999999999,-2550.21,9034.6700000000001,3990.7600000000002,-945.97199999999998,-522.70899999999995
169987.0,17573.599999999999,-10213.1,-2555.5599999999999,7952.2200000000003,3936.5999999999999,-2067.3699999999999,-41.740200000000002
169988.0,16970.400000000001,-9722.4899999999998,-2557.1799999999998,7136.25,3843.02,-3078.0,410.11700000000002
169989.0,16692.200000000001,-9153.5599999999995,-2535.0700000000002,6533.3400000000001,3752.04,-4024.77,761.428
169990.0,16511.400000000001,-8524.2099999999991,-2525.3699999999999,5891.3400000000001,3631.1799999999998,-4897.0500000000002,1126.8399999999999
169991.0,16198.4,-7688.7700000000004,-2458.8699999999999,5197.5299999999997,3418.5799999999999,-5620.5799999999999,1476.72
169992.0,23072.099999999999,-6168.4399999999996,-1527.22,13427.799999999999,1702.45,7682.7399999999998,-3263.54
169993.0,22879.299999999999,-7086.0100000000002,-1621.98,13382.4,2270.48,6898.9700000000003,-3068.0999999999999
169994.0,23200.900000000001,-8277.1599999999999,-1969.79,13326.200000000001,2800.7399999999998,6307.79,-2895.9000000000001
169995.0,23605.099999999999,-9540.5699999999997,-2181.9899999999998,13556.4,3344.2600000000002,5338.3000000000002,-2613.8400000000001
169996.0,23274.0,-10610.700000000001,-2485.2399999999998,13193.1,3755.1399999999999,3885.3699999999999,-2225.7399999999998
169997.0,22120.5,-11053.200000000001,-2534.8200000000002,12316.4,3956.9099999999999,2135.1599999999999,-1735.5999999999999
169998.0,20523.799999999999,-11078.1,-2623.4099999999999,10899.1,4016.52,375.16199999999998,-1116.05
169999.0,19080.200000000001,-10687.299999999999,-2605.4099999999999,9582.0499999999993,3990.2800000000002,-1009.79,-540.70500000000004
170000.0,18046.400000000001,-10313.799999999999,-2642.6599999999999,8428.6599999999999,3915.3600000000001,-2106.6500000000001,-80.082899999999995
170001.0,17400.299999999999,-9776.0699999999997,-2583.25,7629.5,3816.6399999999999,-3119.21,358.24099999999999
170002.0,17126.400000000001,-9269.6299999999992,-2594.0100000000002,6986.6400000000003,3725.7399999999998,-4075.8099999999999,713.08500000000004
170003.0,16987.200000000001,-8604.1599999999999,-2544.4299999999998,6382.3999999999996,3608.4899999999998,-5013.3999999999996,1094.6400000000001
170004.0,16685.400000000001,-7771.8400000000001,-2526.3899999999999,5595.8599999999997,3399.8400000000001,-5807.8599999999997,1465.3199999999999
170005.0,23552.0,-5676.75,-1382.78,14320.0,1457.75,7820.5200000000004,-3286.1999999999998
170006.0,23545.5,-6921.96,-1653.54,14123.5,2125.5999999999999,7092.5600000000004,-3169.1700000000001
170007.0,24090.099999999999,-8284.3099999999995,-1938.55,14207.200000000001,2744.6700000000001,6526.1499999999996,-2974.9000000000001
170008.0,24615.700000000001,-9854.3700000000008,-2230.7800000000002,14449.6,3346.0300000000002,5395.3999999999996,-2676.75
170009.0,24220.200000000001,-10969.0,-2476.6700000000001,14054.799999999999,3798.5599999999999,3761.54,-2242.3899999999999
170010.0,22851.900000000001,-11362.9,-2566.23,12945.6,3996.9099999999999,1926.04,-1703.3
170011.0,21107.200000000001,-11255.0,-2655.9499999999998,11402.799999999999,4055.4000000000001,198.31,-1091.22
170012.0,19627.099999999999,-10833.700000000001,-2678.3600000000001,10038.799999999999,4031.3400000000001,-1107.5,-529.101
170013.0,18568.0,-10409.200000000001,-2683.5500000000002,8929.5499999999993,3934.02,-2164.0799999999999,-88.155600000000007
170014.0,17896.700000000001,-9885.6000000000004,-2646.1700000000001,8108.2700000000004,3820.3099999999999,-3176.1399999999999,327.68700000000001
170015.0,17622.099999999999,-9366.3999999999996,-2632.77,7499.3999999999996,3721.1100000000001,-4138.3999999999996,680.57799999999997
170016.0,17522.799999999999,-8724.5599999999995,-2604.2399999999998,6877.2399999999998,3601.79,-5141.46,1071.02
170017.0,17256.700000000001,-7841.4799999999996,-2569.8099999999999,6076.54,3404.6900000000001,-6013.8100000000004,1459.4100000000001
170018.0,24051.799999999999,-5281.1599999999999,-1359.79,15157.5,1223.54,7911.2600000000002,-3329.9400000000001
170019.0,24340.299999999999,-6688.75,-1628.52,15039.4,2025.6400000000001,7312.21,-3264.3699999999999
170020.0,25130.099999999999,-8379.1599999999999,-2002.0899999999999,15145.299999999999,2697.2199999999998,6777.1199999999999,-3047.27
170021.0,25698.5,-10065.5,-2190.1199999999999,15518.299999999999,3305.9499999999998,5473.3299999999999,-2749.8099999999999
170022.0,25114.099999999999,-11290.0,-2477.0900000000001,14908.0,3750.23,3645.4699999999998,-2275.8299999999999
170023.0,23464.400000000001,-11531.200000000001,-2496.5500000000002,13620.200000000001,3921.1900000000001,1713.52,-1698.6600000000001
170024.0,21601.400000000001,-11405.6,-2624.3299999999999,11892.700000000001,3986.7199999999998,19.891300000000001,-1096.0899999999999
170025.0,20132.700000000001,-10978.1,-2645.7800000000002,10517.0,3981.8000000000002,-1233.51,-526.84299999999996
170026.0,19077.200000000001,-10552.4,-2685.0900000000001,9413.6200000000008,3878.6900000000001,-2260.0599999999999,-92.969999999999999
170027.0,18419.299999999999,-9977.4400000000005,-2630.71,8650.1900000000005,3775.9499999999998,-3272.1799999999998,296.83100000000002
170028.0,18159.200000000001,-9490.4500000000007,-2654.3000000000002,8034.6000000000004,3682.9499999999998,-4232.1700000000001,651.62599999999998
170029.0,18094.5,-8809.6800000000003,-2594.6900000000001,7450.0200000000004,3564.21,-5293.6899999999996,1045.6099999999999
170030.0,17892.099999999999,-7959.2200000000003,-2613.3000000000002,6583.2200000000003,3386.8299999999999,-6247.1300000000001,1451.03
170031.0,24642.900000000001,-4822.9700000000003,-1260.72,16103.1,1008.08,8018.7600000000002,-3429.1599999999999
170032.0,25279.299999999999,-6623.5799999999999,-1703.3299999999999,15941.299999999999,1985.4300000000001,7553.5799999999999,-3351.3099999999999
170033.0,26286.099999999999,-8434.2600000000002,-2011.46,16286.4,2680.1100000000001,7000.9700000000003,-3097.3699999999999
170034.0,26752.299999999999,-10248.4,-2212.9499999999998,16597.599999999999,3223.25,5520.7299999999996,-2800.3499999999999
170035.0,25878.400000000001,-11371.6,-2406.2199999999998,15856.5,3606.7399999999998,3519.77,-2299.1999999999998
170036.0,23939.799999999999,-11524.799999999999,-2452.0900000000001,14305.299999999999,3747.5999999999999,1529.3699999999999,-1713.3699999999999
170037.0,22000.299999999999,-11371.4,-2567.4699999999998,12478.700000000001,3820.0300000000002,-106.354,-1131.45
170038.0,20560.099999999999,-10990.4,-2607.5799999999999,11075.5,3835.3899999999999,-1350.77,-552.25900000000001
170039.0,19518.299999999999,-10524.200000000001,-2633.48,10017.700000000001,3740.6799999999998,-2366.73,-116.553
170040.0,18913.799999999999,-9998.2399999999998,-2618.54,9251.6299999999992,3663.6500000000001,-3382.3299999999999,248.55500000000001
170041.0,18688.200000000001,-9522.1499999999996,-2634.4899999999998,8664.7199999999993,3578.9499999999998,-4349.1700000000001,616.16600000000005
170042.0,18657.700000000001,-8847.5499999999993,-2584.98,8071.8000000000002,3461.9400000000001,-5464.6199999999999,1007.16
170043.0,18535.900000000001,-7997.21,-2604.0,7193.25,3308.4000000000001,-6498.9300000000003,1428.5599999999999
170044.0,25427.5,-4504.8100000000004,-1246.3399999999999,17013.5,797.18799999999999,8216.5100000000002,-3586.0100000000002
170045.0,26397.099999999999,-6611.46,-1678.55,17015.599999999999,1963.49,7831.79,-3425.8800000000001
170046.0,27519.200000000001,-8632.2299999999996,-2046.1700000000001,17476.299999999999,2652.9899999999998,7155.8999999999996,-3135.5999999999999
170047.0,27700.099999999999,-10282.5,-2176.5,17744.599999999999,3124.3099999999999,5477.7299999999996,-2825.8299999999999
170048.0,26456.299999999999,-11254.1,-2382.1700000000001,16763.400000000001,3432.8800000000001,3343.6500000000001,-2303.7800000000002
170049.0,24292.5,-11269.6,-2419.6399999999999,15037.5,3557.5599999999999,1371.04,-1727.1199999999999
170050.0,22359.900000000001,-11153.799999999999,-2541.4400000000001,13168.299999999999,3629.1700000000001,-177.19499999999999,-1167.47
170051.0,20960.099999999999,-10837.5,-2582.77,11752.4,3651.4099999999999,-1447.8599999999999,-596.40800000000002
170052.0,19939.0,-10380.700000000001,-2625.0,10697.4,3574.23,-2463.5,-154.995
170053.0,19399.200000000001,-9883.0799999999999,-2601.8000000000002,9967.9400000000005,3517.5700000000002,-3490.77,193.38900000000001
170054.0,19208.400000000001,-9432.2800000000007,-2631.5300000000002,9380.8400000000001,3435.21,-4483.46,581.41600000000005
170055.0,19202.900000000001,-8729.0,-2564.2600000000002,8807.0100000000002,3320.04,-5641.8100000000004,962.93200000000002
170056.0,19159.200000000001,-7929.0299999999997,-2615.4299999999998,7878.1300000000001,3183.9899999999998,-6750.6300000000001,1395.45
170057.0,26488.299999999999,-4186.9499999999998,-1148.5699999999999,18115.200000000001,559.755,8550.1700000000001,-3764.73
170058.0,27686.0,-6692.5600000000004,-1620.1700000000001,18245.599999999999,1869.52,8130.5699999999997,-3491.3000000000002
170059.0,28717.299999999999,-8742.6499999999996,-1971.51,18805.299999999999,2520.0900000000001,7233.1599999999999,-3186.6599999999999
170060.0,28511.400000000001,-10271.1,-2126.3400000000001,18820.400000000001,2954.5999999999999,5367.6000000000004,-2861.6999999999998
170061.0,26865.599999999999,-11000.6,-2311.9099999999999,17599.599999999999,3244.6599999999999,3116.1300000000001,-2314.9000000000001
170062.0,24596.099999999999,-10971.700000000001,-2427.9699999999998,15706.6,3400.3699999999999,1226.3299999999999,-1729.75
170063.0,22748.5,-10872.299999999999,-2545.7600000000002,13908.5,3467.3000000000002,-238.85499999999999,-1179.8499999999999
170064.0,21380.099999999999,-10568.200000000001,-2571.4099999999999,12518.700000000001,3485.9200000000001,-1537.77,-639.322
170065.0,20413.200000000001,-10141.6,-2628.5500000000002,11484.299999999999,3431.0300000000002,-2557.9299999999998,-187.49100000000001
170066.0,19931.599999999999,-9690.6100000000006,-2611.98,10767.1,3381.5700000000002,-3609.4499999999998,148.77699999999999
170067.0,19763.799999999999,-9248.1800000000003,-2653.25,10159.9,3304.4400000000001,-4645.6300000000001,557.54399999999998
170068.0,19774.599999999999,-8537.1599999999999,-2589.7399999999998,9578.8400000000001,3198.6500000000001,-5828.5200000000004,932.24699999999996
170069.0,19794.099999999999,-7757.6199999999999,-2641.2600000000002,8629.0200000000004,3072.29,-6999.5600000000004,1372.1400000000001
170070.0,27758.5,-3787.5500000000002,-1012.12,19445.099999999999,229.19900000000001,8978.6599999999999,-3896.5700000000002
170071.0,29077.299999999999,-6662.0900000000001,-1499.55,19718.599999999999,1623.1600000000001,8414.3999999999996,-3595.0599999999999
170072.0,29772.799999999999,-8633.3299999999999,-1866.1099999999999,20158.900000000001,2280.4000000000001,7269.8199999999997,-3282.4699999999998
170073.0,29143.599999999999,-10041.4,-2022.8800000000001,19880.900000000001,2671.3499999999999,5249.6700000000001,-2918.6799999999998
170074.0,27144.700000000001,-10628.5,-2190.4400000000001,18381.700000000001,2981.8000000000002,2906.7800000000002,-2367.48
170075.0,24910.0,-10686.299999999999,-2396.2399999999998,16375.700000000001,3212.48,1112.96,-1741.4200000000001
170076.0,23184.900000000001,-10580.0,-2485.6599999999999,14711.5,3291.75,-328.49700000000001,-1189.6900000000001
170077.0,21854.400000000001,-10330.4,-2567.2399999999998,13293.799999999999,3326.04,-1640.04,-679.87099999999998
170078.0,20997.200000000001,-9934.9899999999998,-2626.1599999999999,12332.1,3302.2199999999998,-2679.6199999999999,-210.63399999999999
170079.0,20560.0,-9504.0699999999997,-2618.7800000000002,11624.4,3255.9400000000001,-3765.0599999999999,114.852
170080.0,20389.400000000001,-9044.3199999999997,-2646.6700000000001,10985.700000000001,3181.7399999999998,-4848.1000000000004,535.20100000000002
170081.0,20407.0,-8346.8799999999992,-2592.48,10371.200000000001,3081.5900000000001,-6046.9499999999998,911.18899999999996
170082.0,20464.099999999999,-7578.3199999999997,-2640.9000000000001,9396.6299999999992,2955.5999999999999,-7265.3699999999999,1354.02
170083.0,29048.0,-3144.7399999999998,-922.80499999999995,20940.700000000001,-116.574,9389.1200000000008,-3989.4099999999999
170084.0,30428.900000000001,-6304.2200000000003,-1361.5799999999999,21350.099999999999,1261.4000000000001,8681.1100000000006,-3766.4299999999998
170085.0,30695.099999999999,-8318.0,-1783.5999999999999,21442.0,1965.6900000000001,7338.1199999999999,-3423.6399999999999
170086.0,29584.700000000001,-9530.9400000000005,-1874.3,20924.299999999999,2315.5,5145.3800000000001,-2988.0100000000002
170087.0,27371.200000000001,-10139.799999999999,-2098.1700000000001,19143.299999999999,2666.1700000000001,2778.4499999999998,-2450.6599999999999
170088.0,25266.900000000001,-10313.0,-2304.0,17174.299999999999,2947.0700000000002,1059.24,-1774.28
170089.0,23640.200000000001,-10271.200000000001,-2425.3200000000002,15558.0,3038.0900000000001,-428.95600000000002,-1234.04
170090.0,22374.400000000001,-10021.5,-2489.8899999999999,14197.5,3111.8000000000002,-1738.4300000000001,-734.94299999999998
170091.0,21668.400000000001,-9729.4099999999999,-2597.1999999999998,13276.0,3123.73,-2829.8499999999999,-248.60599999999999
170092.0,21262.200000000001,-9285.1100000000006,-2581.5500000000002,12582.0,3085.3200000000002,-3957.46,74.820400000000006
170093.0,21059.299999999999,-8823.8500000000004,-2622.5500000000002,11865.200000000001,3001.8400000000001,-5083.3999999999996,497.233
170094.0,21055.599999999999,-8107.96,-2552.0,11220.6,2891.4299999999998,-6294.8999999999996,877.298
170095.0,21121.400000000001,-7331.4799999999996,-2590.0700000000002,10217.5,2753.7399999999998,-7547.7600000000002,1318.49
170096.0,30235.400000000001,-2443.73,-873.44899999999996,22377.299999999999,-398.38600000000002,9727.3500000000004,-4093.3899999999999
170097.0,31589.799999999999,-5683.8199999999997,-1262.54,22884.900000000001,909.54100000000005,8930.8799999999992,-3947.1399999999999
170098.0,31512.900000000001,-7796.5100000000002,-1687.9200000000001,22707.900000000001,1609.26,7438.5,-3549.8800000000001
170099.0,29888.799999999999,-8813.8099999999995,-1715.1800000000001,21931.299999999999,1911.8299999999999,5057.1000000000004,-3068.5500000000002
170100.0,27614.0,-9534.3199999999997,-2008.53,19963.400000000001,2313.0500000000002,2736.3000000000002,-2533.8299999999999
170101.0,25685.0,-9807.6000000000004,-2203.71,18127.900000000001,2622.77,1053.47,-1822.27
170102.0,24136.700000000001,-9800.9599999999991,-2343.1500000000001,16560.900000000001,2747.77,-507.80399999999997,-1315.55
170103.0,22975.400000000001,-9655.7199999999993,-2449.6700000000001,15217.0,2870.5700000000002,-1815.1600000000001,-800.20399999999995
170104.0,22415.0,-9426.5499999999993,-2553.3400000000001,14369.5,2907.1599999999999,-2992.3000000000002,-304.52199999999999
170105.0,22025.700000000001,-8985.7099999999991,-2553.29,13644.700000000001,2877.8600000000001,-4176.96,33.859999999999999
170106.0,21769.5,-8454.2299999999996,-2571.6599999999999,12883.700000000001,2780.7399999999998,-5344.6899999999996,456.28300000000002
170107.0,21701.5,-7716.6300000000001,-2513.6399999999999,12157.1,2649.0799999999999,-6561.1300000000001,841.39599999999996
170108.0,21745.900000000001,-6892.0200000000004,-2523.0300000000002,11143.6,2479.9099999999999,-7830.5900000000001,1278.78
170109.0,31318.099999999999,-1724.5799999999999,-701.64200000000005,23732.599999999999,-695.24000000000001,10032.299999999999,-4256.6999999999998
170110.0,32507.200000000001,-5018.3699999999999,-1150.5999999999999,24186.900000000001,559.53899999999999,9149.6499999999996,-4069.3299999999999
170111.0,32142.200000000001,-7136.1800000000003,-1544.3800000000001,23932.299999999999,1204.5699999999999,7462.5299999999997,-3601.3099999999999
170112.0,30156.400000000001,-7955.1800000000003,-1579.54,22942.599999999999,1506.0699999999999,4980.0500000000002,-3155.54
170113.0,27900.0,-8810.2800000000007,-1934.75,20865.099999999999,1949.3199999999999,2755.1799999999998,-2605.7800000000002
170114.0,26171.900000000001,-9164.3099999999995,-2103.3499999999999,19225.5,2276.3299999999999,1068.3399999999999,-1881.53
170115.0,24736.900000000001,-9287.0900000000001,-2306.5,17660.700000000001,2461.8099999999999,-558.28300000000002,-1414.0599999999999
170116.0,23717.799999999999,-9216.6599999999999,-2394.6100000000001,16421.700000000001,2625.0700000000002,-1884.04,-866.52999999999997
170117.0,23260.700000000001,-9055.4400000000005,-2520.25,15588.299999999999,2674.7800000000002,-3173.5799999999999,-369.42599999999999
170118.0,22875.299999999999,-8598.6499999999996,-2526.8499999999999,14824.1,2651.9899999999998,-4431.1199999999999,-2.54515
170119.0,22555.700000000001,-8004.2299999999996,-2549.7800000000002,13980.799999999999,2545.04,-5645.8400000000001,419.27699999999999
170120.0,22382.599999999999,-7202.5200000000004,-2490.8899999999999,13154.799999999999,2390.21,-6859.3999999999996,812.56399999999996
170121.0,22376.099999999999,-6290.1099999999997,-2472.0300000000002,12132.5,2184.2600000000002,-8124.8599999999997,1252.1199999999999
170122.0,32415.099999999999,-908.35500000000002,-437.09699999999998,25045.700000000001,-1101.1700000000001,10416.5,-4471.8599999999997
170123.0,33203.5,-4346.6199999999999,-1022.28,25312.599999999999,109.27200000000001,9292.8700000000008,-4132.9499999999998
170124.0,32490.900000000001,-6205.6499999999996,-1292.5899999999999,25137.0,699.779,7358.1700000000001,-3617.0900000000001
170125.0,30443.200000000001,-7112.7200000000003,-1514.02,23894.799999999999,1118.3800000000001,4911.1999999999998,-3238.5599999999999
170126.0,28277.700000000001,-8004.8400000000001,-1824.47,21885.900000000001,1589.74,2816.4000000000001,-2666.75
170127.0,26738.0,-8476.5499999999993,-2019.29,20396.400000000001,1928.96,1075.1800000000001,-1948.4400000000001
170128.0,25477.099999999999,-8704.4099999999999,-2224.7199999999998,18936.299999999999,2181.8299999999999,-591.18899999999996,-1512.5599999999999
170129.0,24629.900000000001,-8769.0400000000009,-2359.75,17772.299999999999,2379.46,-1969.96,-929.84699999999998
170130.0,24229.700000000001,-8609.25,-2470.1900000000001,16956.0,2437.6799999999998,-3383.3899999999999,-440.55900000000003
170131.0,23832.299999999999,-8134.4899999999998,-2491.1500000000001,16122.4,2420.3200000000002,-4727.3699999999999,-34.265099999999997
170132.0,23440.200000000001,-7457.1099999999997,-2500.9299999999998,15194.0,2303.73,-5991.8000000000002,384.154
170133.0,23134.400000000001,-6579.5600000000004,-2441.23,14237.200000000001,2121.5100000000002,-7199.9799999999996,788.38400000000001
170134.0,23044.599999999999,-5580.5500000000002,-2412.0999999999999,13166.6,1876.21,-8443.3799999999992,1227.9200000000001
170135.0,33638.599999999999,-371.69799999999998,-578.88300000000004,26024.400000000001,-1609.0999999999999,10887.9,-4686.04
170136.0,33688.099999999999,-3112.9000000000001,-512.58699999999999,26735.5,-446.74599999999998,9334.6299999999992,-4195.5600000000004
170137.0,32666.299999999999,-5276.8500000000004,-1298.6099999999999,26020.400000000001,156.01599999999999,7207.7399999999998,-3666.3099999999999
170138.0,30722.200000000001,-6041.6400000000003,-1223.5,25019.799999999999,704.25199999999995,4871.1999999999998,-3307.0100000000002
170139.0,28789.099999999999,-7300.1599999999999,-1810.23,22918.900000000001,1190.8199999999999,2887.6799999999998,-2715.0100000000002
170140.0,27387.0,-7640.4099999999999,-1816.22,21756.700000000001,1550.3299999999999,1073.8399999999999,-2039.78
170141.0,26373.200000000001,-8220.0,-2240.1300000000001,20247.599999999999,1884.1300000000001,-620.84500000000003,-1612.98
170142.0,25703.900000000001,-8234.8899999999994,-2250.6199999999999,19339.599999999999,2120.9299999999998,-2086.1599999999999,-997.40800000000002
170143.0,25344.900000000001,-8191.6700000000001,-2477.8299999999999,18398.0,2187.3000000000002,-3627.29,-519.30200000000002
170144.0,24900.5,-7591.0299999999997,-2414.2600000000002,17555.700000000001,2167.0599999999999,-5064.5500000000002,-74.214200000000005
170145.0,24427.700000000001,-6913.4200000000001,-2497.9000000000001,16443.200000000001,2034.26,-6378.46,340.74099999999999
170146.0,23966.0,-5871.5200000000004,-2366.1999999999998,15403.799999999999,1818.29,-7580.3100000000004,756.95899999999995
170147.0,23770.099999999999,-4805.5500000000002,-2363.8499999999999,14237.799999999999,1535.9200000000001,-8785.7700000000004,1191.5999999999999
170148.0,34767.300000000003,653.83799999999997,-346.375,27385.5,-2210.71,11274.6,-4845.4099999999999
170149.0,34093.400000000001,-1858.79,-221.26599999999999,27923.700000000001,-1090.5699999999999,9353.4099999999999,-4298.3100000000004
170150.0,32809.699999999997,-4057.3600000000001,-1113.97,27027.299999999999,-387.89699999999999,7087.6999999999998,-3737.1300000000001
170151.0,31036.700000000001,-5011.3400000000001,-1048.97,26054.5,204.81899999999999,4879.1800000000003,-3368.4000000000001
170152.0,29385.099999999999,-6397.6599999999999,-1684.5699999999999,24180.599999999999,736.02800000000002,2936.79,-2760.4899999999998
170153.0,28179.299999999999,-6795.0600000000004,-1681.8,23198.200000000001,1155.51,1098.9300000000001,-2165.2800000000002
170154.0,27418.099999999999,-7604.5100000000002,-2151.9400000000001,21803.799999999999,1568.8499999999999,-641.85000000000002,-1722.8699999999999
170155.0,26942.5,-7711.6999999999998,-2173.7199999999998,21024.0,1848.0599999999999,-2226.4499999999998,-1081.3099999999999
170156.0,26600.200000000001,-7663.6099999999997,-2418.3400000000001,20040.299999999999,1923.4400000000001,-3902.1199999999999,-602.13099999999997
170157.0,26087.400000000001,-6991.0200000000004,-2345.46,19103.299999999999,1899.1400000000001,-5428.6599999999999,-131.39599999999999
170158.0,25515.299999999999,-6227.5500000000002,-2439.3699999999999,17857.200000000001,1752.1700000000001,-6791.5100000000002,293.52100000000002
170159.0,24890.299999999999,-5059.1099999999997,-2301.1399999999999,16665.900000000001,1503.21,-7989.8299999999999,723.81100000000004
170160.0,24590.0,-3898.9299999999998,-2309.1799999999998,15420.6,1192.6700000000001,-9152.3999999999996,1160.78
170161.0,35619.0,2363.48,307.26299999999998,29044.900000000001,-2917.6799999999998,11516.6,-4976.29
170162.0,34538.800000000003,-609.20500000000004,-162.447,28957.099999999999,-1797.3299999999999,9375.7299999999996,-4411.0100000000002
170163.0,33038.800000000003,-2582.6399999999999,-744.90499999999997,28232.099999999999,-968.976,7034.71,-3829.3000000000002
170164.0,31452.5,-3907.1700000000001,-976.26900000000001,27127.900000000001,-330.86700000000002,4920.2700000000004,-3440.1599999999999
170165.0,30051.799999999999,-5262.9300000000003,-1455.52,25643.400000000001,261.25799999999998,2992.6700000000001,-2829.0
170166.0,29150.0,-5997.1099999999997,-1639.9400000000001,24709.900000000001,753.74199999999996,1148.5599999999999,-2305.75
170167.0,28618.5,-6911.4300000000003,-2022.97,23553.200000000001,1223.8199999999999,-633.58600000000001,-1848.8900000000001
170168.0,28344.200000000001,-7204.8500000000004,-2139.0799999999999,22817.700000000001,1540.5,-2386.0900000000001,-1192.3299999999999
170169.0,27983.5,-7062.4300000000003,-2336.3699999999999,21832.799999999999,1639.53,-4196.4799999999996,-699.98299999999995
170170.0,27402.099999999999,-6391.5799999999999,-2329.1300000000001,20727.099999999999,1623.3299999999999,-5804.4899999999998,-212.928
170171.0,26727.299999999999,-5512.9399999999996,-2396.9000000000001,19361.700000000001,1477.1400000000001,-7226.9099999999999,238.672
170172.0,25957.599999999999,-4240.1199999999999,-2291.4699999999998,17975.299999999999,1213.5699999999999,-8443.6499999999996,697.71699999999998
170173.0,25588.900000000001,-2953.4099999999999,-2268.4099999999999,16694.200000000001,891.18899999999996,-9579.8299999999999,1162.01
170174.0,36396.900000000001,4117.0600000000004,653.67899999999997,30418.299999999999,-3682.2199999999998,11702.299999999999,-5111.6999999999998
170175.0,35028.599999999999,1007.02,61.387999999999998,30206.5,-2519.1900000000001,9408.9899999999998,-4518.9099999999999
170176.0,33474.099999999999,-1114.6900000000001,-492.18900000000002,29462.299999999999,-1578.8099999999999,7060.5200000000004,-3965.8400000000001
170177.0,32001.200000000001,-2659.1700000000001,-848.83500000000004,28361.200000000001,-869.33600000000001,5004.5500000000002,-3525.6700000000001
170178.0,30867.5,-4108.1899999999996,-1270.8499999999999,27182.5,-239.131,3079.6500000000001,-2932.9200000000001
170179.0,30263.5,-5088.8199999999997,-1528.47,26414.400000000001,344.892,1215.4200000000001,-2457.98
170180.0,29988.200000000001,-6142.9700000000003,-1884.0799999999999,25493.299999999999,862.947,-593.54100000000005,-1978.4100000000001
170181.0,29885.099999999999,-6570.7700000000004,-2039.25,24825.700000000001,1203.6900000000001,-2546.7399999999998,-1331.23
170182.0,29492.0,-6388.8400000000001,-2232.9200000000001,23772.700000000001,1350.51,-4495.8100000000004,-821.70699999999999
170183.0,28842.599999999999,-5710.4499999999998,-2251.0599999999999,22535.400000000001,1345.75,-6166.75,-311.50900000000001
170184.0,28102.299999999999,-4763.1499999999996,-2298.3899999999999,21037.900000000001,1195.3699999999999,-7685.2299999999996,170.56100000000001
170185.0,27243.400000000001,-3390.8499999999999,-2215.27,19461.200000000001,928.55700000000002,-8972.3700000000008,675.56899999999996
170186.0,26871.5,-2025.3099999999999,-2205.0100000000002,18100.099999999999,590.101,-10134.1,1191.0899999999999
170187.0,37240.300000000003,5959.6400000000003,854.76499999999999,31772.5,-4402.7299999999996,11863.0,-5239.54
170188.0,35628.0,2833.6100000000001,354.57400000000001,31573.700000000001,-3229.23,9492.1100000000006,-4632.5299999999997
170189.0,34122.900000000001,374.52800000000002,-285.90199999999999,30778.799999999999,-2212.1900000000001,7157.6000000000004,-4125.5299999999997
170190.0,32747.200000000001,-1277.8900000000001,-629.55700000000002,29828.200000000001,-1417.77,5138.5600000000004,-3619.0700000000002
170191.0,31875.799999999999,-2881.4299999999998,-1098.1400000000001,28878.5,-764.18200000000002,3199.3000000000002,-3075.3299999999999
170192.0,31522.299999999999,-4144.0699999999997,-1407.22,28240.799999999999,-81.672200000000004,1312.98,-2634.7199999999998
170193.0,31503.5,-5366.8999999999996,-1782.8599999999999,27538.200000000001,465.375,-544.77800000000002,-2103.71
170194.0,31528.700000000001,-5845.4399999999996,-1924.1900000000001,26969.700000000001,807.52099999999996,-2698.0,-1498.02
170195.0,31105.099999999999,-5705.8299999999999,-2150.1599999999999,25793.0,1017.63,-4786.9300000000003,-975.36000000000001
170196.0,30408.400000000001,-5012.6000000000004,-2175.3200000000002,24469.599999999999,1018.64,-6517.6099999999997,-416.74700000000001
170197.0,29665.099999999999,-4008.0,-2221.29,22868.200000000001,843.90800000000002,-8172.1000000000004,93.009500000000003
170198.0,28835.400000000001,-2521.79,-2136.1999999999998,21170.900000000001,585.18799999999999,-9605.8600000000006,653.45799999999997
170199.0,28540.700000000001,-1032.3599999999999,-2133.4200000000001,19751.799999999999,246.191,-10859.1,1230.9400000000001
170200.0,38168.5,7757.1999999999998,1025.23,33159.099999999999,-5078.1099999999997,12003.799999999999,-5342.21
170201.0,36382.900000000001,4726.3599999999997,643.73199999999997,33033.0,-3914.8000000000002,9606.75,-4738.8299999999999
170202.0,34958.599999999999,1952.75,-64.825699999999998,32242.599999999999,-2873.0300000000002,7302.3299999999999,-4270.5500000000002
170203.0,33721.5,131.572,-429.97800000000001,31462.599999999999,-1999.97,5288.7200000000003,-3727.7800000000002
170204.0,33091.5,-1604.1400000000001,-948.947,30727.099999999999,-1285.97,3358.5900000000001,-3250.1399999999999
170205.0,32950.800000000003,-3102.1399999999999,-1222.72,30272.799999999999,-535.35500000000002,1447.55,-2823.6799999999998
170206.0,33126.199999999997,-4440.1199999999999,-1609.4400000000001,29771.900000000001,14.1731,-514.53800000000001,-2229.7800000000002
170207.0,33222.400000000001,-4890.9700000000003,-1719.8399999999999,29301.5,354.19200000000001,-2837.98,-1676.8399999999999
170208.0,32801.300000000003,-4858.2200000000003,-1986.97,28005.599999999999,624.03999999999996,-5064.2799999999997,-1140.28
170209.0,32118.5,-4127.5600000000004,-2007.3800000000001,26656.700000000001,641.71799999999996,-6897.0100000000002,-504.16899999999998
170210.0,31461.5,-3045.6900000000001,-2074.0100000000002,25013.299999999999,444.67399999999998,-8722.3700000000008,47.001100000000001
170211.0,30806.799999999999,-1453.9100000000001,-1981.8299999999999,23275.099999999999,195.892,-10373.299999999999,651.47299999999996
170212.0,30679.299999999999,99.577699999999993,-2049.0999999999999,21760.0,-109.52200000000001,-11775.1,1277.53
170213.0,39189.400000000001,9632.2600000000002,1341.5899999999999,34777.699999999997,-5749.0500000000002,12094.200000000001,-5426.5299999999997
170214.0,37314.300000000003,6560.6400000000003,878.15599999999995,34568.400000000001,-4584.7700000000004,9718.0699999999997,-4833.8299999999999
170215.0,35946.199999999997,3671.2800000000002,192.084,33885.5,-3548.25,7450.0799999999999,-4386.3599999999997
170216.0,34907.699999999997,1657.6600000000001,-203.28399999999999,33315.400000000001,-2597.0100000000002,5447.3699999999999,-3860.2199999999998
170217.0,34518.400000000001,-268.14400000000001,-749.17100000000005,32786.400000000001,-1804.3399999999999,3548.1399999999999,-3427.9000000000001
170218.0,34555.800000000003,-2011.48,-1038.26,32464.900000000001,-1069.3800000000001,1589.3599999999999,-3004.4000000000001
170219.0,34818.099999999999,-3353.6700000000001,-1397.54,32131.900000000001,-550.21699999999998,-530.31600000000003,-2374.0500000000002
170220.0,34940.099999999999,-3798.52,-1526.4100000000001,31684.299999999999,-215.72800000000001,-2981.3299999999999,-1864.9200000000001
170221.0,34574.699999999997,-3842.4000000000001,-1773.6199999999999,30378.400000000001,83.7209,-5343.6400000000003,-1313.7
170222.0,34023.900000000001,-3140.8299999999999,-1825.1700000000001,29026.5,130.68899999999999,-7356.3500000000004,-599.86199999999997
170223.0,33556.800000000003,-1944.5,-1906.03,27420.900000000001,-62.991100000000003,-9395.8799999999992,2.3948900000000002
170224.0,33171.5,-259.04599999999999,-1857.1700000000001,25687.599999999999,-275.38499999999999,-11279.4,632.78399999999999
170225.0,33309.300000000003,1354.3199999999999,-1955.6199999999999,24173.200000000001,-489.33100000000002,-12864.6,1305.5599999999999
170226.0,40367.099999999999,11568.299999999999,1678.77,36592.599999999999,-6440.8599999999997,12143.200000000001,-5513.1000000000004
170227.0,38417.199999999997,8360.3799999999992,1065.54,36230.699999999997,-5246.3699999999999,9782.75,-4930.21
170228.0,37068.900000000001,5521.5299999999997,455.76499999999999,35689.099999999999,-4207.46,7573.6899999999996,-4485.0500000000002
170229.0,36274.5,3205.1599999999999,-28.5504,35279.5,-3215.8499999999999,5603.8599999999997,-3985.9400000000001
170230.0,36144.5,1106.1900000000001,-530.21299999999997,35035.5,-2387.6700000000001,3718.1300000000001,-3580.0300000000002
170231.0,36292.599999999999,-639.80799999999999,-762.0,34936.300000000003,-1711.9400000000001,1680.23,-3155.6999999999998
170232.0,36550.199999999997,-1902.75,-1098.9200000000001,34700.699999999997,-1242.49,-603.73500000000001,-2526.71
170233.0,36672.099999999999,-2266.9499999999998,-1193.8900000000001,34315.5,-918.947,-3147.1500000000001,-2035.3599999999999
170234.0,36431.699999999997,-2387.4699999999998,-1444.0599999999999,33069.300000000003,-637.56600000000003,-5626.4499999999998,-1466.8199999999999
170235.0,36156.5,-1683.0599999999999,-1472.78,31863.299999999999,-572.63499999999999,-7882.7600000000002,-717.40300000000002
170236.0,35974.099999999999,-451.20999999999998,-1651.75,30281.599999999999,-680.11900000000003,-10163.4,-84.114999999999995
170237.0,35906.0,1250.6600000000001,-1690.6600000000001,28576.400000000001,-734.89999999999998,-12259.1,588.99000000000001
170238.0,36412.199999999997,2695.9499999999998,-1914.9000000000001,27018.200000000001,-809.90700000000004,-14065.4,1341.8399999999999
170239.0,41736.599999999999,13464.299999999999,1923.9300000000001,38561.300000000003,-7079.6400000000003,12169.6,-5615.8400000000001
170240.0,39662.300000000003,10255.0,1349.3800000000001,38138.599999999999,-5876.5299999999997,9801.0900000000001,-5039.3199999999997
170241.0,38343.5,7341.79,675.70699999999999,37609.699999999997,-4810.7399999999998,7657.9399999999996,-4564.6300000000001
170242.0,37801.599999999999,4920.9099999999999,237.10599999999999,37512.699999999997,-3838.3299999999999,5720.8299999999999,-4072.6700000000001
170243.0,37899.599999999999,2691.5999999999999,-251.374,37525.400000000001,-3046.6300000000001,3792.73,-3688.4000000000001
170244.0,38094.300000000003,999.83699999999999,-510.67700000000002,37544.0,-2451.1599999999999,1660.29,-3262.0700000000002
170245.0,38312.900000000001,-91.267200000000003,-819.976,37386.099999999999,-2036.0899999999999,-771.53800000000001,-2662.4499999999998
170246.0,38419.0,-433.37799999999999,-994.45399999999995,36949.400000000001,-1718.49,-3387.0900000000001,-2158.96
170247.0,38370.5,-480.89800000000002,-1216.75,35921.599999999999,-1467.0699999999999,-5946.75,-1557.02
170248.0,38456.5,155.29599999999999,-1338.3399999999999,34860.900000000001,-1350.4200000000001,-8423.1499999999996,-824.66399999999999
170249.0,38651.0,1276.6700000000001,-1562.3,33397.5,-1256.1500000000001,-10925.0,-182.815
170250.0,39008.099999999999,2649.3800000000001,-1689.1500000000001,31704.0,-1075.6800000000001,-13268.9,554.09400000000005
170251.0,39951.300000000003,3926.0799999999999,-1858.8199999999999,30250.5,-1047.1199999999999,-15364.799999999999,1397.74
170252.0,43264.699999999997,15325.5,2203.9400000000001,40769.300000000003,-7737.4899999999998,12131.5,-5694.6099999999997
170253.0,41087.400000000001,12099.700000000001,1606.03,40207.5,-6512.2200000000003,9777.0799999999999,-5133.3199999999997
170254.0,39834.800000000003,9114.5200000000004,915.21299999999997,39756.599999999999,-5433.8100000000004,7676.8800000000001,-4619.3299999999999
170255.0,39498.800000000003,6683.5500000000002,483.51799999999997,39924.300000000003,-4507.9499999999998,5729.1599999999999,-4132.54
170256.0,39703.699999999997,4468.9700000000003,-28.2957,40092.800000000003,-3784.46,3719.0,-3760.9299999999998
170257.0,39908.400000000001,3070.3400000000001,-172.03399999999999,40353.199999999997,-3243.1999999999998,1489.3299999999999,-3319.6399999999999
170258.0,40106.599999999999,2076.1300000000001,-532.90099999999995,40178.900000000001,-2845.8400000000001,-1058.5,-2759.4899999999998
170259.0,40209.699999999997,1893.53,-623.40700000000004,39832.099999999999,-2478.3899999999999,-3756.2199999999998,-2229.2800000000002
170260.0,40343.099999999999,1801.4000000000001,-977.702,38864.599999999999,-2175.52,-6364.5900000000001,-1575.23
170261.0,40779.400000000001,2400.6599999999999,-1051.9100000000001,38066.300000000003,-1948.24,-8985.8299999999999,-863.15499999999997
170262.0,41457.400000000001,3061.1300000000001,-1345.48,36722.400000000001,-1717.5899999999999,-11674.799999999999,-205.84399999999999
170263.0,42453.699999999997,4070.8000000000002,-1345.48,35374.599999999999,-1507.0599999999999,-14327.6,530.63400000000001
170264.0,43854.099999999999,5184.6099999999997,-1474.02,34007.0,-1567.0799999999999,-16767.5,1339.45
170265.0,44937.599999999999,17286.299999999999,2614.5500000000002,43331.800000000003,-8408.4200000000001,11998.200000000001,-5763.4099999999999
170266.0,42729.5,14004.4,1948.73,42629.099999999999,-7152.75,9688.5900000000001,-5193.4700000000003
170267.0,41589.800000000003,11019.299999999999,1261.0699999999999,42307.300000000003,-6094.2399999999998,7604.7299999999996,-4666.0600000000004
170268.0,41349.900000000001,8621.2199999999993,811.01700000000005,42607.5,-5214.6099999999997,5596.7299999999996,-4193.6700000000001
170269.0,41522.699999999997,6655.0,405.27300000000002,42933.099999999999,-4555.3500000000004,3483.0599999999999,-3812.21
170270.0,41715.300000000003,5298.1000000000004,110.464,43105.199999999997,-4083.6300000000001,1159.8199999999999,-3350.7199999999998
170271.0,41956.099999999999,4526.96,-142.26300000000001,43078.0,-3725.25,-1463.97,-2843.73
170272.0,42116.5,4144.8800000000001,-409.04500000000002,42550.199999999997,-3340.3499999999999,-4217.5699999999997,-2335.1500000000001
170273.0,42396.5,4105.5500000000002,-596.23900000000003,41804.199999999997,-3005.6300000000001,-6865.1499999999996,-1676.05
170274.0,43141.099999999999,4381.04,-738.61300000000006,41056.900000000001,-2782.8099999999999,-9589.7900000000009,-988.62699999999995
170275.0,44397.400000000001,4905.75,-789.69799999999998,40287.699999999997,-2646.0799999999999,-12436.0,-330.67599999999999
170276.0,46192.800000000003,5810.75,-685.851,39592.900000000001,-2689.4000000000001,-15371.700000000001,316.99700000000001
170277.0,48054.699999999997,7474.2399999999998,-440.63900000000001,38846.199999999997,-3044.1900000000001,-18109.299999999999,907.30700000000002
170278.0,46876.699999999997,19263.299999999999,2968.98,46134.900000000001,-9299.0599999999995,11735.200000000001,-5756.8199999999997
170279.0,44702.099999999999,16016.9,2374.1100000000001,45454.5,-7966.7200000000003,9514.0900000000001,-5228.5699999999997
170280.0,43654.5,12990.0,1620.46,45150.599999999999,-6928.4300000000003,7426.1499999999996,-4727.3800000000001
170281.0,43396.0,10802.700000000001,1273.76,45569.400000000001,-6121.9200000000001,5323.1300000000001,-4280.0200000000004
170282.0,43464.599999999999,8934.5499999999993,771.76599999999996,45748.300000000003,-5548.7299999999996,3109.8899999999999,-3890.4499999999998
170283.0,43620.300000000003,8034.0,713.20799999999997,46167.900000000001,-5133.8699999999999,709.64300000000003,-3424.8600000000001
170284.0,43912.300000000003,7263.9399999999996,361.26400000000001,46071.400000000001,-4805.1899999999996,-1925.4100000000001,-2964.2399999999998
170285.0,44197.300000000003,7143.0699999999997,426.322,45913.099999999999,-4476.3500000000004,-4691.1000000000004,-2491.7600000000002
170286.0,44655.5,6963.4200000000001,181.06,45176.400000000001,-4276.5900000000001,-7374.04,-1889.0899999999999
170287.0,45756.099999999999,7474.4099999999999,320.25099999999998,44974.099999999999,-4256.71,-10144.5,-1270.2
170288.0,47638.0,8113.3699999999999,330.53199999999998,44867.300000000003,-4448.0900000000001,-13053.700000000001,-671.64700000000005
170289.0,50279.400000000001,9642.3600000000006,603.505,45283.599999999999,-4975.3000000000002,-16119.0,-213.256
170290.0,52640.400000000001,12187.0,926.46000000000004,45253.300000000003,-5708.9099999999999,-18979.900000000001,18.6967
170291.0,49091.0,21947.099999999999,3568.21,49612.900000000001,-10241.1,11335.200000000001,-5720.5799999999999
170292.0,47024.800000000003,18472.900000000001,2950.3899999999999,48814.800000000003,-8955.7900000000009,9234.1700000000001,-5239.1999999999998
170293.0,46063.400000000001,15575.5,2302.0100000000002,48630.300000000003,-8016.2200000000003,7128.6700000000001,-4797.21
170294.0,45699.099999999999,13524.799999999999,1944.8699999999999,48927.900000000001,-7310.3299999999999,4927.5699999999997,-4389.5200000000004
170295.0,45650.199999999997,12143.200000000001,1674.9400000000001,49245.5,-6841.8199999999997,2630.5900000000001,-4007.73
170296.0,45782.5,11229.299999999999,1366.98,49380.5,-6542.0500000000002,206.86500000000001,-3580.8200000000002
170297.0,46169.400000000001,10846.1,1280.6400000000001,49581.099999999999,-6376.3599999999997,-2380.46,-3174.0
170298.0,46719.099999999999,10604.200000000001,1067.53,49353.800000000003,-6300.1300000000001,-5113.4200000000001,-2777.3200000000002
170299.0,47491.699999999997,11053.200000000001,1165.8900000000001,49278.199999999997,-6324.4499999999998,-7802.6400000000003,-2306.8600000000001
170300.0,48986.400000000001,11804.200000000001,1112.1199999999999,49419.300000000003,-6534.8800000000001,-10501.1,-1764.8800000000001
170301.0,51484.400000000001,13363.9,1336.1800000000001,50450.5,-7047.5600000000004,-13303.4,-1232.77
170302.0,54849.300000000003,15872.799999999999,1464.53,51905.300000000003,-7871.3400000000001,-16277.4,-932.149
170303.0,57650.400000000001,19726.700000000001,2029.23,52983.199999999997,-8705.7999999999993,-19022.700000000001,-976.91300000000001
170304.0,51655.599999999999,24677.200000000001,3767.9400000000001,53028.599999999999,-11472.200000000001,10770.9,-5526.5500000000002
170305.0,49812.5,21532.700000000001,3576.0,52611.199999999997,-10350.5,8807.9200000000001,-5188.4799999999996
170306.0,48927.699999999997,18725.099999999999,2894.0700000000002,52362.400000000001,-9561.3400000000001,6681.6000000000004,-4869.1800000000003
170307.0,48483.199999999997,17186.299999999999,2740.3099999999999,52745.699999999997,-8994.5400000000009,4446.5200000000004,-4536.8699999999999
170308.0,48402.900000000001,15909.4,2209.4099999999999,52774.199999999997,-8647.3600000000006,2130.4299999999998,-4208.8599999999997
170309.0,48504.800000000003,15771.299999999999,2312.1900000000001,53299.400000000001,-8444.0200000000004,-264.83999999999997,-3829.6700000000001
170310.0,49017.599999999999,15573.4,2027.03,53462.099999999999,-8430.4899999999998,-2712.8899999999999,-3420.9000000000001
170311.0,49936.599999999999,16382.200000000001,2374.7800000000002,54245.699999999997,-8523.1000000000004,-5385.0,-3083.5999999999999
170312.0,51038.800000000003,17080.5,2145.4000000000001,54326.599999999999,-8649.4200000000001,-7989.3500000000004,-2734.0
170313.0,52935.300000000003,18654.599999999999,2353.3400000000001,55394.0,-8971.1499999999996,-10508.9,-2234.3800000000001
170314.0,55879.400000000001,20863.599999999999,2489.4000000000001,57092.900000000001,-9611.6900000000005,-13169.200000000001,-1751.8399999999999
170315.0,59631.900000000001,24252.200000000001,2676.04,59339.599999999999,-10515.299999999999,-15947.1,-1593.6600000000001
170316.0,62694.699999999997,28567.900000000001,3225.2800000000002,60916.800000000003,-11409.4,-18453.0,-1830.8299999999999
170317.0,54294.599999999999,28729.799999999999,4483.0299999999997,57328.800000000003,-12464.0,9971.8799999999992,-5300.7799999999997
170318.0,52882.599999999999,25590.299999999999,3916.9200000000001,56686.800000000003,-11690.799999999999,8133.1400000000003,-5079.71
170319.0,52147.800000000003,23492.799999999999,3471.54,56637.099999999999,-11147.700000000001,6119.8100000000004,-4872.9899999999998
170320.0,51772.199999999997,22091.200000000001,3195.1399999999999,56861.300000000003,-10741.5,3982.2800000000002,-4604.4300000000003
170321.0,51661.099999999999,21633.200000000001,3268.9400000000001,57398.300000000003,-10510.4,1652.3900000000001,-4323.4499999999998
170322.0,51745.599999999999,21364.599999999999,2997.2800000000002,57443.900000000001,-10429.9,-681.09500000000003,-4004.98
170323.0,52396.599999999999,22095.5,3176.4099999999999,58205.400000000001,-10553.799999999999,-3019.6300000000001,-3599.8299999999999
170324.0,53702.300000000003,22705.5,2711.2399999999998,58641.900000000001,-10815.799999999999,-5469.9700000000003,-3342.5900000000001
170325.0,55275.0,24286.0,3152.75,59911.599999999999,-11100.799999999999,-7898.25,-3152.5500000000002
170326.0,57606.099999999999,26014.799999999999,3279.7600000000002,61312.800000000003,-11692.799999999999,-10320.200000000001,-2795.48
170327.0,60912.599999999999,29170.200000000001,3892.2199999999998,63857.400000000001,-12661.799999999999,-12784.5,-2585.3400000000001
170328.0,64977.099999999999,33077.400000000001,4167.0200000000004,66505.399999999994,-13874.299999999999,-15301.9,-2734.8400000000001
170329.0,68314.899999999994,38405.800000000003,5429.0200000000004,69017.800000000003,-15133.9,-17474.200000000001,-3148.6100000000001
170330.0,56915.199999999997,31662.799999999999,4503.1599999999999,60586.900000000001,-13685.700000000001,8961.7900000000009,-5055.79
170331.0,55728.800000000003,30064.0,4603.0799999999999,60719.900000000001,-12943.6,7312.7799999999997,-4969.4899999999998
170332.0,55179.599999999999,28490.099999999999,4284.6300000000001,60852.699999999997,-12546.700000000001,5401.6300000000001,-4775.04
170333.0,55015.900000000001,27933.5,4208.21,61314.099999999999,-12435.700000000001,3295.6500000000001,-4513.0900000000001
170334.0,55284.599999999999,27522.799999999999,3682.9099999999999,61396.599999999999,-12559.799999999999,1113.3800000000001,-4324.1599999999999
170335.0,55693.0,28447.799999999999,4086.96,62239.800000000003,-12745.799999999999,-1081.9200000000001,-4174.5500000000002
170336.0,56456.699999999997,29126.599999999999,4042.1199999999999,62690.5,-13079.299999999999,-3172.2199999999998,-3926.6799999999998
170337.0,58060.300000000003,31269.799999999999,5287.1499999999996,64921.300000000003,-13643.0,-5406.0600000000004,-3787.8099999999999
170338.0,60470.5,33000.900000000001,5397.3699999999999,66497.199999999997,-14484.799999999999,-7654.6300000000001,-3781.6399999999999
170339.0,63730.800000000003,36052.300000000003,5992.2700000000004,69113.0,-15705.0,-9769.9599999999991,-3868.46
170340.0,67692.699999999997,40234.900000000001,6831.4399999999996,72401.5,-17142.700000000001,-11896.299999999999,-4129.9300000000003
170341.0,72331.199999999997,45246.800000000003,7240.4099999999999,75630.5,-18762.599999999999,-14022.700000000001,-4595.5100000000002
170342.0,76330.800000000003,51513.599999999999,8566.5799999999999,78661.199999999997,-20496.0,-15718.299999999999,-5085.5600000000004
170343.0,59520.900000000001,36705.900000000001,6177.04,65288.599999999999,-14779.6,7998.5799999999999,-4963.5799999999999
170344.0,58952.199999999997,35060.900000000001,5613.1700000000001,64830.0,-14762.1,6360.75,-4838.1999999999998
170345.0,59156.699999999997,34649.300000000003,5191.8999999999996,65201.300000000003,-14931.200000000001,4598.1800000000003,-4694.6199999999999
170346.0,59323.400000000001,34639.5,5520.5799999999999,65953.5,-15207.9,2697.7800000000002,-4592.6800000000003
170347.0,59887.800000000003,36007.0,6707.3699999999999,67608.699999999997,-15712.4,442.71300000000002,-4556.25
170348.0,60790.0,37126.199999999997,7127.1099999999997,68166.600000000006,-16640.400000000001,-1566.8599999999999,-4572.5100000000002
170349.0,62157.699999999997,39577.099999999999,8076.5299999999997,69655.899999999994,-17396.900000000001,-3288.02,-5121.0699999999997
170350.0,65235.199999999997,41013.699999999997,6495.1599999999999,70677.0,-18417.799999999999,-4839.8999999999996,-4910.6099999999997
170351.0,69079.399999999994,45025.5,7786.3699999999999,74532.600000000006,-20166.700000000001,-6399.8299999999999,-4924.8800000000001
170352.0,73658.699999999997,49387.800000000003,8846.8999999999996,78528.600000000006,-21906.299999999999,-8229.0499999999993,-6018.0699999999997
170353.0,78475.600000000006,54943.400000000001,9702.6200000000008,82725.100000000006,-23494.599999999999,-9952.2199999999993,-6579.5200000000004
170354.0,83575.600000000006,60819.400000000001,9986.1900000000005,86226.0,-25195.700000000001,-11631.799999999999,-7153.1000000000004
170355.0,88496.600000000006,68827.199999999997,12123.700000000001,90588.699999999997,-27256.799999999999,-13095.0,-7429.7299999999996
170356.0,105298.0,90668.300000000003,16457.099999999999,105281.0,-35123.5,-9949.6599999999999,-9739.0300000000007
170357.0,127685.0,117468.0,22033.599999999999,122891.0,-45037.199999999997,-6968.4399999999996,-11805.5
170358.0,157584.0,151789.0,29968.900000000001,144156.0,-58373.699999999997,-4935.0500000000002,-13769.799999999999
170359.0,199312.0,197983.0,40281.400000000001,170432.0,-76627.600000000006,-4201.3199999999997,-16052.4
170360.0,252993.0,258708.0,52702.300000000003,202497.0,-98132.899999999994,-4538.6199999999999,-18579.5
170361.0,311571.0,328357.0,58404.699999999997,236285.0,-114574.0,-3813.5,-19619.900000000001
170362.0,336391.0,379909.0,57052.300000000003,257786.0,-104741.0,-3141.7399999999998,-12842.700000000001
170363.0,303294.0,353205.0,18002.0,227452.0,-43720.400000000001,2594.3499999999999,8381.8199999999997
170364.0,242658.0,181634.0,2025.8299999999999,118181.0,92009.699999999997,-8657.3600000000006,52826.599999999999
170365.0,510776.0,-218255.0,-194400.0,-214649.0,264503.0,-14516.5,128941.0
170366.0,513586.0,-740178.0,-437308.0,-643962.0,208431.0,-27270.599999999999,140669.0
170367.0,562682.0,-902699.0,-302927.0,-692838.0,34817.900000000001,-53427.800000000003,94004.399999999994
170368.0,481798.0,-641419.0,-111858.0,-463870.0,-38085.199999999997,-36011.900000000001,44540.300000000003
170369.0,98914.0,81753.300000000003,14272.5,100609.0,-32283.5,-8172.5900000000001,-9581.0100000000002
170370.0,118331.0,104697.0,17659.700000000001,115634.0,-40454.199999999997,-4308.0100000000002,-11399.5
170371.0,142237.0,134365.0,25392.0,134958.0,-51022.900000000001,-1234.76,-12605.6
170372.0,175897.0,171264.0,33610.800000000003,156585.0,-66348.899999999994,874.32799999999997,-13995.9
170373.0,221239.0,225066.0,49129.800000000003,187304.0,-86512.300000000003,1270.3800000000001,-15841.9
170374.0,279601.0,289207.0,55010.5,217535.0,-106503.0,3837.3699999999999,-17363.900000000001
170375.0,311435.0,353371.0,65448.900000000001,245641.0,-104882.0,5916.3999999999996,-11532.1
170376.0,303045.0,344696.0,15523.1,204582.0,-54383.800000000003,15117.6,11734.6
170377.0,232215.0,213230.0,27563.099999999999,101042.0,74726.0,-104.23699999999999,60396.0
170378.0,560959.0,-185364.0,-185322.0,-253898.0,285224.0,-13044.700000000001,147655.0
170379.0,543342.0,-836385.0,-583318.0,-815880.0,244747.0,-27130.099999999999,134207.0
170380.0,564166.0,-1052100.0,-444448.0,-890957.0,37016.800000000003,-63587.699999999997,39818.400000000001
170381.0,524869.0,-702446.0,-130854.0,-555520.0,-37490.900000000001,-47309.900000000001,-8806.2999999999993
170382.0,93244.899999999994,75009.899999999994,13336.5,96124.699999999997,-30374.299999999999,-6545.2600000000002,-9066.9200000000001
170383.0,110980.0,97535.699999999997,16574.900000000001,110268.0,-37396.0,-2104.8600000000001,-10959.4
170384.0,130868.0,123128.0,22593.0,126193.0,-45639.300000000003,1917.79,-12134.9
170385.0,157826.0,153935.0,29752.5,143705.0,-57899.599999999999,4988.6800000000003,-13186.6
170386.0,194867.0,198014.0,43732.900000000001,169154.0,-75371.199999999997,6142.3800000000001,-14546.0
170387.0,248423.0,255544.0,51272.900000000001,195050.0,-96183.699999999997,7579.9099999999999,-15902.700000000001
170388.0,285852.0,319430.0,61048.300000000003,220470.0,-100131.0,8997.2399999999998,-11626.6
170389.0,286514.0,326765.0,16841.900000000001,177546.0,-55240.599999999999,12388.9,11590.1
170390.0,249775.0,202996.0,11305.6,55565.199999999997,75441.5,-7718.3800000000001,70508.800000000003
170391.0,551675.0,-212014.0,-239728.0,-329675.0,279547.0,-20404.900000000001,138210.0
170392.0,496426.0,-838411.0,-600341.0,-863675.0,235176.0,-44953.099999999999,60889.699999999997
170393.0,574466.0,-985595.0,-395879.0,-862627.0,45396.199999999997,-88157.100000000006,-58148.900000000001
170394.0,507542.0,-626604.0,-98300.100000000006,-501159.0,-20707.700000000001,-58331.099999999999,-76456.199999999997
170395.0,88076.100000000006,69342.800000000003,12892.299999999999,91778.699999999997,-28914.200000000001,-5177.8800000000001,-8412.6800000000003
170396.0,105486.0,91021.0,14734.0,104233.0,-35611.400000000001,-738.61800000000005,-10310.799999999999
170397.0,123575.0,115763.0,20121.900000000001,118729.0,-42334.400000000001,3886.6799999999998,-11680.0
170398.0,145261.0,142119.0,26220.400000000001,132755.0,-51673.599999999999,7644.3599999999997,-12649.6
170399.0,175023.0,177951.0,37293.199999999997,152481.0,-65698.800000000003,9917.8600000000006,-13393.6
170400.0,217684.0,226820.0,48900.400000000001,175291.0,-84445.600000000006,9663.3799999999992,-13787.799999999999
170401.0,259193.0,285549.0,53678.0,194653.0,-92460.399999999994,9127.2800000000007,-10556.9
170402.0,255498.0,308212.0,33798.800000000003,167285.0,-53680.5,1342.6800000000001,6784.5299999999997
170403.0,253524.0,180874.0,-26228.700000000001,32549.599999999999,81063.600000000006,-23459.299999999999,53963.699999999997
170404.0,449341.0,-247754.0,-324502.0,-362234.0,236977.0,-44664.599999999999,75800.800000000003
170405.0,408126.0,-722543.0,-506034.0,-726605.0,181089.0,-80253.100000000006,-19086.799999999999
170406.0,529581.0,-747922.0,-240429.0,-619790.0,44966.599999999999,-103024.0,-105842.0
170407.0,422834.0,-456049.0,-40263.900000000001,-322766.0,-9711.0,-57178.400000000001,-105631.0
170408.0,82948.300000000003,62936.0,11461.5,85898.0,-27818.0,-3772.3200000000002,-7242.8800000000001
170409.0,100164.0,86273.300000000003,15136.799999999999,99396.600000000006,-34592.0,124.624,-9604.3400000000001
170410.0,117943.0,110162.0,17925.799999999999,111586.0,-40227.099999999999,4939.7399999999998,-10673.299999999999
170411.0,136424.0,134671.0,23966.299999999999,123899.0,-47561.5,9100.3299999999999,-11513.799999999999
170412.0,159890.0,164035.0,32291.900000000001,137955.0,-58013.199999999997,12079.4,-11972.1
170413.0,191624.0,202875.0,44629.099999999999,157719.0,-72884.300000000003,12064.700000000001,-11717.4
170414.0,229111.0,250205.0,46770.0,172750.0,-82533.600000000006,8099.1199999999999,-8789.5599999999995
170415.0,226413.0,278699.0,41138.400000000001,167304.0,-54006.699999999997,-6459.21,1499.5999999999999
170416.0,217750.0,178151.0,-25083.200000000001,62384.900000000001,62231.599999999999,-35190.699999999997,17350.599999999999
170417.0,344397.0,-147141.0,-243358.0,-227882.0,179892.0,-67125.199999999997,-301.98200000000003
170418.0,345224.0,-487548.0,-329935.0,-443881.0,135386.0,-101603.0,-66722.699999999997
170419.0,409948.0,-516436.0,-151648.0,-342248.0,34429.099999999999,-105300.0,-102253.0
170420.0,309949.0,-299525.0,-18665.200000000001,-125004.0,-14794.4,-57505.0,-91592.199999999997
170421.0,78288.300000000003,57317.099999999999,9611.1700000000001,80105.100000000006,-26250.5,-2960.6399999999999,-7146.8599999999997
170422.0,95904.699999999997,81260.5,15021.299999999999,94138.899999999994,-34163.599999999999,532.63199999999995,-9813.0400000000009
170423.0,112225.0,107815.0,19459.200000000001,107452.0,-38357.0,4874.1400000000003,-10560.6
170424.0,129220.0,129193.0,20988.799999999999,114874.0,-43814.699999999997,9559.5599999999995,-10012.9
170425.0,148609.0,153484.0,28430.700000000001,125115.0,-52841.900000000001,13054.700000000001,-10019.1
170426.0,172450.0,182731.0,37849.0,139506.0,-63703.599999999999,14506.200000000001,-10591.9
170427.0,198472.0,222493.0,48042.800000000003,161066.0,-71573.100000000006,9919.2099999999991,-8900.8600000000006
170428.0,203822.0,243037.0,37269.599999999999,167198.0,-54738.099999999999,-3001.9400000000001,-3688.6100000000001
170429.0,169367.0,193676.0,16723.0,133302.0,22137.5,-31266.200000000001,1650.73
170430.0,251518.0,-9082.4799999999996,-101933.0,-21119.799999999999,120616.0,-63161.099999999999,237.33099999999999
170431.0,258736.0,-278487.0,-191505.0,-178832.0,102043.0,-88586.100000000006,-33339.099999999999
170432.0,309112.0,-331172.0,-80381.800000000003,-122454.0,22694.200000000001,-95685.699999999997,-64350.699999999997
170433.0,249264.0,-178379.0,9886.7800000000007,19858.400000000001,-19373.5,-63516.699999999997,-61867.400000000001
170434.0,74070.699999999997,54688.300000000003,10156.4,77881.800000000003,-24319.200000000001,-2130.1999999999998,-6945.2200000000003
170435.0,93158.600000000006,77082.699999999997,14277.4,90155.800000000003,-33966.0,650.89700000000005,-9656.0100000000002
170436.0,107254.0,107015.0,23296.0,106325.0,-37469.400000000001,4181.71,-9791.4400000000005
170437.0,123373.0,126021.0,18603.700000000001,108434.0,-40117.800000000003,8869.8199999999997,-8124.54
170438.0,142600.0,141421.0,19350.799999999999,110835.0,-49944.599999999999,12661.4,-9438.4599999999991
170439.0,160964.0,168125.0,32026.299999999999,125606.0,-58650.0,15137.200000000001,-10930.9
170440.0,179024.0,199436.0,43314.800000000003,149490.0,-63084.0,15743.799999999999,-9941.4500000000007
170441.0,187125.0,216170.0,37200.599999999999,168046.0,-54533.800000000003,9523.3099999999995,-5439.9200000000001
170442.0,153839.0,187216.0,31490.200000000001,179569.0,-7707.7600000000002,-10913.6,2063.21
170443.0,206179.0,43401.0,-44315.599999999999,108696.0,79395.100000000006,-42638.900000000001,12381.9
170444.0,246105.0,-194707.0,-164012.0,-39711.099999999999,93086.300000000003,-67798.600000000006,13836.299999999999
170445.0,256545.0,-281725.0,-101471.0,-46827.400000000001,13436.200000000001,-81366.0,5344.9399999999996
170446.0,239025.0,-145402.0,19882.400000000001,68949.600000000006,-35512.0,-71308.899999999994,-9271.4500000000007
170447.0,71609.600000000006,51680.800000000003,9904.4699999999993,76562.699999999997,-23218.099999999999,-867.75699999999995,-5904.3999999999996
170448.0,89443.0,73582.399999999994,14910.4,87902.699999999997,-33108.699999999997,449.73899999999998,-8625.7600000000002
170449.0,103195.0,104602.0,24355.200000000001,103507.0,-36750.099999999999,3043.0799999999999,-8499.4500000000007
170450.0,117457.0,124619.0,20562.0,104981.0,-37878.400000000001,6869.75,-7750.2299999999996
170451.0,138651.0,136171.0,15000.9,102084.0,-47551.199999999997,11104.5,-10908.6
170452.0,156324.0,161282.0,31030.0,118688.0,-57607.599999999999,14290.700000000001,-14566.799999999999
170453.0,173242.0,187158.0,34335.400000000001,138672.0,-57262.800000000003,22319.299999999999,-11334.299999999999
170454.0,177666.0,191408.0,28286.5,154037.0,-49898.099999999999,26991.400000000001,-496.03500000000003
170455.0,151999.0,157761.0,19844.599999999999,164034.0,-14329.5,23635.599999999999,17188.5
170456.0,169941.0,53734.699999999997,13907.799999999999,144012.0,61194.900000000001,-1812.79,37877.400000000001
170457.0,281750.0,-164355.0,-108730.0,2948.1399999999999,118340.0,-37586.699999999997,61518.0
170458.0,260958.0,-349096.0,-180130.0,-122783.0,30500.400000000001,-70148.600000000006,54827.400000000001
170459.0,282732.0,-217376.0,-6854.3900000000003,2387.4299999999998,-56417.300000000003,-84714.899999999994,28917.5
170460.0,69112.199999999997,47378.300000000003,8137.04,73292.100000000006,-22052.400000000001,269.233,-5448.4099999999999
170461.0,84616.5,70615.600000000006,16824.099999999999,87072.399999999994,-31413.200000000001,650.29600000000005,-7041.0600000000004
170462.0,100594.0,98420.399999999994,21274.400000000001,99237.0,-36275.300000000003,2079.4099999999999,-6913.29
170463.0,113620.0,120451.0,21218.700000000001,103004.0,-37950.900000000001,3830.1799999999998,-6443.4200000000001
170464.0,135066.0,135021.0,14934.0,98435.300000000003,-46283.300000000003,8147.6499999999996,-9154.6800000000003
170465.0,158007.0,161934.0,34099.199999999997,116464.0,-60599.800000000003,13733.0,-16196.4
170466.0,174836.0,189519.0,34585.400000000001,133818.0,-55961.5,25852.599999999999,-15168.299999999999
170467.0,181875.0,171449.0,874.83000000000004,121045.0,-38568.0,43045.0,2522.4299999999998
170468.0,178444.0,92538.699999999997,-43936.800000000003,73811.5,390.43299999999999,55913.5,44878.900000000001
170469.0,249570.0,-38731.0,-21401.0,16813.0,80058.600000000006,42972.599999999999,108158.0
170470.0,429017.0,-259784.0,-99854.300000000003,-144640.0,161278.0,14197.4,168324.0
170471.0,373305.0,-496751.0,-210524.0,-327746.0,58844.099999999999,-30663.700000000001,146097.0
170472.0,374645.0,-376984.0,-37106.099999999999,-182910.0,-66948.600000000006,-76215.699999999997,86150.300000000003
170473.0,66189.199999999997,46054.5,9739.9400000000005,73380.300000000003,-20379.5,1595.73,-4817.4200000000001
170474.0,80920.899999999994,63348.400000000001,12018.4,82185.600000000006,-28883.099999999999,1364.2,-5272.1300000000001
170475.0,99144.699999999997,90603.5,19046.200000000001,96502.600000000006,-36882.099999999999,842.91800000000001,-7512.2399999999998
170476.0,111827.0,117698.0,23332.099999999999,106498.0,-37855.699999999997,-134.28100000000001,-8805.9699999999993
170477.0,134681.0,132493.0,11358.1,99756.100000000006,-44974.800000000003,2471.5900000000001,-9534.8999999999996
170478.0,167560.0,155809.0,20474.0,109545.0,-65101.400000000001,10402.5,-16757.5
170479.0,181557.0,201002.0,45351.199999999997,138037.0,-62563.599999999999,22046.5,-21377.5
170480.0,194349.0,184757.0,-10231.1,101033.0,-28786.400000000001,45486.400000000001,-11162.299999999999
170481.0,180877.0,53794.900000000001,-98044.0,-18315.799999999999,27580.099999999999,61200.0,25115.599999999999
170482.0,359182.0,-185880.0,-162562.0,-203200.0,151290.0,56073.599999999999,128667.0
170483.0,599196.0,-597140.0,-395298.0,-552768.0,222662.0,48418.5,237707.0
170484.0,537264.0,-895309.0,-461193.0,-746268.0,69892.100000000006,3654.29,206550.0
170485.0,513479.0,-663145.0,-157979.0,-476854.0,-71411.300000000003,-56734.099999999999,119604.0
170486.0,64387.099999999999,43395.800000000003,8976.0100000000002,72024.399999999994,-18748.900000000001,3495.4499999999998,-4646.5900000000001
170487.0,76826.899999999994,57125.5,8958.3099999999995,78626.800000000003,-25773.5,2535.27,-4906.7299999999996
170488.0,93682.100000000006,82202.100000000006,19082.200000000001,92739.199999999997,-36020.599999999999,657.726,-6385.5299999999997
170489.0,106782.0,119281.0,35455.099999999999,113989.0,-39047.0,-1283.6300000000001,-8411.9799999999996
170490.0,132270.0,141063.0,26560.599999999999,116446.0,-44635.5,-1573.22,-14292.0
170491.0,174572.0,161493.0,18297.599999999999,117425.0,-65118.400000000001,3567.02,-22944.299999999999
170492.0,192843.0,213845.0,51535.900000000001,149531.0,-69938.800000000003,14101.1,-25006.400000000001
170493.0,203258.0,219087.0,9638.0599999999995,109471.0,-34421.900000000001,34259.199999999997,-20919.099999999999
170494.0,178297.0,115246.0,-43195.099999999999,-15199.6,39800.199999999997,42198.900000000001,-9011.5100000000002
170495.0,403421.0,-196542.0,-195591.0,-297970.0,216276.0,33425.199999999997,53808.300000000003
170496.0,583414.0,-815602.0,-622811.0,-855324.0,294434.0,21158.900000000001,104165.0
170497.0,537458.0,-1186200.0,-658344.0,-1086520.0,110131.0,-17881.700000000001,72027.600000000006
170498.0,603697.0,-896079.0,-246443.0,-734398.0,-50454.900000000001,-51655.900000000001,43488.599999999999
170499.0,63518.599999999999,42002.400000000001,7659.5699999999997,70182.100000000006,-17606.599999999999,5681.8999999999996,-4707.5699999999997
170500.0,71655.300000000003,53325.699999999997,10676.5,77161.600000000006,-23139.599999999999,4422.0299999999997,-4683.6999999999998
170501.0,85386.800000000003,72484.199999999997,16086.6,88215.600000000006,-31300.299999999999,2455.71,-2470.6999999999998
170502.0,104934.0,98545.699999999997,23639.299999999999,103028.0,-40978.5,773.49099999999999,-1257.3499999999999
170503.0,129930.0,138898.0,40873.599999999999,128027.0,-51409.5,-651.24300000000005,-9837.8500000000004
170504.0,168272.0,183570.0,48976.300000000003,148597.0,-64200.199999999997,617.36599999999999,-20959.5
170505.0,199469.0,224326.0,50433.599999999999,161581.0,-70416.100000000006,9417.0499999999993,-21463.099999999999
170506.0,203581.0,239629.0,30083.5,131867.0,-47731.300000000003,19763.400000000001,-12880.4
170507.0,169942.0,169791.0,-978.59500000000003,25768.299999999999,27622.5,20655.799999999999,-648.38699999999994
170508.0,373651.0,-92408.100000000006,-102243.0,-238121.0,199489.0,6569.1000000000004,8221.9699999999993
170509.0,627786.0,-616912.0,-398132.0,-731310.0,320099.0,-14442.799999999999,-6313.8999999999996
170510.0,626844.0,-1076470.0,-537323.0,-1068410.0,181753.0,-35751.0,-34647.5
170511.0,657784.0,-953978.0,-250710.0,-836762.0,-5401.21,-40352.099999999999,-24609.400000000001
170512.0,62323.5,40214.800000000003,5976.2200000000003,67216.899999999994,-16595.400000000001,7320.4200000000001,-4875.7700000000004
170513.0,67605.100000000006,48973.199999999997,10167.0,73990.199999999997,-20677.900000000001,6527.8400000000001,-4370.3800000000001
170514.0,77343.800000000003,60738.800000000003,10282.700000000001,80866.199999999997,-25325.200000000001,4727.9399999999996,-2854.1100000000001
170515.0,99356.600000000006,75628.800000000003,6183.6599999999999,88040.300000000003,-36489.099999999999,2422.0599999999999,-2657.8200000000002
170516.0,131747.0,113260.0,26427.599999999999,116487.0,-55878.599999999999,-109.252,-7290.9200000000001
170517.0,163398.0,180933.0,61030.199999999997,163585.0,-67399.0,1146.53,-12512.1
170518.0,195916.0,229397.0,54516.400000000001,174156.0,-67799.300000000003,8134.6000000000004,-11833.1
170519.0,199341.0,236947.0,31982.200000000001,140882.0,-51129.199999999997,10707.200000000001,-602.88300000000004
170520.0,165061.0,172715.0,-7496.7799999999997,41134.300000000003,10448.799999999999,5034.7600000000002,15958.700000000001
170521.0,277827.0,-21186.799999999999,-52547.5,-156275.0,140298.0,-14030.5,29161.0
170522.0,547761.0,-412340.0,-220096.0,-511507.0,276915.0,-28870.200000000001,23373.0
170523.0,592639.0,-871334.0,-414293.0,-873740.0,212603.0,-32366.400000000001,-28789.0
170524.0,606438.0,-913298.0,-274453.0,-811445.0,43562.599999999999,-24815.599999999999,-47604.699999999997
170525.0,7173.3000000000002,3706.2800000000002,263.84800000000001,-2581.9400000000001,-724.05799999999999,2296.9400000000001,-1198.6700000000001
170526.0,7362.1599999999999,3603.1900000000001,138.92599999999999,-2478.8699999999999,-740.803,2595.52,-1214.0899999999999
170527.0,7897.1300000000001,3555.8899999999999,141.023,-2398.98,-757.99000000000001,3084.8600000000001,-1329.8099999999999
170528.0,8728.6599999999999,3519.9499999999998,200.56100000000001,-2446.9499999999998,-722.41899999999998,3650.3499999999999,-1615.8599999999999
170529.0,9732.5900000000001,3143.8600000000001,122.499,-2735.3099999999999,-567.75800000000004,4327.3699999999999,-1970.4200000000001
170530.0,10798.4,2264.9499999999998,-64.389099999999999,-2898.4299999999998,-264.90199999999999,5178.0299999999997,-2302.1500000000001
170531.0,11558.0,1082.6099999999999,-271.56999999999999,-2361.0,144.05600000000001,5901.6800000000003,-2582.4499999999998
170532.0,11760.6,215.29599999999999,-337.39499999999998,-1136.0699999999999,559.05999999999995,6153.8000000000002,-2731.4699999999998
170533.0,11569.4,-534.178,-488.846,-241.69800000000001,834.51999999999998,6029.54,-2746.0500000000002
170534.0,11062.0,-1353.8099999999999,-523.471,459.38799999999998,1162.6900000000001,5641.9499999999998,-2604.2199999999998
170535.0,10739.799999999999,-2601.4400000000001,-840.86599999999999,818.15099999999995,1606.6400000000001,5198.7700000000004,-2432.0300000000002
170536.0,10837.6,-3358.3800000000001,-869.197,1743.1199999999999,2107.23,4795.6300000000001,-2281.5100000000002
170537.0,10269.1,-4217.9700000000003,-1353.3299999999999,1826.03,2454.5500000000002,3992.7399999999998,-2010.9000000000001
170538.0,7227.4899999999998,3747.5900000000001,-41.015799999999999,-2508.2399999999998,-882.91200000000003,2371.5500000000002,-1038.78
170539.0,7604.1000000000004,3737.4200000000001,-98.079599999999999,-2417.3299999999999,-890.62900000000002,2757.1300000000001,-1103.3
170540.0,8114.0500000000002,3675.6199999999999,-80.7393,-2366.5300000000002,-916.75900000000001,3198.27,-1252.76
170541.0,8911.0699999999997,3525.4499999999998,-96.388300000000001,-2486.77,-895.99800000000005,3759.8099999999999,-1538.5
170542.0,9942.6599999999999,3199.1900000000001,-92.034599999999998,-2765.3899999999999,-752.33399999999995,4445.3400000000001,-1923.3399999999999
170543.0,10946.1,2315.9699999999998,-195.14099999999999,-2905.0999999999999,-424.93299999999999,5276.6099999999997,-2257.8699999999999
170544.0,11661.0,1114.1199999999999,-340.68299999999999,-2363.8200000000002,-1.9582599999999999,6004.3000000000002,-2494.6900000000001
170545.0,11924.299999999999,118.846,-493.29700000000003,-1168.23,409.11799999999999,6306.9799999999996,-2652.5700000000002
170546.0,11803.1,-661.44200000000001,-647.32500000000005,-211.56299999999999,734.73000000000002,6209.9399999999996,-2696.1500000000001
170547.0,11476.0,-1874.0899999999999,-996.96000000000004,121.991,1131.5899999999999,5892.7200000000003,-2625.5900000000001
170548.0,11143.5,-3118.29,-1185.8099999999999,487.45400000000001,1565.4100000000001,5442.54,-2462.7199999999998
170549.0,11199.799999999999,-4191.75,-1318.5999999999999,1332.96,2083.0799999999999,5003.7700000000004,-2191.02
170550.0,10981.700000000001,-4994.46,-1577.05,1857.95,2540.1599999999999,4256.6999999999998,-1971.9000000000001
170551.0,7498.0799999999999,4165.5200000000004,84.530100000000004,-2283.7800000000002,-975.71799999999996,2494.9699999999998,-959.52800000000002
170552.0,7904.3500000000004,4195.5600000000004,85.337100000000007,-2124.8899999999999,-1001.28,2904.2399999999998,-1049.3900000000001
170553.0,8440.1599999999999,4170.3599999999997,163.16399999999999,-2029.04,-1008.14,3364.1900000000001,-1236.3699999999999
170554.0,9203.6100000000006,3953.0300000000002,158.334,-2198.3299999999999,-990.86800000000005,3910.5500000000002,-1526.1400000000001
170555.0,10238.299999999999,3604.4200000000001,175.56100000000001,-2535.3099999999999,-872.83799999999997,4594.46,-1898.23
170556.0,11166.6,2546.3600000000001,-54.649000000000001,-2795.2600000000002,-537.46199999999999,5399.3199999999997,-2233.3699999999999
170557.0,11799.200000000001,1235.0,-266.358,-2262.9000000000001,-45.622599999999998,6106.3699999999999,-2457.1900000000001
170558.0,12191.1,139.345,-501.87799999999999,-1113.9200000000001,391.85399999999998,6472.9799999999996,-2663.6999999999998
170559.0,12175.299999999999,-567.30700000000002,-561.26700000000005,-15.523199999999999,740.53399999999999,6412.1700000000001,-2765.5500000000002
170560.0,11899.299999999999,-1659.26,-758.18499999999995,468.98700000000002,1191.02,6113.1300000000001,-2695.8899999999999
170561.0,11673.6,-3019.7399999999998,-1034.78,805.44899999999996,1706.8499999999999,5681.46,-2563.6100000000001
170562.0,11733.0,-4366.79,-1355.25,1484.0799999999999,2251.6199999999999,5192.9399999999996,-2300.2199999999998
170563.0,11593.799999999999,-5296.0299999999997,-1576.5599999999999,2103.25,2681.96,4435.9300000000003,-2061.02
170564.0,7789.1400000000003,4409.5100000000002,-15.499499999999999,-2216.8699999999999,-1060.26,2615.2399999999998,-933.06600000000003
170565.0,8216.9899999999998,4460.1099999999997,12.855499999999999,-2033.03,-1105.1900000000001,3028.4699999999998,-1045.23
170566.0,8759.1200000000008,4353.3999999999996,25.501300000000001,-1976.1099999999999,-1110.24,3508.0100000000002,-1252.45
170567.0,9456.1100000000006,4147.5799999999999,74.342399999999998,-2091.0799999999999,-1091.45,4022.3800000000001,-1549.73
170568.0,10431.0,3713.3600000000001,39.575400000000002,-2527.5300000000002,-978.80200000000002,4682.3199999999997,-1883.3199999999999
170569.0,11337.9,2742.5700000000002,-40.014099999999999,-2704.7399999999998,-643.34900000000005,5490.6899999999996,-2206.4299999999998
170570.0,11911.299999999999,1278.54,-288.05099999999999,-2186.6599999999999,-112.051,6192.1899999999996,-2434.3099999999999
170571.0,12371.700000000001,199.881,-485.57299999999998,-990.07899999999995,348.75299999999999,6594.6800000000003,-2655.5300000000002
170572.0,12518.700000000001,-587.59299999999996,-643.48800000000006,59.103099999999998,723.68299999999999,6611.5200000000004,-2801.9499999999998
170573.0,12279.5,-1852.22,-945.57299999999998,443.55500000000001,1204.3900000000001,6321.71,-2740.5900000000001
170574.0,12168.700000000001,-3344.1399999999999,-1230.3900000000001,803.35500000000002,1764.9100000000001,5920.3900000000003,-2625.2399999999998
170575.0,12225.200000000001,-4631.8299999999999,-1409.21,1638.6800000000001,2328.04,5369.54,-2394.7199999999998
170576.0,12026.0,-5664.3199999999997,-1729.1700000000001,2151.04,2758.1900000000001,4572.6899999999996,-2102.5100000000002
170577.0,8097.7200000000003,4923.4499999999998,168.035,-1883.75,-1167.6300000000001,2743.2600000000002,-880.46600000000001
170578.0,8567.0799999999999,4869.2799999999997,85.4345,-1809.02,-1224.8699999999999,3175.4699999999998,-1017.5599999999999
170579.0,9095.2900000000009,4878.3699999999999,252.029,-1576.04,-1237.75,3668.1399999999999,-1232.9200000000001
170580.0,9736.2900000000009,4504.8500000000004,175.322,-1804.6300000000001,-1220.1099999999999,4161.0799999999999,-1543.6199999999999
170581.0,10598.0,4138.8599999999997,260.85500000000002,-2151.3099999999999,-1079.52,4772.8900000000003,-1849.99
170582.0,11513.299999999999,2875.2199999999998,-40.673499999999997,-2662.8200000000002,-723.91800000000001,5600.5299999999997,-2149.5900000000001
170583.0,12064.5,1413.49,-163.18199999999999,-2014.1600000000001,-187.184,6301.7799999999997,-2413.8400000000001
170584.0,12523.5,232.279,-484.87200000000001,-876.40499999999997,292.14999999999998,6699.4099999999999,-2644.96
170585.0,12864.6,-445.70499999999998,-541.27999999999997,349.51400000000001,706.72199999999998,6820.1800000000003,-2812.9200000000001
170586.0,12705.799999999999,-1864.8399999999999,-922.94799999999998,660.02499999999998,1226.9200000000001,6551.96,-2784.0500000000002
170587.0,12660.200000000001,-3379.0,-1122.9400000000001,1069.98,1792.3599999999999,6168.0699999999997,-2687.1599999999999
170588.0,12674.5,-4769.75,-1320.9000000000001,1908.8900000000001,2335.9499999999998,5548.9799999999996,-2478.9000000000001
170589.0,12354.299999999999,-5619.6700000000001,-1494.77,2596.5900000000001,2775.3299999999999,4671.46,-2115.1900000000001
170590.0,8430.1599999999999,5239.4300000000003,120.699,-1762.22,-1287.6900000000001,2863.75,-837.64300000000003
170591.0,8943.4400000000005,5217.4399999999996,55.251199999999997,-1642.8599999999999,-1353.26,3328.2199999999998,-993.69600000000003
170592.0,9448.9500000000007,5152.8599999999997,177.999,-1425.6900000000001,-1376.5999999999999,3821.4200000000001,-1223.21
170593.0,10029.299999999999,4796.1800000000003,162.023,-1571.9400000000001,-1363.3399999999999,4298.7299999999996,-1533.6600000000001
170594.0,10765.700000000001,4341.9499999999998,223.435,-1975.46,-1185.3900000000001,4865.3999999999996,-1808.8399999999999
170595.0,11639.700000000001,3020.3600000000001,-1.35273,-2533.98,-808.13400000000001,5701.1099999999997,-2066.9699999999998
170596.0,12177.9,1379.8,-206.011,-1987.8900000000001,-279.11799999999999,6395.8400000000001,-2368.71
170597.0,12696.5,344.98399999999998,-447.71800000000002,-714.029,220.52799999999999,6812.4399999999996,-2640.4499999999998
170598.0,13214.200000000001,-455.858,-587.02300000000002,514.18899999999996,678.43100000000004,7025.3199999999997,-2833.2800000000002
170599.0,13151.5,-1992.03,-1034.6500000000001,830.65999999999997,1241.97,6775.8800000000001,-2852.8600000000001
170600.0,13087.9,-3608.8800000000001,-1270.79,1119.99,1802.1500000000001,6383.2600000000002,-2741.0100000000002
170601.0,13096.299999999999,-5058.9300000000003,-1431.4100000000001,1988.6199999999999,2333.5799999999999,5734.0299999999997,-2534.9299999999998
170602.0,12688.200000000001,-5834.8000000000002,-1540.3800000000001,2787.5599999999999,2772.27,4767.6000000000004,-2158.9899999999998
170603.0,8804.3600000000006,5783.6599999999999,255.44999999999999,-1434.54,-1423.6099999999999,2989.0,-790.46500000000003
170604.0,9340.8400000000001,5700.4399999999996,140.48099999999999,-1329.6400000000001,-1491.0999999999999,3491.1700000000001,-960.58299999999997
170605.0,9846.3999999999996,5665.1199999999999,319.09899999999999,-1060.48,-1524.72,3990.6999999999998,-1203.01
170606.0,10352.1,5213.6000000000004,266.83499999999998,-1187.23,-1505.1099999999999,4458.3900000000003,-1523.1600000000001
170607.0,10981.9,4695.0100000000002,322.45400000000001,-1621.3,-1289.48,4991.3299999999999,-1777.46
170608.0,11700.1,3076.1999999999998,-9.51248,-2401.0500000000002,-902.56899999999996,5773.7399999999998,-1984.9000000000001
170609.0,12222.299999999999,1478.9400000000001,-152.374,-1830.4200000000001,-362.19499999999999,6449.96,-2307.1900000000001
170610.0,12941.4,504.68200000000002,-397.79899999999998,-534.024,156.56299999999999,6967.3800000000001,-2634.1599999999999
170611.0,13585.299999999999,-451.01999999999998,-573.08900000000006,708.55899999999997,629.524,7243.7600000000002,-2855.0799999999999
170612.0,13629.6,-1922.8599999999999,-908.20299999999997,1210.02,1217.6099999999999,7023.3999999999996,-2925.0300000000002
170613.0,13480.799999999999,-3590.0599999999999,-1162.5999999999999,1448.55,1794.8699999999999,6573.7200000000003,-2791.4000000000001
170614.0,13489.5,-5210.5,-1432.5999999999999,2169.5300000000002,2341.3299999999999,5915.9499999999998,-2560.6399999999999
170615.0,13082.299999999999,-5967.8000000000002,-1453.8299999999999,3074.1799999999998,2767.8699999999999,4908.6000000000004,-2203.25
170616.0,9222.1000000000004,6167.9799999999996,193.45099999999999,-1274.4000000000001,-1568.8599999999999,3129.6300000000001,-743.86900000000003
170617.0,9769.4400000000005,6180.71,191.43799999999999,-1015.05,-1635.71,3663.4200000000001,-931.05399999999997
170618.0,10274.200000000001,6012.0100000000002,263.08300000000003,-861.97199999999998,-1674.4400000000001,4171.1000000000004,-1179.0899999999999
170619.0,10732.0,5573.5799999999999,280.44200000000001,-865.952,-1646.6600000000001,4641.6899999999996,-1528.25
170620.0,11252.9,4948.9799999999996,320.93200000000002,-1345.3,-1420.3,5143.1499999999996,-1762.03
170621.0,11658.9,3181.3000000000002,54.117699999999999,-2119.9000000000001,-1014.47,5794.9099999999999,-1896.9100000000001
170622.0,12215.0,1608.98,-115.533,-1662.45,-440.26900000000001,6481.9799999999996,-2201.6999999999998
170623.0,13253.299999999999,641.35799999999995,-338.56299999999999,-331.81099999999998,83.225099999999998,7169.1700000000001,-2613.0500000000002
170624.0,13952.200000000001,-507.54599999999999,-626.16800000000001,853.73400000000004,565.90700000000004,7451.0699999999997,-2893.6199999999999
170625.0,14107.200000000001,-1962.27,-924.89099999999996,1438.98,1163.98,7283.4200000000001,-2982.5100000000002
170626.0,13876.299999999999,-3713.5100000000002,-1174.0799999999999,1671.51,1760.99,6761.6599999999999,-2846.9699999999998
170627.0,13835.299999999999,-5291.8999999999996,-1381.1500000000001,2395.8699999999999,2345.7600000000002,6080.0600000000004,-2560.9899999999998
170628.0,13497.700000000001,-6296.4399999999996,-1565.75,3190.46,2777.6399999999999,5055.8800000000001,-2225.3400000000001
170629.0,9682.9699999999993,6715.3100000000004,268.32600000000002,-960.09900000000005,-1726.75,3286.6100000000001,-687.30999999999995
170630.0,10253.5,6756.3800000000001,323.19099999999997,-618.64099999999996,-1793.49,3861.3400000000001,-898.47500000000002
170631.0,10723.0,6468.5299999999997,312.471,-525.12,-1823.4100000000001,4370.29,-1148.04
170632.0,11186.9,6047.3800000000001,378.74099999999999,-443.93700000000001,-1797.76,4862.46,-1532.52
170633.0,11549.700000000001,5268.3100000000004,401.82999999999998,-985.26400000000001,-1588.01,5302.8800000000001,-1742.71
170634.0,11552.1,3282.6999999999998,101.789,-1777.6199999999999,-1129.24,5777.6999999999998,-1812.1199999999999
170635.0,12181.9,1756.97,-102.672,-1429.02,-517.07500000000005,6503.3900000000003,-2084.1100000000001
170636.0,13540.700000000001,681.38699999999994,-376.56299999999999,-217.221,-17.726800000000001,7360.1300000000001,-2572.9299999999998
170637.0,14349.9,-432.697,-572.18899999999996,1102.76,487.048,7670.7200000000003,-2949.3400000000001
170638.0,14578.9,-1906.5699999999999,-854.15099999999995,1747.3699999999999,1108.8900000000001,7544.4399999999996,-3026.9499999999998
170639.0,14298.799999999999,-3826.7199999999998,-1186.8399999999999,1897.21,1725.3499999999999,6972.1000000000004,-2891.0
170640.0,14183.799999999999,-5434.0,-1347.8499999999999,2645.7399999999998,2315.1700000000001,6222.8800000000001,-2579.5799999999999
170641.0,13815.0,-6527.5299999999997,-1585.3900000000001,3404.5100000000002,2758.5700000000002,5132.96,-2235.8800000000001
170642.0,10191.299999999999,7169.4799999999996,202.86199999999999,-754.12400000000002,-1890.1400000000001,3457.0700000000002,-625.45299999999997
170643.0,10797.200000000001,7359.8699999999999,453.10000000000002,-213.102,-1973.0899999999999,4079.98,-858.77999999999997
170644.0,11205.200000000001,6831.5699999999997,253.61699999999999,-221.874,-1984.5,4595.1599999999999,-1121.3800000000001
170645.0,11689.700000000001,6504.1899999999996,441.072,-48.896900000000002,-1977.72,5103.4399999999996,-1506.3599999999999
170646.0,11835.799999999999,5513.1999999999998,437.66800000000001,-667.20399999999995,-1785.3099999999999,5458.9899999999998,-1686.53
170647.0,11462.1,3449.9400000000001,185.988,-1343.3099999999999,-1260.98,5760.3900000000003,-1739.5999999999999
170648.0,12134.6,1928.9100000000001,-92.311999999999998,-1139.02,-616.24400000000003,6505.29,-1988.04
170649.0,13730.9,866.58699999999999,-315.63299999999998,23.548100000000002,-115.578,7496.6000000000004,-2502.5599999999999
170650.0,14812.299999999999,-362.69099999999997,-558.84500000000003,1301.0899999999999,397.238,7936.8299999999999,-2989.96
170651.0,15047.700000000001,-1879.2,-788.47000000000003,2055.4299999999998,1045.9300000000001,7797.3199999999997,-3075.5300000000002
170652.0,14750.0,-4036.79,-1302.0899999999999,2085.0999999999999,1699.5699999999999,7178.8000000000002,-2948.2600000000002
170653.0,14501.1,-5532.9300000000003,-1312.49,2901.6599999999999,2243.98,6341.1700000000001,-2657.52
170654.0,13964.1,-6582.8599999999997,-1565.7,3609.73,2705.5900000000001,5165.21,-2241.6199999999999
170655.0,10747.0,7817.8400000000001,287.11200000000002,-346.85000000000002,-2062.0999999999999,3646.1500000000001,-568.62599999999998
170656.0,11387.299999999999,7974.8500000000004,547.94000000000005,190.49700000000001,-2164.4200000000001,4308.3400000000001,-814.18200000000002
170657.0,11769.799999999999,7338.54,327.24700000000001,225.69300000000001,-2165.9200000000001,4859.2799999999997,-1115.8199999999999
170658.0,12202.1,6996.3100000000004,564.52599999999995,374.20400000000001,-2164.4299999999998,5347.46,-1463.1199999999999
170659.0,12106.9,5780.4399999999996,523.33399999999995,-292.78800000000001,-1974.1099999999999,5611.7700000000004,-1614.1300000000001
170660.0,11451.299999999999,3668.1300000000001,272.30000000000001,-905.48199999999997,-1413.03,5762.8400000000001,-1692.4100000000001
170661.0,12091.700000000001,2190.6900000000001,3.85276,-744.85799999999995,-742.81399999999996,6500.21,-1898.77
170662.0,13845.9,1005.1,-295.07400000000001,284.56400000000002,-221.44300000000001,7593.0500000000002,-2403.1500000000001
170663.0,15266.1,-250.79400000000001,-519.21900000000005,1544.9200000000001,292.26499999999999,8213.2399999999998,-2980.2600000000002
170664.0,15553.6,-1914.76,-773.404,2322.02,961.91200000000003,8064.79,-3141.04
170665.0,15176.299999999999,-4041.6100000000001,-1203.8499999999999,2431.6999999999998,1628.45,7378.3100000000004,-3025.3699999999999
170666.0,14737.200000000001,-5474.2700000000004,-1145.9300000000001,3212.0999999999999,2140.48,6456.5,-2695.1599999999999
170667.0,14097.6,-6517.9099999999999,-1476.5599999999999,3908.8299999999999,2648.1399999999999,5212.5699999999997,-2207.96
170668.0,11365.799999999999,8493.5300000000007,357.55099999999999,81.4148,-2254.4899999999998,3855.1399999999999,-525.77700000000004
170669.0,12008.1,8543.0400000000009,568.274,555.06100000000004,-2360.9400000000001,4547.6999999999998,-758.41499999999996
170670.0,12424.5,7880.0299999999997,411.85500000000002,669.94000000000005,-2384.23,5154.5100000000002,-1109.8900000000001
170671.0,12707.299999999999,7421.25,633.94399999999996,760.90899999999999,-2369.2800000000002,5577.5799999999999,-1424.23
170672.0,12330.9,5996.7399999999998,556.10799999999995,93.561700000000002,-2147.52,5739.5100000000002,-1534.0
170673.0,11531.700000000001,3953.8600000000001,362.08100000000002,-458.12900000000002,-1582.55,5799.0,-1639.3399999999999
170674.0,12082.5,2391.4000000000001,33.7254,-387.62599999999998,-901.654,6503.6199999999999,-1819.05
170675.0,13910.5,1193.47,-245.721,622.11000000000001,-357.19499999999999,7645.4700000000003,-2322.6100000000001
170676.0,15643.4,-107.392,-488.51600000000002,1817.4400000000001,176.56200000000001,8445.5900000000001,-2947.0799999999999
170677.0,16068.799999999999,-1954.8299999999999,-799.58299999999997,2561.9299999999998,863.33199999999999,8339.2399999999998,-3205.3200000000002
170678.0,15554.5,-4019.0,-1110.8299999999999,2741.7800000000002,1518.54,7574.1000000000004,-3077.77
170679.0,14920.700000000001,-5560.8599999999997,-1125.21,3398.3800000000001,2040.8399999999999,6547.3900000000003,-2666.02
170680.0,14331.6,-6548.8699999999999,-1494.1099999999999,4179.7299999999996,2619.3600000000001,5295.04,-2181.5
170681.0,12067.299999999999,9287.2299999999996,510.08199999999999,600.48699999999997,-2476.4299999999998,4094.5799999999999,-473.31799999999998
170682.0,12655.5,9131.3700000000008,601.78300000000002,962.94200000000001,-2578.0599999999999,4795.5799999999999,-689.25599999999997
170683.0,13127.200000000001,8490.0300000000007,510.93700000000001,1152.8699999999999,-2650.6100000000001,5438.1599999999999,-1090.8800000000001
170684.0,13217.9,7962.4700000000003,767.99199999999996,1317.9400000000001,-2623.8200000000002,5776.4300000000003,-1396.7
170685.0,12498.799999999999,6224.5200000000004,531.97000000000003,562.24199999999996,-2319.6199999999999,5814.2600000000002,-1463.77
170686.0,11675.799999999999,4324.1599999999999,450.37299999999999,48.542499999999997,-1746.4400000000001,5857.7200000000003,-1582.3
170687.0,12123.4,2633.5,63.323599999999999,-22.807300000000001,-1082.3299999999999,6514.1400000000003,-1763.1600000000001
170688.0,13967.4,1469.45,-139.744,1006.83,-520.149,7678.7399999999998,-2260.5100000000002
170689.0,15942.0,101.209,-399.16399999999999,2146.73,40.9542,8634.2299999999996,-2888.8000000000002
170690.0,16547.5,-1907.98,-762.41600000000005,2886.4699999999998,751.83600000000001,8600.7000000000007,-3235.3000000000002
170691.0,15928.200000000001,-3992.0999999999999,-1047.0699999999999,3084.02,1409.8699999999999,7759.21,-3121.0599999999999
170692.0,15069.9,-5689.2700000000004,-1197.53,3533.77,1969.6099999999999,6602.6199999999999,-2637.3000000000002
170693.0,14687.0,-6587.3599999999997,-1517.99,4496.3100000000004,2616.4200000000001,5430.8800000000001,-2185.5
170694.0,12833.700000000001,10045.0,575.25300000000004,1062.95,-2725.0100000000002,4343.8599999999997,-418.322
170695.0,13332.700000000001,9810.1100000000006,677.31799999999998,1471.1099999999999,-2820.0999999999999,5029.4399999999996,-639.52099999999996
170696.0,13825.299999999999,9165.6399999999994,617.05499999999995,1647.1199999999999,-2932.8499999999999,5676.8299999999999,-1052.25
170697.0,13766.799999999999,8621.7399999999998,985.41200000000003,1936.6300000000001,-2891.6100000000001,5967.3999999999996,-1373.3099999999999
170698.0,12716.1,6565.2299999999996,595.06399999999996,1165.53,-2501.8499999999999,5893.0100000000002,-1434.72
170699.0,11825.799999999999,4750.5,568.00300000000004,650.54200000000003,-1908.71,5915.71,-1503.27
170700.0,12223.0,2907.5999999999999,80.830500000000001,336.57400000000001,-1269.5,6548.0299999999997,-1693.3900000000001
170701.0,14065.799999999999,1797.9200000000001,9.0374800000000004,1432.21,-717.64200000000005,7722.7200000000003,-2213.5599999999999
170702.0,16144.5,222.06,-397.38900000000001,2438.1700000000001,-131.15199999999999,8757.6399999999994,-2818.8099999999999
170703.0,16954.200000000001,-1811.6600000000001,-708.88599999999997,3262.29,605.255,8823.6700000000001,-3235.6199999999999
170704.0,16281.4,-3943.3099999999999,-981.673,3454.3000000000002,1295.9300000000001,7928.3800000000001,-3156.04
170705.0,15220.299999999999,-5680.4300000000003,-1202.97,3786.1700000000001,1926.0599999999999,6648.9799999999996,-2621.9000000000001
170706.0,15125.1,-6640.1400000000003,-1575.3199999999999,4820.1400000000003,2618.1999999999998,5616.0,-2209.04
170707.0,13630.5,10918.5,719.95500000000004,1638.26,-2991.2199999999998,4586.3900000000003,-343.73500000000001
170708.0,14072.9,10594.5,805.35799999999995,2079.0900000000001,-3095.9000000000001,5269.54,-580.10500000000002
170709.0,14504.6,9943.0699999999997,805.553,2276.6799999999998,-3219.0999999999999,5898.0299999999997,-951.84199999999998
170710.0,14345.700000000001,9232.3999999999996,1176.96,2523.48,-3185.1100000000001,6185.7799999999997,-1253.79
170711.0,13073.4,7010.0500000000002,756.71100000000001,1842.73,-2762.9200000000001,6018.8999999999996,-1395.1099999999999
170712.0,11976.1,5165.0900000000001,666.62,1314.8499999999999,-2094.0999999999999,5955.7200000000003,-1428.1600000000001
170713.0,12340.0,3212.5900000000001,85.740300000000005,759.41200000000003,-1462.3599999999999,6581.9099999999999,-1609.48
170714.0,14192.200000000001,2101.9099999999999,74.552000000000007,1768.5,-958.81500000000005,7762.8800000000001,-2185.4699999999998
170715.0,16275.700000000001,482.86000000000001,-323.22199999999998,2816.1399999999999,-329.49299999999999,8819.5799999999999,-2783.3899999999999
170716.0,17259.599999999999,-1604.3199999999999,-620.53899999999999,3672.1700000000001,438.55200000000002,8997.5699999999997,-3205.6599999999999
170717.0,16594.099999999999,-3866.6399999999999,-916.72699999999998,3862.6300000000001,1175.3,8081.9700000000003,-3142.3899999999999
170718.0,15428.299999999999,-5661.0699999999997,-1237.1099999999999,4107.3400000000001,1885.01,6708.5500000000002,-2619.1599999999999
170719.0,15578.799999999999,-6576.2399999999998,-1541.5699999999999,5255.71,2600.6199999999999,5827.7799999999997,-2217.1700000000001
170720.0,14444.1,11839.5,859.61500000000001,2275.8899999999999,-3258.5300000000002,4815.0299999999997,-264.88499999999999
170721.0,14878.6,11343.9,826.68100000000004,2644.1999999999998,-3398.8600000000001,5510.0299999999997,-527.88999999999999
170722.0,15188.700000000001,10764.1,995.07899999999995,3008.1599999999999,-3519.2399999999998,6094.4799999999996,-873.96900000000005
170723.0,14875.4,9587.6499999999996,1044.8199999999999,2950.3200000000002,-3489.0,6337.3400000000001,-1146.04
170724.0,13539.9,7647.6099999999997,940.63199999999995,2595.1399999999999,-3070.6700000000001,6132.8900000000003,-1364.04
170725.0,12239.700000000001,5522.1899999999996,658.20100000000002,1911.9000000000001,-2333.4299999999998,6012.0,-1403.6500000000001
170726.0,12402.4,3655.8600000000001,203.12899999999999,1385.1500000000001,-1679.9200000000001,6554.7200000000003,-1551.6099999999999
170727.0,14285.700000000001,2508.54,86.709199999999996,2068.98,-1197.8699999999999,7773.0600000000004,-2123.02
170728.0,16445.700000000001,903.05799999999999,-143.15899999999999,3274.0900000000001,-537.86599999999999,8904.6700000000001,-2739.6900000000001
170729.0,17504.0,-1458.9200000000001,-544.75,4095.98,262.84199999999998,9125.6700000000001,-3148.27
170730.0,16853.599999999999,-3779.6900000000001,-868.06500000000005,4331.96,1066.3199999999999,8189.5699999999997,-3096.6599999999999
170731.0,15732.700000000001,-5657.3999999999996,-1344.8399999999999,4451.6899999999996,1851.24,6809.9799999999996,-2640.3200000000002
170732.0,16060.700000000001,-6468.9099999999999,-1482.23,5783.0699999999997,2581.5999999999999,6037.0600000000004,-2216.0599999999999
170733.0,15276.9,12726.5,920.21000000000004,2891.5999999999999,-3517.3800000000001,5038.1300000000001,-199.20400000000001
170734.0,15727.1,12285.4,1000.1799999999999,3361.0100000000002,-3711.6999999999998,5745.6199999999999,-479.24000000000001
170735.0,15880.4,11561.200000000001,1166.54,3694.9499999999998,-3839.73,6267.0,-810.19799999999998
170736.0,15349.9,10242.200000000001,1185.5699999999999,3657.7399999999998,-3774.1900000000001,6421.2200000000003,-1071.71
170737.0,14087.5,8342.2000000000007,1063.23,3272.0,-3344.0900000000001,6267.5500000000002,-1326.4200000000001
170738.0,12669.700000000001,6101.3500000000004,817.95699999999999,2629.2399999999998,-2621.0799999999999,6120.0900000000001,-1404.53
170739.0,12454.6,4133.2799999999997,306.81099999999998,2004.3800000000001,-1917.8599999999999,6481.3000000000002,-1531.21
170740.0,14377.6,3096.2800000000002,203.87899999999999,2559.0700000000002,-1373.2,7785.9499999999998,-2007.9400000000001
170741.0,16698.099999999999,1149.1199999999999,-113.09999999999999,3623.1500000000001,-739.524,9038.75,-2661.5799999999999
170742.0,17684.5,-1285.03,-398.041,4535.79,61.155000000000001,9211.3400000000001,-3091.7800000000002
170743.0,17069.799999999999,-3651.9400000000001,-791.55999999999995,4802.2399999999998,982.38900000000001,8278.1399999999994,-3023.6900000000001
170744.0,16199.6,-5556.5200000000004,-1332.6500000000001,4977.6700000000001,1843.3099999999999,6994.1899999999996,-2656.0300000000002
170745.0,16630.799999999999,-6456.6700000000001,-1476.74,6325.3299999999999,2574.0100000000002,6249.1400000000003,-2237.9699999999998
170746.0,16146.0,13700.200000000001,1032.4300000000001,3604.48,-3768.3000000000002,5276.4099999999999,-149.208
170747.0,16583.599999999999,13182.200000000001,1127.04,4021.9899999999998,-4024.8800000000001,5976.0,-396.39999999999998
170748.0,16558.099999999999,12419.799999999999,1403.6600000000001,4477.8299999999999,-4170.0100000000002,6418.9099999999999,-696.89800000000002
170749.0,15856.9,10920.200000000001,1287.6400000000001,4352.4300000000003,-4046.9200000000001,6505.4799999999996,-946.87300000000005
170750.0,14726.299999999999,9207.6499999999996,1384.0799999999999,4115.5699999999997,-3631.0100000000002,6471.4700000000003,-1207.1700000000001
170751.0,13177.299999999999,6567.8900000000003,861.63,3221.1999999999998,-2941.4200000000001,6256.3500000000004,-1365.47
170752.0,12670.700000000001,4781.3800000000001,496.62900000000002,2729.1399999999999,-2155.8400000000001,6477.1599999999999,-1523.9100000000001
170753.0,14552.6,3494.7600000000002,238.08699999999999,3032.4099999999999,-1533.47,7845.5200000000004,-1893.3399999999999
170754.0,16907.900000000001,1362.0699999999999,-38.663499999999999,4020.9099999999999,-930.63699999999994,9145.3700000000008,-2556.71
170755.0,17829.400000000001,-1160.3699999999999,-312.81,4879.21,-107.36199999999999,9287.4599999999991,-3000.2399999999998
170756.0,17357.599999999999,-3653.9400000000001,-769.05600000000004,5241.8000000000002,934.03999999999996,8394.6100000000006,-2913.5599999999999
170757.0,16826.900000000001,-5623.4700000000003,-1351.24,5520.79,1841.1700000000001,7233.3400000000001,-2656.8899999999999
170758.0,17303.0,-6536.0900000000001,-1476.2,6903.54,2564.1100000000001,6472.5900000000001,-2292.3299999999999
170759.0,17075.099999999999,14722.6,1186.95,4377.75,-4023.7800000000002,5560.1099999999997,-108.569
170760.0,17387.900000000001,14081.9,1283.53,4725.2299999999996,-4320.0500000000002,6178.71,-274.16699999999997
170761.0,17235.200000000001,13242.5,1574.9000000000001,5293.0500000000002,-4476.2600000000002,6567.0100000000002,-573.78599999999994
170762.0,16486.099999999999,11778.0,1470.29,5264.8400000000001,-4321.4700000000003,6636.9099999999999,-833.81899999999996
170763.0,15363.5,9860.25,1482.0799999999999,4836.79,-3953.2600000000002,6644.3900000000003,-1059.29
170764.0,13718.0,7176.0600000000004,937.45799999999997,3905.5100000000002,-3242.5,6380.0500000000002,-1330.75
170765.0,13183.9,5425.0,598.96100000000001,3415.96,-2388.4899999999998,6625.9700000000003,-1566.25
170766.0,14791.6,3752.8499999999999,247.71799999999999,3514.8600000000001,-1737.03,7917.9200000000001,-1839.46
170767.0,16980.5,1548.1500000000001,42.307899999999997,4412.4899999999998,-1107.24,9172.0599999999995,-2414.77
170768.0,18027.700000000001,-1110.71,-253.297,5266.46,-212.989,9384.9099999999999,-2869.27
170769.0,17749.200000000001,-3857.9499999999998,-876.04600000000005,5624.0699999999997,902.21100000000001,8519.4799999999996,-2847.2199999999998
170770.0,17509.900000000001,-5788.8800000000001,-1398.5899999999999,6049.6899999999996,1822.01,7473.8299999999999,-2683.9699999999998
170771.0,18040.5,-6701.3599999999997,-1501.6099999999999,7467.6599999999999,2535.21,6709.04,-2381.8899999999999
170772.0,18047.099999999999,15723.0,1342.1500000000001,5168.6899999999996,-4302.5799999999999,5879.75,-88.283699999999996
170773.0,18111.900000000001,14883.799999999999,1345.5999999999999,5440.5200000000004,-4570.0200000000004,6343.3999999999996,-137.33000000000001
170774.0,17956.700000000001,14090.799999999999,1731.8399999999999,6146.1999999999998,-4755.3699999999999,6741.4399999999996,-443.12700000000001
170775.0,17231.400000000001,12644.6,1659.9400000000001,6168.1899999999996,-4630.4099999999999,6814.54,-778.85900000000004
170776.0,15894.9,10473.9,1499.27,5555.1899999999996,-4229.25,6723.54,-962.02599999999995
170777.0,14378.5,7921.7600000000002,1014.52,4647.1599999999999,-3481.8099999999999,6565.6999999999998,-1320.77
170778.0,13967.9,6097.3599999999997,723.10900000000004,4117.1899999999996,-2656.0100000000002,6921.9499999999998,-1636.7
170779.0,15077.1,4053.1700000000001,341.86799999999999,4088.1700000000001,-1971.03,7988.75,-1852.8699999999999
170780.0,16989.900000000001,1710.02,108.441,4850.5500000000002,-1261.1800000000001,9144.6100000000006,-2277.0799999999999
170781.0,18226.0,-1190.51,-247.548,5662.1400000000003,-328.70100000000002,9454.2099999999991,-2728.27
170782.0,18171.099999999999,-3977.0599999999999,-889.06600000000003,6094.9899999999998,845.34400000000005,8640.0200000000004,-2841.1700000000001
170783.0,18171.700000000001,-5842.5100000000002,-1368.04,6628.54,1782.51,7715.5799999999999,-2728.9099999999999
170784.0,18790.700000000001,-6893.0,-1552.26,7992.4300000000003,2480.1999999999998,6964.9399999999996,-2483.6100000000001
170785.0,19019.299999999999,16751.0,1534.76,5957.4499999999998,-4582.79,6188.3100000000004,-121.28100000000001
170786.0,18816.200000000001,15728.299999999999,1428.8299999999999,6329.8299999999999,-4757.0100000000002,6525.1899999999996,-69.717100000000002
170787.0,18696.0,14927.0,1814.0799999999999,7032.5500000000002,-5003.7399999999998,6913.8199999999997,-301.81599999999997
170788.0,18026.900000000001,13649.299999999999,2004.97,7176.21,-4969.25,7010.5799999999999,-665.40099999999995
170789.0,16453.900000000001,11161.299999999999,1582.52,6378.3500000000004,-4466.3000000000002,6824.8900000000003,-882.63400000000001
170790.0,15191.799999999999,8770.9899999999998,1162.78,5496.3199999999997,-3700.3000000000002,6852.0299999999997,-1312.71
170791.0,14890.700000000001,6741.2200000000003,830.82600000000002,4817.1800000000003,-2957.5,7294.8800000000001,-1691.46
170792.0,15482.4,4365.0799999999999,457.05799999999999,4708.9200000000001,-2246.5500000000002,8102.8400000000001,-1902.8499999999999
170793.0,16996.799999999999,1899.1199999999999,247.93899999999999,5405.1099999999997,-1447.6500000000001,9083.1700000000001,-2182.0500000000002
170794.0,18261.200000000001,-1208.8900000000001,-242.16,6026.3699999999999,-469.20400000000001,9429.7299999999996,-2566.6999999999998
170795.0,18618.299999999999,-3931.8600000000001,-766.34900000000005,6658.4099999999999,752.505,8803.8999999999996,-2814.6799999999998
170796.0,18828.700000000001,-5857.5799999999999,-1272.1400000000001,7269.3000000000002,1709.55,7953.1700000000001,-2759.6300000000001
170797.0,19507.099999999999,-7001.9200000000001,-1530.9300000000001,8562.9099999999999,2393.9899999999998,7224.75,-2562.5599999999999
170798.0,19990.900000000001,17742.099999999999,1690.77,6577.8699999999999,-4796.4099999999999,6516.4799999999996,-217.768
170799.0,19597.0,16608.700000000001,1556.47,7286.1300000000001,-4907.5,6797.1899999999996,-102.148
170800.0,19375.299999999999,15774.700000000001,1943.5599999999999,8041.2799999999997,-5195.9099999999999,7073.9200000000001,-219.76499999999999
170801.0,18805.599999999999,14396.6,2039.8900000000001,8040.1599999999999,-5253.2799999999997,7199.6400000000003,-518.10799999999995
170802.0,17218.099999999999,12008.799999999999,1724.54,7394.6899999999996,-4731.8699999999999,7012.8100000000004,-846.63300000000004
170803.0,16113.700000000001,9537.6800000000003,1241.8399999999999,6317.0100000000002,-3970.3299999999999,7183.1499999999996,-1302.99
170804.0,15847.6,7402.0,1002.85,5630.8500000000004,-3274.9200000000001,7686.8000000000002,-1728.0699999999999
170805.0,16021.1,4729.0900000000001,570.71000000000004,5328.5900000000001,-2563.2199999999998,8267.0400000000009,-1982.27
170806.0,17005.900000000001,2150.75,440.39499999999998,6014.3699999999999,-1688.74,8994.2299999999996,-2120.9000000000001
170807.0,18187.900000000001,-1128.97,-176.78800000000001,6492.9799999999996,-614.18100000000004,9329.3799999999992,-2367.25
170808.0,19061.0,-3953.1999999999998,-706.98699999999997,7170.9200000000001,616.34199999999998,8982.2700000000004,-2705.98
170809.0,19506.700000000001,-5913.0600000000004,-1167.46,7902.9799999999996,1591.47,8203.9300000000003,-2778.52
170810.0,20164.200000000001,-7082.9499999999998,-1461.54,9135.9300000000003,2264.8800000000001,7461.0100000000002,-2628.3899999999999
170811.0,21056.599999999999,18739.0,1826.0799999999999,6997.9300000000003,-4874.5900000000001,6980.5299999999997,-441.75700000000001
170812.0,20444.400000000001,17507.299999999999,1786.6400000000001,8303.4200000000001,-5041.5100000000002,7175.4300000000003,-185.03200000000001
170813.0,20029.799999999999,16593.0,2136.0300000000002,9101.0400000000009,-5388.9399999999996,7237.8000000000002,-173.91800000000001
170814.0,19510.099999999999,15204.200000000001,2128.6199999999999,9064.0499999999993,-5441.9200000000001,7367.2399999999998,-441.834
170815.0,18152.900000000001,12941.299999999999,1829.48,8388.5499999999993,-4965.96,7292.0299999999997,-897.31100000000004
170816.0,17114.799999999999,10443.4,1439.0699999999999,7237.1599999999999,-4271.3500000000004,7536.9200000000001,-1326.6400000000001
170817.0,16763.5,7949.4399999999996,1113.9400000000001,6362.1199999999999,-3606.5700000000002,8049.5699999999997,-1752.3800000000001
170818.0,16646.200000000001,5285.6300000000001,852.44200000000001,6071.1599999999999,-2895.0999999999999,8483.7099999999991,-2023.1099999999999
170819.0,17119.799999999999,2313.5,555.39700000000005,6567.9399999999996,-1972.46,8937.6800000000003,-2089.6300000000001
170820.0,18092.0,-975.048,-62.154699999999998,7095.0100000000002,-803.91499999999996,9163.4200000000001,-2227.48
170821.0,19348.700000000001,-3990.8099999999999,-763.16499999999996,7597.3900000000003,429.98899999999998,9070.3600000000006,-2562.5900000000001
170822.0,20202.700000000001,-6002.7399999999998,-1084.79,8540.3700000000008,1422.9300000000001,8456.6299999999992,-2790.8800000000001
170823.0,20744.200000000001,-7232.79,-1459.4000000000001,9620.0100000000002,2075.6100000000001,7638.7299999999996,-2726.1999999999998
170824.0,22310.0,19351.5,1531.9000000000001,6889.04,-4762.7700000000004,7676.04,-845.09699999999998
170825.0,21235.799999999999,18108.799999999999,1790.5699999999999,9067.5400000000009,-5097.6099999999997,7574.0600000000004,-370.12099999999998
170826.0,20708.299999999999,17521.900000000001,2439.25,10290.0,-5590.54,7399.9300000000003,-167.78399999999999
170827.0,20249.900000000001,15971.5,2167.6300000000001,10084.4,-5591.6899999999996,7568.9099999999999,-387.89600000000002
170828.0,19207.099999999999,13989.799999999999,2117.1599999999999,9517.5799999999999,-5183.4099999999999,7703.5,-897.00699999999995
170829.0,18194.599999999999,11207.5,1580.8199999999999,8076.4799999999996,-4600.4399999999996,7954.3599999999997,-1341.75
170830.0,17632.200000000001,8592.7600000000002,1376.4100000000001,7223.5699999999997,-3966.3699999999999,8375.3700000000008,-1750.05
170831.0,17308.0,5714.2299999999996,1025.46,6754.21,-3253.5,8715.0499999999993,-2001.1400000000001
170832.0,17331.200000000001,2555.21,725.45899999999995,7144.0100000000002,-2333.4200000000001,8911.2199999999993,-2082.1799999999998
170833.0,17999.400000000001,-676.88599999999997,132.03899999999999,7738.7799999999997,-1072.8399999999999,8973.1299999999992,-2183.52
170834.0,19452.200000000001,-3719.8800000000001,-654.96400000000006,8186.7299999999996,192.58600000000001,9049.5499999999993,-2444.3000000000002
170835.0,20735.400000000001,-5993.9899999999998,-1043.4300000000001,9091.3600000000006,1185.5899999999999,8663.1399999999994,-2780.6300000000001
170836.0,21253.400000000001,-7185.3699999999999,-1389.8399999999999,10157.9,1848.1700000000001,7811.4300000000003,-2860.0599999999999
170837.0,23796.0,19885.599999999999,797.37800000000004,6681.1499999999996,-4142.7700000000004,8552.8999999999996,-1696.76
170838.0,21826.799999999999,18730.200000000001,2051.23,9923.7600000000002,-5028.8599999999997,7973.4399999999996,-564.75800000000004
170839.0,21479.099999999999,18275.900000000001,2490.3600000000001,11140.5,-5751.8400000000001,7625.8100000000004,-245.84700000000001
170840.0,21145.200000000001,17024.599999999999,2478.3000000000002,11446.0,-5719.25,7893.0600000000004,-416.68099999999998
170841.0,20280.099999999999,14709.799999999999,2160.3699999999999,10434.799999999999,-5442.9700000000003,8125.0500000000002,-864.50900000000001
170842.0,19305.400000000001,12113.0,1942.28,9147.0300000000007,-4991.0,8372.7099999999991,-1364.9200000000001
170843.0,18471.700000000001,8986.8299999999999,1409.8499999999999,7878.9099999999999,-4396.3500000000004,8628.9099999999999,-1789.0599999999999
170844.0,17897.599999999999,6333.8000000000002,1338.8199999999999,7637.8299999999999,-3658.21,8852.8199999999997,-1991.3399999999999
170845.0,17529.0,2798.9699999999998,732.28399999999999,7551.46,-2736.1799999999998,8857.5900000000001,-2062.1199999999999
170846.0,17996.200000000001,-149.09999999999999,458.24799999999999,8449.0,-1428.29,8842.6800000000003,-2167.2600000000002
170847.0,19448.599999999999,-3336.0799999999999,-479.26600000000002,8792.2299999999996,-134.59899999999999,8960.4099999999999,-2360.7399999999998
170848.0,20953.200000000001,-5594.7700000000004,-814.28999999999996,9765.4500000000007,874.66399999999999,8753.8600000000006,-2676.6399999999999
170849.0,21760.700000000001,-7044.5100000000002,-1359.4100000000001,10706.1,1591.8399999999999,8032.7600000000002,-2935.9899999999998
170850.0,25945.5,20121.900000000001,-2138.3099999999999,6502.8800000000001,-2787.6799999999998,9103.5300000000007,-2792.6399999999999
170851.0,22063.5,18870.700000000001,2371.0,10316.9,-4865.3999999999996,8361.4400000000005,-767.89599999999996
170852.0,22523.700000000001,19329.799999999999,2749.7399999999998,12079.299999999999,-5881.7399999999998,8075.5100000000002,-460.61099999999999
170853.0,22123.700000000001,17691.200000000001,2541.7800000000002,12460.200000000001,-5873.8100000000004,8314.4599999999991,-559.86900000000003
170854.0,21278.5,15447.299999999999,2356.8899999999999,11460.5,-5775.0799999999999,8466.8700000000008,-929.21799999999996
170855.0,20297.799999999999,12740.1,2024.5999999999999,9978.1900000000005,-5447.8400000000001,8639.6399999999994,-1435.0999999999999
170856.0,19243.200000000001,9864.4699999999993,1777.96,8788.3799999999992,-4905.6899999999996,8751.6100000000006,-1869.4000000000001
170857.0,18374.700000000001,6935.1599999999999,1501.0599999999999,8314.4599999999991,-4087.9200000000001,8881.7000000000007,-1992.9300000000001
170858.0,17719.099999999999,3441.5,950.875,8239.4500000000007,-3114.4099999999999,8781.0499999999993,-2031.02
170859.0,18091.299999999999,300.654,558.73800000000006,8916.7800000000007,-1846.95,8777.8899999999994,-2146.9000000000001
170860.0,19410.400000000001,-2759.73,-137.77799999999999,9508.8799999999992,-563.06899999999996,8843.2000000000007,-2307.8699999999999
170861.0,20925.0,-5122.75,-682.16099999999994,10342.0,517.45899999999995,8710.9400000000005,-2530.1799999999998
170862.0,22220.5,-6685.1300000000001,-1232.8099999999999,11431.700000000001,1295.75,8245.5699999999997,-2919.9400000000001
170863.0,29101.200000000001,21465.700000000001,-6264.3699999999999,6693.1800000000003,-1129.2,8998.7000000000007,-2743.8699999999999
170864.0,22064.0,18920.700000000001,3214.3000000000002,10202.1,-4659.9899999999998,8791.3700000000008,-1160.9200000000001
170865.0,23845.700000000001,19968.099999999999,2545.5,12491.5,-5948.5699999999997,8771.2900000000009,-907.28800000000001
170866.0,22987.5,18570.599999999999,2908.48,13585.6,-6069.96,8641.6000000000004,-771.21000000000004
170867.0,22146.299999999999,16178.9,2591.4899999999998,12334.6,-6229.1099999999997,8630.4300000000003,-1070.0999999999999
170868.0,20990.5,13753.4,2371.0300000000002,10937.700000000001,-5881.4499999999998,8644.2399999999998,-1551.49
170869.0,19960.599999999999,10862.4,1998.8299999999999,9495.4899999999998,-5398.2399999999998,8793.8099999999995,-1887.8699999999999
170870.0,18882.599999999999,7863.2200000000003,1890.5599999999999,9223.1399999999994,-4557.9200000000001,8891.8199999999997,-1948.6099999999999
170871.0,17958.0,4081.9299999999998,1098.77,8888.3199999999997,-3501.5300000000002,8705.9699999999993,-1999.0699999999999
170872.0,18198.200000000001,1033.6400000000001,777.15800000000002,9484.9799999999996,-2286.0999999999999,8728.4899999999998,-2103.8800000000001
170873.0,19382.099999999999,-2267.1799999999998,0.40044800000000003,9982.5200000000004,-1037.6700000000001,8746.2199999999993,-2275.02
170874.0,20844.400000000001,-4436.9499999999998,-414.56,11068.700000000001,123.68300000000001,8607.9500000000007,-2443.9699999999998
170875.0,22515.200000000001,-6222.9799999999996,-1122.04,12108.799999999999,967.58399999999995,8394.3500000000004,-2838.0900000000001
170876.0,32951.900000000001,23312.799999999999,-10876.4,4748.3299999999999,-449.67899999999997,8194.9599999999991,-1279.7
170877.0,22645.400000000001,18639.400000000001,3340.0799999999999,8682.5900000000001,-4201.5299999999997,9374.6499999999996,-2260.4899999999998
170878.0,25155.700000000001,20789.099999999999,2924.27,13334.299999999999,-5840.5500000000002,9683.5300000000007,-1593.1600000000001
170879.0,23582.799999999999,18925.400000000001,2843.25,14053.799999999999,-6259.8900000000003,8780.7399999999998,-1042.73
170880.0,22835.700000000001,17461.700000000001,3212.8499999999999,13547.700000000001,-6694.6599999999999,8566.0,-1197.74
170881.0,21564.200000000001,14702.4,2533.6999999999998,11579.1,-6283.9099999999999,8553.4500000000007,-1553.6199999999999
170882.0,20640.0,12352.0,2620.25,10549.5,-5811.0799999999999,8844.4899999999998,-1790.3199999999999
170883.0,19490.400000000001,8553.5499999999993,1946.53,9792.4899999999998,-5053.9499999999998,8932.7700000000004,-1869.98
170884.0,18279.5,5053.6499999999996,1522.6900000000001,9834.8799999999992,-3967.4699999999998,8619.7299999999996,-1984.0699999999999
170885.0,18293.799999999999,1724.3199999999999,846.08600000000001,9937.5599999999995,-2734.75,8647.7299999999996,-2036.02
170886.0,19375.900000000001,-1493.04,260.28300000000002,10587.4,-1509.97,8677.1200000000008,-2226.9400000000001
170887.0,20833.799999999999,-3839.9899999999998,-330.88099999999997,11609.4,-284.66699999999997,8550.5100000000002,-2427.8600000000001
170888.0,22726.099999999999,-5544.7200000000003,-810.471,12957.200000000001,614.07100000000003,8480.1299999999992,-2736.4899999999998
170889.0,36640.900000000001,26394.799999999999,-11998.6,515.95500000000004,-2491.5999999999999,7570.7799999999997,771.77099999999996
170890.0,25308.400000000001,18886.900000000001,1451.1800000000001,6227.7399999999998,-3318.3899999999999,10315.6,-3860.3800000000001
170891.0,25834.5,20266.200000000001,2717.5999999999999,13294.4,-5347.3900000000003,10490.700000000001,-2398.5500000000002
170892.0,23849.599999999999,19961.5,3523.9200000000001,14776.6,-6406.1899999999996,8736.1800000000003,-1274.54
170893.0,23370.700000000001,18482.200000000001,3359.0799999999999,14233.4,-6953.75,8426.8600000000006,-1363.9200000000001
170894.0,22161.099999999999,16147.299999999999,3000.1999999999998,12535.200000000001,-6628.75,8451.8799999999992,-1481.5799999999999
170895.0,21398.900000000001,13324.6,2810.8200000000002,11203.9,-6276.6899999999996,8933.2800000000007,-1588.8299999999999
170896.0,20143.200000000001,9416.5900000000001,2218.9699999999998,10661.9,-5618.5200000000004,8929.4699999999993,-1781.1199999999999
170897.0,18689.799999999999,6009.7299999999996,1747.53,10611.1,-4499.0799999999999,8511.4300000000003,-2024.75
170898.0,18394.5,2695.8499999999999,1070.3800000000001,10569.5,-3205.02,8528.5200000000004,-1991.7
170899.0,19366.599999999999,-746.83100000000002,302.68700000000001,11035.700000000001,-1948.75,8606.2000000000007,-2153.0700000000002
170900.0,21018.099999999999,-3016.9000000000001,-71.400199999999998,12391.9,-688.88,8596.9500000000007,-2442.1399999999999
170901.0,22963.099999999999,-5144.79,-761.90300000000002,13572.299999999999,238.482,8521.0,-2696.1399999999999
170902.0,42577.199999999997,31320.700000000001,-10384.4,-4029.4699999999998,-6188.5799999999999,6723.2299999999996,-3985.3400000000001
170903.0,32233.099999999999,21184.099999999999,-4206.79,4396.3100000000004,-822.31600000000003,11265.0,-7210.3699999999999
170904.0,25488.0,19134.299999999999,2473.21,13234.1,-4242.7700000000004,10825.4,-3160.48
170905.0,24157.200000000001,20545.099999999999,3841.8099999999999,14901.4,-6568.9200000000001,8774.3199999999997,-1479.95
170906.0,23912.400000000001,19635.900000000001,3699.0900000000001,15077.1,-7029.3100000000004,8444.6599999999999,-1583.2
170907.0,22764.5,17122.0,3119.8600000000001,13070.9,-6954.0799999999999,8378.8500000000004,-1503.6700000000001
170908.0,22104.400000000001,14514.200000000001,3130.79,12091.799999999999,-6815.29,8851.7700000000004,-1451.8299999999999
170909.0,20683.099999999999,10407.6,2343.6900000000001,11352.6,-6236.9300000000003,8717.5200000000004,-1785.8499999999999
170910.0,19181.700000000001,7345.5600000000004,2099.7199999999998,11438.200000000001,-5013.46,8442.9200000000001,-2077.4499999999998
170911.0,18616.5,3737.6700000000001,1252.4200000000001,11228.1,-3672.96,8435.8600000000006,-1975.9100000000001
170912.0,19429.700000000001,218.42500000000001,428.12900000000002,11665.799999999999,-2350.8000000000002,8546.7000000000007,-2090.5
170913.0,21337.599999999999,-2256.04,80.055700000000002,13088.9,-1100.53,8727.5599999999995,-2454.29
170914.0,23255.0,-4573.8299999999999,-594.54200000000003,14309.299999999999,-142.108,8587.8500000000004,-2721.27
170915.0,60156.0,38292.900000000001,-18684.0,4402.8100000000004,-13288.5,3162.48,-14083.5
170916.0,45381.699999999997,26108.700000000001,-18353.5,7158.1700000000001,2001.4200000000001,9978.2999999999993,-9225.9300000000003
170917.0,24150.700000000001,17633.900000000001,1560.8299999999999,11818.0,-2904.5700000000002,10362.1,-3518.5100000000002
170918.0,24639.299999999999,21488.799999999999,5042.29,15364.0,-6680.3199999999997,9125.3099999999995,-2318.9200000000001
170919.0,24197.400000000001,19968.799999999999,3235.6199999999999,14940.299999999999,-6914.8800000000001,8361.6700000000001,-1929.8299999999999
170920.0,23301.700000000001,18861.0,4103.9200000000001,14040.700000000001,-7374.5699999999997,8215.3600000000006,-1577.8699999999999
170921.0,22477.400000000001,15233.5,2868.9299999999998,12206.200000000001,-7253.0500000000002,8504.8299999999999,-1390.75
170922.0,21229.599999999999,12377.9,3067.0900000000001,12561.1,-6726.8999999999996,8497.9799999999996,-1813.46
170923.0,19868.0,8419.8099999999995,2049.4699999999998,11893.4,-5507.4700000000003,8492.4300000000003,-2049.5100000000002
170924.0,19077.599999999999,5033.71,1678.6900000000001,12229.799999999999,-4119.6999999999998,8443.0100000000002,-2000.4100000000001
170925.0,19660.700000000001,1083.53,394.10899999999998,12242.700000000001,-2740.6599999999999,8529.0900000000001,-2088.04
170926.0,21631.0,-1238.3599999999999,411.15800000000002,13937.200000000001,-1506.76,8869.7800000000007,-2386.4099999999999
170927.0,23731.0,-4152.6800000000003,-577.23699999999997,14969.299999999999,-506.05500000000001,8755.4899999999998,-2729.6599999999999
170928.0,76275.100000000006,46995.599999999999,-22579.299999999999,24059.5,-25424.400000000001,3960.0500000000002,-4497.9799999999996
170929.0,54754.400000000001,33780.599999999999,-26380.799999999999,10413.4,-413.625,8779.7299999999996,1491.1600000000001
170930.0,23102.799999999999,17523.299999999999,1554.29,7625.5900000000001,-2489.21,9903.6900000000005,-2942.9299999999998
170931.0,25397.799999999999,21264.900000000001,5547.46,14654.6,-6236.7299999999996,9839.0200000000004,-4127.1199999999999
170932.0,23916.200000000001,20299.599999999999,2941.73,14434.6,-6509.5799999999999,8055.8100000000004,-2329.7399999999998
170933.0,23722.200000000001,20464.400000000001,4682.9899999999998,14594.700000000001,-7678.4799999999996,7922.1700000000001,-1495.55
170934.0,22893.599999999999,16440.299999999999,2991.46,12616.799999999999,-7657.6300000000001,8148.8299999999999,-1280.7
170935.0,21881.5,14146.9,3529.8699999999999,13465.200000000001,-7059.04,8439.7600000000002,-1795.5799999999999
170936.0,20776.0,9713.6700000000001,2102.6199999999999,12583.6,-5956.1400000000003,8665.0100000000002,-1996.8099999999999
170937.0,19785.0,6143.6499999999996,1921.5899999999999,13095.4,-4583.6899999999996,8568.8600000000006,-2052.3600000000001
170938.0,20152.799999999999,2122.6599999999999,587.52200000000005,13152.4,-3120.9000000000001,8603.6499999999996,-2152.5799999999999
170939.0,21932.599999999999,-346.56,567.77800000000002,14718.4,-1867.8800000000001,8963.1299999999992,-2276.25
170940.0,24310.700000000001,-3751.1799999999998,-650.94500000000005,15656.6,-844.10500000000002,8977.5699999999997,-2644.2600000000002
170941.0,77063.899999999994,42744.400000000001,-7393.79,10017.799999999999,-30228.299999999999,12279.700000000001,16342.200000000001
170942.0,56970.199999999997,35025.400000000001,-13546.9,-8532.7900000000009,-6092.2299999999996,12252.299999999999,13454.1
170943.0,28822.200000000001,17881.799999999999,3705.3299999999999,-2233.5300000000002,-2688.0,12247.700000000001,-3586.3000000000002
170944.0,26633.0,20148.099999999999,5872.79,12876.9,-4506.2799999999997,11181.799999999999,-6336.3800000000001
170945.0,23118.0,20607.799999999999,3296.4899999999998,13765.299999999999,-5751.3400000000001,7791.0500000000002,-2890.02
170946.0,23869.400000000001,21723.799999999999,4604.4499999999998,14773.9,-7562.4099999999999,7518.2700000000004,-1438.3599999999999
170947.0,23652.099999999999,18117.700000000001,3224.6900000000001,13242.799999999999,-8025.0699999999997,7917.3699999999999,-1316.1199999999999
170948.0,22726.900000000001,15536.0,3706.9699999999998,14059.5,-7393.5600000000004,8536.7600000000002,-1755.75
170949.0,21833.0,11127.4,2372.4699999999998,13585.0,-6339.7700000000004,8948.4799999999996,-1972.2
170950.0,20725.900000000001,7102.8999999999996,1901.6300000000001,13851.4,-5023.5699999999997,8803.7099999999991,-2132.3400000000001
170951.0,20967.299999999999,3176.5100000000002,921.50999999999999,14276.6,-3539.1700000000001,8817.0300000000007,-2273.2600000000002
170952.0,22345.599999999999,511.517,704.70500000000004,15643.799999999999,-2162.5900000000001,9024.4799999999996,-2226.4899999999998
170953.0,24905.900000000001,-3260.1100000000001,-825.423,16427.299999999999,-1055.6300000000001,9184.7000000000007,-2469.4299999999998
170954.0,75377.899999999994,31461.0,12170.700000000001,-30464.700000000001,-23295.700000000001,13419.5,12925.1
170955.0,71741.0,29383.5,2650.0599999999999,-43147.0,-8821.5200000000004,16603.400000000001,4080.0799999999999
170956.0,46924.800000000003,14326.4,1923.98,-19711.400000000001,-581.70899999999995,19013.900000000001,-8681.25
170957.0,29844.799999999999,15037.4,4015.6599999999999,6874.46,-1009.38,13913.6,-8341.6700000000001
170958.0,21868.400000000001,20072.799999999999,3916.27,12811.299999999999,-4510.3400000000001,7769.4700000000003,-3635.9899999999998
170959.0,23759.200000000001,22575.400000000001,4180.2200000000003,14313.5,-7079.0100000000002,7124.9799999999996,-1549.5699999999999
170960.0,24558.799999999999,20033.599999999999,3461.6999999999998,13704.0,-8126.1800000000003,7922.2600000000002,-1521.3
170961.0,23881.200000000001,16958.299999999999,3816.0799999999999,14606.1,-7762.2799999999997,8804.0300000000007,-1796.71
170962.0,22956.099999999999,12371.799999999999,2606.71,14555.799999999999,-6717.4300000000003,9271.5100000000002,-2022.5899999999999
170963.0,21888.900000000001,8250.8700000000008,1994.74,14884.299999999999,-5382.6400000000003,9166.2199999999993,-2273.5
170964.0,21985.5,4086.4499999999998,1068.6099999999999,15261.5,-3964.4899999999998,9148.4699999999993,-2409.1999999999998
170965.0,23130.900000000001,1301.77,903.67100000000005,16864.799999999999,-2432.8000000000002,9185.4200000000001,-2280.6500000000001
170966.0,25778.700000000001,-2841.5900000000001,-956.38699999999994,17590.799999999999,-1147.1800000000001,9313.9599999999991,-2437.6599999999999
170967.0,84903.800000000003,22207.299999999999,14880.299999999999,-57009.800000000003,-19860.700000000001,671.85400000000004,-9580.2099999999991
170968.0,96807.5,25332.099999999999,-3924.5900000000001,-68158.100000000006,-9811.0799999999999,16225.6,-21847.5
170969.0,72543.399999999994,6528.8199999999997,-14112.9,-39344.5,6757.1899999999996,28286.400000000001,-19507.900000000001
170970.0,39348.699999999997,3761.4899999999998,-1822.8399999999999,-2966.7600000000002,5051.6700000000001,18448.900000000001,-11715.9
170971.0,20091.0,18075.599999999999,5117.8100000000004,11777.700000000001,-2346.04,7927.6999999999998,-4920.3599999999997
170972.0,23679.700000000001,23229.0,3778.6100000000001,13419.5,-6403.3100000000004,6926.8000000000002,-1828.53
170973.0,25579.700000000001,21991.200000000001,3819.5100000000002,14094.700000000001,-8001.3400000000001,8253.0699999999997,-1716.78
170974.0,25246.900000000001,18255.299999999999,3735.2800000000002,15016.200000000001,-8043.3299999999999,9274.7199999999993,-1912.1700000000001
170975.0,24230.700000000001,13778.299999999999,2972.0900000000001,15661.0,-7100.0900000000001,9680.8099999999995,-2166.0
170976.0,23270.799999999999,9287.1499999999996,2080.46,15959.9,-5709.6000000000004,9677.1599999999999,-2465.5
170977.0,23214.599999999999,5100.21,1296.21,16533.400000000001,-4298.3400000000001,9577.5799999999999,-2557.1199999999999
170978.0,24352.200000000001,1723.49,761.11599999999999,17944.599999999999,-2724.9000000000001,9538.2900000000009,-2460.1300000000001
170979.0,27047.599999999999,-2175.4699999999998,-546.37099999999998,19307.700000000001,-1317.0899999999999,9571.8600000000006,-2728.0700000000002
170980.0,103542.0,13325.5,2788.2199999999998,-53326.599999999999,-31053.299999999999,-18253.400000000001,-31503.099999999999
170981.0,131498.0,42705.5,-27912.200000000001,-52372.900000000001,-17852.5,6220.6800000000003,-54488.0
170982.0,108415.0,15712.1,-41903.199999999997,-38189.199999999997,20224.299999999999,32348.5,-37718.900000000001
170983.0,56560.800000000003,-12342.4,-15994.200000000001,-15048.9,15940.299999999999,22702.099999999999,-17126.099999999999
170984.0,18977.599999999999,12564.200000000001,5680.9700000000003,8878.0699999999997,656.94399999999996,7950.54,-6674.0
170985.0,23567.799999999999,24080.0,4058.6900000000001,12343.700000000001,-5353.6400000000003,7039.1400000000003,-2394.0100000000002
170986.0,26922.299999999999,23560.0,3737.3499999999999,14094.5,-7782.2399999999998,8879.8899999999994,-1971.8399999999999
170987.0,26622.400000000001,19544.200000000001,3685.9499999999998,15537.200000000001,-8149.7399999999998,9879.3199999999997,-2057.4099999999999
170988.0,25785.599999999999,15218.799999999999,3290.1599999999999,16775.200000000001,-7449.04,10289.700000000001,-2416.4400000000001
170989.0,24849.200000000001,10235.799999999999,2162.8899999999999,17033.5,-6056.29,10324.700000000001,-2670.5
170990.0,24712.299999999999,6155.5900000000001,1658.5999999999999,18072.400000000001,-4593.1099999999997,10135.9,-2791.1700000000001
170991.0,25865.799999999999,2097.1100000000001,540.02200000000005,19059.200000000001,-3018.6199999999999,10040.0,-2753.54
170992.0,28619.200000000001,-1595.8,-62.589399999999998,21039.099999999999,-1758.1199999999999,10000.5,-3150.2600000000002
170993.0,133177.0,4166.3000000000002,-10790.1,-14796.9,-54910.199999999997,-31282.0,-42643.599999999999
170994.0,196261.0,88919.899999999994,-48750.199999999997,29916.799999999999,-45634.099999999999,-12676.799999999999,-76326.699999999997
170995.0,168639.0,57557.0,-86690.100000000006,7904.2700000000004,28643.700000000001,21202.599999999999,-53287.400000000001
170996.0,82081.699999999997,-21647.200000000001,-46255.400000000001,-18818.599999999999,33219.400000000001,21437.0,-21330.900000000001
170997.0,21114.0,2643.9299999999998,6122.1099999999997,3153.0300000000002,4205.25,7706.9700000000003,-8245.6000000000004
170998.0,23832.0,24875.200000000001,5108.4700000000003,10990.1,-3953.1300000000001,7748.2200000000003,-3261.9499999999998
170999.0,28378.599999999999,24766.900000000001,3349.1100000000001,13962.799999999999,-7201.6199999999999,9828.6900000000005,-2301.7800000000002
171000.0,28105.799999999999,20783.099999999999,3618.6500000000001,15968.1,-8164.7799999999997,10628.799999999999,-2300.5799999999999
171001.0,27561.0,16590.5,3553.25,17928.400000000001,-7664.4700000000003,11132.4,-2731.2399999999998
171002.0,26670.299999999999,11185.799999999999,2298.8400000000001,18209.700000000001,-6450.21,11111.0,-2909.3899999999999
171003.0,26524.799999999999,6933.5799999999999,1863.8800000000001,19572.200000000001,-4963.4700000000003,10817.799999999999,-3112.9000000000001
171004.0,27558.599999999999,2861.1599999999999,775.25400000000002,20615.5,-3385.9499999999998,10622.799999999999,-3159.7800000000002
171005.0,30053.400000000001,-998.60599999999999,105.727,22305.0,-2283.4699999999998,10508.799999999999,-3545.9499999999998
171006.0,159453.0,-9158.3899999999994,-20131.400000000001,35034.099999999999,-77402.5,-24135.0,-32382.599999999999
171007.0,259396.0,115258.0,-62439.5,129009.0,-88755.300000000003,-17863.5,-53190.0
171008.0,236601.0,116919.0,-125557.0,90214.0,11246.9,3746.9899999999998,-29014.799999999999
171009.0,112752.0,-11927.9,-86289.300000000003,-12540.299999999999,46637.300000000003,11407.799999999999,-10214.4
171010.0,30460.400000000001,-9993.8199999999997,3115.8299999999999,-7767.8800000000001,9930.6700000000001,6331.6800000000003,-11016.299999999999
171011.0,24786.299999999999,25684.799999999999,7695.8000000000002,11083.1,-2261.1999999999998,9256.8299999999999,-4754.4300000000003
171012.0,29683.5,23926.799999999999,984.24900000000002,11761.1,-5996.6099999999997,10947.4,-2479.29
171013.0,29992.299999999999,23679.900000000001,5373.04,18166.0,-8134.8400000000001,11748.0,-2730.4299999999998
171014.0,29435.900000000001,16238.4,2205.0300000000002,17509.200000000001,-7781.6800000000003,12133.700000000001,-2985.75
171015.0,28693.200000000001,13398.700000000001,3722.4200000000001,20746.200000000001,-6869.1700000000001,11988.0,-3260.3899999999999
171016.0,28469.299999999999,6847.6899999999996,994.09199999999998,20011.099999999999,-5411.2799999999997,11567.9,-3493.6300000000001
171017.0,29323.099999999999,4619.5500000000002,2004.5599999999999,23023.599999999999,-3861.3699999999999,11288.299999999999,-3612.9699999999998
171018.0,31424.5,-864.25599999999997,-288.06599999999997,23044.299999999999,-2781.52,10989.700000000001,-3820.5100000000002
171019.0,161827.0,-21677.799999999999,-20323.099999999999,56327.099999999999,-81716.5,3642.3800000000001,-6696.9899999999998
171020.0,263950.0,92703.800000000003,-50463.099999999999,153034.0,-109931.0,9361.6000000000004,11231.9
171021.0,251743.0,128359.0,-117575.0,110326.0,-23824.5,4812.1300000000001,41745.800000000003
171022.0,128720.0,5804.0600000000004,-108077.0,-19813.099999999999,39386.599999999999,595.17999999999995,20052.099999999999
171023.0,38316.800000000003,-14704.9,-9972.0,-18861.0,17557.900000000001,3584.4499999999998,-12185.4
171024.0,26057.0,22365.200000000001,8823.1200000000008,9374.7399999999998,685.37400000000002,11199.200000000001,-6456.8299999999999
171025.0,31331.400000000001,24139.200000000001,405.12200000000001,10698.9,-4519.8800000000001,12600.200000000001,-2524.1500000000001
171026.0,32043.0,24818.700000000001,5540.5100000000002,19092.5,-7787.6300000000001,13184.9,-3122.1100000000001
171027.0,31480.700000000001,17134.200000000001,2251.6399999999999,18387.0,-8011.8999999999996,13242.200000000001,-3198.5799999999999
171028.0,30771.299999999999,14629.4,4111.5699999999997,22392.200000000001,-7189.4899999999998,12902.799999999999,-3643.3600000000001
171029.0,30539.799999999999,7904.8699999999999,1137.1800000000001,21475.0,-5838.4899999999998,12434.4,-3863.5700000000002
171030.0,31213.700000000001,5547.0200000000004,2361.6599999999999,24590.799999999999,-4349.9099999999999,12060.0,-3988.6900000000001
171031.0,32964.900000000001,-86.618600000000001,134.12,24602.200000000001,-3275.8099999999999,11536.1,-4127.5500000000002
171032.0,141085.0,-25577.200000000001,-12862.5,34807.0,-65783.800000000003,33692.0,12606.5
171033.0,208359.0,35832.099999999999,-27958.700000000001,70790.199999999997,-85025.5,44295.199999999997,52656.199999999997
171034.0,199547.0,66273.5,-74738.800000000003,23417.299999999999,-41464.699999999997,18837.700000000001,77284.5
171035.0,116121.0,17997.5,-90357.899999999994,-40892.199999999997,15486.4,-823.30200000000002,36215.400000000001
171036.0,46785.400000000001,-8991.8500000000004,-32574.0,-29155.400000000001,22456.700000000001,3422.1799999999998,-7156.4399999999996
171037.0,30610.099999999999,15250.9,5007.1499999999996,3626.8600000000001,6368.8800000000001,12672.5,-8416.9699999999993
171038.0,33332.300000000003,24290.700000000001,1485.4400000000001,11413.4,-2677.5100000000002,14920.9,-3130.48
171039.0,33851.699999999997,24273.599999999999,4051.3800000000001,18626.400000000001,-7030.5699999999997,14648.5,-3015.77
171040.0,33854.400000000001,19035.099999999999,3488.5,20630.299999999999,-8345.6100000000006,14503.0,-3517.5999999999999
171041.0,32947.5,14877.700000000001,3485.5799999999999,23201.799999999999,-7420.4899999999998,13896.5,-3962.8099999999999
171042.0,32781.900000000001,9627.4500000000007,2087.96,23779.0,-6208.1999999999998,13428.9,-4251.2200000000003
171043.0,33310.5,5759.1599999999999,2062.6999999999998,25635.0,-4842.0200000000004,12928.1,-4307.5200000000004
171044.0,34613.5,830.64599999999996,1052.3900000000001,26491.599999999999,-3924.52,12097.200000000001,-4472.9300000000003
171045.0,111897.0,-13327.1,683.04499999999996,1527.4300000000001,-42957.5,45749.699999999997,12870.1
171046.0,134429.0,-2861.9699999999998,-10865.200000000001,-21300.599999999999,-43274.800000000003,52182.599999999999,36640.199999999997
171047.0,119136.0,10349.799999999999,-26514.099999999999,-49437.400000000001,-37788.800000000003,23173.200000000001,43085.0
171048.0,84599.699999999997,18216.400000000001,-61348.900000000001,-50276.599999999999,-8204.6299999999992,3561.96,21172.599999999999
171049.0,62287.0,-782.47699999999998,-58457.699999999997,-37236.199999999997,19988.200000000001,5515.5100000000002,-3511.77
171050.0,39954.800000000003,8363.0100000000002,-11947.200000000001,-3506.6100000000001,13189.200000000001,12366.1,-10057.299999999999
171051.0,34762.300000000003,22270.5,664.58100000000002,13138.1,257.09699999999998,16510.599999999999,-3536.3899999999999
171052.0,35500.0,23780.299999999999,3348.7199999999998,18626.5,-6304.1499999999996,16174.700000000001,-2411.54
171053.0,36444.800000000003,20406.400000000001,4057.8699999999999,22787.599999999999,-8549.3600000000006,15824.6,-3908.2800000000002
171054.0,35350.199999999997,15467.700000000001,3303.4499999999998,24442.0,-7688.21,15048.200000000001,-4293.0900000000001
171055.0,35193.0,10922.6,2922.8099999999999,25958.799999999999,-6595.4399999999996,14531.700000000001,-4624.8699999999999
171056.0,35506.400000000001,6019.25,2114.2600000000002,26924.400000000001,-5442.8299999999999,13822.4,-4645.71
171057.0,35951.900000000001,1613.3199999999999,1725.29,27896.099999999999,-4719.2299999999996,12495.200000000001,-4812.5299999999997
171058.0,90381.5,8060.5799999999999,13515.200000000001,-11527.1,-27285.400000000001,42184.599999999999,5047.6599999999999
171059.0,98664.300000000003,-2502.6199999999999,6264.6999999999998,-43361.099999999999,-21412.599999999999,44417.400000000001,10582.0
171060.0,85770.800000000003,-7278.9700000000003,46.533700000000003,-49529.699999999997,-33734.099999999999,23607.799999999999,6386.9200000000001
171061.0,71278.199999999997,15185.5,-42392.800000000003,-27514.599999999999,-26514.299999999999,8994.6800000000003,4036.8000000000002
171062.0,77820.199999999997,6049.6999999999998,-80802.199999999997,-26433.400000000001,6216.2700000000004,7314.6599999999999,886.32899999999995
171063.0,52886.300000000003,6042.8000000000002,-40574.199999999997,-4765.1199999999999,14441.200000000001,10778.0,-3497.8200000000002
171064.0,35224.5,18476.299999999999,-4582.4799999999996,13115.5,3303.1599999999999,15990.5,-1170.9300000000001
171065.0,36862.400000000001,24592.299999999999,4891.1599999999999,20968.099999999999,-5634.9300000000003,17528.0,-2001.72
171066.0,39067.400000000001,20824.200000000001,3463.6399999999999,24108.5,-8482.5100000000002,17237.400000000001,-4075.2800000000002
171067.0,38056.0,16823.200000000001,4208.71,26605.299999999999,-8049.0100000000002,16446.400000000001,-4627.3299999999999
171068.0,37785.5,11176.5,3140.6300000000001,27465.5,-7198.29,15681.200000000001,-4959.4700000000003
171069.0,37418.800000000003,6720.5,2817.7199999999998,28632.099999999999,-6292.3299999999999,14444.799999999999,-4985.1499999999996
171070.0,36816.199999999997,2308.7600000000002,1900.29,28735.599999999999,-5530.3800000000001,12611.799999999999,-5071.5600000000004
171071.0,75837.600000000006,27973.200000000001,19074.900000000001,-5159.8000000000002,-21233.900000000001,34073.699999999997,-3342.25
171072.0,81113.199999999997,9572.6499999999996,12421.4,-26017.700000000001,-17240.299999999999,37806.099999999999,-2803.9099999999999
171073.0,79425.100000000006,-4827.3900000000003,7264.7399999999998,-20837.799999999999,-31362.0,30150.700000000001,-3380.27
171074.0,81910.199999999997,9278.8199999999997,-28776.700000000001,1571.3699999999999,-36200.699999999997,21461.0,7783.54
171075.0,94415.600000000006,12800.4,-74460.5,-1303.3800000000001,-12898.299999999999,15199.6,19489.0
171076.0,68565.800000000003,8348.9500000000007,-55509.900000000001,-2955.2399999999998,6192.9899999999998,11961.1,14979.4
171077.0,36795.5,17416.200000000001,-9897.6599999999999,12244.700000000001,3351.8099999999999,14478.5,4464.2700000000004
171078.0,37874.5,24643.099999999999,5236.8400000000001,23686.900000000001,-4969.1499999999996,18212.599999999999,-1454.96
171079.0,41796.099999999999,21413.299999999999,3735.7399999999998,26096.200000000001,-8395.3299999999999,18925.299999999999,-3819.4099999999999
171080.0,41025.699999999997,17191.099999999999,4623.2399999999998,28366.799999999999,-8699.0,17917.799999999999,-4818.0500000000002
171081.0,40122.300000000003,11620.1,3659.4699999999998,29162.299999999999,-8155.5900000000001,16508.599999999999,-5225.1800000000003
171082.0,38687.5,7679.3800000000001,3346.2199999999998,29970.299999999999,-7223.3599999999997,14651.4,-5289.8199999999997
171083.0,37423.900000000001,3687.77,2333.8600000000001,29848.900000000001,-6214.8000000000002,12651.4,-5255.0500000000002
171084.0,71353.600000000006,38512.099999999999,15431.799999999999,-185.36699999999999,-19584.400000000001,29016.799999999999,-9621.5799999999999
171085.0,75150.699999999997,23510.5,13033.299999999999,-5582.25,-16011.5,36815.800000000003,-7324.9099999999999
171086.0,81896.5,5763.04,7795.8800000000001,-221.39699999999999,-24635.099999999999,40108.5,-1653.21
171087.0,92157.0,9183.7000000000007,-9409.3600000000006,12843.9,-30133.299999999999,38382.599999999999,17531.299999999999
171088.0,99242.0,15179.0,-35305.5,5856.0799999999999,-20366.900000000001,29126.599999999999,36030.199999999997
171089.0,75060.800000000003,16400.299999999999,-33016.699999999997,-277.81099999999998,-5404.7700000000004,18292.900000000001,29701.799999999999
171090.0,41373.0,20300.400000000001,-8360.7900000000009,12709.9,-1207.3499999999999,15198.299999999999,10845.200000000001
171091.0,39116.199999999997,24925.599999999999,5247.1400000000003,26298.0,-5347.4399999999996,18506.900000000001,464.94600000000003
171092.0,44249.199999999997,21295.5,4010.3499999999999,28273.299999999999,-8862.3500000000004,20193.5,-3212.2399999999998
171093.0,43511.699999999997,17693.200000000001,4969.4899999999998,30406.700000000001,-9662.5200000000004,18782.299999999999,-4815.46
171094.0,41711.900000000001,12555.799999999999,4076.0999999999999,30707.099999999999,-9136.0300000000007,16803.0,-5390.1999999999998
171095.0,39728.900000000001,9148.6499999999996,3984.5500000000002,31593.099999999999,-7977.7600000000002,14731.4,-5479.6099999999997
171096.0,38125.599999999999,4896.1400000000003,2629.0999999999999,30946.5,-6842.5500000000002,12710.4,-5342.1899999999996
171097.0,77093.300000000003,39937.699999999997,4664.1499999999996,-7238.5299999999997,-17282.099999999999,29223.099999999999,-15051.6
171098.0,80769.699999999997,29285.599999999999,5856.2200000000003,-2662.75,-12037.6,40646.099999999999,-10191.799999999999
171099.0,89675.100000000006,16081.700000000001,4627.6400000000003,4336.9700000000003,-14002.700000000001,49359.699999999997,-1793.24
171100.0,94142.5,13545.6,4016.5100000000002,9503.5300000000007,-13928.0,49659.0,16473.799999999999
171101.0,87040.100000000006,13863.700000000001,1352.22,1465.73,-14692.4,36958.400000000001,29863.400000000001
171102.0,66258.199999999997,21814.200000000001,-775.05399999999997,4086.54,-12206.799999999999,23627.200000000001,24794.599999999999
171103.0,45623.800000000003,24960.299999999999,-578.84199999999998,15847.700000000001,-6974.4700000000003,18024.5,12361.1
171104.0,41098.0,25211.099999999999,5087.9399999999996,27636.599999999999,-7381.4099999999999,18642.5,2788.6599999999999
171105.0,45490.099999999999,22808.200000000001,5323.8900000000003,31821.599999999999,-9812.0499999999993,20162.200000000001,-2340.79
171106.0,45124.199999999997,18632.200000000001,5102.1099999999997,32487.299999999999,-10393.1,19032.700000000001,-4579.6199999999999
171107.0,43044.300000000003,14044.9,4742.4099999999999,32784.800000000003,-9821.3799999999992,16959.099999999999,-5432.7200000000003
171108.0,40910.300000000003,10134.799999999999,4139.5500000000002,33004.900000000001,-8607.9899999999998,14852.6,-5581.6800000000003
171109.0,38936.400000000001,6309.0600000000004,3184.0599999999999,32485.799999999999,-7493.1199999999999,12692.5,-5401.04
171110.0,92516.199999999997,34012.5,-12288.4,-31690.900000000001,-12642.6,32660.700000000001,-22068.0
171111.0,97201.399999999994,26185.200000000001,-6347.4399999999996,-19173.799999999999,-5290.3000000000002,48073.900000000001,-16234.6
171112.0,103319.0,20203.299999999999,-3006.0999999999999,-3261.8699999999999,-2320.6700000000001,57577.599999999999,-7493.2700000000004
171113.0,96597.300000000003,15101.4,4736.8999999999996,5905.5799999999999,2077.1799999999998,54974.099999999999,7187.0799999999999
171114.0,70818.899999999994,10884.299999999999,15201.1,6661.4200000000001,-6394.6499999999996,37792.199999999997,13579.200000000001
171115.0,54423.599999999999,24817.400000000001,17257.5,18995.5,-14372.9,24824.0,12199.1
171116.0,48220.699999999997,29758.0,7219.5600000000004,25440.299999999999,-11672.1,19990.599999999999,9803.7600000000002
171117.0,43859.599999999999,28443.599999999999,7643.46,32223.099999999999,-10238.6,18621.5,3801.29
171118.0,46535.099999999999,23762.099999999999,5722.5799999999999,34593.0,-10995.799999999999,19658.5,-1330.3299999999999
171119.0,46524.099999999999,19784.400000000001,5615.6999999999998,35384.199999999997,-10997.0,19047.299999999999,-4006.6999999999998
171120.0,44442.900000000001,14864.4,4852.3000000000002,34652.400000000001,-10418.4,17076.5,-5316.4899999999998
171121.0,42116.0,11383.5,4702.1700000000001,34935.900000000001,-9275.4699999999993,14887.200000000001,-5599.0500000000002
171122.0,39791.599999999999,7374.6800000000003,3359.8899999999999,33893.699999999997,-8083.46,12550.200000000001,-5446.0900000000001
171123.0,119608.0,27668.0,-34620.400000000001,-65888.899999999994,-8399.9899999999998,37719.300000000003,-31733.400000000001
171124.0,125511.0,16652.5,-26360.099999999999,-45865.800000000003,1007.3,59018.300000000003,-27270.299999999999
171125.0,126902.0,12196.700000000001,-19520.700000000001,-18360.599999999999,7818.46,68331.300000000003,-17726.599999999999
171126.0,112138.0,5136.79,-6381.0200000000004,926.95299999999997,15520.0,62550.300000000003,-2072.1199999999999
171127.0,77277.300000000003,231.059,13751.6,13826.4,3165.1300000000001,43384.0,6093.8299999999999
171128.0,57800.199999999997,18384.0,24086.299999999999,32581.5,-13292.6,28176.599999999999,9589.6800000000003
171129.0,52874.5,30210.200000000001,15280.200000000001,36860.300000000003,-16079.9,21307.200000000001,9859.3799999999992
171130.0,47733.5,30848.0,11038.799999999999,38010.900000000001,-13979.6,18710.200000000001,4335.1300000000001
171131.0,47962.900000000001,25751.0,7121.0299999999997,38315.800000000003,-12610.6,19001.099999999999,-635.35299999999995
171132.0,47539.400000000001,20790.900000000001,5915.75,38017.699999999997,-11760.200000000001,18588.599999999999,-3376.2800000000002
171133.0,45723.5,16030.4,5400.0799999999999,37212.5,-11063.6,16949.400000000001,-4990.79
171134.0,43199.400000000001,12327.799999999999,4984.3299999999999,36743.5,-9933.8700000000008,14729.299999999999,-5475.3199999999997
171135.0,40771.099999999999,8787.7399999999998,4022.1500000000001,35939.699999999997,-8636.3299999999999,12397.5,-5419.0
171136.0,159636.0,31206.599999999999,-57767.099999999999,-89734.399999999994,-10600.799999999999,41552.300000000003,-52231.099999999999
171137.0,162488.0,18290.400000000001,-46472.199999999997,-60764.199999999997,5766.2700000000004,69854.699999999997,-45969.699999999997
171138.0,156214.0,1844.49,-40555.699999999997,-30041.700000000001,16219.4,80238.699999999997,-30748.200000000001
171139.0,136408.0,-10020.799999999999,-22438.200000000001,-4194.9200000000001,27076.400000000001,72451.899999999994,-11540.6
171140.0,100939.0,-19216.799999999999,2756.8499999999999,11619.700000000001,17508.799999999999,53219.900000000001,2294.8000000000002
171141.0,69502.699999999997,-1329.9100000000001,26987.400000000001,31517.5,-5037.21,34065.800000000003,10366.5
171142.0,56132.400000000001,21115.0,26383.200000000001,40389.5,-17757.599999999999,23071.5,10169.299999999999
171143.0,51374.5,31530.5,17583.599999999999,43956.400000000001,-18154.0,18965.799999999999,4053.9400000000001
171144.0,50260.599999999999,27469.900000000001,8936.5300000000007,42577.199999999997,-14820.0,18396.099999999999,-306.404
171145.0,48679.0,22107.900000000001,6716.1700000000001,41310.599999999999,-12774.4,17859.700000000001,-2706.6700000000001
171146.0,46788.800000000003,16776.200000000001,5504.5200000000004,39581.400000000001,-11718.700000000001,16466.5,-4456.6700000000001
171147.0,44247.300000000003,13399.4,5501.4799999999996,39024.400000000001,-10508.700000000001,14434.0,-5167.2600000000002
171148.0,41954.099999999999,9552.8500000000004,4275.5900000000001,37789.900000000001,-9260.0100000000002,12187.700000000001,-5262.6499999999996
171149.0,206925.0,60192.199999999997,-77302.5,-77897.199999999997,-22865.599999999999,39018.199999999997,-76800.800000000003
171150.0,202191.0,42477.599999999999,-68747.100000000006,-47545.699999999997,7397.3999999999996,76915.0,-64568.099999999999
171151.0,189764.0,801.09799999999996,-65380.0,-28469.799999999999,24162.5,91142.0,-44866.099999999999
171152.0,163656.0,-24972.0,-42487.300000000003,-6760.0100000000002,37205.300000000003,82251.399999999994,-21425.700000000001
171153.0,128797.0,-41256.0,-13057.5,5276.21,34475.800000000003,61546.300000000003,-1904.8399999999999
171154.0,85845.399999999994,-29733.599999999999,23543.900000000001,20233.900000000001,9952.4899999999998,37683.199999999997,6809.6499999999996
171155.0,59335.599999999999,1871.0599999999999,35305.599999999999,36348.699999999997,-13824.9,23800.299999999999,5601.8199999999997
171156.0,53856.800000000003,25978.0,24761.700000000001,47089.300000000003,-20695.299999999999,19436.0,1783.72
171157.0,52739.099999999999,28614.200000000001,12289.9,47248.599999999999,-17391.099999999999,17839.799999999999,-673.505
171158.0,49849.900000000001,23752.900000000001,7794.9200000000001,44882.300000000003,-13979.799999999999,16753.299999999999,-2476.6700000000001
171159.0,47699.800000000003,17929.5,5946.54,42419.400000000001,-12300.1,15707.0,-3849.25
171160.0,45403.300000000003,14010.200000000001,5777.46,41323.5,-11080.0,14007.9,-4684.8699999999999
171161.0,43070.199999999997,10343.4,4760.5600000000004,39949.5,-9873.7800000000007,11776.299999999999,-4951.6300000000001
171162.0,264641.0,112904.0,-98131.899999999994,-28750.799999999999,-45595.699999999997,34269.099999999999,-92317.0
171163.0,253025.0,93597.5,-92002.600000000006,-161.22200000000001,1885.5599999999999,79588.399999999994,-79941.199999999997
171164.0,229500.0,23906.299999999999,-88228.899999999994,1699.1700000000001,29839.099999999999,98240.600000000006,-59071.800000000003
171165.0,192301.0,-28817.200000000001,-63863.900000000001,6348.1400000000003,46762.0,89118.600000000006,-31069.299999999999
171166.0,154510.0,-63880.400000000001,-33210.400000000001,1529.24,50551.5,65606.300000000003,-5215.3699999999999
171167.0,107934.0,-61325.800000000003,12999.1,8923.3899999999994,26439.400000000001,37847.099999999999,2413.23
171168.0,69971.399999999994,-24860.400000000001,35726.5,29624.700000000001,-5364.8400000000001,22124.200000000001,-983.02800000000002
171169.0,55670.699999999997,14222.9,30439.200000000001,48542.5,-19680.0,18609.900000000001,-2166.4499999999998
171170.0,54404.900000000001,26971.799999999999,16874.0,51086.199999999997,-19333.400000000001,17319.400000000001,-1975.3800000000001
171171.0,51715.5,25642.299999999999,10269.5,49443.300000000003,-15392.299999999999,16074.700000000001,-2570.9400000000001
171172.0,48895.800000000003,18256.299999999999,5812.9899999999998,44927.400000000001,-12968.6,14762.700000000001,-3384.8699999999999
171173.0,46519.800000000003,14599.299999999999,5934.6700000000001,43882.0,-11662.700000000001,13154.5,-4108.1700000000001
171174.0,44280.5,10567.799999999999,4665.8699999999999,41931.400000000001,-10455.200000000001,11070.6,-4529.0900000000001
171175.0,344587.0,184992.0,-113547.0,43137.699999999997,-75656.300000000003,27086.0,-104033.0
171176.0,323071.0,167323.0,-112884.0,71587.399999999994,-13059.1,79245.399999999994,-89755.300000000003
171177.0,280119.0,68204.199999999997,-114133.0,56985.699999999997,31022.599999999999,102177.0,-65655.0
171178.0,222009.0,-20618.0,-87638.5,35550.900000000001,55672.699999999997,91716.800000000003,-33378.5
171179.0,174551.0,-81283.800000000003,-51685.0,5783.3699999999999,63668.900000000001,64083.699999999997,-5971.29
171180.0,132073.0,-93817.100000000006,-3208.3600000000001,-521.81600000000003,41640.400000000001,35490.5,871.83100000000002
171181.0,89454.300000000003,-55262.800000000003,30627.900000000001,22533.5,5482.3199999999997,19492.900000000001,-2855.9499999999998
171182.0,60847.099999999999,-4675.0699999999997,33875.0,46379.5,-15672.6,16182.4,-4295.8699999999999
171183.0,55557.5,20816.400000000001,21015.200000000001,53238.0,-19974.799999999999,16190.5,-4415.9200000000001
171184.0,54082.400000000001,25187.400000000001,11813.200000000001,53158.400000000001,-16729.799999999999,15420.700000000001,-3489.3699999999999
171185.0,50274.900000000001,19641.299999999999,7266.71,48984.400000000001,-13770.6,13523.1,-3305.9499999999998
171186.0,47411.199999999997,15410.0,6144.21,46594.0,-12094.5,11840.200000000001,-3704.6100000000001
171187.0,45354.300000000003,11411.1,4878.2200000000003,44406.400000000001,-10813.9,10175.700000000001,-4026.3499999999999
171188.0,441696.0,271950.0,-125227.0,130149.0,-112276.0,15992.4,-107972.0
171189.0,413869.0,260444.0,-133477.0,155256.0,-33934.199999999997,79081.100000000006,-89942.699999999997
171190.0,339667.0,131029.0,-136821.0,122054.0,32711.900000000001,106571.0,-53762.699999999997
171191.0,246442.0,-6681.0699999999997,-107579.0,64567.300000000003,65135.599999999999,90305.100000000006,-19106.400000000001
171192.0,185075.0,-95226.600000000006,-66010.699999999997,9729.5900000000001,72360.699999999997,56984.400000000001,-83.837699999999998
171193.0,152333.0,-120259.0,-18066.599999999999,-7750.5100000000002,54428.400000000001,29942.900000000001,2836.9299999999998
171194.0,112377.0,-89770.100000000006,19958.5,8956.9699999999993,18026.5,15160.200000000001,-1835.4300000000001
171195.0,73245.600000000006,-30618.400000000001,34872.599999999999,38738.199999999997,-9787.0300000000007,11831.4,-5785.8599999999997
171196.0,58357.400000000001,10757.799999999999,24844.299999999999,54975.0,-19574.299999999999,13882.200000000001,-7006.2700000000004
171197.0,56438.300000000003,22875.400000000001,13051.200000000001,57079.599999999999,-17433.0,14258.799999999999,-4514.4799999999996
171198.0,51848.199999999997,19821.200000000001,8392.8400000000001,52722.599999999999,-14490.0,12058.6,-3317.0999999999999
171199.0,48459.699999999997,16580.099999999999,7219.1000000000004,50023.199999999997,-12570.299999999999,10337.4,-3395.8099999999999
171200.0,46337.800000000003,12166.9,5005.0699999999997,46801.300000000003,-11064.4,9065.7700000000004,-3390.5799999999999
171201.0,545681.0,355711.0,-136634.0,209783.0,-160426.0,1393.3199999999999,-97810.399999999994
171202.0,518122.0,370110.0,-154108.0,233220.0,-56309.5,76392.199999999997,-80926.0
171203.0,402383.0,193579.0,-165066.0,159217.0,42121.900000000001,109396.0,-32678.299999999999
171204.0,261826.0,147.065,-120757.0,68398.699999999997,78827.800000000003,86360.100000000006,1742.1800000000001
171205.0,188988.0,-112942.0,-74099.5,1199.6300000000001,78343.5,47726.900000000001,11048.700000000001
171206.0,166499.0,-144149.0,-30554.700000000001,-19874.400000000001,63266.300000000003,20639.700000000001,8272.2199999999993
171207.0,132338.0,-118924.0,9045.9099999999999,-5293.0900000000001,29579.5,6847.21,-510.62700000000001
171208.0,89961.300000000003,-57536.300000000003,31726.299999999999,29684.900000000001,-3411.0500000000002,4877.8900000000003,-8103.1899999999996
171209.0,63873.0,-2783.1500000000001,26526.299999999999,55515.400000000001,-18108.400000000001,10015.0,-9056.4799999999996
171210.0,58030.699999999997,18500.599999999999,14539.9,60557.800000000003,-17199.5,12254.6,-5115.29
171211.0,52946.800000000003,19700.799999999999,10481.200000000001,56893.5,-14582.0,10335.5,-3356.0300000000002
171212.0,49711.199999999997,17014.099999999999,8455.6200000000008,53288.800000000003,-13032.0,8802.3299999999999,-3146.5500000000002
171213.0,47433.400000000001,13630.4,6655.2399999999998,50232.900000000001,-11443.0,7896.6899999999996,-2962.6999999999998
171214.0,645836.0,421507.0,-133105.0,271539.0,-221011.0,-16671.799999999999,-87220.399999999994
171215.0,634505.0,495664.0,-169688.0,304138.0,-84939.199999999997,63001.900000000001,-75500.399999999994
171216.0,469778.0,275847.0,-184078.0,187108.0,57401.5,101755.0,-19592.599999999999
171217.0,272601.0,6913.04,-129705.0,53754.300000000003,98700.5,75760.100000000006,14249.299999999999
171218.0,193369.0,-138081.0,-81126.800000000003,-24519.200000000001,87192.699999999997,35584.400000000001,19261.299999999999
171219.0,178369.0,-165156.0,-34921.400000000001,-37580.800000000003,69295.899999999994,8698.3199999999997,13675.4
171220.0,147306.0,-139608.0,1364.8199999999999,-19210.799999999999,37742.900000000001,-2193.4499999999998,2242.1700000000001
171221.0,104035.0,-76942.0,28949.400000000001,23520.099999999999,2379.5999999999999,-1563.1900000000001,-6616.6899999999996
171222.0,70715.300000000003,-18620.599999999999,25296.799999999999,52940.300000000003,-16477.900000000001,5118.6099999999997,-8176.1700000000001
171223.0,59655.599999999999,11337.799999999999,14167.700000000001,61672.0,-16747.700000000001,9069.0200000000004,-4881.5500000000002
171224.0,54153.199999999997,15327.5,9750.9699999999993,57879.400000000001,-14430.6,8260.6499999999996,-2832.52
171225.0,50940.0,15618.700000000001,9544.5499999999993,55428.5,-13568.700000000001,7253.9200000000001,-2656.46
171226.0,48686.599999999999,11977.5,6526.79,50798.0,-12395.299999999999,6776.8999999999996,-2789.0999999999999
171227.0,9262.9500000000007,-4442.3500000000004,-1400.8900000000001,1789.51,2573.0999999999999,3093.9000000000001,-1642.2
171228.0,8456.4200000000001,-4417.8400000000001,-1412.6300000000001,1708.3900000000001,2588.3400000000001,2445.8099999999999,-1331.0599999999999
171229.0,7936.54,-4228.3999999999996,-1360.3499999999999,1673.45,2586.3800000000001,2048.8699999999999,-1182.6700000000001
171230.0,7866.9499999999998,-4424.9899999999998,-1454.3299999999999,1593.0599999999999,2618.9699999999998,1882.48,-1082.6700000000001
171231.0,8172.1599999999999,-5184.0299999999997,-1664.1700000000001,1467.8,2749.21,1699.6900000000001,-860.27099999999996
171232.0,9342.0300000000007,-6558.0500000000002,-2148.4899999999998,1622.25,3208.7199999999998,1309.4200000000001,-563.33600000000001
171233.0,11413.4,-7760.9399999999996,-2276.3099999999999,2638.6700000000001,3968.8699999999999,701.745,-334.89800000000002
171234.0,13015.700000000001,-8561.0699999999997,-2319.4200000000001,3215.0,4662.04,-119.611,-98.277699999999996
171235.0,13512.0,-8699.1299999999992,-2330.4499999999998,3155.8600000000001,4990.5100000000002,-847.24199999999996,187.48599999999999
171236.0,13425.6,-8705.5699999999997,-2520.7399999999998,2744.27,4936.2200000000003,-1603.1700000000001,548.66300000000001
171237.0,13262.4,-8393.6499999999996,-2520.3200000000002,2478.7800000000002,4751.3299999999999,-2362.7800000000002,925.57799999999997
171238.0,13215.5,-8112.7200000000003,-2470.9400000000001,2085.7800000000002,4613.6999999999998,-3039.1300000000001,1262.4300000000001
171239.0,12985.700000000001,-7599.0600000000004,-2404.9699999999998,1431.49,4466.0200000000004,-3645.5900000000001,1559.77
171240.0,9893.5,-5198.8800000000001,-1669.0599999999999,1765.9000000000001,2646.21,3267.25,-1679.8699999999999
171241.0,8830.3199999999997,-4895.5900000000001,-1488.01,1794.75,2582.5100000000002,2532.0900000000001,-1311.1900000000001
171242.0,8320.6700000000001,-4868.7399999999998,-1577.5,1603.21,2556.1900000000001,2172.2600000000002,-1162.96
171243.0,8353.6599999999999,-4944.6700000000001,-1518.4100000000001,1701.8,2676.1599999999999,1978.48,-1066.5799999999999
171244.0,8941.0200000000004,-5811.0299999999997,-1911.75,1556.1400000000001,3065.6599999999999,1737.45,-803.74599999999998
171245.0,10443.4,-7123.6599999999999,-2351.8899999999999,1931.5599999999999,3682.0,1393.75,-579.95299999999997
171246.0,12140.200000000001,-8455.9099999999999,-2558.0700000000002,2692.0500000000002,4142.0500000000002,798.99900000000002,-478.221
171247.0,12767.0,-8755.5400000000009,-2163.54,3239.0900000000001,4263.3299999999999,-142.48099999999999,-224.03
171248.0,12902.9,-8636.1200000000008,-1880.01,3332.0999999999999,4307.6300000000001,-945.92600000000004,189.99100000000001
171249.0,13134.799999999999,-8591.9500000000007,-2042.5799999999999,3152.5900000000001,4407.3400000000001,-1758.8099999999999,594.55999999999995
171250.0,13213.299999999999,-8275.1499999999996,-2179.4000000000001,2960.4099999999999,4425.0600000000004,-2488.3899999999999,887.82399999999996
171251.0,12933.5,-7899.5799999999999,-2173.6700000000001,2424.73,4251.3699999999999,-3114.29,1109.75
171252.0,12361.299999999999,-7201.4799999999996,-2013.0599999999999,1711.73,4006.6900000000001,-3606.52,1354.01
171253.0,10489.799999999999,-5415.8299999999999,-1592.8099999999999,2148.3299999999999,2769.5300000000002,3395.3200000000002,-1782.02
171254.0,9239.4899999999998,-5079.3100000000004,-1506.9200000000001,2044.8599999999999,2683.0900000000001,2587.8499999999999,-1368.0799999999999
171255.0,8731.5200000000004,-5062.1199999999999,-1646.75,1809.95,2658.25,2269.8299999999999,-1178.23
171256.0,8934.4899999999998,-5260.5500000000002,-1619.05,1938.53,2835.0100000000002,2099.0599999999999,-1098.97
171257.0,9645.0799999999999,-6032.0299999999997,-1842.97,2057.8200000000002,3276.25,1781.6900000000001,-855.96699999999998
171258.0,11096.9,-7156.9700000000003,-2101.4099999999999,2637.1799999999998,3826.23,1407.73,-659.88699999999994
171259.0,12455.0,-8285.1200000000008,-2242.8400000000001,3288.6199999999999,4164.46,779.16899999999998,-499.721
171260.0,12786.1,-8965.5,-2449.5300000000002,3095.1300000000001,4242.1099999999997,-159.327,-175.839
171261.0,12829.799999999999,-9244.3999999999996,-2560.1300000000001,2695.3600000000001,4254.8500000000004,-951.32799999999997,222.499
171262.0,13196.6,-9245.8899999999994,-2563.1700000000001,2654.8000000000002,4350.2299999999996,-1782.3900000000001,602.91300000000001
171263.0,13430.5,-8828.3799999999992,-2459.1900000000001,2742.8600000000001,4385.0699999999997,-2568.6999999999998,844.14400000000001
171264.0,12885.1,-8096.1700000000001,-2243.1799999999998,2298.5,4134.54,-3175.4200000000001,1004.29
171265.0,11985.299999999999,-7223.4799999999996,-2060.9699999999998,1572.49,3779.7600000000002,-3537.4000000000001,1243.27
171266.0,11024.299999999999,-5829.6800000000003,-1752.8699999999999,2260.6399999999999,2854.77,3553.8699999999999,-1835.3199999999999
171267.0,9685.2600000000002,-5350.04,-1572.21,2254.4099999999999,2768.4499999999998,2658.1100000000001,-1442.5999999999999
171268.0,9147.1100000000006,-5248.54,-1718.51,2037.52,2767.1900000000001,2347.5700000000002,-1202.3199999999999
171269.0,9539.9599999999991,-5709.9499999999998,-1848.1800000000001,2082.7800000000002,2991.0300000000002,2235.1100000000001,-1101.3299999999999
171270.0,10359.0,-6657.0299999999997,-2104.02,2223.1700000000001,3420.0,1875.21,-915.66200000000003
171271.0,11605.4,-7557.0600000000004,-2128.4899999999998,2954.0700000000002,3822.29,1437.9100000000001,-766.01300000000003
171272.0,12560.0,-8303.6399999999994,-2038.25,3635.8699999999999,4016.7199999999998,713.875,-523.57299999999998
171273.0,12771.1,-8563.2900000000009,-1973.78,3635.27,4124.25,-246.65199999999999,-124.11799999999999
171274.0,12811.4,-8820.6499999999996,-2145.7800000000002,3120.3299999999999,4219.0500000000002,-1012.0,271.85300000000001
171275.0,13227.799999999999,-9072.4699999999993,-2395.8800000000001,2878.3600000000001,4341.1199999999999,-1791.96,631.67399999999998
171276.0,13531.1,-8977.3899999999994,-2523.8499999999999,2776.0599999999999,4359.9700000000003,-2593.5300000000002,804.54999999999995
171277.0,12789.0,-8069.1400000000003,-2204.0500000000002,2305.3400000000001,4064.75,-3176.0,921.75599999999997
171278.0,11790.200000000001,-7070.6000000000004,-1977.6800000000001,1640.0699999999999,3708.54,-3466.8099999999999,1189.1500000000001
171279.0,11473.5,-6041.75,-1747.7,2553.7600000000002,2909.3899999999999,3683.48,-1837.77
171280.0,10153.700000000001,-5535.6800000000003,-1583.74,2549.98,2836.5700000000002,2769.96,-1516.46
171281.0,9588.9699999999993,-5314.1300000000001,-1650.4100000000001,2456.3600000000001,2836.21,2430.7199999999998,-1259.1600000000001
171282.0,10082.200000000001,-5785.9300000000003,-1748.4200000000001,2619.5700000000002,3101.6700000000001,2322.8299999999999,-1093.53
171283.0,11047.799999999999,-7037.8000000000002,-2199.8000000000002,2594.71,3551.8800000000001,1989.8099999999999,-955.36300000000006
171284.0,12138.5,-7910.8900000000003,-2136.6999999999998,3258.0500000000002,3862.5100000000002,1506.6700000000001,-852.851
171285.0,12719.5,-8500.2600000000002,-2048.6100000000001,3766.52,3938.5500000000002,661.39300000000003,-571.54700000000003
171286.0,12671.200000000001,-8575.6299999999992,-2034.3499999999999,3682.4299999999998,3969.9899999999998,-338.10899999999998,-151.511
171287.0,12553.1,-8621.4500000000007,-2164.2800000000002,3202.0900000000001,4029.4200000000001,-1086.96,246.74799999999999
171288.0,12953.799999999999,-8642.0,-2211.5799999999999,3188.9299999999998,4156.7299999999996,-1800.1700000000001,577.83199999999999
171289.0,13274.9,-8585.9400000000005,-2330.6399999999999,3085.25,4189.4099999999999,-2553.2800000000002,746.77599999999995
171290.0,12509.299999999999,-7818.4700000000003,-2188.0900000000001,2428.4499999999998,3929.73,-3099.5300000000002,880.44000000000005
171291.0,11578.5,-6961.5299999999997,-2061.4200000000001,1689.5699999999999,3621.2399999999998,-3385.6999999999998,1135.98
171292.0,11813.1,-6229.8900000000003,-1773.79,2789.29,2935.6999999999998,3770.3899999999999,-1828.8399999999999
171293.0,10664.0,-5778.75,-1686.0899999999999,2796.8099999999999,2921.1999999999998,2924.04,-1557.53
171294.0,10165.200000000001,-5628.1199999999999,-1793.22,2717.9000000000001,2925.0799999999999,2571.2199999999998,-1350.79
171295.0,10642.700000000001,-6037.1199999999999,-1789.45,3037.1399999999999,3186.4000000000001,2385.7800000000002,-1138.9000000000001
171296.0,11620.0,-7292.5100000000002,-2254.0900000000001,3025.4499999999998,3629.3000000000002,2060.0599999999999,-986.34000000000003
171297.0,12575.4,-8165.8199999999997,-2209.8499999999999,3548.1599999999999,3891.9400000000001,1567.71,-894.81600000000003
171298.0,12895.9,-8722.0599999999995,-2143.3600000000001,3829.3499999999999,3900.6900000000001,647.93899999999996,-619.84299999999996
171299.0,12646.9,-8400.8799999999992,-1817.3499999999999,3957.8200000000002,3857.9099999999999,-387.71699999999998,-204.30799999999999
171300.0,12356.5,-8302.2199999999993,-1931.0,3488.1100000000001,3839.2800000000002,-1135.9300000000001,187.28899999999999
171301.0,12603.4,-8165.4899999999998,-1848.72,3578.2399999999998,3866.8800000000001,-1796.9300000000001,470.80399999999997
171302.0,12797.0,-7974.5,-1833.5999999999999,3530.1100000000001,3832.8200000000002,-2512.6500000000001,666.875
171303.0,12141.799999999999,-7284.7299999999996,-1824.71,2845.5999999999999,3675.3299999999999,-3026.5700000000002,874.77099999999996
171304.0,11428.6,-6709.4799999999996,-1967.27,1977.24,3517.8099999999999,-3318.0799999999999,1111.5
171305.0,12115.200000000001,-6332.3299999999999,-1683.46,3115.7399999999998,2935.6399999999999,3829.2800000000002,-1823.8099999999999
171306.0,11172.6,-5951.9700000000003,-1731.8299999999999,3144.5999999999999,2994.6399999999999,3077.9400000000001,-1563.6300000000001
171307.0,10867.5,-5905.0100000000002,-1851.1800000000001,3114.3400000000001,3032.6999999999998,2775.71,-1435.05
171308.0,11289.9,-6319.21,-1775.8499999999999,3497.4899999999998,3261.6199999999999,2487.4299999999998,-1235.23
171309.0,12144.5,-7399.29,-2102.98,3606.8200000000002,3649.6500000000001,2105.25,-1054.95
171310.0,12908.700000000001,-8181.1999999999998,-2057.9499999999998,4019.77,3873.0700000000002,1576.23,-918.33199999999999
171311.0,13000.200000000001,-8673.7800000000007,-2060.4099999999999,4087.4899999999998,3845.1799999999998,641.53800000000001,-638.08900000000006
171312.0,12592.6,-8456.2299999999996,-1933.1600000000001,3953.9299999999998,3755.8099999999999,-394.464,-243.74700000000001
171313.0,12195.6,-8212.6299999999992,-1990.25,3551.52,3690.0799999999999,-1143.8599999999999,121.748
171314.0,12260.700000000001,-7962.2600000000002,-1810.48,3653.6300000000001,3619.4299999999998,-1762.1700000000001,362.65499999999997
171315.0,12283.4,-7687.6899999999996,-1732.73,3556.1799999999998,3504.3499999999999,-2452.5799999999999,595.98900000000003
171316.0,11777.299999999999,-6997.4899999999998,-1725.8399999999999,2988.8600000000001,3408.9899999999998,-2982.5100000000002,871.99599999999998
171317.0,11305.700000000001,-6492.1400000000003,-1876.27,2246.5999999999999,3370.0,-3302.79,1108.6600000000001
171318.0,12425.200000000001,-6541.3900000000003,-1751.9000000000001,3304.5599999999999,2938.8099999999999,3886.5999999999999,-1864.8599999999999
171319.0,11686.200000000001,-6061.3800000000001,-1764.6800000000001,3562.5999999999999,3063.8600000000001,3221.3899999999999,-1585.55
171320.0,11619.5,-6268.1099999999997,-2023.78,3472.8400000000001,3151.6599999999999,2997.1599999999999,-1495.3599999999999
171321.0,12030.200000000001,-6769.5,-1922.8399999999999,3820.3699999999999,3365.77,2645.4200000000001,-1346.1800000000001
171322.0,12708.4,-7693.8599999999997,-2089.6500000000001,4012.71,3666.9499999999998,2179.5799999999999,-1164.3099999999999
171323.0,13157.0,-8266.8400000000001,-1945.8099999999999,4381.0200000000004,3789.1500000000001,1551.98,-971.71100000000001
171324.0,12998.1,-8538.4500000000007,-1912.72,4369.2799999999997,3722.5900000000001,598.97799999999995,-662.25199999999995
171325.0,12491.299999999999,-8204.9699999999993,-1803.24,4209.1700000000001,3639.5799999999999,-390.63600000000002,-267.07299999999998
171326.0,12090.6,-7995.75,-1936.3199999999999,3777.0999999999999,3579.0500000000002,-1119.55,65.825599999999994
171327.0,11973.299999999999,-7719.1000000000004,-1748.79,3750.8400000000001,3445.1999999999998,-1711.1400000000001,283.62599999999998
171328.0,11859.200000000001,-7396.2700000000004,-1640.1300000000001,3574.5999999999999,3281.4400000000001,-2383.2600000000002,563.79600000000005
171329.0,11528.700000000001,-6793.4200000000001,-1698.97,3064.9200000000001,3233.4400000000001,-2963.1799999999998,872.85000000000002
171330.0,11242.200000000001,-6352.8299999999999,-1867.1900000000001,2425.1900000000001,3261.7600000000002,-3312.8499999999999,1117.3900000000001
171331.0,12762.4,-6594.6400000000003,-1737.6800000000001,3589.9099999999999,2949.6799999999998,4000.2399999999998,-1908.05
171332.0,12282.5,-6195.5600000000004,-1779.4200000000001,4039.9699999999998,3119.2399999999998,3392.46,-1640.98
171333.0,12354.299999999999,-6398.3500000000004,-1961.3699999999999,4103.96,3247.98,3187.4499999999998,-1539.8399999999999
171334.0,12796.0,-7175.9899999999998,-2044.5899999999999,4197.5,3466.1100000000001,2845.3699999999999,-1423.6800000000001
171335.0,13327.6,-8036.8900000000003,-2099.1399999999999,4387.0799999999999,3705.4499999999998,2285.8299999999999,-1280.3399999999999
171336.0,13399.9,-8477.7900000000009,-1973.9100000000001,4562.1300000000001,3721.8099999999999,1530.8399999999999,-1070.8599999999999
171337.0,12924.9,-8372.6000000000004,-1779.51,4593.4399999999996,3577.1700000000001,575.49199999999996,-723.33100000000002
171338.0,12360.5,-8018.4099999999999,-1756.3199999999999,4384.2200000000003,3498.5999999999999,-371.887,-302.18799999999999
171339.0,11991.9,-7727.25,-1828.9100000000001,4069.3800000000001,3458.8400000000001,-1087.01,15.732200000000001
171340.0,11705.9,-7436.7700000000004,-1696.7,3870.79,3299.5100000000002,-1663.5699999999999,232.99000000000001
171341.0,11487.9,-7116.29,-1629.4200000000001,3562.0700000000002,3124.6500000000001,-2325.6799999999998,551.82500000000005
171342.0,11334.1,-6613.29,-1722.52,3113.73,3112.5300000000002,-2949.6399999999999,882.28800000000001
171343.0,11251.799999999999,-6183.1899999999996,-1829.1600000000001,2648.6100000000001,3190.96,-3346.2800000000002,1148.8599999999999
171344.0,13162.5,-6592.6199999999999,-1731.8499999999999,3940.7600000000002,2979.5500000000002,4175.0500000000002,-1910.1600000000001
171345.0,12993.299999999999,-6464.9799999999996,-1872.6600000000001,4471.5500000000002,3173.3299999999999,3618.5300000000002,-1718.77
171346.0,13105.6,-6581.5200000000004,-1913.78,4749.6999999999998,3318.6399999999999,3347.5300000000002,-1613.1800000000001
171347.0,13500.299999999999,-7488.3400000000001,-2139.3000000000002,4650.8800000000001,3541.21,2999.52,-1483.9000000000001
171348.0,13904.0,-8358.9200000000001,-2182.73,4717.2399999999998,3736.96,2402.98,-1382.4400000000001
171349.0,13609.799999999999,-8608.2199999999993,-1987.1400000000001,4738.3900000000003,3662.3299999999999,1544.52,-1187.4100000000001
171350.0,12843.799999999999,-8196.4400000000005,-1670.4400000000001,4778.2299999999996,3454.6399999999999,593.29600000000005,-784.351
171351.0,12277.700000000001,-7869.7600000000002,-1708.0899999999999,4568.4300000000003,3368.1900000000001,-324.774,-345.29000000000002
171352.0,11914.0,-7502.8100000000004,-1707.4200000000001,4346.4799999999996,3328.77,-1060.72,-36.425400000000003
171353.0,11488.799999999999,-7194.5900000000001,-1649.8599999999999,3988.2800000000002,3162.3400000000001,-1641.55,194.40299999999999
171354.0,11172.5,-6709.8999999999996,-1472.0699999999999,3713.6500000000001,2986.4299999999998,-2287.9699999999998,540.28899999999999
171355.0,11173.4,-6379.8599999999997,-1670.22,3240.4699999999998,3003.3699999999999,-2936.7199999999998,910.49400000000003
171356.0,11357.4,-6067.6999999999998,-1820.3499999999999,2865.0900000000001,3145.7800000000002,-3418.1199999999999,1205.1600000000001
171357.0,13639.5,-6617.3900000000003,-1737.9400000000001,4366.2799999999997,3014.2399999999998,4371.0299999999997,-1880.1800000000001
171358.0,13792.5,-6791.71,-1972.22,4922.5799999999999,3233.8400000000001,3883.8800000000001,-1789.8399999999999
171359.0,13925.200000000001,-6858.75,-1909.0899999999999,5363.7700000000004,3376.23,3526.0900000000001,-1734.25
171360.0,14156.0,-7645.9899999999998,-2074.0300000000002,5254.1499999999996,3564.0500000000002,3115.6900000000001,-1589.53
171361.0,14337.200000000001,-8393.5100000000002,-2043.1600000000001,5231.9799999999996,3706.8400000000001,2479.8000000000002,-1464.1500000000001
171362.0,13746.1,-8594.4200000000001,-1945.8,4972.0100000000002,3583.0799999999999,1593.4400000000001,-1260.78
171363.0,12805.0,-8071.2399999999998,-1629.8099999999999,4929.4200000000001,3361.77,643.73000000000002,-827.51599999999996
171364.0,12266.5,-7836.5900000000001,-1751.5799999999999,4673.8000000000002,3285.7399999999998,-268.53699999999998,-387.41800000000001
171365.0,11891.5,-7414.0600000000004,-1710.8,4504.79,3244.5799999999999,-1031.75,-86.649299999999997
171366.0,11345.1,-7031.75,-1661.0999999999999,4069.6999999999998,3066.2600000000002,-1628.99,163.25399999999999
171367.0,10945.299999999999,-6513.3900000000003,-1500.6900000000001,3714.0900000000001,2884.27,-2272.8499999999999,542.68499999999995
171368.0,11092.700000000001,-6240.3100000000004,-1689.1600000000001,3307.48,2918.6500000000001,-2962.8699999999999,955.25999999999999
171369.0,11527.5,-5994.1400000000003,-1809.46,3063.5700000000002,3107.46,-3534.8600000000001,1261.99
171370.0,14203.299999999999,-6727.9799999999996,-1806.3699999999999,4818.2600000000002,3055.3800000000001,4558.7700000000004,-1885.8699999999999
171371.0,14585.1,-7099.6000000000004,-2077.8400000000001,5401.0500000000002,3288.6900000000001,4131.4799999999996,-1858.53
171372.0,14788.1,-7200.25,-1992.02,5904.8999999999996,3430.6599999999999,3754.04,-1869.55
171373.0,14822.799999999999,-7861.0600000000004,-2047.8800000000001,5801.1199999999999,3551.0999999999999,3251.7600000000002,-1745.1500000000001
171374.0,14628.299999999999,-8409.6599999999999,-1904.4100000000001,5659.6000000000004,3601.98,2521.3200000000002,-1555.0799999999999
171375.0,13809.700000000001,-8465.0599999999995,-1828.1099999999999,5273.1800000000003,3475.4000000000001,1623.9000000000001,-1285.0799999999999
171376.0,12823.4,-8011.3999999999996,-1668.02,5060.75,3295.9099999999999,698.90200000000004,-853.774
171377.0,12301.299999999999,-7771.21,-1742.5,4837.0600000000004,3232.1999999999998,-201.976,-430.60000000000002
171378.0,11929.0,-7365.2799999999997,-1710.1500000000001,4661.0699999999997,3194.9000000000001,-1004.72,-126.006
171379.0,11296.0,-6901.6300000000001,-1668.0799999999999,4178.0100000000002,3020.6599999999999,-1632.5999999999999,151.31399999999999
171380.0,10854.0,-6366.9499999999998,-1552.2,3748.3400000000001,2846.8499999999999,-2290.5100000000002,564.96699999999998
171381.0,11126.200000000001,-6145.6199999999999,-1724.8699999999999,3391.4000000000001,2891.96,-3021.1799999999998,996.99000000000001
171382.0,11717.9,-6006.1499999999996,-1850.8099999999999,3176.9899999999998,3085.4099999999999,-3660.1100000000001,1306.6300000000001
171383.0,14854.6,-6870.3900000000003,-1857.29,5329.7399999999998,3080.3800000000001,4756.2200000000003,-1959.0699999999999
171384.0,15294.700000000001,-7199.0799999999999,-2051.1399999999999,6017.8000000000002,3314.79,4343.9799999999996,-1932.8
171385.0,15644.0,-7447.54,-2044.04,6501.21,3471.9899999999998,4022.54,-1969.29
171386.0,15519.5,-8108.5100000000002,-2051.3099999999999,6312.3900000000003,3537.2800000000002,3420.9299999999998,-1906.72
171387.0,14873.0,-8459.8500000000004,-1835.74,5968.9899999999998,3495.6700000000001,2564.7399999999998,-1665.6300000000001
171388.0,13856.299999999999,-8388.1100000000006,-1782.3299999999999,5495.0100000000002,3368.7199999999998,1643.0899999999999,-1314.5599999999999
171389.0,12879.700000000001,-7908.8500000000004,-1658.5899999999999,5270.1599999999999,3242.1799999999998,741.28700000000003,-880.072
171390.0,12365.1,-7730.8000000000002,-1764.9000000000001,4992.6199999999999,3195.0,-139.86000000000001,-462.97300000000001
171391.0,11996.4,-7360.7700000000004,-1736.47,4793.6800000000003,3160.8499999999999,-978.09900000000005,-150.577
171392.0,11344.299999999999,-6830.2600000000002,-1688.29,4306.2700000000004,3011.71,-1653.9400000000001,160.00899999999999
171393.0,10912.6,-6317.9200000000001,-1641.97,3802.5799999999999,2863.1900000000001,-2342.6300000000001,594.56700000000001
171394.0,11254.6,-6082.1499999999996,-1742.8900000000001,3513.4099999999999,2899.02,-3107.5900000000001,1035.3499999999999
171395.0,11912.4,-6024.7799999999997,-1873.3900000000001,3277.6900000000001,3065.9400000000001,-3790.3699999999999,1348.1700000000001
171396.0,15554.1,-6979.5900000000001,-1852.21,5887.8199999999997,3078.4499999999998,4993.8100000000004,-2065.6700000000001
171397.0,15982.9,-7248.3999999999996,-2004.52,6684.8000000000002,3311.6900000000001,4536.8400000000001,-2019.3199999999999
171398.0,16430.900000000001,-7556.5600000000004,-1995.28,7207.1499999999996,3475.3299999999999,4266.1199999999999,-2029.1900000000001
171399.0,16189.299999999999,-8375.4400000000005,-2096.5300000000002,6770.7600000000002,3517.1799999999998,3600.6700000000001,-2029.3900000000001
171400.0,15136.4,-8506.1299999999992,-1796.29,6247.9499999999998,3423.8499999999999,2625.9699999999998,-1784.04
171401.0,13930.799999999999,-8344.2900000000009,-1783.79,5675.0600000000004,3291.5900000000001,1670.3499999999999,-1364.3299999999999
171402.0,12984.9,-7825.96,-1648.4300000000001,5506.1700000000001,3198.79,786.09100000000001,-914.50300000000004
171403.0,12463.5,-7694.5900000000001,-1767.1300000000001,5179.8599999999997,3163.25,-100.42,-489.197
171404.0,12084.1,-7335.5,-1719.3699999999999,4960.8199999999997,3135.0999999999999,-963.62400000000002,-154.041
171405.0,11492.4,-6863.9300000000003,-1756.52,4421.25,3029.1999999999998,-1696.2,193.94999999999999
171406.0,11115.700000000001,-6324.1899999999996,-1705.8199999999999,3935.9200000000001,2914.3099999999999,-2428.1500000000001,626.39300000000003
171407.0,11462.9,-6100.9799999999996,-1809.1099999999999,3609.5999999999999,2928.1999999999998,-3228.0799999999999,1060.52
171408.0,12096.5,-6035.7200000000003,-1927.0,3343.5599999999999,3055.7800000000002,-3930.4200000000001,1372.5
171409.0,16294.9,-7131.9399999999996,-1868.8199999999999,6412.9399999999996,3063.48,5282.7799999999997,-2142.3899999999999
171410.0,16756.700000000001,-7330.3199999999997,-1951.6600000000001,7392.6700000000001,3304.8299999999999,4756.0699999999997,-2133.3600000000001
171411.0,17146.599999999999,-7652.2399999999998,-1924.8800000000001,7905.29,3436.8699999999999,4456.6000000000004,-2101.5799999999999
171412.0,16738.200000000001,-8516.6100000000006,-2060.5599999999999,7273.2799999999997,3464.3499999999999,3730.8899999999999,-2109.04
171413.0,15409.200000000001,-8555.2199999999993,-1808.5999999999999,6503.4399999999996,3366.9099999999999,2714.54,-1883.48
171414.0,14061.5,-8288.6299999999992,-1781.3499999999999,5893.4399999999996,3243.6599999999999,1719.55,-1426.26
171415.0,13158.0,-7812.4300000000003,-1681.3900000000001,5734.5799999999999,3177.9099999999999,831.30700000000002,-950.40999999999997
171416.0,12610.9,-7720.8000000000002,-1813.6199999999999,5346.9300000000003,3149.46,-81.301100000000005,-513.15899999999999
171417.0,12200.0,-7372.7600000000002,-1755.22,5078.0500000000002,3126.0,-970.44299999999998,-143.39099999999999
171418.0,11729.700000000001,-6945.3199999999997,-1825.74,4563.4200000000001,3070.8400000000001,-1767.3,247.29499999999999
171419.0,11441.200000000001,-6464.7700000000004,-1839.97,4048.3600000000001,2995.5300000000002,-2541.29,661.45799999999997
171420.0,11739.200000000001,-6160.7200000000003,-1874.0699999999999,3734.4200000000001,2980.4899999999998,-3361.7800000000002,1061.6700000000001
171421.0,12264.9,-5968.1099999999997,-1898.71,3489.0700000000002,3050.1900000000001,-4058.27,1365.54
171422.0,17050.799999999999,-7404.2200000000003,-2002.8699999999999,6847.7799999999997,3050.4699999999998,5575.2399999999998,-2179.3099999999999
171423.0,17644.599999999999,-7489.1700000000001,-1914.3,8116.1800000000003,3305.9000000000001,5015.6000000000004,-2270.7199999999998
171424.0,17829.900000000001,-7851.8800000000001,-1926.1199999999999,8475.0200000000004,3374.8099999999999,4615.6499999999996,-2227.8499999999999
171425.0,17146.299999999999,-8501.4300000000003,-1913.3199999999999,7810.0600000000004,3375.1100000000001,3805.5,-2188.5300000000002
171426.0,15656.6,-8554.6599999999999,-1814.76,6788.6099999999997,3307.25,2802.23,-1943.2
171427.0,14280.6,-8241.8099999999995,-1782.8499999999999,6177.4099999999999,3224.9899999999998,1792.3699999999999,-1482.95
171428.0,13414.1,-7874.5600000000004,-1751.48,5964.8299999999999,3184.25,872.88499999999999,-992.28200000000004
171429.0,12814.1,-7733.8400000000001,-1827.23,5571.8000000000002,3161.9200000000001,-89.066199999999995,-531.63
171430.0,12370.200000000001,-7467.1099999999997,-1838.53,5175.1899999999996,3143.8400000000001,-995.803,-122.229
171431.0,12037.4,-7046.2399999999998,-1866.03,4748.2600000000002,3127.5999999999999,-1864.52,304.06700000000001
171432.0,11850.5,-6627.6999999999998,-1923.3900000000001,4228.8299999999999,3087.3499999999999,-2673.8099999999999,699.74000000000001
171433.0,12065.6,-6244.75,-1889.0999999999999,3913.6100000000001,3041.3600000000001,-3489.96,1060.01
171434.0,12460.0,-6004.6000000000004,-1916.98,3587.8400000000001,3048.8600000000001,-4175.4399999999996,1360.1199999999999
171435.0,17771.0,-7572.5200000000004,-2060.4400000000001,7367.9799999999996,3039.2399999999998,5836.0799999999999,-2211.3200000000002
171436.0,18577.599999999999,-7696.1599999999999,-1913.2,8805.6900000000005,3303.48,5311.1400000000003,-2410.96
171437.0,18487.799999999999,-8044.0100000000002,-1933.5999999999999,8984.75,3301.27,4783.2799999999997,-2394.5500000000002
171438.0,17459.799999999999,-8489.4899999999998,-1815.98,8226.9599999999991,3259.6300000000001,3867.3699999999999,-2286.3000000000002
171439.0,15886.4,-8511.6399999999994,-1798.1800000000001,7110.9099999999999,3239.6199999999999,2878.3699999999999,-1981.8099999999999
171440.0,14589.799999999999,-8254.8999999999996,-1810.0799999999999,6497.7200000000003,3226.4299999999998,1872.5899999999999,-1529.0599999999999
171441.0,13762.299999999999,-7981.6999999999998,-1814.1400000000001,6243.8400000000001,3216.1799999999998,909.80999999999995,-1035.55
171442.0,13086.5,-7817.46,-1876.8299999999999,5787.8199999999997,3200.5,-118.66800000000001,-551.82799999999997
171443.0,12612.9,-7546.0200000000004,-1883.6099999999999,5344.6300000000001,3188.4499999999998,-1052.29,-91.520700000000005
171444.0,12393.1,-7235.0900000000001,-1956.01,4893.6499999999996,3190.9400000000001,-1975.6099999999999,359.45800000000003
171445.0,12305.200000000001,-6836.1899999999996,-1992.79,4420.6599999999999,3172.2399999999998,-2823.3600000000001,744.14999999999998
171446.0,12427.200000000001,-6453.0500000000002,-1983.96,4007.3899999999999,3103.79,-3624.79,1075.79
171447.0,12729.700000000001,-6103.9300000000003,-1946.5699999999999,3686.4699999999998,3071.21,-4306.7700000000004,1374.8499999999999
171448.0,18445.799999999999,-7691.2600000000002,-2072.79,7935.8000000000002,3004.8000000000002,6048.2600000000002,-2268.8499999999999
171449.0,19417.5,-7802.8599999999997,-1844.73,9518.8400000000001,3254.6399999999999,5594.1700000000001,-2519.25
171450.0,19119.099999999999,-8197.3799999999992,-1958.1800000000001,9467.5200000000004,3225.1799999999998,4965.54,-2556.3099999999999
171451.0,17740.400000000001,-8442.3500000000004,-1762.0599999999999,8585.7199999999993,3161.1399999999999,3945.79,-2394.9200000000001
171452.0,16155.799999999999,-8498.7600000000002,-1822.9400000000001,7427.6899999999996,3195.3400000000001,2959.8400000000001,-2016.73
171453.0,14986.299999999999,-8333.7199999999993,-1858.52,6845.29,3247.6300000000001,1954.99,-1574.51
171454.0,14187.9,-8145.0699999999997,-1877.48,6553.6499999999996,3268.27,933.94000000000005,-1068.55
171455.0,13453.299999999999,-7974.1499999999996,-1944.47,6026.0600000000004,3265.4899999999998,-157.99100000000001,-571.50300000000004
171456.0,12944.0,-7701.4399999999996,-1967.1700000000001,5513.3900000000003,3259.6500000000001,-1143.3699999999999,-64.800700000000006
171457.0,12787.6,-7434.1499999999996,-2040.1700000000001,5054.6599999999999,3265.6700000000001,-2108.3099999999999,405.74000000000001
171458.0,12766.5,-7073.04,-2089.7399999999998,4580.9899999999998,3252.5,-2989.21,788.827
171459.0,12816.1,-6660.54,-2099.73,4107.8800000000001,3179.4699999999998,-3770.8899999999999,1098.24
171460.0,13040.6,-6267.2799999999997,-2043.5799999999999,3747.0700000000002,3115.9899999999998,-4446.5100000000002,1388.6099999999999
171461.0,19087.599999999999,-7749.3100000000004,-2026.52,8545.6299999999992,2931.6399999999999,6233.9799999999996,-2376.4400000000001
171462.0,20084.799999999999,-7798.3999999999996,-1727.0599999999999,10206.6,3142.73,5820.1199999999999,-2609.1399999999999
171463.0,19677.200000000001,-8239.2099999999991,-1939.21,9980.1800000000003,3129.75,5148.6400000000003,-2672.5799999999999
171464.0,18065.200000000001,-8363.9699999999993,-1714.01,8976.8700000000008,3091.3099999999999,4060.4000000000001,-2490.7199999999998
171465.0,16502.099999999999,-8551.0699999999997,-1883.04,7749.5600000000004,3183.6399999999999,3040.8600000000001,-2056.75
171466.0,15470.0,-8444.5599999999995,-1883.1500000000001,7256.8400000000001,3290.3499999999999,2037.47,-1615.1099999999999
171467.0,14687.0,-8402.7000000000007,-1978.75,6853.0,3341.3400000000001,936.50400000000002,-1092.54
171468.0,13913.700000000001,-8189.7200000000003,-2017.7,6298.8900000000003,3359.1999999999998,-211.381,-581.17399999999998
171469.0,13383.700000000001,-7937.6700000000001,-2075.23,5704.9799999999996,3360.21,-1255.8199999999999,-49.722200000000001
171470.0,13219.299999999999,-7628.8599999999997,-2088.9099999999999,5252.75,3351.0,-2255.4899999999998,423.548
171471.0,13204.5,-7265.6499999999996,-2143.6700000000001,4767.8199999999997,3322.9699999999998,-3152.8699999999999,818.12300000000005
171472.0,13220.5,-6780.4200000000001,-2126.9899999999998,4325.9200000000001,3248.8499999999999,-3919.2800000000002,1112.4300000000001
171473.0,13338.299999999999,-6351.4899999999998,-2068.1199999999999,3903.1100000000001,3151.6700000000001,-4573.5299999999997,1387.8900000000001
171474.0,19709.299999999999,-7742.1000000000004,-1917.1900000000001,9171.2900000000009,2821.1700000000001,6431.7200000000003,-2516.9299999999998
171475.0,20605.900000000001,-7743.75,-1587.7,10800.9,2982.5900000000001,6013.0100000000002,-2696.2199999999998
171476.0,20154.099999999999,-8152.8400000000001,-1815.79,10561.0,3019.77,5309.1300000000001,-2738.3499999999999
171477.0,18461.400000000001,-8376.8500000000004,-1766.9100000000001,9351.5300000000007,3043.7399999999998,4187.6099999999997,-2557.1700000000001
171478.0,16938.900000000001,-8604.1000000000004,-1927.5599999999999,8147.7200000000003,3196.0900000000001,3139.6199999999999,-2109.8000000000002
171479.0,16040.9,-8673.0900000000001,-1955.8299999999999,7657.5200000000004,3353.6399999999999,2106.9400000000001,-1647.21
171480.0,15258.1,-8688.1499999999996,-2038.3199999999999,7207.6700000000001,3434.5799999999999,917.53700000000003,-1110.6700000000001
171481.0,14474.5,-8478.8400000000001,-2077.3000000000002,6606.21,3478.4400000000001,-278.55099999999999,-579.61199999999997
171482.0,13933.299999999999,-8242.5,-2149.9000000000001,5945.7799999999997,3482.2199999999998,-1386.8900000000001,-44.899000000000001
171483.0,13685.5,-7881.8400000000001,-2134.2800000000002,5442.5900000000001,3440.4299999999998,-2398.8000000000002,419.93799999999999
171484.0,13637.6,-7467.4700000000003,-2166.4299999999998,4966.1599999999999,3380.0599999999999,-3309.8600000000001,828.35199999999998
171485.0,13625.9,-6930.6199999999999,-2146.0,4543.46,3293.1100000000001,-4072.2399999999998,1115.72
171486.0,13630.700000000001,-6439.7600000000002,-2073.5799999999999,4081.9200000000001,3162.9000000000001,-4697.8599999999997,1383.6800000000001
171487.0,20320.200000000001,-7736.0299999999997,-1810.6400000000001,9756.7700000000004,2689.5999999999999,6651.3199999999997,-2647.6999999999998
171488.0,21027.5,-7715.3500000000004,-1497.9100000000001,11253.700000000001,2797.1799999999998,6195.9399999999996,-2767.1700000000001
171489.0,20600.099999999999,-8149.5,-1736.73,11065.299999999999,2889.6700000000001,5438.8699999999999,-2796.3499999999999
171490.0,18908.5,-8360.4899999999998,-1785.3900000000001,9819.1700000000001,3020.9200000000001,4298.5600000000004,-2615.3800000000001
171491.0,17508.900000000001,-8716.5200000000004,-1996.1600000000001,8615.2299999999996,3246.2600000000002,3259.48,-2159.9000000000001
171492.0,16682.700000000001,-8964.5599999999995,-2031.0,8090.96,3430.1900000000001,2152.3099999999999,-1674.1099999999999
171493.0,15882.1,-9063.6700000000001,-2138.3600000000001,7538.0900000000001,3538.5599999999999,884.61400000000003,-1113.8599999999999
171494.0,15130.9,-8891.8299999999999,-2158.5,6909.1000000000004,3603.9400000000001,-363.613,-567.81500000000005
171495.0,14544.299999999999,-8650.9799999999996,-2229.8000000000002,6163.1800000000003,3601.9099999999999,-1531.8,-53.802999999999997
171496.0,14196.200000000001,-8202.2000000000007,-2181.1599999999999,5623.2399999999998,3538.27,-2537.6599999999999,409.57799999999997
171497.0,14099.9,-7774.3299999999999,-2238.7600000000002,5103.3500000000004,3448.8899999999999,-3458.9200000000001,824.43399999999997
171498.0,14050.299999999999,-7128.4200000000001,-2159.3200000000002,4749.79,3339.6799999999998,-4221.7399999999998,1113.8199999999999
171499.0,13963.200000000001,-6592.9300000000003,-2101.3200000000002,4235.2600000000002,3178.7600000000002,-4834.8699999999999,1383.3
171500.0,20895.299999999999,-7739.3800000000001,-1730.23,10318.4,2545.73,6852.7200000000003,-2745.4299999999998
171501.0,21416.700000000001,-7710.3999999999996,-1463.3699999999999,11617.700000000001,2629.0900000000001,6373.7399999999998,-2840.6599999999999
171502.0,21018.299999999999,-8144.5699999999997,-1639.4400000000001,11519.4,2764.98,5574.2299999999996,-2860.3600000000001
171503.0,19475.700000000001,-8385.2000000000007,-1777.4400000000001,10357.5,3020.0799999999999,4446.8100000000004,-2677.9000000000001
171504.0,18229.400000000001,-8912.6800000000003,-2026.4300000000001,9193.4300000000003,3316.7399999999998,3364.1199999999999,-2220.1199999999999
171505.0,17373.099999999999,-9311.3999999999996,-2120.6599999999999,8538.1499999999996,3523.6799999999998,2153.9299999999998,-1702.5899999999999
171506.0,16557.200000000001,-9440.8299999999999,-2242.0100000000002,7922.1099999999997,3658.4200000000001,821.73900000000003,-1104.8199999999999
171507.0,15805.299999999999,-9382.7700000000004,-2329.5599999999999,7155.9399999999996,3724.0700000000002,-473.36000000000001,-548.95100000000002
171508.0,15151.5,-9120.0599999999995,-2388.96,6325.3299999999999,3714.1900000000001,-1659.9000000000001,-64.6083
171509.0,14732.299999999999,-8583.8500000000004,-2279.0900000000001,5787.2299999999996,3635.73,-2660.7399999999998,397.18000000000001
171510.0,14572.299999999999,-8124.6999999999998,-2333.25,5230.3500000000004,3518.6900000000001,-3591.1700000000001,809.53599999999994
171511.0,14496.799999999999,-7390.3400000000001,-2206.98,4929.79,3388.29,-4367.4499999999998,1110.5
171512.0,14334.200000000001,-6833.6099999999997,-2189.5799999999999,4337.04,3204.1500000000001,-4983.1300000000001,1378.6300000000001
171513.0,21388.200000000001,-7601.6700000000001,-1576.3299999999999,10945.200000000001,2385.29,7021.6899999999996,-2824.6599999999999
171514.0,21787.700000000001,-7699.8500000000004,-1452.97,11942.5,2468.6500000000001,6560.6899999999996,-2895.4400000000001
171515.0,21392.099999999999,-8177.4499999999998,-1595.45,11868.1,2653.1599999999999,5725.1099999999997,-2884.79
171516.0,20229.799999999999,-8583.7199999999993,-1823.8099999999999,10921.799999999999,3045.4699999999998,4647.3500000000004,-2727.5100000000002
171517.0,19089.700000000001,-9263.2399999999998,-2081.9200000000001,9789.5,3393.4200000000001,3468.5599999999999,-2311.2399999999998
171518.0,18137.900000000001,-9693.3099999999995,-2177.48,9042.4599999999991,3626.21,2127.8600000000001,-1755.8099999999999
171519.0,17305.599999999999,-9798.75,-2274.1300000000001,8413.25,3782.6199999999999,711.23099999999999,-1122.78
171520.0,16444.799999999999,-9691.5300000000007,-2352.4699999999998,7540.21,3829.9899999999998,-632.14099999999996,-546.39599999999996
171521.0,15714.6,-9393.4400000000005,-2414.1300000000001,6643.4499999999998,3803.9499999999998,-1784.8499999999999,-67.474199999999996
171522.0,15254.700000000001,-8895.9699999999993,-2354.4899999999998,6024.1099999999997,3714.8200000000002,-2771.5500000000002,391.69400000000002
171523.0,15034.799999999999,-8421.2299999999996,-2425.5100000000002,5418.9499999999998,3581.9899999999998,-3704.2800000000002,789.38300000000004
171524.0,14936.200000000001,-7625.5,-2275.5799999999999,5142.0100000000002,3432.04,-4502.1599999999999,1098.4300000000001
171525.0,14704.700000000001,-7023.4499999999998,-2270.2399999999998,4498.0600000000004,3230.9099999999999,-5123.4499999999998,1364.95
171526.0,21827.200000000001,-7425.8100000000004,-1451.1700000000001,11549.4,2192.8600000000001,7166.6300000000001,-2917.4299999999998
171527.0,22093.099999999999,-7608.8000000000002,-1436.73,12338.6,2310.02,6678.8999999999996,-2909.77
171528.0,21760.400000000001,-8237.8400000000001,-1686.1300000000001,12161.0,2575.02,5877.25,-2863.8800000000001
171529.0,21105.400000000001,-8858.1900000000005,-1864.78,11560.200000000001,3078.0799999999999,4877.5900000000001,-2745.6900000000001
171530.0,20074.700000000001,-9749.3799999999992,-2162.1199999999999,10399.299999999999,3487.6999999999998,3586.4200000000001,-2398.0999999999999
171531.0,19039.099999999999,-10156.200000000001,-2193.4000000000001,9614.3299999999999,3746.79,2118.6599999999999,-1830.54
171532.0,18123.099999999999,-10239.9,-2254.6399999999999,8930.2800000000007,3873.9699999999998,595.32000000000005,-1180.3199999999999
171533.0,17061.700000000001,-10024.200000000001,-2354.6900000000001,7907.8800000000001,3883.9699999999998,-803.59400000000005,-593.79100000000005
171534.0,16224.799999999999,-9619.4099999999999,-2394.0900000000001,6990.3900000000003,3837.4400000000001,-1911.45,-95.809899999999999
171535.0,15738.6,-9098.5699999999997,-2325.6300000000001,6368.21,3740.3299999999999,-2885.0300000000002,376.62400000000002
171536.0,15482.700000000001,-8603.8899999999994,-2412.3000000000002,5748.8100000000004,3607.0300000000002,-3807.8499999999999,755.77999999999997
171537.0,15356.299999999999,-7735.2700000000004,-2230.1799999999998,5503.5200000000004,3444.1500000000001,-4622.1899999999996,1071.3599999999999
171538.0,15069.9,-7131.2600000000002,-2279.2800000000002,4773.9300000000003,3235.0799999999999,-5251.04,1350.6099999999999
171539.0,22281.400000000001,-7094.0,-1198.48,12280.299999999999,1965.0799999999999,7332.1199999999999,-3038.5900000000001
171540.0,22370.400000000001,-7478.5900000000001,-1453.4200000000001,12786.299999999999,2163.8699999999999,6725.5600000000004,-2933.8099999999999
171541.0,22173.099999999999,-8082.2399999999998,-1671.48,12726.4,2527.02,5992.5699999999997,-2831.9499999999998
171542.0,21954.400000000001,-9179.1700000000001,-1994.8099999999999,12172.700000000001,3091.6500000000001,5078.6700000000001,-2697.23
171543.0,21120.599999999999,-10278.200000000001,-2245.5799999999999,11067.4,3572.7600000000002,3727.1100000000001,-2409.1700000000001
171544.0,20077.700000000001,-10831.200000000001,-2274.3099999999999,10156.799999999999,3861.21,2120.3400000000001,-1895.1900000000001
171545.0,18969.799999999999,-10809.6,-2265.25,9365.4599999999991,3950.5999999999999,462.262,-1256.0899999999999
171546.0,17707.400000000001,-10407.5,-2357.6599999999999,8262.1200000000008,3935.5500000000002,-946.16300000000001,-666.87
171547.0,16760.299999999999,-9843.3999999999996,-2316.0900000000001,7391.9700000000003,3857.0100000000002,-2018.9400000000001,-151.49600000000001
171548.0,16207.0,-9373.1800000000003,-2331.4200000000001,6656.3199999999997,3732.6500000000001,-2992.8299999999999,337.16399999999999
171549.0,15933.299999999999,-8782.8700000000008,-2356.3800000000001,6130.0,3595.3800000000001,-3904.02,709.61000000000001
171550.0,15787.200000000001,-7933.9399999999996,-2236.9000000000001,5822.7299999999996,3422.0500000000002,-4745.1199999999999,1037.05
171551.0,15471.1,-7209.0799999999999,-2224.6999999999998,5122.5500000000002,3210.7199999999998,-5402.6099999999997,1343.6199999999999
171552.0,22777.200000000001,-6917.8800000000001,-1117.1400000000001,12876.6,1696.74,7525.3800000000001,-3142.21
171553.0,22727.900000000001,-7220.2799999999997,-1343.28,13430.9,2012.54,6779.9799999999996,-2992.1300000000001
171554.0,22739.0,-7932.0699999999997,-1619.47,13479.0,2481.6999999999998,6085.0299999999997,-2850.8699999999999
171555.0,22719.5,-9288.4500000000007,-1956.29,13018.0,3092.0900000000001,5129.0799999999999,-2632.25
171556.0,22079.299999999999,-10740.0,-2379.2800000000002,11783.700000000001,3635.8499999999999,3776.2199999999998,-2320.4899999999998
171557.0,21089.799999999999,-11564.9,-2495.54,10647.4,3928.98,2122.3800000000001,-1894.4200000000001
171558.0,19761.799999999999,-11402.5,-2356.5700000000002,9727.8999999999996,3990.7399999999998,367.39100000000002,-1312.49
171559.0,18374.599999999999,-10885.9,-2423.8699999999999,8572.8199999999997,3966.6100000000001,-1040.8499999999999,-727.36699999999996
171560.0,17346.400000000001,-10251.5,-2365.3200000000002,7684.8599999999997,3866.79,-2117.0999999999999,-214.83000000000001
171561.0,16686.5,-9698.0900000000001,-2368.3000000000002,6920.7600000000002,3720.8200000000002,-3086.3699999999999,276.34100000000001
171562.0,16406.700000000001,-9045.0200000000004,-2358.3699999999999,6469.6000000000004,3576.3800000000001,-3992.5700000000002,661.59299999999996
171563.0,16277.0,-8184.5600000000004,-2263.21,6153.1800000000003,3404.1399999999999,-4878.8999999999996,1004.97
171564.0,15942.799999999999,-7400.1300000000001,-2261.6799999999998,5405.5,3193.6700000000001,-5586.6599999999999,1336.0
171565.0,23311.900000000001,-6606.1700000000001,-966.67200000000003,13625.0,1438.9000000000001,7749.5799999999999,-3165.0599999999999
171566.0,23260.099999999999,-7126.54,-1405.8099999999999,14028.4,1867.1900000000001,6902.4899999999998,-3077.04
171567.0,23490.799999999999,-7797.7399999999998,-1499.99,14402.799999999999,2394.1999999999998,6228.8500000000004,-2916.29
171568.0,23546.400000000001,-9552.3799999999992,-2024.02,13815.0,3055.0300000000002,5116.6099999999997,-2652.1199999999999
171569.0,22946.700000000001,-10882.1,-2235.54,12803.4,3663.6100000000001,3639.2600000000002,-2279.1799999999998
171570.0,21860.299999999999,-11887.200000000001,-2509.25,11339.4,3941.8800000000001,1961.1300000000001,-1836.4300000000001
171571.0,20383.099999999999,-11714.0,-2428.5599999999999,10189.4,3989.98,247.255,-1282.21
171572.0,18967.299999999999,-11254.5,-2575.3299999999999,8924.8099999999995,3961.3000000000002,-1106.6700000000001,-734.08199999999999
171573.0,17893.900000000001,-10565.0,-2454.6399999999999,8048.0,3853.71,-2173.9299999999998,-257.31099999999998
171574.0,17164.799999999999,-10011.1,-2489.2399999999998,7210.0799999999999,3706.2800000000002,-3144.3499999999999,222.19300000000001
171575.0,16885.099999999999,-9291.6800000000003,-2408.6799999999998,6840.3299999999999,3554.0999999999999,-4060.98,620.47400000000005
171576.0,16813.900000000001,-8488.9500000000007,-2366.73,6477.9099999999999,3387.0999999999999,-5019.0200000000004,976.11099999999999
171577.0,16472.799999999999,-7559.0900000000001,-2300.5799999999999,5756.8400000000001,3187.0300000000002,-5793.7200000000003,1321.29
171578.0,23826.400000000001,-6491.1400000000003,-1037.2,14278.200000000001,1190.3900000000001,7891.5,-3097.5300000000002
171579.0,24012.0,-6889.3400000000001,-1333.22,14938.0,1751.52,7103.1599999999999,-3161.3000000000002
171580.0,24412.0,-7879.5799999999999,-1552.5799999999999,15269.4,2328.1999999999998,6409.5699999999997,-2999.77
171581.0,24524.700000000001,-9784.4500000000007,-1988.4100000000001,14777.299999999999,3008.02,5142.7700000000004,-2732.3800000000001
171582.0,23831.5,-11140.299999999999,-2129.8400000000001,13738.700000000001,3589.8499999999999,3491.98,-2360.1300000000001
171583.0,22424.099999999999,-11962.9,-2335.3299999999999,12096.1,3829.6900000000001,1698.1300000000001,-1852.4200000000001
171584.0,20824.099999999999,-11624.5,-2238.8200000000002,10880.0,3899.0100000000002,31.043800000000001,-1253.22
171585.0,19437.5,-11216.799999999999,-2484.0799999999999,9550.8899999999994,3896.8099999999999,-1230.99,-711.09400000000005
171586.0,18364.5,-10598.299999999999,-2404.52,8610.1399999999994,3796.54,-2243.6599999999999,-257.20600000000002
171587.0,17635.0,-10072.5,-2462.2800000000002,7742.0200000000004,3662.3800000000001,-3210.9000000000001,201.72
171588.0,17370.799999999999,-9384.75,-2389.1500000000001,7372.1400000000003,3511.96,-4130.3500000000004,593.26700000000005
171589.0,17355.5,-8619.1000000000004,-2350.48,6991.9700000000003,3345.6500000000001,-5157.0100000000002,949.99800000000005
171590.0,17047.5,-7666.5500000000002,-2327.0,6218.0900000000001,3171.5,-6005.29,1303.4300000000001
171591.0,24279.200000000001,-6099.0799999999999,-931.84100000000001,15188.799999999999,944.81200000000001,7937.4499999999998,-3050.5700000000002
171592.0,24892.799999999999,-6737.4499999999998,-1407.6900000000001,15880.9,1642.8199999999999,7335.3999999999996,-3198.1700000000001
171593.0,25508.200000000001,-7927.1499999999996,-1520.8399999999999,16342.0,2265.1300000000001,6649.4700000000003,-3059.02
171594.0,25619.0,-10213.700000000001,-2017.8099999999999,15680.0,2953.6199999999999,5186.8000000000002,-2829.52
171595.0,24715.799999999999,-11409.799999999999,-1968.76,14656.6,3488.2800000000002,3348.4099999999999,-2465.5500000000002
171596.0,22950.0,-12111.9,-2238.5599999999999,12711.700000000001,3674.4000000000001,1460.0,-1932.3299999999999
171597.0,21188.599999999999,-11589.700000000001,-2107.5500000000002,11447.5,3723.5599999999999,-169.09800000000001,-1303.0599999999999
171598.0,19829.299999999999,-11097.9,-2299.27,10220.6,3725.9000000000001,-1370.4000000000001,-730.21400000000006
171599.0,18775.700000000001,-10535.4,-2257.3099999999999,9244.3600000000006,3642.1300000000001,-2344.3400000000001,-267.36500000000001
171600.0,18095.5,-10085.5,-2396.0900000000001,8331.8099999999995,3545.6799999999998,-3313.0700000000002,177.72399999999999
171601.0,17871.5,-9401.1599999999999,-2302.5100000000002,8006.4399999999996,3414.46,-4227.7399999999998,561.98500000000001
171602.0,17888.799999999999,-8739.6399999999994,-2335.1100000000001,7521.7600000000002,3250.4000000000001,-5306.0299999999997,921.75999999999999
171603.0,17671.0,-7697.3900000000003,-2250.8499999999999,6826.7600000000002,3110.1900000000001,-6238.2700000000004,1289.3599999999999
171604.0,24785.599999999999,-5733.6899999999996,-929.06500000000005,16070.799999999999,709.93100000000004,7972.5,-3075.1999999999998
171605.0,25869.400000000001,-6342.5500000000002,-1301.95,17200.200000000001,1552.52,7530.3000000000002,-3208.5
171606.0,26697.299999999999,-8131.9099999999999,-1649.6700000000001,17405.0,2209.6599999999999,6865.6800000000003,-3058.9099999999999
171607.0,26723.799999999999,-10605.200000000001,-1963.23,16646.900000000001,2851.3600000000001,5256.5299999999997,-2888.5999999999999
171608.0,25558.299999999999,-11856.1,-1903.1700000000001,15363.1,3341.8699999999999,3222.25,-2552.1399999999999
171609.0,23459.700000000001,-12306.5,-2156.3699999999999,13244.700000000001,3512.5300000000002,1245.5699999999999,-2012.49
171610.0,21580.299999999999,-11628.5,-2039.3699999999999,11950.0,3556.4200000000001,-312.077,-1375.3199999999999
171611.0,20256.299999999999,-11127.200000000001,-2248.1399999999999,10763.200000000001,3561.0500000000002,-1506.52,-775.47900000000004
171612.0,19193.200000000001,-10611.4,-2267.2600000000002,9727.9300000000003,3483.6500000000001,-2457.0100000000002,-295.55399999999997
171613.0,18590.299999999999,-10127.299999999999,-2357.1599999999999,8922.8999999999996,3414.0,-3430.8299999999999,139.358
171614.0,18410.799999999999,-9454.8799999999992,-2242.9400000000001,8632.6499999999996,3295.6799999999998,-4351.4200000000001,530.23800000000006
171615.0,18457.5,-8846.0,-2294.25,8085.8900000000003,3137.7399999999998,-5478.9300000000003,895.86699999999996
171616.0,18348.299999999999,-7803.1800000000003,-2207.1500000000001,7409.8699999999999,3023.23,-6499.29,1277.72
171617.0,25456.700000000001,-5173.3599999999997,-745.39300000000003,17233.5,490.27600000000001,8059.4499999999998,-3162.1999999999998
171618.0,27052.099999999999,-6067.9700000000003,-1218.24,18617.400000000001,1462.79,7766.8800000000001,-3227.75
171619.0,27945.599999999999,-8255.1599999999999,-1527.28,18767.799999999999,2144.9899999999998,6951.6400000000003,-3081.1700000000001
171620.0,27651.900000000001,-10976.1,-1947.3,17520.700000000001,2723.1500000000001,5188.1000000000004,-2906.1500000000001
171621.0,26215.0,-12188.4,-1886.47,15980.700000000001,3140.4699999999998,3068.2800000000002,-2579.5100000000002
171622.0,23873.799999999999,-12435.700000000001,-2184.0999999999999,13702.299999999999,3336.8000000000002,1084.8199999999999,-2056.8099999999999
171623.0,22016.299999999999,-11766.5,-2111.6599999999999,12390.299999999999,3399.75,-379.54500000000002,-1423.1400000000001
171624.0,20752.099999999999,-11178.6,-2194.0599999999999,11350.1,3404.0900000000001,-1629.29,-831.01400000000001
171625.0,19648.5,-10647.799999999999,-2263.8400000000001,10271.200000000001,3338.6100000000001,-2567.4400000000001,-336.63299999999998
171626.0,19131.799999999999,-10192.9,-2353.52,9530.4599999999991,3279.27,-3553.8299999999999,99.447900000000004
171627.0,18998.200000000001,-9553.5200000000004,-2246.3499999999999,9235.4699999999993,3168.6999999999998,-4505.9099999999999,507.90800000000002
171628.0,19064.200000000001,-9038.3199999999997,-2362.73,8574.8999999999996,3017.7800000000002,-5675.6999999999998,870.00099999999998
171629.0,19055.400000000001,-7936.96,-2188.9699999999998,7981.6499999999996,2915.6799999999998,-6779.2399999999998,1263.6800000000001
171630.0,26510.599999999999,-4741.25,-545.78800000000001,18557.099999999999,317.82799999999997,8319.2399999999998,-3276.8099999999999
171631.0,28455.700000000001,-5965.8199999999997,-992.22699999999998,20193.900000000001,1343.0899999999999,8027.8900000000003,-3266.77
171632.0,29220.700000000001,-8676.4599999999991,-1480.2,19951.700000000001,1974.72,6987.6899999999996,-3179.3099999999999
171633.0,28442.700000000001,-11115.6,-1662.6500000000001,18514.099999999999,2526.5,5004.4399999999996,-3028.5799999999999
171634.0,26571.200000000001,-12206.9,-1762.99,16578.799999999999,2908.4699999999998,2770.2600000000002,-2618.6700000000001
171635.0,24168.900000000001,-12163.6,-2050.2600000000002,14398.5,3156.0999999999999,914.51199999999994,-2045.3900000000001
171636.0,22440.400000000001,-11677.799999999999,-2110.7600000000002,13032.1,3224.6799999999998,-445.10000000000002,-1422.8699999999999
171637.0,21229.599999999999,-11184.6,-2230.9699999999998,11944.299999999999,3234.2600000000002,-1736.6900000000001,-864.03599999999994
171638.0,20155.599999999999,-10621.1,-2320.27,10909.5,3204.0500000000002,-2664.9200000000001,-362.12599999999998
171639.0,19701.799999999999,-10188.1,-2389.3000000000002,10212.1,3139.7600000000002,-3682.5100000000002,68.959199999999996
171640.0,19605.299999999999,-9529.9899999999998,-2251.29,9931.1100000000006,3032.7800000000002,-4689.5600000000004,494.80200000000002
171641.0,19664.599999999999,-9061.9699999999993,-2410.0100000000002,9187.3600000000006,2890.46,-5876.4499999999998,844.84000000000003
171642.0,19741.299999999999,-7976.8699999999999,-2206.0999999999999,8600.3400000000001,2787.6199999999999,-7054.54,1246.8599999999999
171643.0,28060.5,-4596.6300000000001,-333.262,20066.099999999999,135.53299999999999,8810.2299999999996,-3326.4299999999998
171644.0,30036.299999999999,-6345.8400000000001,-824.78300000000002,21653.799999999999,1147.3699999999999,8221.7000000000007,-3443.1300000000001
171645.0,30307.0,-9062.4599999999991,-1393.5,20968.099999999999,1731.6400000000001,6957.3699999999999,-3364.4099999999999
171646.0,29134.0,-11307.1,-1471.98,19281.400000000001,2205.54,4888.04,-3213.1399999999999
171647.0,26760.700000000001,-12053.6,-1615.0599999999999,17103.400000000001,2582.21,2499.1799999999998,-2748.0900000000001
171648.0,24436.299999999999,-11699.700000000001,-1801.8699999999999,15242.799999999999,2910.8200000000002,760.98099999999999,-2064.4400000000001
171649.0,22860.299999999999,-11479.1,-2057.9899999999998,13770.4,2999.4000000000001,-575.53499999999997,-1436.76
171650.0,21656.900000000001,-10858.1,-2050.8099999999999,12795.700000000001,3025.8800000000001,-1864.5699999999999,-890.24400000000003
171651.0,20743.599999999999,-10398.299999999999,-2241.75,11807.299999999999,3043.8600000000001,-2804.54,-368.81200000000001
171652.0,20321.5,-10007.9,-2328.8899999999999,11079.700000000001,2981.7199999999998,-3854.3400000000001,32.951900000000002
171653.0,20225.599999999999,-9352.8600000000006,-2190.54,10745.700000000001,2872.2399999999998,-4911.2399999999998,470.18700000000001
171654.0,20278.299999999999,-8875.8899999999994,-2333.4499999999998,9982.6499999999996,2737.79,-6100.8299999999999,815.54200000000003
171655.0,20396.599999999999,-7827.5200000000004,-2105.3000000000002,9371.5400000000009,2619.2800000000002,-7321.96,1220.6199999999999
171656.0,29641.599999999999,-4740.9099999999999,-414.86500000000001,21370.099999999999,-110.732,9275.7800000000007,-3312.7800000000002
171657.0,31656.400000000001,-6993.8000000000002,-897.077,22791.0,844.04600000000005,8473.9799999999996,-3735.1100000000001
171658.0,31234.900000000001,-9151.3500000000004,-1092.5999999999999,21985.099999999999,1450.0999999999999,6961.1000000000004,-3671.5900000000001
171659.0,29557.5,-11414.799999999999,-1384.1600000000001,19815.0,1837.53,4722.0500000000002,-3364.73
171660.0,26935.900000000001,-11670.1,-1431.6900000000001,17750.099999999999,2265.6999999999998,2332.0599999999999,-2867.73
171661.0,24818.5,-11360.9,-1662.25,16066.9,2617.3699999999999,694.84400000000005,-2130.7399999999998
171662.0,23292.099999999999,-11176.9,-1898.23,14618.9,2706.02,-721.96100000000001,-1508.3
171663.0,22122.099999999999,-10616.6,-1987.9000000000001,13600.6,2774.4099999999999,-1969.8299999999999,-946.91999999999996
171664.0,21425.599999999999,-10176.5,-2142.4699999999998,12800.4,2832.2199999999998,-2978.8800000000001,-401.93200000000002
171665.0,21012.400000000001,-9831.5599999999995,-2272.0700000000002,12004.9,2782.6399999999999,-4057.2399999999998,-24.670400000000001
171666.0,20882.799999999999,-9110.5400000000009,-2068.7199999999998,11658.299999999999,2658.2199999999998,-5153.5699999999997,421.24700000000001
171667.0,20924.200000000001,-8669.4599999999991,-2226.54,10822.4,2518.3800000000001,-6354.8699999999999,770.85500000000002
171668.0,21038.099999999999,-7663.6999999999998,-1981.99,10139.1,2375.96,-7603.21,1178.95
171669.0,30805.400000000001,-4602.6199999999999,-353.31299999999999,22573.900000000001,-336.31900000000002,9549.7399999999998,-3361.75
171670.0,32994.900000000001,-7293.9499999999998,-964.40999999999997,23831.700000000001,539.20899999999995,8762.8600000000006,-3897.5
171671.0,32160.5,-9113.5100000000002,-812.70399999999995,22984.900000000001,1090.6500000000001,7095.5500000000002,-3954.75
171672.0,29724.200000000001,-11304.5,-1333.8,20206.5,1425.6400000000001,4562.3500000000004,-3503.1199999999999
171673.0,27185.299999999999,-11156.6,-1173.28,18570.900000000001,1944.8499999999999,2256.23,-2933.23
171674.0,25318.599999999999,-11154.6,-1620.8099999999999,16876.700000000001,2294.5300000000002,658.09799999999996,-2201.4499999999998
171675.0,23761.599999999999,-10924.799999999999,-1866.5599999999999,15414.200000000001,2416.3800000000001,-845.73099999999999,-1606.48
171676.0,22715.900000000001,-10334.0,-1920.4100000000001,14559.700000000001,2534.3099999999999,-2054.5700000000002,-1006.74
171677.0,22200.099999999999,-10020.5,-2109.9200000000001,13805.5,2604.1999999999998,-3167.4899999999998,-455.89800000000002
171678.0,21794.299999999999,-9655.4099999999999,-2232.6300000000001,12989.9,2575.5799999999999,-4291.8400000000001,-72.960300000000004
171679.0,21615.400000000001,-8963.5599999999995,-2089.3899999999999,12498.299999999999,2442.1900000000001,-5433.5299999999997,378.11200000000002
171680.0,21604.799999999999,-8478.1800000000003,-2196.9699999999998,11619.4,2287.27,-6640.9499999999998,738.678
171681.0,21686.0,-7541.2799999999997,-1959.1600000000001,10823.9,2112.48,-7895.2299999999996,1149.8599999999999
171682.0,31730.299999999999,-4398.7200000000003,-208.50700000000001,23710.900000000001,-730.779,9613.0400000000009,-3561.4699999999998
171683.0,33808.300000000003,-6975.9799999999996,-601.08500000000004,25010.0,167.81899999999999,8886.4599999999991,-3923.1999999999998
171684.0,32916.599999999999,-9008.8299999999999,-563.47299999999996,23970.799999999999,682.85199999999998,7139.9899999999998,-4029.3299999999999
171685.0,29804.099999999999,-10889.200000000001,-1291.52,20713.5,1044.22,4416.6999999999998,-3603.5599999999999
171686.0,27494.700000000001,-10633.0,-1035.0,19418.599999999999,1589.3699999999999,2246.54,-2969.5700000000002
171687.0,25843.400000000001,-10883.9,-1588.51,17747.599999999999,1941.6900000000001,639.15200000000004,-2259.6199999999999
171688.0,24352.599999999999,-10540.1,-1760.1500000000001,16435.799999999999,2150.3800000000001,-926.25800000000004,-1699.8099999999999
171689.0,23478.5,-10074.299999999999,-1874.5599999999999,15649.6,2308.6799999999998,-2146.4899999999998,-1064.78
171690.0,23069.299999999999,-9852.7399999999998,-2080.4400000000001,14887.9,2377.1100000000001,-3377.8099999999999,-515.05399999999997
171691.0,22685.200000000001,-9417.3899999999994,-2149.1799999999998,14103.6,2363.8499999999999,-4571.9399999999996,-109.191
171692.0,22442.799999999999,-8727.8299999999999,-2067.0700000000002,13458.5,2226.5599999999999,-5763.4700000000003,332.99000000000001
171693.0,22326.900000000001,-8130.3199999999997,-2092.3499999999999,12532.4,2049.3899999999999,-6969.9799999999996,708.13099999999997
171694.0,22331.799999999999,-7304.3699999999999,-1938.79,11531.4,1836.3699999999999,-8210.2299999999996,1134.1500000000001
171695.0,32742.400000000001,-3670.48,245.08600000000001,25133.5,-1210.0599999999999,9837.3500000000004,-3878.6999999999998
171696.0,34275.900000000001,-6557.5600000000004,-199.13300000000001,25918.900000000001,-398.38799999999998,8895.8400000000001,-4012.5900000000001
171697.0,33166.599999999999,-8745.2399999999998,-305.98000000000002,24736.0,131.65299999999999,6910.8199999999997,-3959.5500000000002
171698.0,29994.299999999999,-10242.0,-1179.1600000000001,21504.900000000001,681.24900000000002,4297.21,-3678.1999999999998
171699.0,27828.700000000001,-9885.8400000000001,-796.73299999999995,20460.700000000001,1224.21,2242.9699999999998,-3008.0900000000001
171700.0,26353.299999999999,-10511.1,-1573.4300000000001,18663.599999999999,1575.9200000000001,600.80999999999995,-2285.6399999999999
171701.0,25093.900000000001,-10104.1,-1647.3099999999999,17644.099999999999,1881.8,-986.12,-1764.74
171702.0,24410.099999999999,-9843.0799999999999,-1866.8099999999999,16863.5,2069.96,-2262.8600000000001,-1124.8399999999999
171703.0,24043.900000000001,-9610.7399999999998,-2016.3900000000001,16111.6,2142.1599999999999,-3621.5799999999999,-584.51900000000001
171704.0,23670.299999999999,-9194.0400000000009,-2134.1500000000001,15243.700000000001,2137.1700000000001,-4898.9300000000003,-148.92699999999999
171705.0,23364.099999999999,-8427.6299999999992,-2050.5500000000002,14506.700000000001,2003.1800000000001,-6143.0200000000004,280.423
171706.0,23102.900000000001,-7748.6899999999996,-2058.46,13445.0,1802.8699999999999,-7342.1199999999999,662.70600000000002
171707.0,22972.5,-6856.3199999999997,-1851.75,12356.6,1552.0799999999999,-8540.3500000000004,1105.6400000000001
171708.0,33907.300000000003,-2667.2199999999998,1074.99,26916.200000000001,-1755.24,10178.799999999999,-4129.6300000000001
171709.0,34657.900000000001,-6488.1899999999996,-230.46000000000001,26336.799999999999,-1086.49,8815.4799999999996,-4213.5799999999999
171710.0,32892.199999999997,-7857.4099999999999,103.86,25413.200000000001,-463.96199999999999,6567.0100000000002,-3934.3400000000001
171711.0,30300.299999999999,-9626.5,-1143.1800000000001,22345.099999999999,269.93200000000002,4246.4899999999998,-3690.79
171712.0,28279.799999999999,-9022.2399999999998,-428.47199999999998,21715.099999999999,816.46799999999996,2256.1999999999998,-3054.5599999999999
171713.0,26895.0,-10143.6,-1630.03,19559.900000000001,1190.8800000000001,537.17100000000005,-2332.7399999999998
171714.0,25977.599999999999,-9447.4099999999999,-1316.3299999999999,19201.299999999999,1595.04,-1058.1099999999999,-1819.27
171715.0,25501.299999999999,-9691.1299999999992,-1946.27,18132.099999999999,1816.3,-2418.4200000000001,-1189.1099999999999
171716.0,25150.0,-9202.8500000000004,-1813.8199999999999,17593.0,1901.8800000000001,-3902.7800000000002,-671.69000000000005
171717.0,24754.0,-8925.1700000000001,-2112.8800000000001,16473.0,1893.26,-5273.1999999999998,-209.81800000000001
171718.0,24380.0,-7928.1300000000001,-1866.49,15793.799999999999,1753.71,-6566.3299999999999,208.523
171719.0,23952.799999999999,-7268.8100000000004,-1981.0,14460.5,1527.9000000000001,-7755.7399999999998,593.59000000000003
171720.0,23633.400000000001,-6255.8599999999997,-1710.8800000000001,13288.6,1239.5899999999999,-8884.0300000000007,1054.76
171721.0,34900.900000000001,-2135.8299999999999,1512.95,28019.0,-2421.1999999999998,10501.200000000001,-4361.4099999999999
171722.0,34871.599999999999,-5896.4300000000003,131.083,27029.200000000001,-1783.48,8677.7000000000007,-4419.9899999999998
171723.0,32581.900000000001,-6877.8999999999996,344.15199999999999,25917.700000000001,-981.24099999999999,6325.7299999999996,-3991.2600000000002
171724.0,30572.5,-8731.6399999999994,-828.25199999999995,23423.400000000001,-219.93299999999999,4172.1099999999997,-3653.25
171725.0,28843.599999999999,-8388.4200000000001,-298.59300000000002,22838.099999999999,371.99000000000001,2253.1500000000001,-3075.9400000000001
171726.0,27569.099999999999,-9631.4500000000007,-1601.8800000000001,20674.900000000001,817.11900000000003,507.39999999999998,-2427.25
171727.0,27007.900000000001,-9021.0,-1196.5799999999999,20659.400000000001,1280.7,-1126.72,-1895.79
171728.0,26742.599999999999,-9435.8299999999999,-1902.9000000000001,19631.700000000001,1541.76,-2612.5300000000002,-1272.4100000000001
171729.0,26389.799999999999,-8918.4799999999996,-1747.3699999999999,19052.799999999999,1639.8,-4214.8599999999997,-780.73500000000001
171730.0,25947.299999999999,-8605.6100000000006,-2086.73,17811.0,1627.74,-5683.46,-305.10399999999998
171731.0,25472.700000000001,-7526.1000000000004,-1862.3599999999999,16999.200000000001,1476.1900000000001,-7014.8199999999997,109.52200000000001
171732.0,24866.200000000001,-6741.1599999999999,-1978.1700000000001,15501.700000000001,1229.02,-8196.0300000000007,510.40100000000001
171733.0,24345.599999999999,-5613.8699999999999,-1708.5599999999999,14219.0,921.697,-9237.0499999999993,1008.86
171734.0,35541.199999999997,-2007.99,1493.99,28386.599999999999,-3227.77,10638.4,-4573.0799999999999
171735.0,34826.699999999997,-4837.5699999999997,687.53200000000004,27798.099999999999,-2469.2399999999998,8526.9599999999991,-4516.0799999999999
171736.0,32638.099999999999,-6071.5200000000004,404.375,26512.599999999999,-1511.55,6218.0500000000002,-4072.3299999999999
171737.0,30794.5,-7741.7200000000003,-546.25900000000001,24437.0,-757.39999999999998,4095.9899999999998,-3676.3400000000001
171738.0,29436.099999999999,-7835.6800000000003,-317.31599999999997,23859.5,-86.392399999999995,2255.7600000000002,-3075.8400000000001
171739.0,28451.0,-8915.0699999999997,-1373.1600000000001,22174.099999999999,467.38,507.41800000000001,-2522.27
171740.0,28183.599999999999,-8635.1700000000001,-1107.6300000000001,22203.5,946.81399999999996,-1174.29,-1994.8399999999999
171741.0,28136.299999999999,-9052.5400000000009,-1693.25,21393.799999999999,1245.51,-2838.52,-1384.77
171742.0,27747.200000000001,-8614.5400000000009,-1698.5,20602.400000000001,1367.78,-4559.8100000000004,-916.73400000000004
171743.0,27249.0,-8079.8199999999997,-1918.46,19412.299999999999,1359.9000000000001,-6110.04,-436.12099999999998
171744.0,26667.599999999999,-6955.5100000000002,-1783.77,18399.5,1205.21,-7490.2299999999996,-16.912400000000002
171745.0,25853.099999999999,-5942.1300000000001,-1850.3800000000001,16786.599999999999,947.81600000000003,-8656.3899999999994,427.47399999999999
171746.0,25204.900000000001,-4820.2399999999998,-1704.0599999999999,15328.5,641.91700000000003,-9628.1800000000003,1007.95
171747.0,35814.800000000003,-1328.01,1634.8399999999999,28797.0,-4007.0300000000002,10637.5,-4761.71
171748.0,34784.400000000001,-3745.96,1059.1700000000001,28459.0,-3069.7399999999998,8438.4599999999991,-4566.5200000000004
171749.0,32925.699999999997,-5275.5100000000002,460.24900000000002,27298.5,-2021.8699999999999,6118.9799999999996,-4178.6599999999999
171750.0,31124.099999999999,-6534.1899999999996,-157.19800000000001,25655.599999999999,-1239.8900000000001,4091.02,-3755.5100000000002
171751.0,30072.099999999999,-7190.54,-279.45800000000003,24964.5,-539.25800000000004,2254.1599999999999,-3094.9000000000001
171752.0,29493.299999999999,-8248.2900000000009,-1183.0699999999999,23767.299999999999,106.39700000000001,499.07799999999997,-2604.75
171753.0,29508.0,-8365.8899999999994,-1125.9100000000001,23765.299999999999,597.10500000000002,-1190.48,-2097.5300000000002
171754.0,29663.400000000001,-8788.8899999999994,-1555.4300000000001,23161.299999999999,909.24000000000001,-3075.6500000000001,-1531.3099999999999
171755.0,29223.700000000001,-8314.25,-1666.8,22228.099999999999,1084.2,-4930.4799999999996,-1091.79
171756.0,28659.0,-7629.2200000000003,-1826.6400000000001,21039.200000000001,1077.8800000000001,-6520.5299999999997,-606.15499999999997
171757.0,28013.0,-6438.3500000000004,-1711.4000000000001,19877.700000000001,919.81799999999998,-7992.0299999999997,-170.18299999999999
171758.0,27022.299999999999,-5182.3699999999999,-1743.5599999999999,18153.700000000001,673.48400000000004,-9171.1499999999996,349.80000000000001
171759.0,26348.5,-3942.0100000000002,-1582.45,16687.400000000001,360.70600000000002,-10133.200000000001,1055.97
171760.0,35960.599999999999,-92.669600000000003,1978.5799999999999,29512.900000000001,-4640.46,10606.5,-4885.79
171761.0,34927.800000000003,-2874.4899999999998,1099.4100000000001,28959.799999999999,-3669.9499999999998,8434.2099999999991,-4598.3400000000001
171762.0,33310.199999999997,-4157.7600000000002,815.40999999999997,28410.799999999999,-2567.3699999999999,6088.2600000000002,-4286.4399999999996
171763.0,31696.799999999999,-5621.7200000000003,-10.924099999999999,26792.099999999999,-1709.8299999999999,4154.1800000000003,-3824.0700000000002
171764.0,30856.099999999999,-6494.1599999999999,-215.268,26203.400000000001,-1007.27,2284.3699999999999,-3170.1399999999999
171765.0,30654.5,-7522.8900000000003,-946.55499999999995,25503.099999999999,-276.51299999999998,497.80200000000002,-2704.75
171766.0,30955.900000000001,-7866.7799999999997,-889.31500000000005,25670.0,219.70400000000001,-1210.99,-2185.3200000000002
171767.0,31247.099999999999,-8503.5900000000001,-1381.4200000000001,24993.599999999999,505.66699999999997,-3305.52,-1695.6400000000001
171768.0,30814.099999999999,-7781.5900000000001,-1383.8099999999999,24190.0,755.43299999999999,-5300.3900000000003,-1284.4200000000001
171769.0,30177.799999999999,-7075.5500000000002,-1604.52,22899.099999999999,739.39599999999996,-6900.0500000000002,-776.43200000000002
171770.0,29510.599999999999,-5832.71,-1468.1400000000001,21627.900000000001,550.03700000000003,-8493.4599999999991,-299.61099999999999
171771.0,28532.099999999999,-4429.3100000000004,-1538.55,19814.400000000001,343.92500000000001,-9787.9799999999996,307.42899999999997
171772.0,27923.200000000001,-3094.6300000000001,-1468.4200000000001,18251.0,38.375,-10837.299999999999,1124.8399999999999
171773.0,36242.900000000001,1271.8499999999999,2378.25,30476.5,-5190.6899999999996,10595.5,-4970.1599999999999
171774.0,35084.5,-1777.5999999999999,1190.73,29635.200000000001,-4227.71,8403.9300000000003,-4585.7600000000002
171775.0,33840.5,-3096.2399999999998,1061.3699999999999,29536.200000000001,-3115.6900000000001,6155.6999999999998,-4316.1000000000004
171776.0,32497.700000000001,-4605.5100000000002,279.90600000000001,28262.299999999999,-2191.4400000000001,4201.1800000000003,-3879.75
171777.0,31785.0,-5730.8599999999997,-169.654,27583.200000000001,-1445.8299999999999,2341.6900000000001,-3269.9200000000001
171778.0,31998.200000000001,-6880.4300000000003,-731.096,27331.799999999999,-684.23699999999997,539.41399999999999,-2810.5900000000001
171779.0,32486.400000000001,-7488.1300000000001,-719.05200000000002,27526.0,-220.53200000000001,-1277.3699999999999,-2275.4000000000001
171780.0,32796.900000000001,-8282.3600000000006,-1321.3499999999999,26689.099999999999,33.398400000000002,-3528.0999999999999,-1850.3599999999999
171781.0,32496.0,-7339.7200000000003,-1145.6300000000001,26157.200000000001,350.95100000000002,-5668.6499999999996,-1448.1600000000001
171782.0,31830.200000000001,-6654.0699999999997,-1507.6900000000001,24717.599999999999,355.56799999999998,-7329.8199999999997,-891.81799999999998
171783.0,31168.400000000001,-5372.29,-1391.02,23331.799999999999,152.56,-9047.3799999999992,-334.64499999999998
171784.0,30464.400000000001,-3915.8499999999999,-1510.71,21539.700000000001,4.34978,-10569.799999999999,353.08100000000002
171785.0,30046.5,-2262.7199999999998,-1377.9000000000001,20109.700000000001,-228.32499999999999,-11785.1,1218.25
171786.0,36681.599999999999,2500.7800000000002,2682.79,31527.5,-5767.9399999999996,10546.299999999999,-4991.8500000000004
171787.0,35338.900000000001,-528.94200000000001,1396.3800000000001,30557.5,-4743.4700000000003,8338.4599999999991,-4565.3400000000001
171788.0,34452.5,-2069.54,1259.1900000000001,30700.200000000001,-3674.4699999999998,6210.7299999999996,-4277.7700000000004
171789.0,33464.300000000003,-3755.23,416.52699999999999,29719.299999999999,-2684.6999999999998,4241.0500000000002,-3914.8400000000001
171790.0,32943.0,-4922.9499999999998,-47.155999999999999,29222.599999999999,-1862.04,2428.52,-3363.3899999999999
171791.0,33495.800000000003,-6183.4799999999996,-339.14600000000002,29389.200000000001,-1166.97,571.29399999999998,-2900.29
171792.0,34051.800000000003,-6983.1599999999999,-363.53399999999999,29524.700000000001,-744.02700000000004,-1418.22,-2370.6100000000001
171793.0,34317.699999999997,-7720.9799999999996,-926.35000000000002,28660.400000000001,-492.52100000000002,-3770.4200000000001,-1979.4400000000001
171794.0,34227.800000000003,-6794.6899999999996,-694.51199999999994,28286.900000000001,-156.73599999999999,-6063.5299999999997,-1553.6500000000001
171795.0,33697.599999999999,-6018.8400000000001,-1021.35,26948.200000000001,-87.880200000000002,-7869.54,-943.87199999999996
171796.0,33136.400000000001,-4777.8599999999997,-1028.54,25397.400000000001,-248.727,-9765.0599999999995,-316.39499999999998
171797.0,32777.599999999999,-3288.6399999999999,-1260.3699999999999,23624.099999999999,-365.71699999999998,-11541.299999999999,424.13799999999998
171798.0,32730.299999999999,-1498.3399999999999,-1271.54,22296.799999999999,-503.74599999999998,-12967.5,1314.51
171799.0,37199.900000000001,3637.73,2821.5700000000002,32596.799999999999,-6346.29,10417.1,-4984.1899999999996
171800.0,35859.400000000001,805.00300000000004,1700.97,31827.200000000001,-5250.8900000000003,8266.6599999999999,-4574.79
171801.0,35058.699999999997,-1021.09,1328.4100000000001,31800.700000000001,-4240.54,6217.9200000000001,-4223.1700000000001
171802.0,34506.5,-2675.3200000000002,693.29700000000003,31435.200000000001,-3201.2399999999998,4307.0100000000002,-3844.3000000000002
171803.0,34430.599999999999,-4089.9000000000001,242.56200000000001,31265.299999999999,-2326.7600000000002,2521.7399999999998,-3394.3200000000002
171804.0,35067.300000000003,-5734.5799999999999,-143.31999999999999,31262.299999999999,-1747.5599999999999,564.26199999999994,-2968.1399999999999
171805.0,35605.099999999999,-6569.6400000000003,-107.97799999999999,31377.599999999999,-1362.1800000000001,-1616.3099999999999,-2434.3000000000002
171806.0,35867.199999999997,-7412.7600000000002,-791.39800000000002,30366.5,-1094.1199999999999,-4051.3299999999999,-2054.6399999999999
171807.0,35983.5,-6486.6099999999997,-414.98099999999999,30188.799999999999,-769.89099999999996,-6488.0900000000001,-1578.6700000000001
171808.0,35811.099999999999,-5889.7600000000002,-865.61699999999996,28868.200000000001,-634.58699999999999,-8560.8799999999992,-937.029
171809.0,35466.599999999999,-4475.4799999999996,-936.87300000000005,27355.400000000001,-706.28499999999997,-10692.0,-335.12
171810.0,35365.800000000003,-2872.9000000000001,-1449.76,25559.5,-740.49400000000003,-12629.5,456.22399999999999
171811.0,35899.400000000001,-655.74400000000003,-1274.98,24888.700000000001,-793.22000000000003,-14284.200000000001,1419.71
171812.0,37869.5,4837.5799999999999,2970.0900000000001,33857.800000000003,-6863.6400000000003,10293.0,-5002.6000000000004
171813.0,36589.599999999999,2037.6199999999999,1955.1800000000001,33243.400000000001,-5753.7799999999997,8154.54,-4604.7700000000004
171814.0,35712.0,262.51400000000001,1542.02,33189.400000000001,-4717.21,6138.1700000000001,-4158.1700000000001
171815.0,35611.599999999999,-1731.6700000000001,812.02099999999996,33092.0,-3693.3000000000002,4322.9300000000003,-3679.98
171816.0,36055.599999999999,-3451.3600000000001,421.613,33300.599999999999,-2867.8000000000002,2496.6300000000001,-3329.8699999999999
171817.0,36629.699999999997,-4994.8000000000002,241.09899999999999,33357.800000000003,-2385.3099999999999,438.45400000000001,-2975.5
171818.0,37078.099999999999,-5967.21,124.715,33213.300000000003,-2029.5899999999999,-1922.5799999999999,-2436.27
171819.0,37359.900000000001,-6531.2600000000002,-360.27300000000002,32435.700000000001,-1738.3299999999999,-4420.1000000000004,-2004.24
171820.0,37727.599999999999,-5981.7700000000004,-273.596,32114.400000000001,-1466.25,-6931.0699999999997,-1456.1199999999999
171821.0,38028.5,-5409.8900000000003,-725.67700000000002,31042.900000000001,-1297.6800000000001,-9289.3400000000001,-865.05200000000002
171822.0,38004.199999999997,-3903.1599999999999,-965.48000000000002,29614.400000000001,-1179.4000000000001,-11636.6,-327.70999999999998
171823.0,38323.900000000001,-1786.8099999999999,-1204.0999999999999,28423.5,-1053.4300000000001,-13774.1,521.16800000000001
171824.0,39482.300000000003,443.52999999999997,-998.57899999999995,28161.200000000001,-1097.8,-15686.4,1498.1199999999999
171825.0,38753.199999999997,6156.79,3401.8600000000001,35588.099999999999,-7388.3100000000004,10136.6,-4997.4200000000001
171826.0,37450.099999999999,3324.96,2196.7600000000002,34812.699999999997,-6311.9399999999996,8003.0799999999999,-4566.8900000000003
171827.0,36706.900000000001,1718.6199999999999,2009.6099999999999,35129.0,-5217.6300000000001,6040.46,-4067.9400000000001
171828.0,36887.400000000001,-768.82299999999998,1018.8,34946.5,-4256.6700000000001,4234.8100000000004,-3539.5999999999999
171829.0,37613.900000000001,-2438.6199999999999,902.803,35589.5,-3522.6599999999999,2323.9499999999998,-3221.9699999999998
171830.0,38154.5,-4407.3100000000004,282.05000000000001,35162.300000000003,-3064.1100000000001,177.55600000000001,-2904.9299999999998
171831.0,38539.5,-5097.7399999999998,370.02699999999999,35147.300000000003,-2704.5599999999999,-2349.0999999999999,-2400.6500000000001
171832.0,38824.800000000003,-5745.7299999999996,-366.04700000000003,34131.099999999999,-2330.4299999999998,-5022.5299999999997,-1899.0599999999999
171833.0,39350.300000000003,-4998.21,-194.26499999999999,34031.800000000003,-2033.4200000000001,-7577.5299999999997,-1272.71
171834.0,40029.300000000003,-4689.6499999999996,-907.53700000000003,32884.900000000001,-1834.1700000000001,-10112.700000000001,-686.13
171835.0,40581.5,-2795.9200000000001,-629.45000000000005,32305.900000000001,-1682.4200000000001,-12616.6,-117.78100000000001
171836.0,41735.300000000003,-896.69799999999998,-770.18299999999999,31609.0,-1610.54,-15058.0,658.68299999999999
171837.0,43383.800000000003,1634.22,67.455200000000005,32073.299999999999,-1753.78,-17227.5,1400.74
171838.0,39825.5,7123.5600000000004,3652.3200000000002,37371.199999999997,-7964.25,9837.3299999999999,-4949.7600000000002
171839.0,38447.099999999999,4734.4099999999999,2647.7399999999998,36782.599999999999,-6805.0299999999997,7767.8999999999996,-4469.0900000000001
171840.0,38054.199999999997,2677.25,2152.2600000000002,37038.199999999997,-5743.3400000000001,5867.2399999999998,-3953.9699999999998
171841.0,38352.099999999999,343.452,1434.1099999999999,37148.099999999999,-4864.04,3990.0300000000002,-3488.7399999999998
171842.0,39033.900000000001,-1640.1199999999999,1055.54,37437.800000000003,-4215.2700000000004,1956.1400000000001,-3154.5900000000001
171843.0,39554.400000000001,-3023.3499999999999,974.78200000000004,37522.199999999997,-3785.1700000000001,-307.69999999999999,-2796.6100000000001
171844.0,40023.599999999999,-4014.0900000000001,685.03200000000004,37155.5,-3473.1900000000001,-2924.1700000000001,-2344.5900000000001
171845.0,40514.099999999999,-3984.6399999999999,642.18399999999997,36882.300000000003,-3084.3800000000001,-5760.9200000000001,-1902.8900000000001
171846.0,41122.300000000003,-3478.6199999999999,636.19899999999996,36542.400000000001,-2815.9499999999998,-8331.5200000000004,-1300.5599999999999
171847.0,42113.300000000003,-2689.0900000000001,615.58199999999999,36072.900000000001,-2732.4299999999998,-11024.0,-638.92700000000002
171848.0,43402.699999999997,-1320.47,790.72299999999996,35653.300000000003,-2655.8000000000002,-13774.0,60.163200000000003
171849.0,45413.699999999997,141.97900000000001,914.553,35443.699999999997,-2639.8200000000002,-16536.200000000001,735.90999999999997
171850.0,47433.199999999997,1757.78,1476.77,35473.199999999997,-2806.3000000000002,-18941.700000000001,1101.5799999999999
171851.0,41089.900000000001,8539.8400000000001,4564.0200000000004,39991.099999999999,-8556.1499999999996,9503.7999999999993,-4752.2700000000004
171852.0,39875.5,5715.3000000000002,3046.9000000000001,38949.099999999999,-7408.4700000000003,7471.9099999999999,-4382.6499999999996
171853.0,39610.300000000003,4013.8400000000001,2961.8299999999999,39637.300000000003,-6399.8199999999997,5572.6899999999996,-3886.8000000000002
171854.0,40031.800000000003,1268.9100000000001,1942.5,39433.300000000003,-5624.0200000000004,3625.0700000000002,-3509.9499999999998
171855.0,40538.900000000001,-43.354100000000003,2200.0999999999999,40135.5,-5073.7799999999997,1460.5,-3190.48
171856.0,41013.199999999997,-2029.02,1402.54,39451.300000000003,-4697.6800000000003,-936.18700000000001,-2780.8099999999999
171857.0,41600.0,-2471.7600000000002,1566.52,39594.400000000001,-4399.8000000000002,-3652.54,-2342.71
171858.0,42283.5,-3049.98,997.58699999999999,38793.599999999999,-4066.1999999999998,-6567.1000000000004,-1915.4000000000001
171859.0,43108.5,-2099.8400000000001,1645.72,39045.900000000001,-3924.4899999999998,-9201.75,-1320.8499999999999
171860.0,44492.599999999999,-2000.77,1298.3499999999999,38195.400000000001,-3949.1399999999999,-12079.0,-603.47400000000005
171861.0,46512.300000000003,-1019.48,1933.0799999999999,38263.0,-3940.8099999999999,-15065.5,129.17699999999999
171862.0,49163.0,-955.02300000000002,1790.5999999999999,37575.099999999999,-4002.6500000000001,-18087.599999999999,612.38099999999997
171863.0,51381.300000000003,17.049900000000001,2345.4099999999999,37236.099999999999,-4186.8299999999999,-20675.5,577.73900000000003
171864.0,42461.5,8654.3700000000008,4304.1599999999999,41686.0,-9102.25,8971.5300000000007,-4444.2399999999998
171865.0,41587.300000000003,6620.2200000000003,3660.5900000000001,41492.199999999997,-8040.5799999999999,7145.6499999999996,-4256.3800000000001
171866.0,41397.599999999999,4389.3400000000001,3227.8899999999999,41658.5,-7165.7200000000003,5207.6999999999998,-3861.3000000000002
171867.0,41755.199999999997,2312.4499999999998,2838.71,41934.900000000001,-6521.7200000000003,3106.3699999999999,-3539.6500000000001
171868.0,42158.0,499.89299999999997,2461.0300000000002,41862.699999999997,-6061.0699999999997,840.31200000000001,-3233.2199999999998
171869.0,42606.099999999999,-468.10599999999999,2592.1500000000001,42015.599999999999,-5740.21,-1681.99,-2812.1500000000001
171870.0,43359.599999999999,-1418.3800000000001,2451.6500000000001,41748.5,-5528.4300000000003,-4477.3699999999999,-2375.21
171871.0,44276.199999999997,-1319.4200000000001,2904.0700000000002,41778.400000000001,-5297.3900000000003,-7568.2299999999996,-1925.6600000000001
171872.0,45349.900000000001,-1291.1500000000001,2786.5599999999999,41174.300000000003,-5211.6999999999998,-10375.5,-1340.55
171873.0,47136.900000000001,-989.48500000000001,2950.4699999999998,40915.699999999997,-5284.3500000000004,-13297.0,-638.92100000000005
171874.0,49628.400000000001,-1442.45,2777.7600000000002,40304.599999999999,-5369.1999999999998,-16248.6,24.8354
171875.0,52500.300000000003,-2187.2800000000002,2319.1999999999998,39308.699999999997,-5479.9200000000001,-19241.200000000001,311.14100000000002
171876.0,54664.199999999997,-2257.0500000000002,1830.6500000000001,37895.099999999999,-5579.1700000000001,-21832.799999999999,-7.3659400000000002
171877.0,43836.800000000003,9951.9200000000001,5437.0100000000002,44677.400000000001,-9577.0799999999999,8455.4899999999998,-4041.2600000000002
171878.0,43362.099999999999,6731.8999999999996,3945.3400000000001,43591.400000000001,-8718.2000000000007,6729.1700000000001,-3970.8699999999999
171879.0,43331.599999999999,5245.3699999999999,4298.3100000000004,44426.5,-8071.3599999999997,4687.4399999999996,-3790.5700000000002
171880.0,43533.300000000003,2687.3000000000002,3371.1399999999999,43873.199999999997,-7528.9200000000001,2436.5300000000002,-3591.4099999999999
171881.0,43841.099999999999,1930.24,3920.8099999999999,44562.5,-7146.54,26.089099999999998,-3276.8800000000001
171882.0,44341.599999999999,47.9285,2961.5999999999999,43584.900000000001,-6951.25,-2557.8400000000001,-2856.73
171883.0,45285.099999999999,-263.46300000000002,3407.1100000000001,43938.599999999999,-6922.8599999999997,-5327.6300000000001,-2364.21
171884.0,46570.099999999999,-1760.28,2277.4499999999998,42523.300000000003,-6837.1700000000001,-8538.3400000000001,-1939.98
171885.0,47816.199999999997,-1145.9000000000001,2760.5100000000002,42564.400000000001,-6689.4200000000001,-11411.6,-1456.8800000000001
171886.0,49744.300000000003,-1623.74,2402.9400000000001,41908.900000000001,-6632.79,-14197.5,-774.96299999999997
171887.0,52239.300000000003,-1988.23,2644.4099999999999,41761.0,-6596.8900000000003,-16985.299999999999,-188.58000000000001
171888.0,54850.099999999999,-2813.8800000000001,2303.0599999999999,40777.800000000003,-6600.6499999999996,-19786.0,17.628699999999998
171889.0,56897.699999999997,-1861.3499999999999,2926.5900000000001,40394.800000000003,-6744.1199999999999,-22317.799999999999,-391.37599999999998
171890.0,45387.900000000001,8927.6700000000001,3894.9499999999998,45369.699999999997,-10147.700000000001,7714.2799999999997,-3456.6799999999998
171891.0,45130.099999999999,7124.1700000000001,3945.0900000000001,45614.300000000003,-9550.5499999999993,6053.8500000000004,-3613.6399999999999
171892.0,45097.199999999997,4689.9899999999998,3213.3899999999999,45168.400000000001,-9040.5599999999995,4098.96,-3545.02
171893.0,45473.900000000001,3517.1700000000001,3524.3600000000001,45882.199999999997,-8702.0499999999993,1900.4200000000001,-3433.73
171894.0,45816.800000000003,1660.5599999999999,2802.0799999999999,45278.400000000001,-8435.4300000000003,-659.93299999999999,-3181.98
171895.0,46207.5,1802.1600000000001,3635.8099999999999,45998.5,-8225.5499999999993,-3342.3299999999999,-2769.02
171896.0,47201.900000000001,766.99599999999998,3335.3200000000002,45576.300000000003,-8188.5,-6127.5299999999997,-2224.23
171897.0,48581.099999999999,772.57799999999997,3871.7800000000002,45693.699999999997,-8044.4099999999999,-9454.2700000000004,-1783.4200000000001
171898.0,49906.699999999997,577.91899999999998,3893.9400000000001,45121.199999999997,-7785.3299999999999,-12327.6,-1358.6800000000001
171899.0,51926.800000000003,953.904,5012.9499999999998,45810.5,-7871.5200000000004,-14851.700000000001,-872.14400000000001
171900.0,54446.0,-128.44200000000001,5186.5200000000004,45318.5,-8162.6700000000001,-17425.099999999999,-697.505
171901.0,56987.199999999997,-142.46199999999999,6037.2299999999996,45285.300000000003,-8606.2600000000002,-20018.5,-812.20699999999999
171902.0,59088.400000000001,282.267,6297.6300000000001,44275.300000000003,-9257.5300000000007,-22523.200000000001,-1355.6900000000001
171903.0,46497.599999999999,11756.200000000001,6504.3299999999999,49795.5,-10391.299999999999,6731.3900000000003,-3044.4299999999998
171904.0,46367.199999999997,8025.6099999999997,4085.0599999999999,47645.400000000001,-9953.6299999999992,5178.4700000000003,-3207.4200000000001
171905.0,46299.300000000003,7383.0200000000004,4842.1899999999996,48575.5,-9573.1399999999994,3213.25,-3150.8800000000001
171906.0,46712.800000000003,5033.5600000000004,3918.2800000000002,47900.400000000001,-9431.75,1017.67,-2914.9000000000001
171907.0,47326.199999999997,4908.2299999999996,5115.4799999999996,49061.400000000001,-9449.9099999999999,-1683.0899999999999,-2766.9299999999998
171908.0,47885.199999999997,3438.98,4530.8699999999999,48099.199999999997,-9447.7299999999996,-4412.9799999999996,-2570.3200000000002
171909.0,49097.900000000001,3606.5599999999999,5750.6700000000001,49007.599999999999,-9610.4400000000005,-7053.4700000000003,-2292.1999999999998
171910.0,50814.0,1958.1900000000001,5229.7600000000002,47877.099999999999,-9674.4400000000005,-10343.9,-1937.6700000000001
171911.0,52318.400000000001,2101.1799999999998,6373.6199999999999,47961.699999999997,-9695.5599999999995,-13189.4,-1614.5699999999999
171912.0,54262.400000000001,1014.01,6714.1899999999996,47420.800000000003,-10082.0,-15392.0,-1546.26
171913.0,56721.900000000001,407.41199999999998,7483.8100000000004,47424.800000000003,-10648.0,-17702.200000000001,-1744.6199999999999
171914.0,59128.199999999997,264.61099999999999,7812.4399999999996,47003.900000000001,-11357.6,-20071.900000000001,-1980.47
171915.0,61188.699999999997,1756.25,8989.9599999999991,46920.699999999997,-12220.700000000001,-22459.400000000001,-2401.6399999999999
171916.0,47602.699999999997,8535.3600000000006,4358.3599999999997,48345.800000000003,-11237.9,5651.8800000000001,-2751.3400000000001
171917.0,47740.5,10499.799999999999,7098.04,51591.199999999997,-10995.9,4150.4300000000003,-2880.71
171918.0,47907.400000000001,7752.3599999999997,5923.3599999999997,50346.599999999999,-10984.700000000001,2104.4099999999999,-2847.3400000000001
171919.0,48404.800000000003,7780.04,7465.4399999999996,51779.599999999999,-11103.6,-109.34999999999999,-2781.8600000000001
171920.0,49267.099999999999,5463.6199999999999,6609.1999999999998,50761.099999999999,-11265.9,-2809.98,-2678.21
171921.0,49983.199999999997,5822.6800000000003,8605.1000000000004,51816.099999999999,-11371.299999999999,-5592.4300000000003,-2671.71
171922.0,51303.0,4783.3500000000004,8712.6100000000006,51379.800000000003,-11585.0,-8181.04,-2886.52
171923.0,53329.900000000001,4898.7200000000003,9704.8600000000006,52091.300000000003,-12004.200000000001,-11111.0,-2448.6700000000001
171924.0,54917.699999999997,2049.6900000000001,8875.5799999999999,49618.699999999997,-12285.6,-13736.1,-2032.79
171925.0,56656.5,1530.26,10634.700000000001,49675.599999999999,-12533.700000000001,-15885.0,-2526.5700000000002
171926.0,58863.099999999999,257.63200000000001,10299.9,48519.300000000003,-13070.0,-18080.200000000001,-2962.3600000000001
171927.0,60956.199999999997,1429.48,11422.200000000001,49090.599999999999,-13835.200000000001,-20142.200000000001,-3115.6199999999999
171928.0,63137.0,1683.6900000000001,11710.799999999999,48267.599999999999,-14746.799999999999,-22357.200000000001,-3206.3000000000002
171929.0,594707.0,333012.0,-22402.700000000001,205284.0,-288637.0,36685.599999999999,-28671.900000000001
171930.0,649883.0,351653.0,-24108.0,290129.0,-303697.0,2916.0,-89000.399999999994
171931.0,611936.0,319468.0,-19622.900000000001,235633.0,-267570.0,-30227.299999999999,-145327.0
171932.0,500138.0,232329.0,-22953.400000000001,77104.0,-203739.0,-34916.800000000003,-155257.0
171933.0,389020.0,135926.0,-27401.799999999999,-82011.300000000003,-147082.0,-12245.299999999999,-125712.0
171934.0,335001.0,69062.899999999994,-18507.299999999999,-187696.0,-112179.0,27047.5,-84001.399999999994
171935.0,337079.0,42059.199999999997,-5880.3500000000004,-214442.0,-113430.0,70502.600000000006,-37934.800000000003
171936.0,373967.0,49665.0,-9014.9899999999998,-175170.0,-147877.0,105588.0,-613.29899999999998
171937.0,460380.0,101600.0,-27191.700000000001,-47727.599999999999,-212455.0,130172.0,44910.5
171938.0,616170.0,216568.0,-46405.0,189236.0,-298824.0,113293.0,59321.099999999999
171939.0,747634.0,346244.0,-60762.699999999997,371947.0,-354330.0,42695.099999999999,-4537.1899999999996
171940.0,777952.0,435080.0,-72636.399999999994,393916.0,-342877.0,-17722.099999999999,-65835.199999999997
171941.0,728413.0,457849.0,-101794.0,335244.0,-287286.0,-30820.400000000001,-82698.0
171942.0,848311.0,641871.0,-84252.100000000006,313096.0,-310825.0,104330.0,-13224.4
171943.0,937364.0,701530.0,-100342.0,475586.0,-326712.0,94552.0,-79027.0
171944.0,903930.0,648908.0,-92761.600000000006,454593.0,-300562.0,71262.899999999994,-170419.0
171945.0,748122.0,501792.0,-72455.300000000003,270238.0,-241474.0,55645.400000000001,-204174.0
171946.0,568818.0,342113.0,-60540.699999999997,48097.300000000003,-174343.0,56141.300000000003,-175806.0
171947.0,450189.0,229776.0,-49271.699999999997,-120766.0,-125063.0,74369.399999999994,-109887.0
171948.0,418425.0,194128.0,-53672.199999999997,-182899.0,-107334.0,94753.800000000003,-33940.0
171949.0,449230.0,233451.0,-72751.100000000006,-151864.0,-110994.0,113038.0,27531.799999999999
171950.0,572975.0,334484.0,-111895.0,-1206.05,-156034.0,134927.0,113354.0
171951.0,810660.0,532587.0,-156207.0,334108.0,-241226.0,119195.0,144750.0
171952.0,966349.0,704848.0,-187226.0,574794.0,-275588.0,50528.0,23331.599999999999
171953.0,921163.0,727993.0,-180604.0,532436.0,-216050.0,11848.1,-85594.300000000003
171954.0,768986.0,631799.0,-170228.0,396889.0,-134748.0,33231.900000000001,-88560.100000000006
171955.0,858109.0,732390.0,-185155.0,260936.0,-122636.0,135953.0,37438.599999999999
171956.0,929141.0,778193.0,-214937.0,432868.0,-103063.0,150828.0,13966.9
171957.0,919189.0,733537.0,-217528.0,482577.0,-97033.699999999997,157696.0,-66409.899999999994
171958.0,795627.0,601189.0,-183077.0,369732.0,-91844.300000000003,145168.0,-138291.0
171959.0,610553.0,422140.0,-147814.0,138776.0,-62842.699999999997,124438.0,-153659.0
171960.0,452627.0,278101.0,-116004.0,-67367.0,-27722.5,111963.0,-93883.0
171961.0,388325.0,207827.0,-106727.0,-170008.0,-577.31600000000003,94973.699999999997,-17141.5
171962.0,397783.0,194687.0,-119922.0,-197352.0,15679.1,78580.800000000003,56669.699999999997
171963.0,509078.0,278933.0,-155907.0,-70752.600000000006,-462.31900000000002,67463.399999999994,169507.0
171964.0,727198.0,478056.0,-226642.0,252508.0,-25658.900000000001,42856.900000000001,210400.0
171965.0,835949.0,619039.0,-267874.0,477212.0,-6001.0799999999999,16590.400000000001,75135.399999999994
171966.0,737894.0,546056.0,-247533.0,389896.0,43000.400000000001,31086.599999999999,-43963.699999999997
171967.0,569424.0,391997.0,-206080.0,242733.0,66193.899999999994,73612.199999999997,-37139.099999999999
171968.0,587306.0,400551.0,-197539.0,42232.5,96444.5,98417.199999999997,73413.699999999997
171969.0,604811.0,371672.0,-219004.0,137221.0,124134.0,103387.0,85870.0
171970.0,618585.0,355315.0,-228478.0,222200.0,125850.0,121924.0,56902.199999999997
171971.0,575743.0,316167.0,-217209.0,223085.0,109049.0,131562.0,-11142.4
171972.0,460476.0,221923.0,-177977.0,89900.800000000003,97481.600000000006,124354.0,-64768.400000000001
171973.0,333928.0,113898.0,-131193.0,-78147.899999999994,88571.600000000006,103752.0,-43960.0
171974.0,271027.0,50427.599999999999,-96464.899999999994,-178290.0,79734.300000000003,68414.800000000003,4045.5700000000002
171975.0,268143.0,24715.299999999999,-91886.399999999994,-217378.0,66384.600000000006,27157.799999999999,64525.400000000001
171976.0,338726.0,71110.899999999994,-123015.0,-126998.0,56457.599999999999,-17545.299999999999,148072.0
171977.0,450127.0,163582.0,-183739.0,72028.600000000006,83182.600000000006,-51714.900000000001,159809.0
171978.0,478625.0,186359.0,-215195.0,178809.0,132004.0,-40005.400000000001,67660.899999999994
171979.0,399063.0,117026.0,-183541.0,129433.0,146860.0,10371.200000000001,-810.13999999999999
171980.0,307320.0,38813.800000000003,-146013.0,60152.099999999999,125393.0,53750.199999999997,3996.0100000000002
171981.0,298039.0,-23983.799999999999,-130810.0,-145793.0,141014.0,41397.900000000001,59983.0
171982.0,286296.0,-63520.699999999997,-132047.0,-99372.600000000006,142419.0,29005.299999999999,70870.699999999997
171983.0,297144.0,-61862.800000000003,-132391.0,-31412.599999999999,144548.0,34866.900000000001,68107.199999999997
171984.0,298154.0,-58685.0,-139864.0,3134.0900000000001,143048.0,51907.300000000003,36487.5
171985.0,258969.0,-65241.599999999999,-116108.0,-27177.599999999999,126806.0,65427.699999999997,-1890.9300000000001
171986.0,197555.0,-79149.699999999997,-76929.5,-99690.800000000003,97084.199999999997,58300.599999999999,-5252.5699999999997
171987.0,165969.0,-77446.399999999994,-46081.300000000003,-153894.0,70612.800000000003,28469.700000000001,17606.299999999999
171988.0,178357.0,-72126.600000000006,-53379.800000000003,-172346.0,54289.900000000001,-13656.299999999999,58124.5
171989.0,222122.0,-55897.800000000003,-88991.600000000006,-116090.0,56744.0,-57065.599999999999,95188.800000000003
171990.0,252674.0,-53999.099999999999,-118920.0,-28161.599999999999,84370.699999999997,-78351.399999999994,76403.399999999994
171991.0,247441.0,-97996.199999999997,-120782.0,-8682.1499999999996,112967.0,-57587.099999999999,28650.0
171992.0,225456.0,-145443.0,-104738.0,-35776.800000000003,116238.0,-14882.700000000001,11718.700000000001
171993.0,205769.0,-155499.0,-89346.699999999997,-44583.300000000003,101992.0,17617.700000000001,16949.700000000001
171994.0,241997.0,-235084.0,-78685.5,-202632.0,105549.0,8509.7800000000007,38667.099999999999
171995.0,231051.0,-237096.0,-74591.899999999994,-164467.0,96376.699999999997,-5468.1599999999999,43009.699999999997
171996.0,219580.0,-221492.0,-65845.0,-115799.0,90832.300000000003,-6834.5699999999997,38198.800000000003
171997.0,202665.0,-200149.0,-56008.199999999997,-79789.5,84046.899999999994,3444.9200000000001,25376.200000000001
171998.0,172540.0,-166622.0,-38721.300000000003,-66633.0,70317.199999999997,16574.599999999999,13472.799999999999
171999.0,133854.0,-122779.0,-17161.0,-73365.699999999997,52607.199999999997,16918.200000000001,11220.5
172000.0,113990.0,-89279.0,-6932.5299999999997,-90415.5,39894.900000000001,-2219.2600000000002,21041.700000000001
172001.0,132753.0,-80264.0,-20386.299999999999,-96672.199999999997,38570.0,-33432.099999999999,40703.199999999997
172002.0,168003.0,-92611.0,-45932.599999999999,-74523.399999999994,52058.0,-60273.099999999999,50115.599999999999
172003.0,191206.0,-127750.0,-62643.199999999997,-51459.800000000003,71331.100000000006,-65666.199999999997,33001.400000000001
172004.0,200250.0,-170749.0,-58638.699999999997,-55310.5,80574.800000000003,-49140.300000000003,11916.9
172005.0,199804.0,-191902.0,-45586.599999999999,-65080.099999999999,79066.5,-25889.099999999999,8568.6200000000008
172006.0,190880.0,-186326.0,-38691.900000000001,-59953.900000000001,74606.699999999997,-6132.1800000000003,13104.700000000001
172007.0,242773.0,-267561.0,-32182.299999999999,-167671.0,70450.899999999994,-10490.700000000001,24828.5
172008.0,221039.0,-240886.0,-24851.200000000001,-132149.0,59240.199999999997,-19335.400000000001,27107.900000000001
172009.0,193914.0,-205230.0,-13997.5,-89554.800000000003,48800.0,-18815.900000000001,22851.700000000001
172010.0,160131.0,-167139.0,-6326.8000000000002,-56743.5,37082.699999999997,-11168.4,16809.599999999999
172011.0,122232.0,-118496.0,6360.96,-32066.799999999999,26538.0,-3223.04,13276.700000000001
172012.0,87671.100000000006,-75918.100000000006,13477.4,-23944.700000000001,19176.0,-3313.5500000000002,12955.299999999999
172013.0,72963.199999999997,-49844.400000000001,14272.700000000001,-24235.200000000001,16146.4,-14822.1,15891.0
172014.0,89129.199999999997,-51455.0,4544.5699999999997,-26892.299999999999,19767.200000000001,-32647.299999999999,20087.099999999999
172015.0,116640.0,-74884.100000000006,-4448.5900000000001,-23244.5,28494.599999999999,-45308.800000000003,18437.799999999999
172016.0,140181.0,-109068.0,-8006.6999999999998,-20201.599999999999,35239.800000000003,-46617.400000000001,9592.4799999999996
172017.0,153954.0,-135744.0,-6716.0900000000001,-25076.5,39076.199999999997,-38749.400000000001,-215.81
172018.0,157479.0,-147620.0,-3122.3400000000001,-33380.599999999999,42417.199999999997,-25535.799999999999,-2752.6300000000001
172019.0,155378.0,-148237.0,-1.75244,-31488.200000000001,42424.300000000003,-12129.4,1153.5799999999999
172020.0,195709.0,-203680.0,6457.0600000000004,-91306.5,34352.300000000003,-18708.799999999999,13418.1
172021.0,163871.0,-159132.0,16797.400000000001,-56500.599999999999,22158.400000000001,-21198.799999999999,14190.0
172022.0,132225.0,-118131.0,22836.200000000001,-24588.0,13046.799999999999,-18898.200000000001,12458.5
172023.0,100483.0,-80465.800000000003,25199.299999999999,-613.89599999999996,6329.6700000000001,-13546.6,10362.9
172024.0,70917.800000000003,-47920.599999999999,24864.5,12541.5,1403.1700000000001,-8888.1499999999996,8828.3899999999994
172025.0,49596.199999999997,-22654.400000000001,24108.900000000001,19276.299999999999,-2342.6999999999998,-9066.9400000000005,8416.6599999999999
172026.0,44208.099999999999,-12696.5,19174.799999999999,20459.700000000001,-3735.3200000000002,-14877.0,7961.0200000000004
172027.0,53448.400000000001,-17128.400000000001,14861.200000000001,20245.200000000001,-1638.29,-22541.5,5766.6499999999996
172028.0,67630.399999999994,-32914.800000000003,11873.6,20097.200000000001,868.75599999999997,-26395.299999999999,3629.8400000000001
172029.0,81169.399999999994,-47259.599999999999,11698.6,25485.799999999999,2759.5799999999999,-26345.299999999999,-1208.0599999999999
172030.0,92810.600000000006,-63069.900000000001,13271.9,22182.900000000001,8258.1599999999999,-22527.900000000001,-9982.3700000000008
172031.0,103881.0,-80006.399999999994,20599.299999999999,12252.6,12600.299999999999,-14046.700000000001,-11129.299999999999
172032.0,109637.0,-89113.399999999994,23980.700000000001,11675.5,8933.9400000000005,-6202.21,-6201.1999999999998
172033.0,132892.0,-121800.0,21871.799999999999,-25283.5,7475.0100000000002,-20624.400000000001,6483.9700000000003
172034.0,104170.0,-83575.100000000006,25290.0,-1952.0999999999999,-1040.77,-18927.700000000001,6962.1300000000001
172035.0,80783.800000000003,-51899.699999999997,26654.599999999999,17438.299999999999,-6603.9099999999999,-15931.200000000001,5832.3699999999999
172036.0,62305.099999999999,-28410.099999999999,24782.299999999999,28720.900000000001,-9785.6700000000001,-12701.6,4328.1999999999998
172037.0,49312.900000000001,-11469.799999999999,22073.900000000001,33818.099999999999,-11395.700000000001,-10665.700000000001,3823.2600000000002
172038.0,43391.199999999997,-1716.6500000000001,17303.0,35354.300000000003,-12190.1,-10776.200000000001,4385.3000000000002
172039.0,43703.900000000001,3840.0100000000002,14008.799999999999,39098.099999999999,-11729.9,-12432.799999999999,3895.6599999999999
172040.0,45613.900000000001,2454.0900000000001,12351.6,41232.300000000003,-9424.4599999999991,-14008.0,1591.0999999999999
172041.0,49989.599999999999,-3926.9400000000001,11622.700000000001,43286.099999999999,-6627.7600000000002,-14466.700000000001,931.577
172042.0,56543.599999999999,-12846.9,10355.799999999999,45646.199999999997,-2150.5799999999999,-13599.799999999999,-2934.8000000000002
172043.0,62672.800000000003,-25915.900000000001,14479.200000000001,41883.699999999997,1149.46,-8249.4500000000007,-8755.3099999999995
172044.0,70540.699999999997,-37965.900000000001,20866.400000000001,37952.5,-4420.7399999999998,-969.44399999999996,-7214.8599999999997
172045.0,75469.5,-32503.099999999999,25378.099999999999,47094.400000000001,-13085.4,2606.6199999999999,-5252.8500000000004
172046.0,90590.0,-60282.5,25247.799999999999,16603.900000000001,-7990.2700000000004,-21216.700000000001,2139.27
172047.0,73564.199999999997,-33839.400000000001,26636.099999999999,31169.5,-12308.6,-18161.5,2284.48
172048.0,62050.900000000001,-16469.400000000001,24467.799999999999,39305.099999999999,-14489.6,-15396.5,1404.51
172049.0,54643.699999999997,-5635.0,21285.200000000001,42872.300000000003,-15060.0,-13327.1,536.51800000000003
172050.0,50202.199999999997,-946.79300000000001,17087.400000000001,42150.099999999999,-14736.9,-12411.6,638.81100000000004
172051.0,47515.800000000003,3348.8699999999999,15608.700000000001,43418.699999999997,-13108.200000000001,-12552.5,1283.0799999999999
172052.0,46348.599999999999,3208.4200000000001,12555.0,43774.400000000001,-10382.9,-12410.0,1727.6300000000001
172053.0,46520.400000000001,1176.1900000000001,11756.9,45291.699999999997,-7824.8100000000004,-11334.200000000001,1112.8
172054.0,50023.699999999997,-5265.29,9618.3600000000006,45942.0,-6433.1000000000004,-9941.7299999999996,220.03999999999999
172055.0,54092.800000000003,-10997.5,11820.200000000001,47612.800000000003,-5403.1700000000001,-7625.1000000000004,-3896.8299999999999
172056.0,55164.199999999997,-16622.099999999999,15585.200000000001,44352.300000000003,-7399.25,-2185.2800000000002,-4937.7799999999997
172057.0,58138.900000000001,-10858.5,18047.400000000001,50289.5,-13403.4,3301.5100000000002,-681.32000000000005
172058.0,61417.199999999997,260.18900000000002,14116.5,58673.0,-16866.900000000001,6262.3000000000002,-1446.8399999999999
172059.0,71976.199999999997,-25506.400000000001,21449.299999999999,36572.300000000003,-14773.0,-21452.599999999999,-718.53700000000003
172060.0,64058.099999999999,-13384.299999999999,19249.200000000001,41800.599999999999,-15967.4,-18504.799999999999,-783.95000000000005
172061.0,59157.0,-6423.2299999999996,16729.099999999999,44088.599999999999,-16145.700000000001,-16263.1,-1417.9100000000001
172062.0,55975.699999999997,-3757.25,13828.700000000001,44007.099999999999,-15647.5,-14597.700000000001,-1708.29
172063.0,53902.199999999997,-2657.9400000000001,11976.200000000001,43687.199999999997,-14745.1,-13695.200000000001,-1496.2
172064.0,52587.199999999997,-3477.23,10844.0,42898.800000000003,-13288.0,-13340.4,-1836.9300000000001
172065.0,52138.0,-6054.6400000000003,10572.0,42053.300000000003,-12074.299999999999,-12655.1,-1789.3800000000001
172066.0,52245.900000000001,-7990.1999999999998,11252.1,42863.099999999999,-11435.799999999999,-10826.0,-1623.54
172067.0,53769.900000000001,-8166.9200000000001,12200.200000000001,46503.599999999999,-11706.4,-7740.1400000000003,-1839.0
172068.0,55785.300000000003,-9247.2700000000004,11671.799999999999,47677.300000000003,-13338.6,-4064.7199999999998,-3718.5
172069.0,54966.900000000001,-4592.7200000000003,14564.9,49660.900000000001,-15413.4,-439.00200000000001,-3510.0999999999999
172070.0,53719.400000000001,1616.9100000000001,12415.200000000001,51912.5,-15911.200000000001,2672.3099999999999,-755.40999999999997
172071.0,54699.300000000003,11178.799999999999,11532.6,58433.599999999999,-15092.0,5460.6499999999996,-972.56100000000004
172072.0,66240.800000000003,-8062.21,17628.200000000001,45220.199999999997,-16478.099999999999,-21805.400000000001,-2357.5500000000002
172073.0,62256.599999999999,-2976.0700000000002,16334.299999999999,47549.699999999997,-16184.1,-19313.599999999999,-2645.4000000000001
172074.0,59658.300000000003,-2946.1799999999998,13013.799999999999,46331.400000000001,-15686.6,-17301.700000000001,-2962.3899999999999
172075.0,57823.199999999997,-2648.0900000000001,11795.1,46316.699999999997,-15247.299999999999,-15509.0,-2918.2199999999998
172076.0,57110.099999999999,-4112.1800000000003,10045.9,45195.800000000003,-15267.9,-14168.4,-2965.98
172077.0,57170.5,-2767.8800000000001,12003.4,47393.199999999997,-15548.799999999999,-12951.4,-3940.1799999999998
172078.0,56885.099999999999,-4172.8699999999999,11339.6,46749.900000000001,-15788.0,-11355.4,-4376.6599999999999
172079.0,55876.699999999997,-3154.1799999999998,12823.0,48370.599999999999,-15743.700000000001,-8992.8099999999995,-4047.1799999999998
172080.0,54650.199999999997,-2493.2199999999998,12136.299999999999,49156.099999999999,-15572.6,-5822.1000000000004,-3233.0900000000001
172081.0,53614.0,2028.4200000000001,12320.0,52360.0,-15423.0,-2499.0999999999999,-2641.1900000000001
172082.0,52483.699999999997,6061.5299999999997,11198.6,53604.099999999999,-15165.200000000001,277.56900000000002,-2701.9000000000001
172083.0,51371.5,10886.0,11931.4,55603.800000000003,-14679.299999999999,2610.25,-2457.2199999999998
172084.0,51223.300000000003,12660.200000000001,9909.2199999999993,55131.900000000001,-14241.0,4963.8100000000004,-2100.3000000000002
172085.0,64509.900000000001,-1183.2,14018.5,47703.699999999997,-16191.299999999999,-22112.900000000001,-3175.79
172086.0,62020.199999999997,-1992.73,11825.299999999999,46874.900000000001,-15392.799999999999,-19963.900000000001,-3478.1199999999999
172087.0,60269.0,-3345.77,10309.0,46046.699999999997,-14787.799999999999,-18123.400000000001,-3620.4099999999999
172088.0,58496.699999999997,-3942.3400000000001,9505.75,45799.699999999997,-14384.4,-16162.200000000001,-3230.2199999999998
172089.0,57217.699999999997,-1892.8199999999999,10283.799999999999,47747.300000000003,-14511.6,-14279.700000000001,-2733.1900000000001
172090.0,55951.0,699.99199999999996,10917.5,49910.400000000001,-14428.6,-12243.1,-3317.5500000000002
172091.0,54031.800000000003,2360.8000000000002,11249.700000000001,51037.199999999997,-13832.4,-9808.9500000000007,-3700.0
172092.0,52743.400000000001,2627.3099999999999,10583.700000000001,51115.599999999999,-13778.0,-7076.6999999999998,-3341.5799999999999
172093.0,51831.199999999997,6249.5699999999997,12369.9,54027.800000000003,-13886.9,-4198.3400000000001,-3014.46
172094.0,50536.199999999997,6511.4300000000003,9798.5699999999997,52714.800000000003,-13335.1,-1435.3199999999999,-2618.9200000000001
172095.0,49849.0,10265.4,10520.6,54730.199999999997,-12866.1,1034.27,-2534.3899999999999
172096.0,49658.400000000001,10068.5,7668.3500000000004,52618.400000000001,-12807.9,3281.1999999999998,-2777.54
172097.0,49452.099999999999,15680.299999999999,11428.700000000001,56165.800000000003,-13161.799999999999,5055.8599999999997,-2571.7600000000002
172098.0,7418.8500000000004,-945.49699999999996,-223.75899999999999,-4529.0100000000002,-430.69,-3574.5100000000002,-259.89100000000002
172099.0,7424.8800000000001,-1434.6099999999999,-190.49700000000001,-4195.9499999999998,-382.80399999999997,-3739.7600000000002,-203.072
172100.0,7391.5299999999997,-1918.8,-194.471,-3850.0799999999999,-338.15800000000002,-3837.9099999999999,-152.43299999999999
172101.0,7336.75,-2318.0100000000002,-128.62,-3397.9699999999998,-288.15899999999999,-3882.6300000000001,-100.419
172102.0,7296.6400000000003,-2799.0500000000002,-136.916,-2997.2600000000002,-245.88399999999999,-3890.1300000000001,-46.022799999999997
172103.0,7285.3400000000001,-3275.3499999999999,-154.97399999999999,-2568.73,-224.94200000000001,-3868.3699999999999,-10.707599999999999
172104.0,7254.6700000000001,-3720.23,-194.096,-2151.8299999999999,-202.08199999999999,-3792.29,-8.7510999999999992
172105.0,7164.8699999999999,-4060.25,-161.09100000000001,-1711.22,-158.41499999999999,-3637.6300000000001,-17.776700000000002
172106.0,7028.54,-4418.8699999999999,-148.81999999999999,-1341.77,-115.011,-3405.7600000000002,-14.066700000000001
172107.0,6881.8299999999999,-4736.7299999999996,-135.12200000000001,-968.08100000000002,-91.980699999999999,-3125.0799999999999,7.0460399999999996
172108.0,6758.71,-4968.2399999999998,-96.109200000000001,-528.11699999999996,-87.652000000000001,-2818.7600000000002,21.485700000000001
172109.0,6647.2200000000003,-5209.8800000000001,-144.328,-147.285,-110.34,-2483.4899999999998,19.187999999999999
172110.0,6515.0699999999997,-5241.3100000000004,-87.398700000000005,345.93200000000002,-143.578,-2113.4499999999998,12.016500000000001
172111.0,6337.3999999999996,-5266.2700000000004,-125.967,690.69399999999996,-156.97300000000001,-1712.8,-7.6358800000000002
172112.0,7654.3599999999997,-863.97699999999998,-83.725200000000001,-4553.1999999999998,-422.29599999999999,-3687.8000000000002,-228.69499999999999
172113.0,7656.4799999999996,-1422.6400000000001,-122.129,-4273.6199999999999,-376.57999999999998,-3854.77,-174.47800000000001
172114.0,7632.2700000000004,-1883.8399999999999,-93.720500000000001,-3875.54,-331.59699999999998,-3963.9400000000001,-124.232
172115.0,7573.79,-2453.0799999999999,-197.44300000000001,-3566.5999999999999,-289.48399999999998,-4010.5,-79.512500000000003
172116.0,7528.3299999999999,-2852.0500000000002,-127.98399999999999,-3051.3499999999999,-253.113,-4019.79,-37.572699999999998
172117.0,7532.5699999999997,-3355.1399999999999,-150.10599999999999,-2626.98,-221.733,-4005.1300000000001,-7.7802699999999998
172118.0,7528.0699999999997,-3728.3099999999999,-74.538499999999999,-2105.0900000000001,-195.19300000000001,-3937.1500000000001,2.0561099999999999
172119.0,7453.7600000000002,-4179.5299999999997,-135.791,-1739.71,-157.572,-3787.9400000000001,-2.7386200000000001
172120.0,7333.1800000000003,-4524.7200000000003,-94.313900000000004,-1316.3499999999999,-112.188,-3560.4299999999998,-1.11206
172121.0,7197.8299999999999,-4944.6499999999996,-165.892,-1008.9299999999999,-80.494500000000002,-3279.73,17.5075
172122.0,7085.8999999999996,-5213.0699999999997,-136.511,-576.64200000000005,-59.269599999999997,-2970.2199999999998,24.779
172123.0,7002.1800000000003,-5477.9799999999996,-141.172,-186.99000000000001,-67.602400000000003,-2631.6700000000001,14.494400000000001
172124.0,6882.9799999999996,-5580.5600000000004,-99.7072,278.10000000000002,-100.16500000000001,-2242.9000000000001,9.0259599999999995
172125.0,6655.21,-5580.6300000000001,-134.91300000000001,636.11500000000001,-117.48699999999999,-1807.52,-4.0564600000000004
172126.0,7767.7399999999998,-868.89499999999998,-119.014,-4601.9300000000003,-428.67099999999999,-3757.6300000000001,-208.26300000000001
172127.0,7775.0500000000002,-1377.25,-116.06399999999999,-4268.5100000000002,-391.25999999999999,-3929.4099999999999,-158.27600000000001
172128.0,7758.8000000000002,-1846.1700000000001,-91.425299999999993,-3863.1900000000001,-347.98700000000002,-4045.96,-114.714
172129.0,7729.8100000000004,-2296.3299999999999,-46.351900000000001,-3411.3299999999999,-315.029,-4107.5900000000001,-83.746600000000001
172130.0,7708.9399999999996,-2809.8899999999999,-68.612899999999996,-2995.3899999999999,-282.19,-4128.0900000000001,-51.680999999999997
172131.0,7702.29,-3316.8600000000001,-98.934700000000007,-2563.98,-244.875,-4108.7299999999996,-18.459800000000001
172132.0,7697.4300000000003,-3772.4499999999998,-96.561199999999999,-2101.8499999999999,-211.44999999999999,-4039.5599999999999,2.4949499999999998
172133.0,7653.21,-4216.4499999999998,-118.90000000000001,-1694.6800000000001,-171.154,-3901.5999999999999,4.95268
172134.0,7546.6300000000001,-4571.2200000000003,-76.534300000000002,-1256.01,-124.0,-3679.3699999999999,7.3416600000000001
172135.0,7410.1800000000003,-4908.0799999999999,-71.093000000000004,-843.12300000000005,-90.671300000000002,-3397.3800000000001,20.8446
172136.0,7277.6800000000003,-5097.71,19.448799999999999,-330.18900000000002,-59.5976,-3078.6300000000001,23.914300000000001
172137.0,7195.29,-5443.5900000000001,-43.837299999999999,-15.6617,-37.607900000000001,-2735.9699999999998,20.312200000000001
172138.0,7107.8299999999999,-5549.4700000000003,58.0137,488.78800000000001,-47.4465,-2343.0,13.507899999999999
172139.0,6858.1899999999996,-5579.7200000000003,9.0205400000000004,828.976,-83.007900000000006,-1873.0699999999999,-7.72506
172140.0,7876.79,-851.95100000000002,-133.45400000000001,-4643.6700000000001,-414.87299999999999,-3822.23,-164.81
172141.0,7886.4799999999996,-1343.24,-120.869,-4279.2700000000004,-386.88200000000001,-4000.1599999999999,-115.887
172142.0,7884.8199999999997,-1866.3900000000001,-146.02699999999999,-3918.8699999999999,-342.642,-4127.0299999999997,-76.687299999999993
172143.0,7886.3999999999996,-2414.4099999999999,-173.001,-3547.7600000000002,-302.67399999999998,-4205.7299999999996,-49.082000000000001
172144.0,7878.6199999999999,-2914.75,-164.24100000000001,-3102.0500000000002,-266.65600000000001,-4232.5100000000002,-21.218699999999998
172145.0,7872.6300000000001,-3363.4000000000001,-127.12,-2593.0300000000002,-231.971,-4212.79,8.1715900000000001
172146.0,7867.9799999999996,-3843.5999999999999,-142.36600000000001,-2131.8499999999999,-195.89699999999999,-4143.0100000000002,29.504000000000001
172147.0,7824.04,-4246.5,-122.36799999999999,-1656.1400000000001,-151.25800000000001,-4004.4699999999998,37.594999999999999
172148.0,7718.8599999999997,-4666.3800000000001,-151.822,-1260.51,-102.529,-3783.2600000000002,40.407299999999999
172149.0,7590.3800000000001,-5024.8100000000004,-163.19900000000001,-849.08100000000002,-68.429400000000001,-3503.4299999999998,46.869300000000003
172150.0,7459.0,-5352.9799999999996,-204.398,-463.70400000000001,-36.862099999999998,-3182.6199999999999,42.733499999999999
172151.0,7358.4799999999996,-5543.54,-121.574,2.0630999999999999,10.5907,-2831.8400000000001,42.805999999999997
172152.0,7271.8599999999997,-5855.9799999999996,-204.43899999999999,317.30700000000002,39.203000000000003,-2429.73,34.743899999999996
172153.0,7041.21,-5815.0600000000004,-121.414,768.88,-4.2607200000000001,-1940.73,-5.6170600000000004
172154.0,7980.3999999999996,-866.14999999999998,-188.464,-4716.3000000000002,-406.209,-3883.5599999999999,-133.446
172155.0,8007.1899999999996,-1288.1900000000001,-99.647599999999997,-4266.3500000000004,-389.28699999999998,-4074.96,-86.999600000000001
172156.0,8019.96,-1867.1700000000001,-175.46000000000001,-3949.5100000000002,-342.07600000000002,-4212.71,-48.747300000000003
172157.0,8031.71,-2287.1399999999999,-68.243300000000005,-3440.6999999999998,-290.45299999999997,-4298.8699999999999,-13.704000000000001
172158.0,8039.54,-2893.23,-147.33199999999999,-3086.8499999999999,-249.084,-4333.5299999999997,12.987
172159.0,8050.9300000000003,-3352.0,-91.411600000000007,-2561.1700000000001,-217.04499999999999,-4320.2700000000004,34.721899999999998
172160.0,8052.8500000000004,-3913.0700000000002,-173.107,-2158.1900000000001,-183.39599999999999,-4251.8999999999996,50.920499999999997
172161.0,8007.3000000000002,-4271.6899999999996,-104.264,-1610.21,-143.62899999999999,-4110.3299999999999,60.875300000000003
172162.0,7909.0500000000002,-4716.0500000000002,-160.792,-1210.3,-95.926100000000005,-3892.0,61.714799999999997
172163.0,7786.3199999999997,-4977.9399999999996,-65.871799999999993,-683.56899999999996,-57.457099999999997,-3611.4899999999998,64.329999999999998
172164.0,7666.7200000000003,-5320.79,-106.411,-300.78899999999999,-17.148399999999999,-3293.9899999999998,64.741100000000003
172165.0,7521.6899999999996,-5517.3500000000004,-74.083600000000004,142.024,44.664200000000001,-2927.1900000000001,64.007400000000004
172166.0,7375.5600000000004,-5677.7399999999998,-66.196600000000004,572.52599999999995,93.992900000000006,-2508.9099999999999,48.057000000000002
172167.0,7166.9700000000003,-5723.6800000000003,-18.014500000000002,974.202,60.5807,-2012.78,-9.4436400000000003
172168.0,8077.4799999999996,-801.17100000000005,-182.75899999999999,-4715.7299999999996,-399.19600000000003,-3941.6500000000001,-101.429
172169.0,8129.8100000000004,-1268.8499999999999,-123.84699999999999,-4296.46,-386.20999999999998,-4151.0799999999999,-51.341799999999999
172170.0,8151.04,-1844.3199999999999,-192.41300000000001,-3956.77,-339.46600000000001,-4297.75,-19.178699999999999
172171.0,8155.2799999999997,-2325.8800000000001,-154.613,-3494.3699999999999,-288.68000000000001,-4383.3400000000001,15.293100000000001
172172.0,8177.3100000000004,-2920.8099999999999,-209.649,-3115.8800000000001,-238.80500000000001,-4426.1999999999998,45.956699999999998
172173.0,8212.4400000000005,-3390.5100000000002,-134.00800000000001,-2588.23,-195.54400000000001,-4422.6199999999999,70.212000000000003
172174.0,8233.5799999999999,-3941.73,-172.84700000000001,-2147.3299999999999,-156.785,-4360.1899999999996,87.454499999999996
172175.0,8204.2099999999991,-4351.1999999999998,-128.09100000000001,-1609.8900000000001,-121.15900000000001,-4221.6300000000001,93.019499999999994
172176.0,8118.6800000000003,-4818.4200000000001,-197.22900000000001,-1207.8800000000001,-79.626199999999997,-4006.8299999999999,88.459199999999996
172177.0,8005.7200000000003,-5135.04,-148.57300000000001,-717.24699999999996,-38.571100000000001,-3728.75,88.777000000000001
172178.0,7867.0299999999997,-5496.6700000000001,-223.29900000000001,-338.851,10.486599999999999,-3398.73,88.051699999999997
172179.0,7667.7399999999998,-5600.5500000000002,-147.44499999999999,174.471,59.402700000000003,-3009.4200000000001,78.498900000000006
172180.0,7485.1000000000004,-5825.3599999999997,-238.78100000000001,502.90199999999999,102.038,-2587.4400000000001,49.8538
172181.0,7284.1099999999997,-5820.7799999999997,-117.608,977.43799999999999,93.402199999999993,-2086.4899999999998,-20.7272
172182.0,8184.75,-768.56899999999996,-222.81999999999999,-4761.7399999999998,-396.78100000000001,-4003.3400000000001,-70.590999999999994
172183.0,8256.0400000000009,-1210.1400000000001,-117.536,-4291.0900000000001,-380.55700000000002,-4229.8400000000001,-15.482200000000001
172184.0,8291.2099999999991,-1843.9400000000001,-227.45500000000001,-3990.1999999999998,-336.43599999999998,-4386.1700000000001,11.958500000000001
172185.0,8304.1499999999996,-2241.79,-100.45999999999999,-3425.3299999999999,-288.08699999999999,-4479.0,41.946100000000001
172186.0,8326.9400000000005,-2898.0900000000001,-212.78100000000001,-3092.4499999999998,-233.55500000000001,-4523.5600000000004,72.706599999999995
172187.0,8366.4899999999998,-3364.6300000000001,-126.717,-2547.4899999999998,-180.55199999999999,-4522.6000000000004,104.35899999999999
172188.0,8397.1000000000004,-4016.7399999999998,-246.381,-2178.6500000000001,-131.09399999999999,-4462.8100000000004,123.57599999999999
172189.0,8383.6100000000006,-4405.9200000000001,-157.06200000000001,-1590.96,-93.634900000000002,-4328.0,125.735
172190.0,8314.3099999999995,-4901.4200000000001,-233.928,-1186.55,-53.224600000000002,-4116.1700000000001,121.324
172191.0,8207.3099999999995,-5184.0799999999999,-148.44999999999999,-641.18700000000001,-3.3207399999999998,-3838.1900000000001,123.242
172192.0,8043.3100000000004,-5519.1899999999996,-219.143,-236.84200000000001,44.4251,-3495.4200000000001,112.523
172193.0,7823.1899999999996,-5606.5200000000004,-127.46599999999999,295.05700000000002,68.429900000000004,-3090.5,83.731200000000001
172194.0,7632.5200000000004,-5834.3599999999997,-205.72499999999999,588.23500000000001,107.099,-2672.8000000000002,52.937800000000003
172195.0,7432.96,-5839.8100000000004,-85.799999999999997,1047.1700000000001,121.48399999999999,-2182.6500000000001,-20.030200000000001
172196.0,8305.0400000000009,-649.13300000000004,-191.53399999999999,-4732.6300000000001,-396.65499999999997,-4072.04,-37.543500000000002
172197.0,8378.8299999999999,-1198.3699999999999,-174.16300000000001,-4337.3999999999996,-371.86399999999998,-4307.7700000000004,24.284099999999999
172198.0,8434.9099999999999,-1775.0899999999999,-199.61799999999999,-3954.2800000000002,-331.17200000000003,-4477.6599999999999,45.774999999999999
172199.0,8470.7700000000004,-2334.23,-210.31999999999999,-3533.3000000000002,-286.36700000000002,-4582.5200000000004,68.174499999999995
172200.0,8497.6000000000004,-2886.7199999999998,-212.61199999999999,-3082.3699999999999,-230.59299999999999,-4629.9300000000003,97.824799999999996
172201.0,8523.9300000000003,-3415.4200000000001,-198.59800000000001,-2577.3600000000001,-171.99299999999999,-4624.6400000000003,132.22300000000001
172202.0,8541.8899999999994,-3934.8000000000002,-195.20699999999999,-2057.5999999999999,-117.95399999999999,-4559.4700000000003,149.982
172203.0,8537.2199999999993,-4436.6199999999999,-200.17099999999999,-1555.6199999999999,-79.388900000000007,-4425.4700000000003,150.81899999999999
172204.0,8483.7000000000007,-4873.5200000000004,-202.024,-1063.52,-39.890099999999997,-4217.5200000000004,147.61000000000001
172205.0,8360.8999999999996,-5239.2799999999997,-218.51900000000001,-587.42499999999995,10.796900000000001,-3930.6300000000001,144.81100000000001
172206.0,8193.2099999999991,-5517.6099999999997,-218.11099999999999,-119.666,49.490499999999997,-3580.4200000000001,125.248
172207.0,8000.3800000000001,-5745.71,-221.44999999999999,293.13200000000001,70.096000000000004,-3180.5100000000002,80.814899999999994
172208.0,7762.9700000000003,-5871.9899999999998,-201.23500000000001,643.01700000000005,111.99299999999999,-2742.23,54.252899999999997
172209.0,7558.4899999999998,-6019.71,-225.01300000000001,929.22400000000005,143.74799999999999,-2270.75,13.924899999999999
172210.0,8442.1399999999994,-570.06700000000001,-212.84,-4752.7399999999998,-399.69400000000002,-4150.25,-4.0808600000000004
172211.0,8505.1100000000006,-1143.1800000000001,-197.429,-4343.4200000000001,-365.09500000000003,-4388.0,60.151299999999999
172212.0,8582.6900000000005,-1739.28,-217.483,-3958.8000000000002,-323.21899999999999,-4571.9700000000003,82.801299999999998
172213.0,8636.4599999999991,-2285.1900000000001,-186.44900000000001,-3501.3000000000002,-273.54899999999998,-4686.6700000000001,105.21299999999999
172214.0,8674.1399999999994,-2891.8600000000001,-228.63,-3086.29,-220.047,-4739.6800000000003,133.19200000000001
172215.0,8698.0300000000007,-3424.7800000000002,-217.608,-2565.0500000000002,-165.54300000000001,-4733.96,157.733
172216.0,8718.8700000000008,-3986.5599999999999,-245.72,-2062.4200000000001,-117.224,-4668.9399999999996,165.63999999999999
172217.0,8730.5,-4486.6099999999997,-220.93100000000001,-1527.3499999999999,-75.619100000000003,-4538.4499999999998,165.245
172218.0,8686.8799999999992,-4968.5900000000001,-250.25899999999999,-1048.21,-34.943800000000003,-4329.7799999999997,166.27500000000001
172219.0,8555.1399999999994,-5280.6300000000001,-219.88399999999999,-494.93900000000002,7.6875499999999999,-4034.2199999999998,153.57599999999999
172220.0,8385.0300000000007,-5593.2399999999998,-235.36000000000001,-51.3354,46.964300000000001,-3675.48,126.636
172221.0,8199.5799999999999,-5853.5699999999997,-249.19,329.90100000000001,85.858500000000006,-3276.1999999999998,82.975399999999993
172222.0,7899.7200000000003,-5914.8400000000001,-188.18100000000001,711.06600000000003,121.76600000000001,-2804.6199999999999,59.152000000000001
172223.0,7676.7799999999997,-6021.75,-174.69800000000001,1007.12,145.56299999999999,-2335.71,51.195300000000003
172224.0,8592.0200000000004,-454.16199999999998,-208.15799999999999,-4739.2200000000003,-410.25999999999999,-4236.29,32.148099999999999
172225.0,8640.1200000000008,-1104.8900000000001,-249.095,-4376.1099999999997,-359.685,-4472.2600000000002,95.712999999999994
172226.0,8732.5400000000009,-1662.5999999999999,-204.589,-3924.6700000000001,-314.92000000000002,-4668.1099999999997,122.547
172227.0,8794.75,-2315.6300000000001,-263.16300000000001,-3551.1500000000001,-261.471,-4789.1199999999999,142.15899999999999
172228.0,8837.8299999999999,-2853.3400000000001,-221.215,-3043.3699999999999,-209.28399999999999,-4845.1499999999996,168.364
172229.0,8881.8700000000008,-3466.7600000000002,-264.65100000000001,-2580.8400000000001,-156.78399999999999,-4848.0200000000004,184.87799999999999
172230.0,8935.4699999999993,-4013.7800000000002,-234.798,-2040.6800000000001,-105.206,-4795.3100000000004,188.959
172231.0,8964.8999999999996,-4598.5699999999997,-265.75099999999998,-1557.0,-53.0473,-4669.2399999999998,191.333
172232.0,8922.5599999999995,-5049.7399999999998,-247.14699999999999,-1007.48,-13.111700000000001,-4453.9200000000001,189.54599999999999
172233.0,8806.6599999999999,-5463.3900000000003,-289.49700000000001,-520.63300000000004,17.334900000000001,-4157.3299999999999,162.756
172234.0,8619.6900000000005,-5737.3800000000001,-269.22800000000001,-37.246099999999998,53.630200000000002,-3786.7399999999998,128.12100000000001
172235.0,8390.4099999999999,-5942.9300000000003,-258.45299999999997,372.71600000000001,108.85299999999999,-3368.3400000000001,94.561199999999999
172236.0,8063.5200000000004,-6044.4499999999998,-234.203,731.07100000000003,134.672,-2866.6500000000001,67.238799999999998
172237.0,7812.3999999999996,-6168.6700000000001,-251.90000000000001,975.46100000000001,142.928,-2393.1100000000001,70.346500000000006
172238.0,8743.75,-355.37900000000002,-226.327,-4730.71,-428.63,-4326.6599999999999,75.943200000000004
172239.0,8784.8600000000006,-1017.97,-264.79599999999999,-4365.5600000000004,-359.94799999999998,-4562.0699999999997,132.583
172240.0,8883.4300000000003,-1619.0699999999999,-235.83099999999999,-3925.2800000000002,-304.97399999999999,-4765.6199999999999,164.31200000000001
172241.0,8954.8799999999992,-2256.7800000000002,-259.11799999999999,-3513.0799999999999,-249.328,-4893.0600000000004,181.28
172242.0,9007.0100000000002,-2845.8000000000002,-249.756,-3032.5,-198.73400000000001,-4954.0100000000002,201.75700000000001
172243.0,9070.0300000000007,-3457.2199999999998,-266.66500000000002,-2549.3600000000001,-142.40600000000001,-4965.1199999999999,216.059
172244.0,9139.2600000000002,-4063.6700000000001,-274.48200000000003,-2048.3600000000001,-76.761300000000006,-4918.2600000000002,229.11199999999999
172245.0,9171.5,-4630.3299999999999,-277.452,-1518.45,-12.339,-4791.0699999999997,235.97999999999999
172246.0,9139.8400000000001,-5121.3199999999997,-273.86900000000003,-967.79200000000003,30.212,-4574.1099999999997,224.34399999999999
172247.0,9041.1100000000006,-5523.6599999999999,-265.67899999999997,-439.37299999999999,61.7241,-4276.2799999999997,188.983
172248.0,8849.2000000000007,-5842.9300000000003,-274.411,18.290299999999998,90.369,-3894.2399999999998,146.809
172249.0,8574.8299999999999,-6037.3900000000003,-270.90899999999999,416.76900000000001,140.30099999999999,-3451.4000000000001,117.664
172250.0,8249.0300000000007,-6161.7700000000004,-257.23899999999998,782.54899999999998,165.03,-2935.9200000000001,85.492900000000006
172251.0,7964.3999999999996,-6187.1199999999999,-209.03399999999999,1115.9300000000001,156.483,-2444.8899999999999,63.144199999999998
172252.0,8897.8899999999994,-250.95400000000001,-234.79300000000001,-4700.3999999999996,-449.85199999999998,-4421.5,124.461
172253.0,8943.25,-942.476,-294.45100000000002,-4363.6199999999999,-364.33199999999999,-4660.2200000000003,172.50999999999999
172254.0,9036.6299999999992,-1548.21,-250.21100000000001,-3900.8899999999999,-296.78899999999999,-4864.7399999999998,204.62
172255.0,9120.5,-2245.1500000000001,-306.25900000000001,-3521.1700000000001,-239.02500000000001,-5000.2299999999996,218.84700000000001
172256.0,9188.9400000000005,-2837.2199999999998,-273.85700000000003,-3022.23,-187.489,-5069.0799999999999,234.50999999999999
172257.0,9265.0499999999993,-3481.1700000000001,-306.00700000000001,-2556.1999999999998,-125.297,-5086.0100000000002,252.453
172258.0,9325.0699999999997,-4045.9899999999998,-278.02999999999997,-1991.53,-51.774099999999997,-5034.8900000000003,271.62400000000002
172259.0,9347.2299999999996,-4628.8299999999999,-302.25,-1449.49,17.694700000000001,-4901.29,276.95600000000002
172260.0,9330.5799999999999,-5156.1199999999999,-311.33999999999997,-903.91899999999998,69.021000000000001,-4686.7200000000003,256.48200000000003
172261.0,9246.0699999999997,-5605.8900000000003,-308.01900000000001,-396.84100000000001,107.137,-4385.9399999999996,216.90000000000001
172262.0,9067.8500000000004,-5961.9300000000003,-314.88299999999998,56.835099999999997,138.666,-3998.0900000000001,171.006
172263.0,8758.8999999999996,-6125.6000000000004,-272.01900000000001,488.142,176.71700000000001,-3524.7800000000002,142.083
172264.0,8430.6399999999994,-6312.3800000000001,-328.57299999999998,795.13400000000001,198.74199999999999,-3007.0,112.991
172265.0,8138.9799999999996,-6274.8599999999997,-241.77000000000001,1195.6199999999999,198.67400000000001,-2515.3699999999999,49.220100000000002
172266.0,9054.7900000000009,-154.50800000000001,-246.899,-4665.1400000000003,-467.28800000000001,-4520.4300000000003,176.72800000000001
172267.0,9104.4400000000005,-870.58399999999995,-332.28100000000001,-4358.0600000000004,-369.81099999999998,-4761.29,217.03100000000001
172268.0,9195.3899999999994,-1466.2,-263.06900000000002,-3867.4899999999998,-290.04300000000001,-4967.1499999999996,246.58600000000001
172269.0,9290.5200000000004,-2208.1500000000001,-334.68599999999998,-3507.0799999999999,-225.66300000000001,-5109.7299999999996,259.745
172270.0,9376.3400000000001,-2793.1100000000001,-269.59100000000001,-2980.3899999999999,-170.643,-5187.3599999999997,274.78300000000002
172271.0,9457.5499999999993,-3493.0999999999999,-344.94200000000001,-2550.4899999999998,-103.16500000000001,-5206.3100000000004,296.83999999999997
172272.0,9513.1100000000006,-4049.5599999999999,-306.06299999999999,-1949.0599999999999,-30.4071,-5152.2700000000004,314.20499999999998
172273.0,9537.1000000000004,-4672.5100000000002,-364.49299999999999,-1419.4100000000001,37.502499999999998,-5017.96,308.21800000000002
172274.0,9524.5900000000001,-5162.5500000000002,-319.82400000000001,-813.92100000000005,96.659899999999993,-4800.9499999999998,282.28300000000002
172275.0,9445.1599999999999,-5675.54,-355.22399999999999,-345.68900000000002,151.61600000000001,-4494.5100000000002,247.387
172276.0,9269.1100000000006,-6018.4300000000003,-322.33300000000003,147.25,199.84700000000001,-4095.9699999999998,203.93899999999999
172277.0,8944.7700000000004,-6264.6800000000003,-335.33800000000002,526.28700000000003,225.94200000000001,-3594.5900000000001,167.41499999999999
172278.0,8603.4699999999993,-6355.4700000000003,-300.875,920.83299999999997,235.87200000000001,-3068.3800000000001,141.839
172279.0,8295.8600000000006,-6366.4399999999996,-296.05200000000002,1240.6700000000001,256.65699999999998,-2585.8800000000001,89.229600000000005
172280.0,9204.5699999999997,-62.863999999999997,-267.298,-4624.8000000000002,-484.74599999999998,-4616.7799999999997,227.14400000000001
172281.0,9264.2399999999998,-782.25699999999995,-359.70999999999998,-4326.8299999999999,-379.70699999999999,-4863.0500000000002,261.822
172282.0,9354.6800000000003,-1383.3299999999999,-286.54700000000003,-3831.3699999999999,-287.24700000000001,-5070.4799999999996,289.995
172283.0,9461.1000000000004,-2161.04,-366.39800000000002,-3486.0799999999999,-211.79499999999999,-5220.04,303.88600000000002
172284.0,9563.3099999999995,-2776.1700000000001,-304.76799999999997,-2967.8499999999999,-151.06200000000001,-5306.0,320.98700000000002
172285.0,9646.2399999999998,-3472.77,-366.40800000000002,-2509.1999999999998,-80.536900000000003,-5325.8199999999997,342.916
172286.0,9706.2299999999996,-4050.3899999999999,-332.637,-1897.1900000000001,-9.9403400000000008,-5272.0200000000004,353.54599999999999
172287.0,9747.25,-4689.8500000000004,-383.97399999999999,-1361.5599999999999,59.878500000000003,-5143.3800000000001,340.62599999999998
172288.0,9738.9200000000001,-5219.4700000000003,-358.09800000000001,-768.49400000000003,127.389,-4922.7299999999996,311.80099999999999
172289.0,9645.3899999999994,-5722.2799999999997,-383.721,-269.31599999999997,190.61199999999999,-4603.2299999999996,277.69200000000001
172290.0,9449.3199999999997,-6086.6099999999997,-373.96300000000002,220.131,251.37700000000001,-4185.3400000000001,236.399
172291.0,9125.6599999999999,-6325.8500000000004,-348.20499999999998,646.64999999999998,277.63299999999998,-3663.6900000000001,191.256
172292.0,8776.1700000000001,-6482.9099999999999,-368.12299999999999,977.65999999999997,276.85899999999998,-3123.8899999999999,167.59399999999999
172293.0,8461.0599999999995,-6498.4200000000001,-352.44299999999998,1324.71,274.233,-2608.8400000000001,131.94200000000001
172294.0,9349.0400000000009,22.026499999999999,-295.91300000000001,-4580.0699999999997,-504.63099999999997,-4711.5900000000001,274.596
172295.0,9425.2399999999998,-678.51599999999996,-370.74900000000002,-4268.1000000000004,-394.58100000000002,-4966.7200000000003,304.68200000000002
172296.0,9516.5100000000002,-1323.1400000000001,-337.82299999999998,-3812.2800000000002,-291.21100000000001,-5175.6400000000003,330.95699999999999
172297.0,9627.9799999999996,-2074.5900000000001,-376.13200000000001,-3424.5599999999999,-201.87700000000001,-5329.5200000000004,348.50799999999998
172298.0,9740.1000000000004,-2757.6100000000001,-361.16800000000001,-2953.4200000000001,-131.511,-5420.8199999999997,370.24799999999999
172299.0,9829.3700000000008,-3425.7800000000002,-378.13299999999998,-2440.52,-59.866100000000003,-5443.4200000000001,390.32400000000001
172300.0,9905.0599999999995,-4068.9699999999998,-388.02300000000002,-1868.6099999999999,14.6227,-5395.96,395.29399999999998
172301.0,9958.1200000000008,-4682.3299999999999,-383.59100000000001,-1276.6600000000001,93.821799999999996,-5268.3000000000002,380.87099999999998
172302.0,9955.2800000000007,-5294.5600000000004,-422.01900000000001,-744.04600000000005,171.45099999999999,-5045.3800000000001,353.78399999999999
172303.0,9852.7900000000009,-5734.5100000000002,-374.51499999999999,-151.47399999999999,238.155,-4712.8900000000003,315.41000000000003
172304.0,9634.1399999999994,-6159.4399999999996,-429.02499999999998,297.90499999999997,298.75799999999998,-4273.9200000000001,269.51900000000001
172305.0,9308.8299999999999,-6372.9300000000003,-361.79599999999999,786.76599999999996,326.983,-3734.3800000000001,215.649
172306.0,8961.75,-6578.3900000000003,-412.863,1092.05,323.36099999999999,-3179.71,191.827
172307.0,8660.5599999999995,-6540.2700000000004,-312.91699999999997,1545.8699999999999,305.08699999999999,-2635.9200000000001,154.52799999999999
172308.0,9501.6499999999996,80.764499999999998,-342.44,-4553.3100000000004,-523.35299999999995,-4812.1899999999996,313.90600000000001
172309.0,9592.5,-589.18499999999995,-385.45999999999998,-4212.54,-413.02499999999998,-5074.3100000000004,341.53100000000001
172310.0,9686.4099999999999,-1256.5599999999999,-378.29599999999999,-3778.8400000000001,-302.697,-5285.2200000000003,366.36900000000003
172311.0,9797.6399999999994,-2001.95,-406.51299999999998,-3374.3800000000001,-202.679,-5440.7600000000002,385.64499999999998
172312.0,9914.0499999999993,-2703.71,-394.971,-2901.25,-122.393,-5535.0200000000004,411.78199999999998
172313.0,10015.5,-3402.5300000000002,-418.10599999999999,-2388.48,-46.321599999999997,-5562.75,433.154
172314.0,10104.5,-4047.9499999999998,-413.94499999999999,-1800.75,39.178899999999999,-5520.4399999999996,439.75
172315.0,10157.6,-4703.1499999999996,-440.209,-1227.9300000000001,132.501,-5389.5,427.82299999999998
172316.0,10146.799999999999,-5271.8999999999996,-427.84699999999998,-628.08000000000004,220.90299999999999,-5157.1000000000004,404.197
172317.0,10047.0,-5812.3599999999997,-460.41800000000001,-96.553399999999996,294.75400000000002,-4815.6700000000001,358.77600000000001
172318.0,9817.3899999999994,-6194.0900000000001,-451.57900000000001,421.79700000000003,348.26799999999997,-4358.3800000000001,303.57799999999997
172319.0,9501.5699999999997,-6477.6000000000004,-440.13200000000001,876.48900000000003,373.00999999999999,-3810.0500000000002,244.50999999999999
172320.0,9167.6000000000004,-6624.7700000000004,-415.14999999999998,1277.8,373.28800000000001,-3242.6999999999998,218.77600000000001
172321.0,8884.4699999999993,-6698.8100000000004,-415.52600000000001,1677.22,350.59800000000001,-2674.4699999999998,180.86500000000001
172322.0,9669.2800000000007,148.126,-372.35399999999998,-4525.9899999999998,-538.96799999999996,-4918.5,347.827
172323.0,9772.0900000000001,-517.96199999999999,-404.85500000000002,-4170.9899999999998,-429.72199999999998,-5188.0500000000002,374.89999999999998
172324.0,9871.8400000000001,-1202.9000000000001,-414.94200000000001,-3752.7199999999998,-317.59899999999999,-5402.0100000000002,397.51100000000002
172325.0,9983.7900000000009,-1930.4300000000001,-425.91800000000001,-3323.3200000000002,-209.68799999999999,-5559.1899999999996,420.72300000000001
172326.0,10097.0,-2657.27,-435.86900000000003,-2854.2399999999998,-118.511,-5653.2700000000004,453.81099999999998
172327.0,10209.6,-3339.5500000000002,-426.12799999999999,-2297.9099999999999,-30.7669,-5686.5,477.863
172328.0,10299.299999999999,-4049.5100000000002,-472.87700000000001,-1753.3699999999999,63.949399999999997,-5642.1000000000004,487.25
172329.0,10345.4,-4651.8299999999999,-448.654,-1105.9100000000001,167.315,-5504.9399999999996,480.62200000000001
172330.0,10321.200000000001,-5276.8599999999997,-492.661,-537.01800000000003,265.30200000000002,-5260.6499999999996,452.82400000000001
172331.0,10220.799999999999,-5771.1199999999999,-464.755,66.6678,347.06700000000001,-4911.3699999999999,399.17099999999999
172332.0,9996.0100000000002,-6235.2700000000004,-498.86700000000002,549.15499999999997,399.779,-4437.9899999999998,335.18000000000001
172333.0,9696.0300000000007,-6511.6999999999998,-459.98899999999998,1040.8,419.38900000000001,-3885.5500000000002,279.83100000000002
172334.0,9395.9300000000003,-6711.6700000000001,-467.43599999999998,1448.96,428.01400000000001,-3311.8800000000001,257.411
172335.0,9149.8999999999996,-6772.3000000000002,-434.75799999999998,1933.1500000000001,397.04300000000001,-2728.9099999999999,207.18899999999999
172336.0,9849.3899999999994,196.26400000000001,-419.255,-4523.4700000000003,-551.32899999999995,-5030.1499999999996,383.78500000000003
172337.0,9960.0100000000002,-436.10700000000003,-408.67000000000002,-4119.5900000000001,-441.99599999999998,-5305.4099999999999,409.71199999999999
172338.0,10069.4,-1164.8499999999999,-457.81,-3741.5500000000002,-328.63799999999998,-5523.9499999999998,433.87599999999998
172339.0,10182.6,-1864.02,-439.17099999999999,-3269.5,-216.435,-5683.2299999999996,461.29700000000003
172340.0,10295.9,-2627.5300000000002,-483.45800000000003,-2815.0700000000002,-118.598,-5779.0799999999999,495.51400000000001
172341.0,10407.700000000001,-3301.3600000000001,-463.82600000000002,-2232.8099999999999,-18.995999999999999,-5811.8500000000004,524.57600000000002
172342.0,10489.700000000001,-4004.0,-501.988,-1653.04,88.283600000000007,-5761.3500000000004,539.75999999999999
172343.0,10523.700000000001,-4616.4899999999998,-487.23399999999998,-990.59199999999998,197.386,-5614.1999999999998,531.92700000000002
172344.0,10490.0,-5263.3500000000004,-552.78200000000004,-421.64400000000001,300.07600000000002,-5360.4799999999996,496.80000000000001
172345.0,10383.5,-5751.8400000000001,-512.01999999999998,201.08699999999999,393.69499999999999,-5002.4099999999999,439.43599999999998
172346.0,10174.5,-6256.1999999999998,-548.88199999999995,690.61300000000006,453.24400000000003,-4520.4799999999996,372.31299999999999
172347.0,9902.4200000000001,-6530.0900000000001,-478.01499999999999,1239.1800000000001,474.56299999999999,-3962.71,318.35399999999998
172348.0,9624.3899999999994,-6773.0500000000002,-519.46600000000001,1656.8900000000001,485.76400000000001,-3376.2199999999998,300.31099999999998
172349.0,9452.7099999999991,-6860.9099999999999,-493.24799999999999,2200.9000000000001,438.49200000000002,-2807.3499999999999,239.62700000000001
172350.0,10038.299999999999,281.75299999999999,-430.35500000000002,-4487.25,-559.5,-5145.8500000000004,421.91199999999998
172351.0,10155.6,-388.07100000000003,-445.70100000000002,-4105.5600000000004,-451.82100000000003,-5425.7200000000003,447.32100000000003
172352.0,10271.5,-1095.6099999999999,-469.39100000000002,-3694.6100000000001,-337.21300000000002,-5648.3299999999999,475.45400000000001
172353.0,10389.200000000001,-1828.5,-481.94499999999999,-3239.48,-221.83799999999999,-5811.3599999999997,505.911
172354.0,10506.0,-2570.6700000000001,-499.63499999999999,-2742.9099999999999,-116.05500000000001,-5909.8199999999997,542.101
172355.0,10611.9,-3266.8400000000001,-502.05500000000001,-2159.98,-9.0919600000000003,-5938.7799999999997,576.40300000000002
172356.0,10688.799999999999,-3972.1500000000001,-542.49400000000003,-1552.4100000000001,106.459,-5883.8100000000004,588.822
172357.0,10710.0,-4613.5500000000002,-549.03700000000003,-897.31299999999999,220.66499999999999,-5725.29,575.96500000000003
172358.0,10666.799999999999,-5225.0799999999999,-579.18700000000001,-267.35300000000001,326.404,-5461.0500000000002,535.71000000000004
172359.0,10545.1,-5740.8500000000004,-564.66099999999994,335.358,430.06599999999997,-5089.0299999999997,478.75099999999998
172360.0,10354.700000000001,-6263.0200000000004,-598.197,850.197,498.40499999999997,-4602.9099999999999,416.40199999999999
172361.0,10122.700000000001,-6591.8000000000002,-566.96900000000005,1406.25,534.91200000000003,-4047.5700000000002,356.226
172362.0,9838.3400000000001,-6771.9099999999999,-545.84100000000001,1920.1500000000001,535.68200000000002,-3434.4200000000001,340.43599999999998
172363.0,9803.2399999999998,-6917.1700000000001,-549.45399999999995,2537.3099999999999,470.87700000000001,-2913.2600000000002,286.041
172364.0,10235.0,336.50799999999998,-479.28899999999999,-4489.9200000000001,-565.25,-5264.1199999999999,462.56700000000001
172365.0,10360.799999999999,-315.21499999999997,-456.928,-4068.4099999999999,-458.62599999999998,-5550.4399999999996,489.51400000000001
172366.0,10482.4,-1056.5,-509.51900000000001,-3674.2600000000002,-344.44200000000001,-5777.25,520.01199999999994
172367.0,10605.0,-1767.05,-497.178,-3178.1399999999999,-225.334,-5944.1000000000004,553.88099999999997
172368.0,10721.799999999999,-2535.96,-539.13900000000001,-2684.7199999999998,-112.559,-6043.0600000000004,593.75800000000004
172369.0,10823.5,-3236.3299999999999,-543.63699999999994,-2075.6100000000001,1.22465,-6068.6800000000003,629.32600000000002
172370.0,10888.1,-3932.8800000000001,-580.33299999999997,-1437.8800000000001,125.455,-6004.8599999999997,639.78300000000002
172371.0,10895.799999999999,-4575.79,-586.78899999999999,-762.67600000000004,247.05600000000001,-5834.4099999999999,625.27800000000002
172372.0,10848.0,-5209.96,-632.58000000000004,-129.84700000000001,359.245,-5561.3999999999996,576.85699999999997
172373.0,10701.9,-5716.8100000000004,-605.97799999999995,494.79500000000002,463.66699999999997,-5167.54,521.99000000000001
172374.0,10540.799999999999,-6262.0699999999997,-658.55100000000004,1026.4100000000001,542.20000000000005,-4687.2200000000003,460.63
172375.0,10322.0,-6535.96,-583.99699999999996,1681.51,589.05700000000002,-4122.8400000000001,394.553
172376.0,10048.5,-6793.6599999999999,-652.58699999999999,2163.9099999999999,560.56500000000005,-3495.0799999999999,383.63099999999997
172377.0,10196.200000000001,-6902.5299999999997,-582.83600000000001,2968.6300000000001,495.65300000000002,-3046.9699999999998,354.73599999999999
172378.0,10442.6,432.75799999999998,-492.55000000000001,-4456.9200000000001,-572.66800000000001,-5386.9499999999998,505.15699999999998
172379.0,10572.299999999999,-268.89600000000002,-501.142,-4059.6599999999999,-463.399,-5678.1099999999997,536.25
172380.0,10703.0,-992.41200000000003,-525.726,-3626.4699999999998,-348.63900000000001,-5911.3299999999999,569.46199999999999
172381.0,10827.700000000001,-1739.9200000000001,-547.46100000000001,-3145.54,-226.488,-6080.1800000000003,607.04399999999998
172382.0,10942.799999999999,-2479.9699999999998,-563.28399999999999,-2594.48,-107.307,-6178.8999999999996,650.21900000000005
172383.0,11036.200000000001,-3196.71,-584.76900000000001,-1974.7,13.6471,-6198.6800000000003,683.50199999999995
172384.0,11088.299999999999,-3894.96,-620.601,-1310.0999999999999,140.76599999999999,-6124.3699999999999,689.73699999999997
172385.0,11076.9,-4543.4399999999996,-638.26700000000005,-616.65800000000002,265.11000000000001,-5938.6000000000004,670.95100000000002
172386.0,11020.9,-5156.8800000000001,-665.37900000000002,44.204900000000002,392.17399999999998,-5656.1499999999996,621.26599999999996
172387.0,10856.9,-5686.1300000000001,-649.73400000000004,681.697,492.00700000000001,-5239.2399999999998,563.57600000000002
172388.0,10716.1,-6205.8500000000004,-704.80200000000002,1233.96,588.56100000000004,-4772.1899999999996,512.62900000000002
172389.0,10519.5,-6483.9300000000003,-622.072,1960.4300000000001,648.27700000000004,-4189.5699999999997,437.01900000000001
172390.0,10312.700000000001,-6691.1700000000001,-626.09799999999996,2578.8000000000002,558.71799999999996,-3574.6799999999998,441.762
172391.0,10696.6,-6873.0900000000001,-576.42600000000004,3509.71,520.08100000000002,-3209.3299999999999,459.42899999999997
172392.0,10660.6,483.57400000000001,-555.41200000000003,-4471.0900000000001,-580.15800000000002,-5514.96,551.60799999999995
172393.0,10792.299999999999,-174.81800000000001,-504.423,-4002.3899999999999,-469.52499999999998,-5810.6099999999997,584.77599999999995
172394.0,10927.5,-964.93600000000004,-586.64400000000001,-3612.0799999999999,-352.48200000000003,-6047.71,622.41899999999998
172395.0,11056.1,-1656.3399999999999,-546.40899999999999,-3047.4499999999998,-226.95099999999999,-6219.5600000000004,664.31299999999999
172396.0,11168.299999999999,-2458.8899999999999,-627.80499999999995,-2529.1799999999998,-102.756,-6316.9399999999996,707.40200000000004
172397.0,11248.9,-3128.3099999999999,-603.70299999999997,-1832.4300000000001,24.2455,-6327.7399999999998,738.24599999999998
172398.0,11290.4,-3866.4499999999998,-678.08199999999999,-1182.9400000000001,158.983,-6242.9700000000003,744.49699999999996
172399.0,11268.5,-4484.4300000000003,-657.49300000000005,-422.16399999999999,285.86500000000001,-6044.5900000000001,711.98400000000004
172400.0,11180.0,-5154.9200000000001,-750.22299999999996,173.03700000000001,414.61500000000001,-5739.3900000000003,667.08600000000001
172401.0,11033.6,-5651.0200000000004,-690.26800000000003,891.54700000000003,516.428,-5319.0699999999997,607.03499999999997
172402.0,10872.9,-6146.0299999999997,-758.56899999999996,1450.5799999999999,628.48299999999995,-4839.21,569.96500000000003
172403.0,10720.700000000001,-6420.5299999999997,-660.41200000000003,2219.3800000000001,700.79499999999996,-4264.0900000000001,533.33199999999999
172404.0,10772.1,-6692.46,-596.25999999999999,3050.23,601.08900000000006,-3712.6900000000001,551.18600000000004
172405.0,11328.799999999999,-6979.5299999999997,-625.41800000000001,4076.6799999999998,607.80899999999997,-3365.21,546.86000000000001
172406.0,10887.5,595.16399999999999,-569.10400000000004,-4426.4499999999998,-587.41700000000003,-5647.7299999999996,601.47000000000003
172407.0,11023.6,-112.20099999999999,-543.00199999999995,-3975.6999999999998,-475.60399999999998,-5949.2799999999997,635.23400000000004
172408.0,11163.799999999999,-898.88199999999995,-608.66499999999996,-3553.3899999999999,-357.94799999999998,-6190.6599999999999,676.10699999999997
172409.0,11292.4,-1616.3900000000001,-592.50099999999998,-2983.3800000000001,-228.63499999999999,-6363.4799999999996,721.78200000000004
172410.0,11398.9,-2416.9000000000001,-672.68899999999996,-2430.5100000000002,-100.212,-6457.0900000000001,765.08299999999997
172411.0,11471.1,-3071.8800000000001,-632.08000000000004,-1685.6500000000001,31.982099999999999,-6460.3299999999999,792.14200000000005
172412.0,11494.200000000001,-3858.48,-751.62699999999995,-1054.96,169.346,-6359.7399999999998,793.53200000000004
172413.0,11472.700000000001,-4451.6300000000001,-701.66700000000003,-250.97300000000001,308.00200000000001,-6155.9799999999996,751.822
172414.0,11344.5,-5120.4200000000001,-777.36400000000003,373.13400000000001,428.79500000000002,-5815.3500000000004,709.02499999999998
172415.0,11225.0,-5634.9399999999996,-751.30799999999999,1089.6099999999999,543.41099999999994,-5403.04,660.22699999999998
172416.0,11029.6,-6074.5200000000004,-784.23699999999997,1718.98,654.66800000000001,-4886.8500000000004,639.30700000000002
172417.0,10949.200000000001,-6459.5799999999999,-772.13199999999995,2468.6900000000001,703.255,-4313.6300000000001,657.596
172418.0,11366.5,-6992.2799999999997,-859.73699999999997,3370.3499999999999,672.60000000000002,-3877.6700000000001,655.05100000000004
172419.0,11939.5,-7147.1899999999996,-828.077,4549.6700000000001,702.66899999999998,-3526.7199999999998,554.45299999999997
172420.0,11132.799999999999,668.95899999999995,-624.90200000000004,-4424.8999999999996,-596.11099999999999,-5790.1000000000004,650.08600000000001
172421.0,11271.700000000001,-34.952100000000002,-566.55100000000004,-3936.5900000000001,-480.57100000000003,-6096.6700000000001,687.68200000000002
172422.0,11416.799999999999,-866.46600000000001,-662.00599999999997,-3524.0799999999999,-361.05900000000003,-6342.7700000000004,733.10799999999995
172423.0,11543.5,-1559.79,-615.83799999999997,-2893.3899999999999,-230.49299999999999,-6515.1199999999999,780.00400000000002
172424.0,11646.9,-2383.9899999999998,-713.74800000000005,-2322.6999999999998,-98.7714,-6605.5799999999999,822.20399999999995
172425.0,11707.5,-3056.6700000000001,-687.85900000000004,-1560.9300000000001,39.301400000000001,-6598.3500000000004,844.88800000000003
172426.0,11715.6,-3823.73,-781.39200000000005,-877.45399999999995,179.964,-6482.9799999999996,836.19299999999998
172427.0,11673.700000000001,-4439.8699999999999,-759.65200000000004,-93.708399999999997,327.04300000000001,-6261.1199999999999,798.029
172428.0,11544.299999999999,-5131.4099999999999,-834.35699999999997,566.41600000000005,446.52199999999999,-5902.96,751.02599999999995
172429.0,11406.700000000001,-5599.25,-794.976,1315.24,572.21400000000006,-5474.3500000000004,719.53499999999997
172430.0,11221.200000000001,-6065.4300000000003,-834.17399999999998,2023.22,661.86500000000001,-4919.3100000000004,712.55999999999995
172431.0,11281.299999999999,-6490.0799999999999,-843.63099999999997,2868.1399999999999,678.48699999999997,-4385.9399999999996,720.93499999999995
172432.0,11863.299999999999,-6893.75,-854.49699999999996,3967.71,698.88499999999999,-4037.1700000000001,713.43799999999999
172433.0,12513.299999999999,-7027.46,-869.56799999999998,5214.7399999999998,715.11699999999996,-3725.1500000000001,581.36699999999996
172434.0,11396.1,838.01099999999997,-591.798,-4336.6199999999999,-603.11900000000003,-5940.1999999999998,706.73900000000003
172435.0,11536.200000000001,-11.110099999999999,-652.43700000000001,-3955.25,-480.26299999999998,-6252.21,749.32299999999998
172436.0,11682.700000000001,-754.25099999999998,-639.94200000000001,-3412.96,-359.39800000000002,-6501.2399999999998,798.81700000000001
172437.0,11808.4,-1563.3599999999999,-703.58900000000006,-2852.2600000000002,-225.23599999999999,-6673.6999999999998,848.80499999999995
172438.0,11904.9,-2303.8200000000002,-712.07000000000005,-2154.25,-87.761799999999994,-6758.4499999999998,886.28800000000001
172439.0,11951.200000000001,-3061.3800000000001,-760.49400000000003,-1436.02,52.088900000000002,-6738.1199999999999,898.39400000000001
172440.0,11945.4,-3793.04,-815.16700000000003,-694.97199999999998,194.172,-6608.4399999999996,880.14700000000005
172441.0,11876.4,-4439.9099999999999,-816.149,82.226399999999998,340.98200000000003,-6360.2600000000002,845.80700000000002
172442.0,11766.0,-5124.79,-876.91099999999994,792.58299999999997,467.577,-5998.7799999999997,796.47199999999998
172443.0,11590.299999999999,-5582.3199999999997,-849.12300000000005,1563.99,589.25699999999995,-5532.1599999999999,781.14800000000002
172444.0,11473.799999999999,-6116.8800000000001,-938.75099999999998,2323.8200000000002,657.71799999999996,-4973.8599999999997,770.37599999999998
172445.0,11669.799999999999,-6380.0200000000004,-838.01999999999998,3395.4400000000001,680.02700000000004,-4507.0699999999997,765.73400000000004
172446.0,12252.700000000001,-6674.0600000000004,-873.524,4568.5900000000001,737.48000000000002,-4155.3400000000001,788.851
172447.0,13122.6,-6795.9499999999998,-856.48800000000006,6046.8100000000004,727.53599999999994,-3886.4699999999998,674.86300000000006
172448.0,11674.0,936.93200000000002,-638.74300000000005,-4320.2299999999996,-609.04399999999998,-6097.5,773.54600000000005
172449.0,11808.4,86.337199999999996,-685.64099999999996,-3901.6799999999998,-478.02300000000002,-6410.8500000000004,823.43399999999997
172450.0,11949.5,-673.25400000000002,-676.46900000000005,-3322.52,-352.923,-6660.6599999999999,878.053
172451.0,12072.799999999999,-1487.9300000000001,-737.37900000000002,-2718.0599999999999,-216.899,-6832.8299999999999,921.93499999999995
172452.0,12165.700000000001,-2258.6100000000001,-757.06799999999998,-2007.24,-76.721500000000006,-6912.71,946.64999999999998
172453.0,12206.4,-3072.9099999999999,-836.98900000000003,-1302.79,65.118899999999996,-6882.7700000000004,947.12900000000002
172454.0,12181.700000000001,-3753.7399999999998,-826.89700000000005,-479.20499999999998,207.411,-6732.8599999999997,924.84000000000003
172455.0,12095.6,-4473.4899999999998,-893.21400000000006,251.846,350.62299999999999,-6463.2799999999997,891.36400000000003
172456.0,11992.0,-5113.71,-926.40200000000004,1035.5799999999999,490.31200000000001,-6092.3299999999999,844.21400000000006
172457.0,11793.6,-5575.8500000000004,-903.49099999999999,1870.99,592.26300000000003,-5581.9300000000003,830.697
172458.0,11767.299999999999,-6065.4399999999996,-970.50999999999999,2719.8400000000001,644.88499999999999,-5058.9399999999996,829.26199999999994
172459.0,12087.799999999999,-6299.3299999999999,-882.78999999999996,3913.1700000000001,687.93600000000004,-4629.8100000000004,830.95299999999997
172460.0,12671.4,-6581.04,-1005.4400000000001,5094.6700000000001,719.57500000000005,-4261.8100000000004,858.76499999999999
172461.0,13812.6,-6674.2299999999996,-946.101,6825.96,710.27099999999996,-4071.6599999999999,775.25599999999997
172462.0,11956.200000000001,1105.4200000000001,-644.02599999999995,-4229.8199999999997,-616.69200000000001,-6256.7399999999998,851.93299999999999
172463.0,12083.299999999999,181.38800000000001,-744.49699999999996,-3835.8299999999999,-479.62400000000002,-6572.3699999999999,904.024
172464.0,12226.5,-572.32000000000005,-710.41700000000003,-3199.0500000000002,-352.488,-6827.2399999999998,953.20500000000004
172465.0,12354.6,-1446.8199999999999,-802.63699999999994,-2605.3800000000001,-211.47800000000001,-7002.25,984.00300000000004
172466.0,12440.700000000001,-2241.9099999999999,-822.63800000000003,-1874.6199999999999,-67.920900000000003,-7073.8299999999999,1002.17
172467.0,12471.799999999999,-3014.2399999999998,-848.375,-1086.0899999999999,81.534199999999998,-7030.8900000000003,998.755
172468.0,12432.4,-3816.73,-927.54499999999996,-339.20499999999998,224.77799999999999,-6860.5799999999999,968.90099999999995
172469.0,12335.0,-4466.6599999999999,-904.19399999999996,492.73099999999999,360.98899999999998,-6570.4300000000003,936.58399999999995
172470.0,12229.299999999999,-5120.3500000000004,-985.053,1271.4000000000001,507.46499999999997,-6186.6700000000001,900.86400000000003
172471.0,12053.4,-5513.96,-882.69100000000003,2269.46,585.26400000000001,-5655.4899999999998,879.17499999999995
172472.0,12124.200000000001,-6072.96,-1044.8299999999999,3101.6700000000001,638.072,-5166.6099999999997,888.40999999999997
172473.0,12528.5,-6206.75,-901.59199999999998,4478.1599999999999,698.96100000000001,-4742.4399999999996,894.14400000000001
172474.0,13202.200000000001,-6509.5500000000002,-1088.3900000000001,5712.8800000000001,667.66499999999996,-4391.3500000000004,929.42899999999997
172475.0,14637.799999999999,-6527.25,-957.07299999999998,7761.8199999999997,686.34500000000003,-4279.3100000000004,876.04499999999996
172476.0,12259.4,1236.02,-693.87900000000002,-4171.0600000000004,-631.71799999999996,-6428.3999999999996,930.19799999999998
172477.0,12381.1,287.185,-795.74699999999996,-3748.46,-485.12799999999999,-6748.1300000000001,980.48699999999997
172478.0,12525.700000000001,-485.16000000000003,-756.58500000000004,-3079.8699999999999,-352.892,-7006.6099999999997,1023.03
172479.0,12652.6,-1403.71,-870.48400000000004,-2485.75,-202.179,-7179.5600000000004,1047.8800000000001
172480.0,12729.5,-2169.1799999999998,-832.53899999999999,-1669.1700000000001,-56.033799999999999,-7240.9899999999998,1059.4100000000001
172481.0,12751.9,-3074.0700000000002,-967.53099999999995,-967.33600000000001,94.492599999999996,-7184.4799999999996,1048.21
172482.0,12702.1,-3746.8200000000002,-889.39200000000005,-43.192399999999999,244.82400000000001,-6995.0,1012.33
172483.0,12587.9,-4590.7700000000004,-1036.9400000000001,632.28300000000002,379.98399999999998,-6677.6599999999999,983.26499999999999
172484.0,12477.4,-5110.96,-986.10799999999995,1561.76,517.36199999999997,-6272.4399999999996,972.19399999999996
172485.0,12399.9,-5705.9300000000003,-1055.28,2487.4899999999998,576.98800000000006,-5758.6599999999999,933.96699999999998
172486.0,12534.6,-6031.21,-1055.04,3546.6900000000001,628.56500000000005,-5303.1999999999998,952.51800000000003
172487.0,12995.4,-6254.2299999999996,-1062.71,4904.8699999999999,688.42600000000004,-4869.25,963.471
172488.0,13900.9,-6329.3999999999996,-1021.12,6594.4399999999996,595.45500000000004,-4566.8199999999997,1000.5
172489.0,15580.200000000001,-6552.75,-1123.3399999999999,8632.8700000000008,667.01599999999996,-4513.54,941.20500000000004
172490.0,12576.4,1368.0699999999999,-770.81299999999999,-4100.3000000000002,-641.41999999999996,-6607.9799999999996,1025.24
172491.0,12694.0,452.00299999999999,-806.41200000000003,-3596.5100000000002,-486.029,-6932.04,1063.0799999999999
172492.0,12844.9,-421.33800000000002,-835.24300000000005,-2980.1799999999998,-347.44900000000001,-7196.6800000000003,1094.54
172493.0,12966.1,-1311.6900000000001,-884.11300000000006,-2301.29,-193.90899999999999,-7364.8100000000004,1110.6500000000001
172494.0,13041.299999999999,-2199.9400000000001,-943.13599999999997,-1547.9100000000001,-42.678800000000003,-7419.5100000000002,1116.3299999999999
172495.0,13047.6,-2996.3000000000002,-931.32500000000005,-687.95500000000004,112.395,-7343.0299999999997,1097.71
172496.0,13000.5,-3910.8699999999999,-1072.0699999999999,36.991,266.745,-7140.7799999999997,1062.95
172497.0,12862.6,-4508.2299999999996,-955.12199999999996,1022.4,402.96800000000002,-6788.0699999999997,1027.1300000000001
172498.0,12734.1,-5264.0500000000002,-1122.4200000000001,1743.52,520.55600000000004,-6346.8100000000004,1042.5799999999999
172499.0,12814.700000000001,-5700.4300000000003,-1002.53,2931.3299999999999,592.14599999999996,-5891.9499999999998,998.99199999999996
172500.0,12981.5,-6061.4300000000003,-1077.98,3993.7199999999998,623.21600000000001,-5427.0799999999999,1026.9400000000001
172501.0,13534.6,-6211.8699999999999,-1096.8399999999999,5479.5500000000002,645.01599999999996,-5018.1300000000001,1055.25
172502.0,14827.299999999999,-6336.6199999999999,-1060.1099999999999,7461.8299999999999,538.84900000000005,-4829.8100000000004,1090.25
172503.0,16620.799999999999,-6424.8999999999996,-1099.5599999999999,9741.1900000000005,704.83299999999997,-4771.3800000000001,974.66499999999996
172504.0,12902.4,1544.98,-828.63300000000004,-3970.96,-658.34000000000003,-6795.1700000000001,1107.8900000000001
172505.0,13022.799999999999,586.43100000000004,-865.10299999999995,-3470.8000000000002,-490.90199999999999,-7124.8100000000004,1140.6500000000001
172506.0,13175.700000000001,-326.32499999999999,-900.48400000000004,-2844.1399999999999,-339.32799999999997,-7391.9700000000003,1170.1199999999999
172507.0,13294.299999999999,-1234.6500000000001,-931.005,-2120.1599999999999,-178.357,-7556.6199999999999,1181.8499999999999
172508.0,13371.700000000001,-2162.1700000000001,-987.17200000000003,-1346.1700000000001,-20.7058,-7605.96,1177.8099999999999
172509.0,13368.9,-3054.04,-1014.73,-516.85900000000004,137.71299999999999,-7511.7200000000003,1150.4200000000001
172510.0,13311.5,-3887.3200000000002,-1059.0699999999999,328.63999999999999,295.464,-7286.4099999999999,1126.8199999999999
172511.0,13187.299999999999,-4625.2799999999997,-1059.3800000000001,1256.25,440.77499999999998,-6916.0799999999999,1078.6099999999999
172512.0,13018.6,-5299.96,-1124.53,2106.7600000000002,520.24900000000002,-6421.1599999999999,1097.1300000000001
172513.0,13214.9,-5810.2200000000003,-1126.3199999999999,3202.0300000000002,629.61199999999997,-6021.3000000000002,1114.96
172514.0,13501.9,-6048.9300000000003,-1038.6400000000001,4567.3500000000004,664.21400000000006,-5554.0,1128.1900000000001
172515.0,14174.6,-6285.1599999999999,-1186.74,6028.6099999999997,582.77599999999995,-5197.2399999999998,1158.26
172516.0,15967.700000000001,-6294.4200000000001,-984.59000000000003,8521.8600000000006,559.67399999999998,-5176.96,1235.8499999999999
172517.0,17707.0,-6569.3999999999996,-1304.6700000000001,10644.1,814.21299999999997,-5012.4399999999996,962.36500000000001
172518.0,13260.5,1674.3199999999999,-926.65200000000004,-3889.52,-675.32100000000003,-7000.6000000000004,1182.77
172519.0,13369.799999999999,780.02700000000004,-878.31500000000005,-3279.46,-498.60000000000002,-7326.7299999999996,1219.9200000000001
172520.0,13519.200000000001,-238.49100000000001,-986.79300000000001,-2703.71,-334.77999999999997,-7593.5,1245.8599999999999
172521.0,13647.5,-1127.2,-952.34500000000003,-1895.1500000000001,-165.44300000000001,-7761.4200000000001,1251.6800000000001
172522.0,13719.9,-2185.6399999999999,-1089.4400000000001,-1189.47,7.1447399999999996,-7799.4200000000001,1243.9200000000001
172523.0,13716.5,-3013.3200000000002,-1005.5,-228.34899999999999,176.89500000000001,-7689.8599999999997,1218.24
172524.0,13643.1,-4043.46,-1206.1500000000001,489.09199999999998,334.13999999999999,-7434.0100000000002,1193.3599999999999
172525.0,13536.299999999999,-4618.1899999999996,-1038.22,1617.99,487.09199999999998,-7050.5299999999997,1155.9300000000001
172526.0,13412.700000000001,-5419.21,-1188.73,2494.9499999999998,539.55600000000004,-6533.5,1142.76
172527.0,13552.4,-5771.1000000000004,-1110.73,3676.9099999999999,646.71199999999999,-6084.0500000000002,1213.04
172528.0,14012.1,-6308.4899999999998,-1294.5999999999999,4863.6400000000003,667.24900000000002,-5662.5600000000004,1274.0699999999999
172529.0,15100.1,-6296.0100000000002,-1095.9400000000001,6859.79,533.04399999999998,-5489.7200000000003,1296.6500000000001
172530.0,17159.5,-6522.1099999999997,-1150.0999999999999,9366.5499999999993,676.01300000000003,-5526.2399999999998,1354.8299999999999
172531.0,18729.299999999999,-6602.8699999999999,-1422.52,11605.1,931.899,-5217.1999999999998,909.64599999999996
172532.0,13647.0,1972.25,-864.64599999999996,-3642.3499999999999,-684.55999999999995,-7218.7600000000002,1272.76
172533.0,13746.9,851.72699999999998,-1011.75,-3205.4400000000001,-503.154,-7544.25,1303.6199999999999
172534.0,13898.9,-56.443100000000001,-967.93700000000001,-2459.98,-326.93799999999999,-7813.46,1328.1199999999999
172535.0,14032.4,-1122.1600000000001,-1074.46,-1763.01,-138.17599999999999,-7980.0799999999999,1336.9000000000001
172536.0,14094.200000000001,-2086.2399999999998,-1067.46,-884.61699999999996,48.049999999999997,-8002.3699999999999,1325.0599999999999
172537.0,14079.9,-3113.1300000000001,-1151.3800000000001,-50.865400000000001,226.79900000000001,-7870.2600000000002,1297.0799999999999
172538.0,13997.200000000001,-3968.7199999999998,-1136.24,910.14499999999998,393.92599999999999,-7585.4099999999999,1269.47
172539.0,13883.5,-4813.0900000000001,-1210.8599999999999,1817.8299999999999,526.06500000000005,-7168.1400000000003,1253.77
172540.0,13954.5,-5539.8400000000001,-1246.8499999999999,2920.1599999999999,601.84500000000003,-6722.0699999999997,1211.05
172541.0,13946.4,-5814.8699999999999,-1111.1300000000001,4206.3100000000004,677.62,-6138.54,1247.4400000000001
172542.0,14450.700000000001,-6324.6199999999999,-1341.6199999999999,5423.4899999999998,579.78499999999997,-5698.5100000000002,1424.5599999999999
172543.0,16265.299999999999,-6404.4399999999996,-1153.6199999999999,7732.5600000000004,541.94100000000003,-5874.1400000000003,1523.8
172544.0,18226.799999999999,-6723.3000000000002,-1415.47,10108.799999999999,844.09000000000003,-5834.7799999999997,1389.9100000000001
172545.0,19613.700000000001,-6443.7799999999997,-1471.96,12576.799999999999,957.80700000000002,-5410.8900000000003,851.654
172546.0,14049.6,2117.0,-997.79399999999998,-3543.9899999999998,-690.60299999999995,-7440.8900000000003,1383.77
172547.0,14146.799999999999,1100.05,-994.89800000000002,-2951.7399999999998,-490.18000000000001,-7769.6999999999998,1412.96
172548.0,14299.9,22.288900000000002,-1083.3,-2313.4299999999998,-301.30500000000001,-8039.5799999999999,1439.1700000000001
172549.0,14428.700000000001,-966.30399999999997,-1078.25,-1460.5599999999999,-96.6922,-8199.8799999999992,1442.6800000000001
172550.0,14487.200000000001,-2114.9000000000001,-1201.02,-686.09299999999996,104.346,-8210.0799999999999,1421.3
172551.0,14470.6,-3071.9099999999999,-1158.0999999999999,300.61599999999999,294.803,-8058.1800000000003,1384.6300000000001
172552.0,14362.700000000001,-4093.0900000000001,-1282.9300000000001,1160.9100000000001,461.53199999999998,-7732.0699999999997,1361.0
172553.0,14280.9,-4799.71,-1183.0699999999999,2318.27,572.31700000000001,-7292.29,1344.9300000000001
172554.0,14462.1,-5566.5,-1311.04,3346.0300000000002,714.71100000000001,-6892.7399999999998,1350.8299999999999
172555.0,14516.299999999999,-5834.8400000000001,-1077.1400000000001,4855.8900000000003,759.23000000000002,-6260.04,1337.3
172556.0,15162.5,-6359.6300000000001,-1290.55,6270.3199999999997,516.17200000000003,-5818.2700000000004,1455.78
172557.0,17236.099999999999,-6215.1499999999996,-1040.3900000000001,8804.2999999999993,609.87800000000004,-6135.3400000000001,1673.29
172558.0,19087.900000000001,-6818.04,-1714.8199999999999,10767.299999999999,934.68100000000004,-6056.0900000000001,1432.1600000000001
172559.0,20553.700000000001,-6014.5799999999999,-1317.45,13788.200000000001,893.43100000000004,-5677.5799999999999,848.49800000000005
172560.0,14472.1,2477.4099999999999,-956.18100000000004,-3217.2600000000002,-697.43200000000002,-7669.9399999999996,1509.0899999999999
172561.0,14553.700000000001,1231.48,-1147.26,-2803.3699999999999,-475.82600000000002,-7993.5,1538.6400000000001
172562.0,14707.799999999999,284.32100000000003,-1069.8299999999999,-1963.6300000000001,-272.76999999999998,-8264.5200000000004,1564.8099999999999
172563.0,14837.5,-913.54399999999998,-1220.6900000000001,-1238.8499999999999,-50.220100000000002,-8421.8099999999995,1555.8
172564.0,14897.0,-1972.5999999999999,-1201.5699999999999,-292.512,174.63300000000001,-8419.7700000000004,1530.76
172565.0,14863.6,-3084.8200000000002,-1273.28,608.22500000000002,394.40199999999999,-8236.1900000000005,1497.26
172566.0,14752.6,-4007.3299999999999,-1251.1900000000001,1664.76,542.54200000000003,-7875.6199999999999,1476.8499999999999
172567.0,14766.1,-4898.6800000000003,-1328.47,2740.9000000000001,657.07500000000005,-7454.8699999999999,1435.4000000000001
172568.0,14852.4,-5442.8699999999999,-1269.02,3951.3699999999999,805.476,-6961.4099999999999,1505.8299999999999
172569.0,15183.799999999999,-6187.1000000000004,-1439.55,5234.6099999999997,805.24599999999998,-6402.71,1510.95
172570.0,16261.1,-6356.5699999999997,-1313.3800000000001,7251.9700000000003,580.66700000000003,-6189.7799999999997,1469.0899999999999
172571.0,17901.299999999999,-6034.9200000000001,-1165.45,9532.6499999999996,738.89400000000001,-6325.9300000000003,1684.52
172572.0,19752.299999999999,-6478.96,-1680.03,11718.1,989.75699999999995,-6151.2200000000003,1512.79
172573.0,21689.900000000001,-5708.1999999999998,-1269.72,15067.6,861.577,-5959.0799999999999,925.78999999999996
172574.0,14915.299999999999,2785.4200000000001,-1003.74,-2925.8899999999999,-701.81299999999999,-7905.4899999999998,1649.5799999999999
172575.0,14977.6,1479.52,-1227.98,-2515.8000000000002,-467.97199999999998,-8221.75,1673.72
172576.0,15134.6,495.40600000000001,-1142.8,-1642.5999999999999,-245.97300000000001,-8494.9899999999998,1695.8199999999999
172577.0,15268.6,-745.84100000000001,-1280.27,-882.67100000000005,9.1738700000000009,-8648.4799999999996,1684.2
172578.0,15318.799999999999,-1873.73,-1300.03,68.112099999999998,264.77499999999998,-8624.5900000000001,1665.05
172579.0,15248.6,-2948.77,-1306.3199999999999,1086.4100000000001,499.72699999999998,-8395.1399999999994,1631.24
172580.0,15197.4,-4069.8400000000001,-1418.9300000000001,2058.77,640.27200000000005,-8034.46,1605.4100000000001
172581.0,15302.700000000001,-4788.5799999999999,-1322.28,3369.3000000000002,789.05100000000004,-7633.4200000000001,1550.1199999999999
172582.0,15287.5,-5502.3599999999997,-1376.3900000000001,4542.2600000000002,867.93299999999999,-7003.8100000000004,1613.8299999999999
172583.0,15894.0,-6229.3500000000004,-1548.3399999999999,5991.9300000000003,800.28899999999999,-6552.9899999999998,1613.3399999999999
172584.0,17360.0,-6241.5,-1344.23,8271.6299999999992,647.34500000000003,-6572.1999999999998,1526.5699999999999
172585.0,18579.599999999999,-5820.6499999999996,-1282.96,10294.1,768.68899999999996,-6520.54,1705.3199999999999
172586.0,20400.5,-6271.1899999999996,-1885.0699999999999,12445.700000000001,997.03599999999994,-6275.3100000000004,1590.9400000000001
172587.0,22917.0,-5328.7600000000002,-1140.46,16540.5,922.37199999999996,-6196.2399999999998,1040.1600000000001
172588.0,15383.6,3150.5700000000002,-1042.52,-2551.2199999999998,-702.78800000000001,-8148.3999999999996,1807.4300000000001
172589.0,15435.299999999999,1756.98,-1311.0799999999999,-2175.8800000000001,-457.45100000000002,-8462.6499999999996,1821.76
172590.0,15596.9,768.60599999999999,-1172.8,-1243.5799999999999,-203.137,-8736.4799999999996,1848.49
172591.0,15727.4,-597.57500000000005,-1396.5599999999999,-524.60699999999997,95.1691,-8877.2399999999998,1844.55
172592.0,15736.0,-1638.45,-1321.28,593.40099999999995,375.66800000000001,-8808.9400000000005,1828.71
172593.0,15662.6,-2853.8099999999999,-1439.22,1563.22,613.79899999999998,-8550.0400000000009,1790.2
172594.0,15686.4,-3855.8400000000001,-1419.5899999999999,2733.0100000000002,779.40999999999997,-8199.7299999999996,1754.6600000000001
172595.0,15819.700000000001,-4707.5799999999999,-1467.01,3938.3000000000002,972.26999999999998,-7777.25,1706.21
172596.0,15890.1,-5408.4799999999996,-1379.0899999999999,5389.1800000000003,965.50300000000004,-7115.4399999999996,1682.55
172597.0,16641.700000000001,-5999.0900000000001,-1576.72,6881.1999999999998,831.89200000000005,-6782.7399999999998,1669.02
172598.0,18301.099999999999,-5721.2700000000004,-1187.5,9496.5400000000009,813.33799999999997,-6866.8500000000004,1667.46
172599.0,19395.400000000001,-5593.4300000000003,-1292.6099999999999,11361.4,800.21400000000006,-6631.7299999999996,1758.3299999999999
172600.0,21208.900000000001,-5880.3500000000004,-1879.5,13492.299999999999,945.20799999999997,-6455.5699999999997,1664.55
172601.0,24143.0,-5102.2299999999996,-1218.74,17855.799999999999,1077.1700000000001,-6388.5100000000002,1150.7
172602.0,15895.299999999999,3479.1199999999999,-1165.27,-2195.0300000000002,-685.22900000000004,-8404.3999999999996,1994.8199999999999
172603.0,15941.0,2194.6599999999999,-1277.3800000000001,-1673.8,-421.64499999999998,-8714.6499999999996,2013.0599999999999
172604.0,16086.1,991.80700000000002,-1316.8599999999999,-868.46100000000001,-115.374,-8974.2600000000002,2050.5799999999999
172605.0,16179.0,-229.42500000000001,-1399.6400000000001,61.229399999999998,218.95699999999999,-9076.6200000000008,2054.71
172606.0,16164.799999999999,-1442.1400000000001,-1466.8399999999999,1111.29,512.97500000000002,-8973.8400000000001,2028.05
172607.0,16124.9,-2567.3899999999999,-1484.1199999999999,2260.29,764.32799999999997,-8704.4899999999998,1975.1700000000001
172608.0,16172.700000000001,-3644.0300000000002,-1577.48,3404.3800000000001,965.74300000000005,-8334.6399999999994,1912.74
172609.0,16264.1,-4318.6499999999996,-1483.21,4754.8100000000004,1148.3099999999999,-7858.3699999999999,1885.29
172610.0,16620.700000000001,-5277.3199999999997,-1559.6700000000001,6147.3599999999997,1121.0999999999999,-7320.21,1811.97
172611.0,17566.400000000001,-5515.1000000000004,-1398.8699999999999,8100.6599999999999,968.23299999999995,-7079.3199999999997,1744.28
172612.0,19131.599999999999,-5475.8199999999997,-1413.1900000000001,10384.9,1030.75,-7064.04,1779.27
172613.0,20343.200000000001,-5332.7399999999998,-1325.6300000000001,12584.9,882.39700000000005,-6750.9099999999999,1778.02
172614.0,22268.0,-5537.25,-1894.8699999999999,14719.200000000001,928.23699999999997,-6699.3999999999996,1715.05
172615.0,25253.599999999999,-4838.21,-1327.6300000000001,19092.200000000001,1274.6600000000001,-6520.8400000000001,1201.1700000000001
172616.0,16472.099999999999,4176.9899999999998,-1003.48,-1481.3,-628.38199999999995,-8667.9500000000007,2251.23
172617.0,16483.799999999999,2451.8200000000002,-1522.72,-1329.98,-335.48700000000002,-8959.9799999999996,2270.6700000000001
172618.0,16577.900000000001,1567.9300000000001,-1232.6800000000001,-124.30200000000001,18.821300000000001,-9182.2299999999996,2303.4099999999999
172619.0,16615.299999999999,27.350300000000001,-1643.27,563.22000000000003,364.887,-9234.2999999999993,2300.6799999999998
172620.0,16620.299999999999,-909.23699999999997,-1415.4200000000001,1973.6700000000001,680.18600000000004,-9115.9799999999996,2274.29
172621.0,16618.799999999999,-2295.1399999999999,-1729.76,2928.9499999999998,963.50999999999999,-8836.0599999999995,2199.52
172622.0,16640.299999999999,-3022.0999999999999,-1535.9400000000001,4415.1800000000003,1190.29,-8428.6399999999994,2086.0700000000002
172623.0,16698.299999999999,-3997.4299999999998,-1680.6700000000001,5531.1899999999996,1299.22,-7893.8900000000003,2060.8200000000002
172624.0,17352.5,-4820.5900000000001,-1669.1500000000001,7119.4899999999998,1262.3399999999999,-7508.0500000000002,2028.8499999999999
172625.0,18633.099999999999,-5147.8699999999999,-1611.78,9122.0900000000001,1214.3900000000001,-7436.7700000000004,1930.21
172626.0,19950.200000000001,-5020.04,-1598.3699999999999,11376.299999999999,1253.54,-7268.1099999999997,1859.78
172627.0,21449.200000000001,-4950.6800000000003,-1387.9000000000001,13916.9,987.08500000000004,-6975.5900000000001,1799.1800000000001
172628.0,23607.599999999999,-4938.3599999999997,-1688.8699999999999,16409.099999999999,1027.73,-7021.4200000000001,1764.8900000000001
172629.0,26232.700000000001,-4635.8599999999997,-1611.9000000000001,20096.200000000001,1534.4000000000001,-6606.25,1173.79
172630.0,17120.900000000001,4849.1000000000004,-1022.6799999999999,-794.41700000000003,-511.30000000000001,-8922.0300000000007,2604.1399999999999
172631.0,17052.900000000001,3030.5,-1603.9400000000001,-637.29100000000005,-179.21000000000001,-9177.1800000000003,2589.1599999999999
172632.0,17046.0,2095.02,-1369.99,568.33900000000006,183.21299999999999,-9326.5400000000009,2611.9200000000001
172633.0,17110.200000000001,676.40200000000004,-1664.99,1463.4300000000001,552.87,-9369.8799999999992,2614.96
172634.0,17109.099999999999,-376.20400000000001,-1568.3499999999999,2869.6500000000001,919.60599999999999,-9212.8799999999992,2564.3800000000001
172635.0,17084.799999999999,-1645.4300000000001,-1836.05,3968.4200000000001,1224.0,-8885.4200000000001,2444.0999999999999
172636.0,17082.900000000001,-2355.8200000000002,-1678.1800000000001,5383.4399999999996,1441.0599999999999,-8455.7700000000004,2308.3800000000001
172637.0,17281.400000000001,-3339.8099999999999,-1716.1800000000001,6677.5699999999997,1486.9000000000001,-7958.1899999999996,2257.9499999999998
172638.0,18166.099999999999,-4229.3199999999997,-1761.8299999999999,8316.9899999999998,1445.21,-7676.9300000000003,2190.5500000000002
172639.0,19516.799999999999,-4427.54,-1585.23,10458.5,1448.3299999999999,-7616.71,2098.23
172640.0,20879.900000000001,-4565.3500000000004,-1818.03,12464.4,1381.6800000000001,-7474.0,1990.47
172641.0,22828.200000000001,-4259.8999999999996,-1306.8800000000001,15573.5,1163.5,-7363.6499999999996,1904.23
172642.0,25098.400000000001,-4435.8299999999999,-1701.0699999999999,18115.5,1330.8499999999999,-7312.4300000000003,1810.6700000000001
172643.0,27148.299999999999,-4149.3299999999999,-1799.0699999999999,21233.400000000001,1818.6099999999999,-6670.3100000000004,1077.0899999999999
172644.0,17800.200000000001,5670.4399999999996,-1145.8800000000001,63.006399999999999,-324.88,-9112.0100000000002,3041.9499999999998
172645.0,17609.200000000001,3754.3299999999999,-1788.1500000000001,200.06,5.9372499999999997,-9305.1299999999992,2981.8699999999999
172646.0,17559.900000000001,3023.4899999999998,-1365.3499999999999,1665.8199999999999,372.59500000000003,-9410.1700000000001,3007.3600000000001
172647.0,17657.200000000001,1397.4000000000001,-1900.48,2441.6900000000001,815.48199999999997,-9438.5200000000004,3006.4000000000001
172648.0,17653.099999999999,563.89400000000001,-1651.47,4123.5299999999997,1233.1400000000001,-9240.9899999999998,2910.8299999999999
172649.0,17553.700000000001,-679.06500000000005,-1930.0999999999999,5206.9300000000003,1559.03,-8848.6599999999999,2730.6399999999999
172650.0,17580.799999999999,-1238.0999999999999,-1582.8299999999999,6764.1099999999997,1737.73,-8427.1900000000005,2585.8099999999999
172651.0,18073.200000000001,-2592.5300000000002,-1922.1199999999999,7915.0200000000004,1740.6300000000001,-8066.3299999999999,2486.0900000000001
172652.0,19065.0,-3148.6300000000001,-1763.0999999999999,9805.7800000000007,1761.3199999999999,-7863.5200000000004,2371.5799999999999
172653.0,20282.400000000001,-3496.5100000000002,-1762.02,11715.299999999999,1796.3499999999999,-7704.6400000000003,2279.4499999999998
172654.0,21949.299999999999,-3542.3099999999999,-1658.21,14149.9,1595.0,-7664.6700000000001,2211.2399999999998
172655.0,24500.5,-3503.7199999999998,-1347.1300000000001,17364.799999999999,1558.78,-7838.8999999999996,2121.21
172656.0,26584.099999999999,-3748.52,-1741.1199999999999,19943.099999999999,1839.9100000000001,-7519.2299999999996,1749.24
172657.0,28006.599999999999,-3466.8600000000001,-2012.6300000000001,22405.400000000001,2046.53,-6717.6499999999996,924.28599999999994
172658.0,18487.200000000001,6616.9799999999996,-1442.4000000000001,1081.9300000000001,-131.94900000000001,-9171.2299999999996,3578.1599999999999
172659.0,18245.400000000001,5152.1199999999999,-1584.1800000000001,1740.02,185.447,-9339.2999999999993,3516.0599999999999
172660.0,18231.700000000001,3968.7199999999998,-1652.73,2801.1100000000001,652.75300000000004,-9440.0100000000002,3529.6300000000001
172661.0,18276.599999999999,2817.3899999999999,-1791.6600000000001,4094.1599999999999,1182.1700000000001,-9412.2199999999993,3431.0
172662.0,18257.900000000001,1643.0599999999999,-1895.1500000000001,5455.2799999999997,1589.5799999999999,-9176.7099999999991,3296.1900000000001
172663.0,18123.5,874.19600000000003,-1580.7,7004.4099999999999,1930.0899999999999,-8771.1700000000001,3045.7399999999998
172664.0,18232.0,-151.71899999999999,-1712.96,8176.4700000000003,2041.1600000000001,-8386.5200000000004,2834.77
172665.0,18998.299999999999,-1254.1500000000001,-1920.1199999999999,9675.3799999999992,2049.96,-8143.8199999999997,2719.4099999999999
172666.0,19904.099999999999,-2026.72,-2032.03,11290.9,2090.0,-7880.4300000000003,2538.77
172667.0,20996.799999999999,-2251.6999999999998,-1974.55,13176.700000000001,1953.8900000000001,-7685.1300000000001,2476.27
172668.0,23285.5,-2577.6900000000001,-1974.55,15698.799999999999,1802.6600000000001,-7951.6000000000004,2543.5900000000001
172669.0,26166.299999999999,-2543.8299999999999,-1676.0899999999999,19105.5,2121.0700000000002,-8241.5400000000009,2362.8600000000001
172670.0,27903.099999999999,-3075.4099999999999,-2292.4899999999998,21326.799999999999,2368.8000000000002,-7673.8199999999997,1644.6700000000001
172671.0,29048.5,-2140.6100000000001,-1818.4000000000001,24227.599999999999,2180.1900000000001,-6848.1700000000001,812.10699999999997
172672.0,19403.0,8232.9899999999998,-1333.9000000000001,2833.25,56.670999999999999,-9167.7000000000007,4293.46
172673.0,19172.200000000001,6527.1599999999999,-1611.4000000000001,3413.5599999999999,466.80099999999999,-9348.2299999999996,4248.96
172674.0,19032.400000000001,5650.3900000000003,-1551.8099999999999,4692.4300000000003,1118.6199999999999,-9323.6399999999994,4155.2200000000003
172675.0,19060.299999999999,4336.8400000000001,-2083.6599999999999,5679.1899999999996,1649.46,-9272.4200000000001,3896.8899999999999
172676.0,18992.0,3533.4299999999998,-1691.01,7420.1700000000001,1956.1199999999999,-9042.0900000000001,3707.23
172677.0,18871.299999999999,2496.27,-1428.25,8827.8600000000006,2294.1900000000001,-8685.4300000000003,3350.8800000000001
172678.0,19136.700000000001,1611.6199999999999,-1461.96,10378.1,2372.77,-8335.2800000000007,3035.79
172679.0,19964.299999999999,367.46300000000002,-2074.0599999999999,11492.0,2433.3899999999999,-8113.4300000000003,2969.2800000000002
172680.0,20888.900000000001,-269.92200000000003,-1930.3699999999999,13335.0,2522.21,-7849.5799999999999,2706.3200000000002
172681.0,22003.599999999999,-673.93600000000004,-1811.95,15333.9,2136.6300000000001,-7637.6000000000004,2562.46
172682.0,24659.0,-812.58500000000004,-1799.78,18004.200000000001,2049.4299999999998,-8137.5299999999997,2779.8699999999999
172683.0,27457.599999999999,-1333.05,-2176.29,20685.5,2588.9699999999998,-8385.4699999999993,2501.5599999999999
172684.0,29055.099999999999,-1555.95,-2323.8400000000001,23262.5,2681.9099999999999,-7725.25,1630.6800000000001
172685.0,30514.200000000001,-759.79999999999995,-1756.22,26410.400000000001,2315.04,-6992.1499999999996,832.96000000000004
172686.0,20710.0,9889.1700000000001,-1642.5899999999999,4772.6199999999999,308.45699999999999,-9087.2199999999993,5187.4499999999998
172687.0,20361.700000000001,8521.1200000000008,-1402.05,5757.1199999999999,863.79999999999995,-9219.1700000000001,5121.7799999999997
172688.0,19985.599999999999,7705.9099999999999,-1336.8399999999999,6905.04,1717.8399999999999,-9055.3700000000008,4809.8100000000004
172689.0,20085.900000000001,7016.3199999999997,-1577.74,8321.9200000000001,2223.8299999999999,-9026.5100000000002,4373.8699999999999
172690.0,19932.5,5642.1499999999996,-1693.46,9490.5,2327.98,-8834.7199999999993,4083.9899999999998
172691.0,19887.299999999999,4718.2799999999997,-1251.4400000000001,11180.9,2619.5100000000002,-8541.0499999999993,3655.5500000000002
172692.0,20368.900000000001,3426.9200000000001,-1634.05,12537.6,2778.4200000000001,-8263.5,3273.52
172693.0,20966.400000000001,2643.9899999999998,-1878.8599999999999,13809.299999999999,2835.0999999999999,-7935.8999999999996,3210.5300000000002
172694.0,22057.5,1618.8,-2320.77,15254.0,2927.21,-7732.8400000000001,2959.9699999999998
172695.0,23629.200000000001,1384.23,-1875.6800000000001,17821.799999999999,2527.02,-7822.9499999999998,2657.0799999999999
172696.0,26004.099999999999,1157.8299999999999,-2085.9400000000001,19993.5,2435.3499999999999,-8321.3099999999995,2845.1799999999998
172697.0,28428.799999999999,745.952,-2319.46,22641.200000000001,3016.4200000000001,-8260.0900000000001,2601.0999999999999
172698.0,30349.200000000001,288.108,-2449.7399999999998,25415.400000000001,3033.5,-7670.9300000000003,1757.74
172699.0,32360.099999999999,1121.01,-1484.8,29307.200000000001,2615.96,-7054.4300000000003,939.92399999999998
172700.0,22249.599999999999,12165.200000000001,-1973.48,7402.6499999999996,524.33399999999995,-8710.8400000000001,6092.0200000000004
172701.0,21680.400000000001,11014.700000000001,-1162.8499999999999,8434.8899999999994,1202.9000000000001,-8840.2299999999996,5992.1700000000001
172702.0,21160.299999999999,10679.5,-432.48399999999998,9945.9400000000005,2273.8400000000001,-8714.2700000000004,5433.4799999999996
172703.0,21341.599999999999,9688.3600000000006,-1184.5599999999999,10974.1,2823.7399999999998,-8736.0200000000004,4786.6499999999996
172704.0,21228.599999999999,8514.5900000000001,-1350.26,12349.5,2768.4699999999998,-8563.9799999999996,4388.7399999999998
172705.0,21250.400000000001,7079.4899999999998,-1557.3299999999999,13602.299999999999,2916.1300000000001,-8288.1200000000008,3937.5700000000002
172706.0,21800.299999999999,6082.2799999999997,-1598.53,15223.5,3117.5999999999999,-8075.5200000000004,3544.27
172707.0,22163.700000000001,5012.0699999999997,-1918.4100000000001,16305.9,3088.4699999999998,-7649.5699999999997,3327.23
172708.0,23235.599999999999,4252.1400000000003,-2149.1500000000001,17925.200000000001,2973.8800000000001,-7529.5299999999997,3045.6199999999999
172709.0,25394.0,3710.71,-1986.9400000000001,20384.299999999999,2749.8899999999999,-8021.7200000000003,2807.7399999999998
172710.0,27541.0,3904.75,-1915.29,22769.299999999999,2837.1199999999999,-8362.2999999999993,2888.9699999999998
172711.0,29370.200000000001,3269.1500000000001,-2494.02,24759.900000000001,3311.0100000000002,-7952.21,2650.9299999999998
172712.0,31904.099999999999,2789.79,-2378.46,28113.400000000001,3371.9299999999998,-7599.8400000000001,1967.54
172713.0,34546.5,2907.6999999999998,-1637.2,32189.0,3116.29,-7062.0299999999997,1091.8099999999999
172714.0,24347.900000000001,15407.1,-2054.9400000000001,10774.0,842.58399999999995,-7939.8900000000003,7212.9499999999998
172715.0,23253.599999999999,14610.9,-402.31,11941.799999999999,1548.72,-8218.9400000000005,6792.9300000000003
172716.0,22546.099999999999,14018.700000000001,417.71300000000002,13317.6,2631.8600000000001,-8315.0400000000009,5893.0200000000004
172717.0,22754.799999999999,13144.4,-199.44399999999999,14602.4,3231.1100000000001,-8352.4200000000001,5083.7799999999997
172718.0,22919.5,11501.1,-1290.9000000000001,15407.200000000001,3244.3899999999999,-8185.04,4614.5600000000004
172719.0,23016.700000000001,10174.4,-1663.97,16642.799999999999,3247.21,-7926.75,4126.1499999999996
172720.0,23406.400000000001,8981.4099999999999,-1861.3900000000001,17878.700000000001,3359.1999999999998,-7706.6800000000003,3769.46
172721.0,23784.299999999999,8080.3999999999996,-1597.6099999999999,19429.900000000001,3321.6500000000001,-7426.2200000000003,3407.4299999999998
172722.0,24892.900000000001,7381.8800000000001,-1572.8199999999999,21112.900000000001,3182.25,-7496.96,3107.8600000000001
172723.0,27348.0,7013.9399999999996,-1680.97,23628.700000000001,3295.21,-7995.29,3024.8499999999999
172724.0,29201.700000000001,6644.9399999999996,-2237.6199999999999,25439.799999999999,3344.9499999999998,-8070.0299999999997,2869.5799999999999
172725.0,30611.599999999999,6300.6300000000001,-2291.3200000000002,27471.200000000001,3361.7600000000002,-7710.5,2639.1900000000001
172726.0,33741.900000000001,5361.8800000000001,-2443.3400000000001,30942.0,3615.1599999999999,-7525.6199999999999,2197.4000000000001
172727.0,36884.5,4966.8900000000003,-1834.3199999999999,35245.699999999997,3724.0300000000002,-6946.9099999999999,1301.9000000000001
172728.0,26903.099999999999,19962.0,-892.25199999999995,15143.1,1468.1099999999999,-7066.1400000000003,8364.4699999999993
172729.0,25278.799999999999,18647.599999999999,147.33000000000001,15605.4,2029.1800000000001,-7478.5200000000004,7385.7299999999996
172730.0,24451.900000000001,17905.400000000001,905.34299999999996,17186.200000000001,2840.4499999999998,-7754.3100000000004,6218.5500000000002
172731.0,24623.0,16471.799999999999,-54.884099999999997,18120.099999999999,3437.02,-7769.8000000000002,5374.5200000000004
172732.0,25020.299999999999,15252.6,-995.197,19127.599999999999,3679.9499999999998,-7625.2700000000004,4795.3800000000001
172733.0,25263.5,13829.4,-1755.3499999999999,19996.299999999999,3659.04,-7456.3800000000001,4252.8100000000004
172734.0,25375.5,12765.700000000001,-1736.0,21108.5,3606.21,-7217.1499999999996,3989.6999999999998
172735.0,26004.299999999999,11643.700000000001,-1617.8299999999999,22526.200000000001,3638.9299999999998,-7205.9300000000003,3746.4099999999999
172736.0,27561.700000000001,11112.0,-1447.0799999999999,24667.5,3755.6199999999999,-7556.1499999999996,3382.1999999999998
172737.0,29553.200000000001,10396.6,-2016.7,26600.099999999999,3923.3099999999999,-7800.0600000000004,2995.0
172738.0,30807.900000000001,10202.5,-1891.54,28697.400000000001,3657.4899999999998,-7661.6300000000001,2638.6199999999999
172739.0,32472.900000000001,9736.3400000000001,-1775.53,30944.5,3389.8200000000002,-7592.3699999999999,2622.1599999999999
172740.0,35935.099999999999,8459.1900000000005,-2161.9200000000001,34416.699999999997,3905.0599999999999,-7447.3100000000004,2373.3099999999999
172741.0,39138.300000000003,7118.2200000000003,-2018.29,38149.800000000003,4413.4899999999998,-6733.7399999999998,1569.4100000000001
172742.0,29260.900000000001,25039.200000000001,899.54700000000003,20153.900000000001,2127.9099999999999,-6165.1999999999998,8942.9200000000001
172743.0,27837.400000000001,23517.900000000001,968.75400000000002,20253.5,2525.4200000000001,-6679.21,7669.0200000000004
172744.0,27201.200000000001,22123.400000000001,877.36199999999997,21357.799999999999,3069.3600000000001,-7009.3100000000004,6545.6000000000004
172745.0,27140.099999999999,20744.200000000001,348.15899999999999,22387.0,3620.8299999999999,-7026.3999999999996,5684.3999999999996
172746.0,27453.700000000001,19329.200000000001,-680.27499999999998,23039.700000000001,4002.3099999999999,-6967.3699999999999,4886.1499999999996
172747.0,27718.400000000001,18145.099999999999,-1312.0799999999999,23896.900000000001,3983.9299999999998,-6863.6999999999998,4312.2299999999996
172748.0,27709.400000000001,16883.0,-1500.8299999999999,24687.200000000001,3705.6100000000001,-6624.7399999999998,4187.8800000000001
172749.0,28617.700000000001,16038.200000000001,-1352.6800000000001,26366.700000000001,3634.6399999999999,-6844.9700000000003,4084.0599999999999
172750.0,30416.900000000001,14660.799999999999,-2145.5900000000001,27714.700000000001,3953.0900000000001,-7461.3500000000004,3607.4699999999998
172751.0,31875.299999999999,14345.1,-2012.8499999999999,29896.099999999999,4177.75,-7631.1099999999997,2896.8600000000001
172752.0,32863.900000000001,13935.6,-1554.95,32094.799999999999,3794.96,-7467.3699999999999,2485.71
172753.0,35012.5,13237.6,-1395.3299999999999,34749.699999999997,3535.4000000000001,-7669.8599999999997,2596.4000000000001
172754.0,38419.800000000003,11363.4,-2010.6300000000001,37867.800000000003,4282.5799999999999,-7459.1400000000003,2471.7600000000002
172755.0,41120.699999999997,9497.6200000000008,-1625.51,41026.699999999997,5196.5500000000002,-6583.71,1945.1900000000001
172756.0,32050.5,30894.5,2869.8699999999999,26331.299999999999,2658.25,-4996.6599999999999,9179.9699999999993
172757.0,31203.700000000001,28474.799999999999,1179.0699999999999,25144.400000000001,3026.5900000000001,-5708.8599999999997,7813.9799999999996
172758.0,30604.900000000001,26734.200000000001,730.74300000000005,25812.200000000001,3260.3099999999999,-6127.6499999999996,6808.6499999999996
172759.0,30147.400000000001,25065.099999999999,239.02000000000001,26423.200000000001,3735.6500000000001,-6135.3199999999997,5836.0500000000002
172760.0,30326.299999999999,24109.099999999999,-289.31400000000002,27263.099999999999,4098.8400000000001,-6196.1599999999999,4896.2600000000002
172761.0,30503.400000000001,22580.0,-1039.72,27826.799999999999,4082.7399999999998,-6165.4799999999996,4361.3699999999999
172762.0,30436.599999999999,21359.0,-889.80799999999999,28910.599999999999,3716.3200000000002,-6069.1599999999999,4258.3100000000004
172763.0,31394.599999999999,20129.900000000001,-1171.8,30150.200000000001,3651.73,-6518.4499999999998,4104.0100000000002
172764.0,32808.099999999999,18973.099999999999,-1745.8099999999999,31520.5,3977.1999999999998,-6951.1199999999999,3525.1500000000001
172765.0,34034.699999999997,18418.299999999999,-1774.4300000000001,33335.900000000001,3981.1399999999999,-7158.4700000000003,2919.5500000000002
172766.0,35488.0,17727.5,-1187.45,35855.5,3714.71,-7489.0900000000001,2611.1700000000001
172767.0,37988.099999999999,16276.5,-1298.5899999999999,38417.699999999997,3883.7399999999998,-7949.1300000000001,2583.5900000000001
172768.0,40915.800000000003,14122.799999999999,-1576.71,41294.599999999999,4791.0,-7648.1499999999996,2476.0599999999999
172769.0,42532.199999999997,11364.6,-797.94100000000003,43323.699999999997,5747.4099999999999,-6733.5299999999997,2298.73
172770.0,35434.900000000001,36640.5,4492.3999999999996,32403.599999999999,3181.6300000000001,-3703.7800000000002,9466.8899999999994
172771.0,35135.0,34736.699999999997,2432.8600000000001,31275.0,3648.52,-4677.8599999999997,7856.9200000000001
172772.0,34474.800000000003,32108.099999999999,975.54399999999998,30937.700000000001,3382.9000000000001,-5111.75,6870.8199999999997
172773.0,33521.900000000001,30607.799999999999,961.62300000000005,31428.299999999999,3749.9299999999998,-5074.1099999999997,5784.8599999999997
172774.0,33655.800000000003,29291.700000000001,45.848399999999998,31662.299999999999,3998.23,-5253.0299999999997,4888.7600000000002
172775.0,33894.900000000001,27943.799999999999,-388.27300000000002,32484.200000000001,3946.8699999999999,-5428.5699999999997,4537.2399999999998
172776.0,33977.900000000001,26206.200000000001,-611.59199999999998,33169.900000000001,3868.4699999999998,-5692.7700000000004,4394.8000000000002
172777.0,34879.5,25417.099999999999,-580.29200000000003,34636.400000000001,4137.8100000000004,-6204.1400000000003,4049.8000000000002
172778.0,35557.599999999999,23992.099999999999,-934.58600000000001,35801.300000000003,4393.5200000000004,-6330.79,3216.6399999999999
172779.0,36169.900000000001,23246.200000000001,-337.73700000000002,37615.900000000001,3994.9299999999998,-6654.6099999999997,2940.7199999999998
172780.0,38330.800000000003,21069.299999999999,-845.702,39396.099999999999,4089.5500000000002,-7642.5299999999997,2948.29
172781.0,40993.900000000001,18632.700000000001,-1389.53,41552.099999999999,4721.8199999999997,-8362.0200000000004,2500.5599999999999
172782.0,42925.699999999997,15913.9,-1376.27,43610.599999999999,5273.79,-8142.7299999999996,2260.1199999999999
172783.0,43497.199999999997,12628.1,23.0806,44988.199999999997,5783.4300000000003,-7327.0,2355.3000000000002
172784.0,38596.5,42627.099999999999,6306.1099999999997,38485.800000000003,3399.5100000000002,-2544.8800000000001,9122.1499999999996
172785.0,38779.099999999999,40018.599999999999,3112.1999999999998,36757.099999999999,3842.71,-3719.0900000000001,7431.2200000000003
172786.0,38306.0,37604.099999999999,1595.3599999999999,36225.699999999997,3434.96,-4000.75,6709.1000000000004
172787.0,37207.300000000003,35813.0,1234.1800000000001,35850.5,3788.0100000000002,-3955.4699999999998,5698.21
172788.0,37359.699999999997,34699.699999999997,621.44399999999996,36415.699999999997,3921.1500000000001,-4285.3400000000001,4891.5900000000001
172789.0,37587.199999999997,32709.900000000001,-431.20400000000001,36624.400000000001,3652.1199999999999,-4603.6899999999996,4683.8400000000001
172790.0,37965.800000000003,31025.599999999999,-1128.6199999999999,37042.199999999997,3642.0700000000002,-5081.6899999999996,4493.7399999999998
172791.0,38651.5,30062.299999999999,-1539.6700000000001,37890.099999999999,3951.2199999999998,-5588.9399999999996,3918.4400000000001
172792.0,38754.5,28607.299999999999,-1269.5,39055.199999999997,4223.9799999999996,-5893.1599999999999,3176.4699999999998
172793.0,39101.599999999999,26724.5,-708.60400000000004,40386.199999999997,4144.4499999999998,-6661.4499999999998,3177.1799999999998
172794.0,41104.699999999997,23568.299999999999,-1569.27,41510.900000000001,4587.1300000000001,-8018.9300000000003,3092.54
172795.0,43245.400000000001,19813.299999999999,-2414.02,42828.0,5166.7799999999997,-8946.9099999999999,2210.04
172796.0,44301.699999999997,17027.799999999999,-1359.04,44982.400000000001,4993.9499999999998,-9024.8400000000001,1820.6199999999999
172797.0,44371.5,13014.5,33.136000000000003,45922.800000000003,4891.9300000000003,-8281.4599999999991,2051.04
172798.0,42126.900000000001,48939.0,7864.4099999999999,45002.699999999997,3107.9400000000001,-1425.6099999999999,8137.6800000000003
172799.0,42557.099999999999,46575.599999999999,5001.7399999999998,43579.199999999997,3441.6399999999999,-2594.3800000000001,6894.0200000000004
172800.0,41723.199999999997,43677.900000000001,3363.02,42032.699999999997,3290.3299999999999,-2841.77,6388.6700000000001
172801.0,40675.400000000001,42339.0,3327.2600000000002,41848.800000000003,3515.29,-2917.3600000000001,5441.9700000000003
172802.0,41067.400000000001,40336.699999999997,1705.4400000000001,41762.599999999999,3452.1500000000001,-3361.8699999999999,4739.25
172803.0,41284.800000000003,38197.199999999997,488.35000000000002,41839.900000000001,3134.7399999999998,-3753.5,4475.8900000000003
172804.0,41193.199999999997,36051.0,-507.012,41623.699999999997,2948.9299999999998,-4148.1300000000001,3996.0500000000002
172805.0,41032.599999999999,35123.699999999997,-324.15899999999999,42296.0,2800.9699999999998,-4551.5600000000004,3452.1500000000001
172806.0,40960.599999999999,32910.300000000003,-496.178,42574.400000000001,2864.1300000000001,-5357.0699999999997,3407.77
172807.0,41434.400000000001,29401.5,-926.52300000000002,42829.800000000003,3323.3000000000002,-6878.5100000000002,3384.75
172808.0,42518.699999999997,25420.400000000001,-1713.6500000000001,43025.900000000001,4020.3400000000001,-8455.0100000000002,2643.6300000000001
172809.0,43817.900000000001,21839.5,-1644.3099999999999,44442.5,4217.3000000000002,-9419.5599999999995,1557.75
172810.0,45027.800000000003,17814.299999999999,-1256.9400000000001,45984.0,3528.4099999999999,-9854.5499999999993,1203.6400000000001
172811.0,45496.599999999999,13590.200000000001,67.131200000000007,47317.599999999999,3031.75,-9302.2999999999993,1444.4000000000001
172812.0,45997.300000000003,54114.5,8408.1200000000008,50466.599999999999,2575.6199999999999,-329.88900000000001,7300.1899999999996
172813.0,46156.400000000001,51427.800000000003,5466.0299999999997,48279.800000000003,2838.77,-1404.74,6392.96
172814.0,45100.099999999999,48927.900000000001,4304.5,46911.300000000003,2694.6999999999998,-1717.6600000000001,5717.2299999999996
172815.0,44291.099999999999,46905.400000000001,3476.0599999999999,46381.699999999997,2569.71,-1839.75,4764.3900000000003
172816.0,44849.300000000003,44857.099999999999,1694.8199999999999,46289.099999999999,2258.6500000000001,-2257.6799999999998,4243.6099999999997
172817.0,45117.599999999999,42360.900000000001,-128.95699999999999,45562.5,2157.2600000000002,-2822.6100000000001,3918.5700000000002
172818.0,44533.599999999999,40949.599999999999,-52.886400000000002,45851.699999999997,2269.9400000000001,-3191.0700000000002,3214.79
172819.0,43424.0,39438.099999999999,590.86500000000001,46088.099999999999,1949.49,-3555.1399999999999,2867.1700000000001
172820.0,42758.300000000003,36447.300000000003,326.19900000000001,45567.599999999999,1702.1900000000001,-4870.6599999999999,3217.6500000000001
172821.0,42684.199999999997,31743.599999999999,-852.61000000000001,44483.699999999997,2264.3600000000001,-6876.1000000000004,2864.2199999999998
172822.0,42899.900000000001,27736.400000000001,-1146.53,44376.599999999999,2714.8400000000001,-8544.6299999999992,1582.8800000000001
172823.0,43843.900000000001,23888.299999999999,-1223.29,45296.900000000001,2246.5300000000002,-9659.9899999999998,476.34699999999998
172824.0,45758.699999999997,19122.5,-1633.98,46723.300000000003,1070.22,-10404.5,211.06899999999999
172825.0,47239.900000000001,14354.9,-1398.6199999999999,48296.599999999999,124.38,-9935.7600000000002,403.14800000000002
172826.0,49030.800000000003,58215.599999999999,8941.5900000000001,54784.099999999999,1640.74,684.39400000000001,6427.0299999999997
172827.0,49590.300000000003,57713.099999999999,7512.6300000000001,54338.300000000003,1816.8699999999999,-82.899500000000003,5391.9700000000003
172828.0,49484.900000000001,55090.800000000003,5194.8800000000001,52774.699999999997,1333.8199999999999,-373.16000000000003,4604.0600000000004
172829.0,49375.0,53047.199999999997,3806.7600000000002,52350.800000000003,929.01800000000003,-479.05700000000002,3820.98
172830.0,49491.599999999999,50395.699999999997,1729.1600000000001,51249.099999999999,607.35000000000002,-912.03999999999996,3421.8099999999999
172831.0,49201.099999999999,48431.400000000001,692.80499999999995,50511.599999999999,607.05200000000002,-1625.0799999999999,3115.5
172832.0,48258.699999999997,46704.800000000003,816.44299999999998,50514.0,752.37800000000004,-2120.5300000000002,2494.1700000000001
172833.0,46533.400000000001,44373.300000000003,1383.77,50049.0,514.05200000000002,-2933.3800000000001,2194.1700000000001
172834.0,45104.699999999997,40650.900000000001,775.39999999999998,48297.199999999997,421.16500000000002,-4724.1700000000001,2123.4200000000001
172835.0,44063.300000000003,36557.900000000001,121.205,46764.099999999999,686.10400000000004,-6651.04,1122.0599999999999
172836.0,43662.900000000001,31650.599999999999,-995.399,45396.5,249.94399999999999,-8219.0100000000002,-222.233
172837.0,44978.699999999997,27050.200000000001,-1891.3599999999999,45902.199999999997,-993.90300000000002,-9618.5599999999995,-1147.9400000000001
172838.0,47840.0,21361.299999999999,-3970.1700000000001,46777.900000000001,-2423.79,-10546.799999999999,-1391.45
172839.0,50442.099999999999,17457.299999999999,-4206.6099999999997,49741.199999999997,-3460.9200000000001,-9901.3500000000004,-1063.2
172840.0,468511.0,229486.0,-86191.600000000006,157133.0,-191680.0,-53133.800000000003,-79084.300000000003
172841.0,393317.0,187363.0,-88097.800000000003,81281.5,-143553.0,-38359.0,-100914.0
172842.0,312842.0,125347.0,-81451.0,-963.56399999999996,-108931.0,-20973.400000000001,-97216.699999999997
172843.0,247401.0,81563.600000000006,-70955.399999999994,-55249.699999999997,-79429.399999999994,-7880.6000000000004,-83627.199999999997
172844.0,194314.0,55175.900000000001,-57517.800000000003,-82950.699999999997,-51299.0,3175.0500000000002,-67379.800000000003
172845.0,147751.0,46086.900000000001,-36429.800000000003,-75613.699999999997,-34071.0,10068.299999999999,-46425.800000000003
172846.0,112544.0,44289.900000000001,-18680.700000000001,-48788.599999999999,-27571.0,11576.200000000001,-32741.400000000001
172847.0,87562.699999999997,45856.800000000003,-2271.0599999999999,-20577.400000000001,-25532.5,13174.1,-23511.5
172848.0,70943.899999999994,48939.199999999997,12299.799999999999,230.25899999999999,-24406.5,14766.0,-14849.9
172849.0,60927.599999999999,48633.300000000003,21680.099999999999,13157.0,-23449.700000000001,16956.200000000001,-7552.79
172850.0,55873.300000000003,38408.300000000003,24952.099999999999,16520.5,-22100.799999999999,20639.0,-2079.0
172851.0,56525.099999999999,19198.400000000001,24048.299999999999,15142.6,-22196.400000000001,23436.599999999999,1786.0699999999999
172852.0,59332.5,-3418.8400000000001,17762.099999999999,14191.299999999999,-24153.599999999999,21078.099999999999,4145.4099999999999
172853.0,56563.900000000001,-17158.200000000001,9931.3500000000004,16175.200000000001,-24892.5,10698.9,4289.0600000000004
172854.0,47158.900000000001,-18736.700000000001,3572.1500000000001,13527.5,-21248.200000000001,-3793.54,1574.8499999999999
172855.0,37765.199999999997,-10481.6,3752.9000000000001,2611.6199999999999,-14223.5,-14370.0,-2009.3800000000001
172856.0,36542.199999999997,1855.51,8854.3400000000001,-11297.5,-8943.1900000000005,-15824.6,-3167.0300000000002
172857.0,39789.800000000003,14425.799999999999,15061.700000000001,-18821.099999999999,-8085.3699999999999,-9192.7600000000002,-1492.4400000000001
172858.0,42835.300000000003,21032.299999999999,19303.5,-17082.200000000001,-11591.1,1923.8,3208.5300000000002
172859.0,49398.900000000001,20027.900000000001,16969.799999999999,-5362.4799999999996,-21010.700000000001,9941.75,9000.2199999999993
172860.0,57437.099999999999,17988.700000000001,7244.7799999999997,8766.3199999999997,-31108.200000000001,7637.7399999999998,6310.2600000000002
172861.0,57407.199999999997,21363.400000000001,911.54600000000005,9491.6800000000003,-31236.900000000001,788.226,-4085.2800000000002
172862.0,50381.900000000001,26253.400000000001,992.846,-17.109100000000002,-24585.099999999999,914.83000000000004,-4393.9200000000001
172863.0,48680.599999999999,30809.799999999999,-2089.8000000000002,1332.78,-20678.0,4805.8100000000004,3477.52
172864.0,50019.300000000003,33739.599999999999,-10078.799999999999,9897.7399999999998,-17772.200000000001,5172.3400000000001,3179.9000000000001
172865.0,46415.099999999999,31819.5,-13935.700000000001,10894.9,-12783.700000000001,4513.5200000000004,-3109.3800000000001
172866.0,38482.5,28207.5,-9433.4200000000001,7702.8500000000004,-8261.2299999999996,5197.6300000000001,-6573.79
172867.0,30321.299999999999,23755.400000000001,-3473.3099999999999,3708.73,-5868.6499999999996,6408.9700000000003,-5639.29
172868.0,25263.900000000001,21378.0,561.63800000000003,3141.04,-5275.8699999999999,7011.71,-2644.8899999999999
172869.0,22867.400000000001,20156.099999999999,1435.24,4448.29,-5184.3999999999996,6742.2799999999997,-960.22699999999998
172870.0,21371.5,19013.200000000001,1316.26,4977.5500000000002,-4955.9799999999996,6339.8699999999999,-476.12599999999998
172871.0,20179.299999999999,18095.099999999999,1293.8499999999999,5156.9499999999998,-4703.8199999999997,6011.8699999999999,-179.71899999999999
172872.0,19062.400000000001,16957.0,1022.17,4732.1700000000001,-4399.2399999999998,5678.6999999999998,-50.978999999999999
172873.0,17968.099999999999,16031.9,1040.4400000000001,4271.8500000000004,-4104.1999999999998,5340.9399999999996,-12.851900000000001
172874.0,16919.099999999999,14916.6,892.57100000000003,3571.0700000000002,-3852.1599999999999,5015.0600000000004,-30.094799999999999
172875.0,15937.799999999999,13887.6,822.35799999999995,2915.8899999999999,-3599.48,4740.04,-58.625599999999999
172876.0,14998.200000000001,12890.700000000001,722.30399999999997,2253.5300000000002,-3328.3899999999999,4468.4300000000003,-96.895499999999998
172877.0,14076.9,11912.4,609.61300000000006,1613.9000000000001,-3066.25,4182.3900000000003,-146.74799999999999
172878.0,13180.700000000001,11034.200000000001,597.74000000000001,1113.03,-2824.7800000000002,3910.21,-197.351
172879.0,12343.1,10151.1,549.43499999999995,619.76499999999999,-2597.5799999999999,3669.8200000000002,-249.32300000000001
172880.0,11593.6,9321.6599999999999,483.31400000000002,145.363,-2381.46,3459.6999999999998,-301.43599999999998
172881.0,10913.9,8607.4300000000003,448.82100000000003,-245.94399999999999,-2173.73,3257.0700000000002,-364.20299999999997
172882.0,10286.1,7958.2299999999996,428.53399999999999,-585.68700000000001,-1981.0799999999999,3062.21,-422.77199999999999
172883.0,9717.0699999999997,7283.8199999999997,341.03100000000001,-962.24599999999998,-1802.6500000000001,2887.9699999999998,-483.935
172884.0,9206.5599999999995,6631.9899999999998,234.23500000000001,-1325.0599999999999,-1638.8599999999999,2737.21,-543.923
172885.0,8742.6800000000003,6016.6300000000001,122.816,-1650.8800000000001,-1490.51,2603.2800000000002,-605.94200000000001
172886.0,8335.0799999999999,5485.8000000000002,62.2864,-1909.97,-1360.8099999999999,2489.4400000000001,-664.64200000000005
172887.0,7981.0699999999997,5012.4300000000003,21.193200000000001,-2126.8800000000001,-1245.3800000000001,2397.6599999999999,-718.81100000000004
172888.0,7678.8999999999996,4657.6000000000004,53.508800000000001,-2242.9899999999998,-1141.75,2328.0700000000002,-763.77999999999997
172889.0,7453.6899999999996,4340.1000000000004,54.145000000000003,-2370.8899999999999,-1045.1199999999999,2281.5999999999999,-820.52599999999995
172890.0,7319.2299999999996,4091.2399999999998,71.154300000000006,-2533.5500000000002,-956.43600000000004,2250.1700000000001,-860.279
172891.0,7186.3599999999997,3775.73,-108.73399999999999,-2766.3499999999999,-879.60699999999997,2175.5100000000002,-939.60799999999995
172892.0,7162.6300000000001,3865.0500000000002,221.05500000000001,-2748.6599999999999,-702.26499999999999,2121.0999999999999,-1065.6800000000001
172893.0,328226.0,15812.299999999999,-72227.199999999997,32808.400000000001,-152856.0,-77331.600000000006,-58196.099999999999
172894.0,282323.0,10245.5,-70984.300000000003,-26164.200000000001,-117858.0,-69769.199999999997,-78454.199999999997
172895.0,225130.0,-10796.799999999999,-59794.099999999999,-79599.899999999994,-90100.699999999997,-50781.900000000001,-70307.199999999997
172896.0,176844.0,-12022.700000000001,-43409.099999999999,-95307.399999999994,-67656.399999999994,-33839.400000000001,-54156.5
172897.0,140527.0,5055.9099999999999,-21160.299999999999,-82519.300000000003,-49639.300000000003,-21543.900000000001,-40423.900000000001
172898.0,113273.0,24365.200000000001,-4297.2299999999996,-53410.900000000001,-40981.099999999999,-14020.5,-29219.099999999999
172899.0,89418.199999999997,37237.699999999997,3155.5700000000002,-23409.5,-35409.800000000003,-7561.1999999999998,-20735.299999999999
172900.0,70151.5,49051.699999999997,12665.1,592.11500000000001,-28612.900000000001,-1489.53,-13533.4
172901.0,56092.300000000003,57481.900000000001,21618.299999999999,19390.099999999999,-23268.099999999999,3233.1900000000001,-6316.6400000000003
172902.0,47328.699999999997,58274.699999999997,24960.900000000001,30449.0,-19608.0,6567.3800000000001,172.999
172903.0,40965.199999999997,54945.5,27043.400000000001,36498.300000000003,-16337.0,8489.8099999999995,4363.29
172904.0,34125.300000000003,47375.900000000001,27168.700000000001,37372.099999999999,-12680.1,9035.1800000000003,6608.6000000000004
172905.0,27278.200000000001,39380.699999999997,26703.099999999999,35943.5,-9009.8400000000001,7747.8999999999996,7990.0
172906.0,22356.799999999999,32598.5,23597.900000000001,32021.799999999999,-6459.1199999999999,4418.6000000000004,8943.1599999999999
172907.0,20333.0,30507.599999999999,19025.700000000001,28059.5,-4899.4799999999996,336.10899999999998,8781.8099999999995
172908.0,20389.700000000001,33089.0,16078.4,23711.0,-3605.52,-1906.02,7025.21
172909.0,21281.099999999999,35612.300000000003,15722.299999999999,18174.299999999999,-2665.2600000000002,-1053.51,5012.9700000000003
172910.0,23237.200000000001,34941.199999999997,16664.599999999999,12645.700000000001,-3156.6599999999999,1751.71,5073.8699999999999
172911.0,24517.5,32021.299999999999,16696.0,10478.5,-4845.0,4612.1999999999998,5717.3199999999997
172912.0,23893.400000000001,27224.400000000001,13665.6,9692.6000000000004,-6518.1899999999996,5431.1999999999998,5815.0900000000001
172913.0,21630.799999999999,24667.099999999999,11769.1,9125.1499999999996,-6933.8299999999999,4205.9799999999996,4587.5
172914.0,21640.099999999999,22460.0,10277.9,5878.8599999999997,-7404.9300000000003,3673.1900000000001,3740.4699999999998
172915.0,25939.200000000001,20169.900000000001,8882.2099999999991,3993.6599999999999,-10453.200000000001,5096.5,4495.3000000000002
172916.0,32425.599999999999,17768.599999999999,5575.96,5385.9799999999996,-15647.4,5872.0,4562.1599999999999
172917.0,37057.900000000001,17061.700000000001,1249.73,7301.1499999999996,-19305.799999999999,4121.46,2100.6700000000001
172918.0,36684.599999999999,18917.900000000001,-1617.74,7238.9300000000003,-18392.5,1656.8599999999999,-1210.76
172919.0,32051.900000000001,20642.0,-2644.8800000000001,4746.4700000000003,-13753.200000000001,943.274,-3287.0900000000001
172920.0,26818.299999999999,21443.400000000001,-879.33000000000004,2633.71,-8923.7000000000007,2379.25,-3220.5300000000002
172921.0,23578.799999999999,20962.900000000001,881.81799999999998,2340.1399999999999,-6353.0200000000004,4164.21,-1501.55
172922.0,21894.799999999999,20140.5,1304.04,3465.1199999999999,-5385.9200000000001,4934.1499999999996,-426.53699999999998
172923.0,20652.700000000001,19110.5,1200.1199999999999,3973.6500000000001,-4803.1000000000004,5114.1499999999996,-144.46199999999999
172924.0,19550.0,18246.799999999999,1259.98,4184.1800000000003,-4396.29,5059.29,27.889600000000002
172925.0,18443.0,17067.299999999999,1070.46,3847.6500000000001,-4068.3800000000001,4874.54,87.864699999999999
172926.0,17396.0,15955.700000000001,937.77099999999996,3350.3099999999999,-3770.6700000000001,4648.2700000000004,86.023799999999994
172927.0,16472.400000000001,14835.799999999999,724.84699999999998,2662.6900000000001,-3517.6599999999999,4421.8699999999999,98.618099999999998
172928.0,15590.200000000001,13925.6,698.11099999999999,2082.1700000000001,-3263.02,4184.2799999999997,69.623999999999995
172929.0,14688.6,12959.799999999999,609.85299999999995,1469.0699999999999,-3032.46,3895.27,8.1508599999999998
172930.0,13790.299999999999,12021.1,574.97400000000005,939.42899999999997,-2829.7800000000002,3613.0700000000002,-56.730600000000003
172931.0,12951.200000000001,10993.0,424.44600000000003,309.90600000000001,-2639.6900000000001,3360.2800000000002,-111.09999999999999
172932.0,12171.799999999999,10073.200000000001,326.68700000000001,-230.36500000000001,-2447.96,3128.2399999999998,-164.82400000000001
172933.0,11429.9,9305.0699999999997,321.62299999999999,-614.88900000000001,-2248.0100000000002,2906.1799999999998,-225.65199999999999
172934.0,10724.700000000001,8499.5100000000002,229.97900000000001,-1023.51,-2060.96,2689.3200000000002,-292.68099999999998
172935.0,10077.299999999999,7767.9399999999996,186.89400000000001,-1359.53,-1895.03,2504.9499999999998,-349.33100000000002
172936.0,9495.1499999999996,7064.6800000000003,126.006,-1683.0899999999999,-1738.6700000000001,2354.02,-405.76100000000002
172937.0,8981.3799999999992,6573.7299999999996,215.899,-1821.95,-1592.4300000000001,2227.6300000000001,-461.69200000000001
172938.0,8546.3799999999992,6004.21,159.34700000000001,-2079.6100000000001,-1459.6300000000001,2127.3299999999999,-519.827
172939.0,8189.0200000000004,5656.6199999999999,265.62700000000001,-2170.1900000000001,-1332.52,2047.1800000000001,-586.79399999999998
172940.0,7886.7299999999996,5106.0900000000001,110.85299999999999,-2496.02,-1223.04,1969.75,-659.07000000000005
172941.0,7623.7700000000004,4857.7700000000004,227.02799999999999,-2534.1700000000001,-1135.8699999999999,1900.1900000000001,-722.21699999999998
172942.0,7381.0900000000001,4297.3599999999997,-48.073799999999999,-2872.27,-1039.8800000000001,1856.6900000000001,-766.673
172943.0,7181.0600000000004,4359.46,235.40600000000001,-2663.5799999999999,-898.39499999999998,1817.55,-789.14499999999998
172944.0,6875.4399999999996,3870.1799999999998,-142.999,-2880.77,-788.85000000000002,1709.5999999999999,-826.33299999999997
172945.0,6605.71,4041.1500000000001,362.63099999999997,-2480.2399999999998,-651.03099999999995,1643.23,-854.84699999999998
172946.0,212510.0,-95042.800000000003,-52888.400000000001,-39364.5,-83323.800000000003,-77708.899999999994,-35052.099999999999
172947.0,182826.0,-75881.699999999997,-47988.199999999997,-70331.199999999997,-60815.400000000001,-72204.699999999997,-44852.199999999997
172948.0,143076.0,-55481.099999999999,-28074.700000000001,-81716.800000000003,-42132.599999999999,-54586.0,-36733.5
172949.0,111279.0,-25105.799999999999,-3061.6399999999999,-65229.599999999999,-30608.099999999999,-38812.0,-26287.200000000001
172950.0,88431.699999999997,3826.46,12097.799999999999,-39592.900000000001,-25750.400000000001,-28328.099999999999,-19241.299999999999
172951.0,67634.199999999997,24723.799999999999,14728.4,-12627.4,-25499.0,-19565.299999999999,-10858.4
172952.0,54214.599999999999,43650.199999999997,17854.799999999999,11802.6,-23386.400000000001,-11380.299999999999,-4154.1199999999999
172953.0,48508.699999999997,61589.0,24368.099999999999,32882.800000000003,-19407.5,-5233.5900000000001,-8.2597699999999996
172954.0,47583.599999999999,68829.0,25297.799999999999,44445.099999999999,-16194.6,-658.32899999999995,4000.9000000000001
172955.0,47679.0,70932.899999999994,26275.900000000001,50312.099999999999,-14019.700000000001,2418.3699999999999,7472.0
172956.0,47737.199999999997,67937.800000000003,24169.400000000001,50140.099999999999,-12177.299999999999,3918.6999999999998,10558.700000000001
172957.0,46717.699999999997,64551.900000000001,21646.700000000001,48727.099999999999,-9572.8299999999999,4331.29,12097.4
172958.0,43509.5,60941.400000000001,19617.5,45436.800000000003,-6702.7399999999998,4595.9399999999996,11366.4
172959.0,41362.300000000003,57405.800000000003,17611.400000000001,41361.5,-5334.8000000000002,4886.5799999999999,10821.0
172960.0,40460.300000000003,53603.599999999999,14342.799999999999,37120.900000000001,-5213.1899999999996,4702.3599999999997,10379.5
172961.0,37915.5,49732.300000000003,11109.0,32426.599999999999,-4658.96,3921.9899999999998,8235.6599999999999
172962.0,34466.099999999999,46362.900000000001,10119.6,26399.599999999999,-3759.4699999999998,3360.9899999999998,6404.4300000000003
172963.0,31919.200000000001,44867.400000000001,12032.700000000001,22443.400000000001,-3269.79,3741.2800000000002,5776.29
172964.0,30347.700000000001,42062.099999999999,11785.700000000001,19160.799999999999,-3273.1500000000001,4162.4499999999998,5449.8999999999996
172965.0,29085.700000000001,39368.400000000001,11211.299999999999,16283.0,-3469.6500000000001,4301.0100000000002,5119.4399999999996
172966.0,28450.5,36463.900000000001,9830.8400000000001,13426.799999999999,-3867.8600000000001,4515.7399999999998,5062.6999999999998
172967.0,27332.0,33813.800000000003,8528.9300000000003,12388.1,-4023.1300000000001,4915.5699999999997,4808.0500000000002
172968.0,24599.599999999999,29952.0,6970.5,11328.200000000001,-3647.3800000000001,4997.04,3800.4400000000001
172969.0,20980.299999999999,25986.900000000001,6284.6000000000004,9904.0599999999995,-3252.0500000000002,4400.3100000000004,2606.9299999999998
172970.0,18262.400000000001,22415.099999999999,6328.1099999999997,7386.8800000000001,-3462.5900000000001,3706.6199999999999,2117.4000000000001
172971.0,18353.5,19953.5,5248.5500000000002,5226.1400000000003,-4700.3800000000001,3156.6700000000001,2834.9099999999999
172972.0,19815.0,20264.599999999999,3445.6399999999999,5591.54,-5831.8400000000001,2501.9099999999999,2609.8600000000001
172973.0,20588.400000000001,20194.700000000001,1304.77,4658.6499999999996,-5732.4200000000001,2400.6599999999999,1047.1099999999999
172974.0,20539.0,19931.700000000001,1033.02,3673.4200000000001,-5146.1400000000003,3041.21,376.44600000000003
172975.0,19935.400000000001,19099.200000000001,934.45899999999995,3271.7399999999998,-4648.8000000000002,3620.5900000000001,313.08300000000003
172976.0,18984.099999999999,17913.5,691.28200000000004,2946.8000000000002,-4185.9399999999996,3864.0999999999999,251.07499999999999
172977.0,18000.599999999999,16719.900000000001,480.78100000000001,2567.1700000000001,-3810.9699999999998,3917.79,272.42399999999998
172978.0,17138.400000000001,15706.200000000001,406.82799999999997,2121.7199999999998,-3527.7600000000002,3886.7399999999998,312.702
172979.0,16324.1,14839.5,398.74200000000002,1689.5899999999999,-3253.5300000000002,3784.21,255.762
172980.0,15502.200000000001,13970.700000000001,349.13799999999998,1214.9100000000001,-3004.02,3586.5999999999999,225.23599999999999
172981.0,14655.799999999999,13090.700000000001,342.45100000000002,731.12,-2789.8499999999999,3348.6500000000001,171.10400000000001
172982.0,13869.9,12186.799999999999,290.47800000000001,207.904,-2616.02,3124.79,116.227
172983.0,13180.5,11323.799999999999,229.01400000000001,-346.76400000000001,-2462.5500000000002,2927.3899999999999,59.738900000000001
172984.0,12537.1,10645.700000000001,303.14600000000002,-730.38699999999994,-2302.5500000000002,2741.5999999999999,-15.2745
172985.0,11896.4,9936.5499999999993,319.85500000000002,-1110.3,-2148.2600000000002,2540.8000000000002,-105.08
172986.0,11244.6,9158.7600000000002,284.80399999999997,-1489.53,-2014.6800000000001,2345.8400000000001,-196.03800000000001
172987.0,10629.299999999999,8420.8799999999992,254.00700000000001,-1811.9200000000001,-1880.48,2182.25,-287.75599999999997
172988.0,10084.700000000001,7746.5100000000002,219.762,-2128.0599999999999,-1744.6500000000001,2027.8099999999999,-363.964
172989.0,9580.1399999999994,7099.1999999999998,173.03,-2430.5799999999999,-1623.8099999999999,1870.3499999999999,-443.57799999999997
172990.0,9104.6599999999999,6442.1000000000004,109.80800000000001,-2734.5300000000002,-1513.23,1731.3499999999999,-526.97799999999995
172991.0,8653.7800000000007,5820.6700000000001,58.654899999999998,-2983.5500000000002,-1405.5599999999999,1619.1099999999999,-608.67200000000003
172992.0,8250.7700000000004,5309.2399999999998,62.885899999999999,-3133.6999999999998,-1287.4200000000001,1554.3699999999999,-668.78399999999999
172993.0,7913.4899999999998,4887.46,33.521799999999999,-3244.2800000000002,-1144.45,1512.3199999999999,-734.30899999999997
172994.0,7602.9899999999998,4596.9300000000003,60.043599999999998,-3245.29,-1008.66,1451.0999999999999,-802.452
172995.0,7214.1599999999999,4113.75,-105.133,-3322.2199999999998,-889.827,1399.53,-830.94899999999996
172996.0,6753.21,3978.21,140.417,-2986.4099999999999,-750.55499999999995,1331.4300000000001,-835.05100000000004
172997.0,6182.1599999999999,3284.0700000000002,-276.87799999999999,-3087.2600000000002,-655.72400000000005,1201.3099999999999,-819.24300000000005
172998.0,5742.3500000000004,3266.1399999999999,62.753100000000003,-2696.3400000000001,-557.04999999999995,1121.6800000000001,-720.28300000000002
172999.0,132728.0,-98006.899999999994,-37357.800000000003,-48225.099999999999,-34262.400000000001,-57746.400000000001,-17830.799999999999
173000.0,110709.0,-59372.599999999999,-24237.700000000001,-46007.599999999999,-23924.200000000001,-52076.599999999999,-22059.400000000001
173001.0,83774.300000000003,-20309.599999999999,-1950.97,-30821.400000000001,-15619.200000000001,-38810.699999999997,-19381.299999999999
173002.0,60538.0,13381.4,13540.700000000001,-7245.7700000000004,-11060.4,-26860.400000000001,-15325.4
173003.0,43888.699999999997,33996.900000000001,14381.299999999999,12871.5,-10228.6,-18036.599999999999,-8558.0699999999997
173004.0,38995.800000000003,52634.0,18672.400000000001,34859.699999999997,-11098.9,-9753.7199999999993,-118.113
173005.0,44938.599999999999,70924.0,25709.299999999999,54101.0,-10771.299999999999,-3866.3299999999999,4465.7799999999997
173006.0,52527.800000000003,78036.399999999994,24614.700000000001,62203.900000000001,-10527.0,-389.34100000000001,7472.4499999999998
173007.0,56691.599999999999,79553.899999999994,22479.200000000001,63949.900000000001,-10113.1,1957.6099999999999,9750.3700000000008
173008.0,57469.0,76454.300000000003,19294.5,59596.699999999997,-9149.8899999999994,3668.1799999999998,11878.9
173009.0,58785.0,72251.399999999994,15739.1,54633.900000000001,-8444.5200000000004,4792.3000000000002,14882.1
173010.0,59211.800000000003,68926.5,11699.299999999999,51433.800000000003,-7506.4399999999996,4996.3900000000003,15080.0
173011.0,55930.199999999997,64006.800000000003,7565.9399999999996,45704.599999999999,-6009.2600000000002,4959.7299999999996,12362.6
173012.0,51470.800000000003,57896.900000000001,4894.5299999999997,38594.300000000003,-4987.6800000000003,5094.3400000000001,10614.4
173013.0,47446.800000000003,52637.599999999999,3449.3200000000002,32863.099999999999,-4743.1999999999998,4597.8599999999997,9702.9599999999991
173014.0,43259.5,49841.699999999997,4072.3400000000001,29006.700000000001,-4301.3800000000001,3701.9000000000001,8153.5
173015.0,39447.800000000003,48114.0,5659.5100000000002,25307.900000000001,-3564.7399999999998,3184.4200000000001,6666.0699999999997
173016.0,36651.400000000001,44518.0,5101.7299999999996,20332.5,-3097.6900000000001,3050.3400000000001,5812.1000000000004
173017.0,34246.099999999999,41453.099999999999,4912.5500000000002,16786.599999999999,-2893.7800000000002,2985.2800000000002,5119.2200000000003
173018.0,31694.5,38279.300000000003,5130.4399999999996,13569.299999999999,-2815.8400000000001,3178.77,4476.3900000000003
173019.0,29853.099999999999,35046.0,4838.7200000000003,11254.299999999999,-3175.1100000000001,3505.5700000000002,4628.0299999999997
173020.0,28602.200000000001,32454.200000000001,3752.6199999999999,9939.2600000000002,-3744.3899999999999,3390.1900000000001,4361.1599999999999
173021.0,27322.900000000001,30781.400000000001,2974.6999999999998,8922.3299999999999,-3965.3499999999999,2884.04,3225.5
173022.0,26138.400000000001,29242.400000000001,2460.3299999999999,7529.3199999999997,-3656.54,2586.6399999999999,2296.02
173023.0,24869.0,27789.0,2601.1399999999999,6165.5200000000004,-2974.3299999999999,2835.2399999999998,1866.9200000000001
173024.0,23366.299999999999,25770.099999999999,2849.25,5315.1000000000004,-2736.25,3453.0999999999999,2067.75
173025.0,21706.099999999999,22787.0,1857.8499999999999,4629.96,-3279.1900000000001,3578.46,2064.52
173026.0,20206.599999999999,20422.0,924.60500000000002,3931.48,-3736.6300000000001,3175.4000000000001,1367.0
173027.0,19101.299999999999,18669.900000000001,466.07799999999997,2744.0599999999999,-3756.6900000000001,2885.5500000000002,902.29200000000003
173028.0,18176.299999999999,17543.799999999999,503.70699999999999,2085.1399999999999,-3613.8600000000001,2819.4499999999998,690.63300000000004
173029.0,17304.700000000001,16374.4,388.09399999999999,1478.0699999999999,-3420.4499999999998,2835.6100000000001,549.70799999999997
173030.0,16477.900000000001,15472.299999999999,419.73000000000002,1135.27,-3156.8200000000002,2868.96,451.31200000000001
173031.0,15676.5,14529.299999999999,296.75599999999997,691.15099999999995,-2864.7199999999998,2802.1799999999998,395.26600000000002
173032.0,14856.6,13672.200000000001,268.46800000000002,323.06400000000002,-2604.4499999999998,2652.98,327.45299999999997
173033.0,14042.5,12703.0,167.565,-141.60599999999999,-2406.0599999999999,2482.5,276.63600000000002
173034.0,13317.1,11775.5,103.654,-650.15899999999999,-2258.25,2329.5500000000002,235.41
173035.0,12694.299999999999,10982.200000000001,92.616299999999995,-1102.6500000000001,-2114.6199999999999,2206.96,174.22
173036.0,12137.200000000001,10274.200000000001,80.590599999999995,-1513.71,-1975.0599999999999,2071.4200000000001,104.155
173037.0,11616.9,9535.3199999999997,25.563500000000001,-1969.1099999999999,-1856.1099999999999,1935.03,25.183900000000001
173038.0,11131.700000000001,8815.2000000000007,-47.657400000000003,-2395.48,-1766.9300000000001,1794.4200000000001,-77.774199999999993
173039.0,10723.9,8228.0599999999995,-14.7403,-2731.8299999999999,-1703.8800000000001,1683.1700000000001,-153.28399999999999
173040.0,10344.4,7656.0100000000002,-2.6855500000000001,-3046.5599999999999,-1628.1700000000001,1592.3900000000001,-267.56400000000002
173041.0,9955.7800000000007,7164.1599999999999,61.990699999999997,-3239.1900000000001,-1536.7,1509.23,-372.32600000000002
173042.0,9592.0,6613.4300000000003,31.909600000000001,-3490.4000000000001,-1439.2,1435.74,-484.20999999999998
173043.0,9269.0599999999995,6205.8199999999997,129.69999999999999,-3626.3600000000001,-1343.5799999999999,1367.7,-588.33799999999997
173044.0,8953.8600000000006,5622.8000000000002,18.179500000000001,-3916.8600000000001,-1246.6300000000001,1302.6300000000001,-699.55100000000004
173045.0,8588.8700000000008,5222.3599999999997,63.449399999999997,-3958.7800000000002,-1134.96,1231.28,-777.43799999999999
173046.0,8100.1999999999998,4643.0500000000002,-79.7012,-4028.7199999999998,-1009.04,1130.99,-850.88199999999995
173047.0,7549.4099999999999,4334.25,37.714100000000002,-3754.6700000000001,-874.08000000000004,1038.75,-880.91600000000005
173048.0,7007.1099999999997,3592.2399999999998,-336.221,-3931.3000000000002,-766.71299999999997,945.66200000000003,-851.02200000000005
173049.0,6549.75,3580.8400000000001,18.768899999999999,-3474.0900000000001,-681.83299999999997,870.63,-795.88099999999997
173050.0,6051.3100000000004,3013.48,-323.02699999999999,-3509.3800000000001,-610.68700000000001,774.46400000000006,-771.07600000000002
173051.0,5493.8100000000004,3105.1399999999999,90.244600000000005,-2853.9200000000001,-545.42100000000005,659.93899999999996,-670.53399999999999
173052.0,66299.899999999994,-20531.599999999999,-775.74199999999996,7733.6300000000001,-14973.6,-30273.0,-10690.799999999999
173053.0,55258.599999999999,13980.0,10739.799999999999,21399.700000000001,-12425.1,-25342.200000000001,-13833.5
173054.0,45187.400000000001,43127.900000000001,21139.5,37723.900000000001,-8567.9099999999999,-17031.900000000001,-13632.6
173055.0,43142.199999999997,58456.400000000001,20182.099999999999,49404.800000000003,-6566.3100000000004,-9904.9899999999998,-8891.1100000000006
173056.0,48962.400000000001,71798.399999999994,21278.400000000001,62850.199999999997,-7480.7799999999997,-3890.8299999999999,-1116.6199999999999
173057.0,56314.800000000003,84921.0,26993.099999999999,75540.100000000006,-8382.2299999999996,1299.95,4292.3299999999999
173058.0,62619.5,88024.100000000006,24859.299999999999,78308.199999999997,-8841.5799999999999,3748.73,7616.6700000000001
173059.0,66567.399999999994,86221.100000000006,20345.400000000001,76397.5,-9076.0799999999999,4771.3800000000001,10437.4
173060.0,65874.399999999994,81247.100000000006,16222.700000000001,69418.5,-8483.8899999999994,5536.21,12008.4
173061.0,63855.099999999999,76061.899999999994,14097.299999999999,61674.300000000003,-8021.0900000000001,6170.1499999999996,14319.700000000001
173062.0,62842.5,69310.899999999994,10180.6,54482.0,-8225.5799999999999,6450.9899999999998,16144.200000000001
173063.0,59401.5,61773.199999999997,5107.1899999999996,47521.900000000001,-8288.7700000000004,5856.0100000000002,14294.299999999999
173064.0,53487.300000000003,54799.900000000001,1896.9100000000001,39570.599999999999,-7700.6000000000004,4865.5900000000001,11357.6
173065.0,47517.5,50054.099999999999,1799.03,33136.400000000001,-6791.5200000000004,3988.1900000000001,9546.9500000000007
173066.0,42763.900000000001,45923.5,1792.5599999999999,27559.0,-6013.8199999999997,3241.3299999999999,8453.4400000000005
173067.0,38935.300000000003,42086.699999999997,1209.8099999999999,22056.599999999999,-5304.1999999999998,2609.8699999999999,7251.6899999999996
173068.0,35903.0,38621.199999999997,289.69999999999999,17148.799999999999,-4571.7200000000003,1988.6900000000001,5976.5299999999997
173069.0,33514.300000000003,36705.099999999999,776.95799999999997,14280.200000000001,-4004.5599999999999,1515.55,5170.0799999999999
173070.0,31472.099999999999,34903.599999999999,1287.29,11859.6,-3635.8600000000001,1237.1400000000001,4465.3599999999997
173071.0,29851.099999999999,32930.400000000001,1379.01,9525.7800000000007,-3377.1300000000001,1241.4200000000001,3976.3299999999999
173072.0,28396.400000000001,31072.700000000001,1515.5,7850.6999999999998,-3314.5900000000001,1474.0699999999999,3668.0799999999999
173073.0,26750.299999999999,28969.400000000001,1384.3499999999999,6535.7299999999996,-3415.1700000000001,1487.9000000000001,3086.3099999999999
173074.0,25191.799999999999,26130.799999999999,530.37400000000002,4394.8599999999997,-3570.0599999999999,1383.51,2534.1700000000001
173075.0,23940.599999999999,23929.299999999999,175.60599999999999,2708.98,-3767.8200000000002,1394.4300000000001,2179.4299999999998
173076.0,22838.200000000001,22026.099999999999,-184.71799999999999,1539.74,-3968.0,1453.7,1827.3599999999999
173077.0,21665.5,20368.5,-493.101,810.80799999999999,-3969.48,1513.21,1360.0
173078.0,20373.5,19314.599999999999,-134.04499999999999,676.55200000000002,-3706.2199999999998,1601.6800000000001,1005.1799999999999
173079.0,19060.0,17966.900000000001,-50.956099999999999,296.65100000000001,-3377.8800000000001,1671.3599999999999,851.18399999999997
173080.0,17855.599999999999,16822.299999999999,120.622,102.965,-3143.1300000000001,1649.8,769.83799999999997
173081.0,16808.400000000001,15490.6,-32.957299999999996,-412.30200000000002,-2968.1199999999999,1617.05,641.57899999999995
173082.0,15888.6,14492.799999999999,6.2127699999999999,-684.47400000000005,-2783.8499999999999,1625.1300000000001,557.36400000000003
173083.0,14991.0,13503.5,-43.551499999999997,-968.072,-2545.29,1614.29,437.11500000000001
173084.0,14050.1,12611.5,2.0479500000000002,-1088.8299999999999,-2317.5300000000002,1528.25,337.73899999999998
173085.0,13157.799999999999,11556.700000000001,-99.375399999999999,-1413.45,-2136.96,1446.1500000000001,285.93400000000003
173086.0,12451.299999999999,10719.700000000001,-93.621099999999998,-1729.1600000000001,-1982.72,1384.4100000000001,260.69499999999999
173087.0,11897.799999999999,9984.5900000000001,-99.146299999999997,-2108.02,-1838.8900000000001,1326.79,229.88900000000001
173088.0,11401.1,9394.5599999999995,-31.375399999999999,-2376.0900000000001,-1707.1500000000001,1254.46,157.614
173089.0,10937.4,8748.0100000000002,-82.849999999999994,-2693.8099999999999,-1596.1400000000001,1170.0999999999999,76.491299999999995
173090.0,10550.799999999999,8264.8999999999996,2.4359600000000001,-2920.98,-1511.99,1078.8,6.0136200000000004
173091.0,10238.0,7778.5500000000002,37.587200000000003,-3199.7600000000002,-1446.9300000000001,1008.62,-81.200199999999995
173092.0,9985.1700000000001,7287.96,40.472200000000001,-3529.79,-1378.3299999999999,965.71100000000001,-139.31299999999999
173093.0,9765.0900000000001,6845.2399999999998,48.510899999999999,-3820.3499999999999,-1318.55,916.27800000000002,-233.30000000000001
173094.0,9572.2199999999993,6418.3699999999999,39.778599999999997,-4093.2199999999998,-1272.95,883.40999999999997,-313.15600000000001
173095.0,9394.6000000000004,6020.7600000000002,11.764799999999999,-4338.5699999999997,-1209.0,848.53399999999999,-423.85399999999998
173096.0,9209.7999999999993,5628.6199999999999,-55.429400000000001,-4562.2299999999996,-1134.77,798.82299999999998,-518.40300000000002
173097.0,8999.9599999999991,5258.8199999999997,-127.77200000000001,-4726.8699999999999,-1038.74,757.96699999999998,-605.0
173098.0,8716.7600000000002,5013.7799999999997,-64.045699999999997,-4679.04,-947.46100000000001,668.58799999999997,-690.71900000000005
173099.0,8334.3500000000004,4586.0900000000001,-125.077,-4664.8599999999997,-913.00599999999997,557.75099999999998,-782.10299999999995
173100.0,7890.3199999999997,4278.6999999999998,-1.76328,-4444.9300000000003,-883.37400000000002,486.18700000000001,-841.42899999999997
173101.0,7357.2700000000004,3799.77,-104.542,-4302.0900000000001,-831.88999999999999,417.27800000000002,-871.63999999999999
173102.0,6795.7299999999996,3634.6100000000001,86.324600000000004,-3853.0100000000002,-746.154,382.10399999999998,-813.87099999999998
173103.0,6176.1700000000001,3100.75,-160.23500000000001,-3709.23,-652.02999999999997,322.42000000000002,-764.88699999999994
173104.0,5582.1599999999999,3018.9499999999998,81.092100000000002,-3132.0700000000002,-618.26599999999996,241.07400000000001,-693.81799999999998
173105.0,49204.0,49197.099999999999,13510.1,56045.599999999999,-11341.299999999999,-7149.6599999999999,-10278.5
173106.0,54073.900000000001,65086.099999999999,18095.299999999999,64688.0,-10389.0,-4169.9799999999996,-10930.799999999999
173107.0,59923.800000000003,75245.5,17224.5,71595.5,-8642.2800000000007,-566.51099999999997,-8121.0100000000002
173108.0,66115.600000000006,82232.5,15641.6,77346.699999999997,-8163.4499999999998,2735.0999999999999,-2312.54
173109.0,69790.899999999994,89591.899999999994,19821.299999999999,84186.199999999997,-8616.6299999999992,5858.4799999999996,2890.4400000000001
173110.0,70107.899999999994,90317.199999999997,21117.5,84440.199999999997,-8648.4400000000005,7580.71,5827.6400000000003
173111.0,70956.199999999997,86610.300000000003,18088.799999999999,80818.0,-8935.7099999999991,7920.9700000000003,9577.2900000000009
173112.0,70395.100000000006,80632.0,13351.9,73980.600000000006,-8753.8400000000001,7497.1800000000003,12022.299999999999
173113.0,65497.599999999999,74504.600000000006,11660.0,64927.300000000003,-8010.8900000000003,6943.8599999999997,13082.799999999999
173114.0,61685.300000000003,66655.600000000006,9394.75,55065.599999999999,-7890.1800000000003,6618.2700000000004,15678.299999999999
173115.0,58488.400000000001,58824.0,5325.96,47662.0,-7762.6199999999999,5739.7399999999998,15830.299999999999
173116.0,51964.199999999997,50627.099999999999,1254.8599999999999,39151.199999999997,-6943.6499999999996,4427.9099999999999,12833.4
173117.0,44758.300000000003,44400.0,351.64100000000002,31041.099999999999,-6030.8299999999999,3325.8299999999999,10499.700000000001
173118.0,39441.5,39155.800000000003,-561.596,23984.099999999999,-5354.6999999999998,2395.8899999999999,9079.6399999999994
173119.0,35175.800000000003,35187.199999999997,-807.96900000000005,18441.599999999999,-4750.21,1702.3800000000001,7908.6700000000001
173120.0,31429.599999999999,32672.299999999999,-138.87799999999999,14871.6,-4060.8899999999999,1160.0599999999999,6453.1800000000003
173121.0,28810.700000000001,30163.599999999999,-108.73099999999999,11578.299999999999,-3671.4699999999998,540.42700000000002,5463.04
173122.0,26759.400000000001,27480.900000000001,-494.74099999999999,8214.9899999999998,-3507.5500000000002,147.09800000000001,4627.9700000000003
173123.0,25390.299999999999,25237.299999999999,-985.10699999999997,5419.4399999999996,-3446.23,-97.810000000000002,4013.3200000000002
173124.0,24182.299999999999,23614.299999999999,-951.55100000000004,3575.5300000000002,-3440.4000000000001,-200.02199999999999,3482.8000000000002
173125.0,22935.400000000001,22047.0,-927.45299999999997,2096.98,-3389.4299999999998,-296.68700000000001,2817.6999999999998
173126.0,21959.700000000001,20586.0,-1108.6300000000001,751.43299999999999,-3282.27,-397.07499999999999,2285.7199999999998
173127.0,21191.400000000001,20122.299999999999,-528.12599999999998,423.80799999999999,-3130.3499999999999,-380.98700000000002,1962.5799999999999
173128.0,20432.799999999999,19306.099999999999,-276.03199999999998,-173.49199999999999,-2986.0700000000002,-330.09800000000001,1728.54
173129.0,19555.299999999999,18465.799999999999,94.649699999999996,-589.10699999999997,-2899.4200000000001,-256.53699999999998,1467.49
173130.0,18668.200000000001,17422.0,185.608,-1045.4000000000001,-2843.2800000000002,-172.92500000000001,1201.6900000000001
173131.0,17880.799999999999,16222.299999999999,-84.251099999999994,-1646.9100000000001,-2770.1399999999999,-79.290400000000005,975.73199999999997
173132.0,17107.5,15287.6,-146.14400000000001,-1963.9200000000001,-2667.5500000000002,4.3467399999999996,765.82299999999998
173133.0,16256.9,14225.0,-261.81599999999997,-2300.4000000000001,-2554.9400000000001,103.39400000000001,610.08799999999997
173134.0,15369.1,13354.200000000001,-187.012,-2388.77,-2399.8499999999999,226.298,500.17399999999998
173135.0,14460.1,12390.9,-217.625,-2540.8800000000001,-2211.29,289.31299999999999,411.54500000000002
173136.0,13499.700000000001,11520.799999999999,-132.56800000000001,-2505.9099999999999,-2048.5100000000002,291.12099999999998,320.65300000000002
173137.0,12660.6,10473.200000000001,-278.06799999999998,-2772.79,-1927.6300000000001,293.548,288.22899999999998
173138.0,12003.299999999999,9751.6100000000006,-200.48099999999999,-2934.5300000000002,-1813.6800000000001,310.50799999999998,254.04900000000001
173139.0,11417.9,9023.3500000000004,-211.54400000000001,-3178.8099999999999,-1677.8900000000001,318.43900000000002,206.78999999999999
173140.0,10885.1,8391.5300000000007,-193.495,-3366.8000000000002,-1541.8399999999999,298.34399999999999,154.18100000000001
173141.0,10431.5,7763.04,-238.499,-3610.2600000000002,-1438.55,260.02600000000001,104.624
173142.0,10066.4,7333.9799999999996,-152.05199999999999,-3729.6500000000001,-1359.9400000000001,229.03800000000001,38.578800000000001
173143.0,9787.4599999999991,6855.2600000000002,-169.74000000000001,-3982.02,-1291.5799999999999,201.34899999999999,-30.977599999999999
173144.0,9580.3600000000006,6434.8800000000001,-177.79599999999999,-4244.7700000000004,-1224.8399999999999,178.26599999999999,-92.812299999999993
173145.0,9420.0499999999993,6113.0100000000002,-118.455,-4446.6499999999996,-1165.3599999999999,144.35599999999999,-147.41800000000001
173146.0,9282.9200000000001,5799.7299999999996,-105.08199999999999,-4643.5600000000004,-1112.4100000000001,120.17,-226.113
173147.0,9167.2299999999996,5549.8599999999997,-80.457800000000006,-4791.7200000000003,-1050.77,105.154,-300.13799999999998
173148.0,9020.3799999999992,5328.6599999999999,-43.578800000000001,-4860.0699999999997,-985.10299999999995,82.9572,-408.47399999999999
173149.0,8799.1000000000004,5063.6899999999996,-46.450600000000001,-4877.9499999999998,-916.178,60.098199999999999,-499.51400000000001
173150.0,8507.2199999999993,4728.2299999999996,-74.819000000000003,-4882.6999999999998,-848.52999999999997,19.4468,-558.01999999999998
173151.0,8199.8799999999992,4508.4099999999999,26.3521,-4740.3999999999996,-796.59699999999998,-30.2485,-620.71799999999996
173152.0,7940.79,4054.75,-139.79599999999999,-4878.1000000000004,-760.13499999999999,-73.096000000000004,-679.68600000000004
173153.0,7712.6499999999996,3807.23,-73.157399999999996,-4835.8000000000002,-733.34199999999998,-103.027,-734.53999999999996
173154.0,7365.4200000000001,3260.1900000000001,-317.98200000000003,-4947.6099999999997,-722.84400000000005,-110.11799999999999,-783.798
173155.0,6895.6700000000001,3152.6399999999999,-106.22199999999999,-4513.6000000000004,-698.84900000000005,-94.175700000000006,-741.65899999999999
173156.0,6369.1899999999996,2842.1999999999998,-144.36500000000001,-4215.0699999999997,-673.73299999999995,-99.704899999999995,-713.51599999999996
173157.0,5874.9700000000003,2807.29,47.086799999999997,-3668.0999999999999,-657.92700000000002,-104.464,-708.96600000000001
173158.0,73297.800000000003,84124.0,15013.799999999999,80609.300000000003,-12099.200000000001,6012.6499999999996,-9648.1499999999996
173159.0,75312.600000000006,87064.199999999997,14343.1,83083.899999999994,-10672.200000000001,7317.5500000000002,-7185.8299999999999
173160.0,77633.300000000003,90590.399999999994,14654.6,87080.899999999994,-9715.5300000000007,8433.2999999999993,-2472.54
173161.0,77585.0,91284.699999999997,15338.5,87607.899999999994,-9113.1299999999992,9146.5900000000001,2395.1700000000001
173162.0,74892.0,91020.600000000006,18006.0,87344.0,-8063.8900000000003,9317.7700000000004,5068.4099999999999
173163.0,71749.899999999994,86560.0,17193.700000000001,83008.399999999994,-6841.96,9310.2199999999993,7519.6400000000003
173164.0,69100.800000000003,79727.0,14288.9,76178.0,-6548.3699999999999,9034.8899999999994,10628.299999999999
173165.0,63919.699999999997,73927.300000000003,13609.0,68586.399999999994,-6694.6000000000004,7735.4399999999996,11931.6
173166.0,58014.300000000003,66447.899999999994,12546.5,57902.5,-6441.25,6462.5,14120.0
173167.0,55500.5,58909.900000000001,9422.4899999999998,49355.0,-6030.1000000000004,5437.6800000000003,16482.900000000001
173168.0,51162.099999999999,49956.699999999997,3346.8299999999999,40619.599999999999,-5624.8299999999999,4009.7399999999998,14719.0
173169.0,43992.900000000001,42684.099999999999,425.80799999999999,31585.299999999999,-5047.8199999999997,2613.79,11525.4
173170.0,37781.199999999997,37651.5,154.328,24195.200000000001,-4414.3299999999999,1615.9100000000001,9636.5900000000001
173171.0,33081.099999999999,33875.099999999999,514.30499999999995,18962.299999999999,-3872.5599999999999,800.28700000000003,8358.9599999999991
173172.0,29026.5,30364.0,784.22900000000004,14420.700000000001,-3482.6500000000001,110.50700000000001,7037.1000000000004
173173.0,25847.900000000001,26718.400000000001,106.684,10244.5,-3153.8499999999999,-426.91899999999998,5673.1800000000003
173174.0,23751.700000000001,23569.299999999999,-750.12800000000004,6570.4399999999996,-2887.4899999999998,-948.05499999999995,4811.1400000000003
173175.0,22169.799999999999,21889.200000000001,-486.46199999999999,4378.6000000000004,-2676.23,-1282.5999999999999,4066.0100000000002
173176.0,20950.599999999999,20347.700000000001,-330.32100000000003,2607.1700000000001,-2528.9099999999999,-1558.3199999999999,3511.4299999999998
173177.0,19936.799999999999,18962.400000000001,-229.25200000000001,1106.77,-2450.1799999999998,-1762.1099999999999,2926.2199999999998
173178.0,19197.700000000001,17942.599999999999,-168.46700000000001,62.825000000000003,-2397.2399999999998,-1844.0999999999999,2396.73
173179.0,18595.900000000001,17118.900000000001,-87.159000000000006,-706.28399999999999,-2349.8499999999999,-1817.9300000000001,2020.1700000000001
173180.0,18012.200000000001,15766.6,-535.38900000000001,-1906.47,-2321.3299999999999,-1766.6300000000001,1724.9000000000001
173181.0,17484.400000000001,14727.700000000001,-730.76999999999998,-2746.6300000000001,-2302.9200000000001,-1730.97,1484.6800000000001
173182.0,17056.5,13948.9,-800.53399999999999,-3362.8600000000001,-2293.77,-1668.1900000000001,1276.3099999999999
173183.0,16582.900000000001,13359.4,-747.33299999999997,-3702.0700000000002,-2258.7800000000002,-1517.9200000000001,1058.5599999999999
173184.0,15974.9,13023.799999999999,-400.01100000000002,-3586.71,-2184.5700000000002,-1367.03,844.98900000000003
173185.0,15309.1,12288.5,-416.49599999999998,-3764.23,-2099.27,-1245.46,667.78200000000004
173186.0,14657.0,11641.1,-351.03399999999999,-3840.3000000000002,-2017.3599999999999,-1140.71,543.16899999999998
173187.0,13936.1,10792.0,-442.92200000000003,-4026.3200000000002,-1923.5599999999999,-1025.51,459.95699999999999
173188.0,13202.799999999999,10210.299999999999,-290.654,-3899.3299999999999,-1831.1900000000001,-939.38999999999999,373.45800000000003
173189.0,12581.4,9468.2800000000007,-352.85300000000001,-4033.75,-1780.5999999999999,-879.76199999999994,318.47800000000001
173190.0,12011.1,8962.4300000000003,-202.321,-4014.3099999999999,-1712.3699999999999,-778.11000000000001,253.613
173191.0,11472.0,8299.4599999999991,-253.661,-4188.8900000000003,-1603.1400000000001,-703.65499999999997,192.91
173192.0,10981.799999999999,7733.79,-231.148,-4306.5,-1499.96,-654.75900000000001,136.31800000000001
173193.0,10535.5,7191.9099999999999,-236.70400000000001,-4427.0900000000001,-1406.8800000000001,-625.71400000000006,65.440399999999997
173194.0,10135.5,6757.5299999999997,-182.417,-4471.0500000000002,-1322.9400000000001,-621.91300000000001,3.36015
173195.0,9781.8899999999994,6249.9499999999998,-227.32300000000001,-4632.4300000000003,-1244.0799999999999,-615.69399999999996,-62.640999999999998
173196.0,9490.1700000000001,5921.1800000000003,-150.768,-4683.3900000000003,-1152.52,-602.702,-133.54400000000001
173197.0,9249.9599999999991,5605.4700000000003,-95.6815,-4767.8599999999997,-1059.3900000000001,-606.18799999999999,-202.697
173198.0,9029.1200000000008,5245.9099999999999,-92.288700000000006,-4899.04,-986.20500000000004,-608.87300000000005,-279.572
173199.0,8788.8400000000001,4844.8599999999997,-145.029,-5040.9300000000003,-918.48800000000006,-591.48900000000003,-348.54399999999998
173200.0,8503.1499999999996,4524.5100000000002,-135.98400000000001,-5046.4200000000001,-839.38300000000004,-569.07000000000005,-408.61099999999999
173201.0,8198.6700000000001,4165.46,-201.261,-5060.8100000000004,-761.48599999999999,-559.01700000000005,-460.88499999999999
173202.0,7912.6499999999996,3857.5500000000002,-232.173,-5042.0900000000001,-692.22299999999996,-555.23900000000003,-488.25200000000001
173203.0,7667.3299999999999,3575.9299999999998,-246.46100000000001,-5028.1300000000001,-651.92200000000003,-569.26800000000003,-512.55600000000004
173204.0,7454.6999999999998,3346.4000000000001,-219.822,-4994.6899999999996,-626.46100000000001,-568.245,-541.87199999999996
173205.0,7258.0600000000004,3116.9699999999998,-215.33600000000001,-4979.0299999999997,-583.45500000000004,-573.26900000000001,-577.72299999999996
173206.0,7111.8999999999996,2975.6500000000001,-135.578,-4924.0799999999999,-539.87900000000002,-606.26099999999997,-603.99699999999996
173207.0,6970.5799999999999,2706.29,-233.32300000000001,-4999.54,-531.60299999999995,-641.61599999999999,-615.67899999999997
173208.0,6806.0200000000004,2719.3600000000001,-39.2179,-4769.4799999999996,-561.33699999999999,-655.03700000000003,-593.11400000000003
173209.0,6534.7700000000004,2485.5300000000002,-117.423,-4666.1199999999999,-616.57399999999996,-614.303,-612.26499999999999
173210.0,6187.4799999999996,2521.8800000000001,46.526000000000003,-4222.5900000000001,-641.19000000000005,-538.57399999999996,-648.33600000000001
173211.0,83365.800000000003,88655.399999999994,8597.7999999999993,83155.5,-12083.5,11379.4,-6434.1199999999999
173212.0,82493.899999999994,89751.100000000006,9823.0599999999995,85259.800000000003,-10647.299999999999,11571.1,-2144.1999999999998
173213.0,79946.899999999994,89905.600000000006,12136.9,85893.899999999994,-9193.1900000000005,11083.9,2403.6599999999999
173214.0,75996.5,87113.0,13244.200000000001,83196.300000000003,-7741.3599999999997,10146.700000000001,5893.5900000000001
173215.0,73001.899999999994,83039.399999999994,12353.700000000001,79782.100000000006,-5870.1899999999996,9315.5799999999999,7931.3400000000001
173216.0,69633.100000000006,77093.699999999997,10061.1,74178.300000000003,-4217.21,8722.8899999999994,9322.2099999999991
173217.0,62944.5,71840.399999999994,11097.1,67655.5,-3565.5599999999999,7645.0200000000004,9924.2900000000009
173218.0,54641.599999999999,65746.399999999994,12987.799999999999,58587.300000000003,-3165.1500000000001,6210.3800000000001,11297.9
173219.0,50930.5,58799.900000000001,12329.799999999999,49204.300000000003,-3063.6500000000001,5231.0799999999999,15033.6
173220.0,49572.900000000001,50303.0,6357.2700000000004,40990.599999999999,-3557.25,3938.2199999999998,15961.1
173221.0,43972.199999999997,41202.599999999999,76.071299999999994,31523.900000000001,-3801.0799999999999,2164.0999999999999,12769.0
173222.0,37003.300000000003,35070.599999999999,-1074.9400000000001,23092.099999999999,-3549.5,842.39800000000002,10203.0
173223.0,31916.5,30991.400000000001,-661.99300000000005,17231.299999999999,-3204.6100000000001,-172.798,8794.7399999999998
173224.0,27954.400000000001,26653.700000000001,-1187.72,11752.200000000001,-2990.21,-1051.73,7505.25
173225.0,24700.599999999999,23571.700000000001,-1040.21,7956.8699999999999,-2814.1100000000001,-1618.1600000000001,6144.0200000000004
173226.0,22400.400000000001,21224.200000000001,-912.02800000000002,5189.7799999999997,-2587.8000000000002,-2072.2600000000002,5054.0900000000001
173227.0,20678.0,19529.099999999999,-506.16000000000003,3209.1700000000001,-2354.4000000000001,-2406.9099999999999,4194.96
173228.0,19444.0,17454.799999999999,-867.79600000000005,1013.3200000000001,-2181.3899999999999,-2697.1399999999999,3520.5
173229.0,18561.200000000001,15960.1,-922.726,-563.50400000000002,-2109.48,-2920.73,2971.23
173230.0,17815.599999999999,14888.9,-827.77599999999995,-1598.1600000000001,-2092.21,-2987.2199999999998,2434.48
173231.0,17175.0,13853.299999999999,-906.93899999999996,-2475.6700000000001,-2055.8000000000002,-2978.8499999999999,2016.5999999999999
173232.0,16622.099999999999,12842.799999999999,-1068.29,-3298.8499999999999,-1985.1300000000001,-2958.8899999999999,1701.45
173233.0,16173.4,12479.0,-694.57100000000003,-3514.1799999999998,-1897.47,-2923.8299999999999,1471.0599999999999
173234.0,15767.700000000001,12029.5,-478.04899999999998,-3826.8000000000002,-1818.6900000000001,-2848.8099999999999,1266.51
173235.0,15298.5,11346.9,-484.07400000000001,-4235.6300000000001,-1764.8,-2753.8699999999999,1082.8800000000001
173236.0,14767.299999999999,10788.700000000001,-402.28300000000002,-4405.1599999999999,-1720.5799999999999,-2623.1999999999998,911.34400000000005
173237.0,14290.799999999999,10008.4,-625.96400000000006,-4816.3100000000004,-1681.1600000000001,-2503.23,761.61699999999996
173238.0,13816.700000000001,9592.7999999999993,-531.57500000000005,-4854.1999999999998,-1639.8399999999999,-2360.96,621.88699999999994
173239.0,13335.0,8945.2000000000007,-660.20799999999997,-5079.6499999999996,-1593.9400000000001,-2238.9899999999998,551.94100000000003
173240.0,12873.299999999999,8661.4200000000001,-406.85199999999998,-4943.4499999999998,-1580.5799999999999,-2126.1700000000001,487.27800000000002
173241.0,12411.6,8195.8400000000001,-387.57100000000003,-4985.5299999999997,-1573.02,-1991.4400000000001,384.577
173242.0,11971.200000000001,7778.71,-343.89600000000002,-5004.46,-1533.5899999999999,-1863.48,307.21899999999999
173243.0,11546.1,7229.6400000000003,-409.57400000000001,-5172.2299999999996,-1484.72,-1742.3699999999999,237.363
173244.0,11118.9,6841.9399999999996,-328.041,-5174.2700000000004,-1422.9300000000001,-1615.3399999999999,168.59999999999999
173245.0,10728.299999999999,6422.1400000000003,-330.18900000000002,-5232.7200000000003,-1344.49,-1518.0799999999999,96.397599999999997
173246.0,10354.1,6088.1199999999999,-262.65100000000001,-5203.6400000000003,-1267.8399999999999,-1444.3399999999999,19.109400000000001
173247.0,9991.5200000000004,5636.0200000000004,-304.29599999999999,-5295.2799999999997,-1195.9400000000001,-1376.29,-62.366999999999997
173248.0,9645.9599999999991,5245.6000000000004,-288.452,-5336.2399999999998,-1122.95,-1311.74,-140.01599999999999
173249.0,9278.2600000000002,4812.9799999999996,-325.76299999999998,-5390.9799999999996,-1036.0699999999999,-1241.8599999999999,-221.55799999999999
173250.0,8908.7099999999991,4426.1800000000003,-336.05900000000003,-5386.4799999999996,-938.76900000000001,-1183.8900000000001,-305.18700000000001
173251.0,8566.0300000000007,4060.2800000000002,-335.09699999999998,-5379.7200000000003,-843.92499999999995,-1137.4000000000001,-373.54199999999997
173252.0,8246.7800000000007,3723.7199999999998,-316.13900000000001,-5360.6199999999999,-759.36599999999999,-1100.7,-407.709
173253.0,7939.6199999999999,3476.3600000000001,-245.76900000000001,-5252.6999999999998,-695.50900000000001,-1076.05,-429.238
173254.0,7628.4799999999996,3247.9699999999998,-192.38399999999999,-5110.3299999999999,-650.14499999999998,-1062.6300000000001,-445.89800000000002
173255.0,7353.2299999999996,3044.52,-129.54599999999999,-4978.25,-617.03599999999994,-1055.6800000000001,-450.76100000000002
173256.0,7141.2600000000002,2839.1500000000001,-108.973,-4921.4899999999998,-587.49199999999996,-1046.51,-460.79199999999997
173257.0,6996.25,2675.75,-81.514200000000002,-4895.4499999999998,-561.01999999999998,-1049.99,-464.07799999999997
173258.0,6891.7600000000002,2484.04,-106.866,-4938.75,-545.05799999999999,-1054.29,-480.20299999999997
173259.0,6801.9399999999996,2396.3800000000001,-52.086300000000001,-4894.6000000000004,-526.49099999999999,-1058.49,-507.27100000000002
173260.0,6695.9300000000003,2152.5500000000002,-182.459,-4994.5200000000004,-507.58999999999997,-1065.6300000000001,-520.096
173261.0,6618.21,2171.23,-37.358800000000002,-4853.6199999999999,-509.13299999999998,-1077.28,-526.024
173262.0,6512.1099999999997,1944.3299999999999,-182.47499999999999,-4941.9700000000003,-546.80999999999995,-1057.8299999999999,-533.85599999999999
173263.0,6366.7299999999996,2092.1999999999998,-3.6912199999999999,-4637.2200000000003,-586.78099999999995,-1003.67,-549.697
173264.0,81212.100000000006,88936.699999999997,10189.700000000001,84083.699999999997,-9735.2900000000009,12313.9,-2137.48
173265.0,77754.800000000003,88586.5,12908.6,84142.300000000003,-8436.1800000000003,11619.0,2361.9299999999998
173266.0,73652.600000000006,85942.699999999997,14173.5,81148.800000000003,-7135.6099999999997,10431.1,6212.3400000000001
173267.0,71569.0,80872.100000000006,11500.299999999999,76174.300000000003,-5601.0900000000001,9264.2600000000002,9343.7299999999996
173268.0,70399.699999999997,74249.199999999997,6429.75,70523.699999999997,-3968.1599999999999,8004.6899999999996,10892.9
173269.0,65160.0,67451.600000000006,3881.6399999999999,63557.5,-2395.54,6407.5200000000004,9944.4799999999996
173270.0,55637.900000000001,62413.400000000001,6683.4899999999998,55730.800000000003,-1073.3,4830.6599999999999,9019.6100000000006
173271.0,48278.099999999999,58451.300000000003,10757.0,48183.599999999999,-423.96300000000002,3962.6300000000001,11440.700000000001
173272.0,45975.400000000001,50880.800000000003,8307.5300000000007,39631.400000000001,-917.024,3343.3699999999999,14347.700000000001
173273.0,42699.5,41554.5,2108.0100000000002,31307.400000000001,-2063.5900000000001,1879.1700000000001,13454.4
173274.0,36724.699999999997,34181.900000000001,-1155.5699999999999,23262.400000000001,-2548.6100000000001,20.322399999999998,10756.6
173275.0,31146.599999999999,29702.5,-841.755,16908.200000000001,-2372.6300000000001,-1275.8900000000001,8990.5499999999993
173276.0,27260.799999999999,25930.5,-686.96100000000001,11905.0,-2244.5100000000002,-2213.8299999999999,7777.1400000000003
173277.0,24246.700000000001,23013.799999999999,-322.24000000000001,8165.6899999999996,-2234.0999999999999,-2931.8800000000001,6547.2200000000003
173278.0,21899.599999999999,20485.099999999999,-154.178,5169.6199999999999,-2181.4400000000001,-3350.6500000000001,5391.0799999999999
173279.0,20189.599999999999,17902.599999999999,-555.72400000000005,2414.2199999999998,-2075.4299999999998,-3660.8000000000002,4464.1300000000001
173280.0,18871.0,15726.799999999999,-884.70500000000004,201.178,-1961.77,-3859.3899999999999,3687.8400000000001
173281.0,17885.799999999999,14409.0,-672.79700000000003,-1044.72,-1872.1800000000001,-4005.5799999999999,3057.3000000000002
173282.0,17103.599999999999,13193.1,-622.83799999999997,-2102.48,-1835.1800000000001,-4071.1799999999998,2529.5300000000002
173283.0,16448.200000000001,12163.1,-640.68200000000002,-2909.9499999999998,-1797.3,-4062.79,2096.9400000000001
173284.0,15895.6,11311.6,-649.26800000000003,-3540.6199999999999,-1733.3099999999999,-4014.7399999999998,1760.46
173285.0,15422.0,10744.9,-490.30799999999999,-3897.3499999999999,-1678.73,-3936.46,1503.3299999999999
173286.0,14971.299999999999,9841.8600000000006,-747.18700000000001,-4578.5100000000002,-1627.48,-3821.8299999999999,1290.78
173287.0,14541.4,9103.0799999999999,-892.48000000000002,-5045.5699999999997,-1568.6199999999999,-3727.8800000000001,1111.8
173288.0,14140.200000000001,8648.1599999999999,-805.995,-5219.0100000000002,-1532.3699999999999,-3628.4699999999998,970.54700000000003
173289.0,13717.700000000001,8215.9599999999991,-733.04499999999996,-5352.8299999999999,-1504.29,-3491.1799999999998,827.20799999999997
173290.0,13273.299999999999,7980.1099999999997,-500.10199999999998,-5258.2799999999997,-1455.6400000000001,-3341.1999999999998,689.798
173291.0,12865.700000000001,7441.54,-615.92899999999997,-5472.1099999999997,-1394.05,-3215.9099999999999,587.52599999999995
173292.0,12503.6,7155.6599999999999,-495.52600000000001,-5450.4300000000003,-1355.5999999999999,-3109.0300000000002,524.94899999999996
173293.0,12151.0,6730.71,-546.83500000000004,-5589.4899999999998,-1340.6300000000001,-2976.3200000000002,443.31299999999999
173294.0,11796.5,6451.8599999999997,-481.68099999999998,-5585.6099999999997,-1318.79,-2831.5,354.048
173295.0,11435.5,6074.71,-506.31999999999999,-5672.6199999999999,-1284.1900000000001,-2683.0799999999999,274.04599999999999
173296.0,11095.200000000001,5804.2600000000002,-425.19299999999998,-5663.6499999999996,-1243.48,-2546.4200000000001,210.27699999999999
173297.0,10748.4,5441.04,-442.16500000000002,-5736.2799999999997,-1199.0699999999999,-2406.1799999999998,141.22900000000001
173298.0,10352.1,5165.8100000000004,-368.49200000000002,-5659.8500000000004,-1143.97,-2259.5799999999999,62.6372
173299.0,9969.5599999999995,4799.4799999999996,-385.447,-5674.5200000000004,-1084.0,-2128.0300000000002,-4.5868900000000004
173300.0,9631.5900000000001,4478.6400000000003,-359.41399999999999,-5683.1800000000003,-1019.0700000000001,-2011.04,-66.209699999999998
173301.0,9304.6100000000006,4116.8999999999996,-381.82499999999999,-5725.8400000000001,-951.09500000000003,-1912.9200000000001,-123.798
173302.0,8976.6000000000004,3861.9899999999998,-304.74299999999999,-5637.6199999999999,-896.45500000000004,-1830.47,-177.595
173303.0,8646.6000000000004,3608.2199999999998,-243.40799999999999,-5536.5799999999999,-843.57100000000003,-1752.95,-238.27600000000001
173304.0,8336.5300000000007,3303.0799999999999,-252.5,-5492.2299999999996,-784.73500000000001,-1699.98,-290.58800000000002
173305.0,8049.8199999999997,3035.5599999999999,-233.59,-5427.2200000000003,-733.26199999999994,-1656.45,-324.12799999999999
173306.0,7779.1700000000001,2855.6100000000001,-152.14500000000001,-5292.0100000000002,-692.38599999999997,-1611.1099999999999,-349.30799999999999
173307.0,7540.7399999999998,2638.3099999999999,-149.42599999999999,-5225.6700000000001,-665.36000000000001,-1574.5799999999999,-367.79500000000002
173308.0,7342.2399999999998,2425.8299999999999,-165.934,-5197.0900000000001,-645.67399999999998,-1543.4400000000001,-383.76400000000001
173309.0,7161.9300000000003,2227.0599999999999,-186.17500000000001,-5174.4899999999998,-621.57399999999996,-1516.24,-405.04300000000001
173310.0,7000.8999999999996,2082.0799999999999,-171.48500000000001,-5120.1099999999997,-588.05499999999995,-1496.9200000000001,-421.64800000000002
173311.0,6869.1499999999996,1931.6300000000001,-183.58600000000001,-5098.5100000000002,-556.899,-1490.25,-434.15100000000001
173312.0,6769.8299999999999,1861.8399999999999,-129.27799999999999,-5031.1599999999999,-532.70000000000005,-1488.74,-438.56200000000001
173313.0,6691.8999999999996,1759.6300000000001,-128.25899999999999,-5014.04,-524.97299999999996,-1496.48,-438.75999999999999
173314.0,6668.5900000000001,1824.74,31.226500000000001,-4886.0,-528.17999999999995,-1505.9100000000001,-452.71600000000001
173315.0,6645.6499999999996,1624.8299999999999,-114.633,-5035.71,-536.56899999999996,-1508.96,-471.60000000000002
173316.0,6545.0500000000002,1725.7,-12.2773,-4827.7399999999998,-559.65099999999995,-1481.1500000000001,-496.09100000000001
173317.0,74256.600000000006,84712.300000000003,11571.299999999999,79833.199999999997,-6869.2200000000003,10760.700000000001,1689.9300000000001
173318.0,70135.0,82983.199999999997,13838.9,77536.199999999997,-5796.0799999999999,9935.5300000000007,5416.5600000000004
173319.0,67686.399999999994,78908.300000000003,12846.5,72933.800000000003,-4973.1899999999996,9076.8799999999992,9217.7700000000004
173320.0,67156.300000000003,71350.0,7009.1000000000004,65985.800000000003,-4268.6800000000003,7866.1000000000004,12196.9
173321.0,64962.199999999997,63100.5,908.83799999999997,58549.599999999999,-3542.8299999999999,5852.4499999999998,12572.299999999999
173322.0,58869.199999999997,56984.099999999999,-1046.4400000000001,51387.099999999999,-2156.0900000000001,3335.5799999999999,10711.200000000001
173323.0,50260.0,52628.900000000001,1405.5599999999999,43659.699999999997,-286.44400000000002,1697.72,9527.7700000000004
173324.0,43679.900000000001,47146.699999999997,3422.75,35326.300000000003,397.35700000000003,1276.6400000000001,11074.0
173325.0,39990.900000000001,40633.199999999997,2295.6300000000001,28778.599999999999,-418.25900000000001,588.5,12136.6
173326.0,35628.699999999997,33294.0,-906.80899999999997,22092.5,-1250.9000000000001,-914.03099999999995,10803.299999999999
173327.0,30719.299999999999,27932.799999999999,-1718.8299999999999,15982.4,-1492.1400000000001,-2425.6199999999999,9159.0599999999995
173328.0,26709.299999999999,24035.200000000001,-1438.8,11004.299999999999,-1505.8599999999999,-3457.1900000000001,7830.4300000000003
173329.0,23877.599999999999,20788.0,-1412.74,7024.6000000000004,-1524.8499999999999,-4201.71,6669.6400000000003
173330.0,21764.599999999999,17897.799999999999,-1575.48,3642.5599999999999,-1574.78,-4714.5799999999999,5619.96
173331.0,20096.900000000001,15578.200000000001,-1584.48,1139.27,-1611.73,-4993.6899999999996,4692.2299999999996
173332.0,18788.799999999999,13964.0,-1261.2,-476.661,-1610.3599999999999,-5133.4799999999996,3903.2199999999998
173333.0,17775.900000000001,12724.4,-905.529,-1618.04,-1601.6099999999999,-5195.3800000000001,3230.8699999999999
173334.0,16984.599999999999,11279.700000000001,-1106.3299999999999,-2882.8299999999999,-1597.9000000000001,-5195.0900000000001,2663.1100000000001
173335.0,16348.0,10317.299999999999,-1063.72,-3611.8600000000001,-1589.0699999999999,-5153.71,2234.4299999999998
173336.0,15748.200000000001,9559.6100000000006,-955.72900000000004,-4116.1999999999998,-1569.1400000000001,-5044.3999999999996,1869.5899999999999
173337.0,15209.5,8869.25,-912.92100000000005,-4528.1199999999999,-1544.4400000000001,-4918.8400000000001,1577.3199999999999
173338.0,14695.1,8097.3100000000004,-1044.3299999999999,-5015.0799999999999,-1496.51,-4763.9399999999996,1354.9200000000001
173339.0,14231.200000000001,7806.4799999999996,-764.80700000000002,-5030.1999999999998,-1419.95,-4622.04,1178.79
173340.0,13812.0,7406.4200000000001,-649.29600000000005,-5152.6800000000003,-1360.77,-4492.3999999999996,1035.71
173341.0,13415.0,6975.75,-614.53300000000002,-5310.3999999999996,-1326.1900000000001,-4353.4099999999999,917.08399999999995
173342.0,13052.200000000001,6563.3199999999997,-600.80899999999997,-5470.5299999999997,-1306.3099999999999,-4217.96,804.21299999999997
173343.0,12683.200000000001,6107.8699999999999,-682.61199999999997,-5679.4399999999996,-1282.05,-4063.1300000000001,682.05600000000004
173344.0,12318.200000000001,5861.4200000000001,-584.98900000000003,-5665.1300000000001,-1245.5699999999999,-3913.8299999999999,582.44299999999998
173345.0,11967.700000000001,5522.9499999999998,-593.94200000000001,-5749.1400000000003,-1219.8199999999999,-3764.0599999999999,493.48899999999998
173346.0,11612.1,5350.0799999999999,-461.27199999999999,-5670.1700000000001,-1196.1700000000001,-3599.9200000000001,406.00099999999998
173347.0,11270.5,5048.9700000000003,-473.65100000000001,-5726.29,-1165.01,-3441.23,330.459
173348.0,10953.6,4834.7200000000003,-423.61500000000001,-5720.96,-1128.8199999999999,-3285.3899999999999,264.464
173349.0,10629.1,4527.8000000000002,-467.28899999999999,-5796.9499999999998,-1082.2,-3128.0799999999999,208.69200000000001
173350.0,10290.9,4321.25,-394.64699999999999,-5737.6700000000001,-1038.5,-2978.1100000000001,157.53
173351.0,9971.4200000000001,4054.9099999999999,-383.42599999999999,-5742.4700000000003,-1005.7,-2837.6500000000001,107.80800000000001
173352.0,9669.7999999999993,3829.5799999999999,-342.24599999999998,-5720.4099999999999,-963.03200000000004,-2704.8699999999999,52.602600000000002
173353.0,9386.2099999999991,3533.8000000000002,-369.98099999999999,-5761.4700000000003,-908.49000000000001,-2599.3600000000001,4.3737599999999999
173354.0,9118.75,3315.4499999999998,-323.00799999999998,-5718.8999999999996,-861.29300000000001,-2512.2600000000002,-40.952399999999997
173355.0,8868.3999999999996,3046.1799999999998,-340.649,-5727.9899999999998,-823.85199999999998,-2439.3200000000002,-84.530799999999999
173356.0,8631.2600000000002,2781.8600000000001,-361.43000000000001,-5736.1400000000003,-793.25999999999999,-2373.3499999999999,-129.79499999999999
173357.0,8392.4500000000007,2576.21,-335.101,-5678.4200000000001,-760.45100000000002,-2310.8600000000001,-178.22999999999999
173358.0,8157.1000000000004,2370.1500000000001,-317.38499999999999,-5607.4899999999998,-730.45100000000002,-2263.3099999999999,-219.423
173359.0,7928.96,2226.75,-248.01499999999999,-5483.5799999999999,-708.03499999999997,-2211.6700000000001,-256.75099999999998
173360.0,7712.9200000000001,2082.0500000000002,-201.721,-5382.4200000000001,-683.13199999999995,-2156.02,-292.66800000000001
173361.0,7533.3800000000001,1999.6800000000001,-111.197,-5261.6599999999999,-655.02200000000005,-2106.52,-314.762
173362.0,7385.3699999999999,1869.0799999999999,-93.057699999999997,-5222.0100000000002,-634.77999999999997,-2064.25,-332.459
173363.0,7251.9700000000003,1824.1300000000001,-8.8405199999999997,-5114.8800000000001,-621.07100000000003,-2023.8900000000001,-343.87900000000002
173364.0,7131.6400000000003,1677.1400000000001,-53.398699999999998,-5127.8699999999999,-607.95000000000005,-1986.6700000000001,-357.86399999999998
173365.0,7049.5100000000002,1674.0799999999999,29.6401,-5032.3999999999996,-589.86000000000001,-1966.4100000000001,-364.65699999999998
173366.0,6988.0600000000004,1479.73,-99.961100000000002,-5142.7299999999996,-577.88400000000001,-1957.5799999999999,-384.63200000000001
173367.0,6943.8500000000004,1519.5,11.9154,-5033.6499999999996,-563.08100000000002,-1952.02,-407.24099999999999
173368.0,6891.4899999999998,1313.55,-116.119,-5158.6999999999998,-548.24699999999996,-1943.72,-438.13200000000001
173369.0,6756.25,1384.9000000000001,-21.923400000000001,-4922.5600000000004,-562.49099999999999,-1923.8499999999999,-484.596
173370.0,66909.600000000006,80109.300000000003,13116.9,74575.199999999997,-4545.8100000000004,8389.1599999999999,4316.6700000000001
173371.0,63868.599999999999,77304.600000000006,13737.6,70989.399999999994,-3723.2399999999998,7924.7799999999997,7527.6400000000003
173372.0,61954.099999999999,71064.800000000003,10797.4,64530.699999999997,-3308.8200000000002,7232.1899999999996,11067.799999999999
173373.0,60430.199999999997,63090.699999999997,5782.5500000000002,57443.599999999999,-3269.0300000000002,5653.5600000000004,13308.799999999999
173374.0,56740.900000000001,54280.300000000003,428.58199999999999,49069.599999999999,-2923.6100000000001,3323.1399999999999,13092.0
173375.0,51171.099999999999,47566.400000000001,-2126.0599999999999,41109.900000000001,-2066.6100000000001,886.20399999999995,11735.0
173376.0,44934.300000000003,42876.099999999999,-1722.3099999999999,33905.599999999999,-967.98800000000006,-892.42100000000005,10715.6
173377.0,39006.099999999999,37848.599999999999,-816.005,26817.099999999999,-269.99599999999998,-1796.73,10351.5
173378.0,34285.400000000001,32148.099999999999,-1084.4000000000001,20751.200000000001,-356.40300000000002,-2597.9000000000001,9988.7000000000007
173379.0,30134.900000000001,27014.099999999999,-1547.49,15717.6,-671.43899999999996,-3714.29,9030.3299999999999
173380.0,26455.700000000001,22845.700000000001,-1556.1400000000001,11053.700000000001,-828.01599999999996,-4716.1700000000001,7839.2700000000004
173381.0,23646.700000000001,19708.099999999999,-1279.4200000000001,7277.54,-919.43200000000002,-5418.54,6694.2600000000002
173382.0,21592.599999999999,17090.900000000001,-1145.1700000000001,4298.3599999999997,-1007.38,-5919.4099999999999,5632.0200000000004
173383.0,20090.299999999999,15014.700000000001,-915.85900000000004,2073.1900000000001,-1118.5899999999999,-6237.9300000000003,4762.1099999999997
173384.0,18926.400000000001,13303.299999999999,-701.11699999999996,304.91500000000002,-1234.1900000000001,-6379.9099999999999,4020.1500000000001
173385.0,17982.700000000001,11627.299999999999,-798.84900000000005,-1319.3900000000001,-1331.77,-6402.5900000000001,3362.9099999999999
173386.0,17166.900000000001,10180.200000000001,-1007.33,-2628.6199999999999,-1391.8199999999999,-6318.29,2781.04
173387.0,16467.900000000001,9367.8199999999997,-816.40999999999997,-3220.2800000000002,-1398.74,-6193.29,2328.9899999999998
173388.0,15842.799999999999,8547.5900000000001,-754.91700000000003,-3772.8499999999999,-1405.4300000000001,-6045.8400000000001,1974.25
173389.0,15253.200000000001,7774.8199999999997,-779.50400000000002,-4285.9300000000003,-1403.78,-5855.6000000000004,1675.05
173390.0,14706.5,7087.1700000000001,-839.09900000000005,-4692.5100000000002,-1373.5799999999999,-5663.0,1437.05
173391.0,14198.299999999999,6744.3199999999997,-650.99099999999999,-4776.6899999999996,-1330.1700000000001,-5453.6700000000001,1269.1300000000001
173392.0,13748.5,6098.1000000000004,-822.01400000000001,-5175.25,-1286.6600000000001,-5268.7200000000003,1127.49
173393.0,13335.0,5696.8199999999997,-801.178,-5339.6499999999996,-1250.4000000000001,-5092.6000000000004,1002.34
173394.0,12960.5,5341.0600000000004,-769.44399999999996,-5481.1199999999999,-1212.3599999999999,-4928.6700000000001,886.88400000000001
173395.0,12590.1,5072.21,-683.053,-5529.5299999999997,-1178.9200000000001,-4762.3100000000004,773.99699999999996
173396.0,12225.299999999999,4850.7600000000002,-581.33399999999995,-5529.4799999999996,-1146.3599999999999,-4591.79,680.97000000000003
173397.0,11877.700000000001,4538.9099999999999,-593.553,-5627.9899999999998,-1115.1099999999999,-4425.96,593.08399999999995
173398.0,11541.5,4321.0699999999997,-540.16300000000001,-5633.5900000000001,-1087.9000000000001,-4263.8599999999997,509.64800000000002
173399.0,11222.0,4036.7600000000002,-582.851,-5717.3699999999999,-1062.4300000000001,-4105.1300000000001,434.44600000000003
173400.0,10909.0,3858.4899999999998,-541.45100000000002,-5703.7399999999998,-1031.02,-3945.1799999999998,365.75700000000001
173401.0,10586.799999999999,3629.4899999999998,-551.07100000000003,-5721.2600000000002,-987.46199999999999,-3787.6500000000001,312.73700000000002
173402.0,10287.4,3478.5599999999999,-473.93599999999998,-5656.1999999999998,-948.92600000000004,-3648.5700000000002,277.83999999999997
173403.0,10023.799999999999,3289.46,-448.77800000000002,-5659.3299999999999,-924.83600000000001,-3518.3000000000002,239.86699999999999
173404.0,9779.4599999999991,3130.7199999999998,-408.95800000000003,-5651.3500000000004,-898.49199999999996,-3392.6999999999998,196.976
173405.0,9545.2800000000007,2940.8299999999999,-401.17399999999998,-5673.6199999999999,-866.52700000000004,-3276.4099999999999,149.398
173406.0,9318.5900000000001,2806.8200000000002,-338.07400000000001,-5630.4200000000001,-834.19500000000005,-3171.5,100.187
173407.0,9102.6200000000008,2609.0999999999999,-340.358,-5644.0100000000002,-803.97400000000005,-3078.9499999999998,51.245800000000003
173408.0,8895.8099999999995,2481.2399999999998,-277.70299999999997,-5586.1199999999999,-773.44399999999996,-2994.6599999999999,4.2230699999999999
173409.0,8708.0599999999995,2317.1100000000001,-256.65499999999997,-5565.4099999999999,-741.57000000000005,-2927.23,-36.219499999999996
173410.0,8538.3600000000006,2154.6100000000001,-238.107,-5544.1599999999999,-715.49000000000001,-2873.8200000000002,-73.424300000000002
173411.0,8376.9599999999991,1996.6800000000001,-224.54400000000001,-5516.4899999999998,-699.84400000000005,-2826.75,-114.685
173412.0,8221.1700000000001,1854.6700000000001,-199.45400000000001,-5472.46,-694.12300000000005,-2781.6100000000001,-157.72200000000001
173413.0,8063.2200000000003,1676.6199999999999,-207.62200000000001,-5465.5200000000004,-694.11500000000001,-2729.0599999999999,-203.20400000000001
173414.0,7911.6700000000001,1534.51,-180.779,-5442.3699999999999,-685.72299999999996,-2668.1700000000001,-241.39599999999999
173415.0,7777.3699999999999,1409.9200000000001,-158.494,-5425.3999999999996,-668.60299999999995,-2611.6500000000001,-272.77600000000001
173416.0,7666.0299999999997,1318.54,-137.92099999999999,-5402.0100000000002,-648.61699999999996,-2566.3200000000002,-288.19200000000001
173417.0,7559.54,1217.46,-163.98699999999999,-5399.54,-630.06600000000003,-2525.0,-303.78100000000001
173418.0,7453.1099999999997,1240.3199999999999,-82.548299999999998,-5276.1800000000003,-602.46199999999999,-2487.2199999999998,-319.84699999999998
173419.0,7335.3500000000004,1153.48,-115.63500000000001,-5234.0900000000001,-577.43200000000002,-2458.8299999999999,-348.48399999999998
173420.0,7234.1400000000003,1212.8,23.250599999999999,-5047.9799999999996,-557.67600000000004,-2437.3499999999999,-371.005
173421.0,7141.79,1002.73,-95.857600000000005,-5137.54,-546.92499999999995,-2413.4499999999998,-395.50299999999999
173422.0,6967.1800000000003,1076.6800000000001,-3.5653299999999999,-4881.21,-559.26400000000001,-2363.4200000000001,-454.03899999999999
173423.0,61020.800000000003,73292.699999999997,11462.1,67208.699999999997,-2665.27,6024.8900000000003,6040.7299999999996
173424.0,58441.800000000003,69962.0,11480.799999999999,63425.699999999997,-2118.6100000000001,5573.6300000000001,8722.5
173425.0,55590.599999999999,63406.0,9228.25,56839.699999999997,-1911.6400000000001,4633.7700000000004,11435.9
173426.0,52793.300000000003,55382.099999999999,5493.29,49486.0,-1969.0799999999999,3016.8400000000001,13149.0
173427.0,49070.0,47928.0,2020.25,42316.599999999999,-1834.1099999999999,932.91700000000003,13086.5
173428.0,44045.099999999999,40709.800000000003,-793.17200000000003,34363.0,-1422.45,-1116.8499999999999,11983.200000000001
173429.0,38670.900000000001,34979.099999999999,-1464.8099999999999,27258.599999999999,-1050.25,-2850.9499999999998,10975.0
173430.0,33908.599999999999,30034.200000000001,-1504.02,21114.400000000001,-692.32899999999995,-4149.4300000000003,10063.1
173431.0,30016.299999999999,25597.900000000001,-1769.1700000000001,16048.4,-352.72800000000001,-5100.3900000000003,9014.0
173432.0,26551.400000000001,21424.299999999999,-2058.04,11277.5,-281.14800000000002,-5881.8999999999996,7849.4300000000003
173433.0,23696.799999999999,18252.400000000001,-1671.53,7520.6700000000001,-429.76400000000001,-6508.0900000000001,6723.2200000000003
173434.0,21612.299999999999,15625.299999999999,-1476.0999999999999,4549.3199999999997,-583.86300000000006,-6927.1300000000001,5668.4300000000003
173435.0,20170.799999999999,13314.9,-1504.26,2088.4499999999998,-731.12099999999998,-7248.29,4773.9300000000003
173436.0,19061.400000000001,11374.700000000001,-1537.6700000000001,94.430300000000003,-890.03099999999995,-7380.4499999999998,4050.9299999999998
173437.0,18182.200000000001,9827.9799999999996,-1521.0599999999999,-1481.5799999999999,-1016.4400000000001,-7394.2399999999998,3421.1399999999999
173438.0,17396.200000000001,8722.6499999999996,-1343.78,-2467.29,-1143.8299999999999,-7314.5600000000004,2845.3899999999999
173439.0,16620.400000000001,8073.8299999999999,-1020.13,-2927.0799999999999,-1218.1900000000001,-7091.5,2397.1399999999999
173440.0,16007.9,7112.2200000000003,-1154.1300000000001,-3710.0,-1237.05,-6899.9300000000003,2068.96
173441.0,15432.299999999999,6472.7799999999997,-1081.5999999999999,-4159.4799999999996,-1261.04,-6686.4499999999998,1776.3599999999999
173442.0,14884.0,5967.9300000000003,-1000.24,-4453.6400000000003,-1257.8399999999999,-6456.3199999999997,1548.04
173443.0,14368.9,5561.5900000000001,-896.70500000000004,-4640.9099999999999,-1243.6400000000001,-6226.5200000000004,1367.26
173444.0,13864.799999999999,5047.2799999999997,-965.75999999999999,-4937.3699999999999,-1210.1800000000001,-5986.1300000000001,1228.45
173445.0,13413.6,4834.29,-768.13599999999997,-4948.0,-1158.3299999999999,-5771.5200000000004,1109.45
173446.0,13003.6,4511.7399999999998,-715.88099999999997,-5082.29,-1107.1700000000001,-5573.2399999999998,1002.21
173447.0,12635.6,4202.3500000000004,-675.18799999999999,-5210.2399999999998,-1064.1900000000001,-5396.4200000000001,898.30100000000004
173448.0,12287.0,3876.9899999999998,-696.21799999999996,-5343.6999999999998,-1039.8900000000001,-5230.1599999999999,794.78399999999999
173449.0,11942.5,3620.9099999999999,-692.82399999999996,-5411.3999999999996,-1018.16,-5057.6099999999997,718.37300000000005
173450.0,11625.799999999999,3462.9099999999999,-607.78700000000003,-5402.7399999999998,-996.46100000000001,-4894.0500000000002,643.79700000000003
173451.0,11323.6,3270.3699999999999,-581.91200000000003,-5438.46,-977.08199999999999,-4734.7600000000002,569.16600000000005
173452.0,11020.299999999999,3166.2600000000002,-487.37799999999999,-5381.25,-951.71699999999998,-4575.4899999999998,498.221
173453.0,10720.700000000001,2979.0500000000002,-484.43400000000003,-5393.6199999999999,-919.23900000000003,-4423.75,443.98700000000002
173454.0,10449.5,2845.8699999999999,-428.03899999999999,-5361.1899999999996,-891.42100000000005,-4286.1400000000003,403.77999999999997
173455.0,10198.4,2669.3200000000002,-422.66000000000003,-5393.29,-868.73500000000001,-4152.1800000000003,358.02199999999999
173456.0,9950.1499999999996,2525.6199999999999,-395.43099999999998,-5391.54,-841.48099999999999,-4021.1700000000001,307.89800000000002
173457.0,9711.4300000000003,2361.27,-390.27300000000002,-5409.6300000000001,-808.35799999999995,-3897.1500000000001,266.005
173458.0,9492.0699999999997,2230.96,-353.11399999999998,-5398.4499999999998,-776.798,-3784.5700000000002,223.37799999999999
173459.0,9289.0499999999993,2064.6599999999999,-362.02300000000002,-5427.46,-748.75199999999995,-3681.7399999999998,181.85499999999999
173460.0,9105.8400000000001,1947.5599999999999,-326.51400000000001,-5412.7200000000003,-724.351,-3590.4400000000001,142.95500000000001
173461.0,8945.7099999999991,1779.28,-347.55000000000001,-5461.5100000000002,-701.77700000000004,-3509.98,109.187
173462.0,8802.0699999999997,1648.05,-342.34500000000003,-5483.6099999999997,-679.50300000000004,-3437.3699999999999,75.615200000000002
173463.0,8673.9500000000007,1559.3900000000001,-306.79000000000002,-5466.9099999999999,-660.78700000000003,-3375.5599999999999,41.532200000000003
173464.0,8567.3700000000008,1469.02,-278.33999999999997,-5463.0,-647.66899999999998,-3324.0500000000002,6.0974199999999996
173465.0,8494.1299999999992,1389.1099999999999,-237.40799999999999,-5464.2600000000002,-640.13199999999995,-3288.8499999999999,-37.176000000000002
173466.0,8448.8600000000006,1259.4400000000001,-242.60499999999999,-5520.8800000000001,-641.49699999999996,-3270.2399999999998,-83.323300000000003
173467.0,8405.0100000000002,1203.1800000000001,-174.44999999999999,-5506.2799999999997,-649.17999999999995,-3248.3000000000002,-134.06299999999999
173468.0,8331.5200000000004,1119.49,-145.38900000000001,-5503.4700000000003,-650.18100000000004,-3211.79,-193.995
173469.0,8211.5900000000001,1101.4400000000001,-64.951099999999997,-5401.1300000000001,-634.73599999999999,-3160.9899999999998,-249.40299999999999
173470.0,8044.3500000000004,980.34199999999998,-98.343299999999999,-5357.6400000000003,-610.86199999999997,-3100.6199999999999,-290.72300000000001
173471.0,7852.46,986.01099999999997,-4.0853000000000002,-5168.2799999999997,-585.84199999999998,-3031.3899999999999,-316.89999999999998
173472.0,7649.2399999999998,834.65099999999995,-76.866200000000006,-5124.8299999999999,-569.55100000000004,-2958.6700000000001,-347.62
173473.0,7474.6400000000003,818.64099999999996,-4.4391999999999996,-4972.5799999999999,-553.22900000000004,-2891.23,-376.51799999999997
173474.0,7307.7700000000004,617.39800000000002,-111.285,-5014.2600000000002,-534.83299999999997,-2824.25,-397.18299999999999
173475.0,7051.8900000000003,650.85500000000002,-46.590899999999998,-4758.9399999999996,-536.09100000000001,-2728.6300000000001,-428.73399999999998
173476.0,55355.300000000003,66983.300000000003,10865.6,61444.099999999999,-1518.75,3768.0300000000002,6968.1000000000004
173477.0,52533.099999999999,63432.599999999999,10917.0,57619.099999999999,-1065.8800000000001,3135.3899999999999,8952.5599999999995
173478.0,49362.099999999999,57446.5,9431.5100000000002,51535.400000000001,-598.03499999999997,2008.9100000000001,11058.6
173479.0,46266.699999999997,50380.699999999997,6865.7200000000003,44766.199999999997,-335.57299999999998,617.18700000000001,12360.799999999999
173480.0,42488.400000000001,42588.0,3551.4400000000001,37242.5,-349.517,-1041.5899999999999,12354.200000000001
173481.0,38099.0,36265.0,1804.6700000000001,30736.5,-279.25799999999998,-2856.1300000000001,11536.4
173482.0,33613.400000000001,30460.299999999999,643.50300000000004,24156.700000000001,57.955599999999997,-4458.7299999999996,10478.4
173483.0,29985.799999999999,25284.200000000001,-514.90499999999997,18084.200000000001,373.36399999999998,-5573.8100000000004,9554.2000000000007
173484.0,27020.099999999999,21009.200000000001,-1688.99,13248.700000000001,318.81799999999998,-6390.6099999999997,8326.2700000000004
173485.0,24123.299999999999,17477.0,-1987.49,9005.6000000000004,36.414299999999997,-7157.4899999999998,6892.1000000000004
173486.0,21927.900000000001,14733.9,-1555.4300000000001,5574.7399999999998,-222.51900000000001,-7695.4300000000003,5859.1300000000001
173487.0,20328.5,12758.0,-1144.0999999999999,3334.3099999999999,-433.79000000000002,-7929.5900000000001,4932.29
173488.0,19223.5,10585.6,-1387.3399999999999,1142.1300000000001,-594.49400000000003,-8114.5600000000004,4142.4399999999996
173489.0,18338.099999999999,9369.1700000000001,-986.26900000000001,-90.283600000000007,-765.90999999999997,-8129.6099999999997,3535.2399999999998
173490.0,17559.900000000001,8177.79,-911.46100000000001,-1281.1600000000001,-892.16300000000001,-8019.6000000000004,2994.96
173491.0,16905.599999999999,7173.21,-935.01900000000001,-2181.9899999999998,-1007.88,-7877.6300000000001,2528.0100000000002
173492.0,16236.5,6315.8900000000003,-1038.53,-2914.77,-1089.78,-7621.8699999999999,2189.0500000000002
173493.0,15660.200000000001,5728.4099999999999,-945.22900000000004,-3377.0300000000002,-1101.77,-7392.1300000000001,1913.8599999999999
173494.0,15127.9,5233.0,-874.65499999999997,-3738.8299999999999,-1109.1800000000001,-7156.2299999999996,1686.0599999999999
173495.0,14615.9,4744.0900000000001,-885.01099999999997,-4082.0,-1100.0,-6911.1599999999999,1505.49
173496.0,14133.1,4278.0500000000002,-922.81600000000003,-4392.1099999999997,-1076.0699999999999,-6673.6499999999996,1357.53
173497.0,13674.9,4056.21,-770.36199999999997,-4455.4499999999998,-1050.8599999999999,-6440.6099999999997,1236.21
173498.0,13244.5,3637.6900000000001,-857.58500000000004,-4720.75,-1020.92,-6215.9099999999999,1137.0699999999999
173499.0,12863.799999999999,3387.9499999999998,-791.69500000000005,-4835.1700000000001,-983.96299999999997,-6015.3699999999999,1048.74
173500.0,12520.5,3147.3000000000002,-728.89300000000003,-4950.1599999999999,-951.33399999999995,-5835.71,944.25199999999995
173501.0,12183.799999999999,2942.3200000000002,-674.67499999999995,-5002.5900000000001,-928.53899999999999,-5665.0699999999997,839.03099999999995
173502.0,11854.200000000001,2815.7600000000002,-583.202,-4975.6300000000001,-909.54899999999998,-5493.0600000000004,762.20100000000002
173503.0,11544.1,2591.0,-603.00699999999995,-5063.9399999999996,-887.24599999999998,-5326.8199999999997,690.48500000000001
173504.0,11248.200000000001,2439.02,-562.68799999999999,-5079.2600000000002,-859.52999999999997,-5169.54,623.49000000000001
173505.0,10967.1,2215.4400000000001,-605.13300000000004,-5162.9700000000003,-833.12400000000002,-5021.6000000000004,565.94399999999996
173506.0,10702.299999999999,2102.2199999999998,-547.67999999999995,-5142.9099999999999,-809.79499999999996,-4880.4099999999999,516.63900000000001
173507.0,10451.9,1946.25,-536.35000000000002,-5173.8599999999997,-786.53700000000003,-4744.9799999999996,468.541
173508.0,10212.1,1837.01,-480.55399999999997,-5156.3999999999996,-765.12099999999998,-4616.3500000000004,419.327
173509.0,9979.5900000000001,1697.6199999999999,-464.85399999999998,-5170.0699999999997,-745.01700000000005,-4491.0699999999997,377.51900000000001
173510.0,9765.1100000000006,1603.8199999999999,-408.02300000000002,-5147.9499999999998,-725.13,-4373.5500000000002,339.45699999999999
173511.0,9562.3299999999999,1471.53,-397.255,-5167.9300000000003,-708.35699999999997,-4262.2700000000004,297.19999999999999
173512.0,9370.2999999999993,1407.9200000000001,-331.55700000000002,-5123.3599999999997,-690.95299999999997,-4157.1899999999996,258.87299999999999
173513.0,9204.5900000000001,1297.8099999999999,-320.83499999999998,-5143.3000000000002,-669.76199999999994,-4063.9000000000001,224.20599999999999
173514.0,9064.6299999999992,1216.8,-277.673,-5141.3800000000001,-647.16899999999998,-3985.0100000000002,193.65299999999999
173515.0,8940.3400000000001,1140.1400000000001,-233.548,-5141.6599999999999,-629.99400000000003,-3913.23,163.226
173516.0,8833.8999999999996,1053.2,-214.09,-5164.9399999999996,-615.24800000000005,-3849.6500000000001,131.268
173517.0,8758.1200000000008,970.04700000000003,-197.422,-5200.5100000000002,-602.90599999999995,-3801.4499999999998,93.603899999999996
173518.0,8711.6700000000001,889.07100000000003,-180.65899999999999,-5256.46,-590.08000000000004,-3764.0900000000001,43.903199999999998
173519.0,8680.0699999999997,787.42700000000002,-188.19,-5337.5900000000001,-572.61099999999999,-3735.7399999999998,-16.5854
173520.0,8640.7000000000007,653.59199999999998,-233.35300000000001,-5436.1000000000004,-553.86300000000006,-3708.2199999999998,-79.295199999999994
173521.0,8561.1499999999996,562.81200000000001,-240.77099999999999,-5453.6999999999998,-540.86900000000003,-3667.0300000000002,-147.08500000000001
173522.0,8424.4799999999996,467.32799999999997,-252.08199999999999,-5426.71,-534.77999999999997,-3603.8499999999999,-211.13399999999999
173523.0,8238.2999999999993,423.899,-211.90199999999999,-5315.9399999999996,-532.96000000000004,-3517.2800000000002,-260.15699999999998
173524.0,8035.9899999999998,398.15300000000002,-151.977,-5181.8500000000004,-531.92899999999997,-3420.2399999999998,-297.137
173525.0,7820.6199999999999,344.24099999999999,-131.28899999999999,-5070.3100000000004,-530.96699999999998,-3317.29,-333.791
173526.0,7613.79,328.38799999999998,-64.623900000000006,-4920.6499999999996,-523.72199999999998,-3219.3800000000001,-369.55500000000001
173527.0,7418.8800000000001,241.36600000000001,-63.350299999999997,-4853.1000000000004,-507.78800000000001,-3126.5100000000002,-386.00700000000001
173528.0,7154.6800000000003,193.09399999999999,-96.216700000000003,-4698.3299999999999,-511.327,-3017.29,-407.61000000000001
173529.0,50719.5,61489.699999999997,10340.0,56955.099999999999,112.483,1871.78,7234.3900000000003
173530.0,47797.099999999999,58106.0,10546.9,53411.5,780.64800000000002,1172.9000000000001,8523.7399999999998
173531.0,44378.800000000003,52208.599999999999,9174.7999999999993,47200.099999999999,1331.99,114.614,10044.1
173532.0,41365.5,46205.400000000001,7572.0900000000001,41304.400000000001,1530.0799999999999,-1133.6300000000001,11150.700000000001
173533.0,37727.300000000003,39408.900000000001,5217.4799999999996,34605.599999999999,1493.29,-2560.4899999999998,11092.0
173534.0,34024.400000000001,32737.5,2857.5700000000002,27662.900000000001,1431.98,-4078.4299999999998,10562.1
173535.0,31007.700000000001,27242.5,1034.27,21600.700000000001,1393.55,-5475.7299999999996,9914.0200000000004
173536.0,28366.200000000001,22036.900000000001,-1169.79,15825.9,1182.9400000000001,-6473.8400000000001,8976.2999999999993
173537.0,25453.900000000001,17803.299999999999,-2293.23,11283.700000000001,655.80200000000002,-7263.4700000000003,7593.54
173538.0,22763.099999999999,14097.700000000001,-2412.4899999999998,7249.1400000000003,202.34,-8040.3599999999997,6263.04
173539.0,20973.200000000001,11889.9,-1648.5899999999999,4566.0100000000002,-27.192799999999998,-8475.3500000000004,5372.8800000000001
173540.0,19711.099999999999,9905.4599999999991,-1594.98,2284.5900000000001,-218.428,-8643.0499999999993,4530.6800000000003
173541.0,18781.5,8272.5400000000009,-1535.2,633.33100000000002,-388.84699999999998,-8753.9500000000007,3775.79
173542.0,17999.599999999999,6747.75,-1656.3699999999999,-837.18499999999995,-567.39999999999998,-8711.9500000000007,3209.9000000000001
173543.0,17255.700000000001,5827.6599999999999,-1514.52,-1726.4300000000001,-712.59199999999998,-8530.2600000000002,2734.4400000000001
173544.0,16611.400000000001,5068.4499999999998,-1456.5699999999999,-2413.6599999999999,-809.12199999999996,-8321.4200000000001,2345.2399999999998
173545.0,16022.700000000001,4737.1099999999997,-1160.6600000000001,-2701.02,-879.74400000000003,-8069.8599999999997,2065.3499999999999
173546.0,15475.5,4123.1199999999999,-1229.26,-3274.3200000000002,-910.322,-7812.6000000000004,1836.6300000000001
173547.0,14965.0,3746.9000000000001,-1143.3900000000001,-3585.04,-912.82799999999997,-7560.4099999999999,1648.72
173548.0,14492.799999999999,3402.54,-1085.51,-3847.5799999999999,-903.27099999999996,-7318.4700000000003,1499.6500000000001
173549.0,14054.0,3221.9200000000001,-908.06700000000001,-3947.9699999999998,-892.36199999999997,-7085.6800000000003,1372.6900000000001
173550.0,13630.799999999999,2826.48,-983.16300000000001,-4246.6599999999999,-881.66099999999994,-6859.4099999999999,1253.9000000000001
173551.0,13217.0,2735.4400000000001,-794.56100000000004,-4233.2799999999997,-862.31200000000001,-6633.5500000000002,1157.9000000000001
173552.0,12841.0,2472.0100000000002,-787.48500000000001,-4405.46,-829.32399999999996,-6424.5799999999999,1079.3
173553.0,12509.5,2257.3099999999999,-730.61699999999996,-4536.8500000000004,-799.90599999999995,-6241.2200000000003,986.83100000000002
173554.0,12187.1,2019.9400000000001,-738.74000000000001,-4670.75,-783.947,-6066.8199999999997,883.90999999999997
173555.0,11869.799999999999,1851.8,-716.798,-4723.8199999999997,-765.92999999999995,-5894.7799999999997,804.29100000000005
173556.0,11573.799999999999,1732.97,-649.52599999999995,-4729.1899999999996,-747.36900000000003,-5733.5200000000004,734.50900000000001
173557.0,11291.4,1591.0999999999999,-615.78599999999994,-4756.8400000000001,-731.57299999999998,-5579.1099999999997,671.34900000000005
173558.0,11021.799999999999,1521.5999999999999,-523.54300000000001,-4717.6199999999999,-715.96799999999996,-5430.0900000000001,614.71600000000001
173559.0,10768.299999999999,1387.0,-504.00900000000001,-4747.0299999999997,-698.94899999999996,-5289.3000000000002,565.01800000000003
173560.0,10534.1,1282.8800000000001,-455.21300000000002,-4750.75,-684.73500000000001,-5158.1000000000004,517.61500000000001
173561.0,10310.6,1141.6800000000001,-456.04300000000001,-4795.3199999999997,-674.22400000000005,-5032.1199999999999,470.05500000000001
173562.0,10097.700000000001,1056.76,-412.113,-4788.7299999999996,-661.77999999999997,-4910.9799999999996,430.62599999999998
173563.0,9898.3400000000001,939.60699999999997,-401.43299999999999,-4820.9700000000003,-650.68399999999997,-4795.6300000000001,389.57299999999998
173564.0,9707.7800000000007,859.22500000000002,-364.33100000000002,-4819.3299999999999,-640.67999999999995,-4685.0299999999997,349.28199999999998
173565.0,9527.7099999999991,750.87900000000002,-366.61799999999999,-4856.5200000000004,-627.94100000000003,-4578.0500000000002,312.726
173566.0,9364.1000000000004,664.50599999999997,-345.93700000000001,-4879.9499999999998,-608.08299999999997,-4478.9399999999996,279.60599999999999
173567.0,9228.6200000000008,556.54899999999998,-339.38400000000001,-4933.6800000000003,-586.94399999999996,-4394.21,245.08699999999999
173568.0,9111.9699999999993,434.327,-348.95299999999997,-5009.8999999999996,-571.58199999999999,-4317.8699999999999,205.815
173569.0,8997.0900000000001,373.32400000000001,-307.755,-5031.0900000000001,-557.99199999999996,-4240.5500000000002,159.33500000000001
173570.0,8882.8999999999996,297.49599999999998,-285.80000000000001,-5065.2399999999998,-539.86800000000005,-4164.4799999999996,102.723
173571.0,8772.8700000000008,198.18299999999999,-278.50299999999999,-5113.6700000000001,-514.59000000000003,-4092.7600000000002,43.880699999999997
173572.0,8655.9300000000003,83.756500000000003,-283.36900000000003,-5161.9099999999999,-484.89699999999999,-4020.4899999999998,-16.811199999999999
173573.0,8525.3199999999997,28.666699999999999,-228.625,-5123.7799999999997,-453.65300000000002,-3948.0500000000002,-68.4559
173574.0,8387.2900000000009,-54.385199999999998,-209.28100000000001,-5099.1599999999999,-434.55799999999999,-3875.0599999999999,-114.48999999999999
173575.0,8253.0400000000009,-71.647099999999995,-136.965,-5007.5699999999997,-429.63400000000001,-3805.48,-151.31800000000001
173576.0,8123.8100000000004,-185.57599999999999,-176.232,-5023.3100000000004,-436.971,-3736.1300000000001,-181.28200000000001
173577.0,7997.0500000000002,-170.96000000000001,-98.173900000000003,-4924.4899999999998,-448.084,-3663.73,-211.643
173578.0,7858.0200000000004,-299.60700000000003,-181.13499999999999,-4966.8999999999996,-459.03500000000003,-3586.3800000000001,-244.51599999999999
173579.0,7715.1899999999996,-254.67500000000001,-95.056200000000004,-4830.3900000000003,-472.06599999999997,-3508.0100000000002,-285.30500000000001
173580.0,7570.1499999999996,-368.83100000000002,-163.05199999999999,-4858.0699999999997,-469.57999999999998,-3427.3699999999999,-308.56400000000002
173581.0,7323.5799999999999,-322.66399999999999,-150.678,-4664.9200000000001,-476.67099999999999,-3315.0999999999999,-342.49799999999999
173582.0,55790.300000000003,22144.900000000001,-9720.1000000000004,50211.5,-6720.4099999999999,-9301.7199999999993,-2584.6500000000001
173583.0,62386.400000000001,29112.400000000001,-15956.6,50561.699999999997,-8046.5699999999997,-8049.3299999999999,-3892.8000000000002
173584.0,66945.600000000006,33183.199999999997,-22429.200000000001,48381.300000000003,-6770.8599999999997,-6289.4700000000003,-4342.6099999999997
173585.0,68167.800000000003,34582.199999999997,-25740.5,45938.400000000001,-5615.1400000000003,-4527.75,-3555.7199999999998
173586.0,68336.100000000006,34080.800000000003,-27992.200000000001,42931.900000000001,-6999.54,-3285.8200000000002,-1791.74
173587.0,70805.199999999997,35896.900000000001,-29952.200000000001,41163.300000000003,-9629.7099999999991,-2853.9899999999998,192.83199999999999
173588.0,72733.100000000006,36372.199999999997,-32638.0,38176.400000000001,-10824.0,-3584.6999999999998,1817.9300000000001
173589.0,67802.399999999994,30567.799999999999,-32654.799999999999,33536.699999999997,-9347.0,-6196.1999999999998,2959.5300000000002
173590.0,55075.400000000001,6709.7399999999998,-35076.599999999999,19223.0,-3549.6199999999999,-13030.5,4492.4200000000001
173591.0,57304.900000000001,-41428.699999999997,-43157.199999999997,-9791.1800000000003,2028.99,-26236.0,7021.6999999999998
173592.0,88542.899999999994,-95726.600000000006,-56418.800000000003,-45097.300000000003,-6358.6199999999999,-42360.300000000003,8506.1499999999996
173593.0,122449.0,-114539.0,-62404.699999999997,-60149.199999999997,-33763.900000000001,-53586.0,6291.8400000000001
173594.0,179576.0,-72473.800000000003,-56521.099999999999,-35787.099999999999,-88401.800000000003,-50795.599999999999,-3966.5999999999999
173595.0,332581.0,71462.800000000003,-33338.300000000003,58431.0,-180908.0,-21511.0,-20421.400000000001
173596.0,52254.699999999997,24858.299999999999,-8840.0699999999997,45997.0,-5630.6800000000003,-10128.1,-3313.3400000000001
173597.0,58419.599999999999,30241.599999999999,-15158.299999999999,44999.099999999999,-7066.9200000000001,-8787.6399999999994,-5241.96
173598.0,62181.800000000003,33162.199999999997,-20570.799999999999,42556.900000000001,-6433.0,-6925.4399999999996,-6277.79
173599.0,63341.400000000001,34365.800000000003,-23615.599999999999,39838.800000000003,-6422.6800000000003,-4916.9799999999996,-5964.5799999999999
173600.0,64789.5,34692.300000000003,-26615.099999999999,36210.199999999997,-8891.2999999999993,-3373.25,-4913.2600000000002
173601.0,69372.600000000006,36937.599999999999,-30633.400000000001,33090.5,-11941.299999999999,-2668.3600000000001,-3773.79
173602.0,73092.600000000006,38319.199999999997,-34659.800000000003,29957.700000000001,-12992.0,-3199.4499999999998,-2569.5999999999999
173603.0,69839.399999999994,34875.300000000003,-34852.300000000003,26419.299999999999,-11750.299999999999,-6111.8800000000001,-1574.8099999999999
173604.0,58250.199999999997,17051.599999999999,-36293.5,14296.700000000001,-5655.4399999999996,-14009.9,-810.76499999999999
173605.0,56853.099999999999,-25365.5,-42088.900000000001,-13340.299999999999,1925.27,-29408.200000000001,-642.62199999999996
173606.0,89389.5,-79396.300000000003,-55579.400000000001,-48792.800000000003,-5395.1700000000001,-48651.099999999999,-3024.5700000000002
173607.0,130115.0,-98987.399999999994,-63606.099999999999,-58548.199999999997,-31281.900000000001,-64060.699999999997,-8691.8899999999994
173608.0,193913.0,-63726.300000000003,-61773.199999999997,-26441.799999999999,-82575.899999999994,-68893.100000000006,-22991.799999999999
173609.0,355235.0,77698.800000000003,-32786.5,91402.300000000003,-178659.0,-51729.699999999997,-53223.400000000001
173610.0,48194.400000000001,29542.900000000001,-5883.96,44255.099999999999,-4037.3299999999999,-9100.4099999999999,-3298.0300000000002
173611.0,53662.5,33662.599999999999,-11232.299999999999,42659.699999999997,-5828.21,-7760.0699999999997,-5676.8800000000001
173612.0,56904.699999999997,34912.599999999999,-15882.299999999999,39735.800000000003,-6354.3500000000004,-6047.2799999999997,-7278.2700000000004
173613.0,58661.300000000003,36004.599999999999,-18413.5,37389.0,-7641.9099999999999,-4160.1300000000001,-7647.4799999999996
173614.0,62366.300000000003,36796.400000000001,-22738.799999999999,33545.699999999997,-10827.0,-2556.3200000000002,-7229.7700000000004
173615.0,69299.300000000003,40349.800000000003,-28124.400000000001,30257.599999999999,-13719.5,-1741.8,-6560.3100000000004
173616.0,74792.800000000003,42591.400000000001,-33864.900000000001,26209.799999999999,-14236.5,-2172.4299999999998,-6064.1599999999999
173617.0,74078.300000000003,41636.199999999997,-35135.900000000001,22742.5,-12831.9,-5176.5900000000001,-6132.3800000000001
173618.0,64670.5,29602.0,-35958.800000000003,12185.5,-6663.3999999999996,-12766.700000000001,-5784.9799999999996
173619.0,57556.300000000003,-6346.6300000000001,-39422.900000000001,-16209.9,2587.25,-28054.599999999999,-4703.8900000000003
173620.0,87306.800000000003,-59169.099999999999,-52104.699999999997,-59868.599999999999,-1202.4000000000001,-49562.0,-8034.0299999999997
173621.0,131932.0,-83826.5,-60728.699999999997,-81659.5,-21448.900000000001,-69535.800000000003,-18546.799999999999
173622.0,191779.0,-60107.099999999999,-62325.900000000001,-63260.5,-64961.199999999997,-80694.899999999994,-39056.800000000003
173623.0,334367.0,66637.0,-35498.099999999999,41426.900000000001,-150309.0,-74043.399999999994,-79756.0
173624.0,45662.699999999997,34787.5,-2802.4099999999999,44615.599999999999,-2297.6700000000001,-7545.7299999999996,-2543.1199999999999
173625.0,50091.900000000001,38419.599999999999,-6429.3199999999997,43497.099999999999,-4461.0799999999999,-6099.5600000000004,-4931.1099999999997
173626.0,53143.099999999999,38917.699999999997,-10167.9,40921.5,-6284.1599999999999,-4411.3000000000002,-6722.4099999999999
173627.0,56492.900000000001,39551.300000000003,-13304.4,38667.0,-8780.5400000000009,-2874.02,-7907.9700000000003
173628.0,63244.400000000001,40242.300000000003,-19827.299999999999,34466.5,-12278.4,-1797.8199999999999,-9002.0100000000002
173629.0,72498.100000000006,44016.199999999997,-27420.200000000001,30581.099999999999,-14392.700000000001,-1167.45,-10108.5
173630.0,79030.300000000003,46696.599999999999,-34304.400000000001,25522.099999999999,-13856.200000000001,-1351.77,-11104.799999999999
173631.0,79437.699999999997,48011.599999999999,-34999.300000000003,21823.299999999999,-12020.5,-3530.6599999999999,-12065.799999999999
173632.0,71098.300000000003,40653.900000000001,-33440.800000000003,12984.200000000001,-7397.6300000000001,-9453.8099999999995,-11792.799999999999
173633.0,58738.599999999999,14227.200000000001,-33263.0,-11291.299999999999,393.60300000000001,-22346.400000000001,-9256.25
173634.0,78555.199999999997,-34511.800000000003,-46103.199999999997,-60936.5,1452.25,-42135.800000000003,-10198.0
173635.0,123469.0,-70789.5,-56117.699999999997,-106204.0,-10409.1,-62424.5,-20331.900000000001
173636.0,178224.0,-67532.300000000003,-61168.0,-122921.0,-44178.599999999999,-75115.600000000006,-42896.900000000001
173637.0,285711.0,33477.599999999999,-38315.800000000003,-59181.599999999999,-111254.0,-71844.300000000003,-85490.100000000006
173638.0,45666.900000000001,39307.099999999999,-970.66300000000001,46444.0,-1221.78,-6211.1000000000004,-1233.6300000000001
173639.0,49475.199999999997,43937.0,-2248.9400000000001,47302.300000000003,-3503.1999999999998,-4920.75,-3579.77
173640.0,52723.900000000001,44686.400000000001,-5281.6800000000003,45583.400000000001,-6025.96,-3403.6900000000001,-5588.1599999999999
173641.0,57457.5,46280.0,-8343.6200000000008,44223.400000000001,-9071.1299999999992,-1926.9400000000001,-7477.5
173642.0,65266.699999999997,46846.900000000001,-15883.1,39536.5,-12246.299999999999,-808.702,-9625.3999999999996
173643.0,74614.5,50000.099999999999,-23905.599999999999,35222.900000000001,-13661.4,211.88499999999999,-11818.0
173644.0,81112.899999999994,52169.199999999997,-30848.5,30016.900000000001,-12869.4,756.70000000000005,-13380.299999999999
173645.0,81273.800000000003,54659.300000000003,-30263.0,27186.799999999999,-11186.700000000001,-98.809899999999999,-14100.5
173646.0,72830.100000000006,51240.699999999997,-25738.799999999999,20570.200000000001,-8084.3500000000004,-3791.52,-13656.5
173647.0,56222.099999999999,34335.5,-20376.799999999999,1682.3900000000001,-1443.6800000000001,-12667.799999999999,-11548.6
173648.0,60007.699999999997,-8927.8299999999999,-29578.700000000001,-47687.5,4506.0,-26109.900000000001,-11052.6
173649.0,99498.399999999994,-58190.900000000001,-41363.699999999997,-112149.0,-698.28700000000003,-40332.0,-17472.900000000001
173650.0,153817.0,-78081.399999999994,-50371.599999999999,-164560.0,-27430.099999999999,-48428.599999999999,-35230.900000000001
173651.0,236914.0,-10940.700000000001,-35887.099999999999,-152448.0,-79136.899999999994,-43629.599999999999,-69554.100000000006
173652.0,46985.099999999999,42705.5,-352.91399999999999,48539.199999999997,-1078.5599999999999,-4626.3800000000001,465.51600000000002
173653.0,50534.900000000001,47638.5,-785.0,50220.400000000001,-3071.1599999999999,-3653.48,-1722.9000000000001
173654.0,53255.0,49656.300000000003,-2129.1799999999998,49549.800000000003,-5432.2299999999996,-2461.5300000000002,-4209.3500000000004
173655.0,58120.900000000001,52367.800000000003,-4367.4799999999996,48561.0,-8504.7000000000007,-966.10400000000004,-6852.0600000000004
173656.0,65747.600000000006,53600.199999999997,-11154.200000000001,44019.099999999999,-11411.700000000001,391.49099999999999,-9435.6499999999996
173657.0,73967.800000000003,56330.099999999999,-18163.700000000001,39840.699999999997,-12425.799999999999,1581.4000000000001,-11656.9
173658.0,80255.300000000003,58541.400000000001,-24156.099999999999,35855.300000000003,-11958.4,2402.75,-13129.4
173659.0,81069.5,62215.699999999997,-22672.299999999999,35391.099999999999,-10746.6,2252.6799999999998,-13688.5
173660.0,73332.100000000006,60496.0,-17454.799999999999,30916.599999999999,-7944.96,439.39499999999998,-13442.700000000001
173661.0,52762.599999999999,50158.300000000003,-5374.0299999999997,18425.599999999999,-930.226,-3513.6700000000001,-11770.700000000001
173662.0,41664.699999999997,10780.799999999999,-5612.0200000000004,-26178.400000000001,8264.3400000000001,-8365.2099999999991,-9870.4500000000007
173663.0,80307.100000000006,-43984.400000000001,-13580.0,-96762.0,7523.1099999999997,-12500.700000000001,-12859.0
173664.0,139734.0,-84938.600000000006,-28818.599999999999,-175539.0,-15228.6,-11724.700000000001,-25657.799999999999
173665.0,217426.0,-42623.699999999997,-19315.299999999999,-201861.0,-58506.800000000003,-1402.1500000000001,-49623.599999999999
173666.0,48947.199999999997,46019.5,-132.95699999999999,50673.900000000001,-1029.3499999999999,-2597.4400000000001,1400.04
173667.0,52978.599999999999,51270.400000000001,-358.56200000000001,53226.900000000001,-3011.7600000000002,-1741.8,-91.573300000000003
173668.0,55297.300000000003,53246.699999999997,-1264.1099999999999,52896.599999999999,-5395.8699999999999,-914.702,-2270.5799999999999
173669.0,59816.099999999999,57306.5,-1801.6500000000001,53481.199999999997,-8637.2900000000009,381.24799999999999,-4879.1899999999996
173670.0,67391.899999999994,59575.199999999997,-7370.8900000000003,50408.199999999997,-11752.0,1800.73,-7427.1800000000003
173671.0,74766.300000000003,62962.300000000003,-12970.700000000001,47487.199999999997,-12545.799999999999,2828.4299999999998,-9373.2999999999993
173672.0,80220.0,64987.800000000003,-18215.299999999999,43771.400000000001,-12106.799999999999,3336.29,-10870.799999999999
173673.0,80800.800000000003,67879.5,-16962.799999999999,43136.5,-11014.700000000001,3313.5700000000002,-11841.799999999999
173674.0,71509.300000000003,65024.300000000003,-10931.6,39839.099999999999,-7335.8100000000004,2916.8000000000002,-12055.1
173675.0,45481.400000000001,50850.5,3456.5300000000002,29408.599999999999,194.15799999999999,3251.3099999999999,-10754.9
173676.0,30652.299999999999,7491.0699999999997,9014.3299999999999,-10905.5,9605.3299999999999,6483.1700000000001,-7481.2399999999998
173677.0,81468.100000000006,-53843.099999999999,2923.0599999999999,-82888.899999999994,8971.8899999999994,13665.200000000001,-6337.25
173678.0,148011.0,-100521.0,-9518.4899999999998,-168168.0,-12089.1,25094.0,-13736.700000000001
173679.0,228497.0,-72437.399999999994,-1249.6099999999999,-213441.0,-55689.900000000001,42711.099999999999,-28558.200000000001
173680.0,51327.800000000003,50683.900000000001,1072.22,53652.400000000001,-784.99599999999998,-1186.73,1920.4200000000001
173681.0,56228.0,56325.5,926.22500000000002,57396.599999999999,-3098.8899999999999,106.72799999999999,1029.24
173682.0,59121.099999999999,58878.800000000003,630.76800000000003,58758.699999999997,-5947.9300000000003,970.39599999999996,-408.303
173683.0,63692.400000000001,61988.400000000001,-733.58500000000004,59243.400000000001,-9257.9300000000003,1873.45,-2559.0900000000001
173684.0,70983.600000000006,64780.599999999999,-5668.9399999999996,57237.900000000001,-12143.200000000001,2917.2800000000002,-5232.0200000000004
173685.0,77813.300000000003,67851.5,-11235.1,54171.900000000001,-12769.299999999999,3792.0999999999999,-7363.1300000000001
173686.0,81560.600000000006,71042.199999999997,-13696.299999999999,51704.400000000001,-12340.799999999999,4226.79,-8674.3799999999992
173687.0,79651.100000000006,72137.100000000006,-11641.9,49830.099999999999,-11144.4,4303.6800000000003,-9459.8600000000006
173688.0,64948.0,66102.899999999994,-2525.5900000000001,47207.400000000001,-6517.1300000000001,4690.6400000000003,-9213.8199999999997
173689.0,32032.799999999999,35519.0,7105.1499999999996,30483.400000000001,975.37400000000002,7476.1599999999999,-7437.3800000000001
173690.0,42700.5,-24919.700000000001,8022.6499999999996,-11440.299999999999,7851.21,16107.9,-3519.6500000000001
173691.0,103536.0,-101626.0,-6988.8299999999999,-82983.100000000006,958.52599999999995,32545.0,-3.10425
173692.0,170382.0,-143731.0,-13402.200000000001,-153867.0,-23417.299999999999,54696.599999999999,-283.77800000000002
173693.0,254810.0,-112558.0,-537.65999999999997,-195074.0,-76668.800000000003,78733.100000000006,-5659.0
173694.0,52586.300000000003,52467.699999999997,565.03300000000002,53430.199999999997,-875.85500000000002,-459.84300000000002,2423.0900000000001
173695.0,57716.099999999999,58758.400000000001,1048.72,57965.199999999997,-3324.96,1242.78,1641.51
173696.0,61325.699999999997,61592.400000000001,562.10699999999997,59881.699999999997,-6275.7799999999997,2506.5599999999999,451.81099999999998
173697.0,66362.0,65289.5,-592.31299999999999,61433.699999999997,-9311.2600000000002,3506.21,-1375.73
173698.0,73221.899999999994,68292.399999999994,-5014.54,60322.099999999999,-11637.200000000001,4375.1000000000004,-3855.6999999999998
173699.0,79803.100000000006,72292.5,-9030.6499999999996,58923.800000000003,-12541.6,5122.8699999999999,-6135.7299999999996
173700.0,82409.899999999994,75775.5,-9574.3700000000008,57647.599999999999,-12442.299999999999,5468.5100000000002,-7555.1300000000001
173701.0,77037.899999999994,76029.5,-4382.21,56638.300000000003,-11128.9,5468.2600000000002,-7974.8199999999997
173702.0,54938.199999999997,63503.0,7281.7600000000002,52739.0,-6280.2299999999996,5718.7299999999996,-6588.7700000000004
173703.0,22225.299999999999,12309.5,9993.4400000000005,26254.099999999999,941.69600000000003,8494.4300000000003,-3773.8699999999999
173704.0,71529.600000000006,-72919.5,-568.91800000000001,-23479.900000000001,4163.1800000000003,17912.599999999999,-34.873899999999999
173705.0,136396.0,-161216.0,-25200.599999999999,-84522.899999999994,-13090.299999999999,36956.800000000003,3734.6199999999999
173706.0,202523.0,-189869.0,-25131.099999999999,-115015.0,-50793.800000000003,64572.800000000003,10892.9
173707.0,298744.0,-134280.0,-11495.200000000001,-120280.0,-125455.0,95583.600000000006,18882.400000000001
173708.0,53401.800000000003,54532.400000000001,1415.8800000000001,54673.400000000001,-995.20500000000004,347.19499999999999,2552.9000000000001
173709.0,58817.699999999997,60211.400000000001,1182.22,58775.199999999997,-3468.3400000000001,2225.3600000000001,1510.4300000000001
173710.0,63027.099999999999,64126.0,1089.6800000000001,61402.400000000001,-6331.3199999999997,3770.9099999999999,253.44399999999999
173711.0,68517.899999999994,68031.699999999997,-479.31200000000001,62811.400000000001,-9074.25,5145.1999999999998,-1277.3299999999999
173712.0,74861.399999999994,71719.199999999997,-3675.4200000000001,62674.300000000003,-11209.1,6180.2700000000004,-3081.6199999999999
173713.0,80878.800000000003,74955.199999999997,-7363.0799999999999,61399.800000000003,-12704.1,6901.3299999999999,-4834.6599999999999
173714.0,82338.100000000006,78657.600000000006,-5867.5299999999997,61963.199999999997,-12923.799999999999,7039.8999999999996,-6263.7700000000004
173715.0,72885.100000000006,75263.899999999994,1013.46,60731.800000000003,-11504.0,6553.5900000000001,-6857.1700000000001
173716.0,43949.699999999997,53189.400000000001,12806.1,53370.400000000001,-6497.0500000000002,5677.8400000000001,-4833.1300000000001
173717.0,33967.0,-20085.799999999999,6257.3999999999996,15507.6,89.956100000000006,6572.7299999999996,-552.54700000000003
173718.0,102842.0,-122463.0,-12344.6,-37314.300000000003,-3116.02,12855.200000000001,4146.29
173719.0,167398.0,-207468.0,-40313.599999999999,-81568.300000000003,-31458.099999999999,26703.299999999999,7471.8999999999996
173720.0,233808.0,-207853.0,-34456.199999999997,-62697.599999999999,-85306.0,45909.199999999997,13472.799999999999
173721.0,366815.0,-104053.0,-22339.200000000001,6253.5100000000002,-188326.0,74361.699999999997,24037.700000000001
173722.0,54164.300000000003,56162.800000000003,1966.2,55564.300000000003,-780.00800000000004,873.20799999999997,2856.0300000000002
173723.0,60566.199999999997,62662.400000000001,1946.74,61262.900000000001,-3336.3299999999999,2843.0100000000002,1555.02
173724.0,65670.300000000003,66040.600000000006,621.07299999999998,63687.699999999997,-6261.3400000000001,4606.29,-12.4763
173725.0,71803.100000000006,71863.300000000003,380.161,67015.899999999994,-8925.6800000000003,6401.0200000000004,-1519.4400000000001
173726.0,77867.100000000006,75443.0,-2378.1999999999998,67062.0,-11268.200000000001,7790.9399999999996,-2949.96
173727.0,82984.699999999997,80032.699999999997,-3412.1500000000001,67785.199999999997,-13121.700000000001,8653.9400000000005,-4250.4700000000003
173728.0,82840.300000000003,80331.0,-3137.8200000000002,66442.199999999997,-13642.5,8525.4699999999993,-5336.6599999999999
173729.0,69712.800000000003,72007.600000000006,3699.73,63818.599999999999,-12199.6,6707.2299999999996,-5909.71
173730.0,37028.5,36996.900000000001,10915.299999999999,49135.400000000001,-7184.8299999999999,3166.0900000000001,-3741.1199999999999
173731.0,52215.099999999999,-48621.300000000003,184.523,5906.2700000000004,-2569.8000000000002,-205.62100000000001,2039.3499999999999
173732.0,126398.0,-157661.0,-25203.700000000001,-46240.599999999999,-14070.700000000001,92.563699999999997,7780.0299999999997
173733.0,189841.0,-220336.0,-47249.5,-64840.099999999999,-52798.0,6151.96,10636.700000000001
173734.0,258616.0,-186497.0,-44583.0,-16695.0,-117224.0,11512.799999999999,11336.700000000001
173735.0,435288.0,-23490.599999999999,-25231.0,118952.0,-236191.0,22615.400000000001,3729.3099999999999
173736.0,53993.300000000003,59216.699999999997,4634.1700000000001,57267.5,-293.60300000000001,1089.8099999999999,3405.4099999999999
173737.0,60873.699999999997,64959.400000000001,3577.52,62751.5,-2866.0599999999999,3253.9499999999998,2009.74
173738.0,66895.5,68379.800000000003,1606.1800000000001,65863.300000000003,-5725.3500000000004,5150.75,142.30699999999999
173739.0,73912.100000000006,73727.600000000006,398.15100000000001,69505.5,-8399.5400000000009,7195.6300000000001,-1877.1400000000001
173740.0,80251.600000000006,77517.0,-1969.4000000000001,70424.600000000006,-10858.5,8943.0100000000002,-3742.6399999999999
173741.0,84728.399999999994,82047.199999999997,-1999.47,71762.0,-12795.799999999999,10023.700000000001,-5199.0299999999997
173742.0,83553.600000000006,81965.5,-342.31599999999997,71176.5,-14083.299999999999,9623.2000000000007,-5927.4499999999998
173743.0,68772.899999999994,71030.600000000006,6141.7399999999998,67714.0,-13040.6,6146.9399999999996,-5768.8500000000004
173744.0,36922.400000000001,24681.400000000001,6627.5699999999997,45065.300000000003,-8312.3500000000004,-1527.54,-3629.6399999999999
173745.0,66970.699999999997,-66443.899999999994,-5863.3800000000001,-1094.8699999999999,-7187.5299999999997,-10574.5,2083.3899999999999
173746.0,138639.0,-165675.0,-30096.200000000001,-47234.699999999997,-24812.299999999999,-16955.299999999999,7293.9799999999996
173747.0,200817.0,-202138.0,-48234.599999999999,-47727.199999999997,-71466.600000000006,-19205.0,6675.6899999999996
173748.0,282400.0,-131215.0,-48609.800000000003,18669.400000000001,-143025.0,-21910.0,3343.4899999999998
173749.0,483126.0,74249.800000000003,-28056.700000000001,174214.0,-258163.0,-24780.099999999999,-17672.299999999999
173750.0,52881.800000000003,60612.800000000003,6761.9799999999996,57467.0,76.156700000000001,1377.8499999999999,4097.5500000000002
173751.0,59492.199999999997,67700.399999999994,7198.1700000000001,64089.099999999999,-2360.8600000000001,3639.3099999999999,3043.6700000000001
173752.0,65742.0,71217.899999999994,4977.7799999999997,67493.399999999994,-4690.5699999999997,5675.2299999999996,1219.55
173753.0,72969.800000000003,77575.100000000006,4884.8999999999996,73106.0,-7102.8000000000002,7914.1700000000001,-1456.47
173754.0,79982.100000000006,80245.5,1376.21,74031.100000000006,-9612.7900000000009,9924.5599999999995,-4303.8000000000002
173755.0,84704.800000000003,85649.600000000006,2715.2600000000002,77342.399999999994,-11911.5,11091.799999999999,-6376.79
173756.0,83875.399999999994,83683.5,2655.9099999999999,75310.300000000003,-14083.799999999999,10329.700000000001,-7366.3199999999997
173757.0,69589.300000000003,73708.100000000006,9387.25,72402.100000000006,-13564.9,5503.2700000000004,-6950.3199999999997
173758.0,40096.300000000003,22957.0,4436.7799999999997,43832.699999999997,-9621.3999999999996,-5833.0699999999997,-4564.6000000000004
173759.0,74239.899999999994,-65168.599999999999,-6761.5100000000002,-2187.6300000000001,-11810.4,-21511.200000000001,-1347.71
173760.0,141627.0,-153992.0,-33850.300000000003,-46719.900000000001,-33378.699999999997,-34937.300000000003,458.32999999999998
173761.0,210162.0,-167393.0,-47397.5,-34216.699999999997,-86150.0,-43679.099999999999,-2876.1399999999999
173762.0,316162.0,-76338.0,-59284.400000000001,36934.199999999997,-164822.0,-48290.900000000001,-9544.2199999999993
173763.0,512394.0,164982.0,-41249.400000000001,196084.0,-259102.0,-51323.800000000003,-33322.199999999997
173764.0,52002.5,62348.800000000003,9590.2000000000007,58683.699999999997,-20.685199999999998,1980.4100000000001,5445.3199999999997
173765.0,57652.0,68640.800000000003,9951.3799999999992,63975.800000000003,-1983.4100000000001,3965.3499999999999,4911.04
173766.0,63628.900000000001,73411.100000000006,8949.3799999999992,68452.300000000003,-3604.6500000000001,6124.79,3505.29
173767.0,70231.899999999994,79075.600000000006,8837.9400000000005,74211.5,-5664.0100000000002,8517.6499999999996,1046.9300000000001
173768.0,77704.300000000003,82842.699999999997,6283.6499999999996,77413.600000000006,-8180.8100000000004,10747.799999999999,-2273.9200000000001
173769.0,83237.199999999997,87239.5,6398.8800000000001,80663.399999999994,-10914.200000000001,11933.4,-5686.8699999999999
173770.0,83628.199999999997,85897.899999999994,5762.6499999999996,78808.0,-13311.299999999999,10832.4,-8292.5599999999995
173771.0,71221.0,77944.800000000003,11842.700000000001,75554.100000000006,-13183.700000000001,5212.8599999999997,-9170.6399999999994
173772.0,43704.5,32754.0,7515.5600000000004,47406.800000000003,-10688.700000000001,-7757.1599999999999,-7423.46
173773.0,73166.600000000006,-48876.699999999997,-5056.5699999999997,38.360900000000001,-14571.9,-28492.0,-6097.0100000000002
173774.0,141941.0,-131363.0,-37036.400000000001,-46191.099999999999,-38186.300000000003,-49812.400000000001,-8387.0200000000004
173775.0,219480.0,-129337.0,-48099.400000000001,-26460.900000000001,-93736.800000000003,-64053.800000000003,-15028.0
173776.0,339538.0,-21680.799999999999,-65619.699999999997,49153.400000000001,-172868.0,-66752.199999999997,-27129.200000000001
173777.0,511271.0,219854.0,-67683.699999999997,191882.0,-236547.0,-58315.800000000003,-51365.099999999999
173778.0,7593.75,-1114.1199999999999,-248.196,-4781.2799999999997,-417.83300000000003,-3633.2199999999998,-236.00200000000001
173779.0,7608.4399999999996,-1642.01,-245.869,-4473.5600000000004,-368.21100000000001,-3806.1900000000001,-182.87100000000001
173780.0,7588.7399999999998,-2136.23,-246.46600000000001,-4126.9099999999999,-317.72500000000002,-3913.23,-129.42400000000001
173781.0,7550.6700000000001,-2639.9200000000001,-262.86900000000003,-3761.77,-264.95100000000002,-3966.8000000000002,-81.632999999999996
173782.0,7517.9499999999998,-3093.8299999999999,-237.143,-3314.1399999999999,-224.982,-3980.1399999999999,-39.622199999999999
173783.0,7493.5799999999999,-3541.1900000000001,-239.517,-2843.8400000000001,-195.31299999999999,-3956.1900000000001,-5.5359999999999996
173784.0,7452.96,-3925.4099999999999,-220.74199999999999,-2346.6399999999999,-164.511,-3877.1500000000001,11.731199999999999
173785.0,7370.0900000000001,-4326.4799999999996,-228.47300000000001,-1942.03,-123.964,-3722.1700000000001,14.4207
173786.0,7243.5600000000004,-4715.3000000000002,-223.89099999999999,-1578.0699999999999,-80.251499999999993,-3489.2199999999998,22.2836
173787.0,7101.71,-5090.8100000000004,-252.64500000000001,-1232.45,-42.883000000000003,-3204.02,37.197699999999998
173788.0,6973.1800000000003,-5358.3000000000002,-245.36199999999999,-806.94600000000003,-21.2654,-2888.54,47.337800000000001
173789.0,6857.21,-5565.0299999999997,-257.43299999999999,-368.50999999999999,-21.800000000000001,-2544.3600000000001,41.920299999999997
173790.0,6712.8800000000001,-5621.5799999999999,-225.84,119.443,-35.790300000000002,-2157.1199999999999,31.775300000000001
173791.0,6506.5200000000004,-5583.7600000000002,-226.86699999999999,524.45299999999997,-43.484000000000002,-1736.1900000000001,14.817600000000001
173792.0,7822.7700000000004,-1010.77,-99.761899999999997,-4743.46,-459.47899999999998,-3747.8400000000001,-294.43400000000003
173793.0,7828.9200000000001,-1502.9100000000001,-63.860399999999998,-4385.8199999999997,-414.851,-3918.8699999999999,-239.62899999999999
173794.0,7809.21,-2007.8099999999999,-75.046899999999994,-4023.5700000000002,-374.41399999999999,-4031.5900000000001,-189.05600000000001
173795.0,7763.9399999999996,-2449.0799999999999,-34.270000000000003,-3574.1399999999999,-330.98599999999999,-4085.5300000000002,-143.21600000000001
173796.0,7726.1599999999999,-2958.0100000000002,-61.0242,-3152.8699999999999,-290.97399999999999,-4099.4700000000003,-95.938699999999997
173797.0,7716.8699999999999,-3406.0,-38.775300000000001,-2657.8000000000002,-258.86399999999998,-4080.8400000000001,-59.8354
173798.0,7698.3000000000002,-3867.3400000000001,-67.750500000000002,-2215.8099999999999,-227.93299999999999,-4008.9299999999998,-36.460099999999997
173799.0,7624.1300000000001,-4238.9799999999996,-37.270899999999997,-1756.29,-186.982,-3857.21,-23.983599999999999
173800.0,7507.0,-4659.9399999999996,-58.078499999999998,-1387.02,-148.107,-3626.8000000000002,-14.891
173801.0,7375.2200000000003,-4975.04,-11.9107,-948.92399999999998,-122.259,-3341.0900000000001,-6.3327099999999996
173802.0,7260.5500000000002,-5290.6800000000003,-22.7317,-542.95699999999999,-105.21899999999999,-3022.1900000000001,-0.76500599999999996
173803.0,7174.6899999999996,-5515.9499999999998,7.8676700000000004,-98.046899999999994,-97.715900000000005,-2677.6100000000001,-3.7615400000000001
173804.0,7059.6599999999999,-5699.0900000000001,-17.885200000000001,306.75,-102.41800000000001,-2278.9899999999998,-8.0696999999999992
173805.0,6827.0900000000001,-5631.4899999999998,22.004300000000001,741.26800000000003,-108.621,-1828.24,-15.7331
173806.0,7907.3000000000002,-1011.85,-161.60599999999999,-4794.5100000000002,-446.52499999999998,-3808.48,-235.30000000000001
173807.0,7911.1099999999997,-1518.8499999999999,-154.09100000000001,-4445.9399999999996,-405.27600000000001,-3981.8800000000001,-184.12
173808.0,7896.5,-2010.6500000000001,-154.227,-4059.0900000000001,-361.39800000000002,-4101.3199999999997,-135.608
173809.0,7864.6400000000003,-2514.73,-166.208,-3652.5900000000001,-319.38099999999997,-4164.8199999999997,-94.868499999999997
173810.0,7835.9499999999998,-2992.48,-156.05000000000001,-3184.6799999999998,-279.37900000000002,-4184.54,-56.257399999999997
173811.0,7830.8800000000001,-3467.79,-150.649,-2704.98,-240.119,-4167.0600000000004,-22.2026
173812.0,7822.4700000000003,-3913.0599999999999,-145.43600000000001,-2224.8200000000002,-203.488,-4098.0600000000004,3.9553099999999999
173813.0,7760.9300000000003,-4323.1700000000001,-144.61600000000001,-1774.6500000000001,-163.94399999999999,-3951.5599999999999,14.5357
173814.0,7647.8699999999999,-4721.9899999999998,-149.93899999999999,-1365.0,-122.407,-3724.6399999999999,20.601900000000001
173815.0,7521.3299999999999,-5086.0900000000001,-152.096,-956.36900000000003,-87.840000000000003,-3441.0300000000002,27.696400000000001
173816.0,7408.9499999999998,-5404.04,-156.08699999999999,-542.04700000000003,-61.455599999999997,-3120.5999999999999,27.965699999999998
173817.0,7324.6800000000003,-5662.21,-135.34999999999999,-120.003,-41.348199999999999,-2769.6300000000001,25.206399999999999
173818.0,7232.6000000000004,-5880.5900000000001,-147.55199999999999,284.024,-31.930700000000002,-2364.9200000000001,15.8354
173819.0,7005.21,-5865.9899999999998,-110.396,689.36599999999999,-48.485700000000001,-1888.24,-0.56366300000000003
173820.0,8029.29,-976.97299999999996,-151.494,-4814.9099999999999,-445.45800000000003,-3879.8000000000002,-213.19399999999999
173821.0,8044.8699999999999,-1481.27,-139.01300000000001,-4454.1499999999996,-408.84199999999998,-4062.48,-160.614
173822.0,8040.0699999999997,-1970.3499999999999,-133.64400000000001,-4049.9699999999998,-362.69999999999999,-4190.9799999999996,-111.45699999999999
173823.0,8025.0299999999997,-2460.02,-117.996,-3610.5100000000002,-317.09199999999998,-4265.4300000000003,-70.086100000000002
173824.0,8014.0200000000004,-2972.77,-122.929,-3162.75,-275.16399999999999,-4293.1899999999996,-36.186500000000002
173825.0,8015.8900000000003,-3473.1300000000001,-126.965,-2689.9499999999998,-235.38,-4277.8000000000002,-3.9718499999999999
173826.0,8012.3400000000001,-3945.8400000000001,-133.64599999999999,-2208.6399999999999,-197.19200000000001,-4209.1800000000003,20.596699999999998
173827.0,7964.3699999999999,-4369.0900000000001,-130.41399999999999,-1739.6700000000001,-157.029,-4066.9000000000001,32.283900000000003
173828.0,7860.3800000000001,-4761.9899999999998,-125.962,-1297.77,-116.03400000000001,-3843.0700000000002,37.324399999999997
173829.0,7734.6099999999997,-5107.3699999999999,-114.486,-853.32600000000002,-80.427800000000005,-3559.6700000000001,42.467700000000001
173830.0,7616.3199999999997,-5404.1899999999996,-98.647499999999994,-408.23700000000002,-46.330100000000002,-3234.9400000000001,42.196199999999997
173831.0,7515.0699999999997,-5680.0600000000004,-99.598399999999998,-0.911389,-17.3855,-2873.3699999999999,39.117699999999999
173832.0,7409.9300000000003,-5875.2700000000004,-84.433700000000002,430.428,-1.5583199999999999,-2457.9899999999998,23.6219
173833.0,7192.0699999999997,-5933.3999999999996,-74.279799999999994,792.34299999999996,-14.3325,-1963.6199999999999,-0.36623499999999998
173834.0,8121.2700000000004,-926.80600000000004,-158.11799999999999,-4819.6199999999999,-442.00900000000001,-3938.4200000000001,-180.86799999999999
173835.0,8153.6400000000003,-1469.6600000000001,-177.488,-4485.0500000000002,-408.37599999999998,-4134.2200000000003,-125.91
173836.0,8161.6300000000001,-1943.6800000000001,-151.61099999999999,-4048.46,-361.84199999999998,-4273.4300000000003,-80.447299999999998
173837.0,8158.4399999999996,-2494.0500000000002,-188.21799999999999,-3655.71,-313.77300000000002,-4355.6400000000003,-40.859000000000002
173838.0,8161.6599999999999,-2985.5900000000001,-157.31200000000001,-3176.79,-265.87599999999998,-4390.29,-5.92767
173839.0,8175.3199999999997,-3519.6900000000001,-176.01900000000001,-2718.5300000000002,-222.40700000000001,-4379.5900000000001,25.297599999999999
173840.0,8182.3000000000002,-3978.2399999999998,-148.31,-2198.6999999999998,-181.529,-4313.7299999999996,47.039999999999999
173841.0,8142.9099999999999,-4441.6899999999996,-172.44499999999999,-1739.4100000000001,-138.697,-4173.1700000000001,61.156199999999998
173842.0,8048.3699999999999,-4820.4399999999996,-150.85900000000001,-1257.4400000000001,-95.214500000000001,-3952.8099999999999,64.930499999999995
173843.0,7928.3699999999999,-5208.8500000000004,-177.792,-836.52700000000004,-59.405799999999999,-3669.8699999999999,66.611000000000004
173844.0,7798.3299999999999,-5489.7600000000002,-158.75200000000001,-368.11500000000001,-24.836600000000001,-3339.29,63.495100000000001
173845.0,7663.1400000000003,-5741.3400000000001,-163.232,49.177300000000002,9.9468899999999998,-2964.73,55.710900000000002
173846.0,7545.4799999999996,-5938.8500000000004,-146.05799999999999,467.80000000000001,29.552800000000001,-2545.5300000000002,33.218299999999999
173847.0,7349.9099999999999,-6059.6099999999997,-144.447,803.25599999999997,15.4389,-2043.47,-1.27372
173848.0,8222.4599999999991,-880.97699999999998,-173.73599999999999,-4840.46,-442.36799999999999,-3998.8600000000001,-153.75800000000001
173849.0,8274.2199999999993,-1428.25,-184.249,-4490.7200000000003,-409.68299999999999,-4210.9399999999996,-95.330399999999997
173850.0,8300.7399999999998,-1920.3,-162.49700000000001,-4054.9899999999998,-359.94900000000001,-4362.96,-52.124400000000001
173851.0,8310.4200000000001,-2455.7600000000002,-171.04400000000001,-3632.23,-310.12700000000001,-4452.8000000000002,-13.0961
173852.0,8321.1800000000003,-2975.5900000000001,-159.27199999999999,-3165.71,-259.815,-4492.0200000000004,21.901599999999998
173853.0,8342.4099999999999,-3524.27,-180.19300000000001,-2704.96,-210.36799999999999,-4484.79,53.903500000000001
173854.0,8355.7099999999991,-4017.29,-170.21600000000001,-2194.96,-162.649,-4420.0299999999997,77.879800000000003
173855.0,8324.2199999999993,-4485.5799999999999,-185.66,-1707.0899999999999,-118.58199999999999,-4280.3299999999999,90.701999999999998
173856.0,8237.8799999999992,-4872.79,-167.68100000000001,-1208.02,-74.979399999999998,-4061.8000000000002,92.602400000000003
173857.0,8122.0299999999997,-5242.4399999999996,-175.29499999999999,-749.37699999999995,-33.026499999999999,-3778.9200000000001,94.394800000000004
173858.0,7983.3199999999997,-5514.3599999999997,-151.25399999999999,-261.63,1.8409,-3441.3499999999999,84.990399999999994
173859.0,7813.4399999999996,-5749.1800000000003,-164.83000000000001,152.94200000000001,31.3674,-3053.4899999999998,70.808099999999996
173860.0,7667.5799999999999,-5905.79,-126.625,580.12199999999996,61.097099999999998,-2632.5700000000002,47.583100000000002
173861.0,7496.8699999999999,-6080.5699999999997,-128.869,893.74900000000002,57.221699999999998,-2132.1700000000001,3.5515599999999998
173862.0,8327.7299999999996,-807.096,-179.399,-4845.3299999999999,-444.84500000000003,-4061.0100000000002,-123.61799999999999
173863.0,8394.1100000000006,-1392.5999999999999,-208.904,-4505.8400000000001,-409.815,-4288.2399999999998,-62.6008
173864.0,8435.9899999999998,-1887.1500000000001,-175.5,-4054.96,-357.98700000000002,-4451.2399999999998,-20.279399999999999
173865.0,8457.5699999999997,-2467.8899999999999,-216.92500000000001,-3660.3000000000002,-304.77999999999997,-4548.9200000000001,19.0654
173866.0,8478.8099999999995,-2978.5,-182.25899999999999,-3166.1500000000001,-252.03200000000001,-4593.9300000000003,52.231000000000002
173867.0,8503.6100000000006,-3547.0599999999999,-213.75,-2705.8499999999999,-200.67099999999999,-4588.2299999999996,82.498699999999999
173868.0,8517.6900000000005,-4028.2800000000002,-182.922,-2159.0900000000001,-151.904,-4522.4099999999999,103.611
173869.0,8498.1599999999999,-4533.9399999999996,-217.05500000000001,-1678.8599999999999,-107.504,-4384.9799999999996,112.51300000000001
173870.0,8424.3500000000004,-4924.9899999999998,-190.17099999999999,-1153.99,-65.092799999999997,-4168.6999999999998,113.782
173871.0,8303.5,-5310.46,-222.63900000000001,-695.42499999999995,-22.814399999999999,-3881.77,112.52800000000001
173872.0,8154.2399999999998,-5571.4499999999998,-193.339,-196.286,16.2913,-3538.0300000000002,99.284499999999994
173873.0,7968.4399999999996,-5809.25,-207.518,212.84200000000001,42.873199999999997,-3139.0500000000002,79.112499999999997
173874.0,7778.9399999999996,-5942.3100000000004,-177.196,616.88999999999999,70.198300000000003,-2710.6399999999999,55.456899999999997
173875.0,7614.71,-6128.6700000000001,-178.553,915.79399999999998,84.440799999999996,-2224.79,9.5738699999999994
173876.0,8445.2399999999998,-738.67999999999995,-207.00200000000001,-4869.3199999999997,-449.459,-4129.1700000000001,-90.798400000000001
173877.0,8518.6499999999996,-1325.51,-211.41900000000001,-4495.4899999999998,-408.99400000000003,-4368.1199999999999,-29.113299999999999
173878.0,8578.3600000000006,-1870.23,-205.56100000000001,-4071.6799999999998,-357.18700000000001,-4543.2299999999996,11.523
173879.0,8612.7199999999993,-2424.9400000000001,-206.69399999999999,-3632.3000000000002,-302.05900000000003,-4649.0699999999997,49.0486
173880.0,8641.7299999999996,-2982.4299999999998,-208.73500000000001,-3169.0,-244.42099999999999,-4698.7200000000003,83.327600000000004
173881.0,8673.25,-3539.2600000000002,-215.44499999999999,-2676.0300000000002,-189.435,-4695.9799999999996,111.48399999999999
173882.0,8698.2299999999996,-4077.5799999999999,-220.999,-2160.73,-139.89400000000001,-4633.0900000000001,127.794
173883.0,8694.2800000000007,-4576.2399999999998,-222.499,-1642.46,-93.544300000000007,-4498.8900000000003,135.58099999999999
173884.0,8634.9200000000001,-5012.1000000000004,-223.661,-1127.8199999999999,-48.892699999999998,-4284.8999999999996,137.33600000000001
173885.0,8514.0499999999993,-5361.8199999999997,-215.15000000000001,-612.38,-6.9881000000000002,-3993.1799999999998,130.286
173886.0,8348.6100000000006,-5643.4200000000001,-214.274,-133.60599999999999,32.507599999999996,-3639.3499999999999,117.339
173887.0,8151.5,-5862.04,-206.54599999999999,297.52699999999999,63.754600000000003,-3231.1900000000001,88.487499999999997
173888.0,7915.8500000000004,-6003.0799999999999,-195.90199999999999,651.71600000000001,83.747,-2784.71,62.709000000000003
173889.0,7726.3299999999999,-6112.2399999999998,-157.066,987.24699999999996,107.087,-2314.5300000000002,28.882400000000001
173890.0,8571.8899999999994,-639.57299999999998,-224.61500000000001,-4870.9399999999996,-457.11399999999998,-4203.5200000000004,-55.569200000000002
173891.0,8644.9599999999991,-1258.0,-228.92699999999999,-4491.2799999999997,-408.88799999999998,-4449.4700000000003,5.4582800000000002
173892.0,8724.4099999999999,-1833.23,-224.16300000000001,-4071.48,-355.34500000000003,-4637.8900000000003,45.380600000000001
173893.0,8773.0200000000004,-2422.9099999999999,-239.096,-3644.0999999999999,-298.59399999999999,-4752.2600000000002,80.164000000000001
173894.0,8807.4200000000001,-2982.0999999999999,-234.227,-3165.3099999999999,-240.066,-4805.2700000000004,112.515
173895.0,8844.4099999999999,-3549.4000000000001,-242.31100000000001,-2666.1900000000001,-180.559,-4805.2399999999998,139.96899999999999
173896.0,8882.5599999999995,-4096.8100000000004,-236.101,-2136.5500000000002,-123.628,-4746.9399999999996,156.97800000000001
173897.0,8892.4300000000003,-4630.6899999999996,-246.99799999999999,-1618.3,-72.6434,-4614.8900000000003,165.148
173898.0,8842.1700000000001,-5077.3299999999999,-245.34800000000001,-1082.0,-25.702400000000001,-4400.54,165.59299999999999
173899.0,8721.8400000000001,-5450.0699999999997,-251.53299999999999,-566.20399999999995,18.716100000000001,-4103.25,154.24000000000001
173900.0,8546.1399999999994,-5735.25,-248.13900000000001,-80.1584,52.872399999999999,-3737.8800000000001,135.03999999999999
173901.0,8337.5799999999999,-5954.9700000000003,-237.88999999999999,342.52300000000002,83.3005,-3322.9499999999998,97.226900000000001
173902.0,8060.5200000000004,-6102.0699999999997,-235.18899999999999,667.89099999999996,104.33,-2851.3299999999999,70.398099999999999
173903.0,7833.7700000000004,-6175.4300000000003,-202.053,997.80700000000002,120.45999999999999,-2382.48,50.624699999999997
173904.0,8712.4799999999996,-541.05399999999997,-252.21799999999999,-4874.6000000000004,-471.69600000000003,-4286.5500000000002,-22.3965
173905.0,8778.6000000000004,-1169.28,-238.76400000000001,-4473.6700000000001,-411.82799999999997,-4534.71,39.220500000000001
173906.0,8873.9500000000007,-1796.3299999999999,-252.88800000000001,-4075.1100000000001,-353.10199999999998,-4735.0100000000002,81.309700000000007
173907.0,8938.2099999999991,-2386.0300000000002,-241.84299999999999,-3623.6500000000001,-292.65199999999999,-4858.4200000000001,113.81699999999999
173908.0,8984.1800000000003,-2986.8400000000001,-259.08100000000002,-3165.8200000000002,-233.37200000000001,-4916.9700000000003,142.89099999999999
173909.0,9028.8400000000001,-3553.8899999999999,-254.989,-2647.6300000000001,-173.792,-4920.3800000000001,167.75399999999999
173910.0,9073.7600000000002,-4136.8800000000001,-272.97199999999998,-2130.29,-112.14700000000001,-4864.5,184.75
173911.0,9093.5400000000009,-4675.5299999999997,-268.661,-1583.6099999999999,-55.339100000000002,-4733.5,192.00700000000001
173912.0,9053.7199999999993,-5155.9499999999998,-278.20699999999999,-1046.0999999999999,-7.8810799999999999,-4517.6099999999997,188.732
173913.0,8940.9699999999993,-5530.1800000000003,-267.596,-503.91699999999997,34.078800000000001,-4216.71,171.809
173914.0,8763.4400000000005,-5842.25,-271.78699999999998,-31.6082,69.534000000000006,-3842.5100000000002,145.04900000000001
173915.0,8536.4599999999991,-6065.2299999999996,-259.65600000000001,373.98899999999998,106.143,-3416.4200000000001,110.53
173916.0,8230.9599999999991,-6204.8400000000001,-251.428,713.02499999999998,128.23699999999999,-2919.1900000000001,80.471400000000003
173917.0,7965.1700000000001,-6239.5,-211.69900000000001,1054.3,132.744,-2436.5999999999999,62.078600000000002
173918.0,8869.0499999999993,-438.21300000000002,-269.28199999999998,-4867.2799999999997,-490.01799999999997,-4379.71,13.770099999999999
173919.0,8924.3999999999996,-1079.49,-256.61799999999999,-4460.4200000000001,-417.64600000000002,-4626.5500000000002,74.721000000000004
173920.0,9024.9300000000003,-1738.98,-273.45800000000003,-4061.3200000000002,-351.541,-4833.6300000000001,118.357
173921.0,9102.4099999999999,-2363.5999999999999,-271.75999999999999,-3620.8200000000002,-286.66000000000003,-4965.0100000000002,149.59899999999999
173922.0,9161.7299999999996,-2981.5900000000001,-283.08699999999999,-3158.1500000000001,-223.44,-5030.04,177.06999999999999
173923.0,9222.1499999999996,-3572.71,-281.02499999999998,-2641.8899999999999,-162.27000000000001,-5040.2399999999998,199.54300000000001
173924.0,9277.1200000000008,-4163.8299999999999,-290.47500000000002,-2106.9099999999999,-99.144300000000001,-4987.7200000000003,213.67500000000001
173925.0,9302.3299999999999,-4723.2200000000003,-293.721,-1552.6700000000001,-37.657400000000003,-4856.4399999999996,220.13300000000001
173926.0,9274.5799999999999,-5226.4300000000003,-299.92700000000002,-1001.58,15.326499999999999,-4639.4700000000003,213.678
173927.0,9176.6599999999999,-5644.9200000000001,-300.65899999999999,-473.04300000000001,58.1477,-4336.6700000000001,192.56100000000001
173928.0,8997.3600000000006,-5973.29,-299.68700000000001,-0.72568100000000002,96.034300000000002,-3952.7800000000002,159.38800000000001
173929.0,8732.3799999999992,-6186.2399999999998,-288.18599999999998,401.25599999999997,134.08600000000001,-3503.3800000000001,130.09899999999999
173930.0,8415.7700000000004,-6325.1700000000001,-282.334,759.81899999999996,157.98400000000001,-2990.1900000000001,94.9131
173931.0,8137.4899999999998,-6381.6300000000001,-257.87299999999999,1076.9100000000001,144.92599999999999,-2496.02,55.648499999999999
173932.0,9031.4899999999998,-338.851,-282.69099999999997,-4848.46,-507.32299999999998,-4479.3100000000004,57.735100000000003
173933.0,9079.6399999999994,-985.65499999999997,-277.142,-4440.79,-425.39400000000001,-4724.7700000000004,113.44499999999999
173934.0,9178.7900000000009,-1671.6300000000001,-295.03500000000003,-4040.3200000000002,-351.08600000000001,-4934.2600000000002,156.125
173935.0,9269.1700000000001,-2322.0,-290.92599999999999,-3600.29,-282.05500000000001,-5073.46,185.44200000000001
173936.0,9342.6200000000008,-2967.3299999999999,-305.12599999999998,-3142.25,-215.81800000000001,-5145.4899999999998,210.541
173937.0,9416.6000000000004,-3580.0799999999999,-306.20600000000002,-2627.3299999999999,-149.40199999999999,-5161.8699999999999,233.78399999999999
173938.0,9480.1700000000001,-4190.0600000000004,-318.226,-2085.5599999999999,-79.782899999999998,-5111.9899999999998,248.56399999999999
173939.0,9510.1200000000008,-4762.7799999999997,-322.15800000000002,-1515.22,-15.4594,-4980.1099999999997,253.34899999999999
173940.0,9491.2600000000002,-5284.7299999999996,-325.37,-949.726,42.2866,-4761.4799999999996,241.60900000000001
173941.0,9404.0300000000007,-5735.8699999999999,-326.70699999999999,-426.06999999999999,90.874799999999993,-4454.8100000000004,218.65100000000001
173942.0,9225.5200000000004,-6086.3000000000002,-321.41699999999997,47.5809,134.12,-4060.4000000000001,181.22999999999999
173943.0,8929.0300000000007,-6316.8400000000001,-322.964,437.36599999999999,165.46299999999999,-3583.0999999999999,150.25299999999999
173944.0,8602.8099999999995,-6423.8699999999999,-298.42899999999997,832.452,187.209,-3062.5799999999999,112.544
173945.0,8333.8400000000001,-6502.0200000000004,-270.49900000000002,1125.5,188.625,-2572.7399999999998,55.243899999999996
173946.0,9188.75,-251.10599999999999,-308.43400000000003,-4822.9399999999996,-523.41800000000001,-4580.2299999999996,104.836
173947.0,9240.4699999999993,-882.24000000000001,-291.37200000000001,-4404.3599999999997,-435.32499999999999,-4827.4099999999999,153.285
173948.0,9337.0,-1602.0,-324.15699999999998,-4018.75,-352.74099999999999,-5037.5600000000004,194.386
173949.0,9438.8600000000006,-2272.3000000000002,-310.786,-3573.98,-277.44600000000003,-5183.8599999999997,222.71799999999999
173950.0,9529.3299999999999,-2959.5900000000001,-339.404,-3134.6300000000001,-206.91300000000001,-5264.4300000000003,246.655
173951.0,9611.3400000000001,-3572.7800000000002,-325.80099999999999,-2598.1799999999998,-136.89599999999999,-5284.4099999999999,269.87400000000002
173952.0,9676.1299999999992,-4204.0600000000004,-352.14800000000002,-2053.1399999999999,-62.6297,-5234.3000000000002,284.78800000000001
173953.0,9713.8299999999999,-4777.5100000000002,-341.87400000000002,-1454.45,5.5325499999999996,-5103.4200000000001,286.298
173954.0,9705.3299999999999,-5345.0299999999997,-364.83499999999998,-903.68499999999995,68.078199999999995,-4883.7200000000003,269.702
173955.0,9620.3099999999995,-5806.9799999999996,-353.38999999999999,-363.92099999999999,121.803,-4569.5100000000002,245.09999999999999
173956.0,9435.7700000000004,-6195.2399999999998,-367.60000000000002,94.760300000000001,171.52099999999999,-4161.3299999999999,204.89500000000001
173957.0,9124.8999999999996,-6420.1000000000004,-340.89100000000002,515.71400000000006,200.95699999999999,-3658.73,169.22200000000001
173958.0,8787.2299999999996,-6552.4499999999998,-348.37599999999998,883.60900000000004,217.24600000000001,-3128.9400000000001,130.96600000000001
173959.0,8482.7099999999991,-6573.5799999999999,-307.03899999999999,1197.4000000000001,242.477,-2633.1999999999998,77.856899999999996
173960.0,9343.6200000000008,-159.56100000000001,-327.56400000000002,-4780.8299999999999,-540.86599999999999,-4681.6199999999999,147.131
173961.0,9406.7800000000007,-789.28800000000001,-314.65699999999998,-4370.6099999999997,-447.44099999999997,-4933.6700000000001,193.893
173962.0,9500.9099999999999,-1519.05,-346.12799999999999,-3982.75,-355.89699999999999,-5144.1899999999996,233.77199999999999
173963.0,9609.6599999999999,-2216.7600000000002,-336.447,-3543.71,-273.30200000000002,-5295.3699999999999,262.76400000000001
173964.0,9714.0499999999993,-2924.6399999999999,-361.81900000000002,-3102.25,-196.18600000000001,-5383.4799999999996,286.82799999999997
173965.0,9804.3500000000004,-3564.1999999999998,-356.02699999999999,-2567.0799999999999,-123.13,-5406.9799999999996,308.637
173966.0,9875.0100000000002,-4205.71,-379.07999999999998,-2004.96,-48.463000000000001,-5358.4099999999999,319.43599999999998
173967.0,9920.6100000000006,-4802.2200000000003,-376.96800000000002,-1403.48,24.047599999999999,-5228.71,318.62700000000001
173968.0,9918.2600000000002,-5381.8199999999997,-390.94299999999998,-837.15300000000002,95.021000000000001,-5006.4700000000003,299.84300000000002
173969.0,9833.0400000000009,-5873.5,-387.06599999999997,-297.875,152.94900000000001,-4683.2299999999996,272.25200000000001
173970.0,9638.2299999999996,-6265.7299999999996,-390.28100000000001,181.46899999999999,206.41499999999999,-4258.4399999999996,229.321
173971.0,9320.6900000000005,-6530.4300000000003,-382.65300000000002,596.03999999999996,237.905,-3734.04,188.423
173972.0,8974.3400000000001,-6647.1499999999996,-369.04500000000002,989.23699999999997,250.98500000000001,-3188.3699999999999,147.86799999999999
173973.0,8626.8700000000008,-6649.7799999999997,-348.90499999999997,1317.21,259.55200000000002,-2659.4699999999998,95.872600000000006
173974.0,9503.6800000000003,-75.698899999999995,-345.50599999999997,-4741.3000000000002,-556.51800000000003,-4785.4300000000003,189.852
173975.0,9578.3400000000001,-702.83600000000001,-339.387,-4333.6300000000001,-460.35599999999999,-5043.4099999999999,235.65100000000001
173976.0,9670.2299999999996,-1432.79,-367.93400000000003,-3939.2399999999998,-361.66399999999999,-5253.9499999999998,273.13900000000001
173977.0,9782.2600000000002,-2157.0,-368.34899999999999,-3508.3099999999999,-272.30900000000003,-5408.4399999999996,302.17700000000002
173978.0,9894.5300000000007,-2878.8699999999999,-389.01900000000001,-3058.73,-188.90700000000001,-5501.3699999999999,326.52300000000002
173979.0,9993.7199999999993,-3544.9099999999999,-391.25400000000002,-2525.0700000000002,-110.74299999999999,-5528.8500000000004,348.16800000000001
173980.0,10076.700000000001,-4194.3400000000001,-401.95600000000002,-1943.6800000000001,-31.028099999999998,-5484.5799999999999,357.43099999999998
173981.0,10127.700000000001,-4821.3400000000001,-413.68400000000003,-1345.23,45.869199999999999,-5354.0799999999999,353.98899999999998
173982.0,10124.0,-5402.8599999999997,-418.17200000000003,-758.05600000000004,122.065,-5126.6999999999998,333.06799999999998
173983.0,10035.799999999999,-5928.1300000000001,-431.35899999999998,-223.10300000000001,187.989,-4793.5,302.93700000000001
173984.0,9830.5699999999997,-6322.9300000000003,-421.63799999999998,282.32999999999998,244.61699999999999,-4350.7399999999998,257.32100000000003
173985.0,9515.3199999999997,-6616.75,-420.89499999999998,706.05899999999997,276.78300000000002,-3809.6199999999999,208.881
173986.0,9172.8500000000004,-6748.1400000000003,-405.23700000000002,1113.0699999999999,287.39699999999999,-3247.75,164.94200000000001
173987.0,8835.2399999999998,-6783.7299999999996,-389.46699999999998,1464.97,281.13499999999999,-2683.7800000000002,105.054
173988.0,9667.0100000000002,12.7986,-357.19099999999997,-4692.6099999999997,-570.26900000000001,-4891.3299999999999,233.38800000000001
173989.0,9755.3400000000001,-632.57399999999996,-372.24099999999999,-4302.8400000000001,-473.14100000000002,-5156.6199999999999,276.18799999999999
173990.0,9849.0799999999999,-1348.1500000000001,-387.03500000000003,-3892.4299999999998,-370.12299999999999,-5368.4300000000003,311.39299999999997
173991.0,9963.2299999999996,-2096.0799999999999,-401.07999999999998,-3470.9099999999999,-273.654,-5525.7200000000003,340.21600000000001
173992.0,10080.4,-2826.2199999999998,-413.327,-3007.0500000000002,-185.14099999999999,-5622.04,364.72000000000003
173993.0,10186.5,-3515.4200000000001,-422.73099999999999,-2469.3800000000001,-101.946,-5652.75,386.63999999999999
173994.0,10274.299999999999,-4178.8699999999999,-437.00200000000001,-1877.8599999999999,-15.593999999999999,-5609.5799999999999,396.584
173995.0,10327.9,-4818.5699999999997,-446.23500000000001,-1265.8499999999999,68.479100000000003,-5476.8900000000003,390.31999999999999
173996.0,10320.700000000001,-5417.4200000000001,-456.07299999999998,-671.99900000000002,148.73400000000001,-5242.5200000000004,368.98700000000002
173997.0,10226.1,-5942.8900000000003,-459.80799999999999,-108.235,219.887,-4898.3000000000002,333.29399999999998
173998.0,10012.200000000001,-6369.0100000000002,-464.822,397.48700000000002,277.13299999999998,-4437.6899999999996,283.54899999999998
173999.0,9707.3700000000008,-6674.1300000000001,-453.75799999999998,847.96199999999999,312.39600000000002,-3885.7800000000002,229.339
174000.0,9384.1100000000006,-6838.4300000000003,-448.84500000000003,1268.3,326.76799999999997,-3311.0999999999999,186.05600000000001
174001.0,9081.9799999999996,-6880.4499999999998,-406.70100000000002,1690.76,325.99799999999999,-2722.3600000000001,119.123
174002.0,9839.0499999999993,80.377099999999999,-387.589,-4665.4399999999996,-583.85500000000002,-5001.3299999999999,272.89400000000001
174003.0,9940.7399999999998,-560.82000000000005,-393.48500000000001,-4265.3999999999996,-485.08999999999997,-5273.9399999999996,314.81599999999997
174004.0,10039.9,-1283.6600000000001,-416.81200000000001,-3861.3299999999999,-379.43000000000001,-5488.5299999999997,349.00599999999997
174005.0,10154.799999999999,-2031.71,-427.56999999999999,-3428.3400000000001,-276.66199999999998,-5647.9099999999999,378.71199999999999
174006.0,10274.1,-2778.1599999999999,-444.96699999999998,-2958.2600000000002,-181.12,-5746.5699999999997,405.45699999999999
174007.0,10385.299999999999,-3482.5300000000002,-455.97000000000003,-2407.02,-92.008899999999997,-5779.79,427.66500000000002
174008.0,10474.0,-4153.1499999999996,-466.78800000000001,-1797.0599999999999,-1.9306000000000001,-5735.3299999999999,435.279
174009.0,10522.9,-4805.1000000000004,-483.04000000000002,-1174.8099999999999,89.959699999999998,-5597.1599999999999,429.66300000000001
174010.0,10505.700000000001,-5405.5900000000001,-490.63,-557.37699999999995,177.04499999999999,-5352.4399999999996,406.77300000000002
174011.0,10407.5,-5952.71,-502.58600000000001,10.188499999999999,251.721,-4998.8900000000003,364.18000000000001
174012.0,10197.799999999999,-6401.3400000000001,-501.29599999999999,535.20100000000002,309.05700000000002,-4524.8000000000002,308.94799999999998
174013.0,9906.3799999999992,-6726.0,-491.512,1006.27,345.702,-3963.9099999999999,251.66900000000001
174014.0,9604.1700000000001,-6901.5100000000002,-490.577,1469.71,364.20999999999998,-3376.3600000000001,210.36099999999999
174015.0,9354.75,-6972.2299999999996,-453.60399999999998,1946.22,363.392,-2778.9499999999998,131.72399999999999
174016.0,10024.799999999999,162.857,-397.33800000000002,-4628.75,-596.154,-5116.9799999999996,311.40100000000001
174017.0,10137.0,-515.995,-432.96100000000001,-4255.0699999999997,-495.29500000000002,-5396.0200000000004,353.01100000000002
174018.0,10242.700000000001,-1215.3900000000001,-432.06400000000002,-3822.0700000000002,-387.83199999999999,-5614.2799999999997,387.512
174019.0,10357.9,-1987.8699999999999,-468.32999999999998,-3400.8299999999999,-280.40100000000001,-5775.5699999999997,418.83800000000002
174020.0,10475.4,-2718.04,-465.87400000000002,-2891.21,-179.31100000000001,-5874.9799999999996,447.05700000000002
174021.0,10587.1,-3448.4899999999998,-496.21300000000002,-2340.0599999999999,-83.124499999999998,-5908.5299999999997,469.916
174022.0,10673.0,-4116.5299999999997,-496.34699999999998,-1700.7,14.994300000000001,-5860.29,478.54700000000003
174023.0,10709.6,-4782.3500000000004,-527.51599999999996,-1068.49,111.473,-5712.3800000000001,472.24000000000001
174024.0,10679.799999999999,-5369.6000000000004,-522.28999999999996,-415.13499999999999,202.09100000000001,-5456.5100000000002,442.56999999999999
174025.0,10575.200000000001,-5937.96,-546.03399999999999,147.988,283.40600000000001,-5093.2399999999998,397.53100000000001
174026.0,10378.4,-6402.8400000000001,-535.27700000000004,702.71799999999996,348.048,-4610.6999999999998,339.81900000000002
174027.0,10109.6,-6766.7700000000004,-542.75,1187.46,387.42599999999999,-4042.27,278.55099999999999
174028.0,9829.5799999999999,-6929.8299999999999,-523.36699999999996,1719.3299999999999,401.69999999999999,-3441.3899999999999,235.79599999999999
174029.0,9670.4500000000007,-7037.5699999999997,-491.20800000000003,2260.2199999999998,396.72199999999998,-2860.3899999999999,144.858
174030.0,10221.799999999999,216.774,-435.76400000000001,-4627.8000000000002,-606.39099999999996,-5236.9200000000001,351.95600000000002
174031.0,10343.799999999999,-452.61599999999999,-448.85199999999998,-4227.9700000000003,-503.17700000000002,-5522.8000000000002,392.923
174032.0,10456.5,-1179.55,-472.029,-3811.4899999999998,-394.39299999999997,-5745.46,428.35700000000003
174033.0,10572.9,-1928.76,-486.31799999999998,-3349.8699999999999,-283.79899999999998,-5909.2700000000004,460.512
174034.0,10687.700000000001,-2684.8000000000002,-509.24599999999998,-2842.1500000000001,-178.07300000000001,-6008.6599999999999,490.084
174035.0,10793.700000000001,-3397.9899999999998,-522.88800000000003,-2247.8499999999999,-75.072199999999995,-6039.1000000000004,514.322
174036.0,10868.200000000001,-4082.7800000000002,-541.39800000000002,-1597.99,28.766999999999999,-5982.7799999999997,522.19100000000003
174037.0,10890.299999999999,-4731.9099999999999,-557.04700000000003,-925.673,128.70400000000001,-5823.4099999999999,512.03200000000004
174038.0,10850.299999999999,-5345.4300000000003,-575.04899999999998,-278.75599999999997,223.37100000000001,-5557.0600000000004,476.05099999999999
174039.0,10731.5,-5897.1499999999996,-581.39700000000005,315.06,308.89299999999997,-5179.8800000000001,431.38799999999998
174040.0,10549.9,-6391.9700000000003,-590.14999999999998,882.42399999999998,378.57400000000001,-4693.54,369.464
174041.0,10308.200000000001,-6753.2600000000002,-579.63,1426.52,423.19099999999997,-4119.9300000000003,303.64699999999999
174042.0,10055.5,-6943.5299999999997,-578.11400000000003,1986.8800000000001,435.58800000000002,-3507.9699999999998,259.33300000000003
174043.0,10033.9,-7079.5500000000002,-529.92700000000002,2629.73,426.28300000000002,-2970.9699999999998,162.15600000000001
174044.0,10429.4,300.44299999999998,-447.88900000000001,-4603.75,-616.52499999999998,-5361.21,393.20600000000002
174045.0,10559.799999999999,-416.50400000000002,-491.84899999999999,-4230.2700000000004,-509.69900000000001,-5653.8900000000003,434.93200000000002
174046.0,10679.5,-1123.01,-488.61399999999998,-3776.1900000000001,-399.142,-5881.5799999999999,472.19499999999999
174047.0,10797.700000000001,-1899.71,-531.08399999999995,-3321.0500000000002,-285.04300000000001,-6048.1499999999996,505.57499999999999
174048.0,10908.6,-2632.1199999999999,-531.48199999999997,-2762.96,-175.52199999999999,-6146.5,536.17600000000004
174049.0,11004.9,-3363.0300000000002,-566.77200000000005,-2157.8699999999999,-68.176900000000003,-6171.2299999999996,559.61800000000005
174050.0,11065.700000000001,-4034.4000000000001,-573.92399999999998,-1468.05,39.976900000000001,-6104.8999999999996,564.39400000000001
174051.0,11073.700000000001,-4699.8999999999996,-606.44899999999996,-790.43399999999997,143.56,-5933.46,550.53700000000003
174052.0,11022.200000000001,-5296.0500000000002,-604.82399999999996,-109.223,243.852,-5655.5200000000004,509.34500000000003
174053.0,10886.0,-5867.8999999999996,-632.53499999999997,484.47500000000002,329.81299999999999,-5260.7399999999998,464.43700000000001
174054.0,10726.9,-6345.7600000000002,-622.44500000000005,1100.3699999999999,404.50200000000001,-4779.0,397.55000000000001
174055.0,10513.1,-6752.46,-642.98099999999999,1660.8,449.45699999999999,-4198.9700000000003,324.98899999999998
174056.0,10306.1,-6920.6599999999999,-611.17899999999997,2311.8800000000001,447.495,-3586.48,276.53100000000001
174057.0,10460.1,-7126.4200000000001,-586.74599999999998,3041.0100000000002,448.56299999999999,-3111.75,190.15899999999999
174058.0,10648.700000000001,353.596,-494.94999999999999,-4616.5200000000004,-627.02999999999997,-5490.6599999999999,435.77800000000002
174059.0,10784.9,-349.64499999999998,-507.27199999999999,-4202.9399999999996,-516.29899999999998,-5789.6700000000001,478.779
174060.0,10910.5,-1096.46,-536.08399999999995,-3766.0700000000002,-403.63200000000001,-6022.4499999999998,517.54999999999995
174061.0,11030.4,-1843.6300000000001,-548.81100000000004,-3256.46,-286.52499999999998,-6191.5500000000002,552.47199999999998
174062.0,11136.700000000001,-2605.4099999999999,-580.13900000000001,-2697.0,-172.68199999999999,-6288.0299999999997,583.76599999999996
174063.0,11222.299999999999,-3313.0999999999999,-594.851,-2039.5799999999999,-61.380200000000002,-6305.5600000000004,605.16700000000003
174064.0,11269.6,-4003.0900000000001,-620.38400000000001,-1341.1600000000001,50.673200000000001,-6228.0900000000001,606.66399999999999
174065.0,11260.6,-4651.2399999999998,-637.76300000000003,-623.60500000000002,158.49199999999999,-6042.0500000000002,589.005
174066.0,11191.299999999999,-5265.9899999999998,-660.52300000000002,48.343899999999998,265.75700000000001,-5749.2200000000003,546.27700000000004
174067.0,11045.299999999999,-5821.2700000000004,-669.71500000000003,687.57500000000005,351.86599999999999,-5339.0500000000002,496.33100000000002
174068.0,10896.4,-6294.6000000000004,-675.60400000000004,1313.95,433.26499999999999,-4861.4200000000001,431.36599999999999
174069.0,10727.299999999999,-6701.6300000000001,-671.70699999999999,1943.54,486.73099999999999,-4282.5799999999999,353.154
174070.0,10645.700000000001,-6939.8800000000001,-645.20699999999999,2665.9499999999998,469.58100000000002,-3695.0100000000002,305.45999999999998
174071.0,10968.5,-7152.1700000000001,-623.44600000000003,3561.4299999999998,487.96300000000002,-3264.0500000000002,240.036
174072.0,10881.1,453.10899999999998,-499.26100000000002,-4586.6800000000003,-638.54499999999996,-5626.75,478.91899999999998
174073.0,11022.1,-319.99299999999999,-562.07500000000005,-4213.5299999999997,-524.03899999999999,-5931.96,523.55399999999997
174074.0,11152.4,-1032.46,-545.87099999999998,-3713.5900000000001,-407.88499999999999,-6169.6000000000004,564.30100000000004
174075.0,11272.6,-1827.72,-606.15800000000002,-3222.1700000000001,-287.47000000000003,-6340.1899999999996,602.471
174076.0,11372.9,-2546.5700000000002,-597.03099999999995,-2586.5599999999999,-168.88999999999999,-6433.6800000000003,632.74400000000003
174077.0,11446.4,-3291.6300000000001,-649.38999999999999,-1935.3599999999999,-53.693600000000004,-6441.9899999999998,652.42200000000003
174078.0,11478.1,-3951.4299999999998,-647.67700000000002,-1179.6300000000001,64.188599999999994,-6351.29,652.53399999999999
174079.0,11452.9,-4633.3400000000001,-696.94500000000005,-470.85500000000002,175.74299999999999,-6149.8800000000001,626.42899999999997
174080.0,11355.4,-5206.3500000000004,-687.81899999999996,250.94499999999999,282.185,-5835.0600000000004,584.01599999999996
174081.0,11210.799999999999,-5787.1800000000003,-729.57000000000005,891.37699999999995,374.66300000000001,-5416.6800000000003,527.41700000000003
174082.0,11046.0,-6205.04,-715.101,1568.96,457.84399999999999,-4926.9700000000003,470.23899999999998
174083.0,10923.4,-6605.2600000000002,-729.178,2261.8499999999999,534.85199999999998,-4355.5100000000002,408.27699999999999
174084.0,11043.799999999999,-6892.5299999999997,-703.18100000000004,3152.1399999999999,548.43399999999997,-3813.23,369.08499999999998
174085.0,11504.700000000001,-7109.6999999999998,-695.97799999999995,4205.46,563.64099999999996,-3394.2399999999998,286.125
174086.0,11128.1,508.13200000000001,-555.09199999999998,-4607.3199999999997,-649.34799999999996,-5770.0699999999997,525.82299999999998
174087.0,11271.799999999999,-245.37799999999999,-575.41800000000001,-4179.2299999999996,-530.85500000000002,-6081.1300000000001,572.428
174088.0,11405.6,-1008.65,-599.05100000000004,-3696.1799999999998,-410.60700000000003,-6323.3699999999999,615.09900000000005
174089.0,11523.299999999999,-1771.96,-624.91600000000005,-3136.5599999999999,-288.15199999999999,-6493.8500000000004,654.42499999999995
174090.0,11617.1,-2522.1199999999999,-649.10000000000002,-2496.6900000000001,-165.09999999999999,-6583.1300000000001,683.30399999999997
174091.0,11676.9,-3249.6799999999998,-682.51900000000001,-1792.9200000000001,-45.157299999999999,-6580.1499999999996,701.54700000000003
174092.0,11689.6,-3921.8699999999999,-696.96699999999998,-1021.11,75.302899999999994,-6473.3400000000001,696.96000000000004
174093.0,11649.0,-4593.2299999999996,-734.44000000000005,-284.12099999999998,194.31899999999999,-6256.5200000000004,664.04300000000001
174094.0,11527.4,-5190.1199999999999,-746.49599999999998,439.49299999999999,297.68700000000001,-5917.1000000000004,620.86400000000003
174095.0,11380.5,-5727.3699999999999,-768.64599999999996,1134.8299999999999,395.72000000000003,-5490.9899999999998,560.62800000000004
174096.0,11193.6,-6132.3699999999999,-773.03999999999996,1853.48,477.63,-4970.8000000000002,512.70399999999995
174097.0,11123.9,-6454.8100000000004,-779.77999999999997,2700.8699999999999,542.49300000000005,-4402.1499999999996,464.48099999999999
174098.0,11450.0,-6729.5900000000001,-780.27999999999997,3790.04,567.35599999999999,-3922.5900000000001,409.72300000000001
174099.0,12027.1,-6932.8400000000001,-757.86599999999999,4949.9799999999996,586.71699999999998,-3531.9000000000001,282.59899999999999
174100.0,11388.9,623.28499999999997,-559.875,-4570.2200000000003,-662.33500000000004,-5921.0,574.40700000000004
174101.0,11533.5,-208.78299999999999,-634.51700000000005,-4181.5500000000002,-538.38199999999995,-6237.3599999999997,623.29399999999998
174102.0,11668.200000000001,-939.57799999999997,-613.447,-3626.21,-414.43099999999998,-6483.1400000000003,667.80100000000004
174103.0,11784.4,-1755.99,-685.45600000000002,-3078.4099999999999,-288.69600000000003,-6653.5799999999999,707.40499999999997
174104.0,11871.9,-2473.1300000000001,-673.05499999999995,-2365.3000000000002,-161.989,-6737.5600000000004,735.03099999999995
174105.0,11917.1,-3232.98,-735.67600000000004,-1653.99,-37.444499999999998,-6721.5699999999997,750.05700000000002
174106.0,11910.299999999999,-3892.1199999999999,-735.31700000000001,-841.75900000000001,86.084500000000006,-6596.9499999999998,737.76999999999998
174107.0,11849.299999999999,-4577.3199999999997,-789.43100000000004,-104.402,209.05000000000001,-6360.7299999999996,703.59400000000005
174108.0,11716.5,-5159.1499999999996,-782.53800000000001,672.94000000000005,316.37900000000002,-6001.1999999999998,655.53599999999994
174109.0,11550.700000000001,-5685.3400000000001,-825.85400000000004,1385.1199999999999,417.56999999999999,-5554.7200000000003,601.19600000000003
174110.0,11373.299999999999,-6054.9399999999996,-819.41600000000005,2220.5700000000002,491.98099999999999,-5004.7399999999998,552.67499999999995
174111.0,11419.0,-6367.29,-832.16200000000003,3191.6500000000001,522.77300000000002,-4462.8900000000003,489.78399999999999
174112.0,11911.1,-6614.21,-828.14200000000005,4408.25,536.62,-4053.1999999999998,419.67099999999999
174113.0,12604.9,-6790.5600000000004,-803.45899999999995,5657.5500000000002,567.50099999999998,-3715.6599999999999,275.238
174114.0,11666.5,671.26499999999999,-642.16700000000003,-4605.0699999999997,-675.41700000000003,-6080.6199999999999,627.85199999999998
174115.0,11808.4,-100.614,-630.90700000000004,-4110.8199999999997,-546.13,-6401.3699999999999,677.15099999999995
174116.0,11944.700000000001,-927.61500000000001,-689.12400000000002,-3606.1100000000001,-418.81299999999999,-6651.1599999999999,722.505
174117.0,12059.1,-1682.46,-688.66999999999996,-2949.5999999999999,-289.17200000000003,-6820.9399999999996,762.45799999999997
174118.0,12138.9,-2473.2199999999998,-743.18299999999999,-2264.1300000000001,-156.50399999999999,-6897.6400000000003,789.73199999999997
174119.0,12168.299999999999,-3193.77,-759.95699999999999,-1471.55,-27.665600000000001,-6866.71,798.51599999999996
174120.0,12143.6,-3899.3200000000002,-795.84699999999998,-679.40899999999999,99.603800000000007,-6723.5,777.86699999999996
174121.0,12059.799999999999,-4555.1199999999999,-822.47500000000002,110.46599999999999,222.018,-6463.6899999999996,745.37900000000002
174122.0,11922.1,-5164.4799999999996,-851.53499999999997,895.91999999999996,335.79399999999998,-6087.8599999999997,688.02700000000004
174123.0,11728.700000000001,-5637.3100000000004,-871.65499999999997,1688.5899999999999,428.09199999999998,-5606.8999999999996,641.08199999999999
174124.0,11615.0,-6000.6999999999998,-874.23299999999995,2625.5700000000002,493.24599999999998,-5056.29,580.23000000000002
174125.0,11803.4,-6302.8699999999999,-876.971,3701.3800000000001,530.30100000000004,-4562.3299999999999,512.78300000000002
174126.0,12383.0,-6492.29,-864.50900000000001,5008.1400000000003,565.44000000000005,-4185.5299999999997,452.11799999999999
174127.0,13238.799999999999,-6660.3900000000003,-845.00900000000001,6388.8299999999999,591.39099999999996,-3903.98,305.25599999999997
174128.0,11955.299999999999,810.52499999999998,-646.221,-4545.8100000000004,-690.38199999999995,-6247.25,684.55399999999997
174129.0,12097.5,-44.090000000000003,-693.64300000000003,-4091.52,-554.673,-6573.3699999999999,736.02300000000002
174130.0,12233.9,-846.31799999999998,-704.62300000000005,-3508.04,-420.51600000000002,-6826.7600000000002,783.76499999999999
174131.0,12346.6,-1661.8399999999999,-751.97400000000005,-2859.77,-286.27800000000002,-6995.2799999999997,823.93299999999999
174132.0,12414.9,-2432.1300000000001,-774.04200000000003,-2102.3600000000001,-148.99199999999999,-7061.8699999999999,845.05899999999997
174133.0,12432.200000000001,-3191.8000000000002,-813.94899999999996,-1306.9300000000001,-17.610600000000002,-7016.4300000000003,845.03899999999999
174134.0,12387.0,-3904.0799999999999,-843.00800000000004,-491.42000000000002,115.788,-6850.9499999999998,820.73800000000006
174135.0,12287.0,-4568.8800000000001,-874.71199999999999,320.72699999999998,236.435,-6569.0,786.20000000000005
174136.0,12148.5,-5157.9700000000003,-890.28599999999994,1157.49,353.61599999999999,-6178.25,719.36500000000001
174137.0,11956.5,-5638.1400000000003,-921.49800000000005,2008.46,431.76100000000002,-5668.1499999999996,674.51700000000005
174138.0,11932.9,-5961.1800000000003,-908.80899999999997,3056.1700000000001,496.66500000000002,-5140.1599999999999,608.221
174139.0,12224.4,-6239.1899999999996,-943.65499999999997,4225.6599999999999,546.89200000000005,-4672.5900000000001,547.90300000000002
174140.0,12854.0,-6310.0299999999997,-909.702,5669.8000000000002,578.81399999999996,-4302.3299999999999,484.464
174141.0,13920.5,-6507.6099999999997,-913.29499999999996,7189.6300000000001,610.33100000000002,-4083.9400000000001,338.49000000000001
174142.0,12259.4,895.71699999999998,-722.16899999999998,-4542.7399999999998,-707.48299999999995,-6421.8800000000001,746.86699999999996
174143.0,12397.0,80.500100000000003,-704.96900000000005,-3995.5700000000002,-563.99900000000002,-6752.1499999999996,801.36800000000005
174144.0,12533.799999999999,-798.87900000000002,-773.89400000000001,-3433.4299999999998,-423.45499999999998,-7009.1700000000001,849.49699999999996
174145.0,12642.1,-1591.54,-776.07299999999998,-2703.2199999999998,-284.42500000000001,-7174.6199999999999,884.49599999999998
174146.0,12704.6,-2420.7399999999998,-834.23299999999995,-1954.0699999999999,-142.30799999999999,-7232.5799999999999,898.33299999999997
174147.0,12712.200000000001,-3192.3299999999999,-859.02800000000002,-1125.4100000000001,-4.34633,-7172.0600000000004,892.65599999999995
174148.0,12647.5,-3924.9000000000001,-888.39599999999996,-287.42700000000002,131.00200000000001,-6982.5200000000004,863.322
174149.0,12528.9,-4600.2299999999996,-929.88,542.47699999999998,254.22200000000001,-6675.5900000000001,825.85199999999998
174150.0,12391.299999999999,-5174.4399999999996,-943.47699999999998,1417.22,378.74599999999998,-6269.3000000000002,761.31200000000001
174151.0,12240.200000000001,-5662.8900000000003,-978.88699999999994,2351.0900000000001,454.06599999999997,-5745.96,714.12699999999995
174152.0,12302.1,-5930.3100000000004,-958.37199999999996,3503.3499999999999,516.94000000000005,-5242.8999999999996,649.49000000000001
174153.0,12679.299999999999,-6168.1400000000003,-1005.3,4791.1099999999997,560.60000000000002,-4783.04,580.41899999999998
174154.0,13423.299999999999,-6176.6400000000003,-948.72799999999995,6382.1400000000003,561.24599999999998,-4437.5299999999997,505.70999999999998
174155.0,14707.200000000001,-6394.1899999999996,-986.27300000000002,8058.3100000000004,603.89099999999996,-4275.7600000000002,365.19400000000002
174156.0,12576.299999999999,1055.98,-737.27200000000005,-4453.0200000000004,-728.55200000000002,-6605.5100000000002,813.73099999999999
174157.0,12711.299999999999,179.12700000000001,-763.60299999999995,-3918.3099999999999,-577.27499999999998,-6940.2700000000004,868.173
174158.0,12847.200000000001,-704.73500000000001,-805.80100000000004,-3296.27,-430.34399999999999,-7200.1400000000003,913.57600000000002
174159.0,12955.1,-1548.8900000000001,-833.005,-2563.46,-283.19600000000003,-7363.3000000000002,943.42399999999998
174160.0,13011.9,-2406.71,-883.85599999999999,-1784.5699999999999,-134.62299999999999,-7411.2299999999996,951.91399999999999
174161.0,13008.5,-3195.7399999999998,-900.55100000000004,-926.72699999999998,10.3222,-7333.6099999999997,942.76599999999996
174162.0,12930.5,-3987.1700000000001,-959.93600000000004,-92.566999999999993,152.11699999999999,-7120.8100000000004,907.30200000000002
174163.0,12788.1,-4634.6199999999999,-964.86300000000006,798.755,272.87400000000002,-6783.0,863.08900000000006
174164.0,12641.9,-5205.9700000000003,-1005.73,1698.95,396.08499999999998,-6352.3599999999997,810.92100000000005
174165.0,12567.9,-5661.1700000000001,-1012.87,2761.25,470.447,-5837.3000000000002,746.60299999999995
174166.0,12705.0,-5920.9499999999998,-1034.78,3957.3000000000002,518.45100000000002,-5353.9899999999998,689.62199999999996
174167.0,13184.0,-6064.6800000000003,-1032.4000000000001,5419.5699999999997,566.654,-4910.0200000000004,608.31600000000003
174168.0,14147.299999999999,-6145.3199999999997,-1016.74,7126.5900000000001,549.20299999999997,-4619.6400000000003,528.25800000000004
174169.0,15618.299999999999,-6299.6300000000001,-1006.9400000000001,9035.2199999999993,601.84400000000005,-4486.7200000000003,385.23599999999999
174170.0,12907.1,1218.3800000000001,-769.53499999999997,-4355.2399999999998,-751.63499999999999,-6797.3999999999996,884.69799999999998
174171.0,13045.9,298.197,-817.44500000000005,-3809.3800000000001,-592.37900000000002,-7140.6400000000003,938.64400000000001
174172.0,13178.5,-611.11400000000003,-847.28099999999995,-3152.4099999999999,-435.779,-7400.8299999999999,978.36000000000001
174173.0,13288.200000000001,-1505.27,-889.71100000000001,-2408.71,-282.65300000000002,-7562.2200000000003,1003.95
174174.0,13339.799999999999,-2385.1199999999999,-921.61800000000005,-1590.6600000000001,-123.895,-7599.3500000000004,1007.16
174175.0,13324.299999999999,-3245.3800000000001,-974.322,-745.48299999999995,25.5657,-7501.9300000000003,994.51400000000001
174176.0,13237.700000000001,-4011.5799999999999,-983.34699999999998,167.178,174.87299999999999,-7267.5100000000002,951.53899999999999
174177.0,13075.299999999999,-4744.3400000000001,-1047.0,1030.77,298.47000000000003,-6894.2299999999996,900.80600000000004
174178.0,12916.200000000001,-5243.8699999999999,-1044.1600000000001,2037.0999999999999,404.44200000000001,-6430.5100000000002,858.48500000000001
174179.0,12946.6,-5723.0100000000002,-1083.6600000000001,3139.6399999999999,490.25799999999998,-5947.6700000000001,777.98199999999997
174180.0,13165.6,-5927.4200000000001,-1070.26,4459.7600000000002,523.58900000000006,-5472.8000000000002,735.26900000000001
174181.0,13770.4,-6015.3000000000002,-1081.3599999999999,6052.6899999999996,561.51499999999999,-5066.6899999999996,639.21900000000005
174182.0,15044.4,-6140.7299999999996,-1058.76,7976.6700000000001,554.298,-4867.1800000000003,566.01199999999994
174183.0,16618.599999999999,-6275.8000000000002,-1071.04,10028.200000000001,639.58199999999999,-4705.3800000000001,399.11900000000003
174184.0,13259.799999999999,1399.54,-808.83000000000004,-4233.0100000000002,-777.93299999999999,-7001.96,959.34000000000003
174185.0,13395.700000000001,432.92700000000002,-869.51300000000003,-3674.04,-609.62699999999995,-7349.8000000000002,1009.3200000000001
174186.0,13529.799999999999,-505.41699999999997,-890.87,-2990.4499999999998,-442.41899999999998,-7612.0200000000004,1044.47
174187.0,13642.9,-1460.45,-946.15099999999995,-2238.6999999999998,-279.834,-7771.75,1068.1099999999999
174188.0,13689.299999999999,-2382.3899999999999,-977.22699999999998,-1395.4000000000001,-110.95099999999999,-7797.2399999999998,1065.74
174189.0,13661.799999999999,-3280.1399999999999,-1022.26,-518.745,45.580199999999998,-7677.9799999999996,1048.1900000000001
174190.0,13566.200000000001,-4097.0299999999997,-1059.1700000000001,395.58100000000002,202.68700000000001,-7419.3299999999999,1002.6
174191.0,13400.5,-4821.4399999999996,-1083.0699999999999,1342.1700000000001,333.72199999999998,-7015.3400000000001,943.43899999999996
174192.0,13243.200000000001,-5348.8199999999997,-1099.9300000000001,2389.6999999999998,417.28699999999998,-6516.4300000000003,896.67100000000005
174193.0,13331.299999999999,-5733.46,-1118.8699999999999,3581.5,521.48299999999995,-6048.29,833.21600000000001
174194.0,13656.299999999999,-5939.8699999999999,-1139.6400000000001,4999.0,564.17399999999998,-5581.1599999999999,795.72000000000003
174195.0,14475.4,-5969.96,-1098.8099999999999,6770.3800000000001,569.06299999999999,-5266.0699999999997,679.99599999999998
174196.0,16076.0,-6169.5600000000004,-1140.5699999999999,8894.1100000000006,593.38499999999999,-5155.0,634.53999999999996
174197.0,17629.400000000001,-6144.4499999999998,-1102.75,11132.1,710.23699999999997,-4899.9700000000003,390.56799999999998
174198.0,13637.5,1598.5899999999999,-856.25400000000002,-4087.4899999999998,-808.81600000000003,-7220.5299999999997,1034.6700000000001
174199.0,13764.200000000001,572.10900000000004,-924.76199999999994,-3527.1399999999999,-627.71900000000005,-7568.8500000000004,1080.0899999999999
174200.0,13906.4,-389.411,-936.42700000000002,-2811.4699999999998,-449.97199999999998,-7835.9099999999999,1115.72
174201.0,14018.799999999999,-1417.46,-1010.59,-2054.25,-274.60899999999998,-7991.6400000000003,1136.0899999999999
174202.0,14061.700000000001,-2364.2600000000002,-1018.63,-1162.1400000000001,-95.1845,-8005.0,1129.3099999999999
174203.0,14023.5,-3348.4699999999998,-1098.8699999999999,-291.31299999999999,71.339799999999997,-7862.3599999999997,1105.23
174204.0,13909.4,-4140.5900000000001,-1087.3399999999999,705.60699999999997,231.74700000000001,-7570.75,1056.7
174205.0,13753.799999999999,-4932.1099999999997,-1169.3199999999999,1652.47,374.67599999999999,-7141.5799999999999,1000.09
174206.0,13647.4,-5457.8900000000003,-1145.01,2812.0100000000002,457.67899999999997,-6625.54,931.88400000000001
174207.0,13709.700000000001,-5806.4200000000001,-1207.8,4036.6399999999999,531.15899999999999,-6109.5600000000004,887.02300000000002
174208.0,14142.1,-5863.9399999999996,-1174.0599999999999,5656.8299999999999,564.96199999999999,-5662.8599999999997,845.702
174209.0,15319.1,-5966.21,-1182.49,7538.6400000000003,583.72400000000005,-5517.25,746.48400000000004
174210.0,17146.900000000001,-6078.6099999999997,-1193.75,9961.0599999999995,654.16099999999994,-5430.7700000000004,700.08399999999995
174211.0,18575.400000000001,-5959.6999999999998,-1171.79,12205.299999999999,753.92100000000005,-5068.8699999999999,337.29199999999997
174212.0,14042.700000000001,1752.0899999999999,-962.45100000000002,-3980.21,-840.25599999999997,-7454.2700000000004,1112.76
174213.0,14154.5,780.35900000000004,-929.49599999999998,-3310.9699999999998,-646.18799999999999,-7797.6700000000001,1157.54
174214.0,14306.1,-304.81200000000001,-1027.6800000000001,-2648.0900000000001,-457.21600000000001,-8071.4499999999998,1193.28
174215.0,14415.200000000001,-1319.49,-1036.0999999999999,-1800.0,-267.05900000000003,-8220.7700000000004,1210.25
174216.0,14454.5,-2385.04,-1109.6400000000001,-937.91600000000005,-74.894599999999997,-8220.1900000000005,1200.9100000000001
174217.0,14404.0,-3360.6500000000001,-1133.52,24.091999999999999,105.29900000000001,-8051.2700000000004,1168.47
174218.0,14270.1,-4254.5200000000004,-1184.71,994.44500000000005,267.916,-7720.7200000000003,1115.21
174219.0,14127.0,-4975.5799999999999,-1203.8199999999999,2078.9899999999998,402.09100000000001,-7264.8999999999996,1059.3299999999999
174220.0,14114.4,-5554.9200000000001,-1213.1300000000001,3275.4099999999999,506.34300000000002,-6760.8900000000003,971.55399999999997
174221.0,14170.6,-5896.7299999999996,-1242.96,4605.5600000000004,550.22900000000004,-6171.3900000000003,923.50699999999995
174222.0,14713.200000000001,-5895.8100000000004,-1199.97,6345.1800000000003,530.50699999999995,-5743.0200000000004,870.899
174223.0,16253.9,-5935.04,-1246.0599999999999,8423.9500000000007,568.39599999999996,-5781.4099999999999,838.43100000000004
174224.0,18160.700000000001,-5903.6499999999996,-1262.6500000000001,11052.0,688.29100000000005,-5671.6400000000003,717.92700000000002
174225.0,19457.0,-5753.3999999999996,-1214.27,13199.799999999999,747.31600000000003,-5256.6700000000001,260.73500000000001
174226.0,14460.4,2027.21,-960.56399999999996,-3737.73,-870.64599999999996,-7693.6499999999996,1199.3099999999999
174227.0,14572.200000000001,933.63900000000001,-1024.8699999999999,-3144.1500000000001,-666.44100000000003,-8039.2600000000002,1244.96
174228.0,14721.4,-132.488,-1052.0999999999999,-2379.7399999999998,-462.38099999999997,-8313.7099999999991,1277.5799999999999
174229.0,14832.799999999999,-1259.28,-1126.5899999999999,-1560.77,-259.66000000000003,-8458.6399999999994,1292.97
174230.0,14861.9,-2329.29,-1146.75,-602.98800000000006,-52.228700000000003,-8438.8899999999994,1276.4200000000001
174231.0,14797.700000000001,-3405.6999999999998,-1224.6900000000001,339.351,139.81899999999999,-8240.6200000000008,1234.97
174232.0,14651.6,-4278.0600000000004,-1212.28,1423.3299999999999,307.416,-7869.4700000000003,1179.6900000000001
174233.0,14547.200000000001,-5081.6899999999996,-1293.24,2511.2199999999998,433.19900000000001,-7396.4700000000003,1110.03
174234.0,14590.5,-5581.04,-1257.4400000000001,3815.0799999999999,557.49099999999999,-6887.9099999999999,1043.1300000000001
174235.0,14750.9,-5979.9499999999998,-1326.29,5265.5699999999997,620.04300000000001,-6265.3100000000004,980.98500000000001
174236.0,15467.700000000001,-5965.5299999999997,-1211.9200000000001,7145.1300000000001,569.80899999999997,-5881.5799999999999,882.096
174237.0,17157.5,-5937.04,-1319.3099999999999,9288.0400000000009,571.16899999999998,-6001.0600000000004,920.48699999999997
174238.0,19067.900000000001,-5677.6999999999998,-1256.6600000000001,12107.200000000001,685.99300000000005,-5872.8500000000004,702.49699999999996
174239.0,20360.799999999999,-5663.6099999999997,-1274.4400000000001,14077.700000000001,723.55999999999995,-5493.1099999999997,210.41999999999999
174240.0,14895.200000000001,2261.73,-1043.3299999999999,-3533.2800000000002,-903.68899999999996,-7937.8299999999999,1295.73
174241.0,15008.299999999999,1187.25,-1054.7,-2854.4699999999998,-689.51999999999998,-8289.1900000000005,1340.5999999999999
174242.0,15154.9,16.685300000000002,-1140.8399999999999,-2120.6599999999999,-468.01600000000002,-8562.5,1369.8599999999999
174243.0,15267.700000000001,-1115.47,-1163.4200000000001,-1203.75,-252.71000000000001,-8701.8199999999997,1383.29
174244.0,15284.6,-2295.6300000000001,-1243.03,-261.12900000000002,-25.186399999999999,-8660.1700000000001,1356.05
174245.0,15196.700000000001,-3364.6399999999999,-1264.3399999999999,775.86800000000005,179.58099999999999,-8422.4599999999991,1312.97
174246.0,15065.0,-4331.1899999999996,-1319.53,1867.0899999999999,351.72699999999998,-8021.8100000000004,1253.3399999999999
174247.0,15008.299999999999,-5083.1899999999996,-1321.3599999999999,3089.1599999999999,490.13799999999998,-7533.6700000000001,1163.9300000000001
174248.0,15043.6,-5595.75,-1353.0699999999999,4427.1899999999996,596.572,-6962.6000000000004,1136.0899999999999
174249.0,15408.5,-5879.0299999999997,-1361.2,6160.2299999999996,656.35000000000002,-6375.54,1036.8499999999999
174250.0,16354.299999999999,-5977.9399999999996,-1318.01,8006.1199999999999,624.69899999999996,-6106.0799999999999,882.26599999999996
174251.0,17947.299999999999,-5770.1899999999996,-1353.3800000000001,10187.299999999999,610.91300000000001,-6177.2700000000004,973.26700000000005
174252.0,19867.400000000001,-5506.96,-1310.8399999999999,13000.200000000001,716.67499999999995,-6035.4799999999996,689.26199999999994
174253.0,21343.299999999999,-5612.6899999999996,-1287.99,15010.200000000001,739.30200000000002,-5742.9700000000003,209.72399999999999
174254.0,15358.6,2564.21,-1111.6600000000001,-3243.1900000000001,-943.88900000000001,-8194.3299999999999,1400.1400000000001
174255.0,15458.299999999999,1456.0799999999999,-1110.71,-2528.6500000000001,-717.43200000000002,-8543.0,1441.01
174256.0,15610.6,237.30000000000001,-1204.51,-1762.98,-478.41000000000003,-8818.7700000000004,1471.3499999999999
174257.0,15713.799999999999,-961.976,-1238.99,-806.04499999999996,-242.30199999999999,-8944.6000000000004,1481.78
174258.0,15710.1,-2167.6100000000001,-1304.76,203.863,6.13415,-8873.2299999999996,1446.9200000000001
174259.0,15595.1,-3296.54,-1346.74,1280.26,219.16200000000001,-8589.4400000000005,1402.5699999999999
174260.0,15503.200000000001,-4243.8299999999999,-1369.3499999999999,2485.6599999999999,396.25599999999997,-8172.4200000000001,1330.3299999999999
174261.0,15483.799999999999,-5052.8699999999999,-1415.1700000000001,3718.3899999999999,552.54200000000003,-7660.3299999999999,1228.8699999999999
174262.0,15549.6,-5535.4200000000001,-1406.3599999999999,5235.2399999999998,611.12300000000005,-7018.1300000000001,1200.3499999999999
174263.0,16150.6,-5815.8599999999997,-1429.21,7062.54,634.93899999999996,-6525.54,1046.0899999999999
174264.0,17287.5,-5914.3199999999997,-1365.0799999999999,8920.0799999999999,625.44799999999998,-6378.0100000000002,890.19399999999996
174265.0,18714.099999999999,-5559.46,-1399.4200000000001,11105.9,598.5,-6334.7399999999998,1007.3099999999999
174266.0,20633.299999999999,-5202.9099999999999,-1319.0699999999999,13948.299999999999,736.70899999999995,-6198.3100000000004,676.71799999999996
174267.0,22375.799999999999,-5588.7200000000003,-1356.76,15981.1,800.85299999999995,-5963.8299999999999,235.53800000000001
174268.0,15846.6,2904.7199999999998,-1185.3800000000001,-2884.21,-987.798,-8461.0,1512.0599999999999
174269.0,15936.200000000001,1792.6099999999999,-1152.6199999999999,-2115.21,-749.65800000000002,-8805.4599999999991,1552.5899999999999
174270.0,16081.299999999999,486.06900000000002,-1292.3499999999999,-1337.4100000000001,-489.27199999999999,-9075.6700000000001,1585.7
174271.0,16161.9,-706.30499999999995,-1288.5599999999999,-277.42599999999999,-229.16800000000001,-9177.6700000000001,1590.49
174272.0,16124.9,-1991.5699999999999,-1402.02,755.01300000000003,36.098599999999998,-9064.7800000000007,1552.04
174273.0,16004.1,-3098.5700000000002,-1402.1900000000001,1959.8199999999999,256.28300000000002,-8742.8600000000006,1498.5
174274.0,15945.700000000001,-4106.6599999999999,-1476.77,3174.04,442.52800000000002,-8305.8400000000001,1406.96
174275.0,15959.4,-4844.8400000000001,-1460.1600000000001,4530.3199999999997,606.54300000000001,-7763.9200000000001,1309.5599999999999
174276.0,16177.200000000001,-5430.1499999999996,-1477.8299999999999,6134.9799999999996,643.71799999999996,-7122.79,1237.02
174277.0,16975.5,-5682.8699999999999,-1438.46,8000.3100000000004,658.51199999999994,-6741.9099999999999,1055.1099999999999
174278.0,18196.299999999999,-5822.9399999999996,-1426.47,9826.6399999999994,690.15300000000002,-6621.4200000000001,950.50099999999998
174279.0,19557.0,-5373.2299999999996,-1421.3099999999999,12134.1,604.947,-6461.7200000000003,1029.6500000000001
174280.0,21477.900000000001,-4938.6599999999999,-1369.5699999999999,14912.799999999999,721.178,-6387.4099999999999,677.21500000000003
174281.0,23416.200000000001,-5418.0799999999999,-1399.3900000000001,17097.599999999999,877.02499999999998,-6142.3100000000004,262.51900000000001
174282.0,16352.9,3393.6999999999998,-1189.6700000000001,-2353.8299999999999,-1030.8699999999999,-8725.7800000000007,1644.3399999999999
174283.0,16439.400000000001,2135.9099999999999,-1266.53,-1659.1099999999999,-781.05200000000002,-9070.2800000000007,1687.9300000000001
174284.0,16552.200000000001,889.572,-1318.1800000000001,-720.23299999999995,-493.63900000000001,-9318.2900000000009,1716.74
174285.0,16594.400000000001,-410.19200000000001,-1407.3699999999999,330.09500000000003,-215.501,-9383.2099999999991,1714.6700000000001
174286.0,16527.599999999999,-1637.45,-1448.51,1523.5599999999999,60.256799999999998,-9225.8199999999997,1670.77
174287.0,16425.0,-2810.3800000000001,-1512.5,2760.9299999999998,292.42500000000001,-8876.1000000000004,1599.7
174288.0,16365.299999999999,-3745.52,-1517.54,4081.4099999999999,493.53300000000002,-8400.3600000000006,1483.98
174289.0,16415.599999999999,-4522.4700000000003,-1571.04,5436.9499999999998,639.64700000000005,-7828.2299999999996,1401.7
174290.0,16868.200000000001,-5066.5299999999997,-1514.9000000000001,7199.75,702.803,-7270.5799999999999,1285.79
174291.0,17833.299999999999,-5420.6199999999999,-1543.8099999999999,8970.0499999999993,742.73900000000003,-6983.8800000000001,1113.1199999999999
174292.0,19042.700000000001,-5417.29,-1450.21,10959.6,790.85500000000002,-6797.9499999999998,1022.99
174293.0,20473.400000000001,-5120.79,-1471.6700000000001,13279.9,648.15099999999995,-6585.6400000000003,1005.85
174294.0,22456.900000000001,-4636.6400000000003,-1370.01,16039.1,706.24599999999998,-6601.0500000000002,701.81200000000001
174295.0,24430.900000000001,-5112.0600000000004,-1459.4200000000001,18301.299999999999,942.54399999999998,-6271.04,271.13900000000001
174296.0,16892.400000000001,3877.8400000000001,-1341.6300000000001,-1816.4400000000001,-1075.1800000000001,-8984.0599999999995,1807.1600000000001
174297.0,16941.099999999999,2730.9899999999998,-1250.25,-900.98500000000001,-808.23199999999997,-9313.0400000000009,1849.47
174298.0,17007.299999999999,1324.8099999999999,-1471.0599999999999,-38.881599999999999,-494.45299999999997,-9525.5,1866.04
174299.0,17005.099999999999,141.55099999999999,-1420.99,1233.6500000000001,-208.995,-9546.2900000000009,1853.6500000000001
174300.0,16931.299999999999,-1196.71,-1580.0899999999999,2423.0100000000002,79.023399999999995,-9350.0100000000002,1802.3099999999999
174301.0,16825.900000000001,-2249.5500000000002,-1557.0799999999999,3839.6900000000001,326.97699999999998,-8957.8899999999994,1704.6099999999999
174302.0,16747.099999999999,-3247.1599999999999,-1649.0999999999999,5088.0100000000002,535.79499999999996,-8437.1700000000001,1563.9200000000001
174303.0,16876.599999999999,-3916.4499999999998,-1598.53,6617.0600000000004,645.58100000000002,-7852.9300000000003,1489.0999999999999
174304.0,17563.099999999999,-4501.9399999999996,-1621.6099999999999,8372.9599999999991,726.36599999999999,-7404.8400000000001,1342.8599999999999
174305.0,18657.299999999999,-4787.8599999999997,-1605.79,10209.700000000001,786.23900000000003,-7179.7399999999998,1192.55
174306.0,19875.599999999999,-4798.1499999999996,-1558.6900000000001,12212.0,824.35900000000004,-6950.2799999999997,1056.0699999999999
174307.0,21490.900000000001,-4684.6400000000003,-1499.9000000000001,14568.799999999999,682.29100000000005,-6787.2399999999998,955.625
174308.0,23578.200000000001,-4335.6400000000003,-1448.04,17272.900000000001,723.79200000000003,-6826.54,748.96500000000003
174309.0,25398.5,-4540.1099999999997,-1452.1900000000001,19672.700000000001,1005.29,-6346.4799999999996,249.434
174310.0,17443.5,4637.2799999999997,-1425.95,-955.41899999999998,-1117.6300000000001,-9205.8099999999995,2013.03
174311.0,17421.799999999999,3439.1599999999999,-1339.46,5.8320299999999996,-836.23900000000003,-9501.3400000000001,2031.28
174312.0,17439.5,2048.1900000000001,-1545.3,964.73900000000003,-512.18200000000002,-9674.6900000000005,2029.48
174313.0,17413.200000000001,837.99800000000005,-1521.0799999999999,2319.9200000000001,-208.36699999999999,-9654.2700000000004,2017.8699999999999
174314.0,17322.099999999999,-455.24700000000001,-1672.23,3655.1500000000001,94.944500000000005,-9404.9300000000003,1940.05
174315.0,17181.799999999999,-1475.0999999999999,-1658.98,5105.1700000000001,343.084,-8954.9400000000005,1802.26
174316.0,17099.799999999999,-2391.0799999999999,-1705.45,6403.0500000000002,549.35599999999999,-8396.5300000000007,1654.6400000000001
174317.0,17404.700000000001,-3109.2399999999998,-1698.8399999999999,7970.8400000000001,640.11699999999996,-7857.4799999999996,1564.54
174318.0,18277.700000000001,-3643.6399999999999,-1665.98,9791.1299999999992,730.01300000000003,-7501.5600000000004,1392.78
174319.0,19415.299999999999,-3932.3699999999999,-1666.4400000000001,11596.799999999999,783.15800000000002,-7286.5699999999997,1255.4400000000001
174320.0,20761.0,-3891.29,-1547.27,13700.0,797.32000000000005,-7116.9200000000001,1072.3199999999999
174321.0,22661.0,-4043.1900000000001,-1532.9400000000001,16022.0,734.63699999999994,-7085.6000000000004,955.649
174322.0,24794.0,-3735.3200000000002,-1474.5999999999999,18834.799999999999,806.49599999999998,-7009.8800000000001,791.673
174323.0,26298.799999999999,-3713.1500000000001,-1486.6500000000001,21122.0,1051.21,-6370.8400000000001,185.17099999999999
174324.0,17974.799999999999,5677.5699999999997,-1514.51,238.04900000000001,-1185.75,-9341.8600000000006,2226.3299999999999
174325.0,17904.099999999999,4446.8000000000002,-1393.1700000000001,1251.53,-890.18799999999999,-9621.2999999999993,2222.3899999999999
174326.0,17881.799999999999,3002.2800000000002,-1652.0899999999999,2245.0700000000002,-555.52999999999997,-9752.4699999999993,2220.21
174327.0,17833.0,1888.7,-1586.97,3801.7399999999998,-222.833,-9678.5,2195.27
174328.0,17713.0,621.18200000000002,-1767.3599999999999,5213.7399999999998,104.378,-9362.1299999999992,2081.8200000000002
174329.0,17516.599999999999,-302.553,-1685.71,6711.71,361.90800000000002,-8843.2399999999998,1916.1700000000001
174330.0,17498.599999999999,-1171.5999999999999,-1719.6199999999999,8025.0900000000001,560.69600000000003,-8286.2399999999998,1765.5999999999999
174331.0,18058.299999999999,-1848.3399999999999,-1688.47,9724.5599999999995,649.85400000000004,-7846.2600000000002,1636.52
174332.0,18987.799999999999,-2478.25,-1794.1300000000001,11392.4,741.572,-7510.3599999999997,1448.71
174333.0,20093.400000000001,-2618.9499999999998,-1704.6800000000001,13240.1,790.72900000000004,-7277.3900000000003,1309.0999999999999
174334.0,21710.700000000001,-2730.9200000000001,-1646.8299999999999,15298.799999999999,803.41399999999999,-7277.3699999999999,1130.71
174335.0,23944.5,-2915.4499999999998,-1577.78,17828.5,848.37,-7384.5500000000002,1038.1500000000001
174336.0,26003.700000000001,-2695.5999999999999,-1584.7,20651.400000000001,931.76800000000003,-7105.2299999999996,764.26700000000005
174337.0,27140.799999999999,-2496.9699999999998,-1466.9000000000001,22724.700000000001,1031.8699999999999,-6382.2600000000002,72.744600000000005
174338.0,18550.099999999999,7107.6899999999996,-1524.8499999999999,1884.72,-1293.3,-9384.5699999999997,2460.7600000000002
174339.0,18440.599999999999,5673.6300000000001,-1569.5899999999999,2793.4400000000001,-975.01700000000005,-9646.4899999999998,2459.0
174340.0,18372.200000000001,4444.2200000000003,-1647.75,4082.1900000000001,-604.86300000000006,-9714.3999999999996,2469.3600000000001
174341.0,18290.599999999999,3295.3800000000001,-1740.9400000000001,5623.8299999999999,-220.77099999999999,-9574.1800000000003,2372.9499999999998
174342.0,18167.700000000001,2231.75,-1723.24,7240.0200000000004,77.986099999999993,-9209.9899999999998,2239.29
174343.0,17920.299999999999,1412.5999999999999,-1429.29,8806.1900000000005,388.38499999999999,-8646.5900000000001,2052.6500000000001
174344.0,18061.200000000001,637.71100000000001,-1441.6700000000001,10243.1,545.92899999999997,-8139.3100000000004,1826.28
174345.0,18813.400000000001,-293.44099999999997,-1792.04,11699.1,577.18100000000004,-7753.8000000000002,1687.3699999999999
174346.0,19699.099999999999,-748.08500000000004,-1793.49,13416.799999999999,692.14099999999996,-7383.1899999999996,1476.3699999999999
174347.0,20815.099999999999,-906.721,-1749.52,15159.4,683.68200000000002,-7172.75,1310.23
174348.0,22725.700000000001,-951.16499999999996,-1640.6900000000001,17329.700000000001,718.65899999999999,-7375.8199999999997,1215.05
174349.0,25209.599999999999,-1137.97,-1705.1199999999999,19976.400000000001,879.30399999999997,-7557.2200000000003,1119.4400000000001
174350.0,27124.599999999999,-933.81299999999999,-1603.3699999999999,22791.700000000001,953.12,-7131.5699999999997,634.09500000000003
174351.0,28028.799999999999,-1047.8499999999999,-1504.1099999999999,24377.400000000001,933.10900000000004,-6448.4300000000003,-47.307899999999997
174352.0,19310.0,8931.1200000000008,-1568.2,4004.9000000000001,-1412.3299999999999,-9322.3899999999994,2792.3400000000001
174353.0,19149.700000000001,7542.7700000000004,-1482.8199999999999,5124.1599999999999,-1046.05,-9556.2900000000009,2827.2399999999998
174354.0,18927.599999999999,6435.5600000000004,-1543.51,6521.4399999999996,-619.86699999999996,-9493.0,2731.9400000000001
174355.0,18881.400000000001,5427.3599999999997,-1692.0999999999999,8090.1199999999999,-261.255,-9321.9599999999991,2508.0100000000002
174356.0,18764.900000000001,4365.1700000000001,-1580.3900000000001,9663.5499999999993,-17.814900000000002,-8939.3899999999994,2412.2600000000002
174357.0,18500.900000000001,3835.23,-868.27599999999995,11550.799999999999,331.74000000000001,-8375.4400000000005,2126.4299999999998
174358.0,18867.599999999999,2698.0900000000001,-1394.4000000000001,12702.1,460.99200000000002,-7904.3999999999996,1838.5799999999999
174359.0,19674.799999999999,1904.2,-1805.3,14111.9,494.84699999999998,-7504.4700000000003,1764.3499999999999
174360.0,20561.400000000001,1504.46,-1761.6900000000001,15791.200000000001,644.55700000000002,-7153.4300000000003,1479.55
174361.0,21780.5,1179.6099999999999,-1757.45,17429.5,563.48000000000002,-7028.3100000000004,1269.25
174362.0,23818.0,1205.05,-1725.8299999999999,19547.799999999999,555.33699999999999,-7363.1199999999999,1280.7
174363.0,26356.200000000001,1313.28,-1706.9400000000001,22423.799999999999,750.07799999999997,-7542.5,1119.4100000000001
174364.0,28178.200000000001,1228.27,-1639.3399999999999,24955.900000000001,835.20299999999997,-7117.8100000000004,470.846
174365.0,29106.700000000001,809.23099999999999,-1427.6600000000001,26381.299999999999,803.39800000000002,-6559.6599999999999,-114.38500000000001
174366.0,20403.799999999999,11316.799999999999,-1719.5699999999999,6864.5600000000004,-1592.0799999999999,-9076.6599999999999,3153.0100000000002
174367.0,20084.299999999999,10098.5,-1227.7,8264.4099999999999,-1230.1199999999999,-9256.2800000000007,3211.0100000000002
174368.0,19646.0,9484.6700000000001,-785.88,10012.799999999999,-589.20399999999995,-9076.0400000000009,2978.5599999999999
174369.0,19773.599999999999,8158.1300000000001,-1581.8499999999999,11020.5,-271.44999999999999,-8919.6399999999994,2655.5799999999999
174370.0,19635.0,7298.7200000000003,-1195.6900000000001,12756.799999999999,-202.90600000000001,-8520.5699999999997,2536.48
174371.0,19472.200000000001,6561.1899999999996,-750.61099999999999,14493.1,172.31999999999999,-7976.8000000000002,2146.0599999999999
174372.0,20015.5,5480.2600000000002,-1266.4100000000001,15719.200000000001,336.959,-7527.1300000000001,1904.01
174373.0,20742.700000000001,4861.96,-1553.46,17089.900000000001,384.69299999999998,-7093.2600000000002,1802.3299999999999
174374.0,21741.599999999999,4544.25,-1604.25,18722.599999999999,501.04899999999998,-6820.0600000000004,1460.75
174375.0,23100.400000000001,3975.2800000000002,-1765.1700000000001,20144.5,446.76400000000001,-6864.9700000000003,1215.25
174376.0,25051.799999999999,4119.2200000000003,-1660.73,22227.400000000001,364.67500000000001,-7220.1599999999999,1267.8299999999999
174377.0,27410.299999999999,4269.8199999999997,-1748.98,24911.0,515.07299999999998,-7318.8699999999999,1050.3399999999999
174378.0,29288.299999999999,4021.3099999999999,-1597.4000000000001,27355.400000000001,671.27099999999996,-7045.4399999999996,353.94200000000001
174379.0,30467.900000000001,3117.23,-1426.2,28749.799999999999,706.83900000000006,-6648.7700000000004,-122.58799999999999
174380.0,21973.400000000001,14365.6,-1886.6800000000001,10532.9,-1960.4000000000001,-8546.9799999999996,3445.4200000000001
174381.0,21358.0,13611.299999999999,-591.75800000000004,12283.299999999999,-1500.1199999999999,-8701.7700000000004,3541.3600000000001
174382.0,20702.0,13437.4,512.91399999999999,14351.6,-676.83000000000004,-8511.0,3172.4000000000001
174383.0,21035.400000000001,12126.6,-522.54100000000005,15187.6,-298.83800000000002,-8390.7600000000002,2763.6500000000001
174384.0,21034.299999999999,10705.1,-956.30100000000004,16293.799999999999,-373.35700000000003,-7948.0500000000002,2589.5
174385.0,21035.200000000001,9910.4699999999993,-761.56200000000001,17913.200000000001,-82.187799999999996,-7417.7299999999996,2164.3000000000002
174386.0,21572.0,8918.7900000000009,-1130.51,19128.0,47.146599999999999,-6986.3900000000003,1923.8399999999999
174387.0,22214.400000000001,8485.7600000000002,-1141.53,20591.799999999999,71.030000000000001,-6555.3000000000002,1708.3699999999999
174388.0,23297.700000000001,8075.1599999999999,-1308.23,22013.299999999999,126.496,-6428.8500000000004,1370.9400000000001
174389.0,24767.599999999999,7557.6899999999996,-1486.5799999999999,23409.5,157.40899999999999,-6658.9300000000003,1138.25
174390.0,26559.900000000001,7553.0600000000004,-1703.77,25159.900000000001,121.691,-6891.8999999999996,1185.97
174391.0,28588.700000000001,8053.0900000000001,-1566.77,27770.200000000001,254.87,-6913.4099999999999,957.93200000000002
174392.0,30647.400000000001,7571.3500000000004,-1513.3599999999999,30111.099999999999,491.762,-6902.71,289.82799999999997
174393.0,32193.099999999999,6353.1999999999998,-1372.8499999999999,31788.700000000001,594.51800000000003,-6636.3699999999999,-116.25
174394.0,24285.599999999999,18250.299999999999,-2021.8900000000001,14995.299999999999,-2443.4099999999999,-7583.8100000000004,3819.6300000000001
174395.0,23168.599999999999,18094.900000000001,279.36700000000002,17030.099999999999,-1831.6700000000001,-7847.2799999999997,3760.4099999999999
174396.0,22413.799999999999,18134.700000000001,1863.78,19306.200000000001,-979.82600000000002,-7806.0200000000004,3241.4499999999998
174397.0,22802.599999999999,16558.599999999999,615.40499999999997,19977.200000000001,-581.92600000000004,-7650.2200000000003,2768.1999999999998
174398.0,23104.599999999999,14905.5,-521.02700000000004,20629.799999999999,-605.95100000000002,-7175.8199999999997,2529.1399999999999
174399.0,23295.200000000001,13881.0,-894.17399999999998,21709.099999999999,-478.666,-6666.4200000000001,2114.2199999999998
174400.0,23741.799999999999,13107.700000000001,-1059.02,22914.299999999999,-394.57900000000001,-6240.7700000000004,1876.96
174401.0,24338.099999999999,12664.4,-927.22299999999996,24292.5,-306.01299999999998,-5955.9399999999996,1597.26
174402.0,25414.099999999999,12277.0,-903.54600000000005,25726.900000000001,-239.345,-6023.9099999999999,1282.98
174403.0,26912.5,11748.799999999999,-1359.5799999999999,26990.400000000001,-139.977,-6239.5299999999997,1080.1500000000001
174404.0,28471.700000000001,11949.6,-1532.6199999999999,28697.900000000001,-205.77699999999999,-6308.4899999999998,1006.6799999999999
174405.0,30148.5,12504.6,-1184.5599999999999,31019.299999999999,-234.94399999999999,-6410.9700000000003,780.19500000000005
174406.0,32418.0,11960.200000000001,-1249.1900000000001,33412.0,57.329700000000003,-6651.3599999999997,233.52199999999999
174407.0,34349.099999999999,10595.1,-1363.3299999999999,35390.300000000003,342.85599999999999,-6458.9399999999996,-110.764
174408.0,27226.099999999999,23981.700000000001,-633.39499999999998,20937.099999999999,-2640.5700000000002,-6399.75,4368.1599999999999
174409.0,25825.5,23770.799999999999,1543.3199999999999,22741.099999999999,-2119.98,-6756.9399999999996,3841.4299999999998
174410.0,25250.900000000001,22937.200000000001,2207.6900000000001,24319.0,-1535.6700000000001,-6840.2399999999998,3157.1700000000001
174411.0,25530.400000000001,21485.099999999999,1323.4200000000001,25194.0,-1158.71,-6581.5200000000004,2756.7399999999998
174412.0,25955.599999999999,19918.900000000001,18.262499999999999,25575.0,-938.91300000000001,-6146.5699999999997,2388.8499999999999
174413.0,26317.799999999999,18730.200000000001,-807.83199999999999,26098.0,-899.99300000000005,-5716.7399999999998,2015.1800000000001
174414.0,26616.799999999999,18066.099999999999,-838.35900000000004,27119.799999999999,-888.16300000000001,-5346.1700000000001,1811.3800000000001
174415.0,27254.5,17919.599999999999,-471.53500000000003,28640.5,-748.61500000000001,-5277.8400000000001,1551.1300000000001
174416.0,28492.299999999999,17471.799999999999,-750.78300000000002,29968.0,-555.721,-5482.0600000000004,1263.9000000000001
174417.0,29805.0,17235.299999999999,-1019.11,31385.200000000001,-438.23500000000001,-5576.4799999999996,954.495
174418.0,30891.799999999999,17266.200000000001,-1059.3900000000001,32720.799999999999,-614.95500000000004,-5592.6300000000001,694.77099999999996
174419.0,32412.200000000001,17511.799999999999,-822.63199999999995,34656.0,-771.85699999999997,-5871.8599999999997,554.57500000000005
174420.0,34807.900000000001,17059.099999999999,-1046.8,37161.099999999999,-441.46600000000001,-6191.25,212.66499999999999
174421.0,37012.099999999999,16166.4,-1151.79,39702.099999999999,-59.729100000000003,-6010.8999999999996,-130.571
174422.0,30605.799999999999,31559.099999999999,2424.46,28788.0,-2977.8600000000001,-5125.3999999999996,4302.5
174423.0,29573.200000000001,29861.400000000001,2558.3200000000002,29022.299999999999,-2528.6300000000001,-5510.2799999999997,3699.0500000000002
174424.0,29400.200000000001,28272.299999999999,2038.24,29743.200000000001,-2099.8200000000002,-5544.2700000000004,3159.7800000000002
174425.0,29376.5,27047.599999999999,1707.27,30688.200000000001,-1757.4000000000001,-5262.0799999999999,2769.1700000000001
174426.0,29621.5,25907.5,896.875,31166.299999999999,-1386.77,-4910.0900000000001,2207.6999999999998
174427.0,30042.099999999999,24521.099999999999,-252.53700000000001,31184.0,-1407.3800000000001,-4583.21,1859.97
174428.0,30301.700000000001,23982.5,-257.89600000000002,32037.400000000001,-1508.6800000000001,-4294.5600000000004,1663.77
174429.0,31150.799999999999,23849.099999999999,-213.69300000000001,33393.900000000001,-1466.72,-4382.0699999999997,1473.73
174430.0,32509.700000000001,23886.5,-370.637,35034.599999999999,-1264.4300000000001,-4659.5299999999997,1131.2
174431.0,33440.0,23639.400000000001,-556.88499999999999,36155.400000000001,-1149.02,-4762.5100000000002,652.54100000000005
174432.0,34115.599999999999,23502.799999999999,-327.72699999999998,37307.5,-1268.4000000000001,-4871.8100000000004,367.70999999999998
174433.0,35622.699999999997,23292.799999999999,-457.17700000000002,38931.800000000003,-1333.3399999999999,-5268.7399999999998,314.95299999999997
174434.0,38020.5,23229.700000000001,-615.48800000000006,41730.199999999997,-1039.3099999999999,-5485.1800000000003,123.11799999999999
174435.0,40296.099999999999,23238.799999999999,-495.17599999999999,44816.900000000001,-563.58199999999999,-5219.9799999999996,-94.938699999999997
174436.0,35417.099999999999,38918.400000000001,4279.9499999999998,36935.699999999997,-3549.9699999999998,-3368.5,3977.0599999999999
174437.0,34762.699999999997,36462.099999999999,3055.6500000000001,35894.300000000003,-3179.0999999999999,-3906.1199999999999,3415.75
174438.0,34438.199999999997,34673.5,2491.02,36087.599999999999,-2920.1100000000001,-4041.8000000000002,3064.6900000000001
174439.0,34039.699999999997,33610.599999999999,2536.3499999999999,36891.199999999997,-2506.3600000000001,-3748.3600000000001,2542.48
174440.0,34205.0,32475.5,1651.49,36950.0,-2216.9000000000001,-3481.02,1899.27
174441.0,34561.5,31225.299999999999,677.76300000000003,36925.099999999999,-2225.7600000000002,-3265.9699999999998,1620.49
174442.0,34910.599999999999,30671.200000000001,481.16800000000001,37584.599999999999,-2257.8000000000002,-3117.3800000000001,1455.25
174443.0,35873.400000000001,30711.400000000001,446.27199999999999,38965.400000000001,-2290.5900000000001,-3293.52,1251.9000000000001
174444.0,37022.300000000003,30782.599999999999,210.791,40298.5,-2231.5799999999999,-3548.29,781.12300000000005
174445.0,37698.199999999997,30695.900000000001,144.93199999999999,41193.400000000001,-2180.0100000000002,-3756.0,320.11700000000002
174446.0,38476.5,30295.799999999999,58.627400000000002,42211.5,-2135.5100000000002,-4087.1599999999999,161.76300000000001
174447.0,40043.0,30253.900000000001,-76.663399999999996,44109.099999999999,-1987.0999999999999,-4451.1999999999998,43.474800000000002
174448.0,42355.900000000001,30394.5,-489.99200000000002,46722.400000000001,-1754.5899999999999,-4472.3999999999996,-132.661
174449.0,44304.5,32041.799999999999,1016.14,50913.699999999997,-1446.3199999999999,-4177.7600000000002,-29.136299999999999
174450.0,41116.900000000001,47725.199999999997,7219.2200000000003,46381.199999999997,-4026.1700000000001,-1240.1600000000001,4051.8600000000001
174451.0,40853.0,44168.300000000003,3948.1199999999999,43448.699999999997,-3446.6799999999998,-2137.4099999999999,3182.3699999999999
174452.0,40433.800000000003,41562.099999999999,2825.23,42747.699999999997,-3939.6199999999999,-2258.3400000000001,2895.4699999999998
174453.0,39674.199999999997,40748.5,3101.8299999999999,43214.599999999999,-3328.9000000000001,-1893.6800000000001,2148.1100000000001
174454.0,40012.900000000001,39607.800000000003,1899.95,42812.800000000003,-3192.6900000000001,-1802.3199999999999,1602.27
174455.0,40295.300000000003,38489.900000000001,1075.3599999999999,42767.900000000001,-3206.9699999999998,-1702.03,1409.6199999999999
174456.0,40816.0,38353.099999999999,1026.95,43714.900000000001,-3160.1900000000001,-1759.72,1234.26
174457.0,41636.099999999999,38435.300000000003,872.00699999999995,44813.199999999997,-3077.6300000000001,-1948.02,914.70899999999995
174458.0,42356.099999999999,38638.599999999999,850.26700000000005,45849.0,-2995.77,-2183.04,365.85599999999999
174459.0,42899.0,38365.400000000001,645.38599999999997,46464.5,-3016.0100000000002,-2523.3000000000002,121.26000000000001
174460.0,44199.699999999997,38378.699999999997,403.495,48021.300000000003,-2878.4099999999999,-3026.4000000000001,43.687899999999999
174461.0,45917.900000000001,38603.599999999999,68.230099999999993,50022.699999999997,-2627.5599999999999,-3267.02,-320.17399999999998
174462.0,47759.400000000001,39323.099999999999,172.78,52581.699999999997,-2643.9699999999998,-3227.8099999999999,-607.89200000000005
174463.0,49216.199999999997,41676.599999999999,2522.2399999999998,57004.400000000001,-2919.6199999999999,-3071.21,-263.73399999999998
174464.0,47121.199999999997,57628.199999999997,11069.200000000001,56428.800000000003,-4867.1000000000004,826.57899999999995,3364.29
174465.0,47164.5,52706.099999999999,6046.3699999999999,52097.800000000003,-4360.9700000000003,-347.416,2446.7600000000002
174466.0,46843.0,49409.5,3990.1700000000001,50219.199999999997,-4942.3299999999999,-231.38999999999999,2612.3899999999999
174467.0,45960.599999999999,49163.699999999997,4532.4499999999998,50437.5,-4208.6899999999996,119.056,1709.6300000000001
174468.0,46495.599999999999,47608.0,2702.4899999999998,49461.800000000003,-4223.71,29.060099999999998,1308.1199999999999
174469.0,47006.5,46967.199999999997,2013.02,49665.199999999997,-4330.3299999999999,54.760300000000001,1140.25
174470.0,47874.599999999999,46939.400000000001,1510.3299999999999,50382.699999999997,-4381.3699999999999,-61.721600000000002,874.64499999999998
174471.0,48495.400000000001,47551.300000000003,1662.28,51362.900000000001,-4317.25,-216.85499999999999,410.25299999999999
174472.0,49004.300000000003,47690.699999999997,1517.3299999999999,51955.300000000003,-4219.5600000000004,-555.69500000000005,-10.778600000000001
174473.0,49764.699999999997,47713.0,1343.52,52976.900000000001,-4140.3100000000004,-1028.51,-44.844499999999996
174474.0,51357.199999999997,47979.400000000001,921.35900000000004,54801.900000000001,-4000.3499999999999,-1549.22,-312.83800000000002
174475.0,52706.900000000001,48510.5,966.90099999999995,56719.0,-3986.4499999999998,-1766.4100000000001,-991.20100000000002
174476.0,53758.099999999999,48820.199999999997,1117.8,58254.400000000001,-4420.5299999999997,-1897.73,-1408.21
174477.0,54760.599999999999,50658.5,3259.0900000000001,61903.599999999999,-5096.5900000000001,-2023.45,-884.67899999999997
174478.0,54740.699999999997,65922.5,11940.799999999999,64631.900000000001,-6048.0699999999997,2998.5599999999999,2145.6700000000001
174479.0,54515.800000000003,60507.599999999999,6856.0,59888.800000000003,-5869.2700000000004,1921.3699999999999,1989.23
174480.0,53501.300000000003,58597.800000000003,6342.1400000000003,58666.099999999999,-5838.8199999999997,2001.77,2149.7800000000002
174481.0,52801.400000000001,57954.699999999997,6147.9099999999999,58014.300000000003,-5232.8199999999997,2173.5999999999999,1241.79
174482.0,53659.199999999997,56529.5,4148.6800000000003,57140.0,-5411.6999999999998,2084.0999999999999,879.255
174483.0,54625.0,55721.699999999997,2729.6100000000001,56902.400000000001,-5694.9399999999996,2094.5100000000002,659.625
174484.0,55432.599999999999,56026.900000000001,2362.1300000000001,57411.800000000003,-5888.4300000000003,2040.6099999999999,186.846
174485.0,55821.900000000001,56435.900000000001,2301.2600000000002,57604.0,-6059.3400000000001,1874.96,-279.0
174486.0,56524.599999999999,56909.900000000001,2183.5900000000001,58357.5,-6121.5699999999997,1413.53,-329.952
174487.0,57668.099999999999,57488.599999999999,2080.5100000000002,60012.199999999997,-5971.1400000000003,795.26199999999994,-406.81599999999997
174488.0,58771.400000000001,58006.199999999997,2131.3400000000001,61773.400000000001,-5866.6000000000004,241.143,-1151.3699999999999
174489.0,59095.199999999997,57709.199999999997,2123.5700000000002,62323.099999999999,-6132.5100000000002,-84.090500000000006,-1989.73
174490.0,59282.599999999999,57026.300000000003,2002.3900000000001,62548.900000000001,-6708.7299999999996,-519.66099999999994,-2351.5700000000002
174491.0,59545.800000000003,57424.199999999997,3384.5,64660.699999999997,-7520.2200000000003,-1073.4100000000001,-1718.98
174492.0,62693.099999999999,73812.699999999997,12425.799999999999,72323.800000000003,-7309.25,5293.1899999999996,1520.22
174493.0,62091.099999999999,69793.699999999997,8924.9899999999998,68549.199999999997,-7292.6999999999998,4380.5500000000002,1569.0899999999999
174494.0,61109.099999999999,68379.899999999994,8634.75,67377.300000000003,-7315.1800000000003,4415.0200000000004,1254.8499999999999
174495.0,60970.599999999999,67401.199999999997,7724.6899999999996,66416.199999999997,-7117.2700000000004,4525.6700000000001,417.72199999999998
174496.0,62141.599999999999,65818.100000000006,5176.96,65145.900000000001,-7374.3100000000004,4521.5100000000002,146.56999999999999
174497.0,63109.0,65449.099999999999,3906.6199999999999,64857.900000000001,-7564.7299999999996,4456.75,-123.261
174498.0,63299.599999999999,65560.399999999994,3702.1199999999999,64695.400000000001,-7619.6000000000004,4376.7700000000004,-710.23000000000002
174499.0,63370.699999999997,65654.5,3638.4299999999998,64519.199999999997,-7821.0200000000004,4185.7299999999996,-985.32399999999996
174500.0,64135.5,66028.100000000006,3436.3699999999999,65299.5,-8137.46,3644.6700000000001,-857.36199999999997
174501.0,64999.199999999997,66875.199999999997,3782.8400000000001,67039.899999999994,-8246.6299999999992,2889.0799999999999,-1261.6199999999999
174502.0,65067.900000000001,66629.699999999997,3788.8499999999999,67374.300000000003,-8283.1900000000005,2215.9200000000001,-2376.5700000000002
174503.0,64259.0,64836.400000000001,3228.1300000000001,65959.100000000006,-8652.1299999999992,1706.45,-3157.4299999999998
174504.0,63424.199999999997,62202.599999999999,2171.29,64115.599999999999,-9355.6599999999999,890.21100000000001,-3435.7399999999998
174505.0,62801.599999999999,60576.599999999999,2374.79,64011.300000000003,-10348.4,-115.849,-2803.5500000000002
174506.0,69560.600000000006,81806.399999999994,14201.299999999999,79851.699999999997,-8674.0400000000009,7501.9099999999999,815.11500000000001
174507.0,70125.100000000006,79008.0,10616.700000000001,76943.399999999994,-8751.4500000000007,6988.8400000000001,516.46900000000005
174508.0,70523.100000000006,77553.899999999994,8911.3600000000006,75350.100000000006,-9196.0599999999995,7173.0799999999999,144.18899999999999
174509.0,71138.600000000006,76051.0,6822.8900000000003,73692.300000000003,-9329.2900000000009,7395.8400000000001,-480.54700000000003
174510.0,72034.800000000003,75098.5,4965.3400000000001,72570.300000000003,-9604.9099999999999,7372.04,-700.54899999999998
174511.0,72365.300000000003,74937.399999999994,4214.2299999999996,71899.800000000003,-9737.5699999999997,7130.3000000000002,-1093.1199999999999
174512.0,72118.0,74982.399999999994,4247.6800000000003,71473.399999999994,-9723.6200000000008,6899.6099999999997,-1531.71
174513.0,72060.100000000006,74797.100000000006,4075.9400000000001,71300.399999999994,-9800.0400000000009,6576.1599999999999,-1670.75
174514.0,72316.600000000006,74944.800000000003,4110.4700000000003,71835.0,-10102.299999999999,5940.8199999999997,-1892.8900000000001
174515.0,72003.399999999994,74540.899999999994,4185.9899999999998,71630.300000000003,-10490.6,5113.3900000000003,-2730.9400000000001
174516.0,70794.600000000006,72484.5,3581.5900000000001,69614.699999999997,-10878.5,4255.4399999999996,-3847.8600000000001
174517.0,68736.5,68239.0,1859.46,65657.100000000006,-11369.299999999999,3442.4099999999999,-4466.1000000000004
174518.0,66595.0,63352.0,-209.84800000000001,61403.0,-11987.200000000001,2294.5300000000002,-4760.8999999999996
174519.0,64752.699999999997,58814.699999999997,-2015.55,57934.699999999997,-12851.700000000001,980.43700000000001,-3956.5500000000002
174520.0,7129.3199999999997,3842.8600000000001,132.465,-2666.6399999999999,-711.125,2082.54,-1198.8199999999999
174521.0,6610.2700000000004,3479.21,-1.27915,-2940.71,-692.77599999999995,1661.1199999999999,-998.84400000000005
174522.0,5911.0900000000001,3048.4899999999998,-32.448099999999997,-3003.8099999999999,-644.29499999999996,1192.4100000000001,-807.13499999999999
174523.0,5695.4799999999996,2669.0999999999999,-204.167,-3481.25,-575.37900000000002,727.29499999999996,-694.64499999999998
174524.0,5806.8599999999997,2499.3600000000001,-173.137,-3893.5700000000002,-598.16099999999994,298.012,-695.96600000000001
174525.0,6122.8299999999999,2347.5799999999999,-197.71600000000001,-4398.1099999999997,-622.48800000000006,-76.613600000000005,-706.12099999999998
174526.0,6411.9200000000001,2155.6700000000001,-191.56,-4817.4700000000003,-624.12300000000005,-544.83900000000006,-654.96600000000001
174527.0,6546.5900000000001,1882.04,-157.548,-5008.4700000000003,-596.96299999999997,-1034.0799999999999,-576.06299999999999
174528.0,6689.6899999999996,1531.47,-163.82400000000001,-5141.6700000000001,-574.30399999999997,-1512.23,-519.64099999999996
174529.0,6895.1700000000001,1212.3099999999999,-151.81899999999999,-5211.7799999999997,-573.51700000000005,-1956.3099999999999,-486.029
174530.0,7114.3000000000002,868.07600000000002,-153.774,-5211.4799999999996,-561.51800000000003,-2401.5300000000002,-436.87599999999998
174531.0,7230.3999999999996,428.673,-158.91399999999999,-5120.2200000000003,-529.53599999999994,-2775.1500000000001,-390.75200000000001
174532.0,7342.2700000000004,-11.601000000000001,-160.096,-5035.0900000000001,-497.13400000000001,-3069.6100000000001,-359.84300000000002
174533.0,7500.8800000000001,-550.33299999999997,-235.31700000000001,-4997.6599999999999,-462.80099999999999,-3369.6500000000001,-304.50299999999999
174534.0,7174.7600000000002,3852.0700000000002,-58.429699999999997,-2622.4099999999999,-865.42399999999998,2182.5999999999999,-1007.74
174535.0,6839.1800000000003,3839.77,9.2830499999999994,-2779.4000000000001,-816.82799999999997,1746.9300000000001,-910.31500000000005
174536.0,6303.0699999999997,3510.6300000000001,27.529,-2901.9699999999998,-755.79300000000001,1278.77,-854.71199999999999
174537.0,6173.6599999999999,3323.7199999999998,22.267399999999999,-3293.1599999999999,-661.80100000000004,826.62800000000004,-798.48800000000006
174538.0,6315.8299999999999,3082.04,19.191700000000001,-3858.8200000000002,-665.15899999999999,358.02100000000002,-791.65200000000004
174539.0,6554.8500000000004,2869.8099999999999,39.025399999999998,-4358.8199999999997,-688.66300000000001,-85.4679,-756.67499999999995
174540.0,6684.9799999999996,2542.3299999999999,6.2463699999999998,-4727.04,-658.37400000000002,-623.04999999999995,-679.322
174541.0,6647.2600000000002,2114.9000000000001,-1.1194500000000001,-4856.1700000000001,-611.93499999999995,-1093.1300000000001,-620.59699999999998
174542.0,6760.25,1711.1500000000001,-25.149699999999999,-5007.25,-587.54100000000005,-1548.5999999999999,-572.80200000000002
174543.0,7015.6700000000001,1404.0699999999999,-3.14377,-5128.1899999999996,-591.90800000000002,-1988.24,-532.55100000000004
174544.0,7290.4399999999996,1050.73,-12.867599999999999,-5175.3299999999999,-586.11400000000003,-2460.1900000000001,-479.31799999999998
174545.0,7482.6000000000004,642.69799999999998,12.3561,-5089.1800000000003,-563.76999999999998,-2875.0900000000001,-446.661
174546.0,7615.0,125.61499999999999,-38.553100000000001,-5067.5799999999999,-533.59100000000001,-3186.6999999999998,-418.38999999999999
174547.0,7750.9200000000001,-411.83100000000002,-68.744500000000002,-4966.6099999999997,-502.73599999999999,-3488.1500000000001,-360.82299999999998
174548.0,7324.7399999999998,4102.5799999999999,5.4778399999999996,-2457.7199999999998,-936.75400000000002,2226.4200000000001,-1033.23
174549.0,7096.1300000000001,4111.2299999999996,7.70702,-2723.1399999999999,-910.43799999999999,1808.1300000000001,-923.38499999999999
174550.0,6746.9799999999996,3823.1999999999998,-37.776200000000003,-3022.3400000000001,-865.48299999999995,1375.53,-867.99800000000005
174551.0,6587.6000000000004,3586.4299999999998,-94.870199999999997,-3444.9899999999998,-766.69500000000005,933.16200000000003,-798.44899999999996
174552.0,6758.0,3384.5599999999999,-118.85899999999999,-4049.04,-777.87599999999998,431.59899999999999,-776.13300000000004
174553.0,6868.0600000000004,3148.6500000000001,-83.565299999999993,-4467.0500000000002,-781.15700000000004,-64.386799999999994,-706.31299999999999
174554.0,6790.75,2677.54,-128.655,-4766.2299999999996,-679.55999999999995,-634.82500000000005,-612.149
174555.0,6671.3599999999997,2132.21,-112.52500000000001,-4907.1800000000003,-615.23500000000001,-1093.01,-576.55399999999997
174556.0,6759.1999999999998,1699.5899999999999,-115.28400000000001,-5061.04,-586.654,-1536.72,-529.03300000000002
174557.0,7046.21,1400.6600000000001,-96.071799999999996,-5208.7799999999997,-601.27599999999995,-1986.04,-482.75099999999998
174558.0,7368.96,1075.74,-95.9589,-5275.3000000000002,-594.14800000000002,-2477.54,-432.35899999999998
174559.0,7626.1999999999998,655.93200000000002,-89.984200000000001,-5238.3800000000001,-573.17899999999997,-2932.2399999999998,-398.62
174560.0,7775.5699999999997,147.678,-124.38,-5196.1599999999999,-539.39200000000005,-3266.8299999999999,-362.089
174561.0,7866.9399999999996,-449.50700000000001,-178.98500000000001,-5091.9499999999998,-494.084,-3559.5100000000002,-297.0
174562.0,7455.3599999999997,4347.9700000000003,-9.8649000000000004,-2297.4699999999998,-1041.1099999999999,2258.6500000000001,-971.83399999999995
174563.0,7301.6700000000001,4481.0500000000002,92.406800000000004,-2520.1300000000001,-1031.8099999999999,1850.3199999999999,-875.29899999999998
174564.0,7150.5200000000004,4293.5900000000001,34.421799999999998,-2953.5999999999999,-988.09000000000003,1439.8900000000001,-853.58699999999999
174565.0,7040.46,4085.0,12.2165,-3399.8800000000001,-867.93499999999995,1014.8099999999999,-835.053
174566.0,7259.1300000000001,3859.1300000000001,-57.625999999999998,-4113.0200000000004,-877.00599999999997,474.774,-824.649
174567.0,7241.3100000000004,3553.8899999999999,-32.886299999999999,-4475.8100000000004,-852.47799999999995,-70.863399999999999,-753.01300000000003
174568.0,6936.3500000000004,2921.1799999999998,-97.852699999999999,-4706.7200000000003,-695.17600000000004,-617.81600000000003,-644.851
174569.0,6745.4700000000003,2284.3200000000002,-78.700999999999993,-4870.5799999999999,-626.70699999999999,-1074.5599999999999,-574.39300000000003
174570.0,6799.21,1821.02,-76.298900000000003,-5020.4799999999996,-590.471,-1523.6300000000001,-514.30899999999997
174571.0,7100.5900000000001,1510.1700000000001,-58.545900000000003,-5181.6700000000001,-613.61300000000006,-1991.28,-465.20999999999998
174572.0,7473.3400000000001,1209.3099999999999,-47.567599999999999,-5273.5299999999997,-610.21000000000004,-2500.9499999999998,-412.57499999999999
174573.0,7807.0600000000004,783.97699999999998,-54.208599999999997,-5287.9099999999999,-588.42100000000005,-3000.2800000000002,-376.56999999999999
174574.0,7981.0299999999997,240.58600000000001,-108.59099999999999,-5260.6599999999999,-556.125,-3364.3200000000002,-340.77199999999999
174575.0,8015.9200000000001,-373.16699999999997,-144.60400000000001,-5102.04,-498.61099999999999,-3641.7600000000002,-274.82600000000002
174576.0,7660.4200000000001,4691.6300000000001,18.9192,-2115.98,-1145.97,2292.8000000000002,-931.61000000000001
174577.0,7531.4499999999998,4726.1599999999999,13.6126,-2468.9499999999998,-1137.3099999999999,1875.7,-859.69100000000003
174578.0,7520.3400000000001,4647.8000000000002,14.5207,-2961.0700000000002,-1098.3800000000001,1480.1800000000001,-867.00999999999999
174579.0,7545.8500000000004,4403.7399999999998,-74.702100000000002,-3591.0700000000002,-976.79899999999998,1098.6099999999999,-873.19500000000005
174580.0,7760.6700000000001,4223.5299999999997,-93.861800000000002,-4300.75,-957.32399999999996,530.33199999999999,-843.47500000000002
174581.0,7593.25,3764.4699999999998,-109.611,-4670.1300000000001,-896.04999999999995,-61.5548,-766.529
174582.0,7111.0500000000002,3053.4400000000001,-130.626,-4790.8199999999997,-720.44899999999996,-579.82500000000005,-660.10400000000004
174583.0,6837.25,2353.6300000000001,-140.286,-4936.4499999999998,-648.98800000000006,-1054.26,-567.447
174584.0,6854.3500000000004,1903.3099999999999,-110.402,-5040.5799999999999,-605.06399999999996,-1508.98,-504.339
174585.0,7150.1999999999998,1535.02,-120.69199999999999,-5237.8100000000004,-627.08399999999995,-1996.6300000000001,-442.45800000000003
174586.0,7555.4499999999998,1279.3900000000001,-73.260400000000004,-5313.1800000000003,-631.23000000000002,-2521.98,-380.40100000000001
174587.0,7957.6499999999996,854.86099999999999,-109.145,-5384.2799999999997,-604.49099999999999,-3057.4000000000001,-338.32400000000001
174588.0,8156.6800000000003,320.76499999999999,-133.83000000000001,-5327.6300000000001,-566.61099999999999,-3452.3400000000001,-299.47399999999999
174589.0,8134.9399999999996,-359.04300000000001,-198.65700000000001,-5165.6400000000003,-498.95100000000002,-3712.98,-239.239
174590.0,7933.0,5116.9700000000003,66.554100000000005,-1896.46,-1261.4200000000001,2345.3200000000002,-891.29499999999996
174591.0,7801.0500000000002,5118.4700000000003,68.300700000000006,-2304.4699999999998,-1236.0,1926.8599999999999,-820.09699999999998
174592.0,7867.0500000000002,5057.1300000000001,92.401300000000006,-2894.6300000000001,-1210.8199999999999,1530.28,-829.87599999999998
174593.0,8066.2600000000002,4901.1300000000001,13.855399999999999,-3629.3000000000002,-1097.22,1191.78,-861.923
174594.0,8232.2800000000007,4656.4799999999996,-44.0214,-4392.4200000000001,-1018.99,609.351,-836.38
174595.0,7912.8000000000002,4041.1799999999998,-79.754099999999994,-4768.1499999999996,-930.07100000000003,-29.310199999999998,-759.57100000000003
174596.0,7316.5299999999997,3251.0,-96.234800000000007,-4844.8599999999997,-758.47199999999998,-547.178,-647.91399999999999
174597.0,6961.3500000000004,2501.4200000000001,-126.083,-4957.6499999999996,-668.21299999999997,-1043.3499999999999,-551.48599999999999
174598.0,6962.5299999999997,2029.95,-99.439499999999995,-5064.8000000000002,-626.35400000000004,-1504.8800000000001,-497.839
174599.0,7235.1300000000001,1639.3299999999999,-106.657,-5240.79,-642.96400000000006,-2015.9300000000001,-425.50400000000002
174600.0,7646.1899999999996,1376.1600000000001,-63.586500000000001,-5314.1700000000001,-654.19799999999998,-2555.25,-361.13999999999999
174601.0,8103.54,973.35400000000004,-118.867,-5420.7399999999998,-630.23800000000006,-3113.6399999999999,-315.01299999999998
174602.0,8318.3400000000001,413.64400000000001,-158.68700000000001,-5374.4700000000003,-581.06799999999998,-3533.3499999999999,-265.291
174603.0,8252.6299999999992,-274.71100000000001,-193.059,-5166.4799999999996,-500.42000000000002,-3780.9899999999998,-209.459
174604.0,8266.3099999999995,5560.7200000000003,84.5137,-1680.3199999999999,-1385.46,2421.3000000000002,-859.697
174605.0,8101.4200000000001,5467.5799999999999,24.3949,-2176.29,-1352.9200000000001,1988.8900000000001,-779.89700000000005
174606.0,8206.5300000000007,5451.6000000000004,78.148799999999994,-2807.1500000000001,-1336.1099999999999,1569.79,-794.94899999999996
174607.0,8517.4799999999996,5306.1000000000004,-24.890699999999999,-3662.0500000000002,-1224.1900000000001,1274.29,-844.99599999999998
174608.0,8624.4400000000005,5019.9099999999999,-55.639499999999998,-4450.2399999999998,-1085.1500000000001,711.18200000000002,-806.67499999999995
174609.0,8208.7600000000002,4272.4499999999998,-114.93899999999999,-4886.1000000000004,-974.20699999999999,19.698699999999999,-727.83600000000001
174610.0,7527.0600000000004,3445.4499999999998,-108.55200000000001,-4904.4399999999996,-806.89599999999996,-531.65599999999995,-627.02800000000002
174611.0,7094.79,2633.79,-159.828,-5004.0600000000004,-691.39499999999998,-1036.49,-540.154
174612.0,7097.0799999999999,2144.1700000000001,-120.798,-5127.3900000000003,-656.01700000000005,-1509.6199999999999,-484.68700000000001
174613.0,7348.9899999999998,1713.1199999999999,-141.31800000000001,-5299.5900000000001,-660.91099999999994,-2048.0599999999999,-408.74099999999999
174614.0,7755.5600000000004,1434.74,-89.459199999999996,-5361.5200000000004,-673.27200000000005,-2599.6599999999999,-346.67500000000001
174615.0,8242.8500000000004,1030.5699999999999,-174.08199999999999,-5502.2700000000004,-655.60900000000004,-3169.9499999999998,-288.64499999999998
174616.0,8460.1399999999994,500.92099999999999,-191.14699999999999,-5416.4300000000003,-597.51800000000003,-3603.0599999999999,-229.548
174617.0,8367.0100000000002,-212.69800000000001,-228.846,-5201.8000000000002,-504.80599999999998,-3844.23,-180.08600000000001
174618.0,8654.2299999999996,6059.5699999999997,124.648,-1426.27,-1523.8499999999999,2522.3099999999999,-818.52300000000002
174619.0,8460.5400000000009,5971.0,89.300399999999996,-1928.1199999999999,-1485.4100000000001,2066.7800000000002,-734.04200000000003
174620.0,8598.8899999999994,5921.7399999999998,85.521600000000007,-2686.0500000000002,-1449.6199999999999,1628.04,-767.38599999999997
174621.0,8909.1599999999999,5764.3599999999997,27.0184,-3570.8400000000001,-1337.48,1344.75,-832.21299999999997
174622.0,8937.4200000000001,5409.0200000000004,-15.4893,-4371.8900000000003,-1172.0999999999999,803.04499999999996,-771.71400000000006
174623.0,8492.6800000000003,4610.0699999999997,-96.036500000000004,-4875.9700000000003,-1033.48,73.322599999999994,-686.81399999999996
174624.0,7756.29,3691.54,-99.3917,-4933.29,-853.67200000000003,-521.32000000000005,-604.36300000000006
174625.0,7273.7600000000002,2817.4000000000001,-159.15199999999999,-5047.1899999999996,-719.471,-1033.53,-531.61400000000003
174626.0,7266.96,2290.3800000000001,-123.164,-5190.4700000000003,-689.43100000000004,-1526.3399999999999,-469.24099999999999
174627.0,7496.1499999999996,1841.9300000000001,-134.47499999999999,-5337.0299999999997,-679.03700000000003,-2088.9200000000001,-392.89600000000002
174628.0,7890.4300000000003,1500.1800000000001,-118.08199999999999,-5426.0200000000004,-690.14400000000001,-2653.5599999999999,-328.21199999999999
174629.0,8370.2600000000002,1104.21,-191.92099999999999,-5545.8000000000002,-674.07600000000002,-3225.8000000000002,-256.59800000000001
174630.0,8585.7299999999996,578.03999999999996,-213.41499999999999,-5453.0299999999997,-612.78999999999996,-3662.9299999999998,-191.636
174631.0,8491.4099999999999,-98.341499999999996,-223.04400000000001,-5200.1800000000003,-513.971,-3908.9000000000001,-147.17599999999999
174632.0,9092.4799999999996,6593.8199999999997,151.05099999999999,-1138.1199999999999,-1678.26,2640.5500000000002,-780.81600000000003
174633.0,8885.0499999999993,6504.3599999999997,112.669,-1673.96,-1631.27,2162.6100000000001,-698.78499999999997
174634.0,9027.0200000000004,6407.5600000000004,59.067100000000003,-2546.5599999999999,-1560.3599999999999,1727.01,-730.47000000000003
174635.0,9250.4500000000007,6150.5600000000004,10.848800000000001,-3489.3499999999999,-1444.72,1411.03,-795.524
174636.0,9190.25,5742.8999999999996,-13.6234,-4270.9499999999998,-1266.77,860.51199999999994,-742.83000000000004
174637.0,8759.4200000000001,4931.9899999999998,-108.02,-4844.9700000000003,-1103.5999999999999,114.742,-663.19799999999998
174638.0,8000.8999999999996,3948.0900000000001,-116.458,-4964.8000000000002,-910.19500000000005,-507.64999999999998,-583.83199999999999
174639.0,7490.5200000000004,3032.2199999999998,-169.82499999999999,-5103.6099999999997,-756.97699999999998,-1032.1500000000001,-516.16399999999999
174640.0,7458.1199999999999,2441.0999999999999,-144.37,-5271.3500000000004,-723.15999999999997,-1550.48,-453.27600000000001
174641.0,7663.4300000000003,1955.1099999999999,-166.989,-5412.5900000000001,-703.40700000000004,-2134.3099999999999,-377.125
174642.0,8033.71,1551.3800000000001,-193.21000000000001,-5518.8199999999997,-709.40300000000002,-2711.8800000000001,-300.70400000000001
174643.0,8467.8700000000008,1151.0,-234.89099999999999,-5590.8699999999999,-684.43399999999997,-3272.1900000000001,-221.94300000000001
174644.0,8683.8600000000006,644.947,-229.625,-5468.4399999999996,-628.83100000000002,-3712.9400000000001,-156.464
174645.0,8618.75,1.48262,-241.38900000000001,-5209.3500000000004,-532.85699999999997,-3976.8899999999999,-112.376
174646.0,9582.5400000000009,7186.0,186.87100000000001,-790.24699999999996,-1848.5599999999999,2777.6799999999998,-740.57000000000005
174647.0,9379.25,7149.4799999999996,192.53700000000001,-1334.9200000000001,-1787.23,2288.4299999999998,-662.97500000000002
174648.0,9482.6200000000008,6949.6000000000004,66.882300000000001,-2331.5700000000002,-1678.9300000000001,1864.05,-684.95799999999997
174649.0,9582.2099999999991,6617.8800000000001,49.279000000000003,-3299.6700000000001,-1552.47,1484.3699999999999,-734.47400000000005
174650.0,9411.7600000000002,6087.0299999999997,7.32552,-4127.0100000000002,-1355.0699999999999,907.38199999999995,-685.90999999999997
174651.0,8993.25,5269.8100000000004,-68.995000000000005,-4759.5699999999997,-1173.55,145.124,-615.70500000000004
174652.0,8274.9899999999998,4238.3400000000001,-119.697,-4987.5200000000004,-979.39800000000002,-502.18099999999998,-559.41300000000001
174653.0,7751.6300000000001,3303.5,-161.923,-5152.0699999999997,-804.49800000000005,-1030.9200000000001,-501.32799999999997
174654.0,7675.3100000000004,2622.1700000000001,-160.23599999999999,-5354.21,-755.26599999999996,-1577.46,-433.24099999999999
174655.0,7859.2299999999996,2096.3499999999999,-191.751,-5491.8400000000001,-733.20799999999997,-2185.3499999999999,-353.07799999999997
174656.0,8198.4799999999996,1637.8099999999999,-244.74700000000001,-5603.4200000000001,-726.202,-2772.8600000000001,-270.38
174657.0,8561.4300000000003,1229.0599999999999,-236.69999999999999,-5606.3699999999999,-688.23599999999999,-3312.29,-192.29599999999999
174658.0,8772.0599999999995,690.75699999999995,-247.726,-5484.21,-641.88300000000004,-3761.7800000000002,-121.187
174659.0,8754.7999999999993,109.95099999999999,-241.12700000000001,-5197.0799999999999,-557.49699999999996,-4052.6500000000001,-76.453400000000002
174660.0,10129.799999999999,7831.8999999999996,225.155,-382.99700000000001,-2033.8900000000001,2936.3400000000001,-701.91700000000003
174661.0,9933.6399999999994,7815.6300000000001,232.52000000000001,-981.05899999999997,-1951.2,2440.8800000000001,-633.21600000000001
174662.0,9963.3199999999997,7535.3900000000003,82.795500000000004,-2041.8800000000001,-1814.8800000000001,2019.8499999999999,-647.38300000000004
174663.0,9925.2199999999993,7108.5500000000002,58.131500000000003,-3066.0,-1667.04,1563.5999999999999,-669.14499999999998
174664.0,9607.6599999999999,6441.8400000000001,1.6817800000000001,-3926.3099999999999,-1444.8499999999999,947.42999999999995,-619.04999999999995
174665.0,9166.7700000000004,5597.2200000000003,-47.058700000000002,-4605.1300000000001,-1247.6700000000001,167.465,-552.13400000000001
174666.0,8555.1200000000008,4537.6199999999999,-139.458,-5001.6199999999999,-1055.9000000000001,-508.09899999999999,-521.04600000000005
174667.0,8037.3299999999999,3604.29,-157.64400000000001,-5193.5299999999997,-865.35699999999997,-1032.49,-482.02600000000001
174668.0,7910.4300000000003,2814.04,-212.465,-5450.3000000000002,-795.03800000000001,-1605.5599999999999,-407.50200000000001
174669.0,8072.8999999999996,2253.4699999999998,-228.20699999999999,-5581.0699999999997,-767.21000000000004,-2236.3099999999999,-319.67599999999999
174670.0,8370.0400000000009,1753.6300000000001,-275.85899999999998,-5678.6899999999996,-738.93100000000004,-2827.0100000000002,-237.45099999999999
174671.0,8653.6900000000005,1303.0,-248.34700000000001,-5630.4700000000003,-692.25199999999995,-3349.1500000000001,-157.934
174672.0,8851.8799999999992,741.404,-262.12900000000002,-5481.8800000000001,-649.971,-3811.3400000000001,-78.155100000000004
174673.0,8893.1700000000001,193.935,-251.94200000000001,-5190.3500000000004,-579.22299999999996,-4134.8000000000002,-34.741199999999999
174674.0,10736.6,8566.9099999999999,303.33600000000001,118.434,-2235.9699999999998,3115.9699999999998,-658.33000000000004
174675.0,10545.4,8541.3700000000008,285.91300000000001,-566.94399999999996,-2123.5799999999999,2626.0100000000002,-596.57000000000005
174676.0,10484.1,8183.6700000000001,120.057,-1685.3499999999999,-1969.3399999999999,2186.1900000000001,-606.50300000000004
174677.0,10284.1,7657.8900000000003,73.9649,-2749.7800000000002,-1786.75,1653.21,-600.61900000000003
174678.0,9809.5799999999999,6836.9700000000003,-0.188444,-3670.04,-1532.8800000000001,988.83900000000006,-559.57500000000005
174679.0,9324.1599999999999,5923.8599999999997,-36.041200000000003,-4417.25,-1322.5699999999999,185.98699999999999,-503.84399999999999
174680.0,8829.5300000000007,4872.8400000000001,-140.178,-4963.2399999999998,-1131.1300000000001,-524.44600000000003,-492.18400000000003
174681.0,8341.9200000000001,3901.1300000000001,-184.696,-5243.46,-941.20399999999995,-1049.4000000000001,-473.255
174682.0,8169.1499999999996,3038.8600000000001,-275.86500000000001,-5533.9399999999996,-849.10599999999999,-1638.9000000000001,-387.39499999999998
174683.0,8294.0300000000007,2443.1199999999999,-260.86399999999998,-5652.54,-805.73900000000003,-2282.52,-290.26900000000001
174684.0,8532.7399999999998,1906.3399999999999,-286.36099999999999,-5718.3800000000001,-755.16800000000001,-2872.1599999999999,-202.66999999999999
174685.0,8743.5400000000009,1396.05,-263.88999999999999,-5633.46,-701.56799999999998,-3387.8400000000001,-114.693
174686.0,8926.6000000000004,813.11400000000003,-273.87299999999999,-5453.96,-656.28800000000001,-3861.9200000000001,-31.813600000000001
174687.0,9025.7600000000002,271.90899999999999,-264.012,-5171.9099999999999,-594.84000000000003,-4218.8999999999996,13.565200000000001
174688.0,11400.200000000001,9356.3199999999997,375.327,684.70699999999999,-2454.6100000000001,3305.3499999999999,-615.75599999999997
174689.0,11209.4,9308.1200000000008,330.017,-84.936300000000003,-2313.1500000000001,2838.77,-553.64499999999998
174690.0,11054.700000000001,8889.1700000000001,157.91300000000001,-1274.0899999999999,-2135.3400000000001,2366.7399999999998,-557.755
174691.0,10661.200000000001,8233.3600000000006,79.549899999999994,-2382.9299999999998,-1904.8,1758.74,-538.42100000000005
174692.0,10037.700000000001,7251.1300000000001,-19.5885,-3395.29,-1624.8699999999999,1044.8399999999999,-502.66399999999999
174693.0,9499.5100000000002,6273.79,-21.421800000000001,-4215.3900000000003,-1397.29,213.96700000000001,-456.49200000000002
174694.0,9099.0599999999995,5185.4300000000003,-162.81399999999999,-4940.5900000000001,-1197.23,-538.37800000000004,-461.75700000000001
174695.0,8684.7999999999993,4187.75,-225.715,-5332.6000000000004,-1025.54,-1085.1900000000001,-461.80700000000002
174696.0,8474.9699999999993,3284.5500000000002,-320.89499999999998,-5637.1400000000003,-911.16200000000003,-1682.8299999999999,-369.44600000000003
174697.0,8532.3700000000008,2651.7199999999998,-284.673,-5721.0799999999999,-846.23599999999999,-2331.29,-263.21699999999998
174698.0,8693.0100000000002,2054.9499999999998,-315.10300000000001,-5756.71,-781.24300000000005,-2916.9099999999999,-170.56899999999999
174699.0,8844.3099999999995,1511.1500000000001,-276.75700000000001,-5615.4300000000003,-718.89700000000005,-3435.6199999999999,-77.454999999999998
174700.0,9008.0300000000007,892.86000000000001,-298.02499999999998,-5423.1999999999998,-666.79200000000003,-3916.6900000000001,9.6685999999999996
174701.0,9145.2600000000002,357.62599999999998,-277.00700000000001,-5129.8900000000003,-607.51400000000001,-4300.5100000000002,63.8491
174702.0,12126.0,10210.1,448.93000000000001,1314.48,-2683.8699999999999,3505.21,-574.61400000000003
174703.0,11918.9,10135.6,389.44600000000003,493.93099999999998,-2518.8000000000002,3068.3299999999999,-516.88900000000001
174704.0,11666.700000000001,9651.3600000000006,205.62899999999999,-782.53200000000004,-2306.8299999999999,2571.5500000000002,-509.14499999999998
174705.0,11077.799999999999,8855.8700000000008,104.71299999999999,-1970.6600000000001,-2019.6099999999999,1889.1400000000001,-490.56999999999999
174706.0,10311.0,7700.2299999999996,-37.922400000000003,-3106.1599999999999,-1723.24,1116.1199999999999,-459.83999999999997
174707.0,9704.5100000000002,6643.6499999999996,-26.258299999999998,-4009.6700000000001,-1476.99,253.136,-414.94600000000003
174708.0,9363.0100000000002,5517.5600000000004,-178.41399999999999,-4889.29,-1266.26,-539.12,-414.03199999999998
174709.0,9052.8099999999995,4492.8500000000004,-255.77799999999999,-5429.1300000000001,-1113.3299999999999,-1131.0899999999999,-415.274
174710.0,8813.5100000000002,3575.6900000000001,-321.79500000000002,-5722.3599999999997,-975.375,-1740.28,-333.20600000000002
174711.0,8787.6399999999994,2875.5500000000002,-295.75299999999999,-5780.9700000000003,-886.80499999999995,-2391.7199999999998,-232.69399999999999
174712.0,8869.1399999999994,2221.4000000000001,-328.61700000000002,-5780.4399999999996,-814.101,-2971.3499999999999,-140.59200000000001
174713.0,8966.4300000000003,1632.3699999999999,-294.08199999999999,-5600.7700000000004,-741.28399999999999,-3495.1199999999999,-42.891399999999997
174714.0,9108.2900000000009,990.197,-317.75200000000001,-5386.3299999999999,-682.37900000000002,-3980.25,45.759500000000003
174715.0,9263.0900000000001,444.161,-295.86399999999998,-5082.0100000000002,-622.23199999999997,-4382.3100000000004,104.694
174716.0,12916.6,11126.1,529.33399999999995,2010.6400000000001,-2917.7399999999998,3725.8699999999999,-535.96500000000003
174717.0,12670.9,10984.299999999999,438.00400000000002,1117.6600000000001,-2729.8099999999999,3314.0500000000002,-492.95499999999998
174718.0,12304.799999999999,10448.0,262.39800000000002,-206.708,-2488.8600000000001,2795.1100000000001,-462.827
174719.0,11551.6,9502.8899999999994,113.76000000000001,-1541.8099999999999,-2147.1999999999998,2050.1900000000001,-431.13
174720.0,10642.9,8201.2600000000002,-43.797800000000002,-2801.5100000000002,-1829.76,1211.7,-408.23599999999999
174721.0,9954.4899999999998,7027.1000000000004,-66.467799999999997,-3822.5700000000002,-1564.6700000000001,296.40199999999999,-370.85899999999998
174722.0,9635.8700000000008,5862.8699999999999,-214.095,-4817.3999999999996,-1352.8499999999999,-537.05600000000004,-365.18700000000001
174723.0,9418.9799999999996,4848.0500000000002,-268.35500000000002,-5463.29,-1206.51,-1186.5699999999999,-356.86900000000003
174724.0,9153.9300000000003,3892.9299999999998,-324.99900000000002,-5771.6700000000001,-1043.45,-1812.0599999999999,-286.66699999999997
174725.0,9046.7299999999996,3103.5900000000001,-314.91300000000001,-5832.2799999999997,-928.13099999999997,-2460.0100000000002,-196.059
174726.0,9066.6000000000004,2388.8000000000002,-342.096,-5808.3699999999999,-849.58100000000002,-3040.75,-105.95
174727.0,9113.3700000000008,1755.54,-315.00200000000001,-5595.1700000000001,-766.69399999999996,-3567.9000000000001,-10.1798
174728.0,9233.9599999999991,1093.1300000000001,-336.73099999999999,-5359.7700000000004,-701.59000000000003,-4054.3600000000001,77.926400000000001
174729.0,9395.1700000000001,525.99599999999998,-319.22199999999998,-5050.3199999999997,-636.58799999999997,-4468.2700000000004,142.35400000000001
174730.0,13759.299999999999,12107.6,643.029,2816.6900000000001,-3161.8899999999999,3973.4899999999998,-489.78300000000002
174731.0,13472.799999999999,11846.5,471.642,1771.7,-2944.0,3585.8200000000002,-465.351
174732.0,12974.700000000001,11291.5,339.81900000000002,448.30099999999999,-2679.1100000000001,3027.5500000000002,-427.71300000000002
174733.0,12083.4,10195.0,119.264,-1069.25,-2293.4099999999999,2227.02,-383.38299999999998
174734.0,11046.5,8804.6599999999999,-6.1854100000000001,-2434.3800000000001,-1953.28,1326.46,-354.976
174735.0,10269.6,7447.9799999999996,-131.417,-3651.7199999999998,-1662.1800000000001,346.31099999999998,-313.13299999999998
174736.0,9948.3799999999992,6281.3699999999999,-212.876,-4704.0799999999999,-1447.48,-537.64400000000001,-318.57299999999998
174737.0,9786.5900000000001,5209.5900000000001,-294.94299999999998,-5478.79,-1299.49,-1253.1800000000001,-312.48099999999999
174738.0,9497.6900000000005,4237.8599999999997,-316.31999999999999,-5779.2799999999997,-1117.0999999999999,-1898.55,-248.393
174739.0,9312.9099999999999,3330.1599999999999,-349.03500000000003,-5882.4300000000003,-975.27599999999995,-2535.6799999999998,-157.548
174740.0,9278.9500000000007,2583.04,-338.50999999999999,-5810.21,-885.59100000000001,-3123.7199999999998,-64.198499999999996
174741.0,9285.8999999999996,1868.9000000000001,-348.00700000000001,-5613.6000000000004,-791.86199999999997,-3652.8699999999999,25.904499999999999
174742.0,9386.5,1208.8,-342.33100000000002,-5336.2200000000003,-721.95399999999995,-4139.7799999999997,112.877
174743.0,9542.8299999999999,603.51800000000003,-349.27999999999997,-5032.3900000000003,-651.75,-4560.3599999999997,181.96899999999999
174744.0,14635.299999999999,13075.9,727.31399999999996,3687.25,-3419.0999999999999,4235.96,-444.315
174745.0,14325.5,12800.799999999999,569.03700000000003,2553.3299999999999,-3165.0300000000002,3886.8899999999999,-433.089
174746.0,13703.0,12121.9,371.19499999999999,1076.55,-2869.6199999999999,3280.4899999999998,-406.88799999999998
174747.0,12677.9,10967.799999999999,166.12299999999999,-537.05600000000004,-2458.0700000000002,2413.4699999999998,-348.34500000000003
174748.0,11526.200000000001,9436.1399999999994,-7.4853100000000001,-2084.2800000000002,-2098.3400000000001,1444.3199999999999,-304.476
174749.0,10666.0,8013.5,-119.319,-3402.7600000000002,-1773.48,403.404,-265.89600000000002
174750.0,10314.799999999999,6717.4499999999998,-236.547,-4627.6999999999998,-1542.97,-532.60500000000002,-273.56999999999999
174751.0,10164.299999999999,5621.5799999999999,-275.346,-5451.6700000000001,-1386.3099999999999,-1322.1400000000001,-265.61500000000001
174752.0,9854.8400000000001,4544.2299999999996,-341.95699999999999,-5822.2399999999998,-1193.3900000000001,-2002.23,-210.24299999999999
174753.0,9597.4500000000007,3594.98,-349.31599999999997,-5894.1899999999996,-1031.54,-2626.8499999999999,-120.999
174754.0,9503.8700000000008,2751.5799999999999,-370.52600000000001,-5836.0500000000002,-922.92100000000005,-3218.8800000000001,-20.9679
174755.0,9475.4200000000001,2015.47,-356.47800000000001,-5606.1999999999998,-819.101,-3746.96,68.007199999999997
174756.0,9559.1499999999996,1305.8,-373.56700000000001,-5340.5299999999997,-741.81100000000004,-4235.6800000000003,154.05099999999999
174757.0,9707.7000000000007,695.83199999999999,-365.79399999999998,-5005.2399999999998,-667.87800000000004,-4661.0799999999999,221.67400000000001
174758.0,15535.9,14080.1,831.00900000000001,4671.1300000000001,-3686.0900000000001,4498.6099999999997,-400.858
174759.0,15217.4,13746.299999999999,638.49699999999996,3401.3000000000002,-3403.2399999999998,4208.0500000000002,-395.05799999999999
174760.0,14516.700000000001,13030.0,433.30900000000003,1753.03,-3069.0900000000001,3570.4099999999999,-382.82499999999999
174761.0,13356.5,11772.5,185.84899999999999,-27.9224,-2636.4000000000001,2610.75,-327.95400000000001
174762.0,12081.4,10179.6,33.623600000000003,-1670.1300000000001,-2260.3400000000001,1558.1900000000001,-271.29599999999999
174763.0,11148.5,8613.6399999999994,-136.72999999999999,-3190.98,-1902.6500000000001,463.00200000000001,-233.30000000000001
174764.0,10729.1,7250.8500000000004,-212.124,-4492.4700000000003,-1650.28,-524.92999999999995,-226.99600000000001
174765.0,10547.200000000001,6016.6499999999996,-294.94099999999997,-5443.0799999999999,-1473.8199999999999,-1387.27,-201.102
174766.0,10228.5,4891.2399999999998,-329.23200000000003,-5830.1000000000004,-1266.6700000000001,-2121.6900000000001,-156.542
174767.0,9903.4099999999999,3826.0500000000002,-379.07400000000001,-5938.7200000000003,-1091.8099999999999,-2739.3400000000001,-76.785600000000002
174768.0,9741.5100000000002,2956.2800000000002,-370.51299999999998,-5821.5900000000001,-961.91200000000003,-3326.8099999999999,23.972899999999999
174769.0,9681.8899999999994,2140.4299999999998,-395.00900000000001,-5623.5500000000002,-850.69100000000003,-3851.7800000000002,110.295
174770.0,9749.4300000000003,1437.77,-380.09500000000003,-5316.0900000000001,-763.61900000000003,-4341.5200000000004,194.886
174771.0,9889.3299999999999,768.49099999999999,-404.38499999999999,-5005.1199999999999,-683.03099999999995,-4769.8999999999996,261.19600000000003
174772.0,16463.200000000001,15115.4,954.70100000000002,5734.2200000000003,-3945.0900000000001,4769.7200000000003,-368.53899999999999
174773.0,16136.1,14746.0,750.93100000000004,4360.3900000000003,-3653.48,4528.0900000000001,-384.96600000000001
174774.0,15411.700000000001,13984.299999999999,494.47699999999998,2469.1199999999999,-3288.1100000000001,3891.9899999999998,-368.67200000000003
174775.0,14144.6,12662.299999999999,224.40600000000001,466.01400000000001,-2821.4899999999998,2835.3899999999999,-322.93799999999999
174776.0,12734.5,10948.1,40.097099999999998,-1327.29,-2436.3600000000001,1671.72,-262.09199999999998
174777.0,11715.5,9317.3299999999999,-110.53700000000001,-2950.3499999999999,-2050.8899999999999,512.53300000000002,-203.465
174778.0,11191.299999999999,7786.0200000000004,-233.18199999999999,-4386.4200000000001,-1772.75,-533.10799999999995,-183.65000000000001
174779.0,10937.700000000001,6479.1199999999999,-279.83499999999998,-5357.25,-1572.3900000000001,-1457.8900000000001,-137.886
174780.0,10607.700000000001,5220.46,-359.42599999999999,-5850.6300000000001,-1339.5599999999999,-2250.0100000000002,-87.221199999999996
174781.0,10220.700000000001,4096.4200000000001,-376.05000000000001,-5936.1099999999997,-1149.99,-2869.9400000000001,-21.260999999999999
174782.0,9991.6900000000005,3127.0799999999999,-404.762,-5836.1599999999999,-1001.3,-3447.4699999999998,68.911100000000005
174783.0,9908.3099999999995,2298.5500000000002,-404.72800000000001,-5613.21,-884.88400000000001,-3968.1799999999998,152.96899999999999
174784.0,9958.75,1544.24,-417.94499999999999,-5326.3100000000004,-786.62400000000002,-4456.4499999999998,235.99600000000001
174785.0,10085.799999999999,870.88900000000001,-418.33100000000002,-4985.3299999999999,-697.66099999999994,-4884.7700000000004,301.32600000000002
174786.0,17440.0,16161.5,1077.73,6878.0100000000002,-4207.5900000000001,5068.1300000000001,-321.18099999999998
174787.0,17102.099999999999,15708.1,815.02999999999997,5280.5100000000002,-3911.4400000000001,4861.2200000000003,-386.87599999999998
174788.0,16362.9,14997.5,593.16800000000001,3246.5500000000002,-3536.8200000000002,4223.6300000000001,-361.94400000000002
174789.0,15046.0,13605.6,246.76599999999999,923.64300000000003,-3029.71,3092.5700000000002,-305.37
174790.0,13524.4,11847.5,94.3964,-1011.41,-2628.5,1792.05,-254.90600000000001
174791.0,12364.299999999999,10035.299999999999,-127.56399999999999,-2775.96,-2211.8000000000002,544.84000000000003,-178.90100000000001
174792.0,11710.5,8401.3700000000008,-207.41800000000001,-4249.6700000000001,-1903.0699999999999,-564.93100000000004,-144.744
174793.0,11356.200000000001,6913.9300000000003,-309.85899999999998,-5308.3699999999999,-1678.71,-1550.3900000000001,-84.552000000000007
174794.0,10982.9,5602.3800000000001,-355.99000000000001,-5797.4700000000003,-1415.3900000000001,-2385.98,-24.536899999999999
174795.0,10544.0,4337.8299999999999,-417.75799999999998,-5955.79,-1207.5599999999999,-3009.7399999999998,35.3459
174796.0,10255.700000000001,3332.9499999999998,-408.69999999999999,-5820.0500000000002,-1038.6400000000001,-3576.3899999999999,116.563
174797.0,10152.9,2428.5300000000002,-443.94799999999998,-5635.29,-919.83100000000002,-4095.25,197.01400000000001
174798.0,10184.0,1686.25,-426.21899999999999,-5308.0200000000004,-811.16499999999996,-4578.9499999999998,278.065
174799.0,10295.799999999999,949.32299999999998,-461.24000000000001,-4996.8199999999997,-712.80999999999995,-5005.5900000000001,342.88799999999998
174800.0,18453.799999999999,17280.200000000001,1289.4000000000001,8167.1400000000003,-4482.29,5385.3000000000002,-281.42200000000003
174801.0,18146.5,16795.900000000001,980.21799999999996,6283.5500000000002,-4183.8900000000003,5226.7299999999996,-383.38
174802.0,17373.599999999999,16049.1,684.67999999999995,4021.1100000000001,-3811.6399999999999,4543.0900000000001,-366.87599999999998
174803.0,16037.6,14681.799999999999,329.47699999999998,1463.0899999999999,-3278.7600000000002,3351.8200000000002,-285.16800000000001
174804.0,14458.299999999999,12807.700000000001,98.072199999999995,-788.78999999999996,-2840.71,1922.1700000000001,-229.17599999999999
174805.0,13112.1,10880.4,-81.599500000000006,-2585.1399999999999,-2381.0500000000002,567.22500000000002,-160.274
174806.0,12283.0,8990.0900000000001,-242.43899999999999,-4187.1400000000003,-2039.5799999999999,-617.53200000000004,-98.925200000000004
174807.0,11807.6,7417.0200000000004,-288.029,-5214.5,-1779.8900000000001,-1664.8900000000001,-31.446899999999999
174808.0,11357.200000000001,5918.1700000000001,-405.56299999999999,-5797.1499999999996,-1489.5899999999999,-2528.1100000000001,24.443999999999999
174809.0,10877.0,4627.6300000000001,-413.60599999999999,-5923.6199999999999,-1268.8599999999999,-3157.3299999999999,84.665000000000006
174810.0,10536.200000000001,3508.9400000000001,-456.32999999999998,-5845.3999999999996,-1078.8299999999999,-3710.6399999999999,162.56399999999999
174811.0,10411.6,2596.5999999999999,-449.51999999999998,-5624.7799999999997,-952.14300000000003,-4229.8800000000001,244.839
174812.0,10425.5,1793.04,-471.98899999999998,-5331.04,-837.39599999999996,-4709.29,320.38299999999998
174813.0,10518.799999999999,1065.45,-472.62200000000001,-4978.0600000000004,-729.48699999999997,-5131.9799999999996,384.20699999999999
174814.0,19490.0,18307.400000000001,1409.25,9478.9500000000007,-4785.9899999999998,5676.3199999999997,-243.31899999999999
174815.0,19297.099999999999,17853.900000000001,1042.6900000000001,7288.2399999999998,-4488.8299999999999,5622.6400000000003,-389.86599999999999
174816.0,18496.400000000001,17188.0,763.14300000000003,4756.3999999999996,-4106.6999999999998,4860.7299999999996,-411.62
174817.0,17103.200000000001,15779.0,355.96199999999999,1957.5799999999999,-3569.71,3574.3800000000001,-276.21600000000001
174818.0,15487.4,13961.799999999999,193.15000000000001,-445.00599999999997,-3080.6700000000001,2043.5999999999999,-172.11699999999999
174819.0,13976.4,11719.6,-120.97799999999999,-2528.5,-2565.7199999999998,589.73099999999999,-122.721
174820.0,12910.5,9712.6700000000001,-183.52600000000001,-4046.3299999999999,-2175.6700000000001,-680.39099999999996,-54.558100000000003
174821.0,12278.5,7842.5299999999997,-352.94499999999999,-5215.79,-1872.22,-1786.9000000000001,22.848299999999998
174822.0,11738.9,6297.5699999999997,-375.19,-5736.0200000000004,-1559.96,-2673.8000000000002,78.645899999999997
174823.0,11220.9,4836.3800000000001,-476.012,-5969.4399999999996,-1328.52,-3315.5100000000002,133.81
174824.0,10842.5,3744.7800000000002,-448.483,-5826.6199999999999,-1126.5,-3854.2600000000002,205.346
174825.0,10682.299999999999,2724.5999999999999,-507.26600000000002,-5662.5,-983.95600000000002,-4369.1400000000003,292.5
174826.0,10681.6,1949.8900000000001,-469.87400000000002,-5309.9799999999996,-862.95100000000002,-4846.4700000000003,366.51100000000002
174827.0,10758.799999999999,1141.3199999999999,-527.34400000000005,-5006.4700000000003,-747.226,-5266.4200000000001,427.858
174828.0,20437.599999999999,19526.0,1879.8,10962.299999999999,-5059.3900000000003,5976.3699999999999,-216.42699999999999
174829.0,20478.400000000001,19099.200000000001,1382.5799999999999,8409.3700000000008,-4805.4399999999996,6075.3400000000001,-445.36599999999999
174830.0,19769.599999999999,18412.0,856.96699999999998,5309.1099999999997,-4430.8500000000004,5208.8500000000004,-483.072
174831.0,18256.900000000001,17103.700000000001,507.42500000000001,2519.3400000000001,-3874.4099999999999,3740.1799999999998,-271.66300000000001
174832.0,16556.400000000001,15083.4,166.245,-130.87899999999999,-3343.6999999999998,2120.46,-116.892
174833.0,14919.200000000001,12757.9,-48.661200000000001,-2325.0900000000001,-2778.0100000000002,599.15700000000004,-62.297699999999999
174834.0,13596.6,10368.799999999999,-240.989,-4030.6199999999999,-2317.0500000000002,-736.16800000000001,8.9864999999999995
174835.0,12765.5,8386.1700000000001,-310.09699999999998,-5115.04,-1960.3900000000001,-1906.3199999999999,96.345299999999995
174836.0,12124.200000000001,6590.2399999999998,-436.25299999999999,-5758.0,-1626.46,-2822.9499999999998,148.53700000000001
174837.0,11571.5,5122.9700000000003,-457.19499999999999,-5937.71,-1382.9300000000001,-3478.3200000000002,191.94499999999999
174838.0,11172.0,3909.0500000000002,-505.36700000000002,-5885.2700000000004,-1176.0999999999999,-4012.0599999999999,254.21000000000001
174839.0,10971.4,2919.23,-506.11500000000001,-5645.3299999999999,-1019.6,-4515.2299999999996,338.32799999999997
174840.0,10947.799999999999,2055.6799999999998,-528.41600000000005,-5344.2700000000004,-889.00300000000004,-4988.3699999999999,415.44799999999998
174841.0,11011.9,1274.6700000000001,-533.45500000000004,-4983.5200000000004,-765.54499999999996,-5407.0,475.41199999999998
174842.0,21417.400000000001,20171.900000000001,1593.96,12147.6,-5314.6199999999999,6141.3599999999997,-350.541
174843.0,21833.0,19934.299999999999,1216.3199999999999,9301.5499999999993,-5219.9200000000001,6560.5100000000002,-688.45600000000002
174844.0,21234.700000000001,19717.5,844.77800000000002,5758.96,-4823.9300000000003,5554.3500000000004,-567.14499999999998
174845.0,19534.299999999999,18464.700000000001,515.46299999999997,2965.9699999999998,-4165.2600000000002,3880.1300000000001,-243.011
174846.0,17675.400000000001,16386.400000000001,267.16399999999999,298.67399999999998,-3608.27,2161.3000000000002,-88.292299999999997
174847.0,15871.9,13697.299999999999,-103.602,-2206.0999999999999,-3004.1300000000001,559.53599999999994,-19.225999999999999
174848.0,14332.0,11211.6,-179.88300000000001,-3845.4499999999998,-2483.2199999999998,-802.94100000000003,73.746099999999998
174849.0,13256.200000000001,8851.8700000000008,-398.33699999999999,-5078.3500000000004,-2050.8899999999999,-2020.52,183.51900000000001
174850.0,12502.4,7004.6300000000001,-403.61799999999999,-5647.6599999999999,-1689.29,-2964.4099999999999,227.12
174851.0,11928.200000000001,5331.5600000000004,-531.31600000000003,-5985.2700000000004,-1435.3399999999999,-3642.4899999999998,259.661
174852.0,11509.200000000001,4150.9300000000003,-490.34699999999998,-5863.21,-1222.2,-4176.8500000000004,314.416
174853.0,11281.4,3049.2399999999998,-570.005,-5698.5900000000001,-1056.98,-4672.6899999999996,388.93200000000002
174854.0,11228.9,2232.25,-524.23500000000001,-5313.4700000000003,-918.29899999999998,-5137.3500000000004,463.92500000000001
174855.0,11279.799999999999,1360.1300000000001,-594.99599999999998,-5010.6800000000003,-786.03599999999994,-5555.8699999999999,523.98800000000006
174856.0,21712.299999999999,21369.900000000001,2750.5,12934.4,-5124.0200000000004,6556.7799999999997,-984.32799999999997
174857.0,22947.099999999999,20924.700000000001,2122.0799999999999,9559.8600000000006,-5676.7299999999996,7193.4899999999998,-1371.6700000000001
174858.0,22741.099999999999,21295.700000000001,1175.9000000000001,6053.2200000000003,-5217.5,5879.2700000000004,-665.13400000000001
174859.0,20961.5,20280.099999999999,795.50199999999995,3651.7399999999998,-4418.1599999999999,4024.6599999999999,-160.267
174860.0,18872.099999999999,17523.400000000001,140.971,483.07400000000001,-3894.9499999999998,2184.6300000000001,-46.473999999999997
174861.0,16813.599999999999,14825.1,48.138800000000003,-1900.51,-3216.5500000000002,483.74900000000002,34.988700000000001
174862.0,15082.799999999999,11863.0,-314.601,-3849.5999999999999,-2655.9000000000001,-903.77700000000004,115.822
174863.0,13762.700000000001,9525.2900000000009,-315.58300000000003,-4834.6199999999999,-2149.9499999999998,-2133.04,229.91499999999999
174864.0,12878.6,7291.0200000000004,-535.77700000000004,-5661.5799999999999,-1757.1800000000001,-3092.3200000000002,292.44499999999999
174865.0,12285.6,5699.6800000000003,-478.09800000000001,-5874.6199999999999,-1488.73,-3800.6199999999999,330.40199999999999
174866.0,11851.9,4297.6300000000001,-589.30499999999995,-5934.1999999999998,-1267.9000000000001,-4345.2600000000002,379.33699999999999
174867.0,11600.6,3284.3800000000001,-538.85500000000002,-5644.2600000000002,-1092.99,-4836.9700000000003,447.40100000000001
174868.0,11528.299999999999,2321.4699999999998,-614.10900000000004,-5375.2299999999996,-949.34100000000001,-5295.8100000000004,516.28099999999995
174869.0,11562.4,1533.3900000000001,-578.69899999999996,-4956.54,-808.05399999999997,-5711.54,575.47199999999998
174870.0,23089.5,17946.5,-2124.98,8437.6299999999992,-4098.4200000000001,6490.0600000000004,-4240.5600000000004
174871.0,24679.799999999999,18734.799999999999,-40.789299999999997,6933.6899999999996,-6874.1300000000001,7123.6400000000003,-3867.7600000000002
174872.0,24313.700000000001,22749.5,861.96000000000004,6626.4700000000003,-5666.29,5983.0500000000002,-663.53099999999995
174873.0,22760.400000000001,22096.599999999999,510.40800000000002,4301.3699999999999,-4676.8999999999996,4239.1800000000003,19.252099999999999
174874.0,20110.400000000001,19037.099999999999,417.61500000000001,937.30499999999995,-4215.6300000000001,2147.5700000000002,7.8075700000000001
174875.0,17729.799999999999,15675.5,-90.260000000000005,-1815.8399999999999,-3419.52,400.13200000000001,123.72199999999999
174876.0,15814.299999999999,12760.200000000001,-166.07400000000001,-3589.8499999999999,-2818.6900000000001,-1012.9400000000001,191.28299999999999
174877.0,14302.9,9956.5699999999997,-459.89499999999998,-4865.8900000000003,-2251.7600000000002,-2259.23,282.55500000000001
174878.0,13275.299999999999,7795.9099999999999,-458.74200000000002,-5480.54,-1838.05,-3211.52,339.31900000000002
174879.0,12656.700000000001,5934.6599999999999,-590.86800000000005,-5911.29,-1546.9000000000001,-3955.3299999999999,396.66899999999998
174880.0,12199.200000000001,4598.2299999999996,-557.60400000000004,-5852.5200000000004,-1316.4100000000001,-4513.0,447.73000000000002
174881.0,11930.6,3425.6599999999999,-622.27800000000002,-5686.3900000000003,-1129.1500000000001,-5006.7700000000004,509.88099999999997
174882.0,11841.9,2522.1599999999999,-599.63499999999999,-5325.1499999999996,-980.53300000000002,-5462.8999999999996,573.803
174883.0,11863.4,1632.6199999999999,-647.279,-4978.1099999999997,-832.69200000000001,-5877.5,631.86300000000006
174884.0,25812.200000000001,5796.8299999999999,-16421.700000000001,-5110.21,-3596.6599999999999,7054.6700000000001,-5996.3800000000001
174885.0,27445.900000000001,12474.799999999999,-4311.0100000000002,1058.1300000000001,-10141.5,7214.7200000000003,-4764.6400000000003
174886.0,25785.700000000001,27381.299999999999,4435.3400000000001,10133.4,-6014.2200000000003,6472.2600000000002,909.79399999999998
174887.0,25131.400000000001,25011.900000000001,846.096,5215.4399999999996,-4794.54,4608.3500000000004,690.07299999999998
174888.0,21260.799999999999,20114.5,318.00099999999998,1141.9000000000001,-4628.9499999999998,1954.96,36.7881
174889.0,18615.0,16841.700000000001,56.003500000000003,-1324.5999999999999,-3610.75,343.71100000000001,266.476
174890.0,16529.0,13416.299999999999,-281.52600000000001,-3500.3899999999999,-2995.3200000000002,-1141.8099999999999,315.61200000000002
174891.0,14830.5,10650.799999999999,-355.166,-4601.0100000000002,-2346.9099999999999,-2387.23,380.10500000000002
174892.0,13716.5,8121.8599999999997,-576.51700000000005,-5512.6499999999996,-1932.6199999999999,-3339.8299999999999,412.90100000000001
174893.0,13038.1,6359.1599999999999,-537.20000000000005,-5764.0100000000002,-1607.3499999999999,-4108.9099999999999,471.76299999999998
174894.0,12561.799999999999,4798.1999999999998,-656.99199999999996,-5879.79,-1371.6600000000001,-4684.0299999999997,517.93499999999995
174895.0,12267.5,3696.1799999999998,-600.73800000000006,-5600.7600000000002,-1167.0599999999999,-5178.6300000000001,577.80999999999995
174896.0,12168.5,2641.1300000000001,-689.66999999999996,-5361.2399999999998,-1011.9,-5635.9700000000003,640.52700000000004
174897.0,12175.700000000001,1820.3299999999999,-642.23500000000001,-4909.4899999999998,-857.46799999999996,-6050.1499999999996,694.65499999999997
174898.0,27684.900000000001,-8420.0799999999999,-31730.200000000001,-20678.099999999999,-4787.6099999999997,8504.2399999999998,-4927.4399999999996
174899.0,31120.799999999999,9345.7600000000002,-3871.1700000000001,-1672.25,-13871.299999999999,8039.8299999999999,-3953.3099999999999
174900.0,27248.5,36765.800000000003,12085.1,17076.0,-5392.5100000000002,6832.7600000000002,1199.47
174901.0,27583.5,27935.299999999999,780.53599999999994,5705.9300000000003,-4935.6400000000003,4427.9099999999999,594.07600000000002
174902.0,22254.299999999999,21638.900000000001,723.97900000000004,2086.46,-4968.04,1837.6300000000001,308.53800000000001
174903.0,19561.700000000001,17765.900000000001,-145.63300000000001,-1030.3599999999999,-3853.5999999999999,264.89999999999998,385.67399999999998
174904.0,17150.0,14362.200000000001,-110.211,-2950.8499999999999,-3150.5300000000002,-1300.9000000000001,461.62099999999998
174905.0,15364.200000000001,11144.299999999999,-537.06799999999998,-4501.0299999999997,-2463.5900000000001,-2493.8299999999999,489.96699999999998
174906.0,14158.200000000001,8699.8899999999994,-481.26900000000001,-5259.1300000000001,-2024.3800000000001,-3482.23,515.02099999999996
174907.0,13431.799999999999,6665.2299999999996,-656.15200000000004,-5743.3400000000001,-1674.0699999999999,-4256.46,555.51800000000003
174908.0,12934.5,5145.1300000000001,-628.50800000000004,-5755.7299999999996,-1428.21,-4861.4399999999996,593.10000000000002
174909.0,12619.299999999999,3895.6999999999998,-688.04999999999995,-5597.1400000000003,-1213.24,-5353.3299999999999,644.10699999999997
174910.0,12503.700000000001,2875.6700000000001,-685.48800000000006,-5274.5100000000002,-1047.8199999999999,-5815.8100000000004,705.97299999999996
174911.0,12501.5,1960.1199999999999,-710.0,-4888.6700000000001,-885.88199999999995,-6230.3599999999997,759.94000000000005
174912.0,30256.200000000001,-13686.0,-34877.599999999999,-24772.799999999999,-8535.5499999999993,10945.200000000001,-374.87900000000002
174913.0,33721.099999999999,15351.299999999999,2480.98,3729.4899999999998,-15486.4,9334.7000000000007,-1301.7
174914.0,30045.0,40977.099999999999,11495.200000000001,19110.5,-4996.2799999999997,6453.9799999999996,253.35300000000001
174915.0,29516.299999999999,29949.599999999999,286.08499999999998,6692.46,-5693.3199999999997,3779.5700000000002,246.26499999999999
174916.0,23291.900000000001,23665.900000000001,1345.96,3458.9400000000001,-5022.8100000000004,1848.01,604.79399999999998
174917.0,20563.099999999999,18614.400000000001,-487.10500000000002,-705.17899999999997,-4198.5699999999997,143.21000000000001,521.24900000000002
174918.0,17639.299999999999,15316.5,76.554599999999994,-2216.4000000000001,-3243.1500000000001,-1425.51,587.09000000000003
174919.0,15933.299999999999,11745.299999999999,-684.46400000000006,-4268.4200000000001,-2620.2600000000002,-2604.1500000000001,587.41300000000001
174920.0,14562.1,9274.3400000000001,-443.13099999999997,-4961.7200000000003,-2104.02,-3600.9000000000001,610.255
174921.0,13850.700000000001,7056.6400000000003,-748.87400000000002,-5648.5200000000004,-1754.3099999999999,-4404.4499999999998,641.59799999999996
174922.0,13305.5,5499.5699999999997,-623.66099999999994,-5625.0900000000001,-1482.6099999999999,-5031.8000000000002,671.55700000000002
174923.0,13003.4,4147.3800000000001,-751.42200000000003,-5556.4899999999998,-1266.8599999999999,-5540.9499999999998,716.90800000000002
174924.0,12853.4,3103.27,-708.75199999999995,-5202.2200000000003,-1086.02,-6000.3500000000004,776.20899999999995
174925.0,12849.6,2135.5999999999999,-764.90800000000002,-4829.5100000000002,-918.86099999999999,-6423.3000000000002,832.42200000000003
174926.0,32854.900000000001,1792.99,-11833.299999999999,-10002.5,-11809.200000000001,12830.5,1020.36
174927.0,34447.300000000003,28462.200000000001,10161.700000000001,13337.5,-13910.200000000001,10208.1,1488.45
174928.0,34049.599999999999,41699.099999999999,7489.1300000000001,18026.599999999999,-5999.9200000000001,6544.1599999999999,820.78499999999997
174929.0,30574.799999999999,31995.200000000001,1261.1400000000001,8446.9599999999991,-6404.29,3416.75,677.90099999999995
174930.0,24639.599999999999,25660.599999999999,1454.5899999999999,4774.3100000000004,-5116.6000000000004,1857.03,737.45899999999995
174931.0,21416.900000000001,19654.599999999999,-552.90599999999995,52.932099999999998,-4502.2600000000002,-0.80481400000000003,684.87800000000004
174932.0,18156.700000000001,16215.5,104.71299999999999,-1509.22,-3353.52,-1451.1199999999999,694.10199999999998
174933.0,16451.099999999999,12392.6,-750.00300000000004,-3897.4200000000001,-2766.9400000000001,-2722.3499999999999,692.62900000000002
174934.0,14984.299999999999,9896.9599999999991,-443.42500000000001,-4634.4499999999998,-2203.8899999999999,-3683.1199999999999,691.88900000000001
174935.0,14276.1,7511.0100000000002,-804.05200000000002,-5478.7700000000004,-1840.54,-4552.8800000000001,728.68700000000001
174936.0,13700.6,5885.6800000000003,-653.96400000000006,-5489.9899999999998,-1546.6400000000001,-5197.1000000000004,757.48199999999997
174937.0,13401.6,4439.5500000000002,-798.30600000000004,-5465.5900000000001,-1324.4300000000001,-5737.1800000000003,802.22400000000005
174938.0,13228.1,3368.9299999999998,-738.41600000000005,-5099.6899999999996,-1130.3499999999999,-6195.25,856.93200000000002
174939.0,13215.299999999999,2339.04,-809.39200000000005,-4729.9399999999996,-955.03700000000003,-6628.2399999999998,909.30499999999995
174940.0,35402.5,12726.299999999999,4140.6300000000001,2377.6900000000001,-14871.200000000001,9979.0,-8148.1700000000001
174941.0,35732.099999999999,44752.5,16909.599999999999,24865.400000000001,-10813.9,9974.6200000000008,1868.27
174942.0,38167.400000000001,43371.800000000003,5239.6199999999999,17971.5,-7713.6700000000001,6862.4799999999996,1449.1900000000001
174943.0,31180.799999999999,35323.699999999997,3599.5799999999999,11883.1,-6406.2399999999998,3279.5599999999999,1239.02
174944.0,26378.0,26885.299999999999,498.36200000000002,5406.5500000000002,-5545.3699999999999,1874.8699999999999,846.553
174945.0,21961.200000000001,21148.200000000001,41.220799999999997,1587.5999999999999,-4648.9700000000003,-105.07299999999999,849.77800000000002
174946.0,18887.299999999999,16906.0,-301.041,-1089.1300000000001,-3573.1599999999999,-1429.22,824.21299999999997
174947.0,16835.400000000001,13297.5,-499.91500000000002,-3107.4400000000001,-2870.27,-2802.79,817.06399999999996
174948.0,15497.200000000001,10433.200000000001,-646.51099999999997,-4443.8800000000001,-2345.96,-3763.7600000000002,796.07899999999995
174949.0,14688.299999999999,8103.3199999999997,-729.31200000000001,-5145.3299999999999,-1927.22,-4692.5299999999997,821.09900000000005
174950.0,14150.9,6286.75,-758.35500000000002,-5374.1800000000003,-1629.6300000000001,-5374.3400000000001,850.92499999999995
174951.0,13809.700000000001,4798.0200000000004,-798.92100000000005,-5294.3699999999999,-1385.77,-5941.1599999999999,886.98099999999999
174952.0,13640.4,3647.6399999999999,-805.80799999999999,-4989.3400000000001,-1185.23,-6408.8800000000001,941.43100000000004
174953.0,13598.0,2561.0100000000002,-851.95600000000002,-4599.9300000000003,-992.32500000000005,-6844.1700000000001,989.32299999999998
174954.0,43700.900000000001,5599.6000000000004,-1012.26,2885.48,-21823.799999999999,8539.5200000000004,-8737.3400000000001
174955.0,39635.5,56457.900000000001,19217.900000000001,33264.199999999997,-9263.7900000000009,9068.4200000000001,1387.95
174956.0,42036.300000000003,46879.400000000001,5052.5500000000002,20516.700000000001,-9542.3700000000008,6782.21,2166.2800000000002
174957.0,32279.400000000001,39970.900000000001,6600.9700000000003,16968.0,-6168.5100000000002,3555.4200000000001,2221.25
174958.0,28257.400000000001,27867.799999999999,-763.71600000000001,5958.9399999999996,-6090.0200000000004,1851.5699999999999,1218.0799999999999
174959.0,22455.0,22984.099999999999,963.43299999999999,3688.0900000000001,-4791.4300000000003,-44.855200000000004,1001.95
174960.0,19727.0,17528.299999999999,-905.495,-683.798,-3826.0599999999999,-1466.97,1002.84
174961.0,17200.5,14431.299999999999,-112.29000000000001,-2027.75,-2988.6399999999999,-2791.5500000000002,937.88999999999999
174962.0,16060.4,10940.5,-962.92600000000004,-4244.2700000000004,-2498.9400000000001,-3876.4299999999998,931.86800000000005
174963.0,15115.5,8872.2199999999993,-550.60299999999995,-4641.3699999999999,-2029.73,-4812.46,925.12400000000002
174964.0,14655.700000000001,6644.0299999999997,-962.02300000000002,-5305.8100000000004,-1721.27,-5579.8699999999999,954.84199999999998
174965.0,14245.9,5280.3599999999997,-723.16399999999999,-5017.0600000000004,-1453.76,-6150.1999999999998,978.65700000000004
174966.0,14093.1,3885.3600000000001,-940.23599999999999,-4914.2200000000003,-1243.3299999999999,-6647.0100000000002,1028.6300000000001
174967.0,14002.200000000001,2884.3699999999999,-821.95699999999999,-4373.1999999999998,-1033.55,-7069.4300000000003,1067.1199999999999
174968.0,49631.699999999997,13329.4,5061.4099999999999,10995.6,-25169.900000000001,12718.200000000001,2766.3499999999999
174969.0,44521.300000000003,60779.099999999999,17628.900000000001,37128.900000000001,-10642.799999999999,8683.1599999999999,2264.46
174970.0,44529.400000000001,53831.699999999997,8980.6299999999992,27336.5,-10261.9,6404.6899999999996,2491.04
174971.0,34192.699999999997,44625.199999999997,8755.6100000000006,21577.900000000001,-6181.9099999999999,3951.2199999999998,2348.6300000000001
174972.0,29743.099999999999,30486.400000000001,-159.88999999999999,8629.7700000000004,-6312.6899999999996,1788.02,1676.1900000000001
174973.0,23455.299999999999,24028.799999999999,597.29899999999998,4980.0,-5162.1300000000001,173.29400000000001,1233.96
174974.0,20396.599999999999,18987.700000000001,-599.471,866.76099999999997,-3989.2199999999998,-1489.28,1229.5899999999999
174975.0,17784.700000000001,15228.1,-346.57999999999998,-1378.8199999999999,-3193.2800000000002,-2732.4400000000001,1094.4100000000001
174976.0,16553.700000000001,11930.4,-807.54300000000001,-3435.6700000000001,-2626.7800000000002,-3966.1799999999998,1079.1300000000001
174977.0,15641.299999999999,9443.9400000000005,-731.94600000000003,-4391.2600000000002,-2162.77,-4936.96,1052.05
174978.0,15157.700000000001,7305.6800000000003,-881.56500000000005,-4894.4899999999998,-1808.76,-5789.0699999999997,1066.4300000000001
174979.0,14744.1,5637.25,-864.87099999999998,-4896.6499999999996,-1534.7,-6378.7799999999997,1081.25
174980.0,14555.6,4299.3500000000004,-912.89300000000003,-4644.8500000000004,-1298.9000000000001,-6891.4799999999996,1122.3399999999999
174981.0,14446.5,3103.1900000000001,-941.17200000000003,-4261.7200000000003,-1077.0799999999999,-7311.6300000000001,1158.8499999999999
174982.0,49366.5,43976.5,22266.599999999999,34389.599999999999,-20745.200000000001,14817.700000000001,6637.6599999999999
174983.0,49351.699999999997,65318.900000000001,18265.0,42563.0,-12523.700000000001,9427.2099999999991,3526.1399999999999
174984.0,46382.0,59904.400000000001,12021.799999999999,34585.400000000001,-10003.5,6138.2299999999996,2351.5
174985.0,37185.699999999997,47169.099999999999,7529.8999999999996,24402.5,-6760.1899999999996,4031.6599999999999,1805.6199999999999
174986.0,31046.200000000001,33461.699999999997,837.45899999999995,12493.4,-6460.2600000000002,1807.8800000000001,1724.3599999999999
174987.0,24967.200000000001,25433.200000000001,43.429600000000001,6666.3100000000004,-5621.6999999999998,410.358,1602.0
174988.0,21075.099999999999,20642.0,-241.768,2904.5500000000002,-4164.6400000000003,-1326.3099999999999,1475.0
174989.0,18546.299999999999,16300.1,-568.24300000000005,-397.46199999999999,-3434.3600000000001,-2683.8899999999999,1326.9100000000001
174990.0,17040.700000000001,13000.799999999999,-702.11400000000003,-2491.5,-2772.8800000000001,-3962.1100000000001,1256.0
174991.0,16233.200000000001,10248.9,-825.13499999999999,-3889.3099999999999,-2304.1399999999999,-5070.9399999999996,1223.5
174992.0,15670.0,7953.0299999999997,-899.71900000000005,-4505.8900000000003,-1901.77,-5974.6999999999998,1198.3199999999999
174993.0,15286.5,6153.46,-908.35599999999999,-4612.1599999999999,-1616.6700000000001,-6627.5100000000002,1200.4200000000001
174994.0,15036.700000000001,4676.5900000000001,-970.34299999999996,-4423.5200000000004,-1359.6800000000001,-7135.3699999999999,1225.3099999999999
174995.0,14915.5,3460.0599999999999,-962.428,-3994.77,-1125.3599999999999,-7566.5600000000004,1258.3399999999999
174996.0,50820.900000000001,67691.100000000006,28135.5,56133.5,-16265.0,13372.799999999999,1963.9400000000001
174997.0,54622.5,72896.399999999994,19900.5,50553.099999999999,-12862.1,10516.6,3257.6100000000001
174998.0,48652.400000000001,64136.800000000003,13563.5,40405.599999999999,-9971.2700000000004,6508.5100000000002,2647.9899999999998
174999.0,40617.099999999999,49112.800000000003,5803.9099999999999,27266.700000000001,-7539.79,4379.6199999999999,2227.04
175000.0,32907.800000000003,35589.900000000001,846.96100000000001,15841.200000000001,-6987.5500000000002,2198.1100000000001,1914.4000000000001
175001.0,26565.700000000001,27851.799999999999,300.70100000000002,9705.1499999999996,-5938.8599999999997,642.952,1851.3800000000001
175002.0,22181.299999999999,22225.599999999999,-398.43200000000002,4927.4499999999998,-4493.1899999999996,-996.73800000000006,1707.27
175003.0,19333.200000000001,17897.599999999999,-461.14100000000002,1376.5,-3656.1300000000001,-2549.6700000000001,1579.3900000000001
175004.0,17687.200000000001,14149.5,-822.255,-1457.8800000000001,-2986.6100000000001,-3896.3000000000002,1467.25
175005.0,16799.700000000001,11323.4,-792.21799999999996,-3011.1100000000001,-2446.1700000000001,-5151.1400000000003,1423.51
175006.0,16238.4,8697.5599999999995,-997.37,-4029.5700000000002,-2014.29,-6144.6800000000003,1373.49
175007.0,15818.0,6778.0200000000004,-920.40599999999995,-4179.25,-1695.24,-6859.7600000000002,1347.0899999999999
175008.0,15554.0,5111.3199999999997,-1058.26,-4141.5699999999997,-1427.1199999999999,-7387.6199999999999,1353.2
175009.0,15396.6,3835.9200000000001,-1007.84,-3689.1100000000001,-1175.71,-7824.1700000000001,1368.46
175010.0,56720.699999999997,75900.199999999997,27350.299999999999,65762.699999999997,-14184.299999999999,14465.200000000001,-2465.8499999999999
175011.0,61631.900000000001,79297.699999999997,18245.200000000001,56722.699999999997,-13017.6,11809.1,2080.1700000000001
175012.0,51115.400000000001,68584.5,15400.700000000001,46304.5,-10005.799999999999,7128.3599999999997,2582.8200000000002
175013.0,43897.199999999997,52443.300000000003,5904.0699999999997,31451.5,-8171.3100000000004,5124.6800000000003,2466.6399999999999
175014.0,35295.5,38132.5,979.79499999999996,19570.099999999999,-7595.0,2771.8099999999999,2192.7399999999998
175015.0,28569.299999999999,30363.200000000001,360.98899999999998,13174.200000000001,-6321.1999999999998,1097.01,2068.3099999999999
175016.0,23663.299999999999,24273.5,-396.892,7563.2700000000004,-4891.8699999999999,-622.55999999999995,1947.95
175017.0,20362.0,19747.5,-433.09699999999998,3509.98,-3943.52,-2234.9099999999999,1801.9000000000001
175018.0,18476.599999999999,15642.0,-852.40899999999999,30.9343,-3234.8600000000001,-3786.29,1703.5899999999999
175019.0,17422.700000000001,12592.1,-810.11099999999999,-1891.6500000000001,-2628.9299999999998,-5148.5500000000002,1633.8199999999999
175020.0,16825.299999999999,9648.6700000000001,-1060.3299999999999,-3274.96,-2142.25,-6287.9499999999998,1571.01
175021.0,16363.4,7530.7200000000003,-956.13599999999997,-3606.3600000000001,-1787.22,-7066.8500000000004,1507.1500000000001
175022.0,16085.799999999999,5656.9499999999998,-1116.51,-3713.02,-1501.1800000000001,-7640.6300000000001,1488.51
175023.0,15906.6,4301.79,-1040.24,-3286.8600000000001,-1232.45,-8087.4300000000003,1489.6600000000001
175024.0,60903.900000000001,79645.399999999994,27997.200000000001,65753.300000000003,-13824.5,17023.0,-6417.5
175025.0,69277.300000000003,80768.699999999997,11569.799999999999,57656.099999999999,-13918.299999999999,12796.200000000001,1101.97
175026.0,55411.599999999999,73057.100000000006,15793.4,53521.599999999999,-10336.700000000001,7999.7700000000004,2296.6100000000001
175027.0,48281.300000000003,54343.300000000003,3616.1399999999999,34758.0,-9154.0200000000004,5712.4399999999996,2481.6399999999999
175028.0,38349.300000000003,41991.0,1954.5899999999999,25153.599999999999,-8250.0499999999993,3470.8200000000002,2452.0999999999999
175029.0,31357.5,32760.5,-211.874,16549.599999999999,-6884.8000000000002,1722.05,2362.0
175030.0,25521.099999999999,27197.5,203.398,11383.9,-5320.04,-107.14400000000001,2199.1100000000001
175031.0,21889.400000000001,21624.799999999999,-793.69000000000005,5721.8900000000003,-4362.2399999999998,-1841.3099999999999,2074.8400000000001
175032.0,19450.099999999999,17746.0,-578.51700000000005,2298.04,-3523.2399999999998,-3555.4000000000001,1982.73
175033.0,18221.900000000001,13942.0,-1042.3599999999999,-634.18499999999995,-2862.96,-5103.6400000000003,1890.6400000000001
175034.0,17424.0,10975.200000000001,-949.70299999999997,-2061.04,-2292.8699999999999,-6362.4300000000003,1797.3199999999999
175035.0,16960.200000000001,8323.4400000000005,-1131.4300000000001,-2969.6100000000001,-1893.49,-7256.8100000000004,1708.45
175036.0,16628.799999999999,6416.0100000000002,-1082.6900000000001,-3053.3099999999999,-1575.8399999999999,-7870.8400000000001,1666.0699999999999
175037.0,16451.5,4760.3400000000001,-1180.5699999999999,-2862.3499999999999,-1285.76,-8356.0400000000009,1644.03
175038.0,65994.600000000006,74318.399999999994,20427.200000000001,54164.900000000001,-19376.0,16830.400000000001,-7185.2799999999997
175039.0,74342.0,87114.300000000003,13083.799999999999,63899.599999999999,-15082.6,13194.1,2657.29
175040.0,62021.099999999999,75515.899999999994,13141.5,58245.0,-11838.200000000001,9651.0200000000004,3424.02
175041.0,53560.800000000003,58707.5,3549.7800000000002,41571.900000000001,-10307.5,6405.0,3469.21
175042.0,42790.5,45170.800000000003,1408.71,30321.099999999999,-9288.2299999999996,4457.5900000000001,2990.1399999999999
175043.0,34772.099999999999,36805.099999999999,521.81100000000004,21990.200000000001,-7521.8299999999999,2386.1399999999999,2820.1300000000001
175044.0,28293.299999999999,29876.599999999999,-114.979,14998.200000000001,-5920.6800000000003,612.16700000000003,2555.3499999999999
175045.0,23847.299999999999,24633.900000000001,-328.233,9369.9599999999991,-4840.4499999999998,-1392.5599999999999,2416.0900000000001
175046.0,20894.299999999999,19829.400000000001,-825.95699999999999,4630.1800000000003,-3911.6999999999998,-3214.3400000000001,2306.1199999999999
175047.0,19182.900000000001,16024.6,-839.17899999999997,1559.8299999999999,-3129.7800000000002,-4979.7299999999996,2200.0900000000001
175048.0,18153.099999999999,12305.5,-1170.48,-778.16600000000005,-2482.96,-6370.3900000000003,2067.6799999999998
175049.0,17559.099999999999,9593.2900000000009,-1038.53,-1735.79,-2016.96,-7390.8400000000001,1941.71
175050.0,17192.5,7193.1899999999996,-1271.49,-2332.2199999999998,-1668.0699999999999,-8061.5200000000004,1872.1600000000001
175051.0,16984.200000000001,5556.5900000000001,-1132.5,-2056.4499999999998,-1342.73,-8590.7399999999998,1814.3499999999999
175052.0,71889.399999999994,69738.0,15987.9,47261.800000000003,-28405.700000000001,13482.700000000001,-2304.5999999999999
175053.0,77228.699999999997,98411.699999999997,22245.5,76454.0,-16234.9,13018.0,4248.9799999999996
175054.0,68576.899999999994,82520.800000000003,14835.9,65997.800000000003,-13590.0,10741.799999999999,4713.9799999999996
175055.0,59462.199999999997,65563.800000000003,5490.5799999999999,51124.300000000003,-11009.0,7498.1999999999998,4227.9499999999998
175056.0,48690.900000000001,49137.900000000001,532.25099999999998,36549.300000000003,-10649.6,5366.1800000000003,3419.3200000000002
175057.0,39258.699999999997,41796.199999999997,1584.72,29144.599999999999,-8298.5599999999995,3260.4299999999998,3389.5500000000002
175058.0,32289.299999999999,33478.099999999999,-411.92899999999997,19791.200000000001,-6724.4700000000003,1376.5599999999999,3122.3899999999999
175059.0,26540.400000000001,28082.200000000001,24.835599999999999,13854.299999999999,-5395.7799999999997,-760.08199999999999,2878.77
175060.0,22937.799999999999,22487.900000000001,-1017.13,7805.4799999999996,-4386.5500000000002,-2793.3699999999999,2711.7399999999998
175061.0,20438.200000000001,18447.799999999999,-712.26999999999998,4300.3100000000004,-3453.96,-4703.7600000000002,2540.3299999999999
175062.0,19061.0,14084.200000000001,-1318.1600000000001,1102.7,-2703.46,-6289.9300000000003,2373.4299999999998
175063.0,18186.799999999999,11051.1,-1039.22,-231.90799999999999,-2165.8200000000002,-7421.3299999999999,2190.3200000000002
175064.0,17782.700000000001,8297.8500000000004,-1356.3299999999999,-1219.8800000000001,-1778.6400000000001,-8199.6399999999994,2091.8499999999999
175065.0,17530.5,6466.29,-1186.9300000000001,-1126.8800000000001,-1416.01,-8773.8999999999996,2020.23
175066.0,75719.0,78649.100000000006,25229.599999999999,60967.900000000001,-32892.800000000003,8782.1200000000008,3387.9299999999998
175067.0,81009.0,106200.0,27758.099999999999,87265.100000000006,-18466.400000000001,12268.4,4526.6199999999999
175068.0,74045.699999999997,93716.699999999997,21192.099999999999,79387.0,-14664.299999999999,10618.700000000001,4948.6300000000001
175069.0,66518.300000000003,72663.899999999994,6441.6999999999998,60323.400000000001,-11805.200000000001,8668.7099999999991,4498.3599999999997
175070.0,55526.900000000001,54950.900000000001,952.98400000000004,45206.800000000003,-12079.4,6250.5900000000001,3818.0500000000002
175071.0,45275.099999999999,46796.800000000003,1609.3699999999999,36824.199999999997,-9315.9899999999998,4311.4700000000003,3785.4299999999998
175072.0,37454.300000000003,38357.099999999999,-201.60400000000001,26650.0,-7645.8800000000001,2278.9200000000001,3626.0999999999999
175073.0,30390.5,32145.400000000001,137.23599999999999,19310.900000000001,-6074.96,83.2303,3386.77
175074.0,25651.799999999999,26013.0,-848.67499999999995,12304.799999999999,-4911.1400000000003,-2184.6199999999999,3167.5799999999999
175075.0,22229.799999999999,21195.700000000001,-802.18499999999995,7612.6899999999996,-3852.52,-4261.3199999999997,2918.6799999999998
175076.0,20187.599999999999,16421.299999999999,-1300.3900000000001,3749.23,-2969.6199999999999,-6037.2700000000004,2687.5500000000002
175077.0,18960.200000000001,12801.200000000001,-1146.5799999999999,1668.1199999999999,-2354.4000000000001,-7327.54,2488.3499999999999
175078.0,18402.299999999999,9730.8299999999999,-1425.99,323.125,-1914.23,-8225.8299999999999,2355.1500000000001
175079.0,18111.700000000001,7666.29,-1275.9200000000001,147.441,-1518.55,-8879.4799999999996,2259.6900000000001
175080.0,77969.100000000006,91189.699999999997,33918.599999999999,83466.399999999994,-31711.0,5068.9899999999998,5416.9700000000003
175081.0,86639.0,110733.0,29378.299999999999,98010.5,-21492.599999999999,10448.9,3984.1300000000001
175082.0,81282.899999999994,102054.0,24257.799999999999,93036.0,-16189.0,10196.4,5057.8500000000004
175083.0,75667.399999999994,79709.899999999994,6064.21,70916.300000000003,-13424.6,9230.7399999999998,5028.8599999999997
175084.0,63821.699999999997,61768.5,1475.0699999999999,55681.400000000001,-13460.700000000001,7454.1599999999999,4382.2799999999997
175085.0,52509.099999999999,53025.300000000003,2195.9200000000001,45989.800000000003,-10553.9,5611.9200000000001,4205.6099999999997
175086.0,43718.800000000003,44044.800000000003,266.68099999999998,34888.199999999997,-8703.7600000000002,3405.0999999999999,4073.1700000000001
175087.0,35632.099999999999,36793.199999999997,-60.8294,26034.0,-6921.21,1136.7,3855.9000000000001
175088.0,29405.400000000001,30124.099999999999,-817.97400000000005,17941.400000000001,-5537.0100000000002,-1276.73,3602.9099999999999
175089.0,24732.599999999999,24575.099999999999,-833.04200000000003,11913.799999999999,-4323.4799999999996,-3579.2199999999998,3317.0300000000002
175090.0,21753.599999999999,19236.400000000001,-1283.97,7084.46,-3314.1300000000001,-5573.3500000000004,3038.0900000000001
175091.0,19985.200000000001,15017.6,-1247.6400000000001,4181.5600000000004,-2596.23,-7075.71,2784.7800000000002
175092.0,19134.099999999999,11654.4,-1379.6500000000001,2431.2800000000002,-2096.6700000000001,-8119.9099999999999,2606.9899999999998
175093.0,18751.0,9163.6800000000003,-1399.0699999999999,1775.3199999999999,-1661.47,-8876.4500000000007,2505.0799999999999
175094.0,82933.899999999994,98300.699999999997,34704.599999999999,101399.0,-29149.0,2923.1700000000001,4175.25
175095.0,93202.399999999994,113268.0,30418.200000000001,110529.0,-24277.900000000001,8740.5200000000004,3854.1900000000001
175096.0,90821.699999999997,108957.0,26251.299999999999,106966.0,-19395.400000000001,10484.200000000001,6076.8400000000001
175097.0,85462.699999999997,90485.600000000006,11074.9,87206.699999999997,-15917.299999999999,10320.700000000001,7478.9499999999998
175098.0,74067.899999999994,71396.300000000003,3513.6900000000001,69336.5,-14764.9,9052.2800000000007,6157.5900000000001
175099.0,62106.300000000003,59592.199999999997,1583.52,56604.800000000003,-12151.1,6942.4200000000001,4796.3000000000002
175100.0,51591.800000000003,50284.300000000003,424.93200000000002,44744.0,-9889.6700000000001,4780.8999999999996,4446.3599999999997
175101.0,42033.0,42760.800000000003,503.28800000000001,34516.400000000001,-7898.6899999999996,2548.5500000000002,4275.3800000000001
175102.0,34295.0,35206.099999999999,-418.66199999999998,24903.599999999999,-6282.6999999999998,-70.701300000000003,4060.9899999999998
175103.0,28261.099999999999,28594.799999999999,-894.96799999999996,17283.099999999999,-4906.4899999999998,-2605.9200000000001,3745.0300000000002
175104.0,24057.700000000001,22708.5,-1229.99,11376.700000000001,-3758.0900000000001,-4854.8800000000001,3439.8899999999999
175105.0,21475.599999999999,17788.200000000001,-1326.4100000000001,7401.1300000000001,-2900.02,-6619.3100000000004,3152.3200000000002
175106.0,20149.5,13914.299999999999,-1487.26,5019.1300000000001,-2327.3699999999999,-7838.2600000000002,2949.75
175107.0,19545.099999999999,11136.9,-1489.8800000000001,3998.4400000000001,-1844.8499999999999,-8706.5599999999995,2836.1599999999999
175108.0,90636.100000000006,98249.899999999994,30554.299999999999,113169.0,-28194.599999999999,1028.78,1974.6300000000001
175109.0,100141.0,114623.0,31525.400000000001,123837.0,-26143.0,8001.1700000000001,3166.2199999999998
175110.0,100188.0,116621.0,29798.299999999999,122240.0,-22445.099999999999,11338.0,5260.3400000000001
175111.0,93913.600000000006,106431.0,22278.799999999999,109034.0,-17695.700000000001,11790.9,7208.21
175112.0,84242.300000000003,86002.5,10557.6,87584.899999999994,-15807.299999999999,11032.700000000001,7486.96
175113.0,72654.300000000003,70526.300000000003,5539.5799999999999,71468.5,-14175.200000000001,9003.0200000000004,7006.7200000000003
175114.0,61239.699999999997,58833.699999999997,2180.6799999999998,57540.400000000001,-11191.4,6550.2200000000003,5996.6300000000001
175115.0,50834.699999999997,48651.900000000001,-559.15700000000004,44308.599999999999,-8984.8899999999994,4064.29,4675.3299999999999
175116.0,41131.400000000001,40471.0,-1036.49,33218.5,-7257.3299999999999,1476.8,4195.3599999999997
175117.0,33125.5,33610.5,-824.33299999999997,24096.299999999999,-5614.8599999999997,-1257.54,4054.4699999999998
175118.0,27435.200000000001,26812.599999999999,-1301.03,16647.400000000001,-4328.1199999999999,-3869.8600000000001,3813.75
175119.0,23698.5,21303.900000000001,-1333.1700000000001,11662.5,-3307.3400000000001,-5883.54,3550.4299999999998
175120.0,21698.200000000001,17012.200000000001,-1367.1900000000001,8567.0599999999995,-2616.6999999999998,-7359.3500000000004,3360.77
175121.0,20701.299999999999,13791.700000000001,-1393.0,7092.8699999999999,-2069.7800000000002,-8373.7399999999998,3245.6599999999999
175122.0,97934.300000000003,91476.899999999994,24982.299999999999,120744.0,-28077.900000000001,-675.053,362.86200000000002
175123.0,107333.0,113889.0,32187.299999999999,136098.0,-27817.599999999999,8329.0900000000001,1629.8599999999999
175124.0,109918.0,122288.0,31278.799999999999,136688.0,-24348.599999999999,12491.1,3395.52
175125.0,104703.0,116876.0,25734.099999999999,126527.0,-19243.0,13042.4,4548.3500000000004
175126.0,94783.899999999994,100461.0,17177.799999999999,107264.0,-16834.0,12802.5,5572.6300000000001
175127.0,82120.600000000006,86258.399999999994,14222.299999999999,90403.0,-15420.799999999999,11546.1,6468.0900000000001
175128.0,69574.800000000003,73771.0,11655.1,75074.199999999997,-12698.299999999999,9119.3799999999992,7447.5
175129.0,58817.800000000003,60483.0,6194.0299999999997,58942.300000000003,-9975.5900000000001,6582.79,7415.4899999999998
175130.0,48753.300000000003,48857.900000000001,1505.6500000000001,44127.900000000001,-7995.5,3789.5500000000002,5813.4799999999996
175131.0,39389.5,39559.5,-531.31600000000003,32110.700000000001,-6432.9200000000001,555.41999999999996,4558.0200000000004
175132.0,32061.5,31956.0,-1165.8800000000001,23150.700000000001,-4978.6099999999997,-2513.3299999999999,4150.6499999999996
175133.0,27063.0,25518.799999999999,-1456.3,16966.099999999999,-3880.3499999999999,-4922.6400000000003,3848.96
175134.0,24126.599999999999,20232.599999999999,-2068.79,12855.1,-3055.0,-6583.3199999999997,3503.5100000000002
175135.0,22552.5,16777.400000000001,-1976.0,10890.4,-2536.8499999999999,-7724.6000000000004,3384.1300000000001
175136.0,105077.0,77057.899999999994,15431.1,123888.0,-26655.200000000001,-2210.1199999999999,-2447.1900000000001
175137.0,114833.0,106331.0,28352.5,143318.0,-29379.299999999999,9185.6299999999992,-1926.78
175138.0,119215.0,125669.0,32646.200000000001,149904.0,-26191.400000000001,14709.4,1847.8900000000001
175139.0,116080.0,124000.0,26549.5,140485.0,-21041.099999999999,15589.200000000001,3760.9899999999998
175140.0,107046.0,110472.0,19261.599999999999,123996.0,-18345.799999999999,14951.0,3780.4899999999998
175141.0,94997.899999999994,96475.699999999997,14544.200000000001,106221.0,-16463.200000000001,13725.200000000001,3657.6900000000001
175142.0,79477.300000000003,87101.899999999994,17509.799999999999,92253.399999999994,-14333.1,11673.799999999999,4596.9300000000003
175143.0,64557.900000000001,78332.5,19476.700000000001,78540.0,-10445.4,9187.1599999999999,6080.7299999999996
175144.0,54530.5,62919.300000000003,10589.9,58819.300000000003,-8105.3199999999997,6245.8100000000004,6293.71
175145.0,45441.599999999999,49012.699999999997,3723.54,42638.0,-6979.29,2867.3600000000001,5510.54
175146.0,37644.099999999999,38685.699999999997,-170.751,30729.299999999999,-5502.79,-817.13599999999997,4481.9799999999996
175147.0,31630.900000000001,30393.200000000001,-1451.6400000000001,23030.0,-4760.3299999999999,-3761.6500000000001,4330.3000000000002
175148.0,27477.0,24991.900000000001,-1541.3399999999999,18802.099999999999,-3380.8000000000002,-5426.96,4252.3400000000001
175149.0,25559.5,20515.799999999999,-2712.2800000000002,15406.1,-2842.0799999999999,-6714.4499999999998,3951.4400000000001
175150.0,113945.0,49520.699999999997,-4519.8100000000004,117059.0,-23780.200000000001,-3073.8800000000001,-6506.3500000000004
175151.0,124052.0,88674.699999999997,18442.099999999999,144288.0,-31576.900000000001,10592.9,-6573.4200000000001
175152.0,128893.0,124840.0,32410.099999999999,160658.0,-28765.0,18197.299999999999,-550.01700000000005
175153.0,126019.0,133110.0,30816.700000000001,155527.0,-22078.5,19477.900000000001,2624.9299999999998
175154.0,117750.0,120078.0,22374.0,138295.0,-19772.299999999999,18307.799999999999,3100.6799999999998
175155.0,107622.0,105672.0,15997.700000000001,121112.0,-18378.299999999999,16984.200000000001,3625.1599999999999
175156.0,93468.5,94416.399999999994,15226.700000000001,105574.0,-15892.1,14943.799999999999,3147.3499999999999
175157.0,76488.5,86933.5,18945.799999999999,91987.699999999997,-11867.0,11762.200000000001,2675.7199999999998
175158.0,62361.300000000003,74967.699999999997,15958.0,73537.699999999997,-8908.2900000000009,8340.3600000000006,3757.52
175159.0,52002.099999999999,60296.400000000001,8556.6200000000008,54898.400000000001,-7189.6400000000003,4777.0,4236.25
175160.0,44486.199999999997,45523.199999999997,1.3918200000000001,38626.300000000003,-6321.1000000000004,822.10699999999997,4134.3900000000003
175161.0,37087.599999999999,36476.599999999999,-728.84400000000005,30375.900000000001,-5824.4899999999998,-2223.5100000000002,4633.29
175162.0,31213.599999999999,31936.700000000001,1151.8800000000001,26568.200000000001,-3990.6399999999999,-4153.8299999999999,4600.5
175163.0,28889.599999999999,26790.200000000001,-636.35500000000002,22264.5,-3056.2800000000002,-5654.3800000000001,4549.4799999999996
175164.0,121452.0,9921.9099999999999,-29844.299999999999,99361.899999999994,-19514.0,-1769.3299999999999,-12400.0
175165.0,133330.0,61515.699999999997,5641.9300000000003,138451.0,-33900.199999999997,13545.299999999999,-12100.5
175166.0,140341.0,119855.0,30155.599999999999,169754.0,-31967.0,22904.099999999999,-3851.1599999999999
175167.0,138012.0,140068.0,32453.799999999999,169307.0,-23567.299999999999,24466.700000000001,1013.78
175168.0,127538.0,131046.0,27065.299999999999,152223.0,-20484.400000000001,22638.799999999999,1535.22
175169.0,115934.0,118604.0,24174.799999999999,136591.0,-19694.900000000001,21025.299999999999,1996.29
175170.0,103966.0,105920.0,19576.299999999999,120127.0,-16616.5,18915.599999999999,2786.3099999999999
175171.0,90318.800000000003,91755.800000000003,14048.299999999999,101124.0,-13709.700000000001,15521.4,2356.9400000000001
175172.0,75376.399999999994,79902.100000000006,11297.9,83558.699999999997,-10610.6,11008.5,1781.76
175173.0,63476.0,65298.199999999997,3904.71,63656.099999999999,-8542.0400000000009,6408.3800000000001,2314.1599999999999
175174.0,53513.400000000001,51369.099999999999,-1529.0999999999999,47373.099999999999,-8010.7799999999997,2744.1100000000001,3906.0300000000002
175175.0,44052.900000000001,43516.400000000001,-296.97199999999998,39049.300000000003,-6721.0500000000002,-178.566,4516.4200000000001
175176.0,36962.800000000003,38207.0,1661.3099999999999,34230.300000000003,-5219.2399999999998,-2535.8800000000001,4440.9700000000003
175177.0,32816.099999999999,34225.900000000001,2326.9200000000001,30787.5,-3760.1199999999999,-4168.1499999999996,4570.6099999999997
175178.0,123475.0,-41205.599999999999,-49719.400000000001,67897.100000000006,-13922.1,3006.73,-24032.299999999999
175179.0,137866.0,31609.099999999999,617.96600000000001,127114.0,-34841.800000000003,20302.900000000001,-19035.700000000001
175180.0,147917.0,111667.0,29309.5,173018.0,-33764.699999999997,29521.200000000001,-9042.0799999999999
175181.0,150933.0,145348.0,32452.099999999999,180768.0,-25659.5,30486.599999999999,-2471.8200000000002
175182.0,139903.0,139914.0,27881.299999999999,164580.0,-21121.299999999999,27753.200000000001,-420.21100000000001
175183.0,126159.0,128293.0,26469.200000000001,148209.0,-20359.0,25016.400000000001,-931.52099999999996
175184.0,113376.0,116477.0,22822.0,131833.0,-17619.900000000001,22191.400000000001,-181.63499999999999
175185.0,101229.0,101206.0,15219.9,112532.0,-15002.1,18895.799999999999,1314.77
175186.0,88973.300000000003,83888.5,5091.9300000000003,90963.199999999997,-12437.1,14419.799999999999,1999.9200000000001
175187.0,76128.899999999994,69113.600000000006,-1152.4100000000001,71545.199999999997,-11228.799999999999,9537.3799999999992,3182.71
175188.0,62932.599999999999,59038.400000000001,-814.83900000000006,58113.699999999997,-9694.4300000000003,5592.8599999999997,4351.6099999999997
175189.0,52295.699999999997,51137.800000000003,44.507199999999997,48363.400000000001,-7730.1400000000003,2270.8200000000002,4605.6099999999997
175190.0,44037.400000000001,45691.199999999997,2649.1399999999999,42902.800000000003,-6425.3999999999996,-279.20499999999998,4994.1700000000001
175191.0,38043.400000000001,42729.300000000003,5352.6000000000004,40140.400000000001,-4524.8500000000004,-2130.96,4665.46
175192.0,138139.0,-120453.0,-80910.600000000006,5232.3599999999997,-7488.6700000000001,5800.5,-46270.0
175193.0,146850.0,-8021.1300000000001,-6920.3699999999999,103430.0,-34359.599999999999,28655.299999999999,-32964.400000000001
175194.0,151820.0,99217.600000000006,27860.400000000001,165895.0,-33179.300000000003,38813.5,-17621.099999999999
175195.0,159261.0,146326.0,31370.099999999999,182437.0,-27008.099999999999,37610.5,-9345.8799999999992
175196.0,152029.0,147691.0,27644.099999999999,173778.0,-22066.0,33539.300000000003,-4237.4899999999998
175197.0,138894.0,135242.0,23769.900000000001,156579.0,-21256.299999999999,29768.299999999999,-2451.5900000000001
175198.0,125020.0,122562.0,20414.200000000001,139102.0,-19871.5,26079.900000000001,-1584.72
175199.0,110931.0,110980.0,17949.299999999999,123169.0,-17213.5,22204.299999999999,425.399
175200.0,98715.0,94585.399999999994,8363.6399999999994,102000.0,-14390.0,18028.299999999999,2574.73
175201.0,85830.899999999994,79380.600000000006,2324.1199999999999,83247.899999999994,-13211.700000000001,13538.799999999999,3774.8800000000001
175202.0,72168.600000000006,68780.0,1752.0,69662.5,-10968.4,8981.7700000000004,4190.8400000000001
175203.0,60687.0,60554.599999999999,2588.6500000000001,59197.900000000001,-9144.3299999999999,5154.4700000000003,4799.3299999999999
175204.0,51260.300000000003,55823.900000000001,6032.4799999999996,53747.800000000003,-7344.1300000000001,2308.9400000000001,4819.7299999999996
175205.0,44706.0,51264.400000000001,7357.3100000000004,49332.699999999997,-5568.9499999999998,59.845799999999997,4428.2600000000002
175206.0,167853.0,-231362.0,-121334.0,-95196.699999999997,-3818.7600000000002,7450.5500000000002,-64029.699999999997
175207.0,163217.0,-67798.5,-25459.400000000001,54912.099999999999,-35942.800000000003,35750.0,-49243.900000000001
175208.0,160057.0,73231.0,13403.200000000001,141593.0,-34597.099999999999,49201.099999999999,-28415.700000000001
175209.0,164792.0,140216.0,26317.099999999999,171071.0,-28278.900000000001,46485.599999999999,-16684.599999999999
175210.0,159044.0,152790.0,27774.5,172955.0,-22826.599999999999,40190.400000000001,-10483.299999999999
175211.0,148877.0,143198.0,23360.700000000001,161725.0,-22005.400000000001,34966.400000000001,-6305.2600000000002
175212.0,136169.0,130256.0,19322.200000000001,145897.0,-21384.900000000001,30786.599999999999,-3674.7600000000002
175213.0,120855.0,119980.0,19438.299999999999,131515.0,-19482.400000000001,26190.400000000001,-1639.1600000000001
175214.0,106501.0,108095.0,16101.700000000001,114944.0,-16367.5,21575.900000000001,925.53200000000004
175215.0,93526.800000000003,93781.300000000003,10661.5,97327.300000000003,-14371.9,17163.900000000001,3032.1999999999998
175216.0,80594.899999999994,81192.699999999997,7468.2600000000002,82166.100000000006,-12302.700000000001,12683.6,4116.4899999999998
175217.0,68415.399999999994,73072.0,8641.0400000000009,72068.5,-10315.299999999999,8408.2999999999993,4533.5100000000002
175218.0,58925.400000000001,66509.199999999997,9594.75,64668.300000000003,-8222.2999999999993,4941.96,4406.04
175219.0,51841.0,61059.199999999997,10454.799999999999,59347.400000000001,-6700.2799999999997,2453.27,4383.2700000000004
175220.0,225987.0,-346047.0,-142027.0,-218719.0,7135.2200000000003,12368.9,-78738.399999999994
175221.0,185740.0,-139701.0,-39471.199999999997,-25725.799999999999,-34936.599999999999,42552.5,-67805.699999999997
175222.0,166731.0,37062.699999999997,-2338.6100000000001,97215.800000000003,-39446.0,58741.800000000003,-41787.199999999997
175223.0,172007.0,128931.0,15213.4,148768.0,-31281.599999999999,56031.400000000001,-23460.299999999999
175224.0,164596.0,152045.0,22038.299999999999,159448.0,-24845.0,46898.5,-15520.4
175225.0,154345.0,149324.0,23838.700000000001,159113.0,-23141.0,39950.5,-10905.6
175226.0,145150.0,137315.0,18189.700000000001,148407.0,-22536.599999999999,35377.5,-7185.1700000000001
175227.0,131663.0,127112.0,17672.099999999999,136661.0,-21510.099999999999,30440.5,-4233.1099999999997
175228.0,115684.0,117905.0,19064.400000000001,124165.0,-18547.900000000001,25269.200000000001,-1605.0699999999999
175229.0,100792.0,107548.0,18513.099999999999,110241.0,-15646.9,20398.400000000001,823.274
175230.0,87766.5,95497.399999999994,15557.9,95599.0,-13307.200000000001,15886.799999999999,2316.8200000000002
175231.0,76274.199999999997,85089.600000000006,13435.1,83660.800000000003,-11182.0,11332.700000000001,2787.6799999999998
175232.0,66547.300000000003,77135.699999999997,13282.4,75111.800000000003,-9639.7999999999993,7461.5100000000002,3195.6399999999999
175233.0,58678.199999999997,71670.100000000006,14605.6,69872.899999999994,-7850.6700000000001,4839.1899999999996,3211.9299999999998
175234.0,301030.0,-480232.0,-188681.0,-370362.0,20613.5,14358.299999999999,-88854.899999999994
175235.0,221383.0,-236273.0,-81298.100000000006,-146743.0,-34750.199999999997,44236.900000000001,-84378.699999999997
175236.0,174471.0,-12173.799999999999,-28481.900000000001,26007.299999999999,-47038.699999999997,62147.400000000001,-57355.300000000003
175237.0,180389.0,110943.0,-5193.2700000000004,112426.0,-38427.300000000003,62001.900000000001,-31172.900000000001
175238.0,172698.0,149965.0,11269.299999999999,141092.0,-29296.299999999999,52414.5,-17544.5
175239.0,157950.0,154137.0,22574.299999999999,150026.0,-24832.700000000001,43969.199999999997,-13082.5
175240.0,150023.0,143893.0,18428.599999999999,145293.0,-24035.5,38872.900000000001,-10355.0
175241.0,139917.0,133696.0,16510.700000000001,138134.0,-23398.299999999999,34217.099999999999,-7067.2200000000003
175242.0,125250.0,124979.0,18156.0,129107.0,-20504.299999999999,28897.5,-4166.3900000000003
175243.0,109704.0,116292.0,19920.599999999999,118322.0,-17252.700000000001,23399.799999999999,-2011.4300000000001
175244.0,95802.800000000003,105606.0,18702.799999999999,105451.0,-14475.1,18355.5,-209.04499999999999
175245.0,84473.800000000003,94485.300000000003,15475.5,92662.899999999994,-12331.5,13836.200000000001,1068.1800000000001
175246.0,74575.199999999997,85591.399999999994,14629.200000000001,83459.0,-11050.4,9967.5400000000009,1655.3
175247.0,66398.100000000006,79118.300000000003,15184.799999999999,77603.199999999997,-9186.8999999999996,7123.0299999999997,1859.3299999999999
175248.0,361397.0,-604336.0,-225730.0,-503703.0,9825.0,17608.200000000001,-68358.5
175249.0,245775.0,-323035.0,-119245.0,-256816.0,-52321.199999999997,46152.800000000003,-66788.5
175250.0,179519.0,-60240.400000000001,-56836.0,-51266.300000000003,-64528.900000000001,62841.0,-51076.699999999997
175251.0,185131.0,98796.100000000006,-17428.799999999999,73803.0,-51767.400000000001,63625.199999999997,-30882.700000000001
175252.0,179799.0,153888.0,4232.0900000000001,123534.0,-34646.599999999999,54999.5,-17089.599999999999
175253.0,162912.0,158682.0,16611.299999999999,137348.0,-26664.5,45716.900000000001,-13279.4
175254.0,152353.0,147377.0,15757.0,136023.0,-25599.200000000001,40164.599999999999,-12213.0
175255.0,144206.0,138286.0,15246.1,134197.0,-25168.200000000001,36290.199999999997,-9860.0599999999995
175256.0,132420.0,129928.0,15885.1,129170.0,-22244.200000000001,31616.799999999999,-6629.5299999999997
175257.0,118041.0,121305.0,17564.200000000001,121102.0,-19137.400000000001,26132.400000000001,-3881.6900000000001
175258.0,103684.0,111411.0,17774.799999999999,110408.0,-16150.9,20687.599999999999,-1741.2
175259.0,91716.600000000006,101501.0,16154.5,99190.300000000003,-13640.1,15930.9,-283.70600000000002
175260.0,81598.5,91861.699999999997,14600.299999999999,89376.699999999997,-12137.799999999999,11995.299999999999,620.18600000000004
175261.0,73097.100000000006,85086.399999999994,15203.299999999999,83283.399999999994,-10526.5,9036.5900000000001,1275.3599999999999
175262.0,65734.899999999994,54177.0,-8750.3099999999995,47727.300000000003,-14617.5,2073.3000000000002,-4884.6300000000001
175263.0,67689.699999999997,49765.900000000001,-17872.599999999999,35128.900000000001,-14813.299999999999,3297.8400000000001,-5531.1199999999999
175264.0,71666.0,51255.199999999997,-23916.799999999999,26418.400000000001,-13679.0,4922.6899999999996,-5811.29
175265.0,77668.199999999997,58189.599999999999,-24865.799999999999,23068.099999999999,-13842.9,7077.3199999999997,-5553.5299999999997
175266.0,85690.300000000003,65913.399999999994,-24618.5,21155.400000000001,-16627.099999999999,9806.4899999999998,-5087.8500000000004
175267.0,96666.399999999994,70600.5,-29000.900000000001,15807.1,-20498.099999999999,13514.700000000001,-4853.9300000000003
175268.0,107991.0,76854.699999999997,-32428.799999999999,12001.1,-22399.299999999999,18455.5,-4955.7200000000003
175269.0,121174.0,86930.600000000006,-33411.800000000003,11902.299999999999,-23362.099999999999,24936.599999999999,-5708.7200000000003
175270.0,142986.0,104773.0,-36199.400000000001,16257.700000000001,-24033.900000000001,33408.099999999999,-6681.5
175271.0,170623.0,125622.0,-38901.800000000003,23462.5,-29697.400000000001,43115.599999999999,-8008.8199999999997
175272.0,188978.0,125154.0,-40200.0,18177.099999999999,-47061.199999999997,50443.199999999997,-10613.6
175273.0,184273.0,73936.199999999997,-46504.400000000001,-21680.299999999999,-67197.899999999994,50869.800000000003,-13093.200000000001
175274.0,155773.0,-51243.599999999999,-35464.300000000003,-98639.199999999997,-75363.300000000003,34964.800000000003,-10255.299999999999
175275.0,270138.0,-300882.0,-46814.699999999997,-248799.0,-79418.399999999994,2111.27,1776.8800000000001
175276.0,69729.100000000006,60482.800000000003,-6785.3900000000003,53493.0,-14219.700000000001,3561.9499999999998,-6159.3000000000002
175277.0,73321.300000000003,57610.900000000001,-15473.6,43298.699999999997,-14684.4,4783.9700000000003,-7309.1400000000003
175278.0,77243.5,58946.0,-20772.700000000001,35853.0,-14338.200000000001,6259.7299999999996,-7849.3299999999999
175279.0,82129.5,63720.5,-22327.799999999999,31344.799999999999,-15181.9,8346.6200000000008,-7706.5200000000004
175280.0,88634.899999999994,68287.800000000003,-23485.400000000001,26611.299999999999,-18126.099999999999,11109.799999999999,-7432.5200000000004
175281.0,97867.5,70352.899999999994,-28723.799999999999,19020.400000000001,-21420.900000000001,14904.1,-7521.54
175282.0,107190.0,73297.5,-33585.900000000001,13378.6,-22662.900000000001,19670.299999999999,-7705.1300000000001
175283.0,116711.0,79648.600000000006,-34690.0,13161.6,-22943.299999999999,25515.599999999999,-8111.0
175284.0,135173.0,93372.600000000006,-38353.800000000003,16876.799999999999,-22960.299999999999,33134.5,-9479.7000000000007
175285.0,158852.0,115227.0,-37358.0,27325.200000000001,-24290.799999999999,42081.400000000001,-13599.700000000001
175286.0,175682.0,115191.0,-35231.099999999999,24384.200000000001,-40279.300000000003,49556.5,-21724.099999999999
175287.0,177776.0,59669.199999999997,-52200.699999999997,-23695.799999999999,-60021.900000000001,52419.599999999999,-28370.0
175288.0,156071.0,-63757.699999999997,-44292.0,-109668.0,-67164.100000000006,39590.0,-30235.099999999999
175289.0,288644.0,-315291.0,-44762.400000000001,-280428.0,-72305.300000000003,2952.1100000000001,-29641.099999999999
175290.0,73547.800000000003,68558.100000000006,-3067.6900000000001,61129.099999999999,-13789.799999999999,5028.0299999999997,-6045.04
175291.0,78436.0,68195.5,-9830.1700000000001,54347.199999999997,-14730.0,6547.2399999999998,-7603.2600000000002
175292.0,82562.199999999997,70210.899999999994,-13486.4,49181.599999999999,-15348.6,8155.6199999999999,-8618.9699999999993
175293.0,86588.800000000003,72782.199999999997,-15545.9,44148.5,-16844.400000000001,10246.299999999999,-8923.5699999999997
175294.0,92219.600000000006,73505.399999999994,-19394.400000000001,36821.900000000001,-19962.700000000001,12983.700000000001,-8851.3700000000008
175295.0,100187.0,71929.100000000006,-27756.5,26531.400000000001,-22580.299999999999,16328.200000000001,-8855.0400000000009
175296.0,107926.0,72274.699999999997,-34531.099999999999,19576.299999999999,-23276.0,20073.700000000001,-9269.4300000000003
175297.0,114896.0,75856.699999999997,-37046.699999999997,19092.700000000001,-23081.400000000001,24023.700000000001,-10182.299999999999
175298.0,129282.0,85866.0,-41345.0,23948.5,-22074.299999999999,30023.599999999999,-11662.0
175299.0,149454.0,109634.0,-36243.0,41614.900000000001,-20452.900000000001,38729.599999999999,-14109.6
175300.0,165523.0,117879.0,-27461.900000000001,50908.900000000001,-33289.599999999999,46638.5,-23609.400000000001
175301.0,173802.0,71365.800000000003,-45951.0,12037.5,-50382.900000000001,50668.900000000001,-39016.699999999997
175302.0,151339.0,-40212.599999999999,-41412.800000000003,-63973.0,-54879.400000000001,40554.599999999999,-52905.099999999999
175303.0,263730.0,-274088.0,-42906.400000000001,-231069.0,-58346.400000000001,5148.1400000000003,-68094.699999999997
175304.0,76633.100000000006,75865.300000000003,712.84799999999996,68387.699999999997,-13221.799999999999,6237.8900000000003,-5465.4499999999998
175305.0,82330.100000000006,78395.100000000006,-3236.29,65495.400000000001,-14776.6,8218.4200000000001,-6916.6000000000004
175306.0,87124.399999999994,80929.5,-5903.2600000000002,62478.400000000001,-16405.400000000001,10240.4,-7967.7700000000004
175307.0,91456.5,81853.899999999994,-9059.7700000000004,57664.699999999997,-18577.099999999999,12284.200000000001,-8659.8799999999992
175308.0,97323.699999999997,79383.100000000006,-16332.200000000001,48741.599999999999,-21661.5,14465.1,-9470.4500000000007
175309.0,105081.0,75404.600000000006,-28011.599999999999,36998.300000000003,-23524.700000000001,16885.599999999999,-10462.1
175310.0,111530.0,75703.199999999997,-34942.300000000003,30744.400000000001,-23336.599999999999,19265.299999999999,-11584.0
175311.0,116670.0,79929.600000000006,-36012.099999999999,31360.0,-22868.900000000001,21365.5,-12952.5
175312.0,125230.0,90027.199999999997,-35015.199999999997,40219.699999999997,-21326.400000000001,24815.900000000001,-13931.200000000001
175313.0,141725.0,107311.0,-33703.699999999997,58340.800000000003,-19917.5,30961.599999999999,-14631.0
175314.0,160932.0,119800.0,-30442.0,76581.0,-27329.099999999999,37934.900000000001,-21556.799999999999
175315.0,171026.0,96215.399999999994,-36950.5,66422.0,-39983.400000000001,42575.199999999997,-38134.0
175316.0,147869.0,12964.1,-25057.299999999999,21321.799999999999,-45481.599999999999,34392.599999999999,-58530.900000000001
175317.0,214570.0,-182957.0,-25833.099999999999,-112332.0,-45244.400000000001,3726.6399999999999,-84218.899999999994
175318.0,78930.199999999997,81168.5,3634.2600000000002,74205.699999999997,-12780.4,7271.8500000000004,-4514.2399999999998
175319.0,85515.899999999994,85720.0,1372.27,74223.699999999997,-14851.4,9386.9099999999999,-6053.2399999999998
175320.0,91259.0,88936.399999999994,-854.44899999999996,73129.0,-17111.0,11524.9,-7267.9499999999998
175321.0,96711.300000000003,88834.899999999994,-5734.25,68445.0,-19647.900000000001,13541.200000000001,-8446.6900000000005
175322.0,102990.0,86730.100000000006,-13557.1,60659.400000000001,-22174.200000000001,15354.700000000001,-10033.200000000001
175323.0,110390.0,83868.899999999994,-24274.700000000001,50904.0,-23633.0,17130.200000000001,-11738.4
175324.0,116049.0,85572.399999999994,-29510.400000000001,46656.699999999997,-23540.299999999999,18609.700000000001,-12728.4
175325.0,119469.0,90982.699999999997,-28255.200000000001,48900.099999999999,-23401.5,19505.700000000001,-13137.799999999999
175326.0,122791.0,100649.0,-23025.400000000001,58552.199999999997,-22221.5,20312.200000000001,-12875.299999999999
175327.0,133830.0,115153.0,-20718.0,75438.0,-20447.400000000001,22516.599999999999,-12821.4
175328.0,154173.0,131757.0,-20101.5,99887.399999999994,-22283.599999999999,26884.799999999999,-17071.299999999999
175329.0,168897.0,127221.0,-20319.900000000001,116421.0,-31902.900000000001,29367.0,-29405.700000000001
175330.0,153008.0,66680.600000000006,-11764.5,101142.0,-41181.599999999999,21039.900000000001,-48135.699999999997
175331.0,169952.0,-84403.5,-8581.1700000000001,18327.0,-41049.599999999999,-5589.0900000000001,-71230.600000000006
175332.0,80812.899999999994,83468.300000000003,4249.0900000000001,77271.399999999994,-12555.299999999999,8162.75,-3403.4499999999998
175333.0,88620.199999999997,90392.699999999997,3419.6100000000001,80387.699999999997,-14860.700000000001,10301.799999999999,-5111.5699999999997
175334.0,94861.399999999994,95684.699999999997,2928.9899999999998,81848.5,-17158.299999999999,12369.700000000001,-6946.5
175335.0,100857.0,97358.199999999997,-550.197,79185.100000000006,-19881.599999999999,14401.700000000001,-8701.1299999999992
175336.0,107491.0,97028.600000000006,-7316.4799999999996,73268.600000000006,-22239.599999999999,16200.299999999999,-10164.0
175337.0,114439.0,96618.800000000003,-15457.9,66581.100000000006,-23736.400000000001,17519.200000000001,-11379.200000000001
175338.0,120020.0,98664.199999999997,-20247.400000000001,63405.0,-24450.0,18110.599999999999,-12069.1
175339.0,123304.0,103325.0,-20241.0,64886.800000000003,-24700.299999999999,17683.099999999999,-12098.299999999999
175340.0,124506.0,112388.0,-14357.799999999999,73072.199999999997,-23756.599999999999,16165.4,-11513.0
175341.0,130439.0,127606.0,-8387.2800000000007,88104.5,-20958.700000000001,15096.299999999999,-10491.5
175342.0,145697.0,152555.0,642.89499999999998,117778.0,-19538.400000000001,15223.700000000001,-11305.700000000001
175343.0,162491.0,160796.0,3664.5100000000002,145576.0,-27810.799999999999,13609.200000000001,-18229.200000000001
175344.0,156210.0,119683.0,11788.1,154852.0,-39940.699999999997,2266.0,-31239.200000000001
175345.0,159244.0,-10436.0,7524.3000000000002,105351.0,-42627.5,-21978.400000000001,-47639.0
175346.0,81677.0,84319.100000000006,4346.3299999999999,78245.100000000006,-12407.6,8989.7600000000002,-2585.3499999999999
175347.0,90821.800000000003,92638.199999999997,3912.8800000000001,83527.199999999997,-14900.200000000001,11432.799999999999,-3812.6300000000001
175348.0,97911.199999999997,100597.0,5492.1199999999999,88318.800000000003,-17427.200000000001,13686.1,-5339.2299999999996
175349.0,104369.0,104086.0,3636.5700000000002,88038.600000000006,-20549.799999999999,15721.200000000001,-7042.5299999999997
175350.0,111797.0,105073.0,-2691.9699999999998,83546.899999999994,-23231.299999999999,17382.599999999999,-8488.6599999999999
175351.0,118885.0,106157.0,-10125.9,78155.300000000003,-24625.599999999999,18184.599999999999,-9532.7099999999991
175352.0,124455.0,110373.0,-13261.799999999999,76547.100000000006,-25637.099999999999,17735.099999999999,-10423.299999999999
175353.0,128267.0,115994.0,-13492.700000000001,77652.899999999994,-26129.200000000001,16102.799999999999,-10864.0
175354.0,129958.0,127187.0,-7247.9700000000003,85314.600000000006,-24801.400000000001,12947.1,-10708.700000000001
175355.0,134112.0,145820.0,2632.6199999999999,100458.0,-21476.299999999999,9176.1700000000001,-9741.7700000000004
175356.0,147915.0,175051.0,14890.9,127140.0,-21189.200000000001,4673.6599999999999,-8020.0299999999997
175357.0,162975.0,191695.0,23105.400000000001,155566.0,-29954.599999999999,-2393.1700000000001,-8468.9500000000007
175358.0,160924.0,158313.0,29498.299999999999,168396.0,-45567.400000000001,-19441.099999999999,-13415.6
175359.0,157892.0,37985.300000000003,35610.300000000003,144333.0,-47535.599999999999,-43011.300000000003,-18555.799999999999
175360.0,81793.899999999994,84534.300000000003,4429.8599999999997,78200.199999999997,-12184.700000000001,9645.8099999999995,-2327.7800000000002
175361.0,91600.100000000006,93690.199999999997,4467.1199999999999,84637.800000000003,-14779.9,12498.200000000001,-3245.4499999999998
175362.0,100156.0,101824.0,5184.3999999999996,90316.399999999994,-17633.099999999999,15063.5,-4406.9799999999996
175363.0,107914.0,106919.0,3727.4699999999998,92263.699999999997,-20944.299999999999,17047.599999999999,-5960.9499999999998
175364.0,116411.0,109204.0,-2519.8299999999999,89176.600000000006,-23867.0,18481.0,-7576.7700000000004
175365.0,124065.0,112740.0,-8446.7199999999993,85626.0,-25473.599999999999,19053.5,-8577.5799999999999
175366.0,129572.0,119206.0,-9881.4500000000007,84726.600000000006,-26710.099999999999,18263.700000000001,-9063.3500000000004
175367.0,133193.0,128618.0,-6810.7200000000003,87347.800000000003,-27510.799999999999,15946.200000000001,-9163.9899999999998
175368.0,136374.0,143175.0,-135.19200000000001,94753.899999999994,-25759.700000000001,12096.4,-8659.4899999999998
175369.0,143789.0,168953.0,12783.799999999999,112005.0,-23571.5,6034.1300000000001,-7322.3299999999999
175370.0,164730.0,195239.0,16306.1,128103.0,-29097.799999999999,-2849.7399999999998,-4475.5699999999997
175371.0,179204.0,205577.0,22952.299999999999,144752.0,-42585.099999999999,-15556.5,1220.78
175372.0,177925.0,160401.0,24576.599999999999,138610.0,-62669.800000000003,-35521.599999999999,6479.75
175373.0,169281.0,38464.900000000001,63774.800000000003,129370.0,-57303.099999999999,-61932.599999999999,15217.6
175374.0,82162.0,85114.800000000003,4871.7399999999998,79155.100000000006,-12063.4,10072.0,-2115.9299999999998
175375.0,92151.5,94498.800000000003,5016.3500000000004,85662.800000000003,-14689.799999999999,13165.799999999999,-3162.1700000000001
175376.0,101551.0,103081.0,5472.4799999999996,91702.899999999994,-17686.099999999999,16040.6,-4320.0
175377.0,110652.0,108732.0,3140.0100000000002,94132.5,-20920.200000000001,18351.599999999999,-5753.9099999999999
175378.0,120009.0,113672.0,-1456.6300000000001,93679.699999999997,-23701.200000000001,19991.5,-7424.8500000000004
175379.0,128352.0,119228.0,-5780.6199999999999,91800.399999999994,-25828.0,20764.400000000001,-8735.1100000000006
175380.0,134425.0,127809.0,-5826.5200000000004,91512.800000000003,-27491.299999999999,20217.400000000001,-9145.7299999999996
175381.0,137338.0,139715.0,-258.95499999999998,94105.600000000006,-28138.099999999999,17939.099999999999,-8795.4899999999998
175382.0,142765.0,159246.0,7854.4399999999996,101847.0,-26608.700000000001,13783.799999999999,-7381.3900000000003
175383.0,157624.0,188845.0,16432.799999999999,115641.0,-26891.400000000001,6634.8900000000003,-5174.46
175384.0,185848.0,213364.0,14273.0,121888.0,-39462.900000000001,-4420.2200000000003,-2287.7199999999998
175385.0,197691.0,201759.0,14169.5,113698.0,-61168.0,-20886.799999999999,6402.71
175386.0,194052.0,112390.0,3698.77,65897.100000000006,-86594.5,-39556.800000000003,22687.599999999999
175387.0,224073.0,-48262.699999999997,62593.300000000003,26140.799999999999,-79163.199999999997,-67599.699999999997,52032.599999999999
175388.0,82494.600000000006,85072.199999999997,5033.7799999999997,80105.699999999997,-12010.700000000001,10497.799999999999,-1700.3900000000001
175389.0,92924.600000000006,94793.899999999994,5314.1499999999996,87184.0,-14767.4,13822.9,-2823.9899999999998
175390.0,102855.0,103382.0,5309.7399999999998,92924.699999999997,-17844.299999999999,17057.799999999999,-4046.8600000000001
175391.0,112746.0,110555.0,3563.6900000000001,96240.800000000003,-20938.299999999999,19908.299999999999,-5383.1400000000003
175392.0,122584.0,117310.0,405.08100000000002,97413.199999999997,-23670.299999999999,22177.599999999999,-6677.4799999999996
175393.0,131554.0,125291.0,-1502.46,98027.699999999997,-26400.5,23570.599999999999,-7865.5600000000004
175394.0,138606.0,134667.0,-1591.47,97738.100000000006,-28226.700000000001,23774.0,-8712.5900000000001
175395.0,141379.0,149528.0,6597.7399999999998,101642.0,-28526.200000000001,21915.599999999999,-8722.8899999999994
175396.0,150378.0,170998.0,12159.299999999999,105905.0,-27996.599999999999,18168.299999999999,-6937.0
175397.0,171883.0,204561.0,17955.5,115720.0,-31452.599999999999,11575.799999999999,-3544.6199999999999
175398.0,199503.0,217705.0,12193.6,107568.0,-51791.099999999999,2757.3600000000001,493.327
175399.0,204501.0,179100.0,8964.8199999999997,69261.899999999994,-79243.300000000003,-11814.6,8952.0799999999999
175400.0,199237.0,34909.900000000001,-8049.2700000000004,-27840.799999999999,-103380.0,-29684.599999999999,25180.299999999999
175401.0,312849.0,-217627.0,15630.299999999999,-156432.0,-103120.0,-58428.0,62854.300000000003
175402.0,82327.0,85825.100000000006,6365.21,81805.100000000006,-11827.200000000001,10666.700000000001,-1430.8399999999999
175403.0,93509.5,94837.399999999994,5574.2600000000002,88959.399999999994,-14580.6,14231.200000000001,-2639.73
175404.0,104311.0,103581.0,5258.21,95236.699999999997,-17813.900000000001,17912.700000000001,-4063.3699999999999
175405.0,114939.0,110727.0,2916.8000000000002,98306.699999999997,-20854.5,21460.099999999999,-5369.5699999999997
175406.0,124979.0,118959.0,1400.46,100848.0,-23657.599999999999,24447.799999999999,-6547.0100000000002
175407.0,134561.0,126922.0,-698.75999999999999,101386.0,-26667.099999999999,26567.099999999999,-7651.5500000000002
175408.0,142172.0,138126.0,884.51099999999997,103381.0,-28455.0,27686.700000000001,-8370.1299999999992
175409.0,146702.0,153743.0,7981.7600000000002,107079.0,-29142.5,26686.0,-8469.3199999999997
175410.0,158926.0,177047.0,11844.9,109463.0,-29648.900000000001,24418.099999999999,-6767.0500000000002
175411.0,183306.0,206321.0,12974.9,109465.0,-37694.199999999997,20644.5,-2760.5799999999999
175412.0,203825.0,202952.0,7643.3100000000004,86601.100000000006,-62855.800000000003,15592.9,1137.0899999999999
175413.0,202994.0,121085.0,-9362.4099999999999,9355.5100000000002,-92980.199999999997,7585.21,7593.1999999999998
175414.0,206948.0,-58990.400000000001,-18590.700000000001,-122444.0,-105673.0,-7091.6700000000001,17834.5
175415.0,388617.0,-386704.0,-22974.0,-331495.0,-97391.899999999994,-37589.599999999999,31950.900000000001
175416.0,81449.600000000006,86786.899999999994,8391.4099999999999,83513.0,-11536.4,10510.200000000001,-1074.1900000000001
175417.0,92992.5,95980.300000000003,7689.5200000000004,91538.600000000006,-14110.700000000001,14263.0,-2390.5999999999999
175418.0,104680.0,104376.0,6642.54,98427.699999999997,-17340.700000000001,18269.200000000001,-4028.8800000000001
175419.0,116523.0,111555.0,3741.9899999999998,102474.0,-20387.299999999999,22410.200000000001,-5688.8400000000001
175420.0,127244.0,119674.0,2119.7199999999998,105494.0,-23256.5,26204.099999999999,-7197.5699999999997
175421.0,136963.0,128442.0,1229.6900000000001,106878.0,-26167.099999999999,29328.0,-8554.2399999999998
175422.0,143953.0,139520.0,4143.5500000000002,109399.0,-28035.799999999999,31387.0,-9177.9799999999996
175423.0,151071.0,154061.0,7821.1800000000003,111285.0,-29209.5,31935.299999999999,-8999.0799999999999
175424.0,165165.0,177761.0,10441.700000000001,113045.0,-30184.299999999999,31735.5,-7507.04
175425.0,188019.0,196174.0,7640.1800000000003,102683.0,-42715.0,32319.900000000001,-5300.5699999999997
175426.0,199525.0,172772.0,702.03800000000001,61440.400000000001,-67845.899999999994,32222.900000000001,-3653.77
175427.0,194049.0,55482.699999999997,-22556.900000000001,-42357.800000000003,-95095.800000000003,28634.599999999999,-3557.8400000000001
175428.0,226663.0,-165910.0,-43018.199999999997,-208814.0,-96706.699999999997,19124.599999999999,1475.54
175429.0,454021.0,-509129.0,-43432.599999999999,-443840.0,-70870.199999999997,-10509.200000000001,1312.71
175430.0,79724.300000000003,88561.199999999997,12006.200000000001,85851.699999999997,-11211.6,10275.9,-705.64200000000005
175431.0,90646.600000000006,96768.699999999997,10989.0,93159.399999999994,-13596.799999999999,14042.299999999999,-1736.5899999999999
175432.0,102365.0,105892.0,10732.5,101526.0,-16256.9,18191.900000000001,-3361.1799999999998
175433.0,114966.0,113366.0,8153.21,107383.0,-19149.099999999999,22718.099999999999,-5560.5299999999997
175434.0,127269.0,121878.0,6544.6099999999997,112499.0,-22170.400000000001,27302.700000000001,-7713.29
175435.0,137913.0,129554.0,4791.2299999999996,114324.0,-25133.599999999999,31429.700000000001,-9378.4200000000001
175436.0,145126.0,139727.0,7727.9499999999998,116967.0,-27603.700000000001,34287.800000000003,-10184.5
175437.0,153579.0,150877.0,7244.3199999999997,115930.0,-28770.099999999999,36398.300000000003,-9945.0499999999993
175438.0,168050.0,173059.0,9396.6000000000004,117618.0,-29842.200000000001,38944.5,-8826.2199999999993
175439.0,186708.0,180979.0,5368.9700000000003,102051.0,-43218.400000000001,43796.400000000001,-9902.0
175440.0,193033.0,137558.0,-6020.5600000000004,46148.199999999997,-67736.100000000006,48899.800000000003,-12618.5
175441.0,188115.0,-1772.76,-27527.200000000001,-73489.699999999997,-88331.399999999994,49022.599999999999,-16438.700000000001
175442.0,259251.0,-251565.0,-54993.5,-257613.0,-84889.800000000003,40154.0,-17219.900000000001
175443.0,467375.0,-607886.0,-111754.0,-522979.0,-43316.599999999999,9110.3600000000006,-21056.599999999999
175444.0,77084.5,88650.899999999994,14922.200000000001,86300.300000000003,-11091.1,10078.9,-170.727
175445.0,86771.100000000006,95845.699999999997,13834.5,92784.399999999994,-13038.6,13334.6,-735.46400000000006
175446.0,97840.5,105138.0,14252.299999999999,101973.0,-14924.6,17425.299999999999,-1920.46
175447.0,110297.0,114593.0,14569.4,111415.0,-17669.400000000001,22266.200000000001,-3851.8699999999999
175448.0,123951.0,123689.0,13414.9,119175.0,-20735.599999999999,27513.700000000001,-6325.2200000000003
175449.0,136493.0,131609.0,11502.0,123792.0,-23747.900000000001,32407.200000000001,-8941.5900000000001
175450.0,145689.0,139605.0,11529.5,125884.0,-26676.400000000001,36018.699999999997,-11016.4
175451.0,153890.0,148971.0,10526.700000000001,125029.0,-27438.200000000001,39129.199999999997,-11617.299999999999
175452.0,167174.0,165035.0,10678.799999999999,125208.0,-28672.700000000001,44131.099999999999,-11158.0
175453.0,183536.0,166479.0,5117.5200000000004,110355.0,-39768.900000000001,52321.0,-14107.6
175454.0,188423.0,109070.0,-12465.1,50013.099999999999,-63267.199999999997,60299.400000000001,-22405.799999999999
175455.0,186774.0,-52089.0,-44836.599999999999,-82839.300000000003,-80577.100000000006,61998.0,-29743.200000000001
175456.0,271215.0,-318763.0,-87596.899999999994,-283335.0,-72984.399999999994,49449.599999999999,-35301.199999999997
175457.0,428413.0,-648132.0,-188872.0,-553358.0,-15946.5,18464.700000000001,-42330.599999999999
210332.0,98.240799999999993,31.662099999999999,22.539999999999999,45.128599999999999,-11.4465,-0.46521499999999999,54.375700000000002
210333.0,27.842099999999999,-32.4559,-18.7453,-2.6886199999999998,-2.2125300000000001,1.08121,5.5089399999999999
210334.0,64.6721,-4.8786199999999997,6.4976799999999999,24.983599999999999,-33.445,-2.8160799999999999,-6.3649300000000002
210335.0,75.086100000000002,21.053100000000001,29.0593,50.360500000000002,-38.388800000000003,-8.5782299999999996,-10.1273
210336.0,30.5946,-27.032599999999999,-8.9903899999999997,6.4464600000000001,-4.9231499999999997,1.1535299999999999,2.3801600000000001
210337.0,79.229200000000006,29.135300000000001,22.176200000000001,37.593600000000002,-10.4582,-8.23508,43.076900000000002
210338.0,50.806899999999999,-83.254499999999993,-77.177099999999996,-65.212199999999996,-7.6926699999999997,2.59022,26.651299999999999
210339.0,91.213099999999997,3.62452,-27.8979,40.9238,-15.612500000000001,-3.7259099999999998,36.452100000000002
210340.0,54.535200000000003,9.4661200000000001,-2.3275700000000001,19.154699999999998,-11.154400000000001,-6.7595299999999998,26.561399999999999
210341.0,42.101399999999998,15.9329,5.10778,31.310400000000001,-12.275700000000001,-1.65724,16.248999999999999
210342.0,28.4069,14.3531,13.6829,31.0213,-7.0253699999999997,0.97417399999999998,11.0542
210343.0,22.747900000000001,7.2142499999999998,10.2273,25.564399999999999,0.665605,1.09283,8.6030499999999996
210344.0,26.0335,-6.3043899999999997,2.4850599999999998,17.237200000000001,-0.32466299999999998,1.26932,9.0930499999999999
210345.0,29.708600000000001,-27.8354,-4.4430199999999997,1.74787,-6.55532,1.32328,-2.4547500000000002
210346.0,28.5915,-13.396599999999999,9.85229,9.8906700000000001,-8.1136999999999997,1.8229200000000001,-4.782
210347.0,29.1875,-10.142099999999999,11.008100000000001,8.9108199999999993,-10.770099999999999,4.1482400000000004,-3.8700199999999998
210348.0,36.694800000000001,-9.8590199999999992,7.4892000000000003,11.468999999999999,-16.644200000000001,6.1500700000000004,-2.3172700000000002
210349.0,50.189100000000003,-20.7424,-7.1241000000000003,6.0807599999999997,-25.0928,5.2950900000000001,-1.4413499999999999
210350.0,83.299999999999997,55.9086,55.096899999999998,87.353700000000003,-43.351799999999997,-5.3453200000000001,-8.16615
210351.0,109.824,27.811,14.0253,67.924499999999995,-56.668599999999998,-3.4095499999999999,-3.6644899999999998
210352.0,137.35400000000001,27.439399999999999,-2.4807399999999999,76.674800000000005,-67.247,-7.3758800000000004,-10.708600000000001
210353.0,151.81399999999999,-1.1207100000000001,-34.659399999999998,52.476700000000001,-72.827200000000005,-12.868,-16.776199999999999
210354.0,125.40600000000001,33.038899999999998,2.9646400000000002,76.754000000000005,-57.910699999999999,-14.5609,-17.314299999999999
210355.0,114.01000000000001,26.036200000000001,-8.0426500000000001,15.281700000000001,-6.1937899999999999,12.850099999999999,61.852699999999999
210356.0,11.028700000000001,26.216899999999999,31.645099999999999,28.318000000000001,-2.6120299999999999,3.2290999999999999,-3.9753099999999999
210357.0,54.961300000000001,-11.6442,-9.2843400000000003,3.6415500000000001,-30.1401,5.4848600000000003,-0.83137799999999995
210358.0,59.686100000000003,-20.125900000000001,-20.918399999999998,-5.4442700000000004,-32.975499999999997,-1.77878,-4.5818899999999996
210359.0,17.622599999999998,29.703299999999999,37.831699999999998,29.213699999999999,-4.03071,4.6438699999999997,-6.5019799999999996
210360.0,59.702199999999998,8.1635000000000009,-30.9529,0.20494899999999999,-6.8486099999999999,9.9030900000000006,24.814699999999998
210361.0,77.938000000000002,-74.412099999999995,-97.593299999999999,-69.720799999999997,-10.444000000000001,24.490200000000002,33.063899999999997
210362.0,135.80699999999999,34.384999999999998,-26.603999999999999,56.600700000000003,-10.907299999999999,14.7661,62.887500000000003
210363.0,50.080599999999997,18.9815,-15.700900000000001,16.491099999999999,-6.8384600000000004,16.334700000000002,12.1739
210364.0,34.541800000000002,13.147,-6.1359700000000004,14.790699999999999,-6.2310999999999996,13.6539,6.0864700000000003
210365.0,15.102499999999999,9.6015899999999998,5.5105399999999998,15.3926,-3.07864,5.9001299999999999,2.6616
210366.0,8.7231100000000001,13.5969,14.7616,20.852,-1.4489799999999999,1.3116300000000001,2.5225200000000001
210367.0,6.1330299999999998,18.310700000000001,21.061800000000002,23.569800000000001,-1.88428,1.4336800000000001,0.111722
210368.0,23.529199999999999,28.380600000000001,40.575899999999997,26.4223,-5.6780299999999997,5.88314,-7.6730600000000004
210369.0,26.526499999999999,21.717500000000001,36.296999999999997,20.452500000000001,-7.4236700000000004,6.44421,-7.7702900000000001
210370.0,27.627600000000001,14.1586,27.9665,13.6394,-10.194100000000001,6.5722500000000004,-6.4250499999999997
210371.0,31.528700000000001,11.538,22.538499999999999,14.0006,-15.2059,6.7403000000000004,-4.62303
210372.0,42.658999999999999,-0.64169799999999999,7.4082999999999997,7.4309799999999999,-22.8916,7.4277300000000004,-2.3955299999999999
210373.0,71.902199999999993,42.946599999999997,35.0565,58.634700000000002,-36.817300000000003,-7.6835599999999999,-12.8339
210374.0,98.744699999999995,36.973100000000002,20.9358,67.149100000000004,-51.439,-5.4611599999999996,-4.8793699999999998
210375.0,116.337,45.263300000000001,22.8431,84.370000000000005,-59.093200000000003,-5.6777100000000003,-4.1955999999999998
210376.0,123.77,8.2925599999999999,-14.9749,54.139699999999998,-60.549799999999998,-11.0753,-8.9816400000000005
210377.0,101.499,36.920900000000003,13.4191,75.293000000000006,-46.972700000000003,-11.590400000000001,-10.848599999999999
210378.0,89.570999999999998,14.2608,-27.522200000000002,-5.4123900000000003,-16.839400000000001,9.4271100000000008,43.184899999999999
210379.0,28.941400000000002,34.889699999999998,32.849699999999999,14.3973,-4.5002000000000004,4.8777799999999996,-10.379099999999999
210380.0,37.652299999999997,-4.3264500000000004,-3.8605100000000001,10.561,-19.604399999999998,3.60758,1.8914299999999999
210381.0,47.755000000000003,-27.892600000000002,-30.191099999999999,-7.40543,-23.498000000000001,5.7790600000000003,4.1546599999999998
210382.0,34.2363,36.134300000000003,36.8384,11.766400000000001,-5.0413300000000003,5.1754800000000003,-11.605700000000001
210383.0,49.068100000000001,21.770099999999999,-15.6191,14.162599999999999,-12.626799999999999,9.4412800000000008,12.787599999999999
210384.0,139.858,-30.216000000000001,-83.073400000000007,-45.972799999999999,-15.342000000000001,18.497299999999999,72.153700000000001
210385.0,156.78899999999999,43.516800000000003,-27.787700000000001,33.267400000000002,-16.587299999999999,7.3880299999999997,79.864699999999999
210386.0,31.687799999999999,28.0183,8.0514600000000005,23.051600000000001,-10.6136,4.5182500000000001,9.6738700000000009
210387.0,16.175799999999999,25.129200000000001,16.8368,22.3188,-6.4807899999999998,1.29613,5.0746900000000004
210388.0,8.2262299999999993,28.235399999999998,22.457100000000001,24.788799999999998,-2.9305699999999999,2.2808999999999999,0.56172999999999995
210389.0,12.407299999999999,25.635300000000001,20.203099999999999,18.424099999999999,-3.1771699999999998,4.1193499999999998,-3.18404
210390.0,20.994299999999999,32.766500000000001,28.068899999999999,18.8124,-3.7991100000000002,4.77745,-7.69747
210391.0,37.004399999999997,35.594700000000003,38.370699999999999,9.3483000000000001,-5.6507300000000003,5.5852599999999999,-11.697699999999999
210392.0,37.569499999999998,36.922199999999997,41.477499999999999,10.8796,-6.7513699999999996,6.1188700000000003,-10.720800000000001
210393.0,35.363300000000002,33.203400000000002,39.129600000000003,10.684200000000001,-8.93675,6.5135800000000001,-8.3266899999999993
210394.0,30.5823,21.7759,27.1328,7.9302799999999998,-12.379099999999999,5.9938000000000002,-4.9398099999999996
210395.0,31.217600000000001,5.4451799999999997,10.6097,4.42232,-17.227699999999999,4.1246700000000001,-0.19603999999999999
210396.0,58.2834,10.9519,-1.7398499999999999,20.894300000000001,-29.038499999999999,0.75315900000000002,-12.6416
210397.0,79.665099999999995,41.694099999999999,13.374599999999999,58.284300000000002,-38.795299999999997,-2.0980799999999999,-9.5050399999999993
210398.0,88.4191,59.656399999999998,34.564,88.484399999999994,-43.271999999999998,-1.1624399999999999,2.0358800000000001
210399.0,87.635099999999994,13.377700000000001,-8.1132299999999997,49.579900000000002,-40.846600000000002,-5.4839799999999999,-3.36084
210400.0,72.598500000000001,54.273400000000002,29.072299999999998,84.482900000000001,-30.2226,-6.2905699999999998,-5.84762
210401.0,65.534800000000004,15.480499999999999,-28.693100000000001,3.7489699999999999,-14.4171,8.6649100000000008,25.001899999999999
210402.0,27.421399999999998,40.031599999999997,40.3825,19.3932,-3.3753299999999999,1.2856399999999999,-9.6520700000000001
210403.0,28.186699999999998,-15.802300000000001,-24.720700000000001,-5.0283100000000003,-11.726599999999999,0.058813900000000002,5.4843799999999998
210404.0,34.281399999999998,-30.552900000000001,-38.430599999999998,-15.8222,-15.7852,0.052160900000000003,3.2961399999999998
210405.0,31.925799999999999,41.428400000000003,44.914299999999997,18.178000000000001,-3.5514700000000001,1.6193299999999999,-10.642099999999999
210406.0,43.187100000000001,23.475300000000001,-5.7092599999999996,16.040199999999999,-10.2186,4.9733999999999998,16.203199999999999
210407.0,182.46600000000001,22.044599999999999,-34.384399999999999,11.703799999999999,-22.866599999999998,4.5697400000000004,98.242400000000004
210408.0,120.75700000000001,7.1938800000000001,-47.539700000000003,-7.7455400000000001,-14.5588,11.345000000000001,60.9893
210409.0,23.469200000000001,24.4178,6.2050599999999996,16.856300000000001,-6.1616099999999996,3.00969,7.2701900000000004
210410.0,14.4094,29.527899999999999,16.538900000000002,20.349499999999999,-3.4941499999999999,3.3409300000000002,1.1223399999999999
210411.0,14.845000000000001,29.586099999999998,20.347200000000001,17.539400000000001,-4.1369100000000003,2.8103699999999998,-2.9527000000000001
210412.0,18.492100000000001,37.173200000000001,30.364599999999999,22.2088,-5.0573899999999998,2.0998700000000001,-5.2787499999999996
210413.0,22.670000000000002,36.852400000000003,33.373699999999999,18.949300000000001,-4.2160900000000003,1.3530599999999999,-7.8478300000000001
210414.0,34.9664,42.462299999999999,47.466799999999999,16.646000000000001,-4.4627499999999998,2.0293700000000001,-10.485300000000001
210415.0,35.381599999999999,41.1922,46.010599999999997,14.1539,-5.1014799999999996,2.2852899999999998,-9.5489499999999996
210416.0,32.754600000000003,34.145200000000003,39.074599999999997,8.6166599999999995,-5.9966100000000004,2.6771699999999998,-6.87113
210417.0,24.454899999999999,28.68,30.611799999999999,10.724500000000001,-7.92462,3.0410499999999998,-2.6510799999999999
210418.0,18.881399999999999,5.5464099999999998,2.0653700000000002,2.5156100000000001,-10.0641,2.5550799999999998,2.7272099999999999
210419.0,43.564599999999999,20.305199999999999,11.8443,34.737000000000002,-19.677600000000002,0.67665500000000001,-10.5341
210420.0,56.554499999999997,43.2742,20.312200000000001,62.9846,-24.304099999999998,1.22516,-4.2226100000000004
210421.0,66.501099999999994,61.916400000000003,34.490299999999998,85.131100000000004,-28.7148,-0.103632,2.6423000000000001
210422.0,70.820099999999996,27.553799999999999,-1.13012,58.3994,-27.902699999999999,-2.6332800000000001,0.064843700000000004
210423.0,65.102699999999999,47.376100000000001,11.9222,72.799199999999999,-21.158300000000001,-3.9844900000000001,-3.7881800000000001
210424.0,59.883099999999999,18.622399999999999,-9.7601999999999993,22.683199999999999,-10.231999999999999,7.3337300000000001,26.914899999999999
210425.0,25.566500000000001,31.555599999999998,31.715499999999999,11.3307,-1.81175,-0.20150499999999999,-8.7820099999999996
210426.0,21.8992,-3.39059,-9.3248599999999993,3.2872300000000001,-9.7670499999999993,3.7043599999999999,3.3058000000000001
210427.0,29.9529,-8.3242600000000007,-11.930400000000001,-2.2572199999999998,-15.744899999999999,3.1362399999999999,-4.1741400000000004
210428.0,29.219999999999999,32.073900000000002,35.830500000000001,10.1549,-1.6126,-0.062780000000000002,-9.4709500000000002
210429.0,40.904699999999998,5.2044300000000003,-15.819000000000001,3.5734400000000002,-7.7910700000000004,5.1305100000000001,18.273599999999998
210430.0,160.71899999999999,9.2935199999999991,-44.474800000000002,8.0956299999999999,-21.531600000000001,14.782299999999999,83.578599999999994
210431.0,90.438100000000006,-19.8231,-51.768099999999997,-20.274899999999999,-15.3598,11.181699999999999,45.055300000000003
210432.0,22.717400000000001,25.535699999999999,8.5643200000000004,22.019400000000001,-5.94008,2.4725799999999998,7.0986099999999999
210433.0,13.6143,24.307300000000001,12.7636,16.013100000000001,-4.2891599999999999,1.36995,2.4645600000000001
210434.0,13.707800000000001,33.495899999999999,24.912700000000001,21.606200000000001,-4.4040600000000003,0.30105799999999999,-2.3424100000000001
210435.0,15.965,27.878699999999998,21.1676,13.2193,-3.4434900000000002,0.16192000000000001,-4.3844900000000004
210436.0,20.5518,32.683300000000003,28.9833,15.170299999999999,-2.1816499999999999,-0.073034299999999996,-7.1294300000000002
210437.0,29.4663,27.508600000000001,34.158700000000003,6.1220100000000004,-2.0400399999999999,0.12945799999999999,-8.4042300000000001
210438.0,26.5182,24.273099999999999,30.668900000000001,4.8722899999999996,-1.8590899999999999,0.26794699999999999,-7.1003999999999996
210439.0,22.2986,20.131499999999999,26.331800000000001,3.0974400000000002,-1.86646,0.84743000000000002,-4.0989399999999998
210440.0,11.462899999999999,11.4887,13.720800000000001,2.6505399999999999,-2.74648,1.35375,0.38696000000000003
210441.0,10.1599,-8.1680899999999994,-12.6966,-6.7623600000000001,-4.2083300000000001,1.82955,1.9323600000000001
210442.0,38.457500000000003,59.422600000000003,51.788600000000002,71.314599999999999,-17.5322,1.4034599999999999,-9.3176500000000004
210443.0,52.125900000000001,44.251899999999999,26.809699999999999,67.516800000000003,-21.2347,2.8476699999999999,5.4396399999999998
210444.0,59.331699999999998,52.024799999999999,20.556100000000001,75.150599999999997,-20.488,-0.033814900000000002,1.6483399999999999
210445.0,74.189999999999998,21.865500000000001,-25.489799999999999,50.0886,-19.297999999999998,-1.6784699999999999,0.98000799999999999
210446.0,70.084800000000001,52.184399999999997,2.9820099999999998,75.628,-15.3261,-3.0258600000000002,-4.3121600000000004
210447.0,60.427500000000002,-3.2170100000000001,-24.150099999999998,3.5386899999999999,-8.7846200000000003,7.63436,29.551500000000001
210448.0,21.354199999999999,32.379100000000001,30.749400000000001,13.969200000000001,0.4723,-2.0641699999999998,-6.6073300000000001
210449.0,23.624700000000001,24.581499999999998,34.076900000000002,31.8537,-8.82822,6.5836600000000001,-6.3321100000000001
210450.0,31.817,40.3508,38.540100000000002,50.854300000000002,-14.063000000000001,8.4128799999999995,-4.9688600000000003
210451.0,23.6783,30.939699999999998,32.450899999999997,12.063499999999999,1.24146,-2.4472,-7.0934499999999998
210452.0,43.436500000000002,5.3707700000000003,-14.8932,9.4476300000000002,-7.3693299999999997,4.5615199999999998,19.591899999999999
210453.0,150.27799999999999,-10.7775,-53.6571,-4.6404500000000004,-17.205400000000001,32.984999999999999,73.692800000000005
210454.0,101.411,-10.790900000000001,-40.038200000000003,-2.0408200000000001,-13.3705,16.537199999999999,50.792000000000002
210455.0,27.1678,17.020099999999999,-3.5895600000000001,13.0504,-4.4279400000000004,1.9503699999999999,10.1515
210456.0,17.312100000000001,27.589099999999998,10.5421,17.5181,-3.2562899999999999,0.54386999999999996,3.9441000000000002
210457.0,13.233700000000001,27.103000000000002,15.321899999999999,14.2484,-2.36666,-0.089979299999999998,-1.37924
210458.0,14.373200000000001,31.5688,23.721699999999998,17.161000000000001,-1.2772399999999999,-0.67614799999999997,-3.83934
210459.0,18.5,31.678799999999999,26.9984,14.647500000000001,-0.16438,-1.44668,-5.8774300000000004
210460.0,24.8018,29.6859,35.073900000000002,11.448600000000001,1.4325699999999999,-2.3810699999999998,-6.6349900000000002
210461.0,23.203600000000002,24.1983,31.587499999999999,8.3090299999999999,0.95809200000000005,-1.99987,-5.7496099999999997
210462.0,18.799800000000001,17.1417,25.0822,4.6183199999999998,0.73405299999999996,-1.23146,-3.05159
210463.0,10.129799999999999,7.8545699999999998,14.4337,3.21733,-0.017050699999999998,-0.19022900000000001,1.5497700000000001
210464.0,10.8133,-4.7968000000000002,4.8045,-4.8473899999999999,-1.9421600000000001,2.04989,-0.33279799999999998
210465.0,37.018300000000004,76.019000000000005,55.474299999999999,79.345799999999997,-16.499400000000001,4.1461199999999998,-0.443133
210466.0,59.583599999999997,48.823799999999999,9.8226899999999997,58.0045,-21.129899999999999,1.5481199999999999,8.9474099999999996
210467.0,69.019199999999998,58.037100000000002,9.2983499999999992,78.152799999999999,-18.235900000000001,-0.82023900000000005,1.0743
210468.0,80.571200000000005,21.215299999999999,-34.171100000000003,51.703600000000002,-16.3718,-0.70299100000000003,-0.32054700000000003
210469.0,68.163499999999999,47.235199999999999,-0.63661299999999998,71.140600000000006,-13.198,-1.9289499999999999,-5.9148699999999996
210470.0,64.5852,-15.7318,-40.514699999999998,-14.9628,-2.3501599999999998,8.2191500000000008,33.257399999999997
210471.0,22.7806,29.926400000000001,20.086200000000002,9.9628599999999992,4.9454500000000001,-5.3407099999999996,-4.5125400000000004
210472.0,18.198,22.345700000000001,23.639900000000001,17.672899999999998,3.1330300000000002,-4.4027500000000002,-8.4460800000000003
210473.0,29.277100000000001,52.689799999999998,32.777500000000003,55.124899999999997,-11.047800000000001,-0.20286199999999999,-3.6489699999999998
210474.0,25.240200000000002,29.751300000000001,22.915600000000001,9.2682800000000007,6.6253000000000002,-5.3034499999999998,-5.6196200000000003
210475.0,46.846699999999998,-3.32585,-28.4115,6.1449400000000001,-4.1498900000000001,3.4727100000000002,19.5806
210476.0,170.571,-33.681399999999996,-72.438900000000004,-22.319500000000001,-14.0364,37.471600000000002,86.061099999999996
210477.0,139.578,7.4003399999999999,-31.264399999999998,21.903500000000001,-9.2884700000000002,23.660399999999999,71.361900000000006
210478.0,31.935500000000001,10.811500000000001,-8.7248000000000001,11.8108,-2.4631699999999999,2.0446399999999998,13.987399999999999
210479.0,20.331199999999999,17.575800000000001,-0.82368200000000003,12.1761,-1.4804900000000001,-0.62102299999999999,6.7645400000000002
210480.0,14.7394,27.1402,11.8443,16.211099999999998,0.045836799999999997,-2.7899699999999998,1.5970200000000001
210481.0,15.9975,25.852599999999999,12.9512,11.3155,1.39056,-4.2161099999999996,-1.4795499999999999
210482.0,19.9176,30.9543,19.528099999999998,12.853,3.2695799999999999,-5.0378600000000002,-3.51736
210483.0,27.189299999999999,26.783999999999999,24.731400000000001,6.9263300000000001,8.1540499999999998,-4.8895099999999996,-6.0632200000000003
210484.0,27.1843,22.832599999999999,25.745699999999999,6.1371399999999996,9.2007399999999997,-4.5143399999999998,-5.4168900000000004
210485.0,24.9663,14.0997,19.651800000000001,2.57362,10.456799999999999,-3.6033900000000001,-3.0908799999999998
210486.0,22.306899999999999,8.7329899999999991,15.8864,1.6437600000000001,10.497299999999999,-2.06419,-0.83518099999999995
210487.0,26.1905,7.3851599999999999,16.940200000000001,-2.9152499999999999,11.2719,-1.4461299999999999,0.94577599999999995
210488.0,49.617800000000003,91.555599999999998,54.008299999999998,84.887500000000003,-18.0442,6.5561299999999996,7.1252300000000002
210489.0,62.173299999999998,55.155000000000001,0.674176,48.437600000000003,-17.291399999999999,7.9794400000000003,6.5882699999999996
210490.0,73.370099999999994,69.007499999999993,5.70641,75.806899999999999,-16.506699999999999,5.2097600000000002,-0.469248
210491.0,76.612700000000004,13.9178,-45.9407,33.590400000000002,-15.237399999999999,2.6465999999999998,-1.2026300000000001
210492.0,54.042900000000003,70.084100000000007,29.664400000000001,85.344899999999996,-10.189299999999999,0.33581100000000003,-6.4642200000000001
210493.0,75.703400000000002,-19.8874,-41.737499999999997,-19.813700000000001,2.7143999999999999,10.6929,40.360300000000002
210494.0,25.944800000000001,29.732199999999999,12.8241,11.2303,8.1220499999999998,-6.6714000000000002,-2.96279
210495.0,43.219499999999996,30.735800000000001,0.67789299999999997,6.6318299999999999,15.9817,-8.6575299999999995,-6.2412000000000001
210496.0,48.974899999999998,58.531100000000002,8.1613100000000003,38.273800000000001,2.1253000000000002,-11.2393,-5.1283599999999998
210497.0,30.040299999999998,30.321899999999999,15.034700000000001,9.5009499999999996,10.6143,-7.22905,-4.4246699999999999
210498.0,45.7637,-9.2697299999999991,-33.513399999999997,4.9958600000000004,-1.39977,4.4195900000000004,17.250399999999999
210499.0,167.541,-48.352200000000003,-101.873,-47.505000000000003,-7.1013000000000002,22.7591,88.420000000000002
210500.0,168.226,27.030799999999999,-27.770199999999999,43.163899999999998,-5.95167,24.4482,86.125799999999998
210501.0,37.929200000000002,-0.534466,-20.171900000000001,6.2148399999999997,-1.2676099999999999,2.5577299999999998,16.8371
210502.0,27.553000000000001,13.209199999999999,-7.3460599999999996,12.507199999999999,0.52892300000000003,-0.62086200000000002,10.779500000000001
210503.0,21.352,17.8125,-2.9941599999999999,10.062200000000001,2.3261799999999999,-3.2689900000000001,5.0295199999999998
210504.0,20.5731,26.121700000000001,6.2773300000000001,13.9803,3.8991099999999999,-4.73407,1.8380799999999999
210505.0,22.540800000000001,26.3278,7.9827300000000001,10.809100000000001,5.9863200000000001,-5.9185999999999996,-0.96820899999999999
210506.0,34.035800000000002,29.743200000000002,16.935199999999998,8.1910699999999999,13.5418,-7.56128,-5.3002799999999999
210507.0,37.459699999999998,26.767700000000001,17.418600000000001,6.2595200000000002,16.708400000000001,-7.3506299999999998,-5.3963200000000002
210508.0,40.152700000000003,21.660900000000002,13.3287,3.6734300000000002,20.017399999999999,-6.3516000000000004,-3.9167200000000002
210509.0,44.0045,17.943899999999999,9.1278699999999997,1.4193,22.878599999999999,-6.0892799999999996,-4.0727700000000002
210510.0,46.746299999999998,17.7727,3.54623,-2.9742999999999999,24.161100000000001,-5.3581099999999999,1.8379799999999999
210511.0,57.035299999999999,102.116,44.715400000000002,84.848600000000005,-2.9137400000000002,-10.635999999999999,9.7703799999999994
210512.0,54.8733,70.566999999999993,13.2249,55.6646,0.038754299999999998,-9.0414200000000005,6.0600199999999997
210513.0,57.615200000000002,90.343199999999996,29.753,82.011499999999998,-3.5680200000000002,-3.70533,-1.20536
210514.0,59.248100000000001,53.324399999999997,-7.1437200000000001,48.142600000000002,-5.8587499999999997,2.11015,-2.8336999999999999
210515.0,42.931899999999999,81.341899999999995,37.020899999999997,72.3797,-5.4887600000000001,4.0832600000000001,-4.2930900000000003
210516.0,83.950900000000004,-14.3446,-33.148400000000002,-10.1404,2.2542300000000002,11.7463,45.344099999999997
210517.0,31.1997,27.5061,1.1039000000000001,6.8579400000000001,8.1648999999999994,-7.98428,-1.1425099999999999
210518.0,50.122500000000002,22.847899999999999,-24.8766,-6.5814300000000001,12.9107,-9.0246999999999993,-3.0908799999999998
210519.0,47.427799999999998,29.359200000000001,-19.437899999999999,8.2133400000000005,6.0728299999999997,-10.109,-3.4513500000000001
210520.0,35.920499999999997,30.770800000000001,4.6227900000000002,7.0763499999999997,11.093400000000001,-9.46448,-2.9878300000000002
210521.0,47.742899999999999,-18.994299999999999,-43.7742,-6.8088899999999999,-2.0810300000000002,6.8196099999999999,18.8184
210522.0,142.59,-40.6051,-93.434700000000007,-38.353700000000003,8.1258999999999997,12.748200000000001,74.680300000000003
210523.0,160.64099999999999,27.036799999999999,-29.530899999999999,45.415599999999998,4.4374500000000001,21.244900000000001,81.271600000000007
210524.0,42.911299999999997,2.5808200000000001,-23.273,7.5823799999999997,-0.98754799999999998,4.4806100000000004,17.846399999999999
210525.0,33.9846,7.7185699999999997,-18.322800000000001,5.1952400000000001,0.29559099999999999,1.38863,13.2928
210526.0,27.251100000000001,19.553599999999999,-7.5904999999999996,10.392300000000001,1.78555,-2.2212399999999999,6.9809000000000001
210527.0,27.1783,20.913,-7.0468099999999998,6.6797899999999997,3.7251400000000001,-4.4323399999999999,4.15205
210528.0,28.102399999999999,26.7608,-0.333671,8.9447600000000005,5.6795299999999997,-6.3475599999999996,1.0476700000000001
210529.0,41.636400000000002,32.217500000000001,5.5938600000000003,5.3362699999999998,14.589499999999999,-10.3504,-4.3928000000000003
210530.0,46.8889,33.942999999999998,7.0714600000000001,4.2981299999999996,17.977799999999998,-10.631600000000001,-5.34117
210531.0,50.597999999999999,33.346699999999998,4.6295299999999999,2.3605299999999998,20.585100000000001,-10.432,-4.7418699999999996
210532.0,55.039099999999998,32.587499999999999,-1.3953899999999999,0.33262999999999998,22.906400000000001,-10.130000000000001,-4.0103299999999997
210533.0,55.265999999999998,30.782299999999999,-10.9474,-1.4424699999999999,21.7638,-8.1291399999999996,-0.081066299999999994
210534.0,41.914299999999997,43.423400000000001,0.983186,34.549900000000001,3.4946000000000002,-7.4035799999999998,4.1798099999999998
210535.0,39.929400000000001,16.099900000000002,-23.889900000000001,10.5016,3.88551,-6.4431599999999998,2.4403000000000001
210536.0,42.807600000000001,36.245800000000003,-5.7977299999999996,32.259799999999998,1.8182700000000001,-7.7231899999999998,-3.0371899999999998
210537.0,46.752600000000001,70.130799999999994,21.8626,59.006999999999998,2.61835,-7.2277100000000001,-5.5342500000000001
210538.0,44.332999999999998,96.924700000000001,46.4026,72.126800000000003,1.05322,-3.0167700000000002,-2.5953599999999999
210539.0,79.3964,-12.4962,-38.455800000000004,-6.6100899999999996,-0.87600100000000003,9.6863399999999995,41.467500000000001
210540.0,40.257800000000003,32.394399999999997,-5.3446699999999998,8.03932,7.5537799999999997,-10.7837,0.89009499999999997
210541.0,33.068300000000001,10.8348,-24.394200000000001,-12.550599999999999,4.3032399999999997,-4.87453,-0.92429799999999995
210542.0,25.874700000000001,2.7942999999999998,-26.069099999999999,-11.338699999999999,3.6709399999999999,-1.16706,-0.15920300000000001
210543.0,42.704599999999999,32.627099999999999,-4.2812700000000001,5.8817199999999996,9.9447200000000002,-11.970599999999999,-1.49349
210544.0,56.9086,-10.980600000000001,-41.898299999999999,-6.2892099999999997,-2.9876399999999999,8.29373,25.049900000000001
210545.0,129.25700000000001,-17.176300000000001,-50.303899999999999,1.11507,10.336600000000001,10.179600000000001,68.405799999999999
210546.0,125.768,-1.38791,-41.6387,16.6174,6.9124800000000004,12.3086,64.680400000000006
210547.0,46.319800000000001,3.0791200000000001,-29.2409,2.7829899999999999,-1.8024199999999999,3.9192,18.749199999999998
210548.0,39.649099999999997,14.2506,-18.5075,7.5461200000000002,-0.77584799999999998,0.218613,14.963100000000001
210549.0,34.249600000000001,19.952300000000001,-14.179399999999999,6.8631700000000002,0.39864500000000003,-4.0458999999999996,8.8300000000000001
210550.0,36.186,29.262599999999999,-7.6986400000000001,10.830500000000001,2.6880199999999999,-7.1265099999999997,6.0770400000000002
210551.0,38.132599999999996,30.303100000000001,-7.4224300000000003,8.1569099999999999,5.05837,-9.5188299999999995,3.01756
210552.0,46.909500000000001,34.909199999999998,-2.3467899999999999,4.8456299999999999,12.8812,-12.900499999999999,-3.24919
210553.0,50.910800000000002,37.348300000000002,-0.38140099999999999,3.3720699999999999,14.9979,-13.6631,-4.5113200000000004
210554.0,53.197200000000002,38.253700000000002,-1.0456099999999999,0.99947900000000001,15.766,-13.5334,-4.7094199999999997
210555.0,53.744,38.535299999999999,-4.1679199999999996,-1.39669,14.9153,-12.6614,-3.0104899999999999
210556.0,49.738399999999999,30.9693,-14.816700000000001,-5.58568,12.331200000000001,-9.0907499999999999,-1.9053899999999999
210557.0,27.2822,-18.825500000000002,-47.313600000000001,-22.5701,2.8256299999999999,0.63238499999999997,0.286995
210558.0,30.637899999999998,-18.725999999999999,-48.586599999999997,-17.692599999999999,2.0900599999999998,0.36851099999999998,0.72707999999999995
210559.0,38.567500000000003,-22.737200000000001,-60.1188,-21.323799999999999,0.063018299999999999,-3.0442800000000001,-1.57229
210560.0,45.388100000000001,15.822800000000001,-28.5715,7.5969499999999996,0.33737899999999998,-9.7658299999999993,-5.78186
210561.0,48.902099999999997,58.655700000000003,10.4068,37.518500000000003,1.6160600000000001,-13.940799999999999,-3.9007499999999999
210562.0,69.980900000000005,-7.04453,-42.599699999999999,-4.5696700000000003,0.65485899999999997,9.4219600000000003,33.022399999999998
210563.0,45.440800000000003,30.3401,-14.821300000000001,5.2212800000000001,5.19672,-11.804500000000001,3.1467499999999999
210564.0,39.363,18.923500000000001,-15.441599999999999,-11.167,8.0292100000000008,-9.85473,-2.0296500000000002
210565.0,34.650199999999998,20.4316,-13.1767,-5.5077299999999996,7.0594000000000001,-6.2789900000000003,-0.86810299999999996
210566.0,48.040700000000001,33.600200000000001,-11.8125,5.8343999999999996,7.3440799999999999,-13.818199999999999,0.55969000000000002
210567.0,64.872799999999998,-9.6162100000000006,-45.828800000000001,-8.2988300000000006,-1.0667199999999999,7.8439100000000002,29.775300000000001
210568.0,129.58799999999999,2.6836700000000002,-33.9405,12.9124,12.3384,20.8644,66.356899999999996
210569.0,95.456599999999995,-23.440200000000001,-60.058900000000001,-21.6783,8.3484099999999994,13.745100000000001,48.054000000000002
210570.0,50.781799999999997,6.3201200000000002,-30.587599999999998,2.7939099999999999,-2.0037600000000002,3.2920500000000001,20.734500000000001
210571.0,44.928699999999999,10.9506,-27.692399999999999,1.53596,-1.53576,-0.95365100000000003,16.234500000000001
210572.0,39.296700000000001,21.776,-16.8126,7.2718600000000002,-0.38348900000000002,-5.0496999999999996,10.4489
210573.0,40.162799999999997,22.066700000000001,-18.6328,3.8483200000000002,1.4412400000000001,-7.6825700000000001,7.8076299999999996
210574.0,42.296900000000001,28.899000000000001,-13.964399999999999,6.79941,3.1504300000000001,-10.0871,5.0199400000000001
210575.0,51.329500000000003,35.088799999999999,-10.119,4.4154,10.256600000000001,-15.383699999999999,-1.9347399999999999
210576.0,53.444099999999999,36.045099999999998,-7.0244400000000002,2.3691200000000001,12.4899,-16.399899999999999,-3.7752400000000002
210577.0,53.308599999999998,37.467599999999997,-2.9779800000000001,1.9204699999999999,13.3604,-16.033999999999999,-4.9434800000000001
210578.0,49.3123,32.522300000000001,-2.8326899999999999,-2.5535700000000001,12.3354,-15.1294,-4.0135899999999998
210579.0,46.869599999999998,35.285499999999999,-1.7385900000000001,1.27363,11.8141,-12.5878,-3.3836599999999999
210580.0,33.765300000000003,1.93405,-34.958199999999998,-19.994399999999999,4.8686299999999996,-3.1158299999999999,-1.52258
210581.0,32.940600000000003,14.5017,-23.057700000000001,-6.6287099999999999,1.9764299999999999,-1.6285000000000001,-0.78599399999999997
210582.0,38.064300000000003,-16.9682,-60.199399999999997,-33.3795,-2.49912,-0.53449599999999997,-0.41328900000000002
210583.0,42.726900000000001,-1.99139,-49.373800000000003,-22.714500000000001,-4.4605399999999999,-4.3554199999999996,-2.3353999999999999
210584.0,51.197699999999998,3.9658699999999998,-48.939,-26.087399999999999,-2.44617,-12.307,-3.4979499999999999
210585.0,64.010400000000004,-15.714700000000001,-47.633299999999998,-11.798500000000001,1.92778,12.5769,28.592099999999999
210586.0,49.171399999999998,28.947399999999998,-20.6266,4.3117200000000002,2.9495200000000001,-12.4781,5.2094100000000001
210587.0,45.087800000000001,25.233000000000001,-10.834199999999999,-8.9999400000000005,7.6584500000000002,-14.061299999999999,-2.9293999999999998
210588.0,45.170299999999997,27.874400000000001,-10.2658,-8.2403700000000004,5.0688800000000001,-13.825900000000001,-1.6615800000000001
210589.0,51.019500000000001,29.744199999999999,-20.555299999999999,3.0514000000000001,4.6379599999999996,-14.3596,2.5787100000000001
210590.0,66.992599999999996,-6.7976900000000002,-45.378,-6.3099299999999996,-0.64849599999999996,8.7179099999999998,30.283300000000001
210591.0,136.738,13.4269,-28.113499999999998,17.225000000000001,12.9109,28.043800000000001,68.166399999999996
210592.0,87.444500000000005,-17.295200000000001,-44.701099999999997,-18.2898,10.101100000000001,18.218699999999998,43.281500000000001
210593.0,53.716900000000003,2.2953000000000001,-36.500500000000002,-1.9452199999999999,-2.4030800000000001,3.2385700000000002,22.197099999999999
210594.0,46.3048,14.090299999999999,-25.1859,5.1808300000000003,-1.8081,-0.40444799999999997,16.948599999999999
210595.0,40.408499999999997,17.899699999999999,-21.041699999999999,3.9872399999999999,-1.6092500000000001,-4.42469,11.5198
210596.0,41.972200000000001,24.9758,-17.1309,6.9255300000000002,-0.49911899999999998,-7.5579400000000003,9.1432599999999997
210597.0,45.0717,26.0307,-19.612300000000001,4.1258800000000004,1.1266099999999999,-10.505599999999999,6.6645200000000004
210598.0,52.034199999999998,31.346399999999999,-17.561800000000002,2.8352900000000001,7.2886600000000001,-15.676299999999999,-0.400335
210599.0,51.273600000000002,31.513100000000001,-12.287000000000001,2.3454999999999999,9.95486,-16.460999999999999,-3.0074100000000001
210600.0,48.669499999999999,28.261099999999999,-8.6018500000000007,-0.54981400000000002,12.222300000000001,-15.4741,-5.01091
210601.0,43.657699999999998,23.769600000000001,-6.80471,-4.2577299999999996,11.0741,-14.3238,-4.4414400000000001
210602.0,43.9026,22.432500000000001,-10.696199999999999,-7.9827000000000004,9.7357499999999995,-13.946,-3.8568500000000001
210603.0,46.820599999999999,20.612100000000002,-21.2516,-16.893899999999999,2.7164899999999998,-13.8805,-0.98197299999999998
210604.0,49.615000000000002,26.385300000000001,-18.055,-14.7643,1.44232,-14.3241,-0.33431899999999998
210605.0,51.113799999999998,24.395800000000001,-25.937200000000001,-15.792299999999999,-1.13487,-12.6807,0.46514800000000001
210606.0,53.462699999999998,24.623999999999999,-29.018599999999999,-17.397099999999998,-3.9948899999999998,-11.8477,0.17341999999999999
210607.0,62.129300000000001,22.8263,-39.452800000000003,-27.259699999999999,-2.6034700000000002,-13.7759,-0.89746700000000001
210608.0,61.495399999999997,-13.3985,-42.576300000000003,-8.8696099999999998,-3.8462700000000001,12.1182,27.645099999999999
210609.0,52.373899999999999,30.472000000000001,-20.4802,4.8156999999999996,0.47015099999999999,-15.3446,5.4429299999999996
210610.0,46.543700000000001,20.005199999999999,-18.211600000000001,-11.979100000000001,5.96401,-16.116299999999999,-2.5309900000000001
210611.0,48.486400000000003,24.9788,-15.057600000000001,-9.7787100000000002,4.1604999999999999,-17.044599999999999,-1.63479
210612.0,54.092799999999997,33.110500000000002,-18.218299999999999,5.0294299999999996,2.2475000000000001,-17.398199999999999,2.6430699999999998
210613.0,64.526899999999998,-7.8434699999999999,-46.195900000000002,-12.8154,-0.45665600000000001,11.6683,28.575700000000001
210614.0,137.572,34.185099999999998,-8.4526299999999992,35.692100000000003,10.523199999999999,27.022600000000001,69.567099999999996
210615.0,84.169300000000007,-29.459499999999998,-48.848500000000001,-29.732600000000001,3.0166499999999998,15.035,44.752299999999998
210616.0,52.8765,6.7131400000000001,-31.749500000000001,-1.63714,-3.0689199999999999,6.5556799999999997,21.685700000000001
210617.0,48.139000000000003,7.4500200000000003,-32.369,-2.7376800000000001,-3.7675800000000002,0.073708099999999999,18.175799999999999
210618.0,43.673299999999998,18.156099999999999,-22.779900000000001,4.2817499999999997,-3.1020799999999999,-5.6567800000000004,12.678100000000001
210619.0,45.434800000000003,20.7883,-23.642600000000002,2.7068400000000001,-1.7473099999999999,-8.9356000000000009,10.2949
210620.0,48.292900000000003,28.2836,-19.043600000000001,6.1394599999999997,-1.14584,-12.6645,7.41364
210621.0,54.632100000000001,32.236400000000003,-17.602499999999999,2.61477,5.0057700000000001,-18.478200000000001,-0.19258800000000001
210622.0,54.2378,30.5274,-15.417199999999999,0.20358999999999999,8.19313,-18.9681,-2.8141500000000002
210623.0,53.849800000000002,29.618400000000001,-13.626300000000001,-2.1719599999999999,10.8172,-18.048200000000001,-4.6758199999999999
210624.0,48.268700000000003,25.0398,-13.610200000000001,-5.7541099999999998,8.2168600000000005,-16.698799999999999,-3.5992000000000002
210625.0,45.513800000000003,25.721,-11.4886,-4.53728,6.3024399999999998,-15.868,-2.7535500000000002
210626.0,52.082799999999999,25.4834,-17.563300000000002,-13.113899999999999,1.8622300000000001,-18.429300000000001,-0.81876800000000005
210627.0,57.875999999999998,35.402299999999997,-11.037100000000001,-8.8935700000000004,-0.13247100000000001,-20.719200000000001,0.129415
210628.0,65.566500000000005,28.978899999999999,-24.750599999999999,-21.424499999999998,-2.15143,-22.793399999999998,1.5541499999999999
210629.0,72.457599999999999,39.542999999999999,-20.414400000000001,-15.583,-3.6097199999999998,-24.992100000000001,1.6966699999999999
210630.0,79.163600000000002,41.697299999999998,-26.476700000000001,-19.003299999999999,-2.1621800000000002,-26.150099999999998,1.5603199999999999
210631.0,75.182900000000004,-4.5269199999999996,-35.148699999999998,-5.0258900000000004,-12.0061,14.590400000000001,34.922400000000003
210632.0,53.967100000000002,34.335099999999997,-14.685600000000001,7.9084199999999996,-2.62262,-18.3202,5.1308999999999996
210633.0,70.595299999999995,40.753,-14.3599,-5.7768499999999996,3.2332399999999999,-27.709800000000001,-1.8943399999999999
210634.0,67.843699999999998,35.340899999999998,-17.800000000000001,-11.1083,2.2745799999999998,-26.255099999999999,-1.43005
210635.0,58.897599999999997,38.791499999999999,-11.5992,8.3618799999999993,-0.80995700000000004,-22.5242,2.0916800000000002
210636.0,70.708799999999997,-13.8605,-41.355499999999999,-7.49024,-8.2346800000000009,3.56656,35.526699999999998
210637.0,123.52,30.4392,-15.1732,17.341100000000001,7.1256500000000003,27.0151,61.266599999999997
210638.0,83.275300000000001,-23.768699999999999,-49.197699999999998,-36.743400000000001,-7.6499300000000003,20.971699999999998,40.639600000000002
210639.0,53.069299999999998,-3.1642299999999999,-35.658000000000001,-2.6148699999999998,-7.7462900000000001,-0.093826999999999994,22.820399999999999
210640.0,49.052999999999997,14.2807,-27.1205,0.82177699999999998,-3.9398200000000001,1.5401800000000001,18.389500000000002
210641.0,46.719799999999999,18.846,-24.793500000000002,0.37977100000000003,-4.9019899999999996,-2.5009800000000002,14.7461
210642.0,49.309899999999999,24.5425,-21.776599999999998,5.5239099999999999,-5.7101199999999999,-9.2125599999999999,12.285399999999999
210643.0,50.805399999999999,27.9679,-19.412600000000001,5.7262000000000004,-4.5363600000000002,-14.616,8.01661
210644.0,65.114000000000004,43.937600000000003,-8.8490199999999994,9.4224300000000003,2.5640499999999999,-26.222200000000001,-0.71022099999999999
210645.0,71.277900000000002,47.718299999999999,-7.3287899999999997,9.0028299999999994,6.0748100000000003,-29.105599999999999,-3.1899500000000001
210646.0,75.606300000000005,49.123899999999999,-9.02623,5.7102599999999999,7.8744699999999996,-30.168199999999999,-4.4063800000000004
210647.0,73.659700000000001,46.0959,-11.028,0.89052399999999998,5.7163599999999999,-29.263300000000001,-3.3838599999999999
210648.0,70.788499999999999,39.181100000000001,-15.5844,-5.9606899999999996,3.2997000000000001,-28.296399999999998,-1.95462
210649.0,65.720500000000001,30.7422,-20.6114,-15.453799999999999,0.63882700000000003,-25.290400000000002,-0.27442299999999997
210650.0,68.339200000000005,30.753299999999999,-21.106100000000001,-16.9663,-1.7378899999999999,-26.859200000000001,1.30135
210651.0,74.789199999999994,41.295000000000002,-14.833399999999999,-9.3917300000000008,-3.3773,-29.805800000000001,2.5474899999999998
210652.0,81.848399999999998,43.767299999999999,-18.054500000000001,-11.766,-3.0649099999999998,-32.543399999999998,2.6494900000000001
210653.0,89.204700000000003,46.027299999999997,-22.395299999999999,-15.4948,-3.5639799999999999,-34.827199999999998,2.7963399999999998
210654.0,102.806,28.162700000000001,-22.263500000000001,-16.207799999999999,-10.4802,36.906500000000001,35.959400000000002
210655.0,55.351100000000002,32.595599999999997,-14.1114,8.2291600000000003,-6.8007600000000004,-19.6204,6.6566400000000003
210656.0,103.928,67.754000000000005,-2.66418,9.3242899999999995,-2.7920500000000001,-46.605499999999999,1.0408599999999999
210657.0,106.761,69.056600000000003,-3.72499,8.9986200000000007,-2.4739300000000002,-47.745399999999997,1.6006400000000001
210658.0,62.930300000000003,40.540100000000002,-8.3322199999999995,11.5604,-4.6343899999999998,-26.151,3.2732199999999998
210659.0,96.745900000000006,21.0562,-29.778199999999998,-21.9802,-9.26281,28.377800000000001,38.461799999999997
210660.0,106.36499999999999,-12.0951,-49.278100000000002,-32.357799999999997,-5.6941300000000004,21.370899999999999,54.179600000000001
210661.0,90.133600000000001,-3.2433999999999998,-41.048699999999997,-31.625,-15.3344,29.785900000000002,34.618200000000002
210662.0,71.166300000000007,8.7451299999999996,-31.069199999999999,-6.16709,-11.7996,7.6982100000000004,32.941000000000003
210663.0,62.8217,-6.6379999999999999,-36.173900000000003,1.74455,-13.2561,-9.1122200000000007,25.690999999999999
210664.0,55.644300000000001,3.1414900000000001,-30.091699999999999,5.7906199999999997,-12.2164,-11.6904,18.610700000000001
210665.0,50.655000000000001,16.453700000000001,-26.8934,2.5343499999999999,-8.3012599999999992,-8.9691799999999997,14.7026
210666.0,50.485700000000001,27.946400000000001,-17.9651,6.31196,-7.2417400000000001,-12.591699999999999,10.538399999999999
210667.0,73.070999999999998,48.051900000000003,-5.2542900000000001,12.597300000000001,-2.0067200000000001,-32.238199999999999,0.50563199999999997
210668.0,84.808000000000007,55.912300000000002,-3.8426100000000001,13.500500000000001,-0.0543101,-38.093899999999998,-1.1344799999999999
210669.0,95.534800000000004,63.561799999999998,-3.2837499999999999,14.992900000000001,0.70736699999999997,-42.964799999999997,-1.5092300000000001
210670.0,102.139,68.117500000000007,-3.6856800000000001,14.5205,-0.29166500000000001,-45.638500000000001,-1.08257
210671.0,102.962,71.825199999999995,0.92834099999999997,15.4575,-2.3791500000000001,-46.104300000000002,0.1211
210672.0,105.735,65.274600000000007,-7.7861099999999999,5.4535900000000002,-1.92824,-46.944499999999998,1.9682900000000001
210673.0,97.537000000000006,58.1616,-9.9653799999999997,1.6426000000000001,-1.1014600000000001,-42.891100000000002,1.37507
210674.0,87.748599999999996,39.735999999999997,-19.312100000000001,-12.6662,-2.18824,-38.846200000000003,2.58005
210675.0,87.372299999999996,41.867400000000004,-16.406300000000002,-11.3969,-4.18093,-38.242899999999999,4.6513799999999996
210676.0,97.088700000000003,46.492699999999999,-19.4071,-10.1873,-8.1028599999999997,-41.928400000000003,6.7100799999999996
210677.0,92.646900000000002,-2.7039499999999999,-34.3416,-16.893000000000001,-19.859200000000001,22.141300000000001,41.537999999999997
210678.0,61.805,29.571899999999999,-15.6028,12.0436,-11.419,-22.989799999999999,9.7796599999999998
210679.0,131.23099999999999,81.881900000000002,-2.4242900000000001,20.6675,-10.888999999999999,-60.683799999999998,6.43391
210680.0,131.94399999999999,79.509799999999998,-9.7527000000000008,15.7377,-9.6736400000000007,-59.662300000000002,5.9878900000000002
210681.0,67.120900000000006,39.942599999999999,-7.9523000000000001,12.4536,-9.1405200000000004,-28.418199999999999,5.7389000000000001
210682.0,109.58199999999999,35.1736,-10.073399999999999,-5.16012,-16.200299999999999,34.101199999999999,44.283299999999997
210683.0,90.384,-21.300000000000001,-53.434100000000001,-47.375900000000001,-8.1209799999999994,15.3485,46.152200000000001
210684.0,85.436000000000007,0.204292,-30.533100000000001,-8.9904200000000003,-19.354500000000002,16.784500000000001,39.088200000000001
210685.0,115.877,41.935299999999998,-16.722899999999999,-25.031700000000001,-13.820399999999999,35.539400000000001,41.101900000000001
210686.0,92.545500000000004,41.526899999999998,-21.750800000000002,-21.845199999999998,-16.9834,20.195599999999999,28.668900000000001
210687.0,67.857500000000002,23.196999999999999,-30.483899999999998,-6.94909,-15.313599999999999,-0.310004,24.0047
210688.0,63.2849,11.6228,-25.825299999999999,9.8096700000000006,-14.7628,-15.1906,20.985299999999999
210689.0,62.529299999999999,12.1389,-25.324100000000001,9.4016999999999999,-14.5304,-20.460999999999999,15.407
210690.0,77.6691,49.542000000000002,-0.75849,16.706700000000001,-8.1492599999999999,-35.784399999999998,3.4168099999999999
210691.0,90.885099999999994,59.318300000000001,2.5175399999999999,20.316299999999998,-6.9748200000000002,-43.066600000000001,2.43662
210692.0,103.976,67.245800000000003,1.69828,20.6097,-6.9646600000000003,-49.093299999999999,2.61355
210693.0,115.89400000000001,73.623699999999999,0.30193700000000001,20.794699999999999,-9.0582799999999999,-54.303100000000001,3.8881299999999999
210694.0,125.893,73.990899999999996,-5.3399000000000001,16.871700000000001,-10.787100000000001,-58.815199999999997,5.7026399999999997
210695.0,128.36500000000001,78.192899999999995,-10.200699999999999,16.371200000000002,-6.7863899999999999,-58.029800000000002,4.7037300000000002
210696.0,120.161,65.250399999999999,-19.026800000000001,6.9068699999999996,-3.97445,-54.127600000000001,2.0158999999999998
210697.0,110.61199999999999,64.879800000000003,-7.1823300000000003,8.8450199999999999,-4.8397699999999997,-51.107900000000001,3.3623500000000002
210698.0,107.733,59.133299999999998,-7.0475000000000003,7.9793599999999998,-6.5683699999999998,-50.417099999999998,8.9450699999999994
210699.0,108.349,46.627499999999998,-19.565300000000001,0.49873499999999998,-9.4188600000000005,-51.043199999999999,8.1881900000000005
210700.0,84.132900000000006,3.11097,-28.106200000000001,-4.8174900000000003,-16.898,5.1242900000000002,42.241700000000002
210701.0,65.458100000000002,31.251000000000001,-16.489599999999999,7.8208700000000002,-14.6494,-22.1525,12.3718
210702.0,141.33500000000001,72.732699999999994,-5.2477799999999997,40.859099999999998,-17.740500000000001,-67.5869,15.4482
210703.0,148.93600000000001,58.096899999999998,-20.221699999999998,41.5182,-15.354900000000001,-72.445300000000003,14.369300000000001
210704.0,72.118200000000002,35.057899999999997,-6.7265899999999998,18.337900000000001,-16.242999999999999,-30.5578,9.6836400000000005
210705.0,101.30800000000001,-1.8942099999999999,-25.144200000000001,10.0351,-26.0852,6.8925200000000002,48.714500000000001
210706.0,81.384900000000002,-7.0526099999999996,-43.3504,-49.6571,-7.8185900000000004,13.989800000000001,37.712699999999998
210707.0,83.775099999999995,11.0685,-35.683399999999999,-20.849799999999998,-12.039300000000001,13.0246,38.132399999999997
210708.0,106.925,9.6490899999999993,-15.478999999999999,6.0449900000000003,-30.1494,16.9543,49.294499999999999
210709.0,108.431,32.921799999999998,-12.3567,-8.1274499999999996,-25.140499999999999,27.590399999999999,43.592799999999997
210710.0,109.556,57.3005,-15.1065,-14.434200000000001,-16.952400000000001,25.412199999999999,36.553899999999999
210711.0,92.476900000000001,53.902900000000002,-23.5669,-19.313600000000001,-15.7441,8.0366199999999992,25.327400000000001
210712.0,71.552700000000002,45.270899999999997,-18.680099999999999,-3.7707600000000001,-14.041399999999999,-10.260400000000001,16.871500000000001
210713.0,81.944299999999998,45.069600000000001,-0.34887000000000001,20.7301,-15.029500000000001,-37.769399999999997,8.3232999999999997
210714.0,94.108800000000002,55.0379,5.4828099999999997,22.850899999999999,-14.3193,-45.412599999999998,7.2515099999999997
210715.0,107.943,63.106099999999998,8.1514900000000008,26.837399999999999,-14.465,-53.177799999999998,8.1268200000000004
210716.0,121.041,71.367800000000003,8.0153199999999991,30.9955,-15.785399999999999,-59.258400000000002,9.7108899999999991
210717.0,131.77799999999999,79.024000000000001,6.3550199999999997,36.727600000000002,-17.347300000000001,-63.221400000000003,12.591699999999999
210718.0,151.76300000000001,55.021299999999997,-25.210699999999999,41.702599999999997,-10.5581,-75.179299999999998,8.0778599999999994
210719.0,152.279,54.865499999999997,-35.158499999999997,36.150500000000001,-3.1514500000000001,-73.697299999999998,5.6417799999999998
210720.0,145.55000000000001,51.338200000000001,-30.276299999999999,29.454699999999999,-2.0697800000000002,-72.532899999999998,3.4204699999999999
210721.0,123.331,43.793900000000001,-26.459599999999998,20.680199999999999,-2.20384,-61.262,5.5022099999999998
210722.0,99.777900000000002,29.142299999999999,-27.351299999999998,9.9696499999999997,-4.1534700000000004,-49.465800000000002,5.3945100000000004
210723.0,84.930999999999997,18.636299999999999,-34.0657,-32.915300000000002,-10.9741,3.7503899999999999,36.930500000000002
210724.0,82.706900000000005,30.131900000000002,-18.243400000000001,8.3777000000000008,-25.385000000000002,-19.195499999999999,26.081900000000001
210725.0,132.58600000000001,50.127099999999999,-21.125800000000002,33.033499999999997,-22.355899999999998,-61.073399999999999,15.691700000000001
210726.0,145.07499999999999,77.547399999999996,-21.334800000000001,29.208300000000001,-19.893000000000001,-63.553699999999999,11.6602
210727.0,80.245699999999999,35.039700000000003,-15.389200000000001,14.278700000000001,-19.074999999999999,-29.980499999999999,15.5367
210728.0,89.030000000000001,22.797499999999999,-35.639899999999997,-21.3659,-15.8269,1.86799,38.209299999999999
210729.0,70.210800000000006,-11.3858,-35.087800000000001,-39.332099999999997,-12.5587,6.9599299999999999,34.7883
210730.0,83.103700000000003,16.686599999999999,-30.6557,-18.9925,-12.4071,9.6514000000000006,38.034300000000002
210731.0,96.263400000000004,5.2775100000000004,-31.745799999999999,0.56325400000000003,-26.569199999999999,-1.9594100000000001,44.418300000000002
210732.0,116.367,1.5470999999999999,-19.964500000000001,26.508199999999999,-36.070099999999996,0.20869099999999999,51.688899999999997
210733.0,121.69,13.764099999999999,-17.865100000000002,24.0108,-38.378700000000002,8.9069299999999991,53.920499999999997
210734.0,118.896,40.827399999999997,-10.3094,20.871200000000002,-30.5977,12.7651,54.301600000000001
210735.0,96.292400000000001,40.006700000000002,-9.6008700000000005,11.7913,-25.582999999999998,-1.0895300000000001,42.614100000000001
210736.0,77.366399999999999,35.555799999999998,-6.3772500000000001,17.921500000000002,-15.034599999999999,-34.8155,10.6646
210737.0,80.463300000000004,38.819000000000003,3.7348300000000001,25.649799999999999,-16.889600000000002,-37.928699999999999,10.962199999999999
210738.0,90.477900000000005,43.313299999999998,4.9899100000000001,28.661100000000001,-18.914899999999999,-42.561599999999999,13.6211
210739.0,103.76300000000001,44.168799999999997,-1.7527900000000001,34.6158,-18.5243,-48.340600000000002,17.940200000000001
210740.0,119.452,37.213700000000003,-15.606199999999999,35.020800000000001,-18.8032,-55.623699999999999,20.3889
210741.0,154.07900000000001,96.6785,-16.512899999999998,29.053100000000001,-15.571400000000001,-66.373400000000004,4.6804899999999998
210742.0,154.024,101.533,-20.866199999999999,31.162299999999998,-9.02942,-63.376800000000003,6.0184600000000001
210743.0,139.864,83.915800000000004,-19.500299999999999,21.3062,-7.0908300000000004,-61.294499999999999,-0.20657400000000001
210744.0,112.533,65.350099999999998,-22.912800000000001,14.715,1.3697600000000001,-47.4968,-1.3027599999999999
210745.0,81.603200000000001,17.143899999999999,-44.006599999999999,-9.3928499999999993,-3.6413199999999999,-35.4407,3.1797300000000002
210746.0,71.427499999999995,21.4373,-11.8306,-11.6991,-13.851000000000001,-1.9432799999999999,33.727400000000003
210747.0,112.539,54.309800000000003,-27.285599999999999,21.8903,-25.245799999999999,-9.9275900000000004,42.401800000000001
210748.0,98.572500000000005,54.111899999999999,-22.702100000000002,22.075700000000001,-14.3888,-38.698099999999997,6.7556900000000004
210749.0,94.068600000000004,59.818300000000001,-19.646000000000001,36.6145,-10.160500000000001,-34.302999999999997,-0.058478700000000002
210750.0,76.613100000000003,47.578899999999997,-13.225899999999999,20.189499999999999,-4.5324299999999997,-14.832100000000001,28.082999999999998
210751.0,83.950000000000003,19.706700000000001,-30.563700000000001,-22.701799999999999,-13.930199999999999,-0.14011100000000001,37.7346
210752.0,50.900700000000001,2.2011799999999999,-22.600999999999999,-34.508000000000003,-9.5833499999999994,-1.21244,20.4834
210753.0,64.463300000000004,23.696899999999999,-15.402699999999999,-10.5867,-12.485300000000001,2.3127399999999998,27.7378
210754.0,94.509900000000002,29.857700000000001,-36.365299999999998,-30.360499999999998,-15.4183,-0.77213399999999999,37.386499999999998
210755.0,100.483,20.505500000000001,-48.949399999999997,-31.949999999999999,-23.341100000000001,-4.10337,38.642299999999999
210756.0,115.691,11.2516,-42.2836,2.27948,-32.697800000000001,-9.3326399999999996,49.831400000000002
210757.0,141.05199999999999,7.98508,-36.384399999999999,29.527100000000001,-39.028799999999997,-10.2996,62.233699999999999
210758.0,133.821,20.0928,-31.659800000000001,22.7469,-47.073999999999998,-12.0047,51.656500000000001
210759.0,54.383299999999998,9.6557300000000001,-9.8795099999999998,7.8607300000000002,-16.2315,-22.096,10.842499999999999
210760.0,65.131100000000004,6.0609700000000002,-18.302,13.2158,-19.401399999999999,-21.6785,17.164899999999999
210761.0,76.046800000000005,3.9202699999999999,-25.271799999999999,14.7431,-17.311499999999999,-26.726500000000001,22.029299999999999
210762.0,87.365300000000005,17.3384,-24.6205,16.675999999999998,-22.1706,-34.039299999999997,17.784500000000001
210763.0,99.112099999999998,43.714300000000001,-26.465299999999999,17.434799999999999,-17.798400000000001,-37.2074,17.778099999999998
210764.0,90.8459,82.149699999999996,4.2864599999999999,62.7742,-2.5941800000000002,-33.1633,-1.1421600000000001
210765.0,91.0565,72.907700000000006,-7.3606100000000003,51.9086,0.83186599999999999,-32.019500000000001,-2.2406100000000002
210766.0,90.168099999999995,79.228999999999999,5.2465900000000003,53.015300000000003,1.0521400000000001,-34.180999999999997,-11.557600000000001
210767.0,95.342500000000001,78.345200000000006,-5.0741800000000001,40.286700000000003,12.813000000000001,-32.333500000000001,-8.7348499999999998
210768.0,79.629800000000003,56.633499999999998,-9.2916000000000007,20.986999999999998,-2.0434399999999999,-31.7789,-3.25983
210769.0,53.308999999999997,19.973800000000001,7.9847200000000003,-9.5962800000000001,-11.848000000000001,-7.4503399999999997,23.026
210770.0,127.95399999999999,52.571199999999997,-42.344999999999999,52.685899999999997,-0.33060099999999998,0.201437,49.503799999999998
210771.0,57.010599999999997,50.014899999999997,-6.1497000000000002,50.020499999999998,3.5362,-4.3685299999999998,0.46882099999999999
210772.0,66.617099999999994,20.537400000000002,-33.830500000000001,37.990000000000002,2.67089,-3.3752200000000001,-7.5924500000000004
210773.0,78.771299999999997,5.58331,-28.436800000000002,23.139399999999998,2.4135200000000001,-5.5929700000000002,36.655000000000001
210774.0,68.606200000000001,11.3095,-20.197399999999998,-14.632899999999999,-13.516,-0.73207199999999994,33.210599999999999
210775.0,34.759099999999997,25.850200000000001,14.2464,1.4412199999999999,-10.9192,-6.5711300000000001,9.5526400000000002
210776.0,45.2943,53.8185,30.722999999999999,26.685700000000001,-13.852600000000001,-3.0540099999999999,16.380500000000001
210777.0,82.320999999999998,5.9527900000000002,-38.021599999999999,-18.849799999999998,-13.9694,0.57176199999999999,39.716099999999997
210778.0,96.982299999999995,14.2506,-46.292200000000001,-20.5928,-15.304500000000001,-0.96743699999999999,44.460099999999997
210779.0,111.212,28.019400000000001,-49.450899999999997,-27.285,-15.5746,-8.3301700000000007,47.104700000000001
210780.0,120.14700000000001,35.297400000000003,-55.273000000000003,-24.827500000000001,-30.465,-16.414400000000001,38.6008
210781.0,122.011,33.7378,-64.359099999999998,-0.51639800000000002,-36.6006,-14.3087,30.645600000000002
210782.0,48.783900000000003,-26.0169,-38.142299999999999,-17.946899999999999,-19.9224,-14.325799999999999,9.3713700000000006
210783.0,57.648099999999999,9.2889499999999998,-36.732599999999998,-3.3404400000000001,-13.1165,-12.1812,14.8971
210784.0,64.653899999999993,18.091899999999999,-37.580399999999997,-7.1377300000000004,-9.3330900000000003,-15.432,17.058900000000001
210785.0,60.854900000000001,28.916399999999999,-23.1404,6.6153700000000004,-15.9602,-16.633099999999999,4.5763299999999996
210786.0,56.882199999999997,38.021799999999999,-20.8188,24.749300000000002,-5.5713900000000001,-8.7473899999999993,4.3008600000000001
210787.0,70.188900000000004,59.994300000000003,10.171799999999999,85.621799999999993,5.6392699999999998,-6.8689299999999998,-9.5508699999999997
210788.0,75.776799999999994,23.526199999999999,-28.272600000000001,49.013199999999998,10.1511,-9.9144799999999993,-12.717499999999999
210789.0,84.754999999999995,61.1449,6.5253399999999999,84.658100000000005,10.2879,-13.6914,-22.234100000000002
210790.0,86.351900000000001,33.558399999999999,-29.039400000000001,38.078000000000003,15.7607,-20.109100000000002,-20.627600000000001
210791.0,69.437700000000007,93.493700000000004,47.868899999999996,85.735200000000006,1.91882,-30.104700000000001,-10.063599999999999
210792.0,42.667900000000003,21.630500000000001,34.668300000000002,3.4482300000000001,-6.5072999999999999,-8.8522700000000007,15.500500000000001
210793.0,110.58,57.1663,-31.556100000000001,44.579799999999999,14.746,7.7232599999999998,38.657499999999999
210794.0,66.910899999999998,34.499600000000001,-15.8751,46.756999999999998,9.7095699999999994,15.353400000000001,-7.78348
210795.0,72.436599999999999,21.116700000000002,-42.747700000000002,22.814499999999999,7.8590299999999997,12.4617,-11.6319
210796.0,56.929400000000001,8.16953,-43.298699999999997,-13.5488,-2.3968500000000001,-4.23034,19.724499999999999
210797.0,49.104900000000001,6.7381399999999996,-15.238,-13.624599999999999,-4.75657,3.4816099999999999,24.8794
210798.0,29.901399999999999,-2.8047,-3.0093700000000001,-8.8453700000000008,-15.1701,-6.17509,4.2426899999999996
210799.0,33.099400000000003,117.61,105.166,102.423,-14.461600000000001,-0.88250600000000001,9.4744899999999994
210800.0,71.566500000000005,-5.8263999999999996,-49.1907,-31.121600000000001,-1.7074800000000001,7.1938399999999998,34.323700000000002
210801.0,90.737799999999993,-6.7906300000000002,-61.287300000000002,-29.602699999999999,-6.0913000000000004,5.9003300000000003,43.857799999999997
210802.0,95.527699999999996,3.1393499999999999,-51.311500000000002,-15.961499999999999,-15.215,0.35885499999999998,45.243699999999997
210803.0,91.271000000000001,13.9267,-54.492800000000003,-3.5314399999999999,-22.1145,0.21210899999999999,31.997699999999998
210804.0,100.70699999999999,41.589700000000001,-48.781599999999997,30.566600000000001,-4.1922499999999996,7.4421099999999996,29.612400000000001
210805.0,46.647199999999998,11.016299999999999,-36.064700000000002,-13.8089,-10.6563,-2.5675400000000002,7.1040900000000002
210806.0,52.076300000000003,22.265899999999998,-31.5365,2.0680200000000002,-3.35006,5.3809399999999998,11.186999999999999
210807.0,47.823799999999999,24.482199999999999,-22.799900000000001,10.6332,-2.66079,10.573700000000001,7.2546499999999998
210808.0,49.292200000000001,29.331499999999998,-12.817600000000001,27.5291,-0.97212399999999999,15.503399999999999,-0.81641699999999995
210809.0,59.162399999999998,27.1905,-14.9473,39.1312,7.2624700000000004,17.043199999999999,-4.05009
210810.0,72.017899999999997,41.264299999999999,-24.417999999999999,38.353200000000001,4.9261400000000002,6.8830499999999999,-16.735299999999999
210811.0,78.797399999999996,20.735600000000002,-52.841200000000001,14.462899999999999,7.6179300000000003,3.4557199999999999,-18.327999999999999
210812.0,87.525199999999998,49.597799999999999,-28.663799999999998,43.855499999999999,5.1118899999999998,-1.03399,-24.970700000000001
210813.0,85.256699999999995,19.466100000000001,-49.528100000000002,17.770399999999999,6.5483900000000004,-9.11782,-27.353000000000002
210814.0,58.597200000000001,66.700199999999995,35.502200000000002,87.586600000000004,3.5914700000000002,-17.9712,-11.0283
210815.0,41.0062,23.114100000000001,47.136899999999997,14.5692,-1.7262299999999999,-4.9463499999999998,15.745799999999999
210816.0,82.279700000000005,29.328800000000001,-34.669400000000003,1.2803,10.5166,25.2758,21.864000000000001
210817.0,74.391599999999997,25.5823,-37.249099999999999,15.9343,6.3000800000000003,23.4117,-10.5837
210818.0,80.6935,17.897300000000001,-51.575699999999998,9.3298400000000008,5.6581599999999996,23.436,-12.422499999999999
210819.0,66.1815,27.997199999999999,-26.969799999999999,0.03372,4.2125599999999999,24.195599999999999,10.07
210820.0,45.5916,-9.6645500000000002,-27.993500000000001,-26.438199999999998,1.4415,7.5329699999999997,23.0381
210821.0,26.480599999999999,-44.069400000000002,-43.814300000000003,-48.955199999999998,-14.7104,-1.5258400000000001,2.5731799999999998
210822.0,32.874200000000002,117.38,102.776,109.258,-13.1471,5.80145,10.009399999999999
210823.0,76.384399999999999,-23.440100000000001,-65.880499999999998,-40.928100000000001,6.7942200000000001,12.9047,35.738300000000002
210824.0,74.609800000000007,-9.3756500000000003,-57.144599999999997,-29.632100000000001,-2.0234800000000002,11.1388,33.948799999999999
210825.0,73.391300000000001,6.4562099999999996,-51.746899999999997,-19.098299999999998,-8.9410500000000006,12.4314,26.6431
210826.0,85.688900000000004,33.450099999999999,-39.393799999999999,12.983599999999999,3.2321599999999999,21.41,23.817699999999999
210827.0,98.920400000000001,48.447200000000002,-26.0715,29.967500000000001,15.464700000000001,27.5395,27.5382
210828.0,65.975399999999993,33.781300000000002,-16.744800000000001,17.189399999999999,4.9853399999999999,26.418399999999998,8.0528399999999998
210829.0,65.863699999999994,27.323499999999999,-17.626300000000001,21.980599999999999,5.3311400000000004,27.7103,6.8388299999999997
210830.0,67.006900000000002,21.1419,-20.665900000000001,26.064299999999999,5.2284800000000002,28.440999999999999,1.05183
210831.0,69.624099999999999,25.948799999999999,-20.1157,31.402100000000001,5.9847999999999999,27.75,-2.9999400000000001
210832.0,69.887699999999995,25.496600000000001,-29.185400000000001,20.427600000000002,8.3236100000000004,24.797699999999999,-5.5690499999999998
210833.0,83.150599999999997,27.640699999999999,-44.549900000000001,20.479399999999998,3.1414,20.416,-17.206399999999999
210834.0,89.743399999999994,14.122299999999999,-66.602400000000003,5.6835599999999999,4.2289199999999996,15.805999999999999,-21.168099999999999
210835.0,94.674499999999995,37.776200000000003,-46.234400000000001,30.6189,0.43897999999999998,8.7301400000000005,-27.241499999999998
210836.0,90.175600000000003,18.337499999999999,-61.010800000000003,10.7019,1.9134199999999999,-1.22326,-28.092600000000001
210837.0,55.863300000000002,48.738,-1.98668,47.655799999999999,1.2089099999999999,-9.2737599999999993,-10.6309
210838.0,48.8613,12.9244,25.518899999999999,3.07986,2.0778699999999999,5.1227900000000002,25.273299999999999
210839.0,89.369399999999999,26.8066,-24.932700000000001,5.2920999999999996,10.214499999999999,41.152200000000001,13.7437
210840.0,83.695499999999996,24.655100000000001,-47.174999999999997,5.0669599999999999,5.3539099999999999,28.1373,-11.655900000000001
210841.0,84.327500000000001,24.626799999999999,-52.522100000000002,4.7484599999999997,4.1407999999999996,23.493600000000001,-14.027699999999999
210842.0,90.693600000000004,29.890699999999999,-22.822600000000001,17.084900000000001,12.0763,41.837899999999998,9.4682999999999993
210843.0,56.913800000000002,-14.244,-35.268300000000004,-32.216200000000001,3.04216,12.7021,27.9298
210844.0,38.3003,-54.833500000000001,-63.283299999999997,-81.804100000000005,-10.4352,6.8184699999999996,11.9701
210845.0,57.152700000000003,81.656199999999998,50.264000000000003,60.1676,-9.2620799999999992,17.695799999999998,20.7926
210846.0,80.044499999999999,-1.85595,-48.942399999999999,-33.636899999999997,6.0095599999999996,17.027200000000001,35.110700000000001
210847.0,72.950400000000002,0.61976600000000004,-49.8566,-37.515999999999998,-1.6448499999999999,19.9893,26.061900000000001
210848.0,85.729200000000006,31.521899999999999,-27.8125,-3.2099500000000001,3.7071499999999999,32.399299999999997,22.308700000000002
210849.0,104.98099999999999,43.401800000000001,-21.836300000000001,10.4168,17.603899999999999,40.3523,25.912400000000002
210850.0,95.709599999999995,26.9861,-29.582799999999999,-3.53213,14.587199999999999,39.537199999999999,21.8127
210851.0,84.031800000000004,29.739699999999999,-22.5304,17.9834,10.857900000000001,38.063899999999997,5.9218500000000001
210852.0,77.839100000000002,29.252099999999999,-25.046199999999999,12.915900000000001,9.0090699999999995,34.060400000000001,1.5217499999999999
210853.0,75.570099999999996,29.261600000000001,-29.862400000000001,6.68269,8.5557999999999996,30.6023,-1.93466
210854.0,77.146699999999996,24.981200000000001,-38.5974,1.4124300000000001,6.9137700000000004,29.6416,-4.93581
210855.0,80.772099999999995,23.654599999999999,-42.984099999999998,3.60839,6.3759399999999999,30.104800000000001,-7.6716199999999999
210856.0,87.199399999999997,29.046700000000001,-53.604199999999999,11.505699999999999,0.72175599999999995,19.0275,-16.602900000000002
210857.0,89.200800000000001,22.894100000000002,-63.090899999999998,8.6063299999999998,-0.62417,13.561199999999999,-18.572900000000001
210858.0,94.104900000000001,34.226500000000001,-54.290700000000001,23.742100000000001,-4.7000099999999998,8.3809900000000006,-22.814900000000002
210859.0,86.440399999999997,21.712,-58.742899999999999,10.787699999999999,-3.4510000000000001,0.69947599999999999,-23.953600000000002
210860.0,53.186100000000003,57.7254,4.3135000000000003,44.033499999999997,-3.7755200000000002,-8.0790699999999998,-9.6815099999999994
210861.0,99.542400000000001,54.164200000000001,14.6882,-13.1812,9.7123899999999992,11.072100000000001,44.055599999999998
210862.0,103.752,24.665900000000001,-45.554299999999998,-20.180299999999999,15.5905,43.882800000000003,12.4529
210863.0,81.961299999999994,27.139900000000001,-49.1096,1.89374,2.3511899999999999,24.892900000000001,-10.2592
210864.0,79.752700000000004,24.9771,-51.738799999999998,4.2691999999999997,0.48119699999999999,20.8323,-10.524900000000001
210865.0,99.198999999999998,22.612300000000001,-49.571300000000001,-19.587499999999999,13.163399999999999,41.515900000000002,8.2614800000000006
210866.0,90.5304,39.6723,-8.3518600000000003,-30.288900000000002,6.52752,13.9748,34.837499999999999
210867.0,72.268199999999993,-60.635100000000001,-69.426500000000004,-109.11,-9.4144199999999998,14.308199999999999,27.938500000000001
210868.0,96.481399999999994,52.508800000000001,-7.3989000000000003,-12.208,-10.283099999999999,21.728999999999999,34.999099999999999
210869.0,94.274500000000003,33.7303,-21.9057,-39.2864,3.80017,23.0245,31.0351
210870.0,101.955,43.241500000000002,-19.4316,-24.165700000000001,10.653499999999999,34.111899999999999,27.787400000000002
210871.0,108.19,37.4435,-28.599599999999999,-16.970800000000001,16.926400000000001,41.432499999999997,25.603300000000001
210872.0,107.639,29.714400000000001,-35.862200000000001,-19.764700000000001,16.743400000000001,43.2363,23.332899999999999
210873.0,102.843,29.654499999999999,-33.921399999999998,-17.5686,14.9291,43.610799999999998,17.6325
210874.0,95.016000000000005,22.737200000000001,-48.774099999999997,-16.918900000000001,10.7296,39.808100000000003,5.0994700000000002
210875.0,91.746399999999994,23.642800000000001,-45.464300000000001,-12.2096,9.3808600000000002,39.000700000000002,1.49617
210876.0,87.830200000000005,23.183299999999999,-42.497900000000001,-8.0858399999999993,8.3850599999999993,37.616700000000002,-2.5933899999999999
210877.0,86.173500000000004,26.6617,-41.915199999999999,-3.2661600000000002,7.6805099999999999,34.583300000000001,-6.1854399999999998
210878.0,83.459900000000005,25.8673,-47.002499999999998,-2.9637600000000002,5.3810500000000001,29.466899999999999,-8.8216199999999994
210879.0,80.165899999999993,28.4526,-49.9375,11.599,-3.3201100000000001,16.994299999999999,-11.8207
210880.0,78.802300000000002,21.3415,-56.801099999999998,8.4679900000000004,-4.7284800000000002,11.9846,-12.190300000000001
210881.0,85.177000000000007,34.461300000000001,-48.540799999999997,25.395900000000001,-8.5181299999999993,8.1753,-14.351000000000001
210882.0,78.514300000000006,14.0741,-58.347000000000001,9.7238199999999999,-7.8231599999999997,0.29219400000000001,-18.546700000000001
210883.0,49.754899999999999,49.032800000000002,8.8694199999999999,55.3294,-5.4576000000000002,-7.5708500000000001,-10.1424
210884.0,102.75700000000001,68.410200000000003,15.3872,7.19428,20.2698,16.545400000000001,41.602200000000003
210885.0,117.541,26.066400000000002,-56.367600000000003,-34.540399999999998,15.8125,47.404499999999999,16.850000000000001
210886.0,75.422600000000003,29.2454,-43.735399999999998,1.8565,-0.85299499999999995,22.557200000000002,-5.2415399999999996
210887.0,72.329599999999999,29.781099999999999,-42.776400000000002,7.5083399999999996,-3.01892,17.817900000000002,-5.9773899999999998
210888.0,113.425,27.195,-55.5381,-30.9238,12.5267,46.700600000000001,12.0738
210889.0,99.859999999999999,49.501899999999999,1.5602199999999999,-12.648400000000001,15.756500000000001,23.389199999999999,38.316899999999997
210890.0,69.228800000000007,-65.117199999999997,-69.944999999999993,-118.28700000000001,-0.024118400000000002,16.747399999999999,21.272600000000001
210891.0,78.133600000000001,44.498100000000001,-15.553900000000001,-15.108599999999999,-4.9923599999999997,19.754300000000001,20.653400000000001
210892.0,93.343599999999995,36.409399999999998,-7.1019399999999999,-15.354699999999999,10.609500000000001,32.001800000000003,31.530799999999999
210893.0,110.279,34.410200000000003,-23.985399999999998,-17.068000000000001,18.736499999999999,40.198999999999998,32.692999999999998
210894.0,118.25700000000001,31.139600000000002,-39.871499999999997,-27.177,20.0962,43.809899999999999,30.071899999999999
210895.0,114.328,28.4162,-45.483400000000003,-31.908799999999999,16.4116,44.857599999999998,22.977799999999998
210896.0,115.47199999999999,24.878399999999999,-52.470100000000002,-34.9285,16.703299999999999,46.151200000000003,19.776700000000002
210897.0,109.06999999999999,27.228400000000001,-55.923200000000001,-26.334299999999999,10.599600000000001,44.865200000000002,7.9830500000000004
210898.0,102.233,26.974699999999999,-54.855800000000002,-21.817900000000002,8.4005399999999995,41.249899999999997,4.1205699999999998
210899.0,91.862499999999997,29.593699999999998,-47.942100000000003,-14.051500000000001,5.5307899999999997,35.653199999999998,0.53578000000000003
210900.0,84.531400000000005,27.680099999999999,-47.538699999999999,-10.7745,3.1521699999999999,30.890999999999998,-1.7196800000000001
210901.0,78.853999999999999,29.3613,-43.731000000000002,-3.1905399999999999,1.0558799999999999,26.805599999999998,-3.4726699999999999
210902.0,69.668199999999999,30.971800000000002,-39.742199999999997,14.050000000000001,-6.0854600000000003,13.309799999999999,-6.3479700000000001
210903.0,67.634399999999999,30.371400000000001,-38.524500000000003,18.2758,-7.2318300000000004,8.7807300000000001,-6.4962499999999999
210904.0,70.595699999999994,30.885000000000002,-38.951999999999998,23.870000000000001,-9.9187600000000007,5.1673299999999998,-7.5718300000000003
210905.0,69.268299999999996,27.614799999999999,-35.676900000000003,29.462399999999999,-10.003,-2.75671,-10.784599999999999
210906.0,59.045099999999998,39.156199999999998,-6.6493900000000004,50.974699999999999,-7.6633899999999997,-10.2403,-8.4926300000000001
210907.0,68.917500000000004,54.808799999999998,17.917999999999999,15.049899999999999,18.529800000000002,19.346800000000002,19.336500000000001
210908.0,117.364,32.1524,-59.487299999999998,-39.238599999999998,14.4514,40.927799999999998,19.750699999999998
210909.0,69.499700000000004,32.589799999999997,-38.6265,4.5972299999999997,-3.9774699999999998,17.514099999999999,0.48281099999999999
210910.0,64.715400000000002,31.252500000000001,-36.064599999999999,9.7850999999999999,-5.7739099999999999,13.4056,-0.73480299999999998
210911.0,114.627,30.940799999999999,-62.632800000000003,-36.536299999999997,11.152100000000001,40.436500000000002,16.988099999999999
210912.0,84.616799999999998,60.167200000000001,15.199,11.3546,18.242100000000001,20.129999999999999,30.200600000000001
210913.0,53.180799999999998,-60.079599999999999,-64.451700000000002,-95.705299999999994,8.8638200000000005,17.8842,12.9152
210914.0,57.624000000000002,37.1479,-3.3783300000000001,-1.46672,-0.310527,23.6402,5.00312
210915.0,91.720600000000005,49.140999999999998,-4.1020099999999999,-3.4832700000000001,18.165900000000001,23.020600000000002,31.7835
210916.0,98.1785,42.189900000000002,-22.547899999999998,-16.363600000000002,19.539999999999999,27.786999999999999,27.978300000000001
210917.0,113.779,32.331099999999999,-49.823300000000003,-35.854900000000001,21.188300000000002,34.937199999999997,26.7087
210918.0,114.496,31.084299999999999,-53.377800000000001,-40.252000000000002,17.900099999999998,38.110799999999998,23.046199999999999
210919.0,116.20699999999999,34.688600000000001,-52.422699999999999,-38.037399999999998,16.765599999999999,39.873199999999997,21.206199999999999
210920.0,110.28,29.308900000000001,-65.018900000000002,-33.771000000000001,8.2738200000000006,38.649900000000002,13.5185
210921.0,102.124,31.646899999999999,-59.571800000000003,-25.781400000000001,4.8832500000000003,35.0548,9.8491300000000006
210922.0,91.113100000000003,31.083100000000002,-52.930500000000002,-18.470400000000001,1.77427,30.549800000000001,6.8706300000000002
210923.0,82.750399999999999,33.445900000000002,-45.9101,-8.2840199999999999,-0.026055700000000001,26.232900000000001,4.3167400000000002
210924.0,75.010599999999997,32.014600000000002,-42.679200000000002,-2.33799,-2.13808,21.6677,1.9218
210925.0,62.009799999999998,31.1876,-33.133899999999997,16.155899999999999,-7.4188900000000002,9.5695200000000007,-1.7341800000000001
210926.0,59.754100000000001,28.528099999999998,-32.1158,20.2944,-8.5267999999999997,5.3965100000000001,-2.5110399999999999
210927.0,60.669499999999999,32.792400000000001,-25.956099999999999,31.016500000000001,-9.7466500000000007,0.97938599999999998,-3.7731699999999999
210928.0,60.754100000000001,27.4039,-25.867699999999999,34.069899999999997,-9.9018200000000007,-5.1054199999999996,-5.2063300000000003
210929.0,64.230099999999993,35.3748,-12.2888,51.656100000000002,-8.4556799999999992,-12.719900000000001,-6.1291799999999999
210930.0,46.3613,23.493300000000001,4.8185000000000002,0.88044299999999998,9.6024999999999991,20.310199999999998,8.1122899999999998
210931.0,105.17,38.005600000000001,-54.142099999999999,-26.396100000000001,12.1492,28.3186,22.4191
210932.0,66.199100000000001,34.795499999999997,-34.7211,10.9864,-5.7468500000000002,12.5817,4.6204000000000001
210933.0,60.087800000000001,35.308599999999998,-27.762,19.015899999999998,-6.8965100000000001,8.6585000000000001,3.0106600000000001
210934.0,108.113,37.738599999999998,-60.436100000000003,-28.799900000000001,9.6445900000000009,28.9938,21.245999999999999
210935.0,55.649000000000001,51.722799999999999,17.154499999999999,17.0352,9.4299400000000002,12.7072,19.549299999999999
210936.0,42.0107,-42.7714,-48.940300000000001,-68.754099999999994,10.607900000000001,13.600899999999999,10.319699999999999
210937.0,47.808900000000001,15.293100000000001,-8.4477200000000003,-13.646599999999999,5.2945399999999996,22.057600000000001,3.0497200000000002
210938.0,85.038200000000003,60.3371,-2.7565400000000002,5.40707,21.0776,8.90015,26.637599999999999
210939.0,83.356200000000001,57.580800000000004,-10.815799999999999,-3.1672500000000001,19.926400000000001,8.6988800000000008,20.949100000000001
210940.0,90.081199999999995,54.649900000000002,-22.355,-9.6486099999999997,18.799099999999999,14.1792,21.122699999999998
210941.0,96.972099999999998,48.142800000000001,-34.699199999999998,-15.7514,16.164999999999999,20.822299999999998,23.571300000000001
210942.0,101.304,39.369,-48.154499999999999,-23.528600000000001,14.1076,25.549900000000001,23.061800000000002
210943.0,106.075,41.129800000000003,-59.399299999999997,-23.572199999999999,6.06846,27.567799999999998,18.915400000000002
210944.0,99.045199999999994,38.892400000000002,-57.818300000000001,-18.130299999999998,2.6877800000000001,25.471800000000002,15.8325
210945.0,89.350999999999999,39.115900000000003,-50.223399999999998,-8.0903200000000002,-0.41491400000000001,22.633700000000001,12.297000000000001
210946.0,81.6935,36.413200000000003,-47.122900000000001,-3.3486699999999998,-2.07369,19.6356,9.4254899999999999
210947.0,73.344099999999997,36.919499999999999,-39.331699999999998,5.0486800000000001,-4.1398099999999998,16.248100000000001,6.7360499999999996
210948.0,58.2468,33.992699999999999,-25.913599999999999,24.160599999999999,-8.15029,5.3091999999999997,2.0343100000000001
210949.0,57.151200000000003,33.964500000000001,-22.073799999999999,31.540099999999999,-9.0667299999999997,1.4871099999999999,0.948349
210950.0,58.810499999999998,32.291200000000003,-20.763000000000002,37.823,-9.9988700000000001,-2.54739,-0.385737
210951.0,61.712299999999999,31.643899999999999,-16.403199999999998,47.350299999999997,-9.8713899999999999,-8.0774799999999995,-1.8688100000000001
210952.0,68.915800000000004,37.859400000000001,-5.9529899999999998,64.495599999999996,-8.8146699999999996,-15.023899999999999,-3.7915399999999999
210953.0,23.0306,-2.6286,-16.5426,-15.7166,7.4222299999999999,7.7366599999999996,-0.96338699999999999
210954.0,93.289500000000004,56.821899999999999,-36.942,-8.7002900000000007,10.371499999999999,4.3537400000000002,21.464200000000002
210955.0,67.392099999999999,37.130499999999998,-34.067500000000003,18.8309,-6.2114099999999999,7.7635500000000004,6.9279700000000002
210956.0,59.5518,35.660299999999999,-25.924499999999998,25.269400000000001,-7.0975999999999999,4.6715400000000002,4.7989199999999999
210957.0,101.44799999999999,51.381300000000003,-49.426400000000001,-9.2258700000000005,8.9130699999999994,11.099500000000001,25.546800000000001
210958.0,30.7423,25.654699999999998,1.79166,17.953499999999998,3.1742900000000001,10.2699,7.1524000000000001
210959.0,25.916399999999999,-27.163499999999999,-30.3187,-44.219700000000003,8.8202099999999994,7.4169999999999998,2.9541599999999999
210960.0,34.229700000000001,7.6405599999999998,-11.636699999999999,-16.196899999999999,12.039899999999999,9.0593800000000009,-1.8495900000000001
210961.0,60.209699999999998,53.8752,11.546900000000001,39.254600000000003,15.6286,12.785500000000001,18.398
210962.0,64.959800000000001,59.093200000000003,11.6503,38.756799999999998,17.2029,10.2018,20.9773
210963.0,62.833399999999997,52.792200000000001,-3.6738200000000001,23.804400000000001,13.284800000000001,5.2363900000000001,17.742999999999999
210964.0,76.863,56.301699999999997,-19.504000000000001,9.6017899999999994,14.355,1.7361599999999999,17.257000000000001
210965.0,88.246099999999998,61.3658,-26.9739,-0.42295300000000002,14.701599999999999,1.1474800000000001,17.9968
210966.0,101.03,40.654600000000002,-59.332900000000002,-8.88401,5.2025199999999998,16.131399999999999,24.811599999999999
210967.0,96.613299999999995,40.155200000000001,-57.811399999999999,-3.07674,0.903532,16.183800000000002,20.9345
210968.0,91.5702,38.999000000000002,-56.190100000000001,-0.54602499999999998,-0.63462200000000002,14.4886,17.259
210969.0,83.757400000000004,39.142600000000002,-49.046999999999997,6.3930300000000004,-2.9458099999999998,12.771599999999999,13.393700000000001
210970.0,76.044700000000006,37.323700000000002,-43.196800000000003,11.7079,-5.2351099999999997,10.5212,9.8551500000000001
210971.0,57.719200000000001,33.184699999999999,-23.764500000000002,29.964200000000002,-8.2448200000000007,1.97119,3.9044599999999998
210972.0,57.440100000000001,30.9375,-21.687000000000001,35.469900000000003,-8.8346999999999998,-1.01616,3.35284
210973.0,60.233800000000002,32.158099999999997,-17.1479,44.917299999999997,-10.3743,-4.3374699999999997,2.93248
210974.0,65.152600000000007,27.0854,-16.7742,51.589100000000002,-11.188700000000001,-8.5683000000000007,4.0919999999999996
210975.0,73.176400000000001,29.561699999999998,-8.7942099999999996,67.677999999999997,-11.032400000000001,-13.4824,4.4083899999999998
210976.0,381.68000000000001,12553.1,12516.200000000001,12354.1,180.28399999999999,-57.205199999999998,-39.658700000000003
210977.0,337.38499999999999,-11432.799999999999,-11429.700000000001,-11588.6,158.76400000000001,-31.651599999999998,-59.026200000000003
210978.0,316.44499999999999,12124.5,12152.299999999999,11997.700000000001,146.16200000000001,-6.3243400000000003,-71.984099999999998
210979.0,294.702,-11013.299999999999,-10959.6,-11120.4,125.155,8.1748399999999997,-80.693399999999997
210980.0,275.09100000000001,12002.9,12075.4,11906.5,103.027,13.6363,-85.140699999999995
210981.0,264.18200000000002,-11505.700000000001,-11416.299999999999,-11592.0,80.633099999999999,30.768599999999999,-89.992699999999999
210982.0,259.66199999999998,11591.1,11702.200000000001,11514.6,51.342799999999997,49.866799999999998,-91.955299999999994
210983.0,249.74199999999999,-11564.799999999999,-11447.0,-11636.9,38.265900000000002,48.865600000000001,-88.003900000000002
210984.0,248.83600000000001,11066.200000000001,11189.6,10994.9,25.143999999999998,56.140900000000002,-84.599400000000003
210985.0,250.392,-11610.5,-11485.700000000001,-11684.0,17.9025,63.448999999999998,-80.658000000000001
210986.0,230.54599999999999,11250.200000000001,11372.9,11188.9,27.667400000000001,49.104900000000001,-75.926400000000001
210987.0,222.85400000000001,-11778.799999999999,-11668.4,-11829.5,51.628300000000003,33.083799999999997,-77.496099999999998
210988.0,234.08699999999999,10818.799999999999,10916.1,10768.0,71.459599999999995,27.5441,-82.093800000000002
210989.0,241.03899999999999,-11565.299999999999,-11470.299999999999,-11610.299999999999,81.797499999999999,23.531500000000001,-83.758399999999995
210990.0,256.43599999999998,10794.700000000001,10890.299999999999,10768.0,98.575199999999995,14.151199999999999,-88.695599999999999
210991.0,276.44400000000002,-11469.700000000001,-11371.9,-11476.799999999999,113.684,5.9511000000000003,-95.278599999999997
210992.0,279.43900000000002,10447.1,10544.299999999999,10439.4,114.872,5.6848099999999997,-96.861000000000004
210993.0,277.90100000000001,-11491.299999999999,-11396.0,-11506.4,112.938,7.1442600000000001,-96.700000000000003
210994.0,288.03699999999998,10497.799999999999,10596.799999999999,10492.200000000001,118.15000000000001,5.67692,-101.021
210995.0,289.31400000000002,-11218.200000000001,-11111.0,-11208.5,118.38,4.9268000000000001,-101.70999999999999
210996.0,332.988,9909.6000000000004,10035.6,9970.6900000000005,136.304,3.0488599999999999,-120.011
210997.0,373.80099999999999,-11205.0,-11055.700000000001,-11092.799999999999,148.49299999999999,4.9804500000000003,-135.84899999999999
210998.0,388.61799999999999,9907.5100000000002,10080.1,10057.1,148.25200000000001,9.6968399999999999,-139.60400000000001
210999.0,408.37599999999998,-11392.6,-11190.200000000001,-11196.9,147.07900000000001,18.9131,-142.80699999999999
211000.0,378.49700000000001,9872.9300000000003,10097.799999999999,10086.6,128.976,26.060500000000001,-119.917
211001.0,326.68000000000001,-10262.6,-10029.799999999999,-10059.299999999999,106.67100000000001,24.890499999999999,-86.677199999999999
211002.0,281.17099999999999,10422.299999999999,10652.1,10601.700000000001,89.524900000000002,15.6594,-59.193600000000004
211003.0,236.45400000000001,-10266.4,-10041.299999999999,-10107.200000000001,69.752499999999998,4.7382099999999996,-18.671800000000001
211004.0,152.589,-1895.1600000000001,-1798.28,-1885.8499999999999,38.520299999999999,-1.1012299999999999,58.474699999999999
211005.0,94.847899999999996,-393.166,-319.697,-419.786,-0.57109100000000002,1.0026900000000001,17.608599999999999
211006.0,197.483,1565.3099999999999,1583.8399999999999,1628.0,-5.9682599999999999,-0.64998199999999995,109.208
211007.0,71.335499999999996,4156.0500000000002,4205.3999999999996,4144.3900000000003,10.3803,16.2224,16.628599999999999
211008.0,64.875200000000007,1666.3699999999999,1705.8499999999999,1665.51,8.3826099999999997,10.314299999999999,26.363800000000001
211009.0,76.641800000000003,438.19799999999998,470.74700000000001,424.62400000000002,17.773,1.0153399999999999,32.851599999999998
211010.0,61.954900000000002,2456.3400000000001,2493.3899999999999,2437.52,-5.1583699999999997,16.621099999999998,12.991
211011.0,175.18899999999999,4954.3000000000002,4971.6400000000003,5012.96,-6.0922299999999998,-0.64515199999999995,96.3566
211012.0,64.915800000000004,757.45299999999997,821.85199999999998,767.86599999999999,0.64263599999999999,9.3698700000000006,11.02
211013.0,73.534599999999998,511.25700000000001,571.73900000000003,509.07799999999997,-6.6027199999999997,10.8057,19.421600000000002
211014.0,59.831200000000003,-529.947,-468.56599999999997,-509.19299999999998,7.2973100000000004,10.326700000000001,7.65116
211015.0,62.641399999999997,1107.5599999999999,1160.79,1142.27,8.6584099999999999,5.5548500000000001,21.722200000000001
211016.0,96.180899999999994,307.99400000000003,344.59100000000001,356.30399999999997,4.7992800000000004,2.9821900000000001,49.158900000000003
211017.0,156.167,2040.21,2063.3299999999999,2099.1399999999999,-1.4075299999999999,1.3911500000000001,85.109700000000004
211018.0,186.06,-1650.02,-1619.3800000000001,-1594.1600000000001,2.1896900000000001,3.7523399999999998,103.624
211019.0,193.303,3113.4400000000001,3129.9299999999998,3173.6300000000001,-6.5202799999999996,-2.2820399999999998,106.959
211020.0,156.29900000000001,4283.0500000000002,4309.4099999999999,4341.5200000000004,-1.5031099999999999,6.1050800000000001,85.124600000000001
211021.0,138.65000000000001,4971.5,5008.7700000000004,5026.2200000000003,2.4785300000000001,11.0373,74.152000000000001
211022.0,124.188,5134.9200000000001,5177.7299999999996,5182.6800000000003,2.61374,8.9570799999999995,66.061099999999996
211023.0,88.694100000000006,4838.0600000000004,4882.9499999999998,4861.2799999999997,8.2846600000000006,9.0231600000000007,44.365200000000002
211024.0,54.901299999999999,-4566.9799999999996,-4533.4399999999996,-4548.9399999999996,7.1578299999999997,9.9891100000000002,23.917100000000001
211025.0,78.176699999999997,3259.9499999999998,3309.3800000000001,3228.9899999999998,4.3157699999999997,19.0975,3.1164999999999998
211026.0,70.715299999999999,1842.0999999999999,1863.4100000000001,1854.2,-15.4831,13.286,33.710500000000003
211027.0,100.879,1799.48,1814.5599999999999,1841.95,-22.331399999999999,9.4965799999999998,48.371000000000002
211028.0,100.381,1985.46,2005.3299999999999,2035.0899999999999,-18.420100000000001,9.6585699999999992,47.981699999999996
211029.0,67.015000000000001,1972.0699999999999,2005.6600000000001,1996.73,-4.8505099999999999,10.0959,32.693399999999997
211030.0,50.572800000000001,-1858.3900000000001,-1830.23,-1848.9200000000001,5.4200900000000001,3.16168,24.654299999999999
211031.0,75.784800000000004,1080.76,1119.8599999999999,1059.26,23.263400000000001,7.8623099999999999,19.167200000000001
211032.0,126.437,227.02500000000001,244.327,256.077,-6.8214899999999998,1.23824,71.183700000000002
211033.0,126.89700000000001,268.81200000000001,287.12,310.755,-16.764199999999999,4.5301600000000004,67.999200000000002
211034.0,122.767,131.80699999999999,197.69399999999999,121.89700000000001,-3.8091400000000002,17.508199999999999,54.822000000000003
211035.0,126.45999999999999,7.55959,-21.943100000000001,54.023899999999998,-58.046100000000003,-15.2324,-16.206399999999999
211036.0,91.035300000000007,-103.19,-20.417899999999999,-113.684,-8.7691800000000004,5.1466000000000003,7.0080600000000004
211037.0,69.716700000000003,-1122.3099999999999,-1051.8900000000001,-1114.47,-3.0984400000000001,4.9154400000000003,9.8477399999999999
211038.0,64.458799999999997,-104.65300000000001,-34.964700000000001,-88.995500000000007,2.1109200000000001,5.0116800000000001,4.3122999999999996
211039.0,70.006,-412.70499999999998,-342.697,-393.05599999999998,14.347200000000001,4.1404899999999998,10.332100000000001
211040.0,87.107200000000006,-935.64200000000005,-871.33000000000004,-905.41300000000001,15.1204,2.9117500000000001,35.452399999999997
211041.0,134.76499999999999,-1298.0599999999999,-1252.1900000000001,-1256.0899999999999,10.2807,5.2624199999999997,72.620199999999997
211042.0,195.17699999999999,-1838.9300000000001,-1821.3800000000001,-1775.9100000000001,-4.0450299999999997,-0.625834,107.813
211043.0,179.34999999999999,-4305.9300000000003,-4293.54,-4244.4899999999998,-8.0965199999999999,-1.82189,97.966300000000004
211044.0,160.18799999999999,-4736.6199999999999,-4724.3299999999999,-4677.1199999999999,-10.6394,0.60027900000000001,86.331900000000005
211045.0,139.22200000000001,-4400.2700000000004,-4382.1999999999998,-4343.5100000000002,-6.1800899999999999,7.0478399999999999,74.379599999999996
211046.0,121.148,-5091.6499999999996,-5064.0500000000002,-5041.6999999999998,-0.67754300000000001,10.292899999999999,64.497600000000006
211047.0,91.242500000000007,-5094.5,-5065.8699999999999,-5054.6700000000001,5.3647600000000004,7.2809299999999997,47.657800000000002
211048.0,64.683000000000007,-3744.04,-3698.2199999999998,-3755.5,7.5033200000000004,18.934799999999999,7.8228999999999997
211049.0,85.058499999999995,-2873.6500000000001,-2815.8899999999999,-2895.8200000000002,1.3941399999999999,21.7394,15.311999999999999
211050.0,92.9178,-2037.3599999999999,-1981.55,-2040.6099999999999,-12.0082,16.9404,36.665399999999998
211051.0,106.529,-1619.1099999999999,-1574.97,-1592.3499999999999,-21.6448,10.0471,52.142899999999997
211052.0,105.084,-1744.29,-1713.0,-1697.46,-21.061599999999999,3.8634900000000001,51.511200000000002
211053.0,67.100499999999997,-1939.0,-1914.49,-1901.8499999999999,-8.6102600000000002,1.4159900000000001,32.679200000000002
211054.0,63.952500000000001,-1476.74,-1442.5899999999999,-1494.97,18.941600000000001,2.6278199999999998,17.048300000000001
211055.0,83.005899999999997,-826.29499999999996,-787.505,-844.59699999999998,16.919,2.9485899999999998,33.939300000000003
211056.0,134.81899999999999,-330.44799999999998,-302.16000000000003,-310.61399999999998,-3.8642799999999999,7.2508100000000004,76.028499999999994
211057.0,126.759,-338.47500000000002,-318.49700000000001,-298.524,-15.1149,9.6148600000000002,68.088099999999997
211058.0,56.427999999999997,-353.85300000000001,-332.44600000000003,-334.459,-8.1593999999999998,8.2275100000000005,28.059999999999999
211059.0,136.643,1732.8499999999999,1838.8299999999999,1747.1700000000001,29.315799999999999,-0.305614,45.364400000000003
211060.0,87.106700000000004,341.77600000000001,410.512,319.375,5.8575299999999997,4.8797600000000001,14.686199999999999
211061.0,212.52699999999999,3347.8000000000002,3353.9200000000001,3409.6999999999998,8.4173299999999998,8.0099999999999998,117.292
211062.0,60.1297,4449.5500000000002,4486.0600000000004,4450.8100000000004,14.3422,20.391100000000002,12.412800000000001
211063.0,89.108599999999996,2663.7199999999998,2679.1900000000001,2691.6199999999999,22.440100000000001,16.950500000000002,40.749699999999997
211064.0,79.128600000000006,1813.0899999999999,1829.1400000000001,1791.79,21.339600000000001,18.057300000000001,30.898
211065.0,84.958299999999994,2843.6999999999998,2858.5500000000002,2839.79,21.517499999999998,33.838299999999997,26.456700000000001
211066.0,162.68000000000001,3491.2600000000002,3491.9400000000001,3538.8600000000001,2.81602,1.2638,89.819999999999993
211067.0,55.2727,-530.24199999999996,-477.02600000000001,-521.65300000000002,2.8380100000000001,10.0707,9.6269799999999996
211068.0,64.900700000000001,-412.28100000000001,-364.78800000000001,-423.85700000000003,0.19511500000000001,10.6967,17.6006
211069.0,59.9069,758.55999999999995,811.76900000000001,783.68100000000004,7.5983200000000002,14.0001,15.2973
211070.0,79.598699999999994,-697.93399999999997,-654.81600000000003,-662.41700000000003,10.7393,10.984299999999999,36.691400000000002
211071.0,119.946,879.14099999999996,907.02099999999996,928.98199999999997,13.482200000000001,7.7820600000000004,62.685099999999998
211072.0,179.405,716.56899999999996,731.83399999999995,777.779,11.832100000000001,8.16737,97.503200000000007
211073.0,204.74799999999999,-1738.9000000000001,-1723.1400000000001,-1682.0599999999999,14.496499999999999,11.638,112.992
211074.0,192.36500000000001,3826.7199999999998,3828.3299999999999,3879.7399999999998,7.54467,3.9693299999999998,106.54900000000001
211075.0,140.059,5216.3000000000002,5221.6800000000003,5260.8699999999999,-2.2681100000000001,2.22342,77.051500000000004
211076.0,121.26000000000001,5123.0500000000002,5139.04,5164.29,-6.3011699999999999,5.80931,66.2988
211077.0,111.952,5070.3299999999999,5092.54,5110.3699999999999,-5.3037799999999997,11.0739,60.205399999999997
211078.0,77.274100000000004,4932.9399999999996,4960.4300000000003,4956.4799999999996,4.90205,14.843500000000001,39.052300000000002
211079.0,40.331899999999997,-4714.8699999999999,-4691.1899999999996,-4698.9099999999999,5.5697599999999996,8.1128699999999991,17.3093
211080.0,75.290000000000006,3641.7399999999998,3677.2399999999998,3629.0999999999999,20.1465,28.278199999999998,7.8290699999999998
211081.0,115.342,2599.3800000000001,2593.71,2625.7399999999998,17.646999999999998,35.069299999999998,51.002600000000001
211082.0,146.58199999999999,2598.6999999999998,2583.0500000000002,2655.9400000000001,11.950200000000001,30.344200000000001,68.016999999999996
211083.0,139.28200000000001,2745.6700000000001,2736.4000000000001,2812.77,10.273099999999999,22.836300000000001,64.0518
211084.0,105.70099999999999,2845.1700000000001,2852.0500000000002,2896.46,15.7348,17.9754,48.770600000000002
211085.0,93.980500000000006,-2829.02,-2825.02,-2784.5300000000002,24.017299999999999,18.834099999999999,37.505499999999998
211086.0,84.745800000000003,2279.0500000000002,2295.1500000000001,2277.75,28.801500000000001,18.334299999999999,33.679499999999997
211087.0,79.887100000000004,1271.8199999999999,1292.76,1250.96,1.9874000000000001,23.104500000000002,33.951500000000003
211088.0,84.699600000000004,724.41700000000003,747.69299999999998,710.81100000000004,-15.065,26.5303,33.356400000000001
211089.0,122.319,232.91300000000001,276.93900000000002,199.08699999999999,-9.6477799999999991,37.543100000000003,44.281599999999997
211090.0,103.273,17.504200000000001,-6.23583,57.765700000000002,-47.536299999999997,-12.062099999999999,-10.1554
211091.0,84.765600000000006,52.872999999999998,128.149,39.976700000000001,2.5729000000000002,7.0859800000000002,8.38809
211092.0,63.869900000000001,931.91600000000005,995.73500000000001,934.84199999999998,2.4800399999999998,4.4520499999999998,5.9641400000000004
211093.0,60.751800000000003,-170.16800000000001,-107.86,-157.72200000000001,5.1382000000000003,6.8471799999999998,8.3499499999999998
211094.0,70.945099999999996,144.79400000000001,200.86799999999999,163.10499999999999,13.6738,9.0587499999999999,24.3124
211095.0,96.684399999999997,369.93799999999999,412.27999999999997,397.41300000000001,18.0778,7.75617,47.618499999999997
211096.0,157.26300000000001,-238.38900000000001,-207.37200000000001,-195.96299999999999,20.121600000000001,11.280900000000001,85.027500000000003
211097.0,200.339,-3803.7600000000002,-3802.7399999999998,-3741.9400000000001,10.260199999999999,7.1170600000000004,109.405
211098.0,170.23500000000001,-3165.8600000000001,-3167.5900000000001,-3109.9299999999998,5.74559,4.5866699999999998,92.358099999999993
211099.0,146.238,-4030.1199999999999,-4030.5799999999999,-3978.8600000000001,-1.6668700000000001,4.0888299999999997,78.899600000000007
211100.0,128.13399999999999,-5250.46,-5245.1999999999998,-5202.9700000000003,-7.80084,4.7783699999999998,68.639099999999999
211101.0,114.01900000000001,-4996.2399999999998,-4984.2200000000003,-4955.3699999999999,-7.7160900000000003,7.6446500000000004,61.435400000000001
211102.0,80.089399999999998,-4910.9700000000003,-4895.8999999999996,-4877.1800000000003,-2.4393199999999999,6.7780199999999997,42.421700000000001
211103.0,57.945900000000002,-4073.1500000000001,-4041.1399999999999,-4075.9200000000001,15.9665,18.3569,12.4024
211104.0,88.819000000000003,-3154.27,-3122.1100000000001,-3165.2600000000002,20.782900000000001,28.548500000000001,29.660499999999999
211105.0,114.873,-2606.3899999999999,-2583.1399999999999,-2600.8099999999999,17.240500000000001,32.434899999999999,53.8705
211106.0,140.06299999999999,-2494.1100000000001,-2481.71,-2455.4099999999999,11.8766,30.901900000000001,71.082300000000004
211107.0,137.09700000000001,-2578.8600000000001,-2574.2800000000002,-2516.46,10.2479,23.747399999999999,66.232500000000002
211108.0,112.255,-2781.9499999999998,-2778.9499999999998,-2718.5,16.212499999999999,18.616099999999999,48.059199999999997
211109.0,78.555499999999995,-2559.98,-2559.0,-2544.9400000000001,28.841799999999999,19.558800000000002,27.7806
211110.0,71.242000000000004,-2135.23,-2136.1199999999999,-2145.96,23.648,23.473199999999999,23.369599999999998
211111.0,74.765500000000003,-1623.6500000000001,-1621.9400000000001,-1640.6600000000001,7.68032,31.812799999999999,26.174900000000001
211112.0,87.931299999999993,-1065.8499999999999,-1054.95,-1078.6400000000001,-9.0499500000000008,40.761800000000001,26.328299999999999
211113.0,84.560000000000002,-549.17499999999995,-537.87199999999996,-565.19799999999998,-11.863899999999999,39.097200000000001,22.925699999999999
211114.0,128.256,-1796.8399999999999,-1686.8,-1779.0,25.355699999999999,4.3954300000000002,36.514400000000002
211115.0,84.433199999999999,-414.46100000000001,-348.62400000000002,-436.161,9.6837300000000006,5.8101500000000001,13.068899999999999
211116.0,227.381,2628.6599999999999,2627.6900000000001,2693.6700000000001,16.057500000000001,15.599,123.705
211117.0,74.943600000000004,4877.9099999999999,4862.5900000000001,4902.6800000000003,14.248699999999999,23.916799999999999,26.228899999999999
211118.0,86.476100000000002,4614.1499999999996,4623.1199999999999,4637.1300000000001,24.027699999999999,28.014399999999998,31.566500000000001
211119.0,106.554,2958.7600000000002,2992.6999999999998,2903.5599999999999,11.776300000000001,39.973300000000002,-4.8855000000000004
211120.0,134.31299999999999,4601.9499999999998,4578.0,4641.9700000000003,27.147200000000002,36.640900000000002,53.752099999999999
211121.0,142.27600000000001,5660.8299999999999,5643.1800000000003,5691.5900000000001,11.5427,9.31175,76.989500000000007
211122.0,53.278199999999998,586.38599999999997,626.50699999999995,593.28800000000001,11.242800000000001,13.8659,12.9376
211123.0,62.573900000000002,463.40199999999999,505.791,451.89999999999998,5.2383199999999999,14.727399999999999,15.977
211124.0,75.837100000000007,-514.63900000000001,-478.06200000000001,-491.62799999999999,23.116199999999999,15.769,28.145600000000002
211125.0,114.98399999999999,1557.4300000000001,1588.3699999999999,1595.1600000000001,26.1341,17.812100000000001,54.793100000000003
211126.0,150.255,1046.74,1066.45,1099.4300000000001,23.894500000000001,14.0251,77.776899999999998
211127.0,202.24199999999999,2968.8400000000001,2978.0700000000002,3033.8000000000002,20.745200000000001,14.296900000000001,108.46299999999999
211128.0,220.983,-2635.04,-2630.1799999999998,-2575.7800000000002,20.1477,17.2834,120.377
211129.0,190.875,4113.7399999999998,4103.7600000000002,4161.5100000000002,14.287599999999999,12.8901,104.026
211130.0,114.583,4585.4700000000003,4564.1599999999999,4608.8800000000001,7.2052300000000002,8.9694699999999994,61.187100000000001
211131.0,103.256,5006.5600000000004,4987.5600000000004,5034.1000000000004,0.32192700000000002,10.796799999999999,53.755800000000001
211132.0,105.509,5197.46,5178.8500000000004,5230.6099999999997,-2.7858499999999999,15.391500000000001,52.713200000000001
211133.0,92.373000000000005,5162.3000000000002,5143.5100000000002,5192.75,3.3694099999999998,21.2896,41.9771
211134.0,67.1721,-4921.0699999999997,-4938.3400000000001,-4894.8400000000001,6.72804,13.992900000000001,27.9849
211135.0,87.314899999999994,4618.4099999999999,4604.0100000000002,4643.5900000000001,23.014500000000002,28.8566,27.8855
211136.0,186.64400000000001,4603.8699999999999,4569.1499999999996,4667.7200000000003,28.734200000000001,39.999899999999997,81.772900000000007
211137.0,202.755,4889.6700000000001,4856.3100000000004,4972.3699999999999,26.898299999999999,41.5379,87.657200000000003
211138.0,176.624,5110.0,5088.3500000000004,5191.6800000000003,24.259699999999999,38.6907,73.100800000000007
211139.0,127.98699999999999,4990.9399999999996,4985.7700000000004,5049.04,24.433499999999999,31.623899999999999,51.275799999999997
211140.0,104.125,-4862.8199999999997,-4875.8800000000001,-4818.5699999999997,27.838699999999999,37.041899999999998,23.766300000000001
211141.0,76.293499999999995,3959.6599999999999,3981.8099999999999,3939.5799999999999,19.155000000000001,31.578800000000001,11.4017
211142.0,124.113,1844.6099999999999,1881.0699999999999,1774.8299999999999,4.7659399999999996,46.517899999999997,-5.8239000000000001
211143.0,109.187,882.87,902.476,825.04300000000001,-5.50528,45.543300000000002,15.771599999999999
211144.0,114.333,215.75200000000001,206.50299999999999,170.30600000000001,-6.8833099999999998,39.242899999999999,46.830500000000001
211145.0,73.936700000000002,19.1416,-6.3125,50.713099999999997,-30.508800000000001,-6.4825699999999999,-5.7709700000000002
211146.0,84.159999999999997,-77.290499999999994,-5.0345000000000004,-92.353700000000003,8.7400000000000002,5.6372299999999997,8.6057000000000006
211147.0,61.299300000000002,-976.34500000000003,-919.13699999999994,-974.649,8.9650700000000008,8.9386299999999999,5.7227499999999996
211148.0,62.766500000000001,29.898399999999999,77.5852,37.484200000000001,17.328099999999999,10.2582,15.8462
211149.0,95.726600000000005,-663.53300000000002,-623.96699999999998,-646.90200000000004,27.4983,15.2746,40.870199999999997
211150.0,126.917,-1632.8399999999999,-1608.4100000000001,-1603.9000000000001,29.242899999999999,15.276899999999999,63.5486
211151.0,179.12200000000001,-2167.52,-2149.1599999999999,-2123.5900000000001,25.915500000000002,15.4815,96.420599999999993
211152.0,206.435,-2851.2399999999998,-2863.04,-2788.0700000000002,14.4114,14.138299999999999,110.33
211153.0,158.62100000000001,-5103.46,-5121.4300000000003,-5055.4399999999996,12.551,10.843,83.354399999999998
211154.0,123.565,-5101.6899999999996,-5117.1700000000001,-5067.29,9.7228399999999997,9.9297799999999992,65.148499999999999
211155.0,105.65300000000001,-4347.0600000000004,-4357.6599999999999,-4316.6000000000004,4.3911899999999999,10.728199999999999,55.964799999999997
211156.0,105.547,-4886.5299999999997,-4896.8299999999999,-4853.3100000000004,0.24463799999999999,13.1113,54.9923
211157.0,92.212999999999994,-5059.4300000000003,-5074.6300000000001,-5025.6700000000001,-0.91165099999999999,13.258100000000001,45.053800000000003
211158.0,75.522000000000006,-4602.1700000000001,-4620.2299999999996,-4581.1700000000001,17.6693,19.425899999999999,28.798200000000001
211159.0,122.10899999999999,-4494.6300000000001,-4518.1300000000001,-4468.5200000000004,24.3583,30.531500000000001,53.186300000000003
211160.0,170.708,-4476.0,-4506.1999999999998,-4432.5,25.009699999999999,36.994399999999999,79.669499999999999
211161.0,187.89500000000001,-4626.0799999999999,-4657.1599999999999,-4560.04,22.131699999999999,37.690800000000003,86.013400000000004
211162.0,173.12,-4994.0,-5021.7299999999996,-4915.5500000000002,21.7973,39.7087,70.037599999999998
211163.0,138.71100000000001,-5103.5799999999999,-5125.46,-5034.0600000000004,25.0867,38.332700000000003,45.135199999999998
211164.0,82.213399999999993,-4388.29,-4391.2299999999996,-4378.8000000000002,24.605,40.010899999999999,2.14289
211165.0,98.120099999999994,-3573.8499999999999,-3562.77,-3603.1199999999999,17.4527,47.568100000000001,-14.400499999999999
211166.0,119.66800000000001,-2490.98,-2466.4299999999998,-2545.25,8.9845500000000005,53.9803,-12.3347
211167.0,119.988,-1416.4100000000001,-1391.8499999999999,-1470.73,-1.8639300000000001,53.680900000000001,16.867599999999999
211168.0,124.72499999999999,-561.25900000000001,-559.94100000000003,-604.46100000000001,-5.2935499999999998,43.490000000000002,51.228299999999997
211169.0,124.69,1615.49,1733.5,1635.22,14.996,4.1596599999999997,30.732800000000001
211170.0,84.012600000000006,345.39100000000002,411.60199999999998,327.49200000000002,10.7576,12.332599999999999,11.035299999999999
211171.0,230.84999999999999,4445.9899999999998,4440.3599999999997,4513.6000000000004,13.5336,20.577500000000001,124.48399999999999
211172.0,147.23699999999999,5967.29,5891.6999999999998,6014.1400000000003,19.453600000000002,32.191400000000002,44.663800000000002
211173.0,71.831599999999995,5624.75,5663.79,5592.6400000000003,-9.9796499999999995,18.710999999999999,0.73249699999999995
211174.0,167.55000000000001,2694.79,2768.6300000000001,2589.71,-21.380199999999999,9.3853100000000005,-26.9847
211175.0,184.18700000000001,6362.96,6286.0,6422.2399999999998,28.381900000000002,35.388399999999997,67.7072
211176.0,147.24299999999999,4431.7200000000003,4404.2399999999998,4465.9499999999998,11.4444,18.983899999999998,76.022900000000007
211177.0,63.8489,-446.77699999999999,-413.23000000000002,-440.18700000000001,19.065100000000001,16.366399999999999,20.288699999999999
211178.0,66.246799999999993,-485.65899999999999,-447.95299999999997,-496.50400000000002,13.543900000000001,16.010400000000001,19.331199999999999
211179.0,87.616299999999995,979.91499999999996,1017.34,1004.38,26.025700000000001,14.9415,36.015099999999997
211180.0,132.941,-259.75999999999999,-221.309,-213.059,27.661300000000001,17.624600000000001,64.762
211181.0,172.93799999999999,1682.01,1702.4200000000001,1741.03,24.404299999999999,17.5458,90.372600000000006
211182.0,216.52799999999999,1743.3499999999999,1749.02,1810.71,19.105,17.927299999999999,116.38800000000001
211183.0,225.315,-2780.8099999999999,-2780.77,-2718.04,15.6296,19.575199999999999,122.402
211184.0,192.624,4921.8400000000001,4904.8800000000001,4973.4899999999998,10.9178,20.513999999999999,102.718
211185.0,124.3,5892.6599999999999,5854.1499999999996,5916.5900000000001,11.9297,18.677800000000001,60.553199999999997
211186.0,112.54900000000001,5587.1899999999996,5542.7600000000002,5609.8599999999997,11.7636,18.754999999999999,50.668900000000001
211187.0,121.642,5511.75,5459.0299999999997,5542.75,10.5085,22.0517,50.434600000000003
211188.0,134.05699999999999,5694.9700000000003,5630.6800000000003,5735.2799999999997,12.9169,27.861000000000001,47.5809
211189.0,132.20400000000001,-5549.5600000000004,-5612.9099999999999,-5509.1800000000003,17.084599999999998,27.5854,45.160499999999999
211190.0,158.08799999999999,6159.0799999999999,6078.7299999999996,6209.8999999999996,25.696300000000001,32.903199999999998,47.049399999999999
211191.0,218.19499999999999,6909.5600000000004,6841.5200000000004,6982.6700000000001,26.918800000000001,40.928100000000001,92.126499999999993
211192.0,194.30799999999999,7128.0699999999997,7083.3699999999999,7201.2399999999998,20.226199999999999,40.250599999999999,83.758799999999994
211193.0,138.60300000000001,6993.1000000000004,6975.9799999999996,7050.1800000000003,7.8321800000000001,34.406300000000002,60.4054
211194.0,72.758099999999999,6564.1599999999999,6574.7299999999996,6583.2399999999998,-3.6252399999999998,25.726299999999998,31.593900000000001
211195.0,48.183300000000003,-6208.0699999999997,-6200.7200000000003,-6211.2299999999996,-6.15116,25.084399999999999,-8.8190600000000003
211196.0,137.46100000000001,4226.8900000000003,4293.25,4148.3199999999997,-17.0002,13.3879,-23.809799999999999
211197.0,144.07300000000001,1314.8,1368.6199999999999,1212.6500000000001,-24.043800000000001,7.9064199999999998,-1.3742099999999999
211198.0,114.43899999999999,365.95400000000001,377.55900000000003,295.62,-26.4846,7.5742500000000001,40.505699999999997
211199.0,154.44200000000001,4.6019300000000003,-49.347999999999999,-15.744999999999999,-26.883299999999998,2.5712700000000002,80.493300000000005
211200.0,65.624499999999998,39.976300000000002,3.5955400000000002,64.829599999999999,-21.476500000000001,-3.3342800000000001,-3.83297
211201.0,82.951300000000003,106.145,172.29300000000001,89.791300000000007,15.3871,8.6229800000000001,8.6167599999999993
211202.0,63.922600000000003,934.76099999999997,983.31799999999998,933.59400000000005,17.1265,11.022600000000001,11.914300000000001
211203.0,72.873199999999997,-320.83199999999999,-283.78899999999999,-314.99400000000003,25.2483,13.576000000000001,23.488700000000001
211204.0,109.23,-115.29000000000001,-70.593900000000005,-94.106099999999998,29.885300000000001,15.769500000000001,48.325800000000001
211205.0,151.233,-201.328,-171.994,-164.739,31.753699999999998,18.357199999999999,76.832400000000007
211206.0,196.99700000000001,-1156.5,-1144.72,-1108.0699999999999,25.221900000000002,19.0686,106.294
211207.0,206.815,-4869.5799999999999,-4887.7700000000004,-4804.6199999999999,9.3775499999999994,18.458100000000002,109.17
211208.0,161.48699999999999,-4132.9799999999996,-4159.4300000000003,-4083.27,9.2713800000000006,15.855399999999999,82.825500000000005
211209.0,128.92699999999999,-4720.5900000000001,-4749.8500000000004,-4686.8900000000003,10.6777,14.9566,64.8874
211210.0,111.392,-5634.8599999999997,-5667.5699999999997,-5608.04,12.6358,16.636099999999999,53.014499999999998
211211.0,112.758,-5189.8800000000001,-5225.3500000000004,-5161.9700000000003,13.1861,20.6708,51.264699999999998
211212.0,119.76300000000001,-5215.5799999999999,-5262.8999999999996,-5181.1599999999999,13.048999999999999,24.1145,48.4255
211213.0,151.26900000000001,-5810.8999999999996,-5889.7299999999996,-5766.0900000000001,24.5444,30.7227,46.505800000000001
211214.0,186.16200000000001,-5914.5200000000004,-6002.2799999999997,-5861.8500000000004,30.011800000000001,36.8371,65.284099999999995
211215.0,217.37,-6381.8100000000004,-6463.8599999999997,-6316.3299999999999,26.6464,41.9499,88.407899999999998
211216.0,194.88200000000001,-6951.7299999999996,-7013.6700000000001,-6879.9200000000001,17.363900000000001,39.864100000000001,79.302199999999999
211217.0,146.286,-7025.1199999999999,-7063.3800000000001,-6960.9499999999998,7.5566300000000002,36.801400000000001,55.161700000000003
211218.0,86.5916,-6803.4899999999998,-6821.6199999999999,-6763.8199999999997,-0.321766,32.352600000000002,24.0579
211219.0,104.03700000000001,-5053.9499999999998,-5012.8000000000002,-5103.5,-12.5585,18.370699999999999,-32.406799999999997
211220.0,144.65199999999999,-3567.48,-3503.1100000000001,-3651.3499999999999,-17.389199999999999,13.5116,-31.060700000000001
211221.0,141.58099999999999,-2068.3899999999999,-2004.98,-2159.9000000000001,-23.261600000000001,8.4431499999999993,1.80758
211222.0,142.04900000000001,-853.03399999999999,-815.52700000000004,-926.149,-28.177499999999998,5.4285399999999999,52.321399999999997
211223.0,187.298,-149.25899999999999,-162.12100000000001,-186.29400000000001,-27.339700000000001,4.7635800000000001,102.809
211224.0,122.86499999999999,-1806.21,-1684.3,-1787.6500000000001,2.1492,2.4953400000000001,26.567499999999999
211225.0,91.756,-413.995,-342.20600000000002,-424.52800000000002,13.194800000000001,21.363199999999999,12.9993
211226.0,230.238,3533.71,3512.3200000000002,3598.29,10.4377,26.8628,121.803
211227.0,187.12200000000001,7125.6300000000001,7026.1000000000004,7194.9300000000003,12.003299999999999,32.327100000000002,57.277099999999997
211228.0,118.46599999999999,5168.8000000000002,5214.1599999999999,5089.4799999999996,-14.635400000000001,13.168799999999999,-17.553799999999999
211229.0,170.203,1878.8199999999999,1943.53,1754.9200000000001,-2.6472899999999999,3.2862100000000001,-21.2928
211230.0,183.006,8238.9699999999993,8144.9200000000001,8296.9300000000003,7.6054399999999998,24.689699999999998,67.904799999999994
211231.0,180.64500000000001,6727.7799999999997,6685.5100000000002,6777.2600000000002,12.7203,27.916699999999999,88.472200000000001
211232.0,78.820499999999996,748.20100000000002,777.81899999999996,755.69799999999998,29.7974,16.227799999999998,26.125499999999999
211233.0,77.350899999999996,504.41800000000001,539.04300000000001,491.50599999999997,22.916799999999999,17.440200000000001,23.6815
211234.0,96.005799999999994,-170.62799999999999,-141.964,-149.09999999999999,27.761099999999999,16.0672,42.671700000000001
211235.0,131.79499999999999,2019.53,2044.1900000000001,2059.6900000000001,22.664999999999999,18.108699999999999,67.365600000000001
211236.0,180.53100000000001,1680.52,1691.74,1738.5,21.308599999999998,20.0548,95.193799999999996
211237.0,226.94200000000001,3824.2600000000002,3817.5900000000001,3890.3200000000002,15.161199999999999,22.485299999999999,121.71899999999999
211238.0,226.13200000000001,-3513.1900000000001,-3525.9099999999999,-3450.0100000000002,10.4254,23.0534,121.462
211239.0,204.93700000000001,5004.7799999999997,4972.8299999999999,5062.9799999999996,10.0892,27.914999999999999,105.02200000000001
211240.0,163.17400000000001,5945.5,5893.8999999999996,5987.1599999999999,15.5954,28.360099999999999,75.1357
211241.0,142.42699999999999,6556.8199999999997,6498.3999999999996,6589.8900000000003,17.417400000000001,27.2578,59.741199999999999
211242.0,144.66,6770.7600000000002,6700.0900000000001,6808.2700000000004,16.056100000000001,28.502800000000001,53.739100000000001
211243.0,161.87100000000001,6872.2299999999996,6786.9399999999996,6924.0799999999999,13.8987,29.972899999999999,53.358800000000002
211244.0,165.51400000000001,-6541.0500000000002,-6622.9899999999998,-6486.7200000000003,15.0299,31.496400000000001,56.639899999999997
211245.0,195.52600000000001,7656.5200000000004,7553.1800000000003,7729.5299999999997,10.2948,30.0791,62.297899999999998
211246.0,171.94399999999999,8338.4300000000003,8261.8899999999994,8380.6399999999994,6.7236700000000003,28.015699999999999,73.492000000000004
211247.0,140.06200000000001,8208.6299999999992,8161.2700000000004,8238.8600000000006,2.2043599999999999,30.863199999999999,63.658000000000001
211248.0,79.039000000000001,7657.6099999999997,7647.0,7664.0200000000004,-9.0766399999999994,26.872699999999998,34.699100000000001
211249.0,68.231300000000005,6585.1899999999996,6608.25,6550.5900000000001,-16.7193,20.507000000000001,3.1137899999999998
211250.0,85.509299999999996,-5979.0200000000004,-5950.5100000000002,-6026.8500000000004,-14.149100000000001,15.196,-22.7576
211251.0,163.93100000000001,3521.1300000000001,3584.75,3408.1100000000001,-6.0033500000000002,5.5936500000000002,-29.776700000000002
211252.0,129.071,663.245,699.15999999999997,560.34199999999998,-7.3191600000000001,8.9410000000000007,15.1022
211253.0,132.358,6.4155199999999999,-13.220599999999999,-41.639899999999997,-16.756699999999999,13.630000000000001,69.204400000000007
211254.0,203.03399999999999,-86.479100000000003,-159.18799999999999,-73.785600000000002,-27.700700000000001,14.4039,103.163
211255.0,70.812100000000001,22.8812,-26.4773,47.1629,-15.587199999999999,-2.3122199999999999,-3.8759600000000001
211256.0,87.393100000000004,-98.097099999999998,-35.400799999999997,-113.14400000000001,21.7377,13.780099999999999,13.535500000000001
211257.0,70.824200000000005,-1065.5,-1025.0699999999999,-1069.8900000000001,26.388100000000001,11.755100000000001,15.068
211258.0,89.844200000000001,-192.94900000000001,-161.01499999999999,-187.62,33.773000000000003,16.228999999999999,31.527999999999999
211259.0,109.919,-1026.5699999999999,-997.33100000000002,-1009.96,27.315100000000001,17.337499999999999,52.589100000000002
211260.0,153.626,-2069.6900000000001,-2048.46,-2036.8800000000001,27.729099999999999,19.5838,80.235600000000005
211261.0,207.77500000000001,-2833.0,-2827.8600000000001,-2784.25,23.207899999999999,22.893000000000001,112.294
211262.0,209.05199999999999,-3696.9400000000001,-3725.8000000000002,-3633.1100000000001,7.8673900000000003,24.023700000000002,108.068
211263.0,184.38399999999999,-6003.4799999999996,-6042.6199999999999,-5947.2299999999996,8.9579500000000003,23.048999999999999,91.772499999999994
211264.0,163.923,-6303.54,-6351.9799999999996,-6256.79,11.3582,22.732299999999999,77.753200000000007
211265.0,144.108,-5835.0,-5891.8500000000004,-5796.2600000000002,14.413399999999999,23.4129,62.0837
211266.0,133.61500000000001,-6423.3599999999997,-6483.3900000000003,-6391.5100000000002,16.166799999999999,25.742000000000001,53.386499999999998
211267.0,142.55600000000001,-6506.0100000000002,-6574.8000000000002,-6467.5699999999997,16.571899999999999,29.150600000000001,51.9465
211268.0,193.44,-6868.2700000000004,-6967.2399999999998,-6797.46,13.9847,33.123100000000001,62.514000000000003
211269.0,204.91,-7548.1899999999996,-7655.7799999999997,-7475.4700000000003,12.93,32.014499999999998,67.634900000000002
211270.0,192.88,-8031.3100000000004,-8126.2600000000002,-7970.7200000000003,8.2864000000000004,31.454899999999999,72.083299999999994
211271.0,151.5,-8143.8500000000004,-8203.3400000000001,-8096.5699999999997,-0.62262799999999996,30.936499999999999,61.8949
211272.0,87.751300000000001,-7951.3299999999999,-7972.6800000000003,-7922.25,-10.383699999999999,26.5565,33.361499999999999
211273.0,47.370100000000001,-7197.4899999999998,-7191.4300000000003,-7201.25,-15.481999999999999,21.992999999999999,-0.22799900000000001
211274.0,138.81999999999999,-4499.5799999999999,-4448.7700000000004,-4589.9099999999999,-7.7962400000000001,4.7368499999999996,-35.076500000000003
211275.0,156.94,-2806.3200000000002,-2744.7800000000002,-2917.5500000000002,-3.4742999999999999,1.37165,-22.973199999999999
211276.0,136.62299999999999,-1310.99,-1268.23,-1415.8499999999999,-7.5249800000000002,7.4442399999999997,18.4453
211277.0,159.00399999999999,-345.51900000000001,-347.06099999999998,-415.08199999999999,-16.837800000000001,15.835800000000001,79.467799999999997
211278.0,218.28,83.116299999999995,31.313500000000001,61.936100000000003,-24.963899999999999,18.676500000000001,119.297
211279.0,117.643,1674.05,1789.5799999999999,1687.1800000000001,-2.9865400000000002,7.4871600000000003,23.409400000000002
211280.0,98.633600000000001,351.334,428.32100000000003,345.83999999999997,15.282400000000001,23.194199999999999,18.563800000000001
211281.0,236.21899999999999,5115.2700000000004,5076.0299999999997,5178.8500000000004,11.085800000000001,32.5931,121.337
211282.0,201.11000000000001,8457.9500000000007,8355.1100000000006,8538.5,1.0032799999999999,29.690799999999999,64.415700000000001
211283.0,106.931,5344.0,5376.9700000000003,5266.4099999999999,4.1832200000000004,18.816099999999999,-14.772600000000001
211284.0,161.411,2335.0700000000002,2375.1500000000001,2207.3200000000002,25.461600000000001,13.9907,-12.5815
211285.0,172.64599999999999,9231.1599999999999,9144.1599999999999,9290.4699999999993,-10.0838,23.360399999999998,62.228200000000001
211286.0,211.703,5532.25,5476.3699999999999,5593.5799999999999,13.43,33.850900000000003,100.876
211287.0,90.987499999999997,-253.779,-216.58199999999999,-242.54599999999999,34.714300000000001,16.3108,30.405000000000001
211288.0,92.145399999999995,-267.33999999999997,-226.221,-276.75599999999997,27.654800000000002,21.896000000000001,29.390999999999998
211289.0,107.366,1289.8599999999999,1315.55,1311.4200000000001,34.950800000000001,17.362500000000001,46.143599999999999
211290.0,135.82300000000001,202.571,210.16200000000001,234.83000000000001,26.638100000000001,20.622800000000002,68.774600000000007
211291.0,183.72999999999999,2170.9299999999998,2164.4299999999998,2221.0100000000002,20.415600000000001,23.127400000000002,96.654200000000003
211292.0,233.57300000000001,2354.3800000000001,2329.5999999999999,2415.9099999999999,15.1937,28.787199999999999,123.09
211293.0,228.50200000000001,-3390.6599999999999,-3420.3499999999999,-3330.6399999999999,11.8977,28.745000000000001,119.782
211294.0,223.68299999999999,5686.1300000000001,5637.6300000000001,5749.5900000000001,10.748799999999999,33.945999999999998,110.71299999999999
211295.0,192.899,7430.4899999999998,7369.5200000000004,7487.54,14.965400000000001,33.5458,87.008200000000002
211296.0,171.22300000000001,7489.8199999999997,7422.79,7540.8699999999999,15.132199999999999,33.461500000000001,70.118099999999998
211297.0,172.18299999999999,7639.9300000000003,7560.7299999999996,7695.4799999999996,12.771800000000001,34.168399999999998,62.9709
211298.0,185.965,7981.8400000000001,7889.5699999999997,8048.6899999999996,7.6902699999999999,32.943800000000003,63.242699999999999
211299.0,183.959,-7803.0900000000001,-7893.1000000000004,-7735.1499999999996,5.2874299999999996,30.1114,63.780099999999997
211300.0,204.203,8937.1900000000005,8834.3099999999995,9020.1100000000006,-5.07538,27.6081,66.697599999999994
211301.0,128.316,9326.1599999999999,9259.5499999999993,9348.1900000000005,-6.8542899999999998,23.686499999999999,52.444200000000002
211302.0,113.203,8818.6900000000005,8770.3799999999992,8821.9200000000001,-4.01281,31.9389,49.009500000000003
211303.0,73.457999999999998,7913.29,7898.5100000000002,7898.6300000000001,-4.7118599999999997,31.725000000000001,26.414899999999999
211304.0,71.437399999999997,6746.0500000000002,6764.9300000000003,6699.7799999999997,-2.39574,23.862200000000001,-1.6126199999999999
211305.0,84.448700000000002,-6157.8699999999999,-6133.1899999999996,-6211.4399999999996,3.3080400000000001,21.0688,-17.938400000000001
211306.0,137.68700000000001,3850.73,3885.3200000000002,3743.6799999999998,19.124700000000001,16.399799999999999,-15.201700000000001
211307.0,137.11799999999999,938.74800000000005,961.14099999999996,824.08399999999995,17.264199999999999,19.810600000000001,13.075200000000001
211308.0,136.72200000000001,134.30699999999999,108.733,83.639700000000005,-4.33012,31.6706,67.582800000000006
211309.0,186.24199999999999,-35.327199999999998,-89.502200000000002,-25.2166,-22.177700000000002,38.433599999999998,91.641199999999998
211310.0,69.928799999999995,23.569400000000002,-24.313600000000001,50.210900000000002,-13.517899999999999,-1.6005199999999999,-4.3177899999999996
211311.0,92.048400000000001,-61.690199999999997,-1.1255999999999999,-75.508700000000005,24.5307,14.5383,21.1157
211312.0,80.711100000000002,714.73400000000004,753.40200000000004,711.55200000000002,31.823599999999999,15.754899999999999,19.174499999999998
211313.0,99.903400000000005,-470.18400000000003,-431.17500000000001,-460.90699999999998,37.434399999999997,16.3597,35.250900000000001
211314.0,120.84699999999999,-439.17200000000003,-419.16500000000002,-425.464,34.951300000000003,20.2882,55.947499999999998
211315.0,157.66399999999999,-576.78200000000004,-569.98199999999997,-550.68499999999995,28.935199999999998,22.336600000000001,82.258899999999997
211316.0,210.143,-1584.24,-1590.6300000000001,-1540.02,21.162199999999999,25.868400000000001,113.32899999999999
211317.0,220.74700000000001,-5504.6800000000003,-5548.0500000000002,-5440.9799999999996,9.0869800000000005,30.236599999999999,111.113
211318.0,209.94,-4974.0699999999997,-5027.5799999999999,-4911.7700000000004,10.395300000000001,30.136099999999999,101.568
211319.0,193.16499999999999,-6027.21,-6087.21,-5967.04,11.4876,29.378,88.500100000000003
211320.0,171.35599999999999,-7394.6400000000003,-7460.5600000000004,-7340.0299999999997,12.268800000000001,28.814800000000002,71.860299999999995
211321.0,160.43000000000001,-7240.2799999999997,-7311.2399999999998,-7191.7299999999996,13.1495,29.760899999999999,62.511400000000002
211322.0,169.089,-7371.7399999999998,-7451.1999999999998,-7316.5,10.4963,30.672899999999998,62.406399999999998
211323.0,203.37799999999999,-8271.7800000000007,-8371.9099999999999,-8189.1700000000001,-1.68892,29.8874,67.212400000000002
211324.0,200.46299999999999,-8657.9899999999998,-8761.8999999999996,-8576.7600000000002,-7.08331,29.049700000000001,62.365099999999998
211325.0,161.53999999999999,-9038.8999999999996,-9129.75,-8985.25,-7.7728900000000003,26.264800000000001,51.115099999999998
211326.0,122.253,-8998.1900000000005,-9054.2900000000009,-8972.1900000000005,-11.620699999999999,26.5182,48.8172
211327.0,70.762600000000006,-8365.2600000000002,-8381.8199999999997,-8358.0200000000004,-13.803699999999999,25.058900000000001,26.492100000000001
211328.0,49.250900000000001,-7404.0500000000002,-7391.7399999999998,-7422.7399999999998,-7.2812700000000001,22.360399999999998,-3.4661300000000002
211329.0,114.91800000000001,-4695.5,-4670.8999999999996,-4781.21,15.8726,19.031199999999998,-20.848099999999999
211330.0,141.20699999999999,-3207.1500000000001,-3175.6500000000001,-3317.96,22.533100000000001,15.0031,-18.069199999999999
211331.0,140.67099999999999,-1708.24,-1684.8199999999999,-1822.3900000000001,20.5244,23.815999999999999,13.7842
211332.0,169.37700000000001,-514.44799999999998,-529.02599999999995,-590.96100000000001,6.23034,43.414000000000001,77.387500000000003
211333.0,204.476,-32.409700000000001,-76.982600000000005,-57.773800000000001,-11.7509,49.873199999999997,103.979
211334.0,116.383,-1747.53,-1637.9400000000001,-1739.8199999999999,-8.4050399999999996,12.164199999999999,23.556899999999999
211335.0,104.607,-411.62900000000002,-336.846,-417.96199999999999,21.270600000000002,24.953199999999999,23.174499999999998
211336.0,240.874,4066.8099999999999,4009.8099999999999,4127.5500000000002,12.9139,36.500999999999998,119.892
211337.0,210.99100000000001,9461.8400000000001,9364.5499999999993,9549.8099999999995,0.94748600000000005,34.958300000000001,70.910600000000002
211338.0,84.880099999999999,6275.1599999999999,6309.2700000000004,6216.9300000000003,10.1181,9.3986400000000003,-5.5342099999999999
211339.0,141.91999999999999,3301.5999999999999,3344.8499999999999,3192.4099999999999,21.527699999999999,8.5088600000000003,-2.35582
211340.0,169.06800000000001,10151.1,10071.9,10219.299999999999,-8.2506000000000004,29.282499999999999,56.225499999999997
211341.0,233.66999999999999,7721.1800000000003,7651.3100000000004,7787.8299999999999,11.694000000000001,38.882100000000001,109.048
211342.0,93.541399999999996,1068.27,1110.26,1080.1900000000001,29.2759,17.327000000000002,35.930300000000003
211343.0,105.857,671.74199999999996,720.45000000000005,668.98099999999999,32.280099999999997,23.060500000000001,36.376300000000001
211344.0,100.17700000000001,127.76300000000001,155.27600000000001,148.83799999999999,27.148700000000002,17.625900000000001,45.719900000000003
211345.0,136.71700000000001,2329.71,2335.46,2362.9099999999999,24.8733,21.698,69.470299999999995
211346.0,191.535,2109.9899999999998,2088.29,2154.77,20.8643,27.238399999999999,99.507999999999996
211347.0,237.28700000000001,4316.5200000000004,4272.8100000000004,4370.1300000000001,16.620899999999999,33.6937,122.398
211348.0,228.53999999999999,-3942.0700000000002,-3987.29,-3887.75,14.8102,33.337000000000003,116.59999999999999
211349.0,239.797,5704.1499999999996,5638.5500000000002,5769.3900000000003,11.612500000000001,38.913499999999999,115.06
211350.0,209.50999999999999,7219.29,7147.8599999999997,7283.5500000000002,11.0136,38.0227,91.965100000000007
211351.0,193.51300000000001,8073.1000000000004,7998.1099999999997,8139.4899999999998,9.8199299999999994,37.088299999999997,77.509399999999999
211352.0,202.92500000000001,8611.1800000000003,8526.2600000000002,8687.8600000000006,8.6097699999999993,37.665100000000002,75.491600000000005
211353.0,211.917,9063.4500000000007,8970.0599999999995,9147.8899999999994,5.9870799999999997,38.1342,74.617199999999997
211354.0,205.81399999999999,-8926.7299999999996,-9022.1800000000003,-8843.9899999999998,2.3729300000000002,35.160200000000003,70.188999999999993
211355.0,201.441,9846.9200000000001,9751.1200000000008,9933.0100000000002,-4.3402200000000004,32.424500000000002,64.627200000000002
211356.0,122.95099999999999,9897.3400000000001,9835.3199999999997,9927.1599999999999,-2.36653,27.202999999999999,45.806899999999999
211357.0,121.248,9472.3600000000006,9416.9300000000003,9479.9699999999993,3.7294200000000002,33.911099999999998,50.522100000000002
211358.0,99.439300000000003,8783.3700000000008,8751.5300000000007,8777.6100000000006,8.7267499999999991,36.345300000000002,40.138599999999997
211359.0,63.074199999999998,7681.6700000000001,7688.4300000000003,7652.3800000000001,9.2641600000000004,24.510100000000001,16.501200000000001
211360.0,64.628699999999995,-7106.0,-7088.7799999999997,-7148.0200000000004,9.4107500000000002,15.092700000000001,-12.1364
211361.0,113.288,4827.1599999999999,4864.1099999999997,4742.6199999999999,17.8626,8.6447299999999991,-2.3126600000000002
211362.0,134.607,1881.3599999999999,1918.4300000000001,1774.1800000000001,13.3713,5.6802200000000003,14.730700000000001
211363.0,117.43600000000001,799.99900000000002,814.41899999999998,729.78399999999999,-1.68614,13.525399999999999,48.591000000000001
211364.0,134.63999999999999,120.706,106.959,101.407,-15.8986,27.8767,70.100200000000001
211365.0,57.128,13.7407,-27.511700000000001,33.609999999999999,-9.9922500000000003,-0.054068999999999999,-3.9944299999999999
211366.0,96.950900000000004,-196.916,-141.935,-211.75999999999999,29.6873,15.5306,25.641500000000001
211367.0,89.969999999999999,-1339.8,-1299.5899999999999,-1339.8299999999999,32.6053,17.762599999999999,27.929200000000002
211368.0,90.962999999999994,-474.25599999999997,-437.56,-464.76900000000001,28.425699999999999,16.1617,36.4148
211369.0,117.883,-1191.8199999999999,-1168.47,-1178.02,32.015000000000001,20.137,55.351599999999998
211370.0,164.99199999999999,-2289.5700000000002,-2286.8099999999999,-2265.0300000000002,30.046299999999999,25.017199999999999,85.817599999999999
211371.0,214.16399999999999,-3193.27,-3215.8899999999999,-3154.0100000000002,21.558199999999999,30.317399999999999,113.68600000000001
211372.0,231.59700000000001,-4194.8599999999997,-4253.3800000000001,-4133.6499999999996,11.7965,35.665300000000002,113.504
211373.0,230.44499999999999,-6734.5900000000001,-6800.7200000000003,-6668.5,11.1503,36.110199999999999,109.102
211374.0,210.286,-7372.3299999999999,-7440.6000000000004,-7303.5200000000004,8.7303999999999995,33.806600000000003,93.933999999999997
211375.0,188.31299999999999,-7157.8500000000004,-7227.7200000000003,-7092.54,9.1226500000000001,33.209499999999998,77.874799999999993
211376.0,187.48500000000001,-8021.9700000000003,-8096.0799999999999,-7954.9799999999996,9.4545999999999992,33.740099999999998,74.216200000000001
211377.0,199.69,-8526.6499999999996,-8612.1100000000006,-8450.1100000000006,6.4158799999999996,34.728099999999998,74.010199999999998
211378.0,202.70500000000001,-9308.8999999999996,-9407.1900000000005,-9223.1499999999996,-3.9290699999999998,32.816899999999997,64.211799999999997
211379.0,190.69800000000001,-9757.6499999999996,-9853.3199999999997,-9674.7299999999996,-8.5944199999999995,31.894300000000001,55.167299999999997
211380.0,156.624,-9839.7900000000009,-9925.7000000000007,-9779.8299999999999,-6.04291,29.141500000000001,43.767699999999998
211381.0,130.34700000000001,-9550.5,-9617.1399999999994,-9521.4200000000001,-4.8331,28.403099999999998,49.2485
211382.0,92.346699999999998,-9129.0799999999999,-9167.0,-9119.0100000000002,-4.6092899999999997,26.493099999999998,38.460000000000001
211383.0,44.008800000000001,-8323.9899999999998,-8329.6900000000005,-8333.0100000000002,0.011422399999999999,21.987100000000002,11.888299999999999
211384.0,88.841700000000003,-5653.7700000000004,-5631.4300000000003,-5719.8400000000001,16.704599999999999,12.5334,-9.0341400000000007
211385.0,117.395,-4187.5699999999997,-4153.4099999999999,-4277.6000000000004,18.138999999999999,9.1176100000000009,-8.1137200000000007
211386.0,129.32900000000001,-2713.5700000000002,-2678.9099999999999,-2814.9499999999998,16.066199999999998,12.5793,12.700799999999999
211387.0,139.16200000000001,-1412.1800000000001,-1397.1800000000001,-1497.96,9.9433100000000003,25.569600000000001,52.401800000000001
211388.0,166.48500000000001,-525.27200000000005,-527.274,-572.48800000000006,-3.4209800000000001,40.774799999999999,82.775800000000004
211389.0,113.94499999999999,1505.3599999999999,1606.78,1507.4200000000001,-11.119199999999999,11.7667,26.5642
211390.0,114.78,449.65600000000001,526.55499999999995,443.18099999999998,23.642600000000002,30.2026,27.735099999999999
211391.0,244.31100000000001,5567.8599999999997,5498.0799999999999,5625.5,15.1502,40.487200000000001,118.13800000000001
211392.0,211.06200000000001,10186.6,10104.200000000001,10283.1,-0.62658599999999998,37.1434,73.857500000000002
211393.0,73.120400000000004,6993.7399999999998,7032.1300000000001,6952.1700000000001,6.4692299999999996,4.5843299999999996,10.9594
211394.0,128.63399999999999,3896.3699999999999,3948.6700000000001,3808.5599999999999,20.703700000000001,-5.8904100000000001,6.3139099999999999
211395.0,173.16800000000001,10464.5,10401.200000000001,10552.5,-7.0100699999999998,31.588100000000001,56.320799999999998
211396.0,251.96100000000001,6328.04,6244.3599999999997,6397.6599999999999,12.3027,45.168199999999999,114.36
211397.0,99.574100000000001,34.2166,71.590699999999998,43.2393,32.433599999999998,17.6859,39.495899999999999
211398.0,114.735,-164.72800000000001,-110.78,-163.68100000000001,35.107599999999998,22.7683,41.054200000000002
211399.0,100.32299999999999,1629.8499999999999,1647.8099999999999,1645.95,27.576599999999999,20.2315,45.689900000000002
211400.0,139.596,483.18200000000002,481.10599999999999,512.70000000000005,23.677499999999998,25.078499999999998,70.666899999999998
211401.0,198.44499999999999,2540.21,2508.5900000000001,2581.46,22.214400000000001,31.1477,101.627
211402.0,239.69,2814.3699999999999,2758.79,2862.6199999999999,19.358899999999998,37.775700000000001,121.033
211403.0,229.18100000000001,-3743.1799999999998,-3797.27,-3692.7600000000002,18.212599999999998,37.743499999999997,114.104
211404.0,252.52699999999999,6227.7200000000003,6149.5100000000002,6294.6700000000001,13.644600000000001,43.3994,117.93600000000001
211405.0,227.60499999999999,8442.5300000000007,8359.0100000000002,8512.5300000000007,10.8515,43.223700000000001,96.819900000000004
211406.0,214.25299999999999,8709.5699999999997,8626.7999999999993,8785.3600000000006,9.8649299999999993,40.805799999999998,85.144099999999995
211407.0,220.80699999999999,9147.5599999999995,9059.8400000000001,9234.0499999999993,7.5111100000000004,39.990200000000002,83.721699999999998
211408.0,216.63300000000001,9693.4400000000005,9606.9599999999991,9786.2900000000009,3.5428899999999999,38.543900000000001,78.1126
211409.0,209.08699999999999,-9655.7900000000009,-9742.8199999999997,-9564.6900000000005,-0.091702099999999995,37.881799999999998,72.133899999999997
211410.0,198.03100000000001,10451.4,10374.299999999999,10548.5,-4.8230899999999997,34.842599999999997,64.920500000000004
211411.0,133.43000000000001,10477.799999999999,10431.1,10535.0,-4.6261799999999997,27.7258,49.358699999999999
211412.0,121.21599999999999,10049.4,10011.4,10075.6,-2.4091200000000002,30.5822,53.990000000000002
211413.0,115.676,9331.7999999999993,9303.5599999999995,9336.7000000000007,0.80962500000000004,34.4236,54.3568
211414.0,82.175299999999993,8369.0699999999997,8372.6499999999996,8354.2399999999998,2.4665499999999998,26.627500000000001,37.955100000000002
211415.0,44.660800000000002,-7892.7299999999996,-7872.6800000000003,-7919.9700000000003,0.91805199999999998,9.5695499999999996,3.0146799999999998
211416.0,103.839,5421.9099999999999,5468.7299999999996,5356.0699999999997,17.802600000000002,-5.0051300000000003,6.9947100000000004
211417.0,132.50200000000001,2432.6700000000001,2486.1900000000001,2342.5799999999999,12.830299999999999,-6.3919600000000001,19.4801
211418.0,121.58799999999999,1138.6099999999999,1178.6300000000001,1054.9100000000001,7.8984699999999997,-3.85894,29.410799999999998
211419.0,110.867,244.64099999999999,246.49799999999999,193.82900000000001,-0.98898399999999997,4.8402399999999997,56.3874
211420.0,43.240000000000002,60.373199999999997,14.6007,51.357199999999999,-4.13096,0.39587,-4.2546900000000001
211421.0,103.56,-178.46600000000001,-125.59,-193.084,32.964199999999998,19.001799999999999,29.433700000000002
211422.0,96.000900000000001,522.04399999999998,562.35699999999997,523.22699999999998,33.197899999999997,18.0579,33.430300000000003
211423.0,90.302499999999995,-821.46100000000001,-794.505,-815.86300000000006,29.041399999999999,16.814399999999999,37.278599999999997
211424.0,117.571,-671.98900000000003,-655.25599999999997,-661.76700000000005,29.5168,21.584399999999999,56.563099999999999
211425.0,168.22900000000001,-763.96600000000001,-768.06799999999998,-742.38900000000001,28.200500000000002,26.976700000000001,87.865799999999993
211426.0,217.50399999999999,-1912.96,-1945.0799999999999,-1876.4400000000001,24.0627,34.280099999999997,113.294
211427.0,239.06700000000001,-5835.8800000000001,-5900.6499999999996,-5775.1400000000003,15.6168,40.007599999999996,115.18300000000001
211428.0,246.31100000000001,-5488.5,-5562.1099999999997,-5418.5,12.844900000000001,41.965600000000002,114.628
211429.0,227.041,-6855.9499999999998,-6936.1099999999997,-6782.9899999999998,9.5310500000000005,40.272799999999997,97.999899999999997
211430.0,208.75399999999999,-8424.0300000000007,-8504.1200000000008,-8351.75,9.6989300000000007,38.785899999999998,84.371799999999993
211431.0,208.607,-8553.0100000000002,-8635.3299999999999,-8476.7600000000002,8.7487600000000008,38.458399999999997,81.616900000000001
211432.0,210.755,-9037.5400000000009,-9124.9400000000005,-8951.8899999999994,4.2825100000000003,38.218400000000003,76.421899999999994
211433.0,197.70699999999999,-10100.200000000001,-10183.0,-10006.9,-4.6618599999999999,35.096499999999999,63.3752
211434.0,184.77799999999999,-10200.700000000001,-10277.6,-10107.0,-8.4981399999999994,32.3583,54.429200000000002
211435.0,162.536,-10284.0,-10353.299999999999,-10202.700000000001,-8.7538,29.375699999999998,46.732799999999997
211436.0,140.06299999999999,-10198.4,-10256.700000000001,-10146.700000000001,-8.3384999999999998,29.538499999999999,50.685099999999998
211437.0,117.777,-9677.0799999999999,-9716.5400000000009,-9653.0300000000007,-10.2195,29.1477,51.397100000000002
211438.0,71.796899999999994,-8939.4799999999996,-8948.8700000000008,-8936.7099999999991,-9.9891699999999997,22.145299999999999,32.977499999999999
211439.0,76.415999999999997,-6385.79,-6354.7799999999997,-6437.5699999999997,13.902699999999999,-1.83422,-0.57485600000000003
211440.0,105.376,-4806.3800000000001,-4762.0100000000002,-4877.2700000000004,15.9764,-8.0518599999999996,1.3173600000000001
211441.0,119.663,-3317.04,-3271.1900000000001,-3401.1900000000001,13.573700000000001,-3.2181999999999999,15.199999999999999
211442.0,126.92700000000001,-1898.1300000000001,-1859.8099999999999,-1987.22,13.9551,2.5956600000000001,29.935099999999998
211443.0,136.87200000000001,-741.05499999999995,-730.02099999999996,-807.40599999999995,7.8202699999999998,13.682600000000001,65.147599999999997
211444.0,110.29600000000001,-1694.79,-1605.03,-1701.1199999999999,-9.2873099999999997,14.9558,29.271799999999999
211445.0,122.604,-382.995,-306.81900000000002,-390.065,29.5867,30.471399999999999,32.805700000000002
211446.0,252.584,4444.1300000000001,4370.3800000000001,4503.8199999999997,15.1242,44.500700000000002,120.785
211447.0,197.25700000000001,10319.9,10245.200000000001,10411.299999999999,-3.4440499999999998,34.335999999999999,69.684899999999999
211448.0,97.872399999999999,6920.5200000000004,6963.9099999999999,6887.1999999999998,-9.34849,2.23936,40.2639
211449.0,127.822,3808.4099999999999,3876.8499999999999,3738.3000000000002,9.9867399999999993,-18.4148,14.4367
211450.0,165.917,10605.700000000001,10555.5,10699.700000000001,-9.7591900000000003,25.4697,55.437899999999999
211451.0,262.26799999999997,8367.0100000000002,8277.25,8440.0900000000001,12.6073,49.347799999999999,116.96599999999999
211452.0,103.12,1252.5599999999999,1296.8099999999999,1263.6800000000001,29.9419,19.718699999999998,41.5852
211453.0,119.804,856.09400000000005,914.02200000000005,858.58500000000004,35.469799999999999,23.231300000000001,43.749200000000002
211454.0,102.822,311.40300000000002,334.93099999999998,332.49099999999999,24.6722,21.059899999999999,48.005099999999999
211455.0,144.99199999999999,2625.5900000000001,2619.6900000000001,2653.8099999999999,21.824100000000001,27.770099999999999,73.672799999999995
211456.0,202.863,2475.2199999999998,2440.0300000000002,2514.1599999999999,20.6629,34.631900000000002,103.521
211457.0,241.95099999999999,4668.7399999999998,4611.0200000000004,4717.6700000000001,18.551400000000001,42.314500000000002,120.535
211458.0,234.892,-4203.8699999999999,-4258.8199999999997,-4152.3100000000004,18.905000000000001,41.482300000000002,116.08499999999999
211459.0,262.86099999999999,6187.1300000000001,6102.71,6256.2700000000004,13.4068,46.6584,121.495
211460.0,243.44,8060.3299999999999,7971.0699999999997,8136.79,11.075799999999999,46.971400000000003,102.69
211461.0,225.767,9129.2700000000004,9042.1299999999992,9207.6900000000005,9.3585600000000007,43.5289,90.271600000000007
211462.0,221.03,9774.6700000000001,9686.2700000000004,9858.6299999999992,5.8042600000000002,41.535499999999999,84.246899999999997
211463.0,205.11199999999999,10133.799999999999,10051.5,10220.5,1.1205499999999999,37.457000000000001,73.962199999999996
211464.0,196.60599999999999,-9941.0,-10021.799999999999,-9855.3799999999992,-1.49763,37.141100000000002,67.664299999999997
211465.0,183.178,10473.6,10410.4,10569.299999999999,-7.7666199999999996,29.761600000000001,61.942100000000003
211466.0,135.27500000000001,10340.200000000001,10309.4,10416.700000000001,-9.90916,21.539100000000001,49.878500000000003
211467.0,106.92400000000001,9944.9400000000005,9933.8400000000001,9988.4200000000001,-9.6914200000000008,21.457799999999999,49.237000000000002
211468.0,107.51900000000001,9257.8400000000001,9259.1900000000005,9265.4200000000001,-11.848699999999999,27.5853,54.182699999999997
211469.0,110.29300000000001,8211.1499999999996,8226.9699999999993,8193.9500000000007,-14.7494,24.661200000000001,54.372100000000003
211470.0,75.755499999999998,-7757.5,-7735.0299999999997,-7782.9799999999996,-16.281700000000001,10.068,31.1601
211471.0,109.11199999999999,5437.6800000000003,5496.8000000000002,5382.5799999999999,4.1193999999999997,-14.4833,21.869900000000001
211472.0,133.05000000000001,2299.73,2369.1500000000001,2227.0999999999999,12.2677,-14.8767,21.9861
211473.0,111.64400000000001,1022.5700000000001,1067.3099999999999,954.64700000000005,11.9472,-12.2339,25.381599999999999
211474.0,102.989,220.09899999999999,214.13300000000001,180.95400000000001,13.209099999999999,-1.3252600000000001,53.986499999999999
211475.0,48.102800000000002,97.583299999999994,45.805100000000003,64.875500000000002,2.1525799999999999,-6.7383100000000002,-5.9591000000000003
211476.0,108.884,-323.202,-271.904,-336.572,35.986199999999997,19.448499999999999,33.366
211477.0,98.038899999999998,-1536.53,-1493.0599999999999,-1534.0699999999999,30.606400000000001,19.385200000000001,35.987299999999998
211478.0,92.246899999999997,-621.87300000000005,-586.92499999999995,-612.447,26.9236,17.6569,38.378700000000002
211479.0,122.212,-1377.6600000000001,-1358.6600000000001,-1364.8399999999999,26.2212,22.442699999999999,60.773699999999998
211480.0,172.60599999999999,-2581.3000000000002,-2590.75,-2561.27,26.1632,29.266100000000002,90.351699999999994
211481.0,216.83600000000001,-3499.0900000000001,-3531.1900000000001,-3461.6900000000001,21.764299999999999,36.302100000000003,112.566
211482.0,248.34100000000001,-4510.5,-4579.29,-4447.6999999999998,15.737,43.930100000000003,118.52500000000001
211483.0,254.708,-7209.54,-7289.5500000000002,-7137.8800000000001,12.1816,46.486800000000002,116.446
211484.0,241.072,-8050.1599999999999,-8137.8800000000001,-7975.3000000000002,11.1229,46.647799999999997,102.227
211485.0,225.29300000000001,-8068.1999999999998,-8156.6199999999999,-7991.2200000000003,9.2393999999999998,43.837699999999998,89.7851
211486.0,215.50999999999999,-9154.8400000000001,-9242.6200000000008,-9077.4200000000001,7.3577399999999997,41.996299999999998,82.653999999999996
211487.0,205.178,-9703.3799999999992,-9790.6800000000003,-9620.9699999999993,2.76336,39.7044,72.428299999999993
211488.0,183.267,-10114.4,-10185.799999999999,-10024.6,-6.1373300000000004,33.087000000000003,59.514099999999999
211489.0,171.23599999999999,-10372.799999999999,-10434.299999999999,-10279.700000000001,-10.2629,28.3888,52.909500000000001
211490.0,154.65899999999999,-10346.4,-10397.200000000001,-10256.6,-13.5169,23.7165,46.475900000000003
211491.0,130.035,-10054.299999999999,-10090.6,-9983.9500000000007,-15.167,21.820399999999999,44.594999999999999
211492.0,113.702,-9644.3400000000001,-9661.9300000000003,-9605.3299999999999,-19.6082,24.1525,50.0261
211493.0,104.268,-8866.3999999999996,-8864.2099999999991,-8861.1000000000004,-24.1647,23.974799999999998,49.579599999999999
211494.0,84.989900000000006,-6458.0299999999997,-6414.9099999999999,-6506.0600000000004,-1.4932300000000001,-11.166399999999999,14.213100000000001
211495.0,113.685,-4903.7799999999997,-4844.25,-4966.5100000000002,3.54643,-21.670000000000002,9.4034099999999992
211496.0,124.589,-3254.2399999999998,-3189.6100000000001,-3322.0799999999999,7.8831199999999999,-19.1145,18.9236
211497.0,126.11499999999999,-1789.1500000000001,-1734.8900000000001,-1860.25,13.8133,-13.528700000000001,31.235700000000001
211498.0,126.358,-644.52099999999996,-639.44000000000005,-696.01400000000001,18.046199999999999,-1.02484,63.369799999999998
211499.0,108.907,1396.47,1475.1199999999999,1382.0899999999999,-4.2723500000000003,18.483000000000001,32.951999999999998
211500.0,126.29300000000001,521.22900000000004,595.98500000000001,512.61599999999999,33.264800000000001,28.075600000000001,36.327500000000001
211501.0,262.58199999999999,5942.6099999999997,5863.9200000000001,6002.1599999999999,18.6069,49.118600000000001,124.161
211502.0,179.661,10465.6,10390.200000000001,10540.9,-1.96173,33.475700000000003,62.9129
211503.0,132.86500000000001,6152.4899999999998,6206.6000000000004,6103.8299999999999,-21.564499999999999,-0.95008800000000004,52.6815
211504.0,131.191,2985.1599999999999,3056.4699999999998,2919.9699999999998,4.4382999999999999,-13.019399999999999,29.777100000000001
211505.0,133.46700000000001,10089.5,10043.299999999999,10158.9,-8.3358399999999993,18.634899999999998,46.220999999999997
211506.0,263.77999999999997,6857.4899999999998,6765.9799999999996,6930.3400000000001,13.9306,51.822499999999998,116.321
211507.0,103.28400000000001,170.51400000000001,212.999,179.726,23.417999999999999,22.0166,44.9803
211508.0,120.178,-53.256599999999999,6.8768200000000004,-48.804000000000002,33.688800000000001,23.641200000000001,44.695700000000002
211509.0,98.9773,1771.77,1790.27,1788.6400000000001,18.599699999999999,20.725100000000001,48.837600000000002
211510.0,145.12700000000001,655.21900000000005,645.69399999999996,682.73299999999995,19.011700000000001,28.8858,73.856999999999999
211511.0,210.60400000000001,2785.4499999999998,2744.3200000000002,2823.0300000000002,18.793700000000001,38.720700000000001,106.688
211512.0,249.126,3108.1799999999998,3043.3200000000002,3155.8099999999999,18.6219,46.156500000000001,122.566
211513.0,243.59299999999999,-4075.6799999999998,-4139.3900000000003,-4026.1900000000001,20.030000000000001,45.0871,118.848
211514.0,269.41800000000001,6721.4700000000003,6632.6300000000001,6789.1199999999999,16.7834,51.006300000000003,123.09399999999999
211515.0,249.73400000000001,9054.9500000000007,8963.4500000000007,9132.4099999999999,10.684799999999999,50.163499999999999,104.904
211516.0,229.565,9428.8299999999999,9339.4099999999999,9505.8299999999999,7.5101699999999996,46.639000000000003,91.642200000000003
211517.0,217.61099999999999,9840.5799999999999,9751.7099999999991,9919.4099999999999,3.9380500000000001,43.813600000000001,82.527600000000007
211518.0,195.70599999999999,10220.6,10137.6,10297.700000000001,0.72996499999999997,38.464799999999997,69.8613
211519.0,185.26400000000001,-10068.0,-10150.5,-9993.0799999999999,-0.51718900000000001,37.633400000000002,61.831899999999997
211520.0,155.86600000000001,10424.4,10362.0,10496.700000000001,-5.0237499999999997,26.126000000000001,53.3352
211521.0,110.004,9815.7800000000007,9790.2399999999998,9879.7099999999991,-11.347899999999999,12.5014,40.305500000000002
211522.0,84.045100000000005,9241.5499999999993,9240.5699999999997,9287.4200000000001,-11.6143,10.0108,37.454300000000003
211523.0,80.180899999999994,8439.6800000000003,8460.7000000000007,8447.6299999999992,-11.263999999999999,13.146800000000001,41.601300000000002
211524.0,120.42100000000001,7462.1400000000003,7500.0,7440.3699999999999,-23.814699999999998,9.4212199999999999,57.160200000000003
211525.0,100.259,-7046.5699999999997,-7022.3199999999997,-7086.1599999999999,-23.945,7.3090700000000002,41.052
211526.0,131.69200000000001,4529.8199999999997,4597.5600000000004,4462.79,-7.8990900000000002,-9.7697199999999995,32.897599999999997
211527.0,114.908,1630.75,1691.0599999999999,1577.04,10.9224,-10.7118,30.224699999999999
211528.0,87.990300000000005,590.62400000000002,631.58500000000004,558.05999999999995,10.8856,-6.3077199999999998,32.636400000000002
211529.0,95.558700000000002,79.462400000000002,71.849299999999999,81.885599999999997,10.4665,5.8244400000000001,53.599699999999999
211530.0,48.611199999999997,44.136400000000002,-4.34558,17.925699999999999,1.1272800000000001,-13.0649,-5.1771099999999999
211531.0,109.52,-282.84899999999999,-231.71000000000001,-294.68900000000002,37.456299999999999,18.408000000000001,33.7059
211532.0,100.351,391.67399999999998,436.49000000000001,393.97199999999998,26.984300000000001,20.854600000000001,39.4557
211533.0,89.820899999999995,-959.57100000000003,-928.83799999999997,-951.51900000000001,20.528600000000001,18.269100000000002,40.989199999999997
211534.0,117.343,-813.98199999999997,-797.52700000000004,-802.95600000000002,21.7347,21.2972,59.945799999999998
211535.0,177.17400000000001,-955.80999999999995,-965.99900000000002,-936.40899999999999,24.657299999999999,31.447800000000001,92.954800000000006
211536.0,222.50899999999999,-2210.4099999999999,-2251.54,-2174.8600000000001,20.357800000000001,39.229300000000002,114.357
211537.0,256.34399999999999,-6296.8999999999996,-6375.3100000000004,-6236.6099999999997,17.819400000000002,48.6678,119.923
211538.0,257.24799999999999,-6041.8000000000002,-6129.5600000000004,-5973.4700000000003,13.9145,50.702599999999997,114.76900000000001
211539.0,245.858,-7398.3999999999996,-7488.7799999999997,-7325.1199999999999,11.3398,50.493200000000002,103.681
211540.0,231.33600000000001,-9078.9200000000001,-9170.5400000000009,-9002.1399999999994,7.8520799999999999,47.947600000000001,91.489400000000003
211541.0,216.185,-9273.9200000000001,-9363.6100000000006,-9198.2700000000004,5.3141100000000003,45.026899999999998,81.683899999999994
211542.0,199.96899999999999,-9660.1100000000006,-9748.0400000000009,-9583.1100000000006,1.7711699999999999,41.3919,69.300200000000004
211543.0,164.23500000000001,-10247.200000000001,-10319.9,-10174.5,-3.5639099999999999,32.1402,51.577399999999997
211544.0,142.26499999999999,-10042.4,-10101.0,-9972.4899999999998,-7.06907,25.414200000000001,43.692700000000002
211545.0,119.929,-9817.7099999999991,-9858.3500000000004,-9750.5900000000001,-11.6547,18.199300000000001,36.961199999999998
211546.0,100.096,-9513.9400000000005,-9534.6200000000008,-9452.5599999999995,-16.0672,12.749000000000001,33.132800000000003
211547.0,87.952399999999997,-8886.2099999999991,-8885.9099999999999,-8842.2000000000007,-21.5121,11.355399999999999,36.6815
211548.0,102.131,-8090.9300000000003,-8077.4200000000001,-8084.3000000000002,-28.359100000000002,14.662800000000001,49.112699999999997
211549.0,115.364,-5612.7299999999996,-5561.2700000000004,-5680.3500000000004,-12.5007,-7.0760800000000001,25.747699999999998
211550.0,129.82400000000001,-4000.1799999999998,-3931.6700000000001,-4066.8099999999999,-1.9736800000000001,-16.1067,28.079799999999999
211551.0,132.042,-2539.9899999999998,-2467.77,-2594.54,6.7286000000000001,-20.255700000000001,36.228400000000001
211552.0,117.124,-1245.1300000000001,-1189.05,-1285.8900000000001,12.416700000000001,-15.0204,42.764800000000001
211553.0,122.83799999999999,-340.10399999999998,-331.56099999999998,-353.601,18.266500000000001,1.4475800000000001,67.605500000000006
211554.0,108.86799999999999,-1893.3499999999999,-1819.5799999999999,-1907.7,-1.5894699999999999,15.6295,38.319600000000001
211555.0,132.804,-285.37799999999999,-211.77000000000001,-299.55599999999998,34.296500000000002,31.381799999999998,38.691200000000002
211556.0,268.29500000000002,4796.46,4717.9399999999996,4854.4200000000001,25.6189,54.143599999999999,125.35899999999999
211557.0,168.804,10362.1,10290.700000000001,10428.4,-2.58954,33.944200000000002,59.985999999999997
211558.0,117.18899999999999,5108.9300000000003,5153.5500000000002,5066.46,-2.4847899999999998,-0.70723899999999995,51.715499999999999
211559.0,130.465,2355.5799999999999,2408.0999999999999,2285.4299999999998,28.2256,-6.2401200000000001,32.4026
211560.0,103.78,10006.1,9965.9099999999999,10050.299999999999,-4.8072400000000002,15.671099999999999,39.218200000000003
211561.0,259.61500000000001,8683.0400000000009,8597.0300000000007,8754.9599999999991,14.9109,54.500799999999998,114.116
211562.0,101.251,1340.29,1370.27,1344.0799999999999,25.025200000000002,22.322399999999998,45.014099999999999
211563.0,117.548,839.553,896.11099999999999,842.202,35.085999999999999,22.4587,43.032200000000003
211564.0,99.921700000000001,474.798,478.36799999999999,481.71899999999999,17.215,22.994199999999999,49.910400000000003
211565.0,145.661,2722.8299999999999,2700.8699999999999,2742.3400000000001,19.815899999999999,30.154299999999999,73.074299999999994
211566.0,215.55199999999999,2627.25,2575.4000000000001,2659.5100000000002,27.257899999999999,42.655700000000003,105.474
211567.0,257.65199999999999,4935.2600000000002,4864.5500000000002,4981.1000000000004,28.964600000000001,51.048000000000002,123.434
211568.0,251.989,-4591.5900000000001,-4661.6199999999999,-4544.6499999999996,26.944400000000002,50.706699999999998,120.018
211569.0,267.75299999999999,6563.1000000000004,6479.2799999999997,6629.29,20.534099999999999,54.965499999999999,121.666
211570.0,248.91300000000001,8339.3099999999995,8250.7199999999993,8415.6700000000001,9.5401000000000007,53.343000000000004,104.411
211571.0,230.35499999999999,9412.2099999999991,9324.7700000000004,9488.3899999999994,5.4196299999999997,49.893900000000002,92.009900000000002
211572.0,216.411,10043.200000000001,9956.0499999999993,10119.4,2.34328,46.522100000000002,82.2303
211573.0,191.05199999999999,10329.1,10248.9,10401.299999999999,-0.81291999999999998,40.2714,68.782899999999998
211574.0,178.78999999999999,-10069.299999999999,-10150.799999999999,-10000.299999999999,-2.4304700000000001,38.3855,59.1233
211575.0,137.18000000000001,10260.4,10203.0,10316.700000000001,-4.1216600000000003,25.477599999999999,48.691200000000002
211576.0,69.927899999999994,9259.1399999999994,9238.6100000000006,9291.4400000000005,-6.0255700000000001,5.64879,29.199200000000001
211577.0,38.895600000000002,8442.7800000000007,8443.2999999999993,8455.8199999999997,-6.7909699999999997,-0.17290700000000001,20.089600000000001
211578.0,51.160800000000002,7500.1199999999999,7519.75,7479.5200000000004,-6.4069200000000004,3.53626,20.354399999999998
211579.0,102.67100000000001,6349.0799999999999,6393.2200000000003,6318.0100000000002,-18.057400000000001,4.7358900000000004,41.676200000000001
211580.0,94.9983,-5890.0799999999999,-5865.0100000000002,-5927.8000000000002,-3.3844099999999999,7.6552499999999997,44.037999999999997
211581.0,120.863,3764.5100000000002,3810.7199999999998,3707.1399999999999,19.946000000000002,-8.4194700000000005,41.322899999999997
211582.0,105.667,1133.23,1172.9100000000001,1082.27,22.186299999999999,2.7732199999999998,34.023099999999999
211583.0,81.333500000000001,340.12900000000002,366.03899999999999,313.529,15.8713,8.4163300000000003,34.539000000000001
211584.0,97.4375,3.9556900000000002,-16.050699999999999,14.4328,9.2132799999999992,19.834,49.462499999999999
211585.0,48.482500000000002,2.1608200000000002,-49.945700000000002,-26.862200000000001,-4.0108600000000001,-9.0871200000000005,-1.77267
211586.0,111.387,-336.34699999999998,-284.911,-349.31099999999998,37.911000000000001,21.038,33.101100000000002
211587.0,99.209100000000007,-1539.9200000000001,-1498.1500000000001,-1539.79,27.6983,19.835000000000001,39.249899999999997
211588.0,90.886499999999998,-797.61300000000006,-780.09100000000001,-796.56600000000003,21.1845,19.496500000000001,42.754600000000003
211589.0,115.739,-1556.3099999999999,-1554.71,-1553.05,20.528700000000001,21.934799999999999,59.665599999999998
211590.0,176.755,-2710.77,-2731.1599999999999,-2697.6100000000001,27.687999999999999,32.267899999999997,91.215900000000005
211591.0,228.97900000000001,-3768.71,-3821.29,-3740.0700000000002,31.082699999999999,44.368299999999998,113.33799999999999
211592.0,257.64400000000001,-4975.4700000000003,-5055.6499999999996,-4917.3500000000004,21.395499999999998,53.1419,118.41800000000001
211593.0,253.59399999999999,-7640.4300000000003,-7725.79,-7574.8100000000004,15.761699999999999,54.0075,111.982
211594.0,243.55799999999999,-8360.5,-8447.6599999999999,-8289.4500000000007,10.390000000000001,53.002200000000002,102.843
211595.0,231.381,-8343.3999999999996,-8432.9500000000007,-8268.2199999999993,5.7265899999999998,51.027700000000003,91.697100000000006
211596.0,216.62899999999999,-9425.5599999999995,-9514.4599999999991,-9351.3199999999997,3.1268500000000001,47.862000000000002,81.674899999999994
211597.0,198.084,-9936.2299999999996,-10023.6,-9862.5400000000009,-0.42202200000000001,43.580199999999998,68.377700000000004
211598.0,152.06800000000001,-10051.799999999999,-10123.1,-9989.6499999999996,-4.72044,31.477900000000002,47.278199999999998
211599.0,121.18000000000001,-10005.299999999999,-10062.4,-9953.7199999999993,-6.1088100000000001,23.477599999999999,36.785200000000003
211600.0,84.260499999999993,-9558.5799999999999,-9596.5200000000004,-9520.3500000000004,-7.4500700000000002,14.1082,25.721499999999999
211601.0,50.6252,-8799.0499999999993,-8815.2000000000007,-8773.9899999999998,-10.873200000000001,6.0152999999999999,16.392199999999999
211602.0,43.090299999999999,-8007.1400000000003,-8001.3900000000003,-7998.21,-17.077200000000001,3.5280200000000002,17.156500000000001
211603.0,80.401899999999998,-7027.0500000000002,-7003.6099999999997,-7042.3900000000003,-21.8429,9.9327100000000002,34.608199999999997
211604.0,105.904,-4668.29,-4628.5600000000004,-4716.3900000000003,17.497699999999998,-7.20505,38.026299999999999
211605.0,124.26000000000001,-3302.73,-3245.02,-3357.0900000000001,26.4542,-13.098000000000001,33.679600000000001
211606.0,134.67599999999999,-1943.8099999999999,-1885.4400000000001,-2000.5999999999999,26.656700000000001,-4.3364000000000003,44.728200000000001
211607.0,111.30500000000001,-838.56200000000001,-796.59100000000001,-876.25699999999995,20.918099999999999,2.6537700000000002,45.7911
211608.0,122.40300000000001,-159.33000000000001,-158.88200000000001,-166.81399999999999,17.985299999999999,15.677199999999999,66.370900000000006
211609.0,103.877,1300.23,1364.52,1283.4100000000001,5.8997900000000003,12.7187,39.598500000000001
211610.0,139.22300000000001,597.44799999999998,674.76400000000001,583.64800000000002,33.369799999999998,32.9983,42.975099999999998
211611.0,261.69400000000002,6121.7200000000003,6053.8299999999999,6179.96,26.488800000000001,55.240600000000001,122.84
211612.0,158.03999999999999,10161.0,10103.1,10224.700000000001,-7.3908399999999999,31.532299999999999,59.8078
211613.0,122.605,4217.3199999999997,4236.6400000000003,4219.6999999999998,11.788600000000001,8.8315800000000007,68.430300000000003
211614.0,120.098,2460.0100000000002,2526.2199999999998,2424.6599999999999,31.59,-19.6326,27.684899999999999
211615.0,86.158699999999996,9393.0799999999999,9377.1599999999999,9431.0900000000001,-12.5868,7.5849099999999998,38.613
211616.0,251.46899999999999,6799.04,6725.3599999999997,6871.8500000000004,11.8954,55.864600000000003,111.58799999999999
211617.0,101.886,172.75399999999999,197.19900000000001,172.47399999999999,31.182500000000001,23.9437,41.390099999999997
211618.0,116.699,24.673999999999999,78.643299999999996,21.553899999999999,34.205800000000004,23.7515,42.131900000000002
211619.0,109.129,1854.3399999999999,1848.02,1855.8,28.0229,27.3019,49.213500000000003
211620.0,154.20500000000001,865.66700000000003,831.31100000000004,875.94799999999998,29.6755,33.343600000000002,73.400099999999995
211621.0,216.691,2964.1599999999999,2912.5,2993.5300000000002,35.258699999999997,45.381599999999999,103.276
211622.0,256.18200000000002,3273.8899999999999,3211.5,3321.5700000000002,34.042900000000003,53.400300000000001,121.73399999999999
211623.0,249.06700000000001,-4307.8900000000003,-4372.6400000000003,-4261.8299999999999,29.342700000000001,53.898099999999999,117.53
211624.0,257.46300000000002,6805.1700000000001,6734.9099999999999,6872.0100000000002,18.596,55.717500000000001,118.09
211625.0,244.02199999999999,8914.4699999999993,8835.9799999999996,8991.5400000000009,6.1941300000000004,55.244799999999998,103.48099999999999
211626.0,227.44800000000001,9263.3500000000004,9185.2999999999993,9340.3299999999999,1.7783500000000001,51.8767,92.417699999999996
211627.0,212.74799999999999,9665.2600000000002,9587.7399999999998,9741.5300000000007,-1.7041599999999999,47.885100000000001,82.9375
211628.0,184.54499999999999,10006.299999999999,9937.1399999999994,10077.4,-5.1315299999999997,40.182299999999998,69.239000000000004
211629.0,171.03,-9839.8700000000008,-9911.8899999999994,-9772.7299999999996,-7.9041399999999999,37.4283,58.683
211630.0,122.19199999999999,9966.0499999999993,9926.7800000000007,10019.0,-10.033899999999999,20.140999999999998,48.253799999999998
211631.0,57.290700000000001,8734.6200000000008,8740.7399999999998,8753.7700000000004,-16.3932,-5.53322,26.439599999999999
211632.0,56.424700000000001,7618.21,7642.3299999999999,7610.6099999999997,-19.5943,-16.423999999999999,11.544
211633.0,75.076300000000003,6279.5900000000001,6313.1400000000003,6240.9300000000003,-17.046800000000001,-14.9002,7.7777700000000003
211634.0,85.115099999999998,5060.25,5100.3599999999997,5035.9899999999998,-14.4947,-2.65266,33.777000000000001
211635.0,128.23500000000001,-4699.8400000000001,-4676.5,-4704.9300000000003,13.9503,11.0403,70.250100000000003
211636.0,122.36799999999999,3483.96,3509.9400000000001,3481.2800000000002,32.239699999999999,-1.58416,60.818100000000001
211637.0,109.63200000000001,1266.2,1328.25,1223.1600000000001,20.613700000000001,-10.527699999999999,26.073499999999999
211638.0,82.594200000000001,367.99700000000001,395.31599999999997,334.50099999999998,11.619300000000001,5.3618199999999998,34.3855
211639.0,107.816,5.7241200000000001,-30.429200000000002,10.557700000000001,5.7531100000000004,25.860800000000001,51.683100000000003
211640.0,60.460799999999999,22.878399999999999,-38.430199999999999,-25.8843,-3.71244,-12.478400000000001,-0.13294600000000001
211641.0,114.074,-374.33199999999999,-319.916,-385.48000000000002,35.420299999999997,22.8322,36.4831
211642.0,96.286699999999996,376.30500000000001,414.81999999999999,372.149,29.125,20.421700000000001,35.657899999999998
211643.0,97.789000000000001,-958.95899999999995,-943.154,-962.57299999999998,29.420000000000002,22.670300000000001,41.2483
211644.0,127.232,-1000.41,-1013.35,-1004.87,31.5215,25.5869,60.864699999999999
211645.0,178.94,-1210.97,-1241.4000000000001,-1203.26,35.4604,34.244700000000002,88.523300000000006
211646.0,228.54499999999999,-2398.46,-2446.25,-2370.23,37.253,47.342500000000001,110.929
211647.0,248.40299999999999,-6521.46,-6592.5900000000001,-6464.9899999999998,20.581099999999999,54.952300000000001,114.178
211648.0,243.77699999999999,-6121.8400000000001,-6195.8199999999997,-6057.1300000000001,12.9056,54.719999999999999,108.776
211649.0,237.20099999999999,-7332.7799999999997,-7410.2399999999998,-7262.21,6.9122899999999996,54.091700000000003,101.485
211650.0,227.94999999999999,-8947.5499999999993,-9029.1399999999994,-8872.6499999999996,1.81474,52.659799999999997,91.747100000000003
211651.0,213.99700000000001,-9121.8700000000008,-9203.1900000000005,-9047.5499999999993,-1.38337,49.3324,82.275999999999996
211652.0,193.934,-9487.3299999999999,-9566.5100000000002,-9414.0599999999995,-5.4752999999999998,44.259700000000002,68.810100000000006
211653.0,139.68799999999999,-9910.4099999999999,-9969.5,-9851.5699999999997,-11.3835,27.975999999999999,45.9925
211654.0,104.447,-9532.8199999999997,-9573.2199999999993,-9485.8400000000001,-14.871,16.814800000000002,34.930500000000002
211655.0,65.559600000000003,-9022.9200000000001,-9038.4200000000001,-8992.3400000000001,-19.0352,3.41743,22.558800000000002
211656.0,49.005200000000002,-8236.4699999999993,-8226.8799999999992,-8225.2800000000007,-24.132100000000001,-10.073700000000001,8.9471699999999998
211657.0,66.021299999999997,-6942.7200000000003,-6911.5600000000004,-6951.1000000000004,-26.283799999999999,-16.151900000000001,8.1943099999999998
211658.0,87.655799999999999,-5650.4499999999998,-5607.6599999999999,-5670.8000000000002,-16.947099999999999,-5.2400200000000003,34.754800000000003
211659.0,118.569,-4032.8600000000001,-4008.3299999999999,-4024.79,31.209299999999999,2.4015599999999999,59.581899999999997
211660.0,95.267200000000003,-3264.8400000000001,-3206.75,-3277.23,28.1997,-18.5153,21.711300000000001
211661.0,117.63500000000001,-2102.48,-2034.3,-2142.27,23.768999999999998,-14.978400000000001,29.009599999999999
211662.0,112.5,-906.351,-862.22500000000002,-948.26800000000003,16.953099999999999,1.75481,45.573900000000002
211663.0,135.21600000000001,-156.08199999999999,-166.59899999999999,-174.35499999999999,15.8484,21.074999999999999,72.904499999999999
211664.0,101.05,-1781.74,-1727.46,-1804.9400000000001,15.559699999999999,12.976599999999999,37.576500000000003
211665.0,139.59,-301.209,-224.01599999999999,-312.23500000000001,35.479599999999998,30.208100000000002,44.870199999999997
211666.0,239.20400000000001,4666.5799999999999,4609.0200000000004,4720.4300000000003,22.607299999999999,51.501300000000001,113.16
211667.0,144.34399999999999,9342.5799999999999,9308.0300000000007,9403.8899999999994,-15.385300000000001,27.286300000000001,60.057000000000002
211668.0,150.346,3827.7399999999998,3811.6300000000001,3844.77,23.083500000000001,13.7744,80.854200000000006
211669.0,108.881,2356.5500000000002,2419.1199999999999,2311.4200000000001,18.595400000000001,-19.4863,17.3475
211670.0,73.784300000000002,8479.5400000000009,8487.8400000000001,8505.5400000000009,-21.624300000000002,-3.0719699999999999,34.077800000000003
211671.0,235.64099999999999,8106.8800000000001,8047.3699999999999,8178.6800000000003,5.9313599999999997,53.365499999999997,106.312
211672.0,105.566,1383.0699999999999,1411.0599999999999,1380.8599999999999,31.4664,26.182500000000001,41.901699999999998
211673.0,120.694,942.44000000000005,995.43600000000004,935.29300000000001,33.832599999999999,27.366299999999999,43.389000000000003
211674.0,114.068,508.82600000000002,508.93400000000003,511.88999999999999,31.9025,31.0442,48.504199999999997
211675.0,164.99600000000001,2885.9699999999998,2855.0300000000002,2897.0500000000002,36.851300000000002,38.448099999999997,75.921400000000006
211676.0,217.21600000000001,2838.9200000000001,2789.5999999999999,2866.1999999999998,38.338900000000002,45.521500000000003,103.336
211677.0,238.56999999999999,5033.6300000000001,4976.3100000000004,5074.8400000000001,32.488399999999999,50.230699999999999,113.774
211678.0,227.34,-4645.4700000000003,-4706.2399999999998,-4607.6400000000003,26.701499999999999,51.260800000000003,106.83
211679.0,238.63900000000001,6182.04,6124.1599999999999,6246.3199999999997,13.450200000000001,52.822800000000001,110.803
211680.0,231.42099999999999,7633.7600000000002,7572.3299999999999,7711.9899999999998,-0.48712699999999998,53.198900000000002,100.608
211681.0,218.023,8629.2700000000004,8570.3199999999997,8709.25,-5.4430899999999998,50.2057,91.828699999999998
211682.0,204.02500000000001,9206.7299999999996,9150.1800000000003,9286.1499999999996,-9.2160799999999998,46.283299999999997,83.565399999999997
211683.0,175.203,9427.1700000000001,9379.9400000000005,9499.9599999999991,-12.9787,37.954900000000002,70.478700000000003
211684.0,160.95599999999999,-9179.0300000000007,-9229.5100000000002,-9109.8199999999997,-17.017800000000001,34.2652,59.677999999999997
211685.0,105.289,9035.8799999999992,9020.4599999999991,9081.3099999999995,-18.4009,12.805999999999999,46.815800000000003
211686.0,68.230000000000004,7366.7600000000002,7394.2799999999997,7373.6700000000001,-27.4057,-15.135,19.1508
211687.0,76.554100000000005,6232.4200000000001,6269.5699999999997,6222.04,-29.5991,-20.066299999999998,7.0925200000000004
211688.0,70.634500000000003,5161.7200000000003,5196.2200000000003,5137.04,-20.173500000000001,-15.1845,11.923500000000001
211689.0,85.542699999999996,4284.71,4295.96,4280.6999999999998,1.30996,0.41145999999999999,48.730600000000003
211690.0,152.29900000000001,-4045.1100000000001,-4055.4699999999998,-4031.7399999999998,22.841000000000001,11.4033,83.296899999999994
211691.0,115.089,3346.8299999999999,3355.27,3343.0599999999999,24.951799999999999,4.0999100000000004,61.128599999999999
211692.0,118.764,1126.3099999999999,1192.9400000000001,1066.8,14.235099999999999,-21.014500000000002,8.6737300000000008
211693.0,76.251999999999995,231.392,250.83500000000001,192.34399999999999,10.658899999999999,-0.0112587,30.613800000000001
211694.0,119.735,-39.388199999999998,-93.638400000000004,-33.868600000000001,4.0749599999999999,28.4236,53.509599999999999
211695.0,79.606399999999994,50.590299999999999,-17.3565,-10.306900000000001,-2.2822499999999999,-26.634699999999999,1.3991100000000001
211696.0,113.096,-387.25299999999999,-332.10599999999999,-395.55200000000002,32.785899999999998,21.705400000000001,39.0929
211697.0,99.930099999999996,-1610.9400000000001,-1574.49,-1618.74,29.776499999999999,23.329699999999999,36.603499999999997
211698.0,100.211,-756.98900000000003,-732.98000000000002,-758.81600000000003,29.8001,24.715699999999998,40.5047
211699.0,138.55000000000001,-1578.1099999999999,-1583.1300000000001,-1582.4300000000001,40.002800000000001,30.442599999999999,62.163699999999999
211700.0,188.47,-2916.54,-2948.3299999999999,-2909.3299999999999,42.436500000000002,38.4619,90.163600000000002
211701.0,219.40899999999999,-3986.9299999999998,-4036.4000000000001,-3961.25,35.334000000000003,46.500100000000003,105.721
211702.0,227.59899999999999,-4779.1700000000001,-4839.5,-4728.7700000000004,16.529699999999998,52.347499999999997,105.735
211703.0,226.57300000000001,-7216.1700000000001,-7277.3199999999997,-7154.9200000000001,7.9122599999999998,52.509599999999999,102.69499999999999
211704.0,223.31200000000001,-7774.1400000000003,-7837.0299999999997,-7705.1099999999997,0.87421800000000005,52.163200000000003,97.708600000000004
211705.0,217.28999999999999,-7655.5900000000001,-7720.4300000000003,-7579.9700000000003,-5.2224899999999996,50.924999999999997,90.421700000000001
211706.0,205.56999999999999,-8674.3500000000004,-8737.2099999999991,-8597.3500000000004,-9.2965400000000002,47.634,82.607900000000001
211707.0,185.994,-9130.1000000000004,-9189.1900000000005,-9053.7199999999993,-14.103999999999999,42.252800000000001,70.243899999999996
211708.0,125.008,-9013.0599999999995,-9048.1599999999999,-8955.6599999999999,-20.514600000000002,22.610700000000001,45.785400000000003
211709.0,86.251000000000005,-8725.8400000000001,-8739.2399999999998,-8684.6299999999992,-24.061499999999999,8.22987,31.984100000000002
211710.0,62.6708,-7952.0799999999999,-7937.4899999999998,-7930.79,-28.739999999999998,-7.6174400000000002,17.511900000000001
211711.0,72.7774,-6803.0699999999997,-6768.1199999999999,-6798.3500000000004,-31.7121,-18.6205,7.3222100000000001
211712.0,76.451599999999999,-5683.9700000000003,-5643.4200000000001,-5685.3199999999997,-27.6523,-20.073699999999999,14.6195
211713.0,95.266800000000003,-4663.7299999999996,-4641.4899999999998,-4662.4799999999996,-4.8869100000000003,-6.2831400000000004,52.969700000000003
211714.0,105.673,-3740.0599999999999,-3743.4400000000001,-3737.1300000000001,23.320900000000002,8.8001900000000006,55.596899999999998
211715.0,73.363299999999995,-3118.48,-3074.8899999999999,-3150.5500000000002,12.450699999999999,-12.068099999999999,7.1508099999999999
211716.0,114.277,-1958.25,-1891.6800000000001,-2012.55,12.8934,-21.403199999999998,7.9664099999999998
211717.0,109.71899999999999,-736.19200000000001,-696.41300000000001,-781.24900000000002,16.3508,-7.0426299999999999,43.522100000000002
211718.0,146.41900000000001,-29.950299999999999,-51.5914,-45.599299999999999,19.0063,19.870799999999999,79.153400000000005
211719.0,101.95,1257.5699999999999,1307.9400000000001,1232.1500000000001,22.901399999999999,12.978999999999999,35.830100000000002
211720.0,136.465,595.36500000000001,670.04700000000003,584.23099999999999,36.046100000000003,27.464500000000001,44.456200000000003
211721.0,208.404,5670.4799999999996,5618.8500000000004,5713.6800000000003,19.183700000000002,45.459800000000001,98.936800000000005
211722.0,139.636,8160.0799999999999,8155.79,8225.0200000000004,-23.3521,25.601299999999998,61.593000000000004
211723.0,157.649,3588.2600000000002,3551.5900000000001,3586.0799999999999,19.283200000000001,23.915099999999999,83.171999999999997
211724.0,108.11,1995.77,2051.0700000000002,1938.21,2.8944100000000001,-23.415500000000002,12.4252
211725.0,75.471800000000002,7051.2799999999997,7078.3999999999996,7072.1300000000001,-23.226299999999998,0.96016599999999996,34.010300000000001
211726.0,206.696,5679.1800000000003,5633.7200000000003,5744.2200000000003,-0.18804799999999999,45.965699999999998,95.098299999999995
211727.0,107.851,281.85300000000001,305.87599999999998,275.447,27.526900000000001,27.561199999999999,45.854100000000003
211728.0,121.93000000000001,34.877499999999998,87.5364,28.903600000000001,33.648000000000003,28.6999,44.257199999999997
211729.0,112.866,1926.1700000000001,1923.4400000000001,1926.1800000000001,25.984000000000002,31.5075,50.752899999999997
211730.0,168.30600000000001,958.16200000000003,928.447,969.37900000000002,36.917000000000002,39.283700000000003,78.031199999999998
211731.0,211.11600000000001,3140.8400000000001,3090.1999999999998,3161.71,40.239800000000002,43.915199999999999,99.781199999999998
211732.0,212.732,3235.48,3180.6500000000001,3265.6300000000001,30.6173,45.2072,101.23
211733.0,198.91200000000001,-4126.8599999999997,-4183.1599999999999,-4099.7299999999996,24.305199999999999,46.363399999999999,92.936499999999995
211734.0,208.459,5990.1899999999996,5941.0299999999997,6045.0799999999999,8.9849999999999994,46.022399999999998,97.859800000000007
211735.0,205.25899999999999,7536.5900000000001,7494.75,7610.8800000000001,-7.7308000000000003,45.614199999999997,91.892899999999997
211736.0,196.46100000000001,7676.6700000000001,7642.6499999999996,7756.3500000000004,-13.8535,43.035200000000003,86.116699999999994
211737.0,187.37299999999999,7916.1300000000001,7888.4399999999996,7998.0600000000004,-18.325800000000001,40.137599999999999,80.663799999999995
211738.0,165.09299999999999,8125.8100000000004,8109.3500000000004,8202.9500000000007,-22.228999999999999,33.746400000000001,70.394900000000007
211739.0,153.79599999999999,-8010.6800000000003,-8028.8500000000004,-7935.4899999999998,-26.4208,30.328900000000001,61.779299999999999
211740.0,105.68300000000001,7818.3100000000004,7829.5600000000004,7863.9399999999996,-23.682300000000001,14.241300000000001,48.929699999999997
211741.0,67.370099999999994,6175.2399999999998,6218.1800000000003,6179.7299999999996,-23.212,-11.395799999999999,16.946899999999999
211742.0,65.192400000000006,5029.29,5077.4300000000003,5025.1400000000003,-17.974900000000002,-14.6426,5.8761000000000001
211743.0,51.653100000000002,4115.6099999999997,4147.7399999999998,4104.7399999999998,-6.3843500000000004,-4.6401899999999996,18.083300000000001
211744.0,124.194,3779.6799999999998,3760.6900000000001,3775.52,13.517300000000001,18.193300000000001,67.290300000000002
211745.0,156.73099999999999,-3710.52,-3746.3099999999999,-3709.7600000000002,18.427499999999998,21.832100000000001,83.280500000000004
211746.0,92.706699999999998,3010.5500000000002,3021.2600000000002,2985.2199999999998,9.0102899999999995,1.02799,49.396900000000002
211747.0,113.104,861.36699999999996,908.26900000000001,789.04399999999998,6.43208,-24.342099999999999,4.7699400000000001
211748.0,72.532799999999995,109.675,98.616900000000001,56.800199999999997,11.7781,0.72439200000000004,28.924600000000002
211749.0,124.657,-46.835900000000002,-114.371,-58.350499999999997,7.0135500000000004,27.446400000000001,55.4253
211750.0,91.504900000000006,45.589799999999997,-23.634,-17.7927,-3.5766,-35.970799999999997,3.2334999999999998
211751.0,109.32299999999999,-372.363,-319.041,-381.64400000000001,31.293600000000001,20.936800000000002,37.746200000000002
211752.0,104.71299999999999,308.10199999999998,343.666,300.21600000000001,29.600899999999999,24.433,40.569899999999997
211753.0,97.485100000000003,-1057.8399999999999,-1041.3800000000001,-1062.9400000000001,24.692699999999999,24.705500000000001,42.668900000000001
211754.0,139.911,-1005.54,-1011.03,-1011.35,37.926000000000002,30.743600000000001,64.271299999999997
211755.0,189.715,-1345.6800000000001,-1381.3399999999999,-1341.98,44.363199999999999,39.705500000000001,89.331299999999999
211756.0,202.97999999999999,-2584.0799999999999,-2638.79,-2567.1500000000001,34.691400000000002,44.898299999999999,95.457099999999997
211757.0,198.05600000000001,-5929.5,-5981.9700000000003,-5889.4700000000003,13.4208,46.527700000000003,92.619500000000002
211758.0,197.59999999999999,-5211.5799999999999,-5261.21,-5159.6899999999996,3.4614799999999999,46.624200000000002,90.843900000000005
211759.0,196.52099999999999,-6157.46,-6203.7200000000003,-6095.3900000000003,-4.8663100000000004,45.997900000000001,88.199799999999996
211760.0,193.57900000000001,-7554.0100000000002,-7596.6499999999996,-7482.29,-12.345000000000001,44.655700000000003,83.6922
211761.0,186.59899999999999,-7554.8699999999999,-7590.54,-7477.7700000000004,-17.828600000000002,41.560699999999997,78.986999999999995
211762.0,172.80000000000001,-7781.5,-7809.6999999999998,-7701.6300000000001,-23.574000000000002,36.998899999999999,69.905900000000003
211763.0,123.721,-7947.0900000000001,-7950.8800000000001,-7883.5100000000002,-28.394400000000001,20.4953,49.430500000000002
211764.0,88.426000000000002,-7392.0299999999997,-7378.2600000000002,-7347.5500000000002,-28.790400000000002,7.9999099999999999,34.568199999999997
211765.0,62.8992,-6647.6499999999996,-6613.8900000000003,-6627.8900000000003,-26.8916,-5.8313699999999997,16.553899999999999
211766.0,64.829099999999997,-5653.3800000000001,-5605.21,-5649.8299999999999,-20.896599999999999,-14.118600000000001,6.6643100000000004
211767.0,59.478900000000003,-4510.4700000000003,-4470.4399999999996,-4511.0799999999999,-10.8568,-8.4714600000000004,21.150300000000001
211768.0,126.95699999999999,-3853.2399999999998,-3861.96,-3852.3899999999999,10.2995,13.1881,71.165700000000001
211769.0,74.924099999999996,-3439.9899999999998,-3444.5799999999999,-3453.29,5.4154400000000003,6.24681,41.9191
211770.0,79.790499999999994,-2694.04,-2648.6900000000001,-2732.8099999999999,-2.4766300000000001,-17.536200000000001,5.9745200000000001
211771.0,110.133,-1566.3399999999999,-1507.8099999999999,-1622.3199999999999,4.9815399999999999,-25.720199999999998,8.8656600000000001
211772.0,105.36799999999999,-486.74099999999999,-468.29199999999997,-536.11400000000003,18.177900000000001,-7.5832499999999996,45.642499999999998
211773.0,145.87700000000001,54.809699999999999,16.197800000000001,31.5823,20.186699999999998,20.647099999999998,76.6922
211774.0,102.14100000000001,-1791.0699999999999,-1741.4000000000001,-1814.5799999999999,28.983499999999999,11.622299999999999,33.267299999999999
211775.0,133.09899999999999,-295.661,-224.023,-309.42500000000001,35.273800000000001,26.18,43.278399999999998
211776.0,176.58600000000001,4033.7600000000002,3986.0300000000002,4064.3000000000002,16.261500000000002,38.404899999999998,84.253200000000007
211777.0,135.887,6309.1300000000001,6340.04,6382.21,-27.377700000000001,21.779199999999999,59.881599999999999
211778.0,163.50399999999999,2365.46,2347.4200000000001,2375.8299999999999,2.7673000000000001,25.281099999999999,89.764899999999997
211779.0,81.917000000000002,1418.75,1465.0899999999999,1394.77,-5.21936,-14.7325,26.7319
211780.0,102.997,5637.9300000000003,5693.8999999999996,5683.5299999999997,-25.071300000000001,11.895899999999999,43.3536
211781.0,166.267,6619.5900000000001,6584.3299999999999,6669.9499999999998,-3.4111099999999999,35.4666,78.061199999999999
211782.0,110.90600000000001,1412.6700000000001,1424.8800000000001,1398.5799999999999,31.4862,29.006499999999999,45.759999999999998
211783.0,120.11,887.96299999999997,937.00900000000001,879.83500000000004,33.089599999999997,29.517900000000001,43.426000000000002
211784.0,115.679,649.92999999999995,633.75400000000002,641.63900000000001,31.733799999999999,30.6784,49.466000000000001
211785.0,166.68000000000001,3039.02,3001.8899999999999,3040.9499999999998,41.699199999999998,38.517699999999998,74.5214
211786.0,197.73099999999999,2893.4200000000001,2841.5700000000002,2903.6999999999998,41.119500000000002,42.447600000000001,91.819000000000003
211787.0,186.87299999999999,4794.5500000000002,4743.1499999999996,4814.3599999999997,28.3645,40.304499999999997,88.659899999999993
211788.0,171.89099999999999,-4238.7799999999997,-4290.6000000000004,-4221.4899999999998,22.044499999999999,41.130800000000001,79.860100000000003
211789.0,171.26300000000001,5124.4099999999999,5081.1499999999996,5164.8000000000002,5.9830800000000002,37.109299999999998,81.326400000000007
211790.0,164.15199999999999,5730.4399999999996,5704.7200000000003,5791.1899999999996,-11.500299999999999,33.8215,75.7256
211791.0,158.072,6331.0900000000001,6319.04,6399.8699999999999,-18.068899999999999,30.8855,71.742800000000003
211792.0,155.19499999999999,6565.5,6565.6300000000001,6640.6099999999997,-23.050899999999999,28.799800000000001,69.214100000000002
211793.0,145.44300000000001,6528.9099999999999,6545.0100000000002,6606.0200000000004,-26.9071,25.098199999999999,63.582299999999996
211794.0,139.86099999999999,-6359.46,-6341.1800000000003,-6283.1300000000001,-29.817599999999999,24.113299999999999,58.833100000000002
211795.0,120.337,6018.3500000000004,6062.8199999999997,6080.2600000000002,-26.6843,17.530899999999999,52.805599999999998
211796.0,91.040999999999997,4846.9799999999996,4916.6400000000003,4878.7200000000003,-21.1816,0.631324,33.127200000000002
211797.0,88.257000000000005,3994.9699999999998,4074.3800000000001,4015.3099999999999,-14.806699999999999,-13.7598,22.0566
211798.0,82.566599999999994,3082.77,3150.0900000000001,3090.1100000000001,-9.23367,-13.9322,25.0809
211799.0,131.22900000000001,2526.02,2533.1900000000001,2533.7800000000002,2.4736799999999999,13.411799999999999,74.402000000000001
211800.0,169.886,-2453.6399999999999,-2457.79,-2442.3200000000002,6.7744999999999997,22.8828,94.798900000000003
211801.0,97.624099999999999,2068.9099999999999,2092.1399999999999,2061.3299999999999,-7.3886399999999997,5.0501899999999997,53.283299999999997
211802.0,75.963300000000004,695.33699999999999,729.25699999999995,667.58500000000004,3.8711600000000002,-21.608699999999999,22.079799999999999
211803.0,70.549499999999995,204.25,195.12200000000001,183.67599999999999,6.6735499999999996,-7.7188299999999996,38.061700000000002
211804.0,114.883,28.4925,-7.0322699999999996,12.688700000000001,3.1791100000000001,12.2597,62.627499999999998
211805.0,101.325,46.116900000000001,-20.9499,-11.7704,-7.43919,-44.582299999999996,7.5604800000000001
211806.0,105.78,-344.64699999999999,-291.87700000000001,-355.16199999999998,29.138200000000001,20.555199999999999,36.168799999999997
211807.0,106.318,-1571.5999999999999,-1540.3800000000001,-1583.05,29.643000000000001,25.135200000000001,42.066400000000002
211808.0,100.375,-881.10599999999999,-881.83399999999995,-894.97500000000002,29.771000000000001,24.709599999999998,42.433199999999999
211809.0,140.88999999999999,-1755.5899999999999,-1774.05,-1768.4300000000001,41.6965,29.7758,62.465600000000002
211810.0,181.834,-3049.4200000000001,-3089.8699999999999,-3052.8499999999999,45.050600000000003,39.106000000000002,83.423100000000005
211811.0,183.87,-3953.5999999999999,-4008.4000000000001,-3945.73,34.041699999999999,42.785600000000002,84.3489
211812.0,165.096,-3973.8200000000002,-4020.8899999999999,-3946.3299999999999,11.1533,39.536999999999999,77.306299999999993
211813.0,160.245,-5999.4799999999996,-6040.5500000000002,-5961.7799999999997,1.3058000000000001,38.249299999999998,74.448999999999998
211814.0,157.166,-6157.4499999999998,-6189.96,-6109.6099999999997,-7.18764,36.551299999999998,72.195700000000002
211815.0,154.20500000000001,-5658.75,-5681.0699999999997,-5600.1000000000004,-15.075799999999999,34.421799999999998,69.032600000000002
211816.0,151.04300000000001,-6329.1899999999996,-6338.3699999999999,-6262.4899999999998,-21.044,31.400400000000001,66.787999999999997
211817.0,145.667,-6499.8500000000004,-6495.8999999999996,-6425.9700000000003,-27.0624,28.009499999999999,61.875500000000002
211818.0,128.00899999999999,-6129.71,-6095.9799999999996,-6056.4799999999996,-31.381599999999999,19.0014,52.656700000000001
211819.0,111.087,-5918.1599999999999,-5870.8999999999996,-5854.9899999999998,-31.208300000000001,12.667899999999999,43.581499999999998
211820.0,90.231399999999994,-5355.46,-5298.7700000000004,-5307.5600000000004,-27.2867,4.61632,31.891500000000001
211821.0,78.893299999999996,-4521.8000000000002,-4453.79,-4487.46,-20.648700000000002,-8.0466999999999995,20.670000000000002
211822.0,86.163499999999999,-3634.02,-3561.8600000000001,-3610.9699999999998,-13.003299999999999,-14.2087,27.299199999999999
211823.0,142.00200000000001,-2780.5,-2754.6999999999998,-2767.52,5.3421099999999999,8.1909700000000001,80.371300000000005
211824.0,95.406800000000004,-2370.6999999999998,-2347.5799999999999,-2361.7199999999998,-10.1325,8.1591400000000007,52.240600000000001
211825.0,72.660499999999999,-1916.78,-1868.4000000000001,-1919.45,-10.8864,-11.497400000000001,26.1401
211826.0,77.642399999999995,-1172.8800000000001,-1127.1199999999999,-1180.1700000000001,0.67139800000000005,-22.5655,25.937899999999999
211827.0,90.308899999999994,-488.33499999999998,-476.97399999999999,-497.178,10.6313,-14.7706,47.799500000000002
211828.0,119.09399999999999,-108.349,-135.78100000000001,-120.208,5.4555499999999997,6.6228800000000003,66.820099999999996
211829.0,100.459,1246.45,1297.2,1227.24,33.488799999999998,9.41221,29.1053
211830.0,130.80500000000001,584.47199999999998,654.13099999999997,568.36800000000005,32.994599999999998,26.151199999999999,43.045999999999999
211831.0,148.23699999999999,4994.6999999999998,4948.1899999999996,5010.79,15.3665,32.7301,70.429900000000004
211832.0,109.55500000000001,4436.0100000000002,4495.1199999999999,4501.2299999999996,-23.505199999999999,9.20092,45.450699999999998
211833.0,138.85400000000001,1151.1500000000001,1141.3199999999999,1152.9200000000001,6.5650199999999996,21.9605,76.566100000000006
211834.0,73.415300000000002,660.51300000000003,671.45600000000002,650.03099999999995,0.099055500000000005,5.1615900000000003,40.683799999999998
211835.0,112.28400000000001,3398.6799999999998,3477.25,3458.98,-24.772600000000001,11.768599999999999,41.950299999999999
211836.0,124.38200000000001,4164.6499999999996,4132.7200000000003,4194.9700000000003,-2.0555300000000001,25.743600000000001,59.3384
211837.0,113.92700000000001,302.339,313.18700000000001,285.00400000000002,35.407499999999999,30.8017,43.840299999999999
211838.0,118.911,-3.1750500000000001,43.210500000000003,-12.9039,33.383099999999999,29.383400000000002,42.8521
211839.0,122.941,2022.3299999999999,2008.1199999999999,2011.79,36.659799999999997,33.531199999999998,50.154699999999998
211840.0,166.75999999999999,1071.9300000000001,1035.96,1068.6600000000001,43.7256,39.426299999999998,73.537000000000006
211841.0,182.62799999999999,3119.6900000000001,3068.8499999999999,3119.75,40.219900000000003,40.5976,83.601699999999994
211842.0,163.83000000000001,2923.75,2874.25,2932.1999999999998,26.983699999999999,36.247199999999999,76.972700000000003
211843.0,148.114,-3652.6599999999999,-3702.3899999999999,-3645.8400000000001,20.514399999999998,36.358499999999999,67.947999999999993
211844.0,136.40899999999999,4915.6099999999997,4873.79,4938.9099999999999,6.0678799999999997,29.350999999999999,64.926199999999994
211845.0,115.836,5544.1400000000003,5525.5900000000001,5582.4200000000001,-8.8104200000000006,22.186699999999998,55.344200000000001
211846.0,107.268,5184.5100000000002,5183.3299999999999,5230.3599999999997,-14.5265,17.804500000000001,50.8733
211847.0,104.91200000000001,4936.9300000000003,4954.2399999999998,4990.3199999999997,-19.0306,14.4353,48.5428
211848.0,105.057,4714.8699999999999,4753.9899999999998,4775.5600000000004,-22.441600000000001,10.750999999999999,45.969700000000003
211849.0,102.705,-4598.9700000000003,-4553.25,-4539.6800000000003,-23.375800000000002,12.5139,42.989600000000003
211850.0,113.258,3983.1300000000001,4056.3699999999999,4048.6199999999999,-24.5061,10.078200000000001,44.211199999999998
211851.0,106.42700000000001,3044.1799999999998,3124.1700000000001,3090.9499999999998,-19.994499999999999,9.5467099999999991,40.861199999999997
211852.0,97.009399999999999,2468.9000000000001,2549.3299999999999,2495.5300000000002,-11.2227,-0.632301,36.495100000000001
211853.0,86.3446,1750.8599999999999,1818.8599999999999,1761.4300000000001,-0.37935400000000002,-9.0349900000000005,32.627699999999997
211854.0,110.818,1315.1900000000001,1335.23,1320.54,10.214700000000001,6.9648599999999998,61.911499999999997
211855.0,145.20400000000001,-1295.3399999999999,-1288.6199999999999,-1289.5899999999999,11.7493,15.5121,81.462699999999998
211856.0,97.023499999999999,915.07600000000002,925.92200000000003,910.27599999999995,-2.9471699999999998,12.602499999999999,53.908299999999997
211857.0,64.302000000000007,450.60000000000002,447.94299999999998,430.94200000000001,6.15489,1.81803,34.975900000000003
211858.0,67.201899999999995,253.857,235.19499999999999,226.31800000000001,5.2877299999999998,4.2033899999999997,35.526899999999998
211859.0,92.197100000000006,71.010900000000007,54.274799999999999,33.656999999999996,4.5998900000000003,8.1959800000000005,48.938899999999997
211860.0,108.018,61.575099999999999,-5.90855,16.1097,-8.3458199999999998,-50.618400000000001,8.5488099999999996
211861.0,103.872,-339.04000000000002,-289.09800000000001,-352.572,27.610099999999999,20.645800000000001,35.919400000000003
211862.0,105.16,326.36399999999998,355.08199999999999,312.98000000000002,29.855499999999999,25.261700000000001,41.158099999999997
211863.0,107.637,-1104.6199999999999,-1105.98,-1122.78,35.960500000000003,26.9773,41.697400000000002
211864.0,146.27199999999999,-1112.8699999999999,-1130.1700000000001,-1126.79,44.7699,32.063499999999998,63.366900000000001
211865.0,174.02099999999999,-1421.04,-1461.3099999999999,-1428.1400000000001,43.4587,39.185600000000001,78.793199999999999
211866.0,165.429,-2444.8000000000002,-2499.2800000000002,-2446.3699999999999,32.842799999999997,40.0244,74.026399999999995
211867.0,135.459,-5083.8500000000004,-5129.0299999999997,-5069.6300000000001,11.0055,33.179600000000001,62.711300000000001
211868.0,124.226,-3963.02,-4000.79,-3941.4000000000001,2.52725,30.377099999999999,57.545400000000001
211869.0,114.488,-4471.3400000000001,-4497.71,-4442.6800000000003,-4.4006499999999997,27.263999999999999,53.374499999999998
211870.0,105.822,-5403.6400000000003,-5415.5500000000002,-5366.6899999999996,-10.8933,23.6037,49.071300000000001
211871.0,100.505,-4934.6599999999999,-4929.0299999999997,-4890.5100000000002,-16.0623,19.6313,46.3262
211872.0,98.928399999999996,-4725.1800000000003,-4700.29,-4673.0900000000001,-20.796299999999999,15.935700000000001,43.553699999999999
211873.0,109.53400000000001,-4322.6899999999996,-4257.0200000000004,-4258.46,-25.728000000000002,10.3871,42.695700000000002
211874.0,113.84999999999999,-3776.5999999999999,-3699.2600000000002,-3711.1100000000001,-27.004799999999999,9.8992599999999999,41.934600000000003
211875.0,109.845,-3344.0999999999999,-3268.0100000000002,-3282.46,-24.4907,9.99648,41.098399999999998
211876.0,97.254400000000004,-2950.4699999999998,-2876.3400000000001,-2898.9000000000001,-18.444299999999998,3.7913299999999999,36.802100000000003
211877.0,90.896100000000004,-2263.5500000000002,-2190.25,-2225.1999999999998,-7.9315899999999999,-7.58352,35.907699999999998
211878.0,123.149,-1583.8599999999999,-1544.6099999999999,-1560.53,10.5029,0.26871400000000001,67.491399999999999
211879.0,99.733999999999995,-1138.51,-1124.8599999999999,-1140.9300000000001,-3.6850200000000002,12.938599999999999,55.313099999999999
211880.0,76.607100000000003,-864.62900000000002,-849.68200000000002,-868.37599999999998,-2.96136,5.3910900000000002,42.667999999999999
211881.0,63.976900000000001,-618.505,-616.899,-628.40200000000004,2.59504,-0.023663799999999999,36.315300000000001
211882.0,66.302599999999998,-401.238,-416.13799999999998,-422.62599999999998,4.1623000000000001,-0.57390099999999999,36.433900000000001
211883.0,77.139600000000002,-193.13999999999999,-220.416,-225.52600000000001,-0.97159200000000001,5.3735299999999997,40.626800000000003
211884.0,98.9666,-1603.0699999999999,-1554.03,-1624.54,36.535499999999999,8.61768,23.439499999999999
211885.0,127.136,-370.98599999999999,-303.20699999999999,-385.07900000000001,35.363,24.738199999999999,40.117600000000003
211886.0,129.90100000000001,3430.8699999999999,3383.48,3433.5799999999999,16.513100000000001,30.055499999999999,60.456699999999998
211887.0,74.494399999999999,2871.8200000000002,2941.3800000000001,2907.5500000000002,-11.362,-8.5947700000000005,20.8994
211888.0,100.553,751.24199999999996,726.928,720.38400000000001,19.213899999999999,18.3155,49.002800000000001
211889.0,72.367199999999997,523.20699999999999,502.97199999999998,488.94799999999998,5.4118199999999996,11.898899999999999,35.751600000000003
211890.0,78.579800000000006,1628.9200000000001,1704.72,1666.8800000000001,-15.8628,-0.53917599999999999,19.230399999999999
211891.0,94.106499999999997,5410.1300000000001,5375.0,5420.3699999999999,3.7303000000000002,20.465,44.192300000000003
211892.0,113.13800000000001,1370.9300000000001,1385.76,1353.27,31.8827,32.376399999999997,44.016500000000001
211893.0,115.586,892.55499999999995,936.93799999999999,881.42100000000005,32.504800000000003,28.146899999999999,41.7361
211894.0,129.50700000000001,635.59000000000003,625.48000000000002,624.88699999999994,36.063200000000002,36.317599999999999,54.175199999999997
211895.0,164.934,3093.1999999999998,3056.7199999999998,3085.1900000000001,42.257100000000001,38.745800000000003,73.574299999999994
211896.0,167.221,2807.3800000000001,2759.3400000000001,2800.6900000000001,36.656799999999997,37.884099999999997,76.583699999999993
211897.0,147.88200000000001,4453.0500000000002,4405.1800000000003,4451.9300000000003,25.694299999999998,34.248899999999999,68.629999999999995
211898.0,132.703,-3785.27,-3834.0100000000002,-3787.0599999999999,20.2333,33.550400000000003,59.759500000000003
211899.0,112.93300000000001,4234.1700000000001,4190.29,4240.7799999999997,9.5560600000000004,25.6128,52.450099999999999
211900.0,76.028000000000006,4157.3000000000002,4135.8699999999999,4170.9799999999996,-0.80094600000000005,15.018700000000001,37.2483
211901.0,59.552900000000001,4340.3999999999996,4336.7600000000002,4358.21,-4.7042000000000002,8.8934300000000004,30.809799999999999
211902.0,51.1158,4114.9899999999998,4133.6300000000001,4137.5200000000004,-7.8138100000000001,2.44814,25.668299999999999
211903.0,57.957700000000003,3586.9499999999998,3631.1399999999999,3615.5999999999999,-9.8732500000000005,-3.6495099999999998,22.500800000000002
211904.0,57.996499999999997,-3285.29,-3233.04,-3259.0900000000001,-10.058199999999999,-1.4604900000000001,18.319500000000001
211905.0,85.459900000000005,2166.2600000000002,2250.4299999999998,2205.9899999999998,-14.9841,-8.8723100000000006,18.931799999999999
211906.0,67.273700000000005,1117.8499999999999,1170.21,1145.9400000000001,-7.7080099999999998,11.792400000000001,24.967099999999999
211907.0,70.616799999999998,984.98500000000001,1020.13,997.577,5.3783500000000002,17.424199999999999,31.822500000000002
211908.0,80.123699999999999,957.404,972.96199999999999,950.86800000000005,19.253299999999999,16.963100000000001,36.779000000000003
211909.0,97.598699999999994,859.702,850.99300000000005,837.96699999999998,23.904900000000001,17.1175,46.808799999999998
211910.0,97.179299999999998,-831.30799999999999,-851.74099999999999,-855.11800000000005,19.367100000000001,14.0908,49.0747
211911.0,81.216200000000001,661.65300000000002,641.91099999999994,627.44000000000005,10.715400000000001,13.9871,39.915799999999997
211912.0,67.109399999999994,358.62599999999998,339.846,321.54000000000002,0.72880800000000001,9.8242899999999995,32.5625
211913.0,67.6541,197.00999999999999,177.10900000000001,155.00700000000001,-2.49993,10.748900000000001,31.023199999999999
211914.0,79.093199999999996,63.165599999999998,49.782800000000002,14.8584,-1.17231,8.4868000000000006,37.279699999999998
211915.0,90.848100000000002,16.930199999999999,-40.106499999999997,-2.65259,-4.8213200000000001,-43.203800000000001,4.6265499999999999
211916.0,101.75700000000001,-301.88999999999999,-254.303,-315.96100000000001,28.366099999999999,19.954699999999999,34.707799999999999
211917.0,100.92,-1559.24,-1529.95,-1573.3900000000001,26.457899999999999,24.940100000000001,39.775500000000001
211918.0,113.36499999999999,-771.64099999999996,-765.31100000000004,-789.41800000000001,35.622100000000003,29.062200000000001,44.879100000000001
211919.0,150.215,-1752.5,-1769.3199999999999,-1766.3599999999999,43.418500000000002,33.769199999999998,66.447699999999998
211920.0,163.46000000000001,-3087.3000000000002,-3130.0100000000002,-3098.4899999999998,39.167499999999997,37.709400000000002,73.889300000000006
211921.0,149.93299999999999,-3756.0500000000002,-3807.1300000000001,-3764.3299999999999,30.1401,37.234400000000001,66.684399999999997
211922.0,116.42700000000001,-3247.6500000000001,-3293.3200000000002,-3245.0300000000002,13.146000000000001,29.7407,52.189
211923.0,99.713899999999995,-4975.0799999999999,-5014.8400000000001,-4968.3299999999999,7.0072700000000001,25.729099999999999,44.399999999999999
211924.0,82.6053,-4803.8900000000003,-4833.0900000000001,-4793.9399999999996,2.2607900000000001,21.3184,37.427399999999999
211925.0,64.751499999999993,-3931.3499999999999,-3945.48,-3918.0599999999999,-1.93191,16.158799999999999,30.735399999999998
211926.0,49.8932,-4179.3400000000001,-4174.9799999999996,-4162.5200000000004,-5.4192900000000002,10.388400000000001,24.8264
211927.0,46.418700000000001,-3898.8800000000001,-3871.7600000000002,-3877.8600000000001,-8.0969599999999993,4.4120499999999998,20.753799999999998
211928.0,78.263000000000005,-2607.6199999999999,-2530.1300000000001,-2575.9699999999998,-13.632999999999999,-6.3689999999999998,17.2392
211929.0,86.945899999999995,-2053.79,-1967.6300000000001,-2020.1099999999999,-13.986599999999999,-5.15266,20.309000000000001
211930.0,79.266400000000004,-1443.1099999999999,-1374.26,-1408.8299999999999,-7.7962100000000003,5.1861499999999996,28.660900000000002
211931.0,76.251300000000001,-1066.51,-1023.72,-1035.47,1.10808,15.279299999999999,34.850200000000001
211932.0,80.501300000000001,-1060.1199999999999,-1038.79,-1040.1500000000001,12.6935,16.9938,39.5931
211933.0,94.792699999999996,-982.91999999999996,-985.42700000000002,-982.46799999999996,20.222100000000001,15.763500000000001,48.3245
211934.0,79.075100000000006,-739.10000000000002,-761.00199999999995,-776.005,11.0098,11.4017,38.582700000000003
211935.0,71.715500000000006,-621.42499999999995,-645.053,-661.83100000000002,6.6747199999999998,9.6748399999999997,34.119500000000002
211936.0,64.979100000000003,-449.77199999999999,-473.51299999999998,-491.83300000000003,1.6656599999999999,8.13354,29.896100000000001
211937.0,65.125900000000001,-287.25799999999998,-308.77300000000002,-330.31299999999999,-2.19577,7.9105999999999996,29.714500000000001
211938.0,68.522400000000005,-140.78399999999999,-161.08500000000001,-183.19499999999999,-5.9627299999999996,9.4868600000000001,31.458300000000001
211939.0,100.514,1296.6800000000001,1342.3199999999999,1269.1600000000001,40.697499999999998,8.4335000000000004,16.584399999999999
211940.0,120.851,552.68799999999999,620.95600000000002,544.65099999999995,35.875599999999999,21.859300000000001,36.681600000000003
211941.0,122.16200000000001,4493.1800000000003,4443.75,4485.7700000000004,19.398900000000001,30.107700000000001,54.600299999999997
211942.0,76.755600000000001,2378.0500000000002,2443.8400000000001,2379.6900000000001,0.849186,-23.528500000000001,-1.30487
211943.0,93.993600000000001,817.66200000000003,778.399,778.01900000000001,15.983499999999999,19.1892,42.454300000000003
211944.0,47.775500000000001,545.91700000000003,531.202,517.19399999999996,1.72533,2.0229400000000002,23.398199999999999
211945.0,68.131799999999998,393.69,455.34399999999999,403.85399999999998,-6.3974000000000002,-19.322299999999998,-6.3582400000000003
211946.0,84.821200000000005,3426.02,3385.1599999999999,3421.48,11.0547,20.9087,36.569099999999999
211947.0,109.59399999999999,192.43700000000001,204.29300000000001,173.98699999999999,25.9755,31.6797,45.7393
211948.0,109.11799999999999,-48.6235,-7.0825300000000002,-61.779800000000002,29.0928,26.9819,39.741599999999998
211949.0,130.02600000000001,1963.5599999999999,1949.22,1950.9000000000001,33.204099999999997,34.561199999999999,57.245699999999999
211950.0,157.78999999999999,1050.27,1011.28,1037.05,39.707099999999997,36.293300000000002,70.797399999999996
211951.0,154.14500000000001,2930.1100000000001,2882.7600000000002,2917.2399999999998,33.734400000000001,35.708399999999997,70.055499999999995
211952.0,138.523,2550.0900000000001,2500.8299999999999,2540.1599999999999,25.660599999999999,33.420400000000001,62.7866
211953.0,124.857,-3225.0599999999999,-3274.2199999999998,-3234.0100000000002,21.645299999999999,32.512700000000002,54.638199999999998
211954.0,104.86799999999999,4299.5,4252.6199999999999,4293.9499999999998,14.6938,26.087800000000001,45.970199999999998
211955.0,61.875500000000002,4662.5900000000001,4632.7799999999997,4657.8400000000001,8.5717199999999991,14.359999999999999,27.2044
211956.0,38.707700000000003,4122.5100000000002,4108.25,4117.8999999999996,6.5984600000000002,7.0743099999999997,18.785399999999999
211957.0,23.299900000000001,3635.8000000000002,3644.6999999999998,3632.2600000000002,4.7063699999999997,-2.4690099999999999,10.5639
211958.0,43.972499999999997,3085.3499999999999,3121.6900000000001,3084.54,3.8662999999999998,-12.6325,4.4563600000000001
211959.0,50.474899999999998,-2805.1500000000001,-2761.8099999999999,-2808.6500000000001,0.81212099999999998,-12.632300000000001,-2.8331300000000001
211960.0,94.045299999999997,1392.24,1472.5799999999999,1396.8199999999999,-5.5555399999999997,-28.679300000000001,-7.6922100000000002
211961.0,18.3428,114.688,133.88300000000001,124.52500000000001,1.39331,0.82140299999999999,4.1722900000000003
211962.0,47.625300000000003,200.31700000000001,188.649,199.81100000000001,11.0389,17.0946,17.276599999999998
211963.0,77.716999999999999,454.447,425.74099999999999,433.476,17.878299999999999,24.904,29.204000000000001
211964.0,93.523899999999998,718.50699999999995,685.44500000000005,682.27200000000005,16.847999999999999,24.624199999999998,40.282400000000003
211965.0,93.531099999999995,-768.88599999999997,-810.02700000000004,-803.19100000000003,15.195,21.846399999999999,41.495199999999997
211966.0,67.326499999999996,711.94600000000003,683.90899999999999,677.86699999999996,8.9778300000000009,8.0655900000000003,32.165799999999997
211967.0,43.2485,374.43599999999998,372.29500000000002,346.64999999999998,-4.0214400000000001,0.41847800000000002,19.185300000000002
211968.0,50.134399999999999,215.22,210.05500000000001,182.74700000000001,-5.66371,2.7564299999999999,22.218499999999999
211969.0,66.249399999999994,61.522100000000002,58.547600000000003,28.405200000000001,-5.9009600000000004,1.65371,33.011299999999999
211970.0,73.548000000000002,10.8241,-52.090400000000002,-14.5129,-4.8730099999999998,-27.524699999999999,4.4391400000000001
211971.0,96.721900000000005,-304.99400000000003,-255.726,-316.55799999999999,27.104399999999998,18.599799999999998,31.5303
211972.0,96.817099999999996,408.22399999999999,436.03899999999999,391.666,22.9558,24.060600000000001,38.933799999999998
211973.0,114.598,-973.48199999999997,-969.83299999999997,-991.36300000000006,32.093299999999999,27.950600000000001,49.331299999999999
211974.0,145.42599999999999,-1108.4200000000001,-1131.21,-1124.46,39.565600000000003,31.8644,65.816000000000003
211975.0,151.35400000000001,-1386.5,-1431.0999999999999,-1403.01,35.883899999999997,35.405099999999997,67.722200000000001
211976.0,139.35599999999999,-2172.7399999999998,-2222.0700000000002,-2186.23,28.273900000000001,34.943800000000003,61.667400000000001
211977.0,109.45699999999999,-4537.2600000000002,-4584.96,-4543.2200000000003,16.630199999999999,29.311800000000002,46.716700000000003
211978.0,92.200999999999993,-3297.4699999999998,-3341.3499999999999,-3301.3400000000001,12.5886,25.3294,37.991199999999999
211979.0,72.809799999999996,-3669.23,-3706.0999999999999,-3672.4699999999998,9.6355900000000005,20.393799999999999,29.011099999999999
211980.0,50.209400000000002,-4441.04,-4465.6000000000004,-4444.8800000000001,7.40829,14.203200000000001,20.227499999999999
211981.0,25.593599999999999,-3768.1100000000001,-3776.1199999999999,-3772.4000000000001,5.1479799999999996,6.9352499999999999,11.2988
211982.0,20.395399999999999,-3290.0900000000001,-3275.1599999999999,-3294.5599999999999,3.8572700000000002,-2.28112,3.9152900000000002
211983.0,86.785799999999995,-2058.2399999999998,-1985.0899999999999,-2061.4099999999999,-3.68764,-23.596900000000002,-8.7037600000000008
211984.0,90.817300000000003,-913.81500000000005,-835.34799999999996,-916.28700000000003,-0.74649900000000002,-24.624199999999998,-4.8249599999999999
211985.0,54.669899999999998,-126.319,-77.162499999999994,-122.931,7.3840399999999997,-10.0497,9.3262900000000002
211986.0,47.229500000000002,-7.1887499999999998,-0.54948799999999998,-2.2336800000000001,12.6768,10.3819,21.520800000000001
211987.0,75.328800000000001,-202.578,-225.16900000000001,-207.51900000000001,15.604200000000001,23.607500000000002,30.815999999999999
211988.0,90.979299999999995,-547.98900000000003,-582.99199999999996,-569.29399999999998,13.8604,26.91,39.137
211989.0,66.704400000000007,-750.90700000000004,-783.03999999999996,-786.50699999999995,10.111700000000001,9.9659300000000002,29.937799999999999
211990.0,47.735599999999998,-616.43399999999997,-636.38699999999994,-652.38900000000001,4.97445,1.4567000000000001,20.204000000000001
211991.0,41.475900000000003,-467.35199999999998,-474.73700000000002,-501.45800000000003,-1.1105100000000001,-0.86049399999999998,15.794700000000001
211992.0,46.819099999999999,-304.303,-309.517,-335.19799999999998,-3.9164400000000001,1.81931,20.940300000000001
211993.0,57.559199999999997,-157.79499999999999,-165.654,-185.72300000000001,-8.6544000000000008,3.6905399999999999,28.432700000000001
211994.0,101.20699999999999,-1588.6700000000001,-1540.22,-1613.95,42.555700000000002,7.8642500000000002,11.744300000000001
211995.0,113.748,-390.02600000000001,-323.93900000000002,-398.54599999999999,34.586300000000001,19.517499999999998,32.681100000000001
211996.0,120.29600000000001,3002.9000000000001,2952.3800000000001,2989.6199999999999,21.843699999999998,31.150600000000001,51.868099999999998
211997.0,87.487700000000004,2367.3499999999999,2424.1199999999999,2350.5999999999999,5.1630500000000001,-30.197299999999998,-11.3127
211998.0,104.215,668.11500000000001,611.19200000000001,628.41200000000003,7.26769,26.692499999999999,44.752299999999998
211999.0,37.643700000000003,815.99000000000001,798.54600000000005,789.69399999999996,1.83186,1.8112999999999999,16.932200000000002
212000.0,83.166799999999995,493.18400000000003,537.68700000000001,483.80900000000003,-1.43516,-33.654600000000002,-18.502700000000001
212001.0,90.120099999999994,5036.1099999999997,4991.1300000000001,5024.3999999999996,16.835899999999999,24.645900000000001,35.6646
212002.0,101.13,1231.9400000000001,1235.1900000000001,1211.4200000000001,25.281600000000001,28.4407,42.3675
212003.0,98.804299999999998,745.73099999999999,782.03300000000002,730.31700000000001,26.8066,24.8796,34.806800000000003
212004.0,125.70999999999999,557.16499999999996,534.68899999999996,537.94100000000003,34.203800000000001,31.455400000000001,54.413200000000003
212005.0,148.92500000000001,2938.6599999999999,2897.04,2918.7600000000002,38.452500000000001,34.176299999999998,65.671499999999995
212006.0,143.655,2507.79,2460.2600000000002,2489.6700000000001,32.158200000000001,33.870800000000003,64.205399999999997
212007.0,132.46299999999999,4060.04,4010.0999999999999,4044.79,26.191700000000001,32.796100000000003,58.585000000000001
212008.0,120.959,-3383.8099999999999,-3433.25,-3397.6700000000001,22.947399999999998,32.0124,51.722999999999999
212009.0,106.733,3816.0599999999999,3766.6999999999998,3803.8600000000001,19.217500000000001,28.600899999999999,44.149500000000003
212010.0,69.765699999999995,3849.1999999999998,3813.3099999999999,3837.1399999999999,15.0785,18.629999999999999,26.729600000000001
212011.0,47.694099999999999,4094.6599999999999,4071.71,4081.2199999999998,13.8223,11.0482,17.665600000000001
212012.0,28.9512,3895.4499999999998,3895.0700000000002,3880.8899999999999,11.990600000000001,-0.37331900000000001,8.1623999999999999
212013.0,47.614699999999999,3303.96,3330.27,3288.9400000000001,10.449999999999999,-14.4519,-0.28732099999999999
212014.0,56.071800000000003,-2889.3099999999999,-2855.4400000000001,-2903.4000000000001,2.9990399999999999,-17.5883,-11.0487
212015.0,108.001,1308.8800000000001,1377.4100000000001,1293.4100000000001,-1.02142,-38.436,-20.267099999999999
212016.0,37.563800000000001,-118.456,-115.95,-120.369,2.3550900000000001,-19.578800000000001,-8.7499300000000009
212017.0,26.1614,-154.17500000000001,-179.821,-158.321,3.35311,-5.2234400000000001,0.27747300000000003
212018.0,41.305999999999997,109.373,70.284400000000005,91.257800000000003,3.1215299999999999,6.8520099999999999,11.374000000000001
212019.0,69.150999999999996,372.95299999999997,330.142,339.29199999999997,3.9310499999999999,18.010899999999999,27.310099999999998
212020.0,104.729,-384.06799999999998,-435.95600000000002,-418.14299999999997,8.9619400000000002,27.831199999999999,45.891599999999997
212021.0,86.061000000000007,883.98500000000001,832.70899999999995,846.85299999999995,7.58324,20.533100000000001,35.893999999999998
212022.0,33.7395,544.26199999999994,551.97500000000002,521.64800000000002,0.98858599999999996,-10.889900000000001,3.3835500000000001
212023.0,39.653599999999997,266.05599999999998,273.50900000000001,237.45400000000001,-1.5511699999999999,-11.8245,4.4339000000000004
212024.0,48.001300000000001,79.132800000000003,79.400800000000004,43.667700000000004,-4.6437999999999997,-9.4876799999999992,15.2974
212025.0,81.530699999999996,48.0732,-25.4574,14.0413,-0.13142799999999999,-29.3109,1.55704
212026.0,90.528300000000002,-190.64699999999999,-140.68199999999999,-203.88800000000001,24.578299999999999,17.492100000000001,26.656600000000001
212027.0,89.865499999999997,-1387.95,-1365.2,-1407.77,21.992699999999999,21.707699999999999,35.822699999999998
212028.0,110.777,-674.50999999999999,-679.52999999999997,-696.18700000000001,32.314,25.014399999999998,47.8733
212029.0,137.214,-1691.1199999999999,-1718.97,-1712.22,38.136400000000002,29.643599999999999,61.087400000000002
212030.0,141.029,-2895.1799999999998,-2939.5900000000001,-2915.6999999999998,33.912300000000002,33.421199999999999,62.198099999999997
212031.0,131.566,-3416.2800000000002,-3464.7399999999998,-3434.0,27.956199999999999,33.1477,57.344299999999997
212032.0,109.371,-2832.29,-2881.7399999999998,-2843.5599999999999,19.7654,30.160599999999999,44.891800000000003
212033.0,95.584800000000001,-4582.0,-4629.6199999999999,-4591.7700000000004,17.081499999999998,27.393899999999999,37.021999999999998
212034.0,79.173199999999994,-4457.0,-4500.0100000000002,-4466.1700000000001,14.7681,23.196200000000001,28.6371
212035.0,58.486400000000003,-3639.5,-3672.9899999999998,-3649.29,12.8703,17.042999999999999,19.689299999999999
212036.0,33.912599999999998,-3927.1599999999999,-3946.6199999999999,-3938.5300000000002,10.386799999999999,9.1010399999999994,9.8516100000000009
212037.0,21.447800000000001,-3633.0300000000002,-3630.1999999999998,-3646.23,8.56067,-2.5490900000000001,0.61379099999999998
212038.0,98.847099999999998,-1891.1700000000001,-1827.3,-1908.48,0.049439700000000003,-32.25,-19.7135
212039.0,100.7,-907.89200000000005,-844.81100000000004,-926.27800000000002,5.3158899999999996,-35.716500000000003,-15.8293
212040.0,64.075000000000003,-26.5288,3.6008,-40.871099999999998,11.7256,-26.406400000000001,-4.30619
212041.0,28.082699999999999,423.46699999999998,419.75900000000001,415.25799999999998,9.9323899999999998,-11.186,4.7119
212042.0,35.759300000000003,286.88400000000001,260.80700000000002,275.024,5.6167800000000003,3.9943399999999998,14.4316
212043.0,66.026899999999998,-54.317999999999998,-91.808700000000002,-77.394400000000005,3.5792899999999999,17.036100000000001,28.151399999999999
212044.0,88.469899999999996,-703.58100000000002,-753.27700000000004,-738.42899999999997,8.3292900000000003,23.3642,36.6462
212045.0,39.785899999999998,-824.85500000000002,-852.71900000000005,-856.16999999999996,1.3930499999999999,8.3162299999999991,12.7165
212046.0,31.034600000000001,-673.77099999999996,-678.029,-704.17999999999995,-0.39665299999999998,-6.8218300000000003,-1.79877
212047.0,37.429900000000004,-403.44,-396.53699999999998,-431.48399999999998,-0.52523399999999998,-10.561199999999999,3.55166
212048.0,43.453200000000002,-144.75399999999999,-146.16800000000001,-178.52699999999999,-4.4082999999999997,-8.3148900000000001,13.2615
212049.0,99.7714,1264.3099999999999,1315.73,1241.96,42.312100000000001,6.8745599999999998,7.04453
212050.0,108.995,533.41499999999996,599.87,525.35199999999998,31.7393,18.417899999999999,30.675999999999998
212051.0,118.41,4061.79,4011.79,4046.0,23.2148,31.383400000000002,49.967700000000001
212052.0,71.372200000000007,2764.4400000000001,2807.0999999999999,2745.0799999999999,5.3966099999999999,-24.7059,-7.1810299999999998
212053.0,96.8245,575.94200000000001,504.97800000000001,528.43200000000002,6.7500299999999998,28.7729,30.7302
212054.0,65.085400000000007,1274.8099999999999,1238.01,1241.71,2.13218,18.745799999999999,25.404699999999998
212055.0,75.600800000000007,861.53599999999994,888.21799999999996,839.649,2.6097000000000001,-31.871200000000002,-17.0564
212056.0,96.258600000000001,3151.9099999999999,3107.0799999999999,3139.8499999999999,18.974499999999999,27.614899999999999,37.787300000000002
212057.0,93.161699999999996,30.926600000000001,32.4512,6.6865199999999998,26.762599999999999,27.161799999999999,35.072499999999998
212058.0,90.096999999999994,-157.57300000000001,-122.251,-174.86799999999999,27.355699999999999,22.7437,26.851500000000001
212059.0,122.648,1779.8499999999999,1754.8399999999999,1755.3199999999999,34.250399999999999,30.2761,52.151800000000001
212060.0,140.965,812.82399999999996,770.35699999999997,788.57399999999996,36.698999999999998,31.9208,61.677
212061.0,133.51900000000001,2583.6999999999998,2537.0999999999999,2562.04,30.6311,31.667300000000001,58.802599999999998
212062.0,126.399,2125.3099999999999,2076.0900000000001,2106.6700000000001,26.197299999999998,31.750299999999999,54.894599999999997
212063.0,117.084,-2805.8000000000002,-2854.6799999999998,-2822.9699999999998,23.845500000000001,31.047000000000001,49.214599999999997
212064.0,109.13200000000001,3922.9000000000001,3873.77,3909.1900000000001,21.135400000000001,30.2453,44.335900000000002
212065.0,79.724900000000005,4526.6199999999999,4490.4799999999996,4515.8100000000004,17.129799999999999,22.962299999999999,30.885999999999999
212066.0,59.4636,4152.3000000000002,4127.75,4141.4200000000001,14.9922,16.208100000000002,23.232700000000001
212067.0,35.911499999999997,3832.8699999999999,3828.21,3820.1700000000001,12.4063,5.1608099999999997,14.4236
212068.0,38.875500000000002,3416.3899999999999,3433.7199999999998,3399.9499999999998,10.4064,-8.6559799999999996,5.9445899999999998
212069.0,39.985100000000003,-3129.6500000000001,-3104.25,-3139.71,1.67666,-13.0763,-5.0072099999999997
212070.0,91.249899999999997,1814.53,1864.5799999999999,1794.0999999999999,1.5754600000000001,-34.014800000000001,-17.353999999999999
212071.0,49.894399999999997,493.01100000000002,486.39999999999998,474.80599999999998,6.5812499999999998,-24.8871,-9.0669000000000004
212072.0,43.305500000000002,236.84399999999999,216.10300000000001,224.935,1.56413,-21.158100000000001,-8.1658200000000001
212073.0,34.841900000000003,111.747,83.764899999999997,96.749300000000005,-2.5499800000000001,-13.344900000000001,-4.89663
212074.0,40.537500000000001,252.13399999999999,209.351,218.38800000000001,1.43072,2.9186000000000001,5.3582599999999996
212075.0,89.136600000000001,-158.15100000000001,-210.89099999999999,-199.75800000000001,11.434900000000001,21.820599999999999,35.619900000000001
212076.0,127.72,1000.95,911.16800000000001,947.88800000000003,12.5814,40.9437,39.564399999999999
212077.0,38.665500000000002,1128.72,1142.49,1108.1600000000001,1.2156499999999999,-12.058999999999999,7.2808299999999999
212078.0,59.211399999999998,639.36000000000001,671.55600000000004,623.85199999999998,-0.90901900000000002,-23.991700000000002,0.33746799999999999
212079.0,55.0428,159.14400000000001,186.602,141.17099999999999,-5.944,-20.830200000000001,4.1454399999999998
212080.0,77.312399999999997,71.819999999999993,23.068200000000001,62.8367,2.7310500000000002,-35.491900000000001,-7.2185100000000002
212081.0,86.720600000000005,-225.40600000000001,-173.72999999999999,-240.238,21.8492,17.000299999999999,22.835799999999999
212082.0,83.378699999999995,570.08799999999997,595.28599999999994,548.17499999999995,23.405200000000001,20.3797,28.256599999999999
212083.0,109.20399999999999,-770.41399999999999,-774.47299999999996,-796.93700000000001,33.918599999999998,24.575900000000001,44.906999999999996
212084.0,131.75299999999999,-909.51999999999998,-938.39400000000001,-933.697,36.8123,28.677099999999999,58.0411
212085.0,131.20699999999999,-1119.5999999999999,-1163.9400000000001,-1143.25,32.128,31.162299999999998,56.947099999999999
212086.0,123.824,-1797.5599999999999,-1844.75,-1818.8199999999999,27.413399999999999,31.0715,53.247399999999999
212087.0,109.508,-4141.3800000000001,-4190.6700000000001,-4155.2600000000002,21.373899999999999,30.507899999999999,44.312899999999999
212088.0,99.599699999999999,-2976.8800000000001,-3025.0500000000002,-2988.27,18.788799999999998,29.033200000000001,38.430900000000001
212089.0,86.774500000000003,-3463.9299999999998,-3507.7199999999998,-3473.3000000000002,16.447299999999998,26.086200000000002,32.048099999999998
212090.0,68.793599999999998,-4379.6599999999999,-4414.3699999999999,-4387.3400000000001,13.683,20.973299999999998,24.859000000000002
212091.0,45.296700000000001,-3863.96,-3885.9400000000001,-3871.0999999999999,9.9084400000000006,13.642899999999999,16.549199999999999
212092.0,20.720199999999998,-3528.3499999999999,-3530.2399999999998,-3536.8600000000001,7.1180899999999996,2.2692299999999999,8.2028199999999991
212093.0,79.0291,-2375.29,-2326.0500000000002,-2388.6199999999999,0.74094899999999997,-27.8001,-14.9002
212094.0,83.837500000000006,-1242.8299999999999,-1197.01,-1260.6500000000001,6.6401899999999996,-32.408999999999999,-13.055099999999999
212095.0,61.203299999999999,-469.93200000000002,-455.81400000000002,-491.86000000000001,13.491400000000001,-26.682099999999998,-4.9759500000000001
212096.0,44.227899999999998,-184.89500000000001,-190.09399999999999,-202.12,7.7538799999999997,-22.232700000000001,-4.4218000000000002
212097.0,31.927600000000002,86.983599999999996,71.949700000000007,71.125500000000002,1.15842,-16.030899999999999,-1.3284199999999999
212098.0,31.7836,132.62,105.63,107.88500000000001,2.7180300000000002,-1.8996500000000001,10.0753
212099.0,126.777,-578.245,-656.10599999999999,-628.81500000000005,16.284199999999998,39.593299999999999,44.316499999999998
212100.0,77.954899999999995,-1019.0599999999999,-1073.1500000000001,-1059.95,-1.59548,28.9557,19.736699999999999
212101.0,31.637599999999999,-1194.72,-1209.8299999999999,-1227.0599999999999,-7.3470800000000001,1.1500999999999999,-4.0606999999999998
212102.0,52.546599999999998,-955.96100000000001,-935.10900000000004,-979.25199999999995,-4.00373,-19.9861,-4.1520900000000003
212103.0,58.436900000000001,-417.12200000000001,-386.827,-436.553,-3.1467000000000001,-21.589300000000001,5.8567799999999997
212104.0,100.855,-1524.76,-1470.0699999999999,-1542.1400000000001,44.059899999999999,5.3784700000000001,-2.3904299999999998
212105.0,103.878,-365.95499999999998,-299.63900000000001,-373.83100000000002,29.4346,17.743400000000001,27.4754
212106.0,113.47199999999999,2515.04,2467.9200000000001,2498.3699999999999,23.061800000000002,30.1767,47.733699999999999
212107.0,41.803699999999999,2885.2600000000002,2907.5999999999999,2866.9200000000001,7.0460500000000001,-10.222300000000001,3.6468099999999999
212108.0,67.999499999999998,675.34900000000005,619.12099999999998,638.46000000000004,9.1470900000000004,17.9069,17.913599999999999
212109.0,90.191999999999993,1358.79,1316.76,1323.73,-3.5463100000000001,27.802700000000002,37.662199999999999
212110.0,45.084699999999998,1743.1600000000001,1758.5599999999999,1723.23,7.70871,-16.5717,-5.4530000000000003
212111.0,96.341200000000001,4620.1899999999996,4579.1400000000003,4610.1999999999998,18.462399999999999,27.8169,39.0
212112.0,86.946700000000007,982.73400000000004,989.63800000000003,960.02700000000004,21.8444,26.599799999999998,33.093299999999999
212113.0,86.416300000000007,634.43200000000002,673.77700000000004,616.49900000000002,21.0275,21.661000000000001,26.823499999999999
212114.0,117.23,311.411,286.11599999999999,284.291,32.766800000000003,28.783899999999999,49.487299999999998
212115.0,132.892,2652.6900000000001,2609.6900000000001,2624.9899999999998,35.284700000000001,29.4815,57.424399999999999
212116.0,123.96599999999999,2117.1999999999998,2072.3800000000001,2092.8800000000001,28.9331,29.289400000000001,54.074800000000003
212117.0,118.962,3596.8499999999999,3550.0799999999999,3576.54,25.595600000000001,29.866399999999999,51.1873
212118.0,111.389,-2924.3000000000002,-2970.5,-2943.4099999999999,23.825099999999999,29.4209,46.516300000000001
212119.0,106.657,3344.8899999999999,3298.9899999999998,3331.5999999999999,20.868300000000001,29.704499999999999,43.774000000000001
212120.0,82.959900000000005,3520.9299999999998,3488.0700000000002,3513.2800000000002,16.342400000000001,24.246300000000002,33.8155
212121.0,66.170000000000002,3883.3099999999999,3860.1399999999999,3876.25,13.689399999999999,19.003299999999999,27.749500000000001
212122.0,45.2074,3848.3200000000002,3840.0599999999999,3839.3200000000002,11.1999,10.547599999999999,20.483899999999998
212123.0,34.6282,3490.9099999999999,3497.48,3476.7399999999998,9.9734499999999997,0.77547299999999997,13.686299999999999
212124.0,22.1829,-3184.8499999999999,-3170.5700000000002,-3190.4099999999999,3.3239899999999998,-2.0116299999999998,6.6450500000000003
212125.0,52.3095,2239.0500000000002,2266.4000000000001,2219.3000000000002,5.9463800000000004,-17.2195,-4.5728099999999996
212126.0,36.401600000000002,1241.0899999999999,1235.3900000000001,1217.99,11.6394,-12.6692,0.94455999999999996
212127.0,30.3643,998.38900000000001,987.55399999999997,979.46400000000006,5.5486500000000003,-13.6518,0.060629000000000002
212128.0,25.873699999999999,793.29600000000005,784.11500000000001,782.952,-0.71984199999999998,-13.675700000000001,-1.8693900000000001
212129.0,22.8687,606.41200000000003,584.27300000000002,587.923,1.83083,-5.4777899999999997,0.27651799999999999
212130.0,60.265700000000002,-392.49900000000002,-424.75400000000002,-417.17500000000001,12.460000000000001,10.5045,25.702100000000002
212131.0,123.89400000000001,1093.77,1007.21,1045.8599999999999,11.289199999999999,38.083100000000002,40.725700000000003
212132.0,57.486400000000003,1268.1400000000001,1290.8800000000001,1257.74,-8.4775899999999993,-2.05891,27.171500000000002
212133.0,65.835499999999996,805.16800000000001,852.70299999999997,802.43399999999997,-2.3940100000000002,-21.879000000000001,12.7014
212134.0,68.755700000000004,210.08699999999999,261.82999999999998,210.77199999999999,-4.0952000000000002,-24.764900000000001,8.0582200000000004
212135.0,59.209600000000002,22.011299999999999,-2.9963099999999998,42.515700000000002,0.28342899999999999,-21.873000000000001,-13.059699999999999
212136.0,85.379400000000004,-153.25999999999999,-98.332499999999996,-167.80199999999999,17.737200000000001,16.872599999999998,22.094200000000001
212137.0,81.284999999999997,-1135.6500000000001,-1101.98,-1156.0,18.1662,20.305299999999999,26.756599999999999
212138.0,106.767,-342.33300000000003,-339.846,-369.298,31.939,24.396000000000001,43.790999999999997
212139.0,125.27,-1420.5599999999999,-1450.9300000000001,-1449.1600000000001,36.036999999999999,27.076499999999999,53.931699999999999
212140.0,122.455,-2577.5599999999999,-2621.1999999999998,-2604.1999999999998,30.382899999999999,29.032900000000001,52.428600000000003
212141.0,115.875,-3002.46,-3047.6100000000001,-3025.8000000000002,26.659400000000002,28.750900000000001,49.279200000000003
212142.0,106.124,-2367.29,-2413.7600000000002,-2382.4400000000001,21.351600000000001,29.528400000000001,43.180999999999997
212143.0,98.684399999999997,-4150.1599999999999,-4194.9700000000003,-4161.4099999999999,18.619900000000001,28.8294,39.048499999999997
212144.0,88.505600000000001,-4095.5900000000001,-4135.0799999999999,-4103.0600000000004,15.9626,26.818999999999999,34.596400000000003
212145.0,73.709299999999999,-3375.6599999999999,-3406.1599999999999,-3380.0999999999999,12.6875,22.910399999999999,29.218900000000001
212146.0,55.179699999999997,-3790.4200000000001,-3809.9899999999998,-3793.0900000000001,8.8572299999999995,17.293700000000001,22.907499999999999
212147.0,34.755499999999998,-3674.4699999999998,-3678.6700000000001,-3677.9400000000001,6.5522799999999997,8.8431200000000008,16.6282
212148.0,40.255499999999998,-2542.54,-2513.9200000000001,-2550.48,3.80145,-12.3786,-1.6763300000000001
212149.0,47.043700000000001,-1987.5999999999999,-1960.3800000000001,-1998.5799999999999,8.3044600000000006,-16.619700000000002,-2.4083199999999998
212150.0,39.458199999999998,-1397.1800000000001,-1389.6800000000001,-1413.1300000000001,13.461499999999999,-13.3322,4.0665699999999996
212151.0,32.186100000000003,-1011.86,-1014.45,-1030.05,8.1033899999999992,-13.322900000000001,2.29908
212152.0,28.230899999999998,-822.18600000000004,-826.70600000000002,-836.85199999999998,2.0497700000000001,-14.307700000000001,-0.58015399999999995
212153.0,20.682500000000001,-538.01199999999994,-546.89099999999996,-549.89200000000005,3.1978599999999999,-8.50732,4.6714099999999998
212154.0,121.526,-669.97500000000002,-739.32100000000003,-713.89700000000005,16.435300000000002,34.470599999999997,47.262900000000002
212155.0,97.693600000000004,-1140.5799999999999,-1193.75,-1185.1600000000001,-6.1106400000000001,32.883400000000002,35.326500000000003
212156.0,54.580800000000004,-1316.24,-1330.01,-1349.2,-18.756599999999999,12.196899999999999,14.7776
212157.0,48.796300000000002,-1131.47,-1104.9400000000001,-1147.27,-9.9106199999999998,-14.586399999999999,5.0010199999999996
212158.0,69.576599999999999,-615.77499999999998,-563.99900000000002,-616.96600000000001,-4.2247700000000004,-24.4587,9.1085799999999999
212159.0,106.28400000000001,1318.5599999999999,1379.26,1304.6400000000001,44.423200000000001,4.8050899999999999,-13.953099999999999
212160.0,96.646100000000004,487.57400000000001,554.25900000000001,482.51499999999999,25.118600000000001,17.178999999999998,24.169
212161.0,105.538,3499.6700000000001,3456.3899999999999,3482.0799999999999,22.3414,27.764800000000001,44.3733
212162.0,37.760100000000001,3048.8499999999999,3047.8099999999999,3026.4099999999999,13.5223,4.9039799999999998,10.389099999999999
212163.0,50.1783,1235.27,1196.3299999999999,1201.3800000000001,14.916700000000001,4.7497600000000002,12.069599999999999
212164.0,80.818200000000004,1183.6600000000001,1148.45,1139.4100000000001,-1.58267,15.8377,37.109499999999997
212165.0,38.951799999999999,2207.1999999999998,2207.7399999999998,2180.52,15.842599999999999,-0.67183099999999996,3.47587
212166.0,91.369100000000003,2541.3299999999999,2504.4499999999998,2530.9899999999998,18.213100000000001,26.200600000000001,37.450899999999997
212167.0,75.361199999999997,-166.94300000000001,-162.62799999999999,-187.53100000000001,15.6684,22.162500000000001,31.2942
212168.0,78.579099999999997,-257.56400000000002,-221.66800000000001,-275.08499999999998,14.853,18.486499999999999,27.465900000000001
212169.0,108.065,1486.6300000000001,1461.6700000000001,1458.8399999999999,28.479299999999999,26.058,46.569600000000001
212170.0,124.75,458.863,416.851,429.62400000000002,32.840000000000003,27.322800000000001,53.839700000000001
212171.0,114.913,2154.96,2112.3400000000001,2129.5300000000002,27.046900000000001,26.506699999999999,50.078000000000003
212172.0,110.304,1619.6600000000001,1576.3099999999999,1598.25,24.532,27.347100000000001,47.288899999999998
212173.0,103.768,-2293.2399999999998,-2335.7800000000002,-2313.6700000000001,23.247599999999998,27.1098,43.141800000000003
212174.0,99.973799999999997,3326.4899999999998,3285.04,3312.7399999999998,20.293500000000002,27.581299999999999,41.390099999999997
212175.0,80.662400000000005,3926.4499999999998,3895.52,3917.8000000000002,16.4864,23.548400000000001,32.982599999999998
212176.0,67.997600000000006,3608.0,3583.27,3598.9299999999998,14.5397,20.026700000000002,27.790800000000001
212177.0,53.247900000000001,3421.1599999999999,3405.0100000000002,3409.1799999999998,13.2667,14.8565,21.865600000000001
212178.0,43.434899999999999,3263.0,3254.23,3245.3000000000002,13.4536,9.6310599999999997,16.636700000000001
212179.0,34.559699999999999,-3116.46,-3118.7800000000002,-3127.2199999999998,10.308299999999999,9.1600300000000008,13.2614
212180.0,37.878300000000003,2681.48,2683.0,2655.9400000000001,14.7317,1.65452,5.2431099999999997
212181.0,41.618099999999998,1979.5999999999999,1973.23,1948.79,16.6326,-0.78453799999999996,5.9649700000000001
212182.0,36.412700000000001,1646.52,1634.8699999999999,1615.8099999999999,12.499599999999999,0.69779899999999995,6.6940499999999998
212183.0,28.325399999999998,1383.02,1369.26,1359.4100000000001,9.7472300000000001,1.51474,5.4360999999999997
212184.0,29.020700000000001,1284.6300000000001,1267.24,1264.22,11.904,0.57322099999999998,4.1594300000000004
212185.0,44.658900000000003,-1202.9300000000001,-1229.71,-1220.26,13.187799999999999,4.7882800000000003,16.840499999999999
212186.0,82.959500000000006,1209.8299999999999,1153.54,1162.79,10.1614,15.1265,32.417000000000002
212187.0,70.418999999999997,1005.3200000000001,1021.72,989.423,-8.9983199999999997,6.7009600000000002,35.584099999999999
212188.0,59.844200000000001,644.20000000000005,684.07399999999996,638.27300000000002,-0.124226,-8.9270300000000002,22.217199999999998
212189.0,68.153899999999993,151.071,204.98699999999999,152.30099999999999,3.3470800000000001,-18.4724,15.763400000000001
212190.0,55.4681,19.386399999999998,-29.590800000000002,18.3292,0.14150799999999999,-6.6547200000000002,-14.091100000000001
212191.0,84.2851,-152.672,-95.431799999999996,-166.17400000000001,13.602,16.134899999999998,22.6296
212192.0,71.292100000000005,723.44899999999996,754.01800000000003,706.14499999999998,12.693899999999999,17.011500000000002,25.613600000000002
212193.0,96.517099999999999,-496.642,-493.512,-522.29700000000003,26.277799999999999,20.98,41.533900000000003
212194.0,117.31399999999999,-567.77599999999995,-595.85699999999997,-598.95799999999997,33.787799999999997,25.045000000000002,50.235100000000003
212195.0,114.858,-741.322,-784.27499999999998,-770.51800000000003,28.866,26.822700000000001,48.6175
212196.0,107.753,-1349.3399999999999,-1391.25,-1374.0699999999999,25.679600000000001,26.4072,45.494100000000003
212197.0,99.608599999999996,-3584.48,-3626.5,-3600.8499999999999,21.103400000000001,27.5442,40.676000000000002
212198.0,93.505600000000001,-2396.54,-2436.0300000000002,-2408.52,18.6723,27.316800000000001,37.544199999999996
212199.0,85.123099999999994,-2878.3499999999999,-2912.8699999999999,-2886.54,16.375800000000002,25.877600000000001,33.944499999999998
212200.0,73.636899999999997,-3817.27,-3844.7600000000002,-3823.0100000000002,13.770799999999999,23.145199999999999,29.526700000000002
212201.0,60.643799999999999,-3378.4899999999998,-3398.7399999999998,-3383.5799999999999,11.353899999999999,19.593699999999998,24.537800000000001
212202.0,47.492699999999999,-3207.4499999999998,-3218.9000000000001,-3214.5599999999999,10.6585,14.68,19.731300000000001
212203.0,30.692699999999999,-2883.5799999999999,-2880.1599999999999,-2897.8699999999999,12.1067,4.40578,7.7317499999999999
212204.0,32.363100000000003,-2405.3499999999999,-2402.75,-2423.2199999999998,14.053800000000001,1.21252,5.0938699999999999
212205.0,36.233800000000002,-2071.6100000000001,-2073.2199999999998,-2093.1199999999999,15.411300000000001,-0.27049600000000001,7.5164999999999997
212206.0,35.768900000000002,-1829.3299999999999,-1833.1300000000001,-1854.52,13.0718,-1.0879099999999999,8.3659400000000002
212207.0,30.2164,-1476.1500000000001,-1485.9100000000001,-1500.1500000000001,10.861599999999999,-0.0781829,6.3803000000000001
212208.0,26.6434,-1286.04,-1302.01,-1303.3399999999999,10.5855,1.13018,5.5356300000000003
212209.0,79.746099999999998,-1121.05,-1165.52,-1155.1500000000001,10.089,12.6456,36.290199999999999
212210.0,83.157700000000006,-1138.5699999999999,-1174.47,-1184.8800000000001,-3.2970100000000002,14.8371,38.518599999999999
212211.0,69.190299999999993,-1115.3900000000001,-1122.3499999999999,-1154.97,-14.338800000000001,9.62439,29.172799999999999
212212.0,46.938600000000001,-915.74300000000005,-897.96199999999999,-940.53700000000003,-6.44693,-2.5679500000000002,15.1328
212213.0,57.502600000000001,-543.73699999999997,-501.11799999999999,-550.96799999999996,-1.4812799999999999,-15.250999999999999,11.906599999999999
212214.0,112.535,-1348.49,-1278.6800000000001,-1360.46,41.098500000000001,5.3966900000000004,-23.501300000000001
212215.0,86.239500000000007,-481.36200000000002,-416.48399999999998,-484.18700000000001,20.678799999999999,15.869999999999999,18.242100000000001
212216.0,96.686400000000006,1910.75,1870.29,1891.03,22.3123,24.8569,39.886200000000002
212217.0,56.259500000000003,3069.3899999999999,3049.4000000000001,3040.79,21.030999999999999,15.3834,12.6813
212218.0,51.870100000000001,1662.75,1635.3,1620.2,15.856199999999999,2.04189,13.2623
212219.0,76.398300000000006,1270.02,1246.02,1215.25,0.322353,4.8154500000000002,34.183900000000001
212220.0,54.373800000000003,2804.79,2789.0999999999999,2767.5900000000001,21.3127,11.4854,7.1090999999999998
212221.0,85.270399999999995,3924.1599999999999,3888.3200000000002,3909.3800000000001,20.0791,24.1877,33.332000000000001
212222.0,63.111699999999999,812.34699999999998,812.32399999999996,788.88999999999999,15.649800000000001,18.184899999999999,23.8506
212223.0,69.454599999999999,511.79899999999998,542.96799999999996,492.55000000000001,14.396000000000001,15.394399999999999,22.725000000000001
212224.0,95.941400000000002,21.6632,-5.5167000000000002,-8.1787299999999998,25.606999999999999,21.793900000000001,40.802300000000002
212225.0,113.423,2259.6900000000001,2218.02,2229.0,30.200099999999999,23.6478,48.481999999999999
212226.0,105.149,1650.0799999999999,1609.7,1624.27,25.527100000000001,23.573699999999999,45.385199999999998
212227.0,101.31399999999999,3057.25,3016.27,3034.3800000000001,23.818200000000001,24.394400000000001,42.864600000000003
212228.0,95.767399999999995,-2374.2399999999998,-2413.54,-2396.5599999999999,23.3154,24.610700000000001,38.980800000000002
212229.0,91.924400000000006,2685.6700000000001,2646.9200000000001,2668.8000000000002,21.200900000000001,24.949100000000001,36.975299999999997
212230.0,77.844300000000004,2824.8200000000002,2792.1300000000001,2810.48,19.202300000000001,22.757300000000001,29.4056
212231.0,70.444400000000002,3246.6399999999999,3215.9099999999999,3230.4200000000001,18.628799999999998,21.190200000000001,24.9343
212232.0,62.761200000000002,3360.6199999999999,3333.3099999999999,3340.8000000000002,18.607299999999999,18.904399999999999,20.2532
212233.0,58.906700000000001,3270.5799999999999,3246.8200000000002,3246.23,19.921399999999998,17.0474,16.620699999999999
212234.0,54.182299999999998,-3088.1399999999999,-3108.1500000000001,-3108.48,18.3215,17.075299999999999,14.6835
212235.0,54.988599999999998,2906.7199999999998,2888.3200000000002,2873.6999999999998,21.377500000000001,13.849,9.2454499999999999
212236.0,56.531599999999997,2444.6900000000001,2430.75,2402.7800000000002,21.6568,9.62819,6.9329400000000003
212237.0,57.268700000000003,2212.1599999999999,2195.8099999999999,2168.6900000000001,20.649699999999999,10.691700000000001,8.3872999999999998
212238.0,55.877400000000002,2042.5599999999999,2021.22,2003.1199999999999,19.941299999999998,12.357200000000001,10.0406
212239.0,52.207700000000003,1847.1600000000001,1824.1400000000001,1810.0,19.960599999999999,8.3977599999999999,9.3682700000000008
212240.0,44.826700000000002,-1743.53,-1769.1500000000001,-1774.01,12.572100000000001,5.7219699999999998,14.522
212241.0,63.518999999999998,1505.1199999999999,1474.8800000000001,1454.8399999999999,8.6912099999999999,1.3577300000000001,25.034300000000002
212242.0,82.608199999999997,958.63699999999994,963.98900000000003,913.16899999999998,-6.28904,7.0371699999999997,37.494700000000002
212243.0,79.770300000000006,610.96100000000001,638.76599999999996,579.11699999999996,-3.5138799999999999,1.45878,34.867899999999999
212244.0,84.653099999999995,158.995,210.24000000000001,141.97399999999999,5.9755900000000004,-8.5290199999999992,31.8994
212245.0,55.905799999999999,19.5107,-36.610199999999999,9.0775699999999997,-0.88117900000000005,-5.5007900000000003,-10.946400000000001
212246.0,81.801100000000005,-9.0808700000000009,48.875900000000001,-22.392399999999999,10.5892,14.468299999999999,21.751200000000001
212247.0,62.551299999999998,-1003.9299999999999,-975.77200000000005,-1021.41,12.398400000000001,14.7097,20.099799999999998
212248.0,85.574200000000005,-132.15199999999999,-131.291,-159.30199999999999,23.924900000000001,17.6023,36.124600000000001
212249.0,106.31399999999999,-1079.8,-1108.1600000000001,-1112.46,30.738600000000002,21.299800000000001,45.322699999999998
212250.0,105.004,-2157.1799999999998,-2198.4099999999999,-2188.3200000000002,27.633099999999999,23.6188,43.497700000000002
212251.0,99.519199999999998,-2518.2800000000002,-2557.4499999999998,-2544.27,24.950700000000001,23.757200000000001,41.438400000000001
212252.0,92.045400000000001,-1759.29,-1797.71,-1778.0999999999999,21.954699999999999,25.146799999999999,36.616100000000003
212253.0,86.990799999999993,-3495.6999999999998,-3531.9899999999998,-3511.2399999999998,20.497199999999999,25.196999999999999,33.703899999999997
212254.0,80.612399999999994,-3416.0500000000002,-3449.1199999999999,-3429.1300000000001,19.0991,24.4102,30.464700000000001
212255.0,72.968800000000002,-2711.5999999999999,-2741.0100000000002,-2723.71,17.815100000000001,22.9407,26.697600000000001
212256.0,65.5976,-3208.4299999999998,-3235.3699999999999,-3221.73,16.9207,21.3704,22.579999999999998
212257.0,59.610199999999999,-3271.48,-3295.4000000000001,-3287.96,17.4954,19.2637,18.905899999999999
212258.0,50.755099999999999,-2897.52,-2914.5999999999999,-2922.0999999999999,19.036000000000001,14.8743,10.787800000000001
212259.0,48.856900000000003,-2853.4000000000001,-2869.9200000000001,-2882.7199999999998,18.805199999999999,12.8116,7.8665500000000002
212260.0,49.572699999999998,-2624.75,-2639.9699999999998,-2659.0300000000002,18.9971,10.5548,7.1961599999999999
212261.0,52.528599999999997,-2303.8800000000001,-2317.8400000000001,-2342.3499999999999,19.368300000000001,9.2401400000000002,8.9396799999999992
212262.0,54.740400000000001,-2135.0500000000002,-2154.8600000000001,-2174.8099999999999,19.802700000000002,10.1493,10.412599999999999
212263.0,50.075000000000003,-1945.9400000000001,-1971.6900000000001,-1981.3399999999999,17.748699999999999,9.7593099999999993,9.5278899999999993
212264.0,55.789700000000003,-1586.4100000000001,-1612.04,-1621.71,5.5908300000000004,2.1570800000000001,25.8613
212265.0,71.552099999999996,-1404.29,-1424.1700000000001,-1449.8699999999999,-1.14141,2.0604499999999999,34.3337
212266.0,79.1447,-1153.1500000000001,-1155.5899999999999,-1204.48,-9.0855899999999998,3.1993299999999998,34.0092
212267.0,76.051599999999993,-867.23199999999997,-855.92899999999997,-915.47000000000003,-7.4509999999999996,3.0054099999999999,29.384
212268.0,68.772099999999995,-511.73000000000002,-483.56099999999998,-546.23599999999999,-3.71759,-5.1087400000000001,23.4785
212269.0,124.79900000000001,1442.1800000000001,1522.8900000000001,1430.1600000000001,37.621200000000002,6.8512000000000004,-34.4495
212270.0,74.321799999999996,427.11900000000003,489.86500000000001,428.06099999999998,14.956099999999999,14.1571,11.143700000000001
212271.0,89.025599999999997,2919.4699999999998,2879.5799999999999,2896.1999999999998,23.786799999999999,22.0943,34.442999999999998
212272.0,65.527600000000007,3208.1599999999999,3178.5599999999999,3179.3200000000002,23.0946,19.9588,14.6579
212273.0,49.607900000000001,1805.1700000000001,1792.96,1768.9100000000001,9.1003799999999995,3.9833099999999999,19.525099999999998
212274.0,70.206599999999995,1202.03,1198.1099999999999,1156.23,-2.79766,3.5751300000000001,31.270800000000001
212275.0,57.2729,2883.4899999999998,2860.9099999999999,2851.9099999999999,19.764299999999999,17.9513,10.757899999999999
212276.0,81.4636,1920.54,1882.74,1899.4200000000001,23.541599999999999,22.440000000000001,28.203199999999999
212277.0,58.566299999999998,-358.19099999999997,-357.62099999999998,-380.892,13.1708,16.3139,22.9678
212278.0,66.0017,-383.625,-355.964,-403.351,10.0632,13.359500000000001,24.6112
212279.0,84.124600000000001,1227.25,1201.23,1196.5599999999999,23.463799999999999,18.5989,34.481699999999996
212280.0,100.825,86.576599999999999,46.328499999999998,53.947400000000002,28.383500000000002,19.907699999999998,41.5871
212281.0,95.713499999999996,1681.02,1641.6900000000001,1652.76,25.2136,20.501999999999999,39.828899999999997
212282.0,92.530000000000001,1086.21,1046.0899999999999,1060.73,24.354399999999998,21.363700000000001,37.313000000000002
212283.0,88.400000000000006,-1753.22,-1791.1700000000001,-1778.47,24.630199999999999,21.914200000000001,33.8354
212284.0,85.703199999999995,2713.7399999999998,2674.6199999999999,2691.8299999999999,23.779399999999999,22.533000000000001,31.474299999999999
212285.0,77.433800000000005,3334.96,3298.4099999999999,3313.8099999999999,23.4206,22.171900000000001,24.934999999999999
212286.0,74.589699999999993,3107.2199999999998,3070.27,3084.4200000000001,23.354399999999998,22.202400000000001,21.649100000000001
212287.0,70.7851,3080.8899999999999,3045.8000000000002,3056.1799999999998,23.049499999999998,21.5686,18.673400000000001
212288.0,68.919600000000003,3149.52,3116.9000000000001,3122.6500000000001,23.747599999999998,20.859400000000001,16.766500000000001
212289.0,63.999600000000001,-3083.0999999999999,-3113.6500000000001,-3107.7800000000002,21.380199999999999,20.278300000000002,15.3058
212290.0,61.421300000000002,3116.3200000000002,3089.2600000000002,3085.7600000000002,21.311299999999999,19.158999999999999,12.5151
212291.0,55.106999999999999,2834.4000000000001,2818.1599999999999,2801.3400000000001,19.869900000000001,15.6812,9.9168299999999991
212292.0,54.933700000000002,2590.7399999999998,2579.0300000000002,2556.0799999999999,19.596399999999999,13.3849,11.4818
212293.0,54.211799999999997,2296.5100000000002,2284.8699999999999,2264.0300000000002,17.305499999999999,12.311500000000001,16.055800000000001
212294.0,51.177999999999997,2069.2399999999998,2055.9099999999999,2035.6099999999999,14.9923,8.5139899999999997,17.002500000000001
212295.0,46.594099999999997,-1968.28,-1978.23,-1996.52,7.4724500000000003,6.3791799999999999,20.542300000000001
212296.0,57.502200000000002,1488.5,1480.25,1448.24,2.2336299999999998,1.2741800000000001,25.361499999999999
212297.0,81.089200000000005,903.84699999999998,915.08699999999999,854.64800000000002,-5.5799700000000003,5.7674799999999999,33.0777
212298.0,93.077500000000001,533.78099999999995,559.48400000000004,485.322,-6.9663599999999999,8.9085400000000003,36.629600000000003
212299.0,116.63500000000001,130.935,191.97,98.630200000000002,9.8895300000000006,2.1269,46.748199999999997
212300.0,52.4696,25.8874,-16.025400000000001,35.637700000000002,-2.7850199999999998,-7.2146800000000004,-10.2179
212301.0,78.560900000000004,-63.467300000000002,-4.4527400000000004,-75.279600000000002,7.6299599999999996,12.275399999999999,20.2135
212302.0,59.226100000000002,891.83399999999995,918.44899999999996,875.053,9.6745400000000004,13.4353,20.4026
212303.0,77.039599999999993,-288.988,-287.25799999999998,-315.16000000000003,21.0457,15.8604,32.241100000000003
212304.0,94.732699999999994,-278.77800000000002,-306.18000000000001,-313.96699999999998,29.280999999999999,17.816199999999998,38.405799999999999
212305.0,95.371700000000004,-329.44299999999998,-368.30700000000002,-363.02699999999999,27.158100000000001,20.226600000000001,37.959000000000003
212306.0,91.360299999999995,-859.947,-897.46100000000001,-888.02800000000002,25.458500000000001,21.001200000000001,36.224800000000002
212307.0,85.776200000000003,-3005.04,-3042.6300000000001,-3027.9499999999998,24.321999999999999,22.703199999999999,31.4114
212308.0,82.270099999999999,-1793.55,-1830.3,-1814.6800000000001,23.759899999999998,23.0289,28.656199999999998
212309.0,78.143199999999993,-2277.1799999999998,-2312.7600000000002,-2297.21,23.200800000000001,22.774999999999999,25.694500000000001
212310.0,74.053799999999995,-3262.6199999999999,-3296.9000000000001,-3282.3800000000001,22.686900000000001,22.388999999999999,22.715699999999998
212311.0,70.692300000000003,-2933.0799999999999,-2967.71,-2954.0999999999999,21.809999999999999,22.171600000000002,19.853300000000001
212312.0,68.471900000000005,-2938.5799999999999,-2972.3400000000001,-2961.6199999999999,22.078800000000001,21.510200000000001,17.747
212313.0,58.689700000000002,-3115.52,-3142.73,-3141.9299999999998,19.763100000000001,18.803100000000001,12.8179
212314.0,54.189300000000003,-2898.5999999999999,-2923.4699999999998,-2926.9000000000001,17.861699999999999,17.628399999999999,10.5062
212315.0,51.461399999999998,-2796.6599999999999,-2818.3099999999999,-2826.6399999999999,16.973600000000001,16.3675,9.3407599999999995
212316.0,50.7102,-2720.6700000000001,-2737.25,-2752.4099999999999,16.874400000000001,14.2979,10.770200000000001
212317.0,52.6631,-2435.52,-2450.4499999999998,-2469.1399999999999,16.652699999999999,12.077999999999999,14.7462
212318.0,49.573799999999999,-2184.1500000000001,-2198.77,-2215.6500000000001,13.8673,9.7261399999999991,16.846699999999998
212319.0,52.371299999999998,-1668.6700000000001,-1674.3299999999999,-1699.1400000000001,0.53334199999999998,2.8460899999999998,25.362100000000002
212320.0,65.080699999999993,-1370.8199999999999,-1371.73,-1409.0,-3.5399600000000002,1.46512,30.373200000000001
212321.0,75.111900000000006,-1109.0999999999999,-1098.5899999999999,-1153.5,-7.7163899999999996,3.1899700000000002,31.0045
212322.0,86.833500000000001,-808.351,-785.79899999999998,-856.70399999999995,-8.0452999999999992,6.4348200000000002,33.088799999999999
212323.0,90.208799999999997,-452.40899999999999,-424.06599999999997,-501.81,-6.6044700000000001,7.4945899999999996,32.630699999999997
212324.0,134.05500000000001,-1087.28,-994.18399999999997,-1103.6400000000001,30.115200000000002,9.1064900000000009,-38.916200000000003
212325.0,66.581900000000005,-634.79700000000003,-573.21199999999999,-630.33100000000002,11.9358,12.1432,-2.9263400000000002
212326.0,84.074600000000004,1427.47,1385.9000000000001,1399.6400000000001,26.562100000000001,19.608899999999998,28.595700000000001
212327.0,62.689999999999998,3043.1399999999999,3012.6799999999998,3019.75,20.959599999999998,19.330300000000001,15.585599999999999
212328.0,43.9771,1573.9300000000001,1572.6600000000001,1546.0799999999999,2.1123400000000001,1.8807,19.7334
212329.0,61.5869,993.06299999999999,1000.71,953.97500000000002,-6.1966799999999997,4.18405,24.0823
212330.0,48.8491,2977.1399999999999,2957.46,2958.4899999999998,14.822800000000001,16.709399999999999,13.182700000000001
212331.0,79.765900000000002,3467.5700000000002,3427.4299999999998,3441.4099999999999,26.996099999999998,20.747900000000001,23.374400000000001
212332.0,52.226599999999998,699.91200000000003,694.46799999999996,675.072,13.7606,12.1538,20.0411
212333.0,55.924199999999999,388.608,408.464,363.97000000000003,11.8756,10.8096,16.964200000000002
212334.0,72.205200000000005,-210.363,-234.774,-240.18199999999999,19.882899999999999,14.7662,29.531600000000001
212335.0,88.736099999999993,1896.0599999999999,1858.9400000000001,1863.0599999999999,25.967199999999998,17.099900000000002,35.2697
212336.0,88.466899999999995,1221.1099999999999,1181.6800000000001,1190.5599999999999,25.784400000000002,17.867100000000001,34.5959
212337.0,86.257199999999997,2591.1599999999999,2550.1799999999998,2561.98,26.0611,18.6721,31.739000000000001
212338.0,83.374300000000005,-1908.27,-1947.1900000000001,-1937.3599999999999,27.178999999999998,19.347899999999999,28.188600000000001
212339.0,82.248400000000004,2205.71,2164.2800000000002,2178.5599999999999,27.0779,20.3383,25.7896
212340.0,77.3245,2416.6999999999998,2377.9499999999998,2391.5900000000001,26.654199999999999,21.102499999999999,21.2364
212341.0,75.121200000000002,2909.3400000000001,2869.98,2884.2199999999998,25.626100000000001,21.505800000000001,19.096599999999999
212342.0,70.777799999999999,3116.2600000000002,3079.3000000000002,3091.6900000000001,23.915700000000001,20.9803,17.430399999999999
212343.0,68.174099999999996,3134.8299999999999,3100.4099999999999,3110.5999999999999,23.2727,20.318000000000001,16.7972
212344.0,62.255800000000001,-2977.3099999999999,-3010.1300000000001,-3000.3000000000002,20.0702,19.1724,15.4236
212345.0,56.140999999999998,2987.4899999999998,2961.8200000000002,2966.02,17.805900000000001,18.308700000000002,14.4459
212346.0,41.763500000000001,2685.9299999999998,2674.1300000000001,2669.7399999999998,13.153499999999999,13.5871,12.3972
212347.0,37.016199999999998,2467.23,2463.4699999999998,2450.8600000000001,11.8583,9.2643299999999993,12.520799999999999
212348.0,38.166600000000003,2213.7199999999998,2212.96,2197.3200000000002,9.2368400000000008,7.6505900000000002,16.0001
212349.0,39.408700000000003,1887.29,1885.5,1865.1600000000001,7.76389,4.6871400000000003,16.861699999999999
212350.0,42.403799999999997,-1742.6800000000001,-1739.26,-1762.3800000000001,2.0860099999999999,3.8875299999999999,20.5943
212351.0,51.993899999999996,1297.1300000000001,1301.0599999999999,1265.5899999999999,-3.4357700000000002,1.8141099999999999,22.536899999999999
212352.0,73.091999999999999,686.80399999999997,704.846,642.04300000000001,-7.3145899999999999,5.5881499999999997,25.505199999999999
212353.0,81.181100000000001,411.31200000000001,431.82999999999998,357.29700000000003,-3.2907799999999998,10.4054,24.4008
212354.0,120.965,113.288,176.87299999999999,71.473500000000001,24.107199999999999,4.9994300000000003,38.139299999999999
212355.0,59.262900000000002,11.8491,-35.057499999999997,23.3078,-6.9951800000000004,-9.7709299999999999,-8.3639899999999994
212356.0,76.945499999999996,174.14500000000001,237.578,161.71600000000001,7.5064799999999998,10.2445,12.5176
212357.0,53.563400000000001,-900.39700000000005,-880.96000000000004,-920.22299999999996,12.0436,11.1607,17.358699999999999
212358.0,65.742099999999994,-18.584,-21.770499999999998,-42.814,17.280000000000001,12.701499999999999,28.4148
212359.0,82.362200000000001,-801.82600000000002,-825.41800000000001,-836.17100000000005,26.096399999999999,14.588200000000001,32.537799999999997
212360.0,87.477599999999995,-1762.1300000000001,-1798.45,-1797.5999999999999,27.511600000000001,17.1447,32.7134
212361.0,85.487300000000005,-2083.25,-2120.8000000000002,-2114.2399999999998,26.897400000000001,18.466999999999999,31.132899999999999
212362.0,81.953999999999994,-1284.03,-1323.53,-1311.8099999999999,27.453199999999999,20.264500000000002,25.748899999999999
212363.0,79.940200000000004,-3029.48,-3069.1100000000001,-3056.3800000000001,27.192699999999999,20.7575,23.4618
212364.0,77.241100000000003,-2981.2399999999998,-3019.8899999999999,-3006.79,26.614699999999999,20.932600000000001,21.348400000000002
212365.0,73.820499999999996,-2331.0300000000002,-2368.54,-2355.3400000000001,25.404800000000002,20.870100000000001,19.325099999999999
212366.0,70.706599999999995,-2901.1700000000001,-2939.1999999999998,-2925.3899999999999,23.411300000000001,20.933700000000002,17.595300000000002
212367.0,68.226100000000002,-3058.0100000000002,-3094.77,-3081.9200000000001,22.4665,20.377300000000002,16.839300000000001
212368.0,55.314399999999999,-2890.0300000000002,-2918.2800000000002,-2911.8400000000001,17.0261,17.795999999999999,13.931100000000001
212369.0,48.311199999999999,-2945.8800000000001,-2969.3400000000001,-2965.52,13.8652,16.4833,12.4716
212370.0,41.837699999999998,-2797.5799999999999,-2815.7800000000002,-2814.5,11.2653,14.7781,11.616300000000001
212371.0,35.739800000000002,-2527.2600000000002,-2537.02,-2541.5900000000001,9.0750200000000003,11.838699999999999,12.2324
212372.0,36.209899999999998,-2354.73,-2357.52,-2369.7600000000002,8.3244699999999998,8.4421199999999992,15.2516
212373.0,37.543700000000001,-2076.8600000000001,-2077.6300000000001,-2094.1500000000001,7.1060800000000004,6.3657300000000001,16.835000000000001
212374.0,49.310899999999997,-1467.5699999999999,-1460.03,-1492.73,-3.4119999999999999,1.55907,22.433299999999999
212375.0,57.979399999999998,-1191.6900000000001,-1179.7,-1224.3499999999999,-5.4729400000000004,2.4817999999999998,23.458400000000001
212376.0,68.548900000000003,-883.01900000000001,-864.90499999999997,-923.70299999999997,-8.4017199999999992,4.5117200000000004,23.8459
212377.0,77.786699999999996,-614.74599999999998,-591.69200000000001,-662.87099999999998,-4.6377300000000004,8.13293,24.704000000000001
212378.0,85.075199999999995,-379.53800000000001,-352.98399999999998,-431.83499999999998,-2.20187,13.2951,24.927900000000001
212379.0,139.405,1433.77,1539.02,1413.77,20.650600000000001,11.735799999999999,-37.231099999999998
212380.0,65.157600000000002,302.41399999999999,365.93200000000002,308.34300000000002,3.8217400000000001,10.9435,-7.0556099999999997
212381.0,81.993099999999998,2578.5300000000002,2534.6500000000001,2546.52,29.753699999999998,17.4392,23.157399999999999
212382.0,53.045999999999999,2914.3699999999999,2889.1900000000001,2898.4200000000001,17.349900000000002,15.5342,15.276899999999999
212383.0,32.131399999999999,1298.24,1304.96,1281.46,-1.4962800000000001,2.8919299999999999,13.6774
212384.0,42.015599999999999,813.00699999999995,822.34199999999998,784.06200000000001,-4.7217500000000001,5.5052199999999996,11.724299999999999
212385.0,37.452599999999997,2516.04,2504.0500000000002,2507.9400000000001,10.226100000000001,11.8965,13.567600000000001
212386.0,77.400800000000004,1626.01,1585.3199999999999,1597.5599999999999,28.9849,18.607500000000002,19.359100000000002
212387.0,50.2164,-442.85700000000003,-453.09300000000002,-470.62799999999999,16.125,9.8726900000000004,16.906300000000002
212388.0,54.200099999999999,-576.30700000000002,-556.61699999999996,-603.37,12.045199999999999,11.509399999999999,12.2745
212389.0,60.866799999999998,1086.8,1061.24,1058.1600000000001,18.223199999999999,10.0846,23.536000000000001
212390.0,75.673100000000005,-215.221,-251.16300000000001,-248.78399999999999,23.837199999999999,13.164999999999999,27.627600000000001
212391.0,82.274500000000003,1314.21,1272.51,1280.0,27.398299999999999,15.0959,27.994399999999999
212392.0,83.331999999999994,725.76999999999998,682.03099999999995,692.46299999999997,29.170300000000001,16.389500000000002,25.948499999999999
212393.0,81.742699999999999,-1403.4200000000001,-1444.9000000000001,-1436.8299999999999,30.390699999999999,17.259799999999998,22.8508
212394.0,80.029600000000002,2394.8800000000001,2351.75,2364.5300000000002,29.664100000000001,18.1784,20.8291
212395.0,74.217299999999994,3056.4099999999999,3018.1300000000001,3030.4299999999998,27.764600000000002,18.7484,18.214700000000001
212396.0,70.358699999999999,2836.3600000000001,2798.48,2812.2600000000002,25.2576,18.894400000000001,16.9575
212397.0,64.099500000000006,2808.7399999999998,2774.3899999999999,2787.3200000000002,22.1646,17.952400000000001,15.9702
212398.0,60.293100000000003,2869.1799999999998,2838.27,2850.1199999999999,20.615400000000001,16.9558,16.001100000000001
212399.0,53.907699999999998,-2795.4499999999998,-2824.3699999999999,-2813.54,17.0458,15.6957,14.771699999999999
212400.0,45.07,2794.1500000000001,2775.6999999999998,2781.9099999999999,13.700900000000001,13.8447,14.477499999999999
212401.0,30.6008,2423.96,2419.5300000000002,2419.71,7.8657300000000001,9.0747999999999998,12.712899999999999
212402.0,25.3187,2144.8800000000001,2146.98,2141.0500000000002,6.26999,5.4346300000000003,11.6534
212403.0,26.3779,1813.77,1818.49,1808.9300000000001,4.0744999999999996,4.8568300000000004,12.9954
212404.0,26.1767,1561.73,1567.05,1550.95,2.8689399999999998,3.1522199999999998,11.958
212405.0,32.255699999999997,-1465.73,-1453.04,-1474.5899999999999,-1.09521,3.6042399999999999,14.6731
212406.0,39.298499999999997,1019.95,1030.6300000000001,999.49199999999996,-5.4234600000000004,3.7516500000000002,14.8642
212407.0,47.802100000000003,639.89599999999996,661.47500000000002,613.58900000000006,-1.3346800000000001,7.45078,11.369
212408.0,50.822800000000001,422.35899999999998,444.53699999999998,392.90899999999999,6.7096499999999999,7.9762500000000003,9.0310299999999994
212409.0,95.118200000000002,111.057,168.572,88.372200000000007,30.214099999999998,1.2865500000000001,19.8035
212410.0,64.858000000000004,34.603099999999998,-12.039199999999999,53.0319,-7.9967800000000002,-13.388299999999999,-5.8390899999999997
212411.0,84.272900000000007,187.52000000000001,260.20600000000002,172.88900000000001,5.2123200000000001,9.6309299999999993,7.7759900000000002
212412.0,56.667499999999997,1067.3099999999999,1086.53,1043.45,15.3208,11.3691,15.5166
212413.0,56.331600000000002,-268.77600000000001,-280.64299999999997,-294.01600000000002,17.063500000000001,9.4463000000000008,22.7576
212414.0,68.3078,-116.904,-140.32900000000001,-148.523,22.786300000000001,10.4922,25.627099999999999
212415.0,78.874799999999993,5.6698399999999998,-29.067900000000002,-30.606200000000001,28.046099999999999,13.4068,26.2027
212416.0,82.254199999999997,-496.69999999999999,-536.59199999999998,-531.85199999999998,29.950800000000001,15.8184,25.160699999999999
212417.0,80.036199999999994,-2674.0900000000001,-2716.5500000000002,-2706.0900000000001,30.1891,17.829999999999998,20.4147
212418.0,77.994900000000001,-1485.6900000000001,-1527.52,-1516.1199999999999,29.345800000000001,18.361999999999998,19.022200000000002
212419.0,74.814599999999999,-1990.99,-2030.9100000000001,-2019.23,28.0474,18.407900000000001,17.857500000000002
212420.0,69.753399999999999,-2987.7800000000002,-3025.0599999999999,-3013.1500000000001,25.567299999999999,18.1403,16.632000000000001
212421.0,64.882999999999996,-2660.9299999999998,-2697.6900000000001,-2684.2399999999998,22.183900000000001,17.8964,15.650600000000001
212422.0,61.300600000000003,-2661.0,-2695.4200000000001,-2682.2199999999998,20.4299,17.052800000000001,15.5854
212423.0,45.855800000000002,-2811.77,-2834.1700000000001,-2826.4200000000001,13.347300000000001,14.1286,13.9198
212424.0,38.128999999999998,-2563.1999999999998,-2578.9499999999998,-2573.9200000000001,9.9308999999999994,12.324999999999999,13.0154
212425.0,31.458300000000001,-2415.4899999999998,-2425.04,-2421.9299999999998,6.9132899999999999,10.426500000000001,12.232100000000001
212426.0,26.239000000000001,-2295.9000000000001,-2297.1599999999999,-2298.1500000000001,4.5813699999999997,7.96408,11.991899999999999
212427.0,26.163499999999999,-1974.6099999999999,-1969.0999999999999,-1976.71,3.6783999999999999,5.4632199999999997,13.013
212428.0,26.353999999999999,-1693.29,-1684.9100000000001,-1698.1700000000001,2.4628800000000002,4.5590799999999998,12.636799999999999
212429.0,37.886299999999999,-1177.74,-1163.4200000000001,-1193.9300000000001,-4.6677600000000004,2.8646500000000001,14.676299999999999
212430.0,40.633299999999998,-929.17399999999998,-915.01199999999994,-952.30499999999995,-4.3523199999999997,4.0526900000000001,12.6724
212431.0,44.915100000000002,-762.72799999999995,-746.27999999999997,-790.21100000000001,-5.0003900000000003,6.8131500000000003,10.412000000000001
212432.0,46.5505,-592.40700000000004,-574.01800000000003,-621.07799999999997,2.7389399999999999,8.7505199999999999,8.7048199999999998
212433.0,53.690199999999997,-370.85599999999999,-343.37599999999998,-397.61000000000001,5.7339099999999998,9.4817599999999995,10.134399999999999
212434.0,141.53899999999999,-1034.05,-918.48000000000002,-1055.0,10.630599999999999,14.0122,-31.030200000000001
212435.0,63.188499999999998,-722.96100000000001,-660.29200000000003,-716.995,-5.2329400000000001,9.4182199999999998,-4.2964399999999996
212436.0,81.215000000000003,1230.3,1185.54,1195.1800000000001,32.467399999999998,15.468299999999999,18.711500000000001
212437.0,42.292099999999998,2557.0500000000002,2537.5,2546.0999999999999,14.3918,10.742000000000001,13.3307
212438.0,18.323499999999999,1002.79,1011.99,994.67700000000002,-1.17658,2.4201100000000002,5.4465399999999997
212439.0,21.751799999999999,652.54499999999996,663.84400000000005,642.81700000000001,-2.1728999999999998,5.8902599999999996,2.7494800000000001
212440.0,27.0474,2341.04,2334.6700000000001,2337.5,7.9311400000000001,6.4628899999999998,11.357699999999999
212441.0,73.039299999999997,3269.3099999999999,3230.0500000000002,3241.0700000000002,29.229299999999999,16.0017,16.053599999999999
212442.0,47.879300000000001,594.57399999999996,582.00699999999995,565.31799999999998,17.195799999999998,8.6887399999999992,13.3254
212443.0,48.166400000000003,223.38999999999999,241.55699999999999,198.89699999999999,9.4865899999999996,10.6282,10.587
212444.0,54.956000000000003,-312.505,-339.08100000000002,-343.34800000000001,19.248100000000001,7.5464599999999997,17.3203
212445.0,67.031899999999993,1691.01,1654.5599999999999,1655.1500000000001,24.380400000000002,9.5393699999999999,19.402999999999999
212446.0,78.400400000000005,961.93700000000001,918.23099999999999,922.63300000000004,30.3111,12.472,19.886900000000001
212447.0,83.362799999999993,2360.3200000000002,2314.0,2322.0,33.0608,14.607900000000001,19.922599999999999
212448.0,82.444999999999993,-1690.4300000000001,-1735.1400000000001,-1728.5799999999999,33.473599999999998,15.317299999999999,18.099399999999999
212449.0,77.310100000000006,2019.0999999999999,1976.5799999999999,1987.54,30.943100000000001,16.055399999999999,17.020900000000001
212450.0,68.384900000000002,2192.48,2156.8000000000002,2167.5500000000002,27.1233,15.6281,15.6187
212451.0,62.865200000000002,2634.2600000000002,2599.77,2612.3499999999999,23.6617,15.225099999999999,14.8672
212452.0,54.733600000000003,2775.7800000000002,2746.0599999999999,2758.0300000000002,19.638999999999999,13.9025,13.999000000000001
212453.0,50.197099999999999,2724.5999999999999,2699.04,2710.1100000000001,17.755600000000001,12.6174,14.1821
212454.0,44.076000000000001,-2546.1999999999998,-2569.3699999999999,-2559.8299999999999,14.371499999999999,11.5413,13.1205
212455.0,33.971200000000003,2424.9200000000001,2411.75,2417.4400000000001,10.885899999999999,8.5484799999999996,12.225199999999999
212456.0,22.088000000000001,1987.8,1987.79,1987.5799999999999,6.1472600000000002,4.4769699999999997,10.2362
212457.0,18.5837,1751.0799999999999,1754.75,1751.77,4.9335899999999997,2.91276,8.8595299999999995
212458.0,17.3245,1533.1700000000001,1539.3299999999999,1533.04,3.3609800000000001,2.8709799999999999,8.2219200000000008
212459.0,15.6181,1253.3499999999999,1261.76,1250.3699999999999,1.3976599999999999,2.0098199999999999,6.35649
212460.0,20.089200000000002,-1126.8599999999999,-1112.23,-1128.4200000000001,-1.0230300000000001,2.4081700000000001,6.9180599999999997
212461.0,24.157,819.21600000000001,834.17499999999995,812.16099999999994,-3.9218799999999998,4.6590800000000003,5.5743499999999999
212462.0,26.220400000000001,498.14699999999999,515.976,489.58999999999997,0.770096,6.0997300000000001,3.1878600000000001
212463.0,32.979999999999997,323.81900000000002,347.14400000000001,314.17399999999998,6.57186,4.2126099999999997,3.7781400000000001
212464.0,60.148099999999999,71.1494,112.14,61.759500000000003,20.1341,-0.93057900000000005,9.0511099999999995
212465.0,70.356999999999999,24.412099999999999,-18.8309,53.137999999999998,-8.0093399999999999,-16.104399999999998,-3.7535599999999998
212466.0,87.581599999999995,375.60500000000002,452.73899999999998,361.18799999999999,1.77199,8.7022099999999991,7.4031000000000002
212467.0,53.333199999999998,-711.53800000000001,-693.73900000000003,-735.74599999999998,14.6271,9.7709499999999991,13.9343
212468.0,51.509700000000002,40.3504,25.207100000000001,11.8467,18.6936,7.5334199999999996,16.577999999999999
212469.0,60.377600000000001,-705.83900000000006,-731.35699999999997,-738.03999999999996,22.903099999999998,7.7386900000000001,18.491199999999999
212470.0,73.237200000000001,-1525.71,-1559.3900000000001,-1563.49,29.898,10.721,18.6922
212471.0,81.954700000000003,-1818.79,-1860.54,-1858.8900000000001,33.932200000000002,13.579000000000001,18.548999999999999
212472.0,78.471299999999999,-1090.8699999999999,-1134.51,-1125.6400000000001,31.793600000000001,15.6386,16.287600000000001
212473.0,74.616200000000006,-2838.9000000000001,-2880.8400000000001,-2870.3800000000001,29.8291,15.786,15.5025
212474.0,70.026399999999995,-2775.3099999999999,-2813.9499999999998,-2803.4899999999998,27.6492,15.563000000000001,15.117000000000001
212475.0,63.294400000000003,-2091.73,-2126.4400000000001,-2115.9699999999998,24.258299999999998,14.7972,14.519500000000001
212476.0,56.472299999999997,-2605.1599999999999,-2638.0100000000002,-2626.1399999999999,20.0428,14.1516,13.579000000000001
212477.0,51.993000000000002,-2697.21,-2726.5700000000002,-2714.7800000000002,17.910499999999999,13.116899999999999,13.778600000000001
212478.0,35.712299999999999,-2384.3699999999999,-2400.8000000000002,-2394.0999999999999,10.7697,9.6446199999999997,12.1602
212479.0,28.312899999999999,-2367.2399999999998,-2377.2800000000002,-2373.3899999999999,7.7116400000000001,7.5840399999999999,11.162000000000001
212480.0,22.747599999999998,-2151.1300000000001,-2154.6799999999998,-2153.4699999999998,5.6553800000000001,5.7714699999999999,10.1951
212481.0,19.613600000000002,-1831.8299999999999,-1829.01,-1830.72,4.44306,4.2279799999999996,9.4131300000000007
212482.0,18.0031,-1652.8,-1645.3099999999999,-1651.02,3.2620800000000001,3.0307599999999999,8.5393000000000008
212483.0,17.018000000000001,-1410.3299999999999,-1399.24,-1409.6199999999999,1.3206599999999999,2.5014699999999999,7.0733899999999998
212484.0,24.072399999999998,-928.39999999999998,-911.78399999999999,-934.23099999999999,-3.6933600000000002,3.1247099999999999,5.8394700000000004
212485.0,21.806000000000001,-753.66700000000003,-740.548,-762.37,-1.6493599999999999,4.9196200000000001,3.3020999999999998
212486.0,22.9255,-576.875,-563.43600000000004,-585.72299999999996,-2.42157,6.2324200000000003,2.1329199999999999
212487.0,26.406300000000002,-440.94999999999999,-423.68900000000002,-450.66399999999999,1.7974699999999999,6.1786599999999998,2.08988
212488.0,34.567100000000003,-278.15199999999999,-252.64099999999999,-287.16000000000003,6.2252099999999997,4.7395800000000001,4.0598000000000001
212489.0,140.49600000000001,1500.1900000000001,1622.0899999999999,1479.53,0.66869400000000001,14.5267,-20.827100000000002
212490.0,62.941800000000001,269.35300000000001,330.26799999999997,275.459,-9.7544000000000004,9.1004900000000006,-4.1552800000000003
212491.0,78.872100000000003,2496.7600000000002,2454.23,2460.4200000000001,33.677199999999999,13.6252,15.028
212492.0,34.2926,2408.9200000000001,2392.3299999999999,2398.8800000000001,12.9459,6.83521,10.385300000000001
212493.0,12.8764,843.827,855.86800000000005,843.59100000000001,0.040769199999999998,0.78522700000000001,2.3144999999999998
212494.0,16.013200000000001,453.29199999999997,467.154,453.30000000000001,-2.2104900000000001,3.89974,1.1693899999999999
212495.0,21.582899999999999,1936.9100000000001,1932.4000000000001,1933.3399999999999,8.0693300000000008,3.2206000000000001,8.6100600000000007
212496.0,67.980400000000003,1473.4100000000001,1436.8,1445.9100000000001,28.468900000000001,13.3675,13.7117
212497.0,42.219999999999999,-531.46100000000001,-545.18499999999995,-560.29600000000005,16.233699999999999,6.8054300000000003,8.7349200000000007
212498.0,40.289900000000003,-626.45000000000005,-611.43799999999999,-649.98400000000004,9.6788500000000006,7.6942000000000004,3.2706200000000001
212499.0,51.745600000000003,975.69600000000003,948.13599999999997,943.08299999999997,19.5929,6.2648299999999999,12.7005
212500.0,66.308599999999998,-330.64400000000001,-368.48099999999999,-369.82400000000001,26.5304,8.4156999999999993,14.006
212501.0,80.612799999999993,1189.99,1144.6199999999999,1145.73,33.773000000000003,11.3847,15.039899999999999
212502.0,83.665700000000001,631.29700000000003,585.10199999999998,589.33900000000006,35.857900000000001,12.8208,15.2021
212503.0,81.734999999999999,-1316.76,-1362.23,-1358.29,35.109499999999997,13.0524,13.752800000000001
212504.0,73.984499999999997,2285.4299999999998,2245.0300000000002,2253.1399999999999,31.175599999999999,13.8972,14.243600000000001
212505.0,61.628700000000002,2841.04,2808.3499999999999,2817.7600000000002,25.714200000000002,12.193199999999999,13.1569
212506.0,55.713299999999997,2553.1300000000001,2521.8200000000002,2532.8400000000001,22.170200000000001,11.5852,12.5204
212507.0,46.600499999999997,2447.3200000000002,2421.3600000000001,2431.3200000000002,17.837499999999999,10.0534,11.534800000000001
212508.0,42.1297,2429.0999999999999,2406.8400000000001,2415.98,16.260300000000001,8.7068200000000004,11.238799999999999
212509.0,36.252099999999999,-2339.9699999999998,-2359.3000000000002,-2352.1900000000001,13.059799999999999,7.9688699999999999,10.412800000000001
212510.0,27.2422,2241.1799999999998,2229.4000000000001,2233.6799999999998,9.9615799999999997,4.9212100000000003,9.4003999999999994
212511.0,18.562799999999999,1827.1199999999999,1829.3,1827.02,7.18119,2.0333899999999998,7.58263
212512.0,16.907800000000002,1560.6800000000001,1565.23,1561.8599999999999,6.4353199999999999,2.1208900000000002,6.6184900000000004
212513.0,13.9382,1271.6199999999999,1279.0699999999999,1272.8699999999999,4.47424,2.03538,4.9664599999999997
212514.0,13.313800000000001,1054.3,1066.23,1056.0,1.5143800000000001,1.3105599999999999,3.6657600000000001
212515.0,15.131,-975.58000000000004,-960.77700000000004,-972.93700000000001,0.23328199999999999,1.2760499999999999,3.5077099999999999
212516.0,16.338699999999999,613.29200000000003,628.553,613.822,-1.8706700000000001,2.3127800000000001,2.2587199999999998
212517.0,18.103200000000001,336.45800000000003,353.12700000000001,335.786,-1.21991,3.3523700000000001,0.108026
212518.0,21.811599999999999,205.166,224.31800000000001,202.28100000000001,2.98021,2.4939200000000001,0.16819400000000001
212519.0,32.435400000000001,45.562800000000003,70.085400000000007,40.682400000000001,9.9651999999999994,0.80187399999999998,1.5654600000000001
212520.0,74.868499999999997,29.6205,-7.8802399999999997,70.543800000000005,-10.3195,-14.1343,4.8578799999999998
212521.0,86.141599999999997,228.20500000000001,305.11200000000002,214.27199999999999,1.0928800000000001,7.6034199999999998,4.5799200000000004
212522.0,46.204300000000003,1140.6600000000001,1155.8599999999999,1115.4300000000001,13.7516,6.4591000000000003,7.9866599999999996
212523.0,46.995399999999997,-160.55799999999999,-175.524,-190.238,18.4283,5.6743699999999997,12.007099999999999
212524.0,58.401200000000003,-6.8446199999999999,-32.550899999999999,-40.707299999999996,24.951599999999999,6.8794500000000003,12.436
212525.0,74.851900000000001,144.38900000000001,109.786,103.79600000000001,32.8842,10.165699999999999,14.237299999999999
212526.0,84.578500000000005,-356.52100000000002,-400.209,-401.16300000000001,36.960000000000001,12.589399999999999,14.477
212527.0,75.736699999999999,-2586.3699999999999,-2628.3099999999999,-2622.5,32.171999999999997,13.3879,13.464600000000001
212528.0,70.580799999999996,-1362.77,-1403.0,-1394.5,29.384399999999999,13.3622,12.997999999999999
212529.0,64.324299999999994,-1818.74,-1855.04,-1845.6800000000001,26.3202,12.695600000000001,13.044700000000001
212530.0,56.612900000000003,-2751.9200000000001,-2783.3800000000001,-2774.4400000000001,22.8431,11.4886,12.3209
212531.0,48.8551,-2355.73,-2384.71,-2374.9000000000001,18.295400000000001,10.6914,11.3697
212532.0,44.204300000000003,-2278.3499999999999,-2303.6100000000001,-2294.2199999999998,16.5106,9.51938,11.1828
212533.0,29.009499999999999,-2296.96,-2310.5300000000002,-2305.8699999999999,9.9915599999999998,6.21279,9.7236499999999992
212534.0,22.680099999999999,-2007.21,-2016.0599999999999,-2013.4000000000001,7.5568299999999997,4.4919399999999996,8.5750100000000007
212535.0,18.023399999999999,-1840.1800000000001,-1842.1400000000001,-1842.6500000000001,6.4335699999999996,2.9438,7.5179499999999999
212536.0,16.875499999999999,-1713.0599999999999,-1708.97,-1712.3900000000001,6.3259499999999997,2.0445700000000002,6.7752400000000002
212537.0,14.6372,-1409.9300000000001,-1401.3299999999999,-1407.75,4.5812999999999997,1.7879700000000001,5.2196100000000003
212538.0,14.220599999999999,-1165.0599999999999,-1152.05,-1162.26,1.6043099999999999,1.4092100000000001,3.9920800000000001
212539.0,17.153700000000001,-737.89499999999998,-721.14099999999996,-736.08799999999997,-1.7609300000000001,1.46122,2.8776000000000002
212540.0,16.476700000000001,-536.55700000000002,-521.04300000000001,-536.63800000000003,-1.1440699999999999,2.6053999999999999,1.31996
212541.0,17.127600000000001,-412.28100000000001,-396.93900000000002,-412.72500000000002,-2.3324600000000002,3.3900899999999998,-0.23086699999999999
212542.0,18.265499999999999,-299.36099999999999,-283.38900000000001,-301.37099999999998,-0.10191699999999999,3.7256900000000002,-0.48316100000000001
212543.0,22.698499999999999,-174.636,-155.96899999999999,-178.40700000000001,4.0904100000000003,3.2558199999999999,-0.22844300000000001
212544.0,14.726900000000001,-1.5876999999999999,-12.4312,-7.6513099999999996,5.5528899999999997,-2.1091099999999998,-2.73475
212545.0,93.925399999999996,34.569499999999998,-46.645800000000001,16.3141,8.7231400000000008,18.566299999999998,26.539400000000001
212546.0,72.873699999999999,38.839700000000001,-37.078699999999998,26.2254,-5.8939700000000004,4.0324400000000002,8.0108099999999993
212547.0,64.013199999999998,36.268099999999997,-27.688700000000001,31.6233,-7.2598099999999999,1.7682100000000001,6.1973900000000004
212548.0,101.533,43.950899999999997,-54.1402,12.9733,6.6436599999999997,10.2311,27.806799999999999
212549.0,21.9146,10.026199999999999,-12.1654,3.7040099999999998,4.5809800000000003,0.19603400000000001,2.8892099999999998
212550.0,10.6252,-9.1282700000000006,-8.1303900000000002,-13.693199999999999,4.4782500000000001,2.19929,-1.9858100000000001
212551.0,22.204999999999998,0.161492,-14.207000000000001,-10.3992,9.8115299999999994,1.66377,-3.1472899999999999
212552.0,37.134999999999998,23.0608,-3.7074199999999999,20.334599999999998,8.9322300000000006,5.4336799999999998,11.5482
212553.0,55.1434,23.496700000000001,-10.8126,21.0609,12.2811,10.6691,19.5562
212554.0,64.350200000000001,29.378900000000002,-13.600899999999999,25.912500000000001,9.6865199999999998,15.294700000000001,21.9651
212555.0,81.890500000000003,43.982100000000003,-15.1364,36.608499999999999,12.3978,21.533799999999999,24.085799999999999
212556.0,92.197299999999998,41.002400000000002,-28.839600000000001,30.116099999999999,13.968500000000001,23.355799999999999,26.092199999999998
212557.0,104.804,49.9238,-56.515799999999999,12.123100000000001,6.8087799999999996,4.18682,26.1875
212558.0,100.46899999999999,47.313200000000002,-57.807600000000001,12.8287,4.3823600000000003,5.3257500000000002,21.1099
212559.0,95.123500000000007,44.740400000000001,-55.011699999999998,17.232700000000001,1.2603899999999999,7.7230299999999996,17.335699999999999
212560.0,87.843199999999996,39.362000000000002,-53.151200000000003,17.139299999999999,-2.2357900000000002,6.9633900000000004,13.654299999999999
212561.0,80.971900000000005,38.7729,-46.577599999999997,20.616399999999999,-4.9339300000000001,5.6570400000000003,10.371499999999999
212562.0,60.127699999999997,35.575299999999999,-20.9681,37.732100000000003,-8.3450699999999998,-0.021922500000000001,5.24918
212563.0,58.467399999999998,33.355800000000002,-17.0928,42.663499999999999,-8.6545299999999994,-2.0736400000000001,5.1506600000000002
212564.0,61.979300000000002,32.0657,-14.8056,49.8919,-10.4856,-4.3467099999999999,5.9071600000000002
212565.0,66.6524,27.645299999999999,-12.735799999999999,57.408499999999997,-11.365,-7.3734400000000004,7.6069100000000001
212566.0,74.056899999999999,34.183,0.97667300000000001,78.611400000000003,-10.629300000000001,-11.217000000000001,8.4886300000000006
212567.0,8.5099999999999998,-1.78755,-4.5685799999999999,2.88578,2.23644,-0.86608099999999999,2.0489099999999998
212568.0,97.305999999999997,8.8330199999999994,-82.029799999999994,4.8709100000000003,12.072100000000001,8.2323400000000007,17.4757
212569.0,76.410700000000006,37.844799999999999,-40.678600000000003,30.341699999999999,-5.0400299999999998,1.9866600000000001,6.2582100000000001
212570.0,68.352400000000003,34.893700000000003,-31.9163,34.345300000000002,-6.7539800000000003,0.52183100000000004,5.9765699999999997
212571.0,105.599,23.512599999999999,-75.243099999999998,22.656400000000001,8.4307499999999997,10.3551,17.770600000000002
212572.0,23.112400000000001,-5.9867800000000004,-23.8155,-10.7277,8.8842999999999996,0.82318000000000002,3.6304500000000002
212573.0,7.2794400000000001,6.48353,12.3574,12.2401,-1.4594,-1.2231399999999999,-1.6618599999999999
212574.0,7.8019800000000004,0.42976599999999998,-3.9708199999999998,2.8326699999999998,2.71888,-0.76436800000000005,0.63974900000000001
212575.0,30.645399999999999,-9.5579699999999992,-34.774099999999997,-23.760899999999999,11.6203,0.96232700000000004,4.1568300000000002
212576.0,48.389600000000002,-14.2784,-56.142499999999998,-40.741799999999998,16.682300000000001,4.5833700000000004,5.73271
212577.0,57.383200000000002,-19.567699999999999,-71.918300000000002,-49.002699999999997,16.373799999999999,9.3800899999999992,7.2687499999999998
212578.0,69.536799999999999,-25.5532,-90.661199999999994,-49.613999999999997,17.499500000000001,10.3733,10.6837
212579.0,82.070499999999996,-12.526899999999999,-88.825100000000006,-24.706800000000001,16.137799999999999,8.2351500000000009,15.3879
212580.0,106.637,36.244500000000002,-66.854900000000001,29.6174,7.9229599999999998,9.8118300000000005,17.3611
212581.0,107.18600000000001,45.387599999999999,-63.8215,29.036899999999999,7.6381500000000004,6.27475,16.200900000000001
212582.0,100.86,42.900300000000001,-63.345599999999997,23.051500000000001,5.1773600000000002,3.5822600000000002,12.6554
212583.0,89.732600000000005,41.232300000000002,-54.239699999999999,24.0611,0.046614799999999998,2.9719099999999998,9.2205399999999997
212584.0,83.183099999999996,38.028100000000002,-49.633400000000002,24.905100000000001,-3.0223300000000002,2.8601000000000001,7.3280399999999997
212585.0,63.359200000000001,33.899799999999999,-23.936599999999999,39.715299999999999,-8.0846800000000005,-0.91944099999999995,5.78932
212586.0,62.054099999999998,29.271699999999999,-22.123100000000001,42.174500000000002,-8.7499599999999997,-2.0931700000000002,6.75387
212587.0,64.911299999999997,31.573499999999999,-16.088200000000001,51.831099999999999,-10.502800000000001,-3.3565100000000001,8.1900999999999993
212588.0,71.7376,22.822700000000001,-17.641200000000001,56.945799999999998,-12.17,-4.9019000000000004,12.2121
212589.0,69.320400000000006,27.150600000000001,-1.1211599999999999,71.786000000000001,-10.089600000000001,-6.8460099999999997,10.096
212590.0,7.5166500000000003,1.7473799999999999,2.1438199999999998,6.1177900000000003,2.78193,0.0052780500000000003,-2.2918400000000001
212591.0,87.2363,19.532499999999999,-67.920900000000003,0.61941599999999997,16.7376,-11.801,0.229661
212592.0,75.578100000000006,37.395800000000001,-40.613900000000001,30.461200000000002,-4.1170900000000001,1.61676,4.4987599999999999
212593.0,69.094999999999999,35.743600000000001,-31.68,36.3902,-6.0540700000000003,0.48898200000000003,4.9495100000000001
212594.0,102.45999999999999,30.3276,-71.882000000000005,18.0166,18.748799999999999,-5.7561099999999996,-1.1715899999999999
212595.0,26.7835,-10.108599999999999,-27.6372,-16.446000000000002,12.3652,2.12778,-1.70797
212596.0,12.944900000000001,11.845599999999999,21.665400000000002,20.946100000000001,-4.4055099999999996,-0.85186300000000004,-2.4003899999999998
212597.0,6.2567500000000003,-2.7302900000000001,-0.37853900000000001,3.37541,0.77835299999999996,-0.037211899999999999,-1.7198800000000001
212598.0,39.478900000000003,-15.544700000000001,-43.729799999999997,-29.427399999999999,16.787700000000001,5.93154,-1.97611
212599.0,54.299500000000002,-24.412199999999999,-71.956900000000005,-47.998199999999997,18.253799999999998,8.3791600000000006,-3.7767900000000001
212600.0,56.682099999999998,-10.776300000000001,-67.637500000000003,-39.194400000000002,14.4842,2.3881299999999999,-6.8672800000000001
212601.0,62.8919,13.634,-46.915999999999997,-17.267900000000001,18.116399999999999,-6.3554399999999998,-5.7585699999999997
212602.0,67.881399999999999,17.199300000000001,-48.662100000000002,-7.5986500000000001,17.205100000000002,-11.5398,-0.54777500000000001
212603.0,100.999,26.010400000000001,-75.627099999999999,20.564599999999999,11.253299999999999,1.0766899999999999,-1.9289799999999999
212604.0,104.76000000000001,37.4024,-71.623599999999996,26.5532,5.6762899999999998,4.3223200000000004,0.36969800000000003
212605.0,103.84,50.561100000000003,-59.308799999999998,33.059899999999999,9.2338000000000005,4.1366300000000003,2.6309200000000001
212606.0,87.428100000000001,40.137,-52.9602,26.319900000000001,2.80077,2.8205900000000002,2.8631000000000002
212607.0,81.184299999999993,41.220700000000001,-44.874600000000001,29.217199999999998,-1.7609699999999999,2.4214099999999998,3.69469
212608.0,65.230999999999995,35.086799999999997,-23.925000000000001,42.609299999999998,-7.6188000000000002,-0.63347200000000004,5.6817299999999999
212609.0,64.001599999999996,30.5731,-22.150200000000002,44.437800000000003,-8.4222900000000003,-1.17628,7.6656000000000004
212610.0,67.302700000000002,31.933700000000002,-18.605399999999999,50.582500000000003,-10.7088,-1.7360100000000001,10.5215
212611.0,70.252099999999999,21.0184,-18.7364,49.918799999999997,-12.5245,-0.46350999999999998,17.315899999999999
212612.0,54.118400000000001,34.6417,13.421799999999999,70.106399999999994,-7.7591900000000003,-2.2002100000000002,9.5406999999999993
212613.0,16.415900000000001,-6.1749599999999996,-7.1611799999999999,-6.2317799999999997,4.5339299999999998,4.9138400000000004,-6.6946599999999998
212614.0,69.618399999999994,46.047600000000003,-24.982500000000002,21.294799999999999,16.650700000000001,0.95829299999999995,-6.1222099999999999
212615.0,72.043000000000006,36.999099999999999,-39.491500000000002,25.927399999999999,-3.3746200000000002,1.6199300000000001,2.6855699999999998
212616.0,66.154600000000002,34.983899999999998,-32.046999999999997,30.851500000000001,-5.3901599999999998,0.82315099999999997,4.24329
212617.0,87.150999999999996,42.143500000000003,-48.004600000000003,7.6611700000000003,19.2744,-0.023706700000000001,-9.5496999999999996
212618.0,34.515799999999999,-13.9895,-30.383500000000002,-22.8813,14.4031,6.9765199999999998,-8.5813799999999993
212619.0,12.2698,10.828799999999999,20.8994,18.720199999999998,-3.3802699999999999,0.69001999999999997,-3.1948300000000001
212620.0,10.5464,-3.12975,-3.1527099999999999,-0.87480199999999997,3.1767500000000002,2.8443900000000002,-4.1449999999999996
212621.0,37.1755,-6.19285,-33.9497,-16.252600000000001,13.583500000000001,2.8760500000000002,-8.3914799999999996
212622.0,42.592500000000001,10.1905,-28.041399999999999,2.7768600000000001,7.3062800000000001,-7.4893599999999996,-9.1741799999999998
212623.0,56.204900000000002,55.881399999999999,9.8511799999999994,47.529699999999998,10.4754,-14.404,-11.593999999999999
212624.0,64.259799999999998,69.323300000000003,16.1007,57.845199999999998,19.087,-12.1478,-8.9473199999999995
212625.0,59.914700000000003,55.602499999999999,-0.30260300000000001,41.688899999999997,17.6051,-4.7730300000000003,-4.1018699999999999
212626.0,92.256799999999998,36.398600000000002,-61.480200000000004,2.09748,14.771800000000001,-2.7515800000000001,-12.034700000000001
212627.0,95.2667,37.317999999999998,-66.661900000000003,5.5782800000000003,6.9181299999999997,-0.0425472,-11.7362
212628.0,96.1554,46.8476,-58.7164,17.678000000000001,8.2737099999999995,3.6091799999999998,-5.3556600000000003
212629.0,83.746200000000002,40.604799999999997,-51.332500000000003,19.2697,3.5660500000000002,3.0167099999999998,-0.77607199999999998
212630.0,77.620800000000003,38.549500000000002,-45.789400000000001,22.2485,-1.06487,2.2381500000000001,0.93108299999999999
212631.0,63.149500000000003,33.657299999999999,-25.622599999999998,36.910400000000003,-7.1825000000000001,0.341974,6.1972300000000002
212632.0,61.767600000000002,27.7103,-24.2179,38.696399999999997,-7.9128800000000004,0.097329399999999996,8.9377600000000008
212633.0,65.650999999999996,31.250299999999999,-18.558800000000002,47.234200000000001,-10.0806,0.20415,12.549899999999999
212634.0,62.669899999999998,18.631499999999999,-18.901900000000001,40.922800000000002,-10.6134,1.6395,16.725200000000001
212635.0,44.517000000000003,28.539999999999999,11.237399999999999,58.162799999999997,-5.8573599999999999,-0.70907500000000001,7.9138799999999998
212636.0,27.113199999999999,-6.8146500000000003,-12.007,-8.7767300000000006,7.0691199999999998,3.8191600000000001,-13.1761
212637.0,71.727699999999999,44.239100000000001,-30.633700000000001,6.7979700000000003,16.296700000000001,6.6387400000000003,-1.9539200000000001
212638.0,67.934600000000003,38.32,-35.420299999999997,22.752800000000001,-3.0548899999999999,1.1841299999999999,4.1176899999999996
212639.0,62.189399999999999,33.531700000000001,-29.941099999999999,27.6648,-4.7731300000000001,1.2916300000000001,5.8690600000000002
212640.0,79.676699999999997,46.445,-38.700000000000003,-4.7286799999999998,14.530099999999999,7.4612699999999998,-3.50013
212641.0,35.762599999999999,-12.1874,-28.144300000000001,-17.3325,9.3281200000000002,0.119185,-16.5215
212642.0,11.2227,3.2608000000000001,9.7535799999999995,7.5011799999999997,0.77588000000000001,2.9137900000000001,-4.6927899999999996
212643.0,21.692799999999998,-4.9766000000000004,-12.894600000000001,-8.4638200000000001,7.2729999999999997,4.5487799999999998,-8.2172300000000007
212644.0,28.174099999999999,12.241,0.81614200000000003,15.8797,-2.3846099999999999,-5.6026400000000001,-12.873900000000001
212645.0,31.621200000000002,49.992600000000003,35.2575,59.467799999999997,1.27677,-2.92015,-13.202299999999999
212646.0,49.656199999999998,56.915900000000001,29.6523,66.847899999999996,13.536300000000001,7.6624699999999999,-14.4588
212647.0,62.766500000000001,47.011200000000002,0.29494199999999998,48.5443,17.946300000000001,12.4483,-9.1682500000000005
212648.0,66.874499999999998,50.4861,-12.8682,33.287199999999999,17.858599999999999,9.2659300000000009,-3.5538400000000001
212649.0,84.9392,47.850700000000003,-44.566200000000002,-6.7175900000000004,12.9156,7.4447099999999997,-4.9129399999999999
212650.0,84.285499999999999,43.628300000000003,-50.989199999999997,-3.4346399999999999,8.6486499999999999,4.8064499999999999,-5.65503
212651.0,83.490700000000004,40.755499999999998,-53.531999999999996,3.8865799999999999,5.7244099999999998,3.4820500000000001,-4.5765500000000001
212652.0,78.546199999999999,40.106200000000001,-48.634900000000002,10.4572,2.48698,2.4085200000000002,-1.87869
212653.0,73.130200000000002,39.956200000000003,-42.071599999999997,16.008600000000001,-0.36887399999999998,1.22153,1.3507899999999999
212654.0,59.1023,34.449399999999997,-21.526700000000002,35.854199999999999,-6.2294,0.97550400000000004,7.3000999999999996
212655.0,58.301600000000001,29.510300000000001,-20.5167,37.2562,-7.13781,0.89795700000000001,9.8930000000000007
212656.0,61.694699999999997,32.4056,-14.9686,45.617899999999999,-8.7647600000000008,1.3636600000000001,13.233700000000001
212657.0,60.442,22.178599999999999,-14.667899999999999,45.670200000000001,-8.4582499999999996,2.26485,14.6982
212658.0,50.981099999999998,34.3887,15.4937,70.703800000000001,-5.8031899999999998,0.25577,6.7296500000000004
212659.0,27.439499999999999,4.1543099999999997,-4.9946200000000003,5.5579900000000002,6.1529600000000002,3.7098300000000002,-12.904
212660.0,79.226200000000006,45.171500000000002,-38.714599999999997,-3.6745999999999999,16.233499999999999,7.0328900000000001,-2.04257
212661.0,63.357999999999997,36.524099999999997,-30.495999999999999,26.284400000000002,-2.1628599999999998,-2.3075600000000001,4.9644300000000001
212662.0,57.082500000000003,36.117899999999999,-21.834399999999999,31.045000000000002,-3.3218100000000002,-2.5268700000000002,6.2166399999999999
212663.0,81.468800000000002,43.963700000000003,-44.250300000000003,-7.8684500000000002,14.6371,5.7070400000000001,-0.50727699999999998
212664.0,33.815300000000001,36.758499999999998,28.457799999999999,40.074300000000001,-4.1872400000000001,-3.8827799999999999,-17.6845
212665.0,14.053800000000001,-1.88046,-0.21934300000000001,0.50845700000000005,4.1944299999999997,3.2238199999999999,-6.0291600000000001
212666.0,28.674099999999999,-6.48935,-20.701799999999999,-10.865,10.8888,4.7578500000000004,-8.9376999999999995
212667.0,29.285499999999999,70.492800000000003,71.134299999999996,76.792299999999997,-7.5784099999999999,-5.0446499999999999,-13.819599999999999
212668.0,32.603099999999998,74.795599999999993,58.733600000000003,70.072800000000001,10.5375,1.3107599999999999,-13.168799999999999
212669.0,44.985900000000001,58.748399999999997,27.743200000000002,45.4251,16.618400000000001,2.7645300000000002,-12.2004
212670.0,59.8202,51.869100000000003,-2.02372,24.525200000000002,19.060199999999998,3.2604000000000002,-9.6299399999999995
212671.0,72.274500000000003,42.244700000000002,-30.361000000000001,1.7553700000000001,18.571400000000001,6.2441700000000004,-5.7945500000000001
212672.0,80.002799999999993,41.989199999999997,-46.602400000000003,-8.1878700000000002,11.9887,4.0116399999999999,0.105472
212673.0,77.438199999999995,44.005499999999998,-43.929200000000002,-2.4095200000000001,7.9697399999999998,-0.22470999999999999,0.447324
212674.0,74.919700000000006,46.229100000000003,-38.835099999999997,6.6759500000000003,5.3811799999999996,-5.4846700000000004,0.117518
212675.0,70.347800000000007,41.810600000000001,-37.376800000000003,13.479900000000001,3.1524000000000001,-5.21394,1.59249
212676.0,66.567800000000005,35.868099999999998,-37.0199,18.8871,0.135958,-2.3338100000000002,4.1457499999999996
212677.0,55.205599999999997,35.695599999999999,-16.416399999999999,36.218299999999999,-4.67713,-1.1864699999999999,8.8437999999999999
212678.0,59.064399999999999,28.059000000000001,-22.308299999999999,35.901299999999999,-5.8043199999999997,0.98370599999999997,11.420299999999999
212679.0,62.596699999999998,30.4038,-18.0395,44.971200000000003,-8.0457300000000007,1.7490699999999999,12.2516
212680.0,63.932299999999998,21.026900000000001,-19.028700000000001,46.344700000000003,-7.6238599999999996,3.5213700000000001,14.331799999999999
212681.0,54.371699999999997,28.6008,6.3737599999999999,66.251000000000005,-6.1075999999999997,2.6636700000000002,4.9884599999999999
212682.0,21.438099999999999,4.6403699999999999,-1.9733099999999999,10.372999999999999,2.5317699999999999,9.0177499999999995,-5.2244200000000003
212683.0,82.717799999999997,45.485100000000003,-39.1708,2.4113500000000001,18.353899999999999,-9.9439399999999996,-7.2908600000000003
212684.0,55.858600000000003,40.238599999999998,-14.570499999999999,39.852200000000003,1.42936,-3.5582099999999999,5.5695100000000002
212685.0,55.619599999999998,28.748699999999999,-18.350300000000001,39.787700000000001,-2.5971000000000002,0.048501599999999999,8.4299199999999992
212686.0,84.058099999999996,50.132300000000001,-37.9619,7.4019700000000004,15.781000000000001,-12.0602,-4.4761899999999999
212687.0,37.305700000000002,12.0344,4.53247,11.5449,-6.7917699999999996,15.3172,-12.866400000000001
212688.0,14.295199999999999,-0.53658499999999998,-0.051725500000000001,4.7236099999999999,3.3598599999999998,3.3960499999999998,-6.0699500000000004
212689.0,24.824400000000001,-8.7314000000000007,-21.994,-8.4157799999999998,8.9269200000000009,3.2915100000000002,-7.4048699999999998
212690.0,40.157200000000003,42.386400000000002,29.456299999999999,31.128900000000002,-1.71126,18.9453,-11.235099999999999
212691.0,50.548099999999998,53.406100000000002,19.626799999999999,26.475899999999999,15.9396,13.5585,-9.7434700000000003
212692.0,47.355699999999999,47.774500000000003,8.5449000000000002,16.733599999999999,15.071099999999999,6.5622800000000003,-7.00448
212693.0,63.5383,50.837499999999999,-11.0128,12.498200000000001,18.2104,0.22021099999999999,-6.2731599999999998
212694.0,79.102000000000004,54.481499999999997,-23.692499999999999,12.7189,21.3887,-6.0725199999999999,-7.8216099999999997
212695.0,80.959800000000001,50.491700000000002,-36.075299999999999,11.3256,13.0932,-11.365500000000001,-2.2599900000000002
212696.0,76.876300000000001,45.141100000000002,-39.902500000000003,7.9383900000000001,11.347899999999999,-4.5237400000000001,-1.79209
212697.0,65.154600000000002,38.3598,-35.209899999999998,9.17821,6.0684300000000002,2.4100299999999999,0.098496899999999998
212698.0,60.5182,39.237200000000001,-28.103999999999999,20.537800000000001,-1.10504,0.15890799999999999,3.3395600000000001
212699.0,61.0717,43.317799999999998,-21.268899999999999,33.083300000000001,1.12233,-4.4333999999999998,4.1567400000000001
212700.0,59.456400000000002,32.663400000000003,-12.282,51.694899999999997,-4.4467999999999996,1.8363700000000001,8.7169799999999995
212701.0,61.908099999999997,26.8949,-20.7988,45.937800000000003,-3.3629899999999999,1.9252,8.9817800000000005
212702.0,64.9178,34.937899999999999,-14.897399999999999,52.971899999999998,-7.0651200000000003,1.3810100000000001,10.8218
212703.0,67.559200000000004,18.966799999999999,-25.3203,42.395400000000002,-7.5325300000000004,4.8246900000000004,16.0868
212704.0,49.907800000000002,37.419699999999999,14.1594,69.021500000000003,-5.5365599999999997,4.2746599999999999,4.8035800000000002
212705.0,15.2478,-9.81203,-4.9039799999999998,1.9086099999999999,-1.40191,5.1808199999999998,-3.7479300000000002
212706.0,83.608000000000004,40.892699999999998,-39.622500000000002,35.215400000000002,17.367000000000001,2.1666300000000001,-2.1257899999999998
212707.0,45.935200000000002,33.136699999999998,-14.59,25.571400000000001,3.4886599999999999,5.1620100000000004,-2.5552100000000002
212708.0,43.3262,29.553699999999999,-9.0451099999999993,34.275700000000001,-4.5928000000000004,0.23553399999999999,6.3056000000000001
212709.0,94.3416,44.531399999999998,-47.159599999999998,38.961199999999998,14.656000000000001,9.7919099999999997,-3.6859999999999999
212710.0,33.127099999999999,0.100785,-2.97072,13.516299999999999,0.76001200000000002,7.6394599999999997,-15.1654
212711.0,11.960000000000001,-1.93987,1.5121100000000001,6.0289900000000003,-0.34478399999999998,3.4691900000000002,-4.4222599999999996
212712.0,13.9986,2.4129900000000002,-3.9295900000000001,7.6719999999999997,1.80027,2.3272400000000002,-4.7870799999999996
212713.0,45.9343,0.82143600000000006,-9.1602999999999994,23.3127,-0.26949299999999998,12.792899999999999,-16.215
212714.0,54.319800000000001,14.622199999999999,-10.9521,34.204099999999997,8.4350400000000008,13.898400000000001,-14.369
212715.0,47.687199999999997,13.4604,-14.817399999999999,30.4116,6.91282,7.82864,-11.2624
212716.0,59.3767,31.702500000000001,-20.026900000000001,33.120699999999999,12.161899999999999,-1.3225499999999999,-10.4133
212717.0,79.615899999999996,47.421100000000003,-25.493600000000001,37.747300000000003,21.693000000000001,-3.9060999999999999,-7.6677099999999996
212718.0,89.479799999999997,36.704700000000003,-51.532400000000003,29.763500000000001,9.0304500000000001,11.0802,-7.5759100000000004
212719.0,82.849999999999994,45.9709,-36.581800000000001,36.500799999999998,10.421200000000001,6.3633699999999997,-9.8995599999999992
212720.0,64.334400000000002,22.296299999999999,-39.319299999999998,19.496400000000001,8.0327999999999999,2.73197,-9.8513300000000008
212721.0,54.9968,16.976900000000001,-37.249400000000001,13.003299999999999,-5.8239299999999998,2.9489999999999998,-7.21082
212722.0,57.555900000000001,38.674500000000002,-22.4117,25.4269,-0.636042,5.6734400000000003,-6.2485299999999997
212723.0,56.909300000000002,43.1935,-1.4004099999999999,57.2273,-4.6650400000000003,-3.1406000000000001,10.526199999999999
212724.0,62.803600000000003,33.6053,-13.1868,55.082099999999997,0.31353999999999999,0.18931799999999999,9.8011700000000008
212725.0,67.841399999999993,32.368600000000001,-15.676600000000001,56.885100000000001,-5.5000600000000004,3.67869,11.3109
212726.0,68.722300000000004,18.065200000000001,-26.6252,43.383499999999998,-6.7484599999999997,6.2662800000000001,15.26
212727.0,49.191600000000001,33.5291,10.406700000000001,64.754199999999997,-4.07186,5.3135899999999996,4.2314100000000003
212728.0,41.039999999999999,6.4269100000000003,19.4495,34.191899999999997,-8.8745899999999995,9.2164900000000003,-14.309200000000001
212729.0,103.078,15.848699999999999,-50.300199999999997,65.078900000000004,7.52034,9.3376099999999997,-6.7829800000000002
212730.0,57.2639,3.8964500000000002,-31.9116,19.941800000000001,0.207061,15.529400000000001,-12.1287
212731.0,48.099200000000003,-8.2469300000000008,-32.742199999999997,5.8624299999999998,-6.6340500000000002,16.946999999999999,-7.6418799999999996
212732.0,122.434,37.695300000000003,-52.795400000000001,79.048299999999998,18.0121,-0.085074700000000003,-11.1958
212733.0,51.594900000000003,-3.45933,3.7894600000000001,29.900500000000001,-3.7728199999999998,10.043799999999999,-21.549099999999999
212734.0,19.647099999999998,3.2166399999999999,9.6711200000000002,17.270600000000002,-4.4978699999999998,4.2378600000000004,-6.4024700000000001
212735.0,26.5944,3.36212,4.0660600000000002,20.257200000000001,-4.8282499999999997,6.2111099999999997,-9.0838300000000007
212736.0,65.469399999999993,-8.3252299999999995,-5.7924199999999999,36.789099999999998,-1.62612,9.5615199999999998,-26.309699999999999
212737.0,77.188400000000001,-8.0622100000000003,-16.2242,44.448099999999997,1.15506,9.4616500000000006,-28.477699999999999
212738.0,83.299800000000005,-2.4853499999999999,-19.005800000000001,53.706800000000001,-0.57864700000000002,12.8591,-26.350100000000001
212739.0,95.587100000000007,18.868099999999998,-22.672499999999999,65.191000000000003,9.1764899999999994,20.400300000000001,-24.765799999999999
212740.0,98.752700000000004,20.717400000000001,-31.298100000000002,67.036199999999994,11.1617,21.120999999999999,-16.121500000000001
212741.0,116.441,30.3748,-56.414200000000001,69.025700000000001,13.223599999999999,2.1325699999999999,-14.601100000000001
212742.0,103.56999999999999,25.484999999999999,-55.480400000000003,55.343000000000004,6.0538999999999996,6.2049300000000001,-14.5707
212743.0,86.999799999999993,23.133800000000001,-44.562899999999999,42.969700000000003,8.5495099999999997,8.8153000000000006,-16.303599999999999
212744.0,66.372,2.26023,-42.131700000000002,23.0106,-5.0514999999999999,11.291700000000001,-14.4201
212745.0,64.3673,8.4685299999999994,-36.061799999999998,25.0304,-5.0499299999999998,13.007899999999999,-13.714700000000001
212746.0,45.722000000000001,17.872,-13.776899999999999,23.173999999999999,-6.3204900000000004,15.9642,-1.68519
212747.0,49.1708,25.604600000000001,-9.9632000000000005,37.958199999999998,-4.3053299999999997,11.424300000000001,6.1520700000000001
212748.0,62.151200000000003,42.579700000000003,-3.13327,64.552499999999995,-4.0939500000000004,5.1439899999999996,7.2155300000000002
212749.0,62.448099999999997,21.409500000000001,-19.654800000000002,48.575400000000002,-4.6651400000000001,6.4685699999999997,7.5082700000000004
212750.0,50.195399999999999,38.993200000000002,17.9727,72.982900000000001,-3.8745599999999998,7.3375199999999996,0.68065399999999998
212751.0,46.348700000000001,6.9647800000000002,19.7944,48.063499999999998,-10.2347,10.5487,-7.6092500000000003
212752.0,113.81,7.3462300000000003,-49.113500000000002,63.655799999999999,-1.92557,19.832000000000001,-27.2271
212753.0,67.036699999999996,3.8996599999999999,-12.5036,52.825099999999999,-0.474026,-9.45899,-15.9114
212754.0,60.404200000000003,1.2208699999999999,-0.13664999999999999,56.168300000000002,4.1566400000000003,-1.57091,-12.8293
212755.0,119.438,30.9269,-56.009799999999998,67.084400000000002,11.061299999999999,13.004899999999999,-21.464200000000002
212756.0,54.805,4.6298500000000002,14.3416,52.4694,-8.0537299999999998,12.801500000000001,-11.532999999999999
212757.0,26.809200000000001,7.2488700000000001,12.9552,29.759,-5.93743,6.4134700000000002,-5.1237000000000004
212758.0,32.908200000000001,3.6647699999999999,5.5737500000000004,31.079000000000001,-5.9462099999999998,7.9988400000000004,-5.2306999999999997
212759.0,65.388599999999997,4.5269199999999996,7.44123,57.183999999999997,-4.2171099999999999,18.729700000000001,-13.442500000000001
212760.0,85.876900000000006,2.8642500000000002,-12.618,54.881,-0.99790500000000004,29.425599999999999,-18.470400000000001
212761.0,109.375,0.61455499999999996,-31.626999999999999,53.4724,-0.70035000000000003,38.2624,-26.023
212762.0,126.078,5.1637000000000004,-43.0595,60.712699999999998,8.3738299999999999,36.330300000000001,-34.811999999999998
212763.0,121.381,-2.1172599999999999,-44.870699999999999,63.508200000000002,1.97845,27.602399999999999,-34.134900000000002
212764.0,122.02500000000001,33.561199999999999,-60.840000000000003,68.490600000000001,11.6313,6.3404999999999996,-17.6493
212765.0,121.15000000000001,37.381700000000002,-52.890999999999998,74.574200000000005,9.1444200000000002,4.5323900000000004,-22.1721
212766.0,106.557,30.6553,-38.453200000000002,71.060199999999995,8.2953399999999995,5.8178799999999997,-24.802700000000002
212767.0,81.093500000000006,6.2495099999999999,-29.271999999999998,54.183,-3.9864000000000002,1.3497600000000001,-20.5017
212768.0,72.7607,7.2480099999999998,-19.368400000000001,52.4069,-4.8920399999999997,-6.5971200000000003,-19.510899999999999
212769.0,54.314399999999999,-11.4823,-9.6716700000000007,39.5169,-4.6479100000000004,7.63687,-8.1327099999999994
212770.0,46.850299999999997,4.6821799999999998,-10.145300000000001,36.839599999999997,-7.3043800000000001,9.7116900000000008,-2.6566800000000002
212771.0,48.551900000000003,38.178100000000001,0.77992099999999998,52.751800000000003,-1.5982000000000001,8.0043299999999995,0.67488599999999999
212772.0,53.978099999999998,20.691400000000002,-14.6448,42.252499999999998,-8.0676000000000005,7.4671900000000004,5.0228599999999997
212773.0,50.457999999999998,42.049199999999999,19.0562,74.003200000000007,-1.9393400000000001,8.2840299999999996,-3.8466900000000002
212774.0,38.926699999999997,2.7355900000000002,15.299200000000001,38.109299999999998,-8.0567899999999995,10.885899999999999,0.32792500000000002
212775.0,131.30000000000001,11.396599999999999,-49.904499999999999,48.064,-2.9602499999999998,42.136899999999997,-38.8874
212776.0,49.665199999999999,26.488700000000001,13.383699999999999,44.472099999999998,-2.2561300000000002,-1.4872000000000001,-23.902000000000001
212777.0,31.953600000000002,8.9875699999999998,16.6935,37.069800000000001,3.7392500000000002,-5.1946199999999996,-9.4259299999999993
212778.0,133.32300000000001,23.095400000000001,-54.210700000000003,51.077100000000002,-8.3582699999999992,42.493699999999997,-32.791600000000003
212779.0,50.8658,5.5496800000000004,10.4467,50.7532,-2.6291199999999999,14.7492,-4.7610799999999998
212780.0,28.500299999999999,5.1808500000000004,10.1897,29.541699999999999,-5.6654200000000001,8.3028200000000005,-2.0531899999999998
212781.0,29.361499999999999,6.15456,6.7445899999999996,30.426200000000001,-5.54122,7.9204999999999997,-1.4872700000000001
212782.0,72.1755,2.7295500000000001,9.6793200000000006,69.213800000000006,-7.2577400000000001,17.194199999999999,-7.2559100000000001
212783.0,91.901200000000003,0.93533699999999997,-7.30389,80.983900000000006,-2.6489199999999999,12.893599999999999,-16.2363
212784.0,114.005,4.0277599999999998,-22.601800000000001,85.626999999999995,7.7027999999999999,10.599399999999999,-31.313400000000001
212785.0,124.598,1.93798,-39.934699999999999,69.828599999999994,11.9155,17.173500000000001,-40.860900000000001
212786.0,124.319,-1.8408899999999999,-52.936700000000002,48.948300000000003,3.2306599999999999,30.126100000000001,-40.479399999999998
212787.0,132.952,41.645299999999999,-60.244700000000002,58.676200000000001,-5.7576599999999996,27.5184,-31.081099999999999
212788.0,128.76900000000001,56.029499999999999,-47.675600000000003,68.394499999999994,8.5552899999999994,11.7584,-35.3889
212789.0,101.92400000000001,39.097499999999997,-29.1891,63.979100000000003,4.1797700000000004,4.8220700000000001,-33.091200000000001
212790.0,87.325999999999993,31.609300000000001,-14.142799999999999,60.458599999999997,-8.6428700000000003,0.68007399999999996,-32.428899999999999
212791.0,78.815299999999993,38.603099999999998,0.59701199999999999,58.493499999999997,-7.1296799999999996,-2.30999,-33.898299999999999
212792.0,49.892099999999999,-6.7385799999999998,1.9225399999999999,38.730899999999998,-8.7981099999999994,-12.929,-1.5121599999999999
212793.0,54.018099999999997,24.042100000000001,0.089958300000000005,58.051600000000001,1.5531200000000001,-4.5029599999999999,-10.081899999999999
212794.0,51.335099999999997,8.8032900000000005,-17.496600000000001,34.037199999999999,1.8653299999999999,10.5838,-9.9451000000000001
212795.0,54.122399999999999,5.2405400000000002,-13.4634,32.166200000000003,-16.990100000000002,12.712,0.066643999999999995
212796.0,50.936900000000001,55.434600000000003,28.4879,80.899000000000001,-2.1177299999999999,10.2837,-8.2281200000000005
212797.0,39.381900000000002,2.7719399999999998,17.5306,41.153399999999998,-4.4589800000000004,10.0534,4.6035899999999996
212798.0,120.271,2.60541,-41.331200000000003,49.793399999999998,2.7804000000000002,-0.26983600000000002,-52.317399999999999
212799.0,73.873400000000004,22.358000000000001,16.204899999999999,26.272200000000002,-5.8991800000000003,36.457999999999998,-20.720800000000001
212800.0,84.840100000000007,15.9924,19.3733,21.1402,-9.5461200000000002,47.033099999999997,-9.4445200000000007
212801.0,129.81899999999999,-4.2662300000000002,-55.229199999999999,43.4405,-9.9068799999999992,-4.5726399999999998,-55.351799999999997
212802.0,47.359499999999997,12.0321,6.9946799999999998,46.4709,9.9792500000000004,13.6532,-0.114659
212803.0,25.065899999999999,9.0368499999999994,14.571300000000001,30.854900000000001,-4.9423000000000004,7.5079700000000003,0.031269100000000001
212804.0,27.4057,7.4555300000000004,7.0915499999999998,31.065999999999999,-4.8254799999999998,6.17272,0.492975
212805.0,55.180100000000003,-1.2715399999999999,-1.4290499999999999,44.828600000000002,-6.7822699999999996,15.817500000000001,2.8138899999999998
212806.0,65.818899999999999,10.235099999999999,-18.554099999999998,51.198099999999997,-3.5251999999999999,13.2334,-5.2724000000000002
212807.0,91.337500000000006,36.039700000000003,-17.465699999999998,66.3065,16.191600000000001,11.9156,-24.026
212808.0,109.899,32.250399999999999,-27.208400000000001,60.547699999999999,21.274000000000001,10.528,-38.161299999999997
212809.0,113.627,16.314800000000002,-36.499699999999997,51.963099999999997,12.2479,6.5160099999999996,-46.154299999999999
212810.0,137.91800000000001,28.235499999999998,-53.6937,51.673099999999998,-9.8807799999999997,-0.13073100000000001,-56.410299999999999
212811.0,134.626,57.372700000000002,-42.994,53.902200000000001,0.586557,8.1338899999999992,-52.241399999999999
212812.0,110.56399999999999,56.379800000000003,-28.0124,47.809699999999999,-7.0488400000000002,9.4676200000000001,-42.1676
212813.0,99.495400000000004,51.646900000000002,-17.7682,43.3979,-14.324400000000001,6.7727300000000001,-40.1342
212814.0,84.192499999999995,49.317,0.69206299999999998,40.699399999999997,-5.7473799999999997,17.335100000000001,-36.824599999999997
212815.0,83.594499999999996,24.942900000000002,11.609400000000001,29.061199999999999,-20.734200000000001,42.4392,-3.8911500000000001
212816.0,64.542500000000004,42.451300000000003,3.5878100000000002,56.113700000000001,-9.7869899999999994,21.604099999999999,-9.1317699999999995
212817.0,64.419700000000006,24.8536,-10.3781,49.323999999999998,7.9790700000000001,7.2264099999999996,-19.148700000000002
212818.0,49.567599999999999,-9.8771199999999997,-14.2455,25.205500000000001,-14.3063,9.1232100000000003,-7.9606300000000001
212819.0,51.217399999999998,29.695799999999998,7.5987900000000002,56.840899999999998,-8.2239100000000001,11.554600000000001,-8.0589700000000004
212820.0,43.054299999999998,8.8348600000000008,20.8338,47.514099999999999,-0.547736,14.0434,5.3284099999999999
212821.0,106.652,31.909600000000001,-50.786499999999997,-0.80885600000000002,4.0283100000000003,-1.13933,-45.161099999999998
212822.0,79.629900000000006,-31.9754,-13.6927,27.915800000000001,-10.274900000000001,25.478899999999999,-20.415900000000001
212823.0,89.203400000000002,-32.442,6.0246500000000003,50.156999999999996,-6.0833899999999996,18.798100000000002,-23.531199999999998
212824.0,120.898,46.938800000000001,-44.041699999999999,8.9123800000000006,-4.5692500000000003,-0.86298299999999994,-52.560000000000002
212825.0,47.785699999999999,11.0115,0.54030599999999995,36.758099999999999,15.455,12.6846,-3.7447400000000002
212826.0,28.1495,9.6767699999999994,16.543900000000001,34.509799999999998,-5.9719699999999998,7.9857100000000001,0.51064900000000002
212827.0,31.956600000000002,2.0424000000000002,2.5613800000000002,30.629999999999999,-4.1913600000000004,7.3610499999999996,1.0462899999999999
212828.0,41.279800000000002,0.994093,-3.15557,30.039000000000001,-7.4763999999999999,13.1615,3.4301499999999998
212829.0,58.775199999999998,33.893099999999997,-13.946,39.789900000000003,-1.74444,15.376200000000001,-6.5994200000000003
212830.0,98.035300000000007,60.198599999999999,-22.6707,41.024000000000001,20.0488,17.889800000000001,-24.4877
212831.0,110.023,50.164999999999999,-40.517899999999997,22.499500000000001,24.5045,11.281000000000001,-33.8718
212832.0,108.10899999999999,43.975099999999998,-44.138399999999997,14.2844,17.563400000000001,1.83125,-39.6768
212833.0,128.11000000000001,49.891199999999998,-44.1691,19.6739,-7.6660899999999996,0.91970099999999999,-55.723199999999999
212834.0,127.895,51.290399999999998,-43.330199999999998,33.566600000000001,-8.4865200000000005,2.5011899999999998,-53.3294
212835.0,122.706,45.454599999999999,-51.172699999999999,28.778600000000001,-10.676500000000001,8.0877700000000008,-46.600900000000003
212836.0,103.392,48.566499999999998,-27.2014,37.210299999999997,-10.7829,20.866,-36.631100000000004
212837.0,81.476600000000005,17.6584,-13.286099999999999,35.426299999999998,-6.6937300000000004,29.1951,-26.607500000000002
212838.0,87.688999999999993,-19.599299999999999,7.2068300000000001,60.2851,-12.9397,16.185700000000001,-21.927399999999999
212839.0,78.846400000000003,22.446300000000001,18.946400000000001,73.968500000000006,-21.854500000000002,13.4217,-21.574400000000001
212840.0,70.028999999999996,45.735100000000003,7.5790300000000004,64.897800000000004,-2.1604999999999999,5.6253299999999999,-27.330400000000001
212841.0,53.001800000000003,16.157599999999999,-4.21469,40.672600000000003,-6.7931400000000002,2.97472,-19.397300000000001
212842.0,48.298400000000001,19.1007,5.1598800000000002,45.507399999999997,-12.924099999999999,9.8672299999999993,-9.6566100000000006
212843.0,40.800199999999997,15.7582,17.331099999999999,43.372500000000002,3.6667999999999998,17.3034,1.22577
212844.0,118.358,54.322000000000003,-39.704799999999999,5.9030300000000002,5.81372,-12.4375,-47.646299999999997
212845.0,57.218699999999998,3.7885399999999998,-5.5044000000000004,36.801400000000001,-10.946199999999999,11.345800000000001,-18.666799999999999
212846.0,50.0886,2.5210499999999998,5.1037999999999997,24.502800000000001,-7.9194399999999998,13.075100000000001,-21.4068
212847.0,119.55200000000001,53.529699999999998,-44.023699999999998,8.1882400000000004,3.6550500000000001,-10.380699999999999,-47.539499999999997
212848.0,48.244500000000002,15.3612,-5.6496199999999996,18.627099999999999,18.0276,12.9825,-10.427099999999999
212849.0,41.218699999999998,20.2531,19.410699999999999,50.405299999999997,-3.5753300000000001,15.1837,3.3529800000000001
212850.0,44.204099999999997,15.5421,6.68283,44.7744,-1.0450600000000001,15.8057,1.7581800000000001
212851.0,33.277500000000003,2.7782399999999998,-20.251300000000001,3.7262599999999999,-4.3384400000000003,12.2026,-4.1280999999999999
212852.0,63.1068,18.545300000000001,-33.932499999999997,15.1366,-1.87659,4.5163200000000003,-21.008400000000002
212853.0,118.809,47.898099999999999,-32.937199999999997,29.639700000000001,21.9633,-2.1973799999999999,-49.200400000000002
212854.0,126.465,46.505699999999997,-39.552900000000001,12.7371,20.1675,-5.0855399999999999,-54.940399999999997
212855.0,122.974,53.4527,-40.336100000000002,6.4899100000000001,11.7743,-10.318899999999999,-50.9572
212856.0,114.521,47.429499999999997,-48.613399999999999,11.825200000000001,-1.43075,-6.3328699999999998,-44.407800000000002
212857.0,104.72,41.062199999999997,-46.643799999999999,26.102699999999999,-10.922499999999999,-2.9553500000000001,-36.414400000000001
212858.0,109.309,51.477899999999998,-38.07,50.6374,0.209006,1.2400599999999999,-36.512300000000003
212859.0,83.8108,21.5565,-30.222000000000001,44.430300000000003,1.7814000000000001,11.847099999999999,-27.1113
212860.0,65.752799999999993,-12.396100000000001,-26.057300000000001,29.7987,-13.026,14.664400000000001,-14.4429
212861.0,51.539900000000003,3.6150600000000002,3.9653299999999998,20.264399999999998,-14.3644,13.2624,-20.3157
212862.0,70.708799999999997,24.176300000000001,12.002800000000001,39.282299999999999,-18.198,16.1844,-29.777799999999999
212863.0,85.762799999999999,31.131900000000002,0.440164,46.119500000000002,-24.781600000000001,18.856000000000002,-30.657399999999999
212864.0,80.5214,39.637500000000003,-2.85684,50.923699999999997,-12.0961,14.6457,-31.562100000000001
212865.0,55.8919,13.5543,-2.4977100000000001,38.430100000000003,-12.9133,16.074999999999999,-13.816000000000001
212866.0,48.725700000000003,16.523199999999999,-8.7456300000000002,13.8504,13.783200000000001,19.4816,-5.4021299999999997
212867.0,118.75,42.065199999999997,-66.711100000000002,-31.728899999999999,3.0566200000000001,-6.6718799999999998,-39.535699999999999
212868.0,58.523400000000002,32.707700000000003,2.8871899999999999,45.0321,-6.4993999999999996,-3.8249,-24.803799999999999
212869.0,50.939999999999998,29.711099999999998,16.1279,39.713500000000003,-9.26417,8.4837699999999998,-23.812200000000001
212870.0,113.904,44.317500000000003,-63.702300000000001,-14.175000000000001,4.0110000000000001,-9.1953200000000006,-36.059699999999999
212871.0,56.915700000000001,14.007300000000001,-26.347000000000001,-0.630498,15.039400000000001,14.229200000000001,-15.2905
212872.0,45.300400000000003,8.9047000000000001,-2.9528599999999998,35.214500000000001,5.3740800000000002,16.243099999999998,3.1194500000000001
212873.0,49.209899999999998,16.1479,-9.8000000000000007,30.2592,11.7075,16.004000000000001,-1.07352
212874.0,56.556600000000003,8.7322799999999994,-36.581000000000003,-2.63104,-0.83681300000000003,7.8028199999999996,-21.184799999999999
212875.0,91.640900000000002,37.615000000000002,-34.074399999999997,3.25976,-1.75559,4.3635099999999998,-38.621899999999997
212876.0,134.476,69.288899999999998,-34.830100000000002,3.4373399999999998,14.7788,2.0550999999999999,-55.0608
212877.0,147.58199999999999,63.910699999999999,-48.854599999999998,-14.207100000000001,18.552700000000002,-2.4047800000000001,-59.780099999999997
212878.0,132.113,51.441299999999998,-56.703699999999998,-28.2363,8.3693299999999997,-4.8448799999999999,-50.813499999999998
212879.0,109.014,43.1297,-58.183,2.1673399999999998,3.86463,-9.2443500000000007,-35.546500000000002
212880.0,89.702500000000001,36.297800000000002,-48.403500000000001,13.427199999999999,-3.8707799999999999,-5.8254900000000003,-26.7057
212881.0,80.628500000000003,34.065399999999997,-39.311,28.613499999999998,4.2709999999999999,-7.1517600000000003,-20.648
212882.0,63.439500000000002,17.560700000000001,-23.91,38.6586,6.3139500000000002,-9.6648599999999991,-13.9625
212883.0,53.155900000000003,10.3386,-9.0868199999999995,41.302199999999999,-10.4132,-8.6313300000000002,-10.632899999999999
212884.0,54.661900000000003,26.420400000000001,18.558900000000001,39.655299999999997,-15.199199999999999,16.842199999999998,-19.1737
212885.0,66.177400000000006,26.948499999999999,11.391400000000001,45.176099999999998,-13.5914,17.495000000000001,-26.1356
212886.0,83.727599999999995,20.944600000000001,4.06846,53.473500000000001,-26.172000000000001,15.069100000000001,-28.179600000000001
212887.0,90.394400000000005,31.017099999999999,2.4576199999999999,63.615000000000002,-18.898399999999999,14.226800000000001,-35.039200000000001
212888.0,73.941199999999995,31.676400000000001,11.3438,65.938299999999998,-13.913,20.457899999999999,-21.190300000000001
212889.0,61.763399999999997,10.2072,-20.926400000000001,15.619999999999999,21.731300000000001,4.3573399999999998,-19.781199999999998
212890.0,104.193,22.148499999999999,-66.004599999999996,-4.5769299999999999,2.3847100000000001,-9.0368099999999991,-38.578699999999998
212891.0,70.659800000000004,71.433999999999997,12.099600000000001,43.987400000000001,-10.398099999999999,4.8677099999999998,-25.508199999999999
212892.0,52.221400000000003,31.4252,2.3836300000000001,28.257400000000001,-10.0403,4.7506300000000001,-23.061499999999999
212893.0,104.7,30.1524,-61.678400000000003,6.47722,-0.27444800000000003,-10.019299999999999,-35.783999999999999
212894.0,67.045500000000004,-6.6674100000000003,-40.412199999999999,1.44289,11.3536,-1.92238,-29.5473
212895.0,53.395800000000001,5.5029300000000001,-22.063400000000001,16.035399999999999,20.169699999999999,12.489800000000001,-0.70721999999999996
212896.0,60.546700000000001,9.0749200000000005,-29.432700000000001,9.0191199999999991,23.694500000000001,8.1418199999999992,-10.0342
212897.0,86.723500000000001,18.760400000000001,-31.183299999999999,7.5231899999999996,8.6272800000000007,-7.0071599999999998,-41.194499999999998
212898.0,105.208,36.684600000000003,-28.845199999999998,4.86972,10.3362,-9.9057600000000008,-49.099699999999999
212899.0,118.601,40.996699999999997,-42.413699999999999,0.27638400000000002,13.154299999999999,-13.297499999999999,-50.982399999999998
212900.0,141.26400000000001,53.811900000000001,-48.227699999999999,6.3853099999999996,23.4482,-15.906000000000001,-56.9358
212901.0,121.09699999999999,30.1112,-62.583300000000001,-7.7332299999999998,15.813800000000001,-11.2447,-48.367899999999999
212902.0,103.124,37.166899999999998,-53.555100000000003,13.1135,3.8052800000000002,-10.0021,-34.947699999999998
212903.0,82.519599999999997,33.652200000000001,-42.101599999999998,11.8217,0.368701,-5.40212,-26.833200000000001
212904.0,70.863299999999995,36.174500000000002,-34.557600000000001,4.5275499999999997,-4.8540700000000001,0.42396099999999998,-19.868500000000001
212905.0,70.206400000000002,55.7575,-14.685499999999999,10.900700000000001,-10.4497,6.2808599999999997,-14.9277
212906.0,69.671700000000001,57.8996,-6.1095699999999997,18.232299999999999,-18.3826,8.1967099999999995,-13.003
212907.0,45.444499999999998,18.737500000000001,7.3933900000000001,36.537399999999998,-13.784800000000001,1.16334,-16.769300000000001
212908.0,51.759999999999998,13.323399999999999,-2.1764999999999999,34.634799999999998,-12.224500000000001,-0.84633199999999997,-20.032299999999999
212909.0,59.851199999999999,31.959800000000001,14.4473,51.208799999999997,-18.548500000000001,4.2196499999999997,-22.228300000000001
212910.0,71.087400000000002,30.6327,4.7507999999999999,50.257899999999999,-21.133800000000001,11.4651,-24.195
212911.0,70.036199999999994,47.020800000000001,19.823899999999998,69.525400000000005,-14.832800000000001,18.764900000000001,-21.0593
212912.0,85.2607,-1.9200900000000001,-35.231900000000003,0.48951299999999998,28.210000000000001,-15.748699999999999,-31.316400000000002
212913.0,114.96299999999999,6.3059700000000003,-60.203699999999998,7.1117900000000001,7.7052899999999998,-28.843399999999999,-44.9619
212914.0,65.024100000000004,44.4758,-4.3781100000000004,41.974400000000003,-9.6634799999999998,-6.0541900000000002,-22.8565
212915.0,58.618400000000001,42.729700000000001,-2.6079300000000001,33.138199999999998,-10.076499999999999,-1.82511,-21.6709
212916.0,108.239,17.2685,-55.0871,11.1572,4.3169399999999998,-24.698799999999999,-40.8217
212917.0,95.493600000000001,28.152000000000001,-18.829699999999999,2.7517299999999998,24.909300000000002,-20.337599999999998,-38.112299999999998
212918.0,85.956699999999998,-24.638500000000001,-33.848999999999997,3.4489999999999998,38.7333,-10.3979,-21.8401
212919.0,87.583699999999993,0.75627599999999995,-33.408499999999997,13.5373,33.457900000000002,-14.429500000000001,-25.303000000000001
212920.0,108.539,44.525399999999998,-18.812200000000001,-6.4885900000000003,24.939800000000002,-20.411899999999999,-41.959600000000002
212921.0,112.58199999999999,39.371099999999998,-34.764000000000003,-13.9086,19.339700000000001,-21.527000000000001,-43.8842
212922.0,122.869,38.566600000000001,-43.459299999999999,-7.2728700000000002,16.641500000000001,-24.3141,-49.742800000000003
212923.0,134.495,29.805599999999998,-54.981999999999999,-2.4108299999999998,20.3919,-26.856000000000002,-55.324399999999997
212924.0,129.19499999999999,13.9529,-61.913400000000003,2.8862100000000002,17.3066,-29.3629,-52.1783
212925.0,99.232399999999998,30.497,-46.964300000000001,14.916600000000001,4.5757000000000003,-18.151499999999999,-35.401000000000003
212926.0,78.971299999999999,24.4786,-41.341000000000001,15.0221,-1.3400700000000001,-11.2828,-26.1403
212927.0,73.338300000000004,24.513500000000001,-31.235700000000001,24.258800000000001,-3.0846300000000002,-7.6160399999999999,-26.3446
212928.0,64.153099999999995,15.911,-27.883700000000001,22.912500000000001,-8.5334599999999998,-4.0966300000000002,-22.899799999999999
212929.0,62.790599999999998,26.342400000000001,-16.754100000000001,32.695999999999998,-15.202400000000001,-5.0236799999999997,-18.276700000000002
212930.0,59.7761,45.0867,-0.23671500000000001,27.290099999999999,-18.5091,0.573106,-18.0749
212931.0,57.181899999999999,42.254399999999997,1.55298,20.163599999999999,-16.431999999999999,3.25617,-19.853200000000001
212932.0,51.350499999999997,38.043999999999997,11.935499999999999,30.948699999999999,-18.592500000000001,8.7652900000000002,-16.559000000000001
212933.0,59.556399999999996,38.365900000000003,15.553000000000001,47.482700000000001,-21.090699999999998,14.586399999999999,-15.944699999999999
212934.0,64.133099999999999,58.565800000000003,42.374600000000001,76.307199999999995,-14.2529,21.823899999999998,-20.088200000000001
212935.0,128.78899999999999,24.961600000000001,-28.748699999999999,-20.668500000000002,45.712800000000001,-27.574300000000001,-42.896900000000002
212936.0,116.38500000000001,49.702399999999997,-46.244,-2.9257399999999998,13.5084,-30.0166,-33.5122
212937.0,73.5929,43.848500000000001,-5.61808,39.469700000000003,-16.788599999999999,-8.9740000000000002,-26.3263
212938.0,75.391599999999997,37.595999999999997,-12.101000000000001,40.168700000000001,-18.760400000000001,-4.52041,-25.576499999999999
212939.0,106.09999999999999,44.402799999999999,-40.4024,7.0354000000000001,10.686999999999999,-28.754300000000001,-31.700399999999998
212940.0,123.706,45.046199999999999,-22.806000000000001,-16.101600000000001,34.648800000000001,-29.903300000000002,-40.1036
212941.0,104.193,-59.364699999999999,-69.278199999999998,-54.183500000000002,49.43,-22.199300000000001,-24.974699999999999
212942.0,134.441,18.064499999999999,-43.630099999999999,3.2378,50.081000000000003,-34.782200000000003,-35.633699999999997
212943.0,116.22,32.6096,-29.810600000000001,-16.715299999999999,29.340499999999999,-29.4175,-41.142000000000003
212944.0,124.66500000000001,23.793600000000001,-48.284500000000001,-19.449999999999999,24.678599999999999,-31.7913,-47.377200000000002
212945.0,130.66800000000001,29.845400000000001,-54.053600000000003,-16.043399999999998,22.2151,-31.350300000000001,-49.498800000000003
212946.0,128.94200000000001,35.667900000000003,-56.150700000000001,-14.3573,19.677499999999998,-30.835100000000001,-45.723599999999998
212947.0,128.09700000000001,43.510899999999999,-57.008200000000002,-12.294700000000001,17.433800000000002,-31.710100000000001,-40.296799999999998
212948.0,94.7864,30.661899999999999,-39.631700000000002,14.3162,7.4925899999999999,-26.962199999999999,-29.3019
212949.0,84.246099999999998,23.926100000000002,-36.578400000000002,18.673500000000001,2.6160800000000002,-24.9466,-24.7608
212950.0,79.703500000000005,25.981000000000002,-30.406300000000002,21.4556,0.17672099999999999,-23.372599999999998,-24.282299999999999
212951.0,70.922799999999995,28.6998,-18.2712,26.557200000000002,-5.8926600000000002,-19.322900000000001,-23.773299999999999
212952.0,70.125900000000001,31.441800000000001,-13.5047,28.814299999999999,-13.8352,-14.2736,-24.6523
212953.0,78.521500000000003,35.508800000000001,-12.673999999999999,42.051000000000002,-19.000499999999999,-0.64429599999999998,-28.2943
212954.0,69.090900000000005,21.1173,-10.841900000000001,25.998000000000001,-20.199300000000001,5.71516,-27.388200000000001
212955.0,57.417900000000003,20.779199999999999,2.9161199999999998,27.0596,-21.5002,8.7605599999999999,-20.075500000000002
212956.0,49.989800000000002,27.552800000000001,16.967700000000001,36.797899999999998,-19.142800000000001,13.3154,-13.8127
212957.0,55.5122,59.747300000000003,54.7301,73.808300000000003,-14.484,23.9175,-12.147399999999999
212958.0,149.434,24.971599999999999,-33.072099999999999,-32.111899999999999,50.285899999999998,-28.9895,-54.494599999999998
212959.0,111.68600000000001,24.252400000000002,-48.528399999999998,5.8091100000000004,10.9566,-31.667300000000001,-40.0426
212960.0,70.540499999999994,40.762,-18.137,33.087499999999999,-13.3253,-7.3672500000000003,-20.037299999999998
212961.0,71.4208,43.787799999999997,-17.759399999999999,38.407800000000002,-15.928000000000001,-3.1853400000000001,-16.568100000000001
212962.0,102.654,28.238800000000001,-43.864699999999999,10.0474,8.9726199999999992,-30.164100000000001,-33.408700000000003
212963.0,126.524,29.278400000000001,-30.175999999999998,-8.5630600000000001,32.470700000000001,-33.664700000000003,-47.357900000000001
212964.0,100.166,-61.617699999999999,-106.66,-114.28,40.2776,-15.5337,-25.899000000000001
212965.0,163.101,60.021799999999999,-40.787199999999999,-4.9588599999999996,49.0105,-36.827500000000001,-49.975499999999997
212966.0,123.836,25.6829,-34.357399999999998,-12.0762,27.6676,-33.036700000000003,-48.308399999999999
212967.0,134.18799999999999,26.122,-44.367400000000004,-14.4086,25.604099999999999,-36.853400000000001,-52.315300000000001
212968.0,137.43199999999999,23.296399999999998,-51.491900000000001,-15.170400000000001,22.3142,-39.043199999999999,-53.6175
212969.0,130.09899999999999,22.0063,-53.5047,-10.6852,16.274000000000001,-37.9587,-50.021500000000003
212970.0,121.497,24.5779,-50.4221,-0.078576699999999999,12.8927,-34.728400000000001,-45.683700000000002
212971.0,92.831999999999994,35.887099999999997,-35.052100000000003,13.926399999999999,5.8510999999999997,-28.362100000000002,-26.739999999999998
212972.0,87.420900000000003,41.636499999999998,-28.4864,17.6602,3.0386299999999999,-26.4526,-23.837700000000002
212973.0,82.403099999999995,40.750999999999998,-27.901900000000001,17.929300000000001,-1.46749,-23.6906,-21.854099999999999
212974.0,75.975499999999997,43.136299999999999,-22.356200000000001,22.0092,-5.5918400000000004,-18.980399999999999,-20.377600000000001
212975.0,70.946799999999996,41.712200000000003,-18.819900000000001,26.490300000000001,-9.0756499999999996,-13.158300000000001,-20.756399999999999
212976.0,65.210400000000007,46.789700000000003,-9.2005999999999997,45.321800000000003,-12.1334,-0.36174699999999999,-15.8688
212977.0,63.411799999999999,35.7164,-10.4057,44.606499999999997,-15.441000000000001,0.62285100000000004,-15.1472
212978.0,59.761299999999999,30.788599999999999,-12.594099999999999,24.8325,-12.5204,5.94259,-21.103400000000001
212979.0,50.100099999999998,7.5822399999999996,-13.365500000000001,-10.4481,-17.066299999999998,15.3216,-13.488
212980.0,49.780799999999999,27.3856,6.8063200000000004,11.9359,-19.915800000000001,17.698599999999999,1.18834
212981.0,138.81299999999999,6.5278799999999997,-44.352800000000002,-32.008800000000001,36.416699999999999,-29.014299999999999,-59.587000000000003
212982.0,113.932,22.5884,-43.198700000000002,4.6441800000000004,11.0115,-38.788600000000002,-39.301000000000002
212983.0,65.668999999999997,40.7896,-16.840199999999999,40.102499999999999,-6.2368399999999999,-10.084300000000001,-14.242800000000001
212984.0,62.085799999999999,42.655700000000003,-13.5595,42.203200000000002,-8.6589200000000002,-3.9142199999999998,-12.2315
212985.0,105.39400000000001,24.1541,-40.536299999999997,10.611800000000001,8.1575100000000003,-35.694200000000002,-34.611499999999999
212986.0,141.64599999999999,27.011900000000001,-30.705100000000002,-5.5691600000000001,30.429500000000001,-36.347099999999998,-60.027900000000002
212987.0,119.8,-66.626400000000004,-102.431,-113.855,29.418800000000001,-22.215199999999999,-53.0839
212988.0,152.72300000000001,32.422600000000003,-39.101399999999998,-9.8408999999999995,30.9665,-36.646599999999999,-64.652000000000001
212989.0,141.899,11.578200000000001,-44.401200000000003,-23.746400000000001,27.0886,-38.851999999999997,-60.557400000000001
212990.0,140.87,14.3963,-47.572600000000001,-20.1859,21.2592,-42.790199999999999,-58.030000000000001
212991.0,140.25999999999999,14.5435,-52.048699999999997,-17.276700000000002,19.783200000000001,-44.371000000000002,-55.570700000000002
212992.0,128.46700000000001,17.682099999999998,-47.5017,-7.0567200000000003,15.9506,-42.610900000000001,-48.460299999999997
212993.0,120.749,18.747299999999999,-46.515900000000002,-2.0834800000000002,13.5573,-40.697800000000001,-43.689500000000002
212994.0,95.226600000000005,24.928000000000001,-36.913400000000003,16.477499999999999,5.5379899999999997,-31.409500000000001,-29.6831
212995.0,87.796499999999995,25.027699999999999,-35.391500000000001,20.354800000000001,3.2308300000000001,-27.5823,-25.849499999999999
212996.0,82.4572,27.2026,-32.857100000000003,25.308599999999998,1.1426000000000001,-24.031600000000001,-22.845199999999998
212997.0,74.391300000000001,32.299599999999998,-25.005600000000001,32.988900000000001,-1.33961,-19.1356,-19.203499999999998
212998.0,70.428700000000006,33.069800000000001,-24.927299999999999,33.344700000000003,-3.0606800000000001,-14.8802,-17.206099999999999
212999.0,53.958500000000001,52.054499999999997,3.9803000000000002,50.161299999999997,-11.178699999999999,4.8771800000000001,-8.9734800000000003
213000.0,63.672800000000002,59.093299999999999,0.75570700000000002,57.094099999999997,-12.765700000000001,6.6886599999999996,-6.8428800000000001
213001.0,63.264000000000003,49.449199999999998,-7.7354799999999999,47.361800000000002,-2.98584,10.2217,-13.0008
213002.0,47.564300000000003,18.4848,-5.7082600000000001,16.3903,-3.4022700000000001,18.006699999999999,-15.447699999999999
213003.0,47.642000000000003,-26.242599999999999,-55.856699999999996,-46.943600000000004,-13.8529,18.039300000000001,2.9055499999999999
213004.0,145.79499999999999,11.0901,-38.923900000000003,-23.262,22.788799999999998,-37.540599999999998,-67.099500000000006
213005.0,109.30800000000001,15.0792,-38.085000000000001,11.4131,10.2782,-38.753500000000003,-38.646999999999998
213006.0,64.709000000000003,39.076900000000002,-18.345099999999999,40.794899999999998,-1.81213,-11.2349,-11.5448
213007.0,57.436599999999999,39.277900000000002,-15.1983,39.207700000000003,-3.7142300000000001,-5.4321000000000002,-8.2707099999999993
213008.0,100.892,18.814,-34.580399999999997,18.521899999999999,8.4176500000000001,-35.374699999999997,-33.551000000000002
213009.0,159.04900000000001,20.796099999999999,-33.386699999999998,-19.4802,23.788799999999998,-39.693600000000004,-74.153700000000001
213010.0,149.846,-25.6206,-51.049100000000003,-74.154799999999994,29.315300000000001,-37.283099999999997,-68.160700000000006
213011.0,132.05600000000001,-15.724,-53.599699999999999,-46.433199999999999,16.914899999999999,-40.399900000000002,-59.075200000000002
213012.0,146.649,18.183900000000001,-33.255499999999998,-18.273299999999999,20.2239,-43.337299999999999,-64.6648
213013.0,141.029,11.491400000000001,-39.038699999999999,-14.343,18.171900000000001,-46.847799999999999,-58.875900000000001
213014.0,134.0,10.3376,-40.738799999999998,-7.2577199999999999,16.546099999999999,-46.365600000000001,-53.745199999999997
213015.0,124.532,11.638,-39.933900000000001,-0.51365400000000005,14.367100000000001,-44.250999999999998,-47.727800000000002
213016.0,116.10299999999999,14.6168,-37.254300000000001,6.7398199999999999,12.0928,-41.653700000000001,-42.7866
213017.0,92.692899999999995,22.1556,-31.169599999999999,23.932099999999998,6.8574799999999998,-31.9528,-28.556899999999999
213018.0,84.453299999999999,26.989000000000001,-26.1615,29.8477,5.2887500000000003,-28.032,-23.846499999999999
213019.0,77.724699999999999,28.475999999999999,-25.4099,31.6904,4.0093899999999998,-23.9313,-19.896000000000001
213020.0,71.828299999999999,30.7836,-24.481999999999999,33.905500000000004,2.0985100000000001,-19.857800000000001,-15.562099999999999
213021.0,70.033199999999994,33.219700000000003,-24.959599999999998,34.8581,1.2160899999999999,-16.1448,-14.553599999999999
213022.0,48.830599999999997,53.558100000000003,5.7193699999999996,51.3596,-6.0764800000000001,2.6442399999999999,-4.6358899999999998
213023.0,50.741900000000001,50.704300000000003,2.14127,48.155000000000001,-4.8993799999999998,8.8192500000000003,-3.07294
213024.0,49.270499999999998,60.350900000000003,17.400700000000001,63.683900000000001,-2.55741,11.664099999999999,-0.526868
213025.0,48.5471,39.535400000000003,12.440899999999999,51.957999999999998,4.1155999999999997,14.1496,-12.6538
213026.0,51.6098,17.3339,11.156700000000001,39.950600000000001,-1.6070800000000001,24.746500000000001,-6.5643599999999998
213027.0,150.149,27.453700000000001,-19.898599999999998,-9.6226299999999991,16.333600000000001,-45.389200000000002,-67.583200000000005
213028.0,101.264,17.595500000000001,-27.643999999999998,20.289100000000001,9.2897099999999995,-36.101500000000001,-36.100700000000003
213029.0,64.204499999999996,38.359299999999998,-15.277900000000001,45.080500000000001,0.63048300000000002,-12.4275,-11.1814
213030.0,55.908499999999997,36.130400000000002,-14.264699999999999,40.6417,-0.89000999999999997,-7.5140599999999997,-7.4530000000000003
213031.0,92.266499999999994,20.1449,-24.837599999999998,25.5166,7.7054499999999999,-32.695399999999999,-30.736000000000001
213032.0,151.91200000000001,19.8568,-22.849900000000002,-18.578199999999999,19.947299999999998,-43.720199999999998,-69.496799999999993
213033.0,153.90600000000001,-3.1877599999999999,-14.2913,-42.0167,25.3048,-44.1614,-70.036799999999999
213034.0,123.23399999999999,-29.7682,-55.131599999999999,-55.447699999999998,12.9162,-42.589300000000001,-53.5197
213035.0,134.577,14.777699999999999,-25.997,-8.3396600000000003,15.3935,-42.643999999999998,-59.694499999999998
213036.0,132.279,12.2658,-30.7514,-2.8832200000000001,15.705399999999999,-42.869300000000003,-57.201700000000002
213037.0,124.764,12.4948,-31.3035,3.0608599999999999,13.993,-42.863199999999999,-51.227400000000003
213038.0,115.244,13.2547,-30.0351,9.2665199999999999,12.189500000000001,-41.008699999999997,-44.992899999999999
213039.0,106.988,14.840299999999999,-28.834700000000002,14.9155,10.7522,-38.311900000000001,-39.939300000000003
213040.0,83.656599999999997,22.315799999999999,-22.715199999999999,29.7121,7.0569899999999999,-28.554500000000001,-25.738399999999999
213041.0,75.920500000000004,26.868400000000001,-18.356300000000001,35.029600000000002,6.6528299999999998,-24.438600000000001,-21.279399999999999
213042.0,70.813100000000006,30.460999999999999,-16.206600000000002,38.925400000000003,5.5355299999999996,-20.892900000000001,-17.967600000000001
213043.0,68.181200000000004,32.550199999999997,-17.732900000000001,41.618299999999998,3.3377699999999999,-17.4054,-14.603899999999999
213044.0,68.393100000000004,32.069200000000002,-21.511099999999999,39.804900000000004,2.8039200000000002,-15.002800000000001,-14.5328
213045.0,46.096800000000002,52.994399999999999,7.9980799999999999,54.284100000000002,-1.7664500000000001,-1.0297400000000001,-3.0556199999999998
213046.0,38.479799999999997,46.869599999999998,7.1446399999999999,42.210599999999999,-1.5424599999999999,4.1446300000000003,-1.5624199999999999
213047.0,36.842100000000002,75.322400000000002,38.6175,62.934100000000001,-4.4452400000000001,9.0509500000000003,1.44842
213048.0,43.613900000000001,63.700600000000001,20.357199999999999,42.7821,-0.59804299999999999,12.2912,-3.5740400000000001
213049.0,44.269300000000001,78.448099999999997,51.152299999999997,68.711500000000001,-1.4784600000000001,21.4377,0.35793799999999998
213050.0,114.49299999999999,24.458200000000001,6.6018299999999996,10.4208,13.795999999999999,-34.884900000000002,-53.6083
213051.0,92.090599999999995,23.5367,-17.1571,31.656600000000001,6.7892900000000003,-29.729500000000002,-34.825800000000001
213052.0,62.6873,34.7226,-15.116400000000001,44.254199999999997,0.91691100000000003,-12.19,-11.9939
213053.0,56.370899999999999,36.811100000000003,-11.257300000000001,44.3352,-0.44967699999999999,-8.8257399999999997,-8.4564900000000005
213054.0,83.190200000000004,27.372499999999999,-11.772,37.230699999999999,4.9808300000000001,-26.976900000000001,-29.7072
213055.0,117.282,20.839500000000001,-4.8613200000000001,10.8584,15.061500000000001,-33.140099999999997,-55.606099999999998
213056.0,121.836,-29.726299999999998,-43.787300000000002,-66.207300000000004,9.4999300000000009,-36.624000000000002,-56.372799999999998
213057.0,108.125,12.4231,-11.228400000000001,-3.5977600000000001,9.6370900000000006,-37.747,-47.260599999999997
213058.0,125.04900000000001,20.246200000000002,-15.0885,11.0686,15.5528,-33.927700000000002,-59.018999999999998
213059.0,124.148,19.508299999999998,-21.360800000000001,12.362500000000001,13.1492,-35.358499999999999,-56.903199999999998
213060.0,115.86,19.283000000000001,-22.270299999999999,18.356999999999999,11.1473,-34.910800000000002,-50.6798
213061.0,102.27800000000001,22.694900000000001,-15.999700000000001,26.197099999999999,9.2238900000000008,-32.3827,-42.483600000000003
213062.0,96.792599999999993,24.9618,-14.3629,30.5152,8.5702800000000003,-30.997399999999999,-38.601700000000001
213063.0,74.526600000000002,30.7059,-6.4105400000000001,41.310299999999998,4.1064499999999997,-24.133600000000001,-24.984300000000001
213064.0,67.610200000000006,31.700700000000001,-4.4971399999999999,43.200699999999998,3.7530100000000002,-21.1843,-21.0059
213065.0,63.814700000000002,31.968399999999999,-6.7316799999999999,43.687399999999997,3.8520699999999999,-18.063800000000001,-17.8917
213066.0,62.809399999999997,31.2379,-12.5982,42.141300000000001,3.09429,-15.818199999999999,-14.687900000000001
213067.0,64.073899999999995,32.7819,-15.166399999999999,42.476500000000001,2.3244600000000002,-14.4375,-14.2134
213068.0,45.981499999999997,44.067,1.4574,47.541400000000003,-1.97959,-4.4179300000000001,-4.7711300000000003
213069.0,38.108699999999999,47.588500000000003,9.6505700000000001,46.186999999999998,-3.1876600000000002,0.14825199999999999,-3.3488099999999998
213070.0,32.2714,55.719499999999996,23.863099999999999,50.436500000000002,-4.3707500000000001,5.9399199999999999,-1.1318999999999999
213071.0,34.299799999999998,67.825299999999999,34.777000000000001,50.9895,-2.4621,10.2798,-2.7098399999999998
213072.0,41.214799999999997,78.150800000000004,42.040300000000002,51.134500000000003,-6.9370900000000004,12.7087,1.9562900000000001
213073.0,79.749600000000001,39.5398,30.3108,29.952500000000001,13.087999999999999,-17.612300000000001,-40.112000000000002
213074.0,87.262699999999995,26.825900000000001,-9.7976700000000001,37.590899999999998,1.82447,-25.207899999999999,-35.810000000000002
213075.0,59.200400000000002,36.997700000000002,-7.1952100000000003,47.855699999999999,-1.8569100000000001,-11.628,-13.3909
213076.0,56.229100000000003,35.610999999999997,-9.0593599999999999,45.029800000000002,-2.9776699999999998,-9.2369400000000006,-11.1692
213077.0,79.130300000000005,29.727599999999999,-5.5457299999999998,41.489400000000003,0.66908599999999996,-23.0684,-30.910499999999999
213078.0,96.708500000000001,42.0548,14.480499999999999,31.5289,6.88971,-22.496500000000001,-48.685899999999997
213079.0,87.042900000000003,-45.741999999999997,-60.293199999999999,-57.877400000000002,11.5334,-20.0443,-43.930500000000002
213080.0,88.423100000000005,94.566999999999993,71.026300000000006,94.737399999999994,11.885300000000001,-24.8201,-40.778100000000002
213081.0,125.38500000000001,25.707799999999999,-13.2788,11.1836,10.397,-28.709099999999999,-62.609699999999997
213082.0,118.593,25.036799999999999,-16.011600000000001,18.570599999999999,7.84293,-30.526499999999999,-56.635800000000003
213083.0,110.357,23.565000000000001,-17.3386,23.8992,6.1090499999999999,-29.468800000000002,-50.906999999999996
213084.0,98.411600000000007,27.7453,-9.6528100000000006,32.670400000000001,4.4071400000000001,-27.112400000000001,-44.023699999999998
213085.0,93.222499999999997,26.484100000000002,-10.176399999999999,34.476700000000001,3.5299499999999999,-26.275300000000001,-40.336100000000002
213086.0,70.178799999999995,31.4557,-1.6115999999999999,44.031799999999997,-0.40042499999999998,-20.358699999999999,-25.908200000000001
213087.0,61.310200000000002,35.084800000000001,3.8346300000000002,47.493699999999997,-0.65690300000000001,-17.3217,-21.1281
213088.0,55.134099999999997,39.153799999999997,7.7973600000000003,50.387,0.028183400000000001,-14.8142,-17.509499999999999
213089.0,54.639099999999999,38.978999999999999,4.56602,50.322099999999999,-0.0362093,-13.6891,-15.4917
213090.0,56.965600000000002,35.780700000000003,-3.44746,47.075499999999998,-0.78491299999999997,-12.850300000000001,-14.587
213091.0,49.447400000000002,43.777299999999997,1.87086,50.820999999999998,-4.2158600000000002,-6.1932799999999997,-7.6530699999999996
213092.0,42.356900000000003,40.795699999999997,2.2478500000000001,43.732199999999999,-4.5206499999999998,-3.27257,-5.5652299999999997
213093.0,37.624499999999998,54.950699999999998,18.947500000000002,54.435899999999997,-6.1143200000000002,-0.30508299999999999,-2.8984399999999999
213094.0,30.822900000000001,45.303899999999999,13.8087,39.116399999999999,-4.0678299999999998,3.4986999999999999,-3.0729600000000001
213095.0,24.178000000000001,61.7012,42.133099999999999,54.365400000000001,-5.5561600000000002,8.0563199999999995,-1.1650400000000001
213096.0,97.346800000000002,33.1113,24.0853,18.3216,8.0365000000000002,-26.174700000000001,-48.513199999999998
213097.0,85.006699999999995,30.435099999999998,-3.9156499999999999,41.177500000000002,-1.6119399999999999,-23.863499999999998,-35.802999999999997
213098.0,55.0366,36.5929,-0.23927399999999999,48.819000000000003,-5.3042999999999996,-11.019,-14.421900000000001
213099.0,52.902999999999999,38.1404,-0.086469900000000002,48.6721,-5.9489099999999997,-9.4085599999999996,-12.2773
213100.0,77.310699999999997,33.397500000000001,0.33999200000000002,45.492899999999999,-2.2972800000000002,-21.522200000000002,-31.2653
213101.0,103.238,32.260399999999997,11.479900000000001,20.1645,2.9399299999999999,-31.582799999999999,-49.372399999999999
213102.0,109.55800000000001,-32.436799999999998,-33.101300000000002,-37.448099999999997,11.622,-24.763500000000001,-56.966999999999999
213103.0,113.246,38.203899999999997,18.767600000000002,38.284799999999997,7.4806100000000004,-30.892399999999999,-56.019100000000002
213104.0,121.26300000000001,25.941700000000001,-2.72803,15.831799999999999,3.2196699999999998,-33.322299999999998,-59.744399999999999
213105.0,117.258,25.094799999999999,-9.4922500000000003,22.3169,3.3100700000000001,-31.354600000000001,-56.742899999999999
213106.0,111.071,24.867999999999999,-12.59,26.515899999999998,2.5386799999999998,-30.059999999999999,-52.0867
213107.0,102.819,26.655100000000001,-10.9353,31.5486,1.0645199999999999,-28.433800000000002,-46.625799999999998
213108.0,94.530799999999999,29.093399999999999,-7.6209499999999997,37.001399999999997,-0.123443,-26.397200000000002,-41.411700000000003
213109.0,68.303600000000003,35.6663,4.1169099999999998,48.333500000000001,-3.5121699999999998,-18.625399999999999,-26.026900000000001
213110.0,59.544899999999998,39.508200000000002,10.3094,51.784199999999998,-3.8556400000000002,-15.6088,-21.667000000000002
213111.0,52.537999999999997,40.4193,13.081099999999999,52.141300000000001,-3.5059200000000001,-13.204800000000001,-18.212
213112.0,50.447499999999998,38.845399999999998,10.4201,50.990600000000001,-3.9001299999999999,-11.9544,-16.019300000000001
213113.0,52.385399999999997,37.880299999999998,5.7239599999999999,50.427,-4.56724,-11.432399999999999,-15.216699999999999
213114.0,48.921599999999998,40.007899999999999,2.0316299999999998,49.0319,-6.5688500000000003,-7.0679699999999999,-9.0861699999999992
213115.0,45.1432,41.0779,3.7388699999999999,47.411099999999998,-6.3639900000000003,-4.9238,-7.5912699999999997
213116.0,43.961799999999997,43.535499999999999,5.5973600000000001,48.875,-6.7561299999999997,-3.7270799999999999,-5.2804799999999998
213117.0,34.271500000000003,44.0685,11.856,45.005200000000002,-5.3260399999999999,-1.31545,-2.27671
213118.0,20.1934,61.4499,41.365600000000001,55.122399999999999,-4.8802099999999999,2.4606599999999998,-0.78048399999999996
213119.0,120.19199999999999,15.407,10.119300000000001,11.696899999999999,13.491099999999999,-34.686100000000003,-58.505099999999999
213120.0,84.203400000000002,28.261199999999999,-0.82935000000000003,44.043100000000003,-4.0259600000000004,-23.1526,-35.958500000000001
213121.0,52.246000000000002,39.6631,8.8305000000000007,53.714500000000001,-7.2107599999999996,-10.808299999999999,-14.6273
213122.0,49.299300000000002,36.247300000000003,5.2837500000000004,49.4099,-7.7228500000000002,-9.3387399999999996,-12.2515
213123.0,76.874700000000004,31.254799999999999,2.2684700000000002,47.214500000000001,-4.4098100000000002,-20.659400000000002,-31.6934
213124.0,112.589,15.529500000000001,7.8109000000000002,23.5365,6.4677300000000004,-35.843899999999998,-53.263500000000001
213125.0,130.90100000000001,-41.058500000000002,-44.169600000000003,-58.473100000000002,11.0837,-38.6357,-63.323500000000003
213126.0,137.87100000000001,32.011600000000001,8.3651099999999996,29.8627,12.2079,-41.210799999999999,-65.709699999999998
213127.0,115.858,11.5518,-0.17889099999999999,19.498999999999999,1.6144799999999999,-35.224800000000002,-55.972799999999999
213128.0,115.26900000000001,17.131499999999999,-3.64567,25.000599999999999,-0.30155900000000002,-32.977800000000002,-55.877499999999998
213129.0,113.175,15.2605,-11.6357,26.144600000000001,-1.1127899999999999,-31.1358,-54.042900000000003
213130.0,106.56999999999999,19.140999999999998,-10.583600000000001,33.162799999999997,-2.21238,-29.185400000000001,-49.295900000000003
213131.0,96.654700000000005,22.787400000000002,-7.8118600000000002,38.1374,-2.7090700000000001,-26.5915,-43.039299999999997
213132.0,68.309299999999993,33.899500000000003,5.6479699999999999,49.620699999999999,-4.7378799999999996,-18.287199999999999,-26.495899999999999
213133.0,60.844299999999997,37.177999999999997,9.9515399999999996,51.951000000000001,-5.0344499999999996,-15.9833,-22.344799999999999
213134.0,54.779899999999998,39.424500000000002,12.9869,53.235100000000003,-5.0666000000000002,-13.766299999999999,-19.152799999999999
213135.0,52.081200000000003,41.540199999999999,13.819000000000001,55.229199999999999,-5.6016199999999996,-12.277200000000001,-16.641200000000001
213136.0,52.532200000000003,36.887999999999998,7.1378199999999996,50.860300000000002,-6.7166699999999997,-11.5007,-15.6153
213137.0,47.1738,43.451000000000001,10.9618,54.947400000000002,-8.5296599999999998,-7.4994300000000003,-9.6116700000000002
213138.0,45.529400000000003,37.3018,4.0352699999999997,46.420499999999997,-8.8109800000000007,-5.95167,-8.9553700000000003
213139.0,47.128999999999998,45.637999999999998,10.958,55.752800000000001,-10.0646,-5.5475500000000002,-7.5086000000000004
213140.0,37.545400000000001,32.674900000000001,4.6357600000000003,39.262500000000003,-10.354900000000001,-2.7816700000000001,-4.1018100000000004
213141.0,23.687799999999999,61.314,40.878599999999999,57.1203,-7.8021099999999999,2.01139,-2.37086
213142.0,219.48400000000001,9527.8700000000008,9749.1399999999994,9677.9799999999996,53.269799999999996,-3.7463000000000002,21.148900000000001
213143.0,228.21700000000001,-9985.6200000000008,-9763.8999999999996,-9831.1200000000008,42.360799999999998,-3.83067,51.261899999999997
213144.0,244.43600000000001,9505.5100000000002,9724.0200000000004,9657.1200000000008,35.337699999999998,-11.0687,77.526300000000006
213145.0,276.10599999999999,-9287.3199999999997,-9073.5499999999993,-9138.4699999999993,30.350899999999999,-21.191099999999999,109.682
213146.0,330.51900000000001,9395.8999999999996,9604.7000000000007,9551.1900000000005,26.1629,-19.391300000000001,153.59399999999999
213147.0,418.185,-9931.9500000000007,-9732.8500000000004,-9764.8799999999992,23.438700000000001,-5.7348100000000004,215.131
213148.0,506.24900000000002,8838.3700000000008,9024.2099999999991,9013.9500000000007,23.815200000000001,14.938599999999999,271.529
213149.0,593.38800000000003,-9592.7900000000009,-9422.9200000000001,-9411.7000000000007,27.989899999999999,31.527899999999999,324.49299999999999
213150.0,662.26499999999999,8802.6399999999994,8956.5,8984.8799999999992,34.179699999999997,45.738900000000001,365.13299999999998
213151.0,723.19299999999998,-9577.5599999999995,-9441.3299999999999,-9398.7399999999998,41.941499999999998,60.282699999999998,400.27300000000002
213152.0,767.45600000000002,8856.0900000000001,8977.2999999999993,9030.6800000000003,49.995800000000003,70.158699999999996,425.32799999999997
213153.0,809.83699999999999,-9359.1000000000004,-9252.4799999999996,-9186.5,60.030700000000003,76.992400000000004,448.88200000000001
213154.0,830.07899999999995,8814.1599999999999,8913.0100000000002,8987.7900000000009,67.648499999999999,78.724299999999999,459.69400000000002
213155.0,845.91200000000003,-9186.2600000000002,-9090.6800000000003,-9004.3099999999995,75.988600000000005,77.036600000000007,467.471
213156.0,845.67700000000002,8812.4099999999999,8912.3999999999996,9008.1700000000001,81.040599999999998,72.352500000000006,465.83800000000002
213157.0,842.79600000000005,-8993.0599999999995,-8886.3299999999999,-8779.5100000000002,85.562799999999996,67.736400000000003,462.01499999999999
213158.0,817.51400000000001,8743.0,8865.3799999999992,8975.8799999999992,81.549700000000001,61.369100000000003,445.858
213159.0,778.66200000000003,-8953.6100000000006,-8810.7600000000002,-8703.6900000000005,69.880300000000005,54.670299999999997,422.50599999999997
213160.0,722.74000000000001,8527.9599999999991,8697.4599999999991,8787.9200000000001,46.1252,46.296799999999998,390.42399999999998
213161.0,674.048,-9042.4099999999999,-8856.7800000000007,-8790.3400000000001,20.4922,38.740299999999998,363.94799999999998
213162.0,624.47199999999998,8158.1300000000001,8359.3999999999996,8388.4099999999999,-14.2827,27.326799999999999,336.61200000000002
213163.0,590.05600000000004,-9194.4599999999991,-8977.5900000000001,-8988.2600000000002,-50.561999999999998,13.6281,313.63799999999998
213164.0,573.33399999999995,7882.6300000000001,8121.8299999999999,8068.5500000000002,-90.846000000000004,-3.0251100000000002,292.46800000000002
213165.0,575.94100000000003,-9182.25,-8927.4400000000005,-9013.2399999999998,-119.376,-17.715699999999998,281.41800000000001
213166.0,587.84000000000003,7712.9700000000003,7985.4099999999999,7873.7299999999996,-141.46100000000001,-30.360700000000001,274.76499999999999
213167.0,597.49400000000003,-9137.1499999999996,-8846.1599999999999,-8969.7999999999993,-150.22999999999999,-34.250100000000003,271.89999999999998
213168.0,138.07599999999999,-883.37400000000002,-758.93100000000004,-900.80899999999997,-7.4526199999999996,13.8819,-10.9626
213169.0,63.818199999999997,-700.91200000000003,-641.17700000000002,-697.40599999999995,-11.338900000000001,9.6151,-3.5851099999999998
213170.0,74.942999999999998,1240.0999999999999,1201.1700000000001,1203.53,33.097000000000001,11.6225,12.8504
213171.0,30.730699999999999,2184.29,2167.4699999999998,2171.5900000000001,13.0968,4.3714000000000004,6.8747600000000002
213172.0,14.245100000000001,688.36599999999999,703.63599999999997,692.03099999999995,1.35117,0.58459099999999997,1.3886499999999999
213173.0,14.7719,333.35700000000003,348.87,336.35399999999998,-1.1150899999999999,1.9307700000000001,0.23158699999999999
213174.0,21.834,1975.27,1971.8699999999999,1969.22,10.084899999999999,2.3249399999999998,6.5283600000000002
213175.0,63.430500000000002,3054.0300000000002,3019.8000000000002,3026.8699999999999,27.603899999999999,10.5479,11.889699999999999
213176.0,40.861499999999999,489.34100000000001,480.32900000000001,457.43700000000001,15.9975,5.4761899999999999,0.35720800000000003
213177.0,44.984200000000001,166.59899999999999,184.93100000000001,141.012,11.243499999999999,7.3567,-2.7179600000000002
213178.0,51.892099999999999,-362.68200000000002,-389.92399999999998,-401.495,20.975100000000001,5.3238099999999999,5.6759700000000004
213179.0,72.858500000000006,1540.23,1500.27,1493.71,31.1876,8.6851699999999994,9.3532399999999996
213180.0,84.282700000000006,965.18899999999996,919.22000000000003,918.42499999999995,37.006,11.2478,12.454599999999999
213181.0,80.6768,2313.8400000000001,2271.21,2272.21,35.742899999999999,11.237500000000001,13.181100000000001
213182.0,77.895200000000003,-1677.96,-1720.55,-1719.55,34.3904,10.7864,11.517899999999999
213183.0,70.157300000000006,1933.76,1896.03,1901.53,30.3079,11.6724,13.053599999999999
213184.0,56.536299999999997,2010.0699999999999,1979.71,1987.8900000000001,24.5535,9.4366800000000008,11.261699999999999
213185.0,51.367800000000003,2369.6199999999999,2339.4099999999999,2349.27,21.492999999999999,8.7126900000000003,10.2163
213186.0,42.1648,2454.7600000000002,2429.9899999999998,2438.0,17.3812,7.2238300000000004,8.8611000000000004
213187.0,38.845999999999997,2370.0300000000002,2347.73,2354.9899999999998,16.390499999999999,6.1498999999999997,8.1953499999999995
213188.0,32.375,-2190.9400000000001,-2209.73,-2204.9099999999999,13.059799999999999,5.5873400000000002,7.2312099999999999
213189.0,25.0047,2048.6799999999998,2037.0999999999999,2038.4200000000001,10.7624,3.11788,6.5289400000000004
213190.0,21.376899999999999,1642.6099999999999,1646.6600000000001,1640.3399999999999,10.1547,2.1225399999999999,5.8690899999999999
213191.0,19.818300000000001,1409.74,1415.8900000000001,1408.3,9.1213999999999995,2.5905800000000001,4.9761100000000003
213192.0,15.603199999999999,1200.0799999999999,1208.24,1199.2,6.5400799999999997,2.0159199999999999,3.0760800000000001
213193.0,14.6671,929.83000000000004,944.07600000000002,932.43600000000004,3.1168900000000002,1.0006299999999999,1.8574299999999999
213194.0,15.396000000000001,-819.42899999999997,-803.12300000000005,-815.35299999999995,1.73861,0.85263299999999997,1.80345
213195.0,15.3611,513.93200000000002,530.65499999999997,517.79999999999995,0.075778999999999999,0.68465600000000004,1.23864
213196.0,16.301500000000001,188.07499999999999,204.94,192.053,-2.1880999999999999,1.92567,-1.53613
213197.0,14.2456,98.314700000000002,112.91,100.98399999999999,-0.12773100000000001,1.3829800000000001,-2.3067199999999999
213198.0,14.6806,20.6906,33.914900000000003,21.352,2.7598699999999998,0.34736499999999998,-2.9288599999999998
213199.0,75.482100000000003,22.807600000000001,-9.4715000000000007,69.583600000000004,-10.022,-11.998699999999999,8.6506500000000006
213200.0,86.009399999999999,392.43599999999998,468.74700000000001,377.42099999999999,1.3833,7.4797099999999999,3.1288
213201.0,50.4253,-569.11300000000006,-549.23199999999997,-599.101,13.3354,5.6982699999999999,2.6486399999999999
213202.0,46.514400000000002,167.845,159.41399999999999,133.75899999999999,19.101900000000001,4.52881,4.5416800000000004
213203.0,64.501599999999996,-524.96199999999999,-548.13099999999997,-565.50099999999998,29.380199999999999,7.1586499999999997,7.6635400000000002
213204.0,81.814999999999998,-1382.6199999999999,-1420.5699999999999,-1428.3599999999999,37.131700000000002,10.9316,11.5822
213205.0,84.430300000000003,-1778.75,-1824.73,-1824.51,37.072699999999998,11.734299999999999,12.755699999999999
213206.0,72.035899999999998,-1092.74,-1131.8399999999999,-1128.8399999999999,31.376100000000001,11.0708,12.2102
213207.0,66.786000000000001,-2676.4000000000001,-2714.23,-2707.8499999999999,28.4922,11.0548,11.942399999999999
213208.0,59.389800000000001,-2573.6300000000001,-2607.5599999999999,-2599.6399999999999,25.261399999999998,9.9538799999999998,11.113099999999999
213209.0,51.956699999999998,-1893.9000000000001,-1923.03,-1915.22,22.003799999999998,8.8997399999999995,10.446400000000001
213210.0,44.322299999999998,-2321.6599999999999,-2349.0700000000002,-2340.8299999999999,17.662299999999998,8.0530100000000004,8.9645700000000001
213211.0,40.478200000000001,-2366.4000000000001,-2390.3800000000001,-2383.0300000000002,16.560099999999998,7.0307700000000004,8.4626900000000003
213212.0,26.171500000000002,-2016.79,-2030.8199999999999,-2028.6400000000001,10.5852,3.9364699999999999,6.6135000000000002
213213.0,21.915299999999998,-1996.55,-2006.03,-2005.98,9.1202000000000005,2.9256199999999999,6.2061599999999997
213214.0,19.2712,-1802.8499999999999,-1804.28,-1808.04,8.9962900000000001,2.2913999999999999,5.5154399999999999
213215.0,19.7532,-1503.78,-1497.52,-1505.3800000000001,9.1679999999999993,2.1263999999999998,4.9233799999999999
213216.0,17.3462,-1325.6300000000001,-1315.6500000000001,-1325.6600000000001,7.0193899999999996,2.14879,3.6155200000000001
213217.0,14.672499999999999,-1091.5699999999999,-1077.74,-1089.4200000000001,3.0316100000000001,1.47163,2.2263600000000001
213218.0,16.0364,-627.10299999999995,-609.53800000000001,-622.47699999999998,0.20518900000000001,0.56076400000000004,1.57229
213219.0,16.4712,-455.99900000000002,-438.101,-452.28199999999998,0.078847200000000006,0.84679599999999999,0.70767899999999995
213220.0,16.534400000000002,-273.99099999999999,-256.61500000000001,-270.55000000000001,-1.60409,1.46336,-1.3235300000000001
213221.0,13.781499999999999,-149.96600000000001,-136.142,-147.37700000000001,-0.75747600000000004,1.9124699999999999,-2.25197
213222.0,12.914899999999999,-72.993300000000005,-61.076999999999998,-71.781999999999996,1.2157199999999999,1.41909,-3.0159500000000001
213223.0,136.06999999999999,1452.0799999999999,1576.8,1437.9200000000001,-12.5654,12.098800000000001,-5.1671500000000004
213224.0,66.471100000000007,265.947,326.13600000000002,266.31,-10.6869,11.6241,-4.8121700000000001
213225.0,71.904700000000005,2383.5100000000002,2346.7600000000002,2347.2600000000002,32.150799999999997,10.036099999999999,12.0344
213226.0,31.385300000000001,2206.2399999999998,2188.5,2190.9200000000001,13.9269,4.1081599999999998,4.9917499999999997
213227.0,15.940899999999999,654.61000000000001,671.66099999999994,658.98599999999999,2.3893200000000001,0.43216900000000003,0.62293600000000005
213228.0,14.222300000000001,249.21299999999999,265.26299999999998,254.64500000000001,-0.0113604,0.61921700000000002,-0.63284099999999999
213229.0,25.054600000000001,1761.5799999999999,1762.3299999999999,1754.4000000000001,12.2532,3.0602100000000001,5.5274799999999997
213230.0,60.479399999999998,1369.25,1336.54,1342.0599999999999,27.045300000000001,8.2272800000000004,10.657999999999999
213231.0,44.045699999999997,-562.78899999999999,-563.63499999999999,-598.221,12.817500000000001,7.2203400000000002,4.6419499999999996
213232.0,49.698999999999998,-572.57500000000005,-548.21199999999999,-598.16899999999998,10.410399999999999,9.5341199999999997,-0.0487468
213233.0,57.893999999999998,804.10900000000004,780.47199999999998,758.63199999999995,21.615600000000001,8.4404500000000002,7.8382100000000001
213234.0,79.335499999999996,-293.39800000000002,-333.23599999999999,-342.64299999999997,34.257199999999997,11.1045,10.8506
213235.0,83.116799999999998,1228.96,1185.79,1182.95,36.999499999999998,10.816599999999999,12.3368
213236.0,76.330200000000005,696.57899999999995,658.01499999999999,656.64499999999998,33.988799999999998,10.4711,12.776899999999999
213237.0,74.065899999999999,-1312.28,-1351.7,-1351.55,32.921999999999997,9.8058499999999995,11.5122
213238.0,66.444599999999994,2152.7199999999998,2117.4699999999998,2120.6300000000001,29.573699999999999,9.3271899999999999,11.3887
213239.0,54.484499999999997,2606.7399999999998,2577.0500000000002,2583.8000000000002,24.5822,7.27637,9.4914400000000008
213240.0,50.0578,2326.5900000000001,2296.04,2304.9899999999998,21.822199999999999,6.9275799999999998,8.0191400000000002
213241.0,41.317700000000002,2225.3600000000001,2200.1300000000001,2206.75,17.858499999999999,5.8775599999999999,6.6724500000000004
213242.0,39.4895,2212.4400000000001,2188.5999999999999,2194.4400000000001,17.3522,5.2871100000000002,6.0289400000000004
213243.0,32.444899999999997,-2128.8499999999999,-2148.98,-2145.29,13.645200000000001,4.7922399999999996,5.1795200000000001
213244.0,25.343499999999999,2056.6599999999999,2047.8199999999999,2045.3699999999999,11.9541,3.2814800000000002,5.0180300000000004
213245.0,27.725000000000001,1643.45,1647.28,1637.04,13.9643,3.5532699999999999,4.6732800000000001
213246.0,24.642199999999999,1376.3900000000001,1381.6400000000001,1370.24,12.3087,3.3836599999999999,2.6260699999999999
213247.0,18.116299999999999,1093.05,1102.03,1090.24,7.9750500000000004,2.24058,1.6971099999999999
213248.0,16.315200000000001,879.12300000000005,894.49599999999998,881.49199999999996,4.2117699999999996,0.85492500000000005,1.32209
213249.0,16.434899999999999,-807.63800000000003,-790.32399999999996,-803.64499999999998,2.6692800000000001,0.33437800000000001,0.78049000000000002
213250.0,16.8415,417.21100000000001,436.029,423.10500000000002,1.3436900000000001,0.297925,0.10008400000000001
213251.0,14.878,128.047,143.85900000000001,134.60400000000001,-2.63462,0.447299,-1.8789800000000001
213252.0,12.4345,46.418900000000001,58.644100000000002,52.911700000000003,-2.6148899999999999,0.19958100000000001,-2.6924899999999998
213253.0,10.673400000000001,10.031499999999999,17.055199999999999,15.491,-3.6545000000000001,-0.58006999999999997,-3.2686999999999999
213254.0,68.953699999999998,22.7075,-6.9770799999999999,65.573300000000003,-9.9310200000000002,-6.8532599999999997,10.436
213255.0,88.184700000000007,187.59800000000001,264.62200000000001,170.941,1.9725600000000001,8.8659099999999995,3.4588399999999999
213256.0,56.459499999999998,1146.0899999999999,1173.4300000000001,1114.97,9.7075899999999997,8.0901899999999998,6.8824500000000004
213257.0,55.414499999999997,67.022199999999998,70.302999999999997,27.41,18.838699999999999,7.0815200000000003,6.9710599999999996
213258.0,74.827100000000002,167.73400000000001,146.881,120.846,33.442100000000003,9.8422499999999999,9.9634800000000006
213259.0,85.252499999999998,90.680599999999998,50.152900000000002,41.915700000000001,38.073500000000003,11.4147,12.7035
213260.0,80.402000000000001,-469.62799999999999,-514.13999999999999,-514.62699999999995,35.360199999999999,10.0418,11.657299999999999
213261.0,68.788499999999999,-2449.23,-2486.5599999999999,-2484.52,30.3977,9.3788599999999995,11.1716
213262.0,63.581000000000003,-1279.8399999999999,-1315.5,-1310.8,27.882400000000001,8.7791999999999994,10.847899999999999
213263.0,57.047400000000003,-1673.51,-1705.9100000000001,-1699.6500000000001,25.1693,7.7949000000000002,9.75441
213264.0,50.091299999999997,-2514.1500000000001,-2542.5999999999999,-2536.0599999999999,22.313600000000001,6.9479100000000003,8.2603600000000004
213265.0,42.921700000000001,-2136.9499999999998,-2164.4000000000001,-2157.2800000000002,17.960899999999999,6.4737999999999998,6.8326599999999997
213266.0,40.217100000000002,-2065.04,-2089.6399999999999,-2083.6199999999999,17.3673,5.7892000000000001,6.29671
213267.0,26.1052,-2102.2399999999998,-2116.8899999999999,-2116.3400000000001,11.073,3.6752799999999999,4.7006800000000002
213268.0,23.325900000000001,-1842.3499999999999,-1849.47,-1853.4400000000001,10.804,3.0720800000000001,4.8650099999999998
213269.0,26.346299999999999,-1682.5,-1681.8399999999999,-1690.4400000000001,13.170400000000001,3.47017,4.7916499999999997
213270.0,25.867699999999999,-1548.8699999999999,-1542.05,-1554.25,12.6465,3.8130700000000002,3.3443399999999999
213271.0,20.337800000000001,-1246.23,-1235.99,-1249.3299999999999,8.7103800000000007,2.9505400000000002,2.13585
213272.0,15.636799999999999,-999.69000000000005,-985.81799999999998,-999.01499999999999,4.1093000000000002,1.30139,1.32168
213273.0,16.7941,-562.44299999999998,-543.798,-557.01900000000001,1.40717,0.16451199999999999,0.19409199999999999
213274.0,16.520199999999999,-350.5,-331.98899999999998,-344.41699999999997,1.36897,0.222992,-0.17372799999999999
213275.0,16.0152,-208.417,-190.45400000000001,-201.571,-1.1508100000000001,0.129578,-1.40388
213276.0,12.423400000000001,-94.648300000000006,-81.660899999999998,-88.580399999999997,-1.74288,0.26118000000000002,-2.4725199999999998
213277.0,10.1388,-21.908300000000001,-12.763999999999999,-15.9154,-1.8728,-0.19529099999999999,-3.0235699999999999
213278.0,135.23699999999999,-851.49199999999996,-727.24000000000001,-865.68899999999996,-14.851900000000001,8.5956499999999991,-0.74483100000000002
213279.0,71.268100000000004,-715.03300000000002,-652.12,-714.80600000000004,-10.761799999999999,15.516,-4.6796699999999998
213280.0,71.089100000000002,1109.98,1073.25,1072.8699999999999,32.070799999999998,8.8458400000000008,11.1029
213281.0,32.174500000000002,2076.0500000000002,2059.8499999999999,2060.23,14.767799999999999,4.8035800000000002,4.2927900000000001
213282.0,16.881799999999998,592.03599999999994,610.02599999999995,598.05799999999999,3.2422800000000001,0.61303399999999997,0.503027
213283.0,14.526400000000001,218.46100000000001,235.06899999999999,225.54599999999999,0.065955399999999997,0.21595700000000001,-0.91813
213284.0,28.7318,1848.5699999999999,1851.8299999999999,1840.45,14.5192,4.3776700000000002,3.2875999999999999
213285.0,59.442,2876.9299999999998,2845.21,2848.0599999999999,27.412800000000001,6.16357,8.96922
213286.0,44.778500000000001,420.67500000000001,416.69400000000002,387.88999999999999,9.9196000000000009,8.5940300000000001,13.2689
213287.0,48.664700000000003,167.142,192.126,143.833,7.5335200000000002,10.941700000000001,5.4467800000000004
213288.0,59.506700000000002,-439.27600000000001,-465.00700000000001,-481.50099999999998,21.057300000000001,10.403600000000001,13.261200000000001
213289.0,76.577100000000002,1533.3,1493.47,1489.1099999999999,32.9619,11.253399999999999,12.1846
213290.0,77.061599999999999,936.90999999999997,897.46199999999999,894.37900000000002,34.142400000000002,10.247400000000001,12.097799999999999
213291.0,74.119600000000005,2216.1900000000001,2179.5500000000002,2176.27,32.878399999999999,9.9459400000000002,12.6547
213292.0,73.059899999999999,-1571.53,-1609.3399999999999,-1610.75,32.697299999999998,9.2562599999999993,11.3752
213293.0,64.447500000000005,1782.8900000000001,1748.8099999999999,1749.5999999999999,29.4438,7.1365999999999996,9.3931299999999993
213294.0,55.075099999999999,1834.51,1804.98,1809.77,25.673500000000001,5.8881300000000003,8.1331000000000007
213295.0,50.5931,2200.9899999999998,2170.6700000000001,2177.6799999999998,22.848800000000001,5.9882999999999997,6.5828199999999999
213296.0,42.034599999999998,2300.27,2274.6700000000001,2279.96,18.7636,5.4352600000000004,4.9698799999999999
213297.0,39.794800000000002,2239.27,2215.8499999999999,2220.1100000000001,17.991399999999999,5.2046299999999999,4.64011
213298.0,32.947400000000002,-2071.7399999999998,-2091.5799999999999,-2089.3800000000001,14.3149,4.6649500000000002,4.1064299999999996
213299.0,27.463200000000001,1946.72,1940.97,1935.21,13.571,4.4322499999999998,3.8000099999999999
213300.0,31.615100000000002,1515.8099999999999,1516.8499999999999,1505.6700000000001,16.479099999999999,4.2645200000000001,2.2998500000000002
213301.0,25.909300000000002,1319.53,1321.28,1310.8,13.4849,2.9098799999999998,1.3915
213302.0,17.684100000000001,1120.77,1131.4000000000001,1118.74,7.3581799999999999,1.2164699999999999,1.5469999999999999
213303.0,17.3993,841.08199999999999,858.08900000000006,844.68200000000002,4.2575799999999999,0.51149199999999995,1.4825299999999999
213304.0,16.855399999999999,-735.82799999999997,-718.28800000000001,-731.09199999999998,3.4892500000000002,-0.0077669200000000001,0.436857
213305.0,17.5246,406.33199999999999,426.05599999999998,414.03899999999999,1.7937099999999999,0.32094400000000001,-0.49539499999999997
213306.0,14.024900000000001,79.058300000000003,93.839399999999998,86.732299999999995,-2.8909199999999999,-0.00036938500000000001,-1.6005100000000001
213307.0,12.287000000000001,14.7699,25.276599999999998,21.9802,-4.0906399999999996,-0.049305399999999999,-2.1709900000000002
213308.0,14.412800000000001,-3.3036300000000001,1.0263500000000001,2.3207800000000001,-7.1652100000000001,-0.130131,-3.0347200000000001
213309.0,54.243899999999996,13.732200000000001,-9.7070500000000006,46.923000000000002,-7.56175,-2.5316299999999998,10.3704
213310.0,93.288799999999995,406.86200000000002,487.54300000000001,390.43000000000001,0.526057,12.2988,6.9034300000000002
213311.0,55.316800000000001,-523.05899999999997,-496.315,-550.17399999999998,6.46997,9.1951300000000007,12.9756
213312.0,55.268500000000003,292.20800000000003,292.56400000000002,256.322,17.907599999999999,9.0372500000000002,13.501300000000001
213313.0,73.399299999999997,-463.94900000000001,-489.10000000000002,-507.40800000000002,32.415199999999999,10.011900000000001,12.991099999999999
213314.0,79.024699999999996,-1406.96,-1447.74,-1452.5599999999999,34.977499999999999,9.3612900000000003,11.9634
213315.0,76.526399999999995,-1742.53,-1782.0799999999999,-1786.21,33.899299999999997,9.0036900000000006,11.838699999999999
213316.0,67.470500000000001,-956.23699999999997,-993.32299999999998,-992.28099999999995,30.085599999999999,8.2286099999999998,9.9309200000000004
213317.0,62.310400000000001,-2520.0300000000002,-2554.6100000000001,-2552.1300000000001,28.096800000000002,6.7935400000000001,9.3078199999999995
213318.0,57.210999999999999,-2402.1199999999999,-2434.0,-2429.6799999999998,26.1965,6.09239,8.2761800000000001
213319.0,50.435699999999997,-1725.9400000000001,-1754.1900000000001,-1749.4300000000001,23.269300000000001,5.6759000000000004,6.7436199999999999
213320.0,43.079999999999998,-2161.1300000000001,-2188.4400000000001,-2182.8299999999999,18.8215,5.5301900000000002,5.0746799999999999
213321.0,40.367199999999997,-2223.6399999999999,-2248.5,-2243.71,17.919699999999999,5.2060700000000004,4.5830500000000001
213322.0,27.439599999999999,-1918.1400000000001,-1931.25,-1932.8800000000001,12.2897,4.6477599999999999,3.60846
213323.0,26.664200000000001,-1902.9400000000001,-1907.0699999999999,-1914.4200000000001,13.0404,4.8164600000000002,3.1492900000000001
213324.0,32.187199999999997,-1696.4400000000001,-1694.74,-1706.0699999999999,16.551400000000001,5.0586399999999996,2.9096500000000001
213325.0,28.1632,-1400.95,-1397.0999999999999,-1409.27,14.251200000000001,4.1772900000000002,2.2786400000000002
213326.0,17.825500000000002,-1244.3900000000001,-1235.04,-1248.05,7.3946500000000004,1.9028700000000001,1.61188
213327.0,15.868600000000001,-1015.66,-1001.01,-1014.52,3.9865200000000001,0.27999400000000002,1.2410000000000001
213328.0,17.757300000000001,-535.00599999999997,-515.12400000000002,-527.58000000000004,2.00156,0.190632,-0.366699
213329.0,17.236799999999999,-353.33800000000002,-333.81999999999999,-345.202,1.6218300000000001,0.23832400000000001,-0.47755999999999998
213330.0,15.6503,-166.55000000000001,-148.721,-158.08500000000001,-0.91720000000000002,-0.073933799999999994,-1.12435
213331.0,12.252000000000001,-47.313699999999997,-34.570599999999999,-39.738100000000003,-2.3529599999999999,-0.038806500000000001,-1.8491599999999999
213332.0,11.190300000000001,5.3349099999999998,14.1417,12.4824,-3.7160600000000001,-0.22028900000000001,-2.4461900000000001
213333.0,134.66999999999999,1351.04,1474.8599999999999,1338.22,-15.3726,7.3059399999999997,7.8138800000000002
213334.0,72.114800000000002,241.24299999999999,304.43700000000001,243.31200000000001,-12.151300000000001,16.972799999999999,2.96631
213335.0,71.961100000000002,2212.6599999999999,2174.3400000000001,2171.8099999999999,32.813499999999998,7.18072,8.5930400000000002
213336.0,31.937999999999999,2071.9499999999998,2059.1399999999999,2058.3499999999999,15.5236,5.40238,3.4008099999999999
213337.0,17.6646,607.69100000000003,625.976,614.08600000000001,4.1615200000000003,0.610819,0.46704499999999999
213338.0,14.093999999999999,187.49199999999999,203.548,195.28100000000001,-0.029574699999999999,0.076891500000000002,-1.3162700000000001
213339.0,30.4832,1639.24,1638.5999999999999,1629.49,15.8758,5.2735599999999998,0.38146400000000003
213340.0,59.026000000000003,1212.6400000000001,1183.24,1182.3199999999999,28.001000000000001,4.6443599999999998,7.6321899999999996
213341.0,40.9985,-601.59699999999998,-611.505,-634.62300000000005,11.8691,7.9127400000000003,8.3422599999999996
213342.0,47.566200000000002,-663.42200000000003,-640.92700000000002,-688.02999999999997,6.6130100000000001,11.0398,5.7902199999999997
213343.0,55.243600000000001,823.91399999999999,797.01700000000005,784.40700000000004,22.182500000000001,8.4786099999999998,6.7921399999999998
213344.0,70.137299999999996,-312.38600000000002,-349.404,-355.81099999999998,31.2544,8.0865899999999993,6.9288299999999996
213345.0,71.526799999999994,1109.9100000000001,1074.29,1067.97,32.552700000000002,8.3471100000000007,8.0516699999999997
213346.0,71.782200000000003,522.01700000000005,486.56799999999998,480.61799999999999,32.628599999999999,8.2550299999999996,9.1544100000000004
213347.0,72.882599999999996,-1145.1700000000001,-1180.74,-1187.21,33.459899999999998,7.6623599999999996,8.9468700000000005
213348.0,64.189599999999999,1995.2,1962.22,1959.5799999999999,29.958200000000001,5.1992599999999998,7.4175899999999997
213349.0,56.335500000000003,2455.0,2426.4899999999998,2428.3200000000002,26.957799999999999,4.9557000000000002,7.2084200000000003
213350.0,51.510100000000001,2189.8000000000002,2160.9400000000001,2165.1900000000001,24.039899999999999,5.3772200000000003,5.8932000000000002
213351.0,42.6541,2098.1500000000001,2073.3699999999999,2077.2199999999998,19.5138,5.2463800000000003,4.5127600000000001
213352.0,38.0227,2086.9000000000001,2066.6999999999998,2069.3800000000001,17.886800000000001,5.0869400000000002,3.9733100000000001
213353.0,32.697400000000002,-2010.45,-2027.8199999999999,-2026.72,15.0984,4.8588399999999998,3.1884000000000001
213354.0,30.744900000000001,1919.5,1913.1199999999999,1907.98,15.6721,5.7768499999999996,1.66316
213355.0,28.901599999999998,1552.6300000000001,1551.0899999999999,1542.5599999999999,15.3992,3.4429400000000001,-0.040889099999999998
213356.0,21.110199999999999,1328.26,1329.6900000000001,1321.8099999999999,11.236499999999999,1.4743599999999999,1.5881700000000001
213357.0,15.633100000000001,1058.21,1069.1800000000001,1058.5799999999999,6.2741300000000004,0.077507199999999998,1.81108
213358.0,17.360299999999999,837.58699999999999,854.46799999999996,842.33199999999999,4.7537500000000001,0.288329,1.4067499999999999
213359.0,17.2729,-767.39499999999998,-749.73699999999997,-761.96000000000004,4.1948100000000004,0.010228599999999999,0.25751000000000002
213360.0,17.4176,358.29899999999998,377.69600000000003,366.322,2.3468499999999999,0.097095699999999993,-0.78376000000000001
213361.0,13.3521,75.874799999999993,89.444299999999998,83.272999999999996,-3.1020300000000001,-0.10054100000000001,-1.90659
213362.0,11.724,11.836600000000001,21.547599999999999,18.199200000000001,-4.0615100000000002,0.100189,-2.23115
213363.0,13.4678,0.73212200000000005,4.8442100000000003,5.3496300000000003,-6.6949500000000004,0.52373199999999998,-2.9916100000000001
213364.0,45.253100000000003,17.460000000000001,-1.3097399999999999,46.816899999999997,-5.1526399999999999,-1.0193000000000001,8.1635399999999994
213365.0,95.294399999999996,275.048,356.64400000000001,261.01900000000001,-2.5703299999999998,13.9994,12.568
213366.0,50.457000000000001,1196.6300000000001,1219.4400000000001,1170.1099999999999,7.5157699999999998,8.2061100000000007,10.738899999999999
213367.0,49.304699999999997,-11.961600000000001,-20.468599999999999,-45.7057,19.3584,7.32578,8.59727
213368.0,65.673500000000004,66.482600000000005,39.5122,26.248899999999999,29.9892,7.3137600000000003,8.0299099999999992
213369.0,73.106800000000007,108.736,71.672700000000006,63.997799999999998,33.352899999999998,6.5883200000000004,7.3056900000000002
213370.0,72.980199999999996,-332.185,-367.17599999999999,-375.488,33.246699999999997,7.6490099999999996,9.1337399999999995
213371.0,68.844399999999993,-2285.7399999999998,-2324.0300000000002,-2325.9299999999998,30.936900000000001,6.5430999999999999,8.1075199999999992
213372.0,62.408099999999997,-1129.4400000000001,-1163.0,-1163.6800000000001,28.726099999999999,5.1151799999999996,7.9709099999999999
213373.0,57.9313,-1527.98,-1558.1500000000001,-1557.03,27.446000000000002,4.6388199999999999,7.1531700000000003
213374.0,51.475999999999999,-2375.8000000000002,-2403.3800000000001,-2400.8400000000001,24.4102,4.7430099999999999,5.7029399999999999
213375.0,43.5764,-2011.8599999999999,-2037.98,-2034.3,19.7029,4.9917800000000003,4.4658100000000003
213376.0,39.338299999999997,-1944.1099999999999,-1967.8199999999999,-1963.96,17.761299999999999,4.9150200000000002,3.78729
213377.0,30.657299999999999,-1982.5999999999999,-1993.6500000000001,-1996.26,14.8833,5.9069900000000004,2.0652499999999998
213378.0,30.116800000000001,-1724.6900000000001,-1729.3399999999999,-1736.21,15.0695,6.3965399999999999,0.86632799999999999
213379.0,30.088799999999999,-1575.79,-1576.29,-1585.4200000000001,15.670199999999999,5.1464400000000001,0.58588600000000002
213380.0,22.374400000000001,-1465.1400000000001,-1463.2,-1472.02,11.638999999999999,2.5849099999999998,1.79284
213381.0,13.780900000000001,-1192.75,-1184.6300000000001,-1194.4400000000001,5.6956899999999999,0.31333800000000001,1.80684
213382.0,14.670199999999999,-960.93899999999996,-947.03999999999996,-958.27599999999995,4.0058999999999996,-0.2908,1.08938
213383.0,18.349599999999999,-516.41200000000003,-496.25799999999998,-508.64400000000001,2.9398300000000002,0.24823799999999999,-0.45211499999999999
213384.0,17.3293,-293.77499999999998,-274.21699999999998,-284.81200000000001,1.89324,0.237126,-0.77668199999999998
213385.0,15.3482,-149.44900000000001,-132.072,-140.51599999999999,-0.89255799999999996,-0.037029800000000002,-1.4866299999999999
213386.0,11.7445,-45.603700000000003,-33.710999999999999,-38.6143,-2.5080300000000002,-0.032769899999999998,-1.9911000000000001
213387.0,10.6036,6.9585800000000004,15.174200000000001,13.1203,-3.6163400000000001,0.168436,-2.4682900000000001
213388.0,132.99199999999999,-837.553,-715.77499999999998,-846.24000000000001,-14.3239,8.2360699999999998,17.3645
213389.0,67.834500000000006,-717.33699999999999,-657.89400000000001,-713.75900000000001,-11.207599999999999,15.191800000000001,8.13795
213390.0,72.569299999999998,944.827,905.16099999999994,900.41899999999998,33.235700000000001,5.0289200000000003,5.5561600000000002
213391.0,32.594000000000001,1896.0799999999999,1885.23,1884.3800000000001,16.744499999999999,5.12669,2.2166899999999998
213392.0,16.915199999999999,599.98299999999995,615.31399999999996,603.56899999999996,5.4282399999999997,0.367309,-1.2107600000000001
213393.0,13.537000000000001,234.08799999999999,249.27500000000001,240.43299999999999,0.39304800000000001,0.218721,-1.6431
213394.0,28.8902,1738.1900000000001,1731.5899999999999,1728.8,15.331,4.2450400000000004,-1.3830499999999999
213395.0,58.414200000000001,2732.9499999999998,2707.21,2701.2800000000002,28.4773,2.7217199999999999,5.9616899999999999
213396.0,43.255600000000001,407.81999999999999,398.26299999999998,372.04300000000001,13.2218,8.8836200000000005,5.1787400000000003
213397.0,46.005499999999998,110.595,130.30699999999999,85.478099999999998,7.2684800000000003,11.2204,4.6841900000000001
213398.0,55.659599999999998,-422.17399999999998,-445.73099999999999,-463.54599999999999,22.585699999999999,8.3145699999999998,4.7714999999999996
213399.0,68.171499999999995,1468.8,1436.1800000000001,1423.0599999999999,30.055,7.3927899999999998,6.0516399999999999
213400.0,69.946100000000001,819.27999999999997,787.08699999999999,776.01099999999997,32.2393,6.9045100000000001,6.2090899999999998
213401.0,69.690299999999993,2056.6100000000001,2022.8199999999999,2013.8499999999999,32.250999999999998,5.9716800000000001,5.8720600000000003
213402.0,71.886399999999995,-1416.6700000000001,-1450.0999999999999,-1460.55,33.561399999999999,5.3674099999999996,6.4946000000000002
213403.0,64.101299999999995,1648.4300000000001,1617.1800000000001,1610.8299999999999,30.4574,3.2850600000000001,5.1115899999999996
213404.0,57.625300000000003,1684.1500000000001,1657.0699999999999,1655.3299999999999,28.215399999999999,3.5021599999999999,6.1207399999999996
213405.0,52.195599999999999,2055.2800000000002,2028.5999999999999,2029.0799999999999,25.275700000000001,3.8160099999999999,4.6547000000000001
213406.0,42.543300000000002,2149.5100000000002,2126.8600000000001,2128.1399999999999,20.280899999999999,3.9174099999999998,3.8439000000000001
213407.0,36.898499999999999,2075.8299999999999,2058.8899999999999,2059.7800000000002,18.261299999999999,4.3638899999999996,3.22925
213408.0,33.405999999999999,-1912.3800000000001,-1927.95,-1927.1500000000001,16.450199999999999,4.53118,1.98929
213409.0,33.107399999999998,1783.1800000000001,1773.49,1772.1800000000001,17.352,5.3062399999999998,-0.0307932
213410.0,21.6037,1454.28,1451.49,1447.6400000000001,11.813499999999999,1.8771899999999999,-1.1711400000000001
213411.0,15.247199999999999,1273.3599999999999,1276.22,1270.27,8.2515699999999992,0.39892100000000003,0.63206300000000004
213412.0,14.177899999999999,1095.6800000000001,1105.3599999999999,1096.6600000000001,6.0745100000000001,0.074690300000000001,1.3019499999999999
213413.0,16.883299999999998,842.13099999999997,856.97699999999998,846.04999999999995,5.9102199999999998,0.58472500000000005,0.74140300000000003
213414.0,17.344999999999999,-741.14200000000005,-725.27599999999995,-737.13499999999999,5.5780000000000003,0.58739399999999997,-0.86827299999999996
213415.0,16.3155,418.00900000000001,435.221,423.904,3.1621800000000002,0.247775,-1.46814
213416.0,12.9849,100.13200000000001,113.649,106.76000000000001,-2.5404599999999999,0.17514299999999999,-2.0090400000000002
213417.0,10.7316,39.689500000000002,49.697699999999998,45.619700000000002,-2.6565500000000002,0.97015600000000002,-2.2501799999999998
213418.0,10.247199999999999,4.6611000000000002,11.3789,9.4026399999999999,-3.2665799999999998,1.90768,-2.9617800000000001
213419.0,51.574199999999998,15.4802,-4.8497500000000002,51.707999999999998,-4.8536299999999999,0.29521799999999998,6.4985900000000001
213420.0,86.992199999999997,418.61799999999999,494.09100000000001,408.87299999999999,-3.7187600000000001,12.222799999999999,13.555400000000001
213421.0,46.9724,-523.78599999999994,-503.56599999999997,-550.33699999999999,7.9655399999999998,7.8117599999999996,7.7961600000000004
213422.0,49.520899999999997,204.75200000000001,195.56200000000001,168.99199999999999,20.086500000000001,6.6176000000000004,5.0320999999999998
213423.0,63.6173,-510.93200000000002,-534.47400000000005,-552.71299999999997,28.623799999999999,6.7211699999999999,6.7677199999999997
213424.0,72.276499999999999,-1327.1400000000001,-1360.23,-1373.1300000000001,33.155500000000004,6.3440000000000003,6.2546099999999996
213425.0,70.768900000000002,-1619.79,-1651.71,-1663.71,32.7455,6.1149699999999996,6.6524599999999996
213426.0,70.306200000000004,-806.86699999999996,-846.22000000000003,-851.024,31.774699999999999,4.2385000000000002,5.7556599999999998
213427.0,62.488799999999998,-2391.1599999999999,-2422.7600000000002,-2427.8000000000002,29.331399999999999,2.9215399999999998,6.19991
213428.0,58.985999999999997,-2267.04,-2294.0300000000002,-2297.8200000000002,28.890799999999999,2.8386399999999998,5.93588
213429.0,52.992899999999999,-1586.3800000000001,-1612.49,-1613.8099999999999,25.801200000000001,3.3069999999999999,4.4899500000000003
213430.0,44.0745,-2022.2,-2046.3199999999999,-2045.9300000000001,20.745899999999999,3.5508299999999999,3.6988300000000001
213431.0,38.845199999999998,-2075.5700000000002,-2097.3499999999999,-2095.29,18.276700000000002,3.9521999999999999,2.96109
213432.0,33.2776,-1753.3099999999999,-1764.52,-1765.1300000000001,17.162400000000002,5.4832700000000001,0.50063500000000005
213433.0,29.151499999999999,-1755.55,-1762.8399999999999,-1765.1199999999999,15.152799999999999,5.3189000000000002,-0.61082999999999998
213434.0,22.096399999999999,-1586.24,-1589.1400000000001,-1592.9400000000001,11.7698,3.5502500000000001,-0.56465200000000004
213435.0,14.6694,-1326.6900000000001,-1324.99,-1330.26,7.9118599999999999,1.1609799999999999,0.73479000000000005
213436.0,11.8573,-1195.6500000000001,-1188.8900000000001,-1196.4200000000001,5.3446899999999999,-0.077060900000000002,1.07613
213437.0,13.600300000000001,-995.15099999999995,-983.69200000000001,-993.15300000000002,4.9034899999999997,-0.118724,0.35781400000000002
213438.0,17.300699999999999,-547.16200000000003,-529.30499999999995,-541.697,3.7581099999999998,0.70286300000000002,-1.1997500000000001
213439.0,16.628299999999999,-366.00400000000002,-347.649,-358.61099999999999,2.1244999999999998,0.21911700000000001,-1.52155
213440.0,14.802099999999999,-183.32499999999999,-166.66999999999999,-175.614,-0.63011300000000003,0.021833499999999999,-1.7785299999999999
213441.0,10.785399999999999,-71.478399999999993,-60.317500000000003,-65.385599999999997,-1.7206300000000001,0.417794,-2.10019
213442.0,9.5810999999999993,-20.1388,-11.8005,-14.738300000000001,-2.03085,1.1653199999999999,-2.68886
213443.0,129.27699999999999,1422.3900000000001,1539.3299999999999,1418.9200000000001,-11.512600000000001,8.6613299999999995,25.7973
213444.0,61.330100000000002,265.58199999999999,321.48500000000001,267.93799999999999,-7.55077,13.550800000000001,3.67516
213445.0,71.9435,2085.8200000000002,2046.4000000000001,2040.5999999999999,33.223999999999997,3.0774499999999998,2.5443600000000002
213446.0,35.429699999999997,1933.0,1923.3099999999999,1919.5899999999999,18.925000000000001,3.5100799999999999,-0.082108100000000003
213447.0,16.2469,671.35400000000004,682.12699999999995,671.94000000000005,6.5015499999999999,1.4400299999999999,-2.6357599999999999
213448.0,13.9115,286.30799999999999,301.00900000000001,290.92500000000001,1.04691,1.33399,-2.26084
213449.0,28.731100000000001,1567.3099999999999,1557.3399999999999,1557.8399999999999,15.1244,2.87609,-2.5664699999999998
213450.0,59.0244,1092.3800000000001,1069.0899999999999,1058.5,29.130299999999998,0.25387399999999999,3.4837400000000001
213451.0,41.907299999999999,-598.25599999999997,-606.52200000000005,-634.471,12.201499999999999,8.3643999999999998,2.5297100000000001
213452.0,42.004899999999999,-607.40499999999997,-589.58600000000001,-630.56299999999999,8.0778400000000001,9.9865700000000004,-0.99839699999999998
213453.0,54.261600000000001,792.827,770.71600000000001,750.99900000000002,21.561800000000002,8.0857299999999999,3.6453500000000001
213454.0,64.566500000000005,-390.56900000000002,-421.01400000000001,-434.83800000000002,28.1968,7.3444099999999999,5.2593500000000004
213455.0,68.169399999999996,995.52999999999997,964.13099999999997,951.61099999999999,31.2682,5.8391200000000003,5.0304799999999998
213456.0,69.670599999999993,391.21499999999997,357.75200000000001,346.92700000000002,32.552599999999998,3.9989300000000001,3.0449700000000002
213457.0,70.897999999999996,-1018.73,-1052.55,-1062.95,33.365000000000002,3.58466,3.8515999999999999
213458.0,63.302900000000001,1881.6600000000001,1850.75,1842.9200000000001,30.085000000000001,1.6142099999999999,2.91873
213459.0,61.183599999999998,2326.5900000000001,2300.1199999999999,2293.1799999999998,30.332799999999999,0.75822299999999998,4.0359400000000001
213460.0,55.153300000000002,2070.4699999999998,2045.48,2040.3199999999999,27.348800000000001,0.67121399999999998,2.3675799999999998
213461.0,44.683900000000001,1971.9000000000001,1952.4200000000001,1947.8699999999999,22.294899999999998,1.1567700000000001,2.0665499999999999
213462.0,40.158900000000003,1948.5,1933.75,1929.8199999999999,20.826000000000001,2.4166099999999999,1.0269200000000001
213463.0,36.664200000000001,-1881.25,-1895.29,-1898.2,18.9405,2.6432199999999999,-0.385492
213464.0,34.749600000000001,1803.04,1792.03,1791.3599999999999,18.5153,3.7458999999999998,-1.6221099999999999
213465.0,18.363600000000002,1513.01,1509.0699999999999,1507.6400000000001,9.8371399999999998,1.7521199999999999,-2.1957499999999999
213466.0,12.971399999999999,1306.8800000000001,1309.8099999999999,1304.9100000000001,6.86029,1.1109100000000001,-1.3084899999999999
213467.0,13.9633,1060.51,1069.25,1060.6700000000001,6.1689100000000003,1.2486900000000001,-0.62761999999999996
213468.0,17.1569,869.70299999999997,882.48500000000001,871.57299999999998,6.7585300000000004,2.0955599999999999,-0.628166
213469.0,17.720700000000001,-809.30799999999999,-796.93700000000001,-807.87599999999998,7.0894599999999999,1.9032800000000001,-2.2355999999999998
213470.0,15.4246,452.98700000000002,467.61799999999999,456.12599999999998,3.78138,1.44685,-1.8930499999999999
213471.0,13.7377,160.245,174.55000000000001,166.83099999999999,-1.4938100000000001,1.5386899999999999,-2.65273
213472.0,11.9876,67.678299999999993,78.872699999999995,74.259200000000007,-1.36043,2.1107999999999998,-3.1533799999999998
213473.0,12.156700000000001,9.9992900000000002,20.180800000000001,16.5656,-0.24451600000000001,2.73,-3.8868499999999999
213474.0,54.854599999999998,26.597899999999999,2.04393,63.152999999999999,-5.09579,1.98956,5.2441899999999997
213475.0,74.755399999999995,152.74000000000001,220.679,145.749,-2.4216099999999998,9.5547000000000004,7.2408999999999999
213476.0,40.374499999999998,1092.8199999999999,1110.95,1068.71,6.2096499999999999,6.5640999999999998,3.56962
213477.0,47.917299999999997,-34.313800000000001,-41.635100000000001,-70.136399999999995,18.999600000000001,6.1003600000000002,2.9929600000000001
213478.0,60.9039,86.575100000000006,64.114999999999995,45.3919,27.1401,6.5597399999999997,5.6245599999999998
213479.0,68.819400000000002,192.92599999999999,162.40700000000001,148.44900000000001,31.491,6.15693,5.6299700000000001
213480.0,69.915499999999994,-217.35599999999999,-248.75200000000001,-261.57299999999998,32.6526,4.9484500000000002,4.6001700000000003
213481.0,68.773499999999999,-2165.52,-2204.48,-2210.0799999999999,31.174199999999999,2.16797,3.3096800000000002
213482.0,62.946199999999997,-1021.55,-1052.1700000000001,-1060.29,29.769400000000001,0.86051200000000005,4.0361200000000004
213483.0,62.249299999999998,-1417.73,-1442.0999999999999,-1452.0799999999999,31.0197,0.37119099999999999,4.1269600000000004
213484.0,57.019399999999997,-2260.0100000000002,-2285.3400000000001,-2292.4099999999999,28.053799999999999,0.51432299999999997,2.4997699999999998
213485.0,47.2637,-1900.77,-1923.3699999999999,-1928.46,22.871200000000002,0.56795799999999996,2.0167299999999999
213486.0,42.302900000000001,-1823.97,-1843.4400000000001,-1846.6300000000001,21.0458,1.50657,0.945824
213487.0,35.410699999999999,-1854.3,-1865.0899999999999,-1866.8099999999999,18.895,3.5336400000000001,-1.58145
213488.0,29.1555,-1612.1600000000001,-1620.77,-1621.29,15.4876,3.6707399999999999,-1.9261699999999999
213489.0,18.554099999999998,-1494.3800000000001,-1498.53,-1499.8800000000001,9.7845099999999992,2.8820899999999998,-1.57857
213490.0,11.7432,-1417.1700000000001,-1416.4000000000001,-1419.8900000000001,6.1881899999999996,1.76508,-1.09266
213491.0,11.2926,-1174.47,-1168.73,-1175.54,5.2134,1.14053,-0.78018600000000005
213492.0,14.2164,-972.91800000000001,-963.25099999999998,-972.77800000000002,5.8203500000000004,1.18777,-1.1724699999999999
213493.0,15.735799999999999,-586.851,-571.98500000000001,-583.60699999999997,3.89174,1.9175,-1.61819
213494.0,15.913,-389.87099999999998,-373.17500000000001,-384.76499999999999,2.2318199999999999,1.4726900000000001,-2.0161199999999999
213495.0,14.708500000000001,-247.26900000000001,-231.33500000000001,-240.614,-0.24407599999999999,1.32067,-2.5022600000000002
213496.0,11.9429,-127.13800000000001,-115.42,-120.733,-0.79295899999999997,1.4535100000000001,-3.22085
213497.0,11.237399999999999,-48.422199999999997,-39.085599999999999,-42.380200000000002,-0.69991899999999996,1.7484,-4.0154699999999997
213498.0,123.807,-808.78300000000002,-698.54399999999998,-808.22699999999998,-6.6512599999999997,8.9610500000000002,30.891400000000001
213499.0,62.019799999999996,-672.25,-616.24300000000005,-675.08900000000006,-2.7909199999999998,12.198,-4.9260700000000002
213500.0,70.876000000000005,845.625,806.45000000000005,800.85400000000004,32.829900000000002,1.23993,0.25471899999999997
213501.0,41.5364,1867.7,1858.4100000000001,1849.77,22.159099999999999,1.61873,-1.02152
213502.0,16.9575,665.08900000000006,675.15599999999995,665.83000000000004,6.6498100000000004,3.3203499999999999,-3.02102
213503.0,13.275399999999999,318.464,331.74599999999998,322.851,1.44255,2.2561900000000001,-2.4043399999999999
213504.0,31.7409,1716.98,1706.51,1704.05,16.649999999999999,2.4407800000000002,-2.3491499999999998
213505.0,59.784100000000002,2649.8600000000001,2626.5100000000002,2613.9299999999998,29.265000000000001,-1.5243500000000001,0.34550700000000001
213506.0,41.526000000000003,425.577,420.00299999999999,388.63400000000001,11.2079,6.9496799999999999,-2.06169
213507.0,46.169600000000003,189.495,209.05099999999999,164.517,9.5430200000000003,7.8084199999999999,-7.7604899999999999
213508.0,51.268999999999998,-453.61399999999998,-472.745,-495.62099999999998,19.751899999999999,6.5474899999999998,-0.91978800000000005
213509.0,60.2057,1385.48,1358.21,1341.6500000000001,26.162099999999999,5.7102000000000004,1.18468
213510.0,66.086200000000005,684.61900000000003,653.81100000000004,639.86199999999997,30.116800000000001,4.5945099999999996,1.7790600000000001
213511.0,69.422399999999996,1938.24,1904.23,1893.4000000000001,32.427599999999998,2.76295,0.19456799999999999
213512.0,69.558899999999994,-1304.3599999999999,-1339.46,-1347.95,32.736899999999999,2.21068,1.4845200000000001
213513.0,63.219099999999997,1549.29,1517.0799999999999,1509.52,29.7605,0.22733999999999999,0.60384400000000005
213514.0,64.866200000000006,1623.1099999999999,1595.9000000000001,1585.28,31.852699999999999,-2.1782699999999999,1.5844400000000001
213515.0,60.078899999999997,2025.0999999999999,2000.8699999999999,1990.7,29.726900000000001,-2.4869300000000001,0.93592799999999998
213516.0,50.370800000000003,2128.6999999999998,2112.2600000000002,2101.0599999999999,25.477399999999999,-1.5967,0.896895
213517.0,46.975099999999998,2050.4299999999998,2037.5899999999999,2027.6099999999999,24.590499999999999,0.0163734,-0.0130265
213518.0,43.365000000000002,-1905.01,-1917.1800000000001,-1926.29,22.610399999999998,0.51828600000000002,-1.1517200000000001
213519.0,37.473199999999999,1750.23,1740.7,1735.29,20.042899999999999,2.4573100000000001,-1.7526900000000001
213520.0,21.682400000000001,1454.29,1448.73,1445.4400000000001,11.2296,2.3983400000000001,-2.1960899999999999
213521.0,14.699400000000001,1288.04,1290.8699999999999,1284.6500000000001,7.2331200000000004,2.76464,-1.53685
213522.0,15.2088,1121.4100000000001,1129.04,1120.29,6.5196699999999996,2.8550900000000001,-1.9400900000000001
213523.0,17.8261,883.04899999999998,894.40300000000002,883.65899999999999,6.9845699999999997,3.5222099999999998,-1.98577
213524.0,17.727900000000002,-788.33900000000006,-777.50999999999999,-787.46100000000001,7.0392000000000001,3.0975299999999999,-3.0723199999999999
213525.0,15.452299999999999,497.09500000000003,510.30900000000003,499.50200000000001,3.86151,2.1908500000000002,-3.2174
213526.0,13.851599999999999,174.11099999999999,188.10499999999999,181.179,-1.05071,2.6137000000000001,-2.6574800000000001
213527.0,13.6053,82.528599999999997,94.951800000000006,90.813699999999997,-1.526,3.0087700000000002,-3.2098599999999999
213528.0,14.3689,11.6556,23.3568,21.189299999999999,-0.16783699999999999,3.43337,-4.2725299999999997
213529.0,50.416400000000003,7.7181800000000003,-18.321899999999999,37.704799999999999,-4.65449,3.5802800000000001,5.1711499999999999
213530.0,71.350999999999999,292.16899999999998,357.459,283.09500000000003,-0.11391800000000001,7.1449299999999996,-0.23442399999999999
213531.0,39.964199999999998,-630.53700000000003,-611.75900000000001,-655.32000000000005,5.5315200000000004,4.7312500000000002,-1.41923
213532.0,46.091999999999999,184.16999999999999,179.52500000000001,148.24100000000001,17.266400000000001,5.2758200000000004,-0.57943500000000003
213533.0,56.852400000000003,-491.03899999999999,-510.36599999999999,-531.88300000000004,25.151800000000001,5.0688500000000003,1.28434
213534.0,64.853200000000001,-1241.3900000000001,-1268.8099999999999,-1284.9400000000001,29.8093,4.7722600000000002,2.4237899999999999
213535.0,69.001099999999994,-1490.76,-1522.24,-1535.0699999999999,32.370100000000001,3.9967100000000002,1.8221000000000001
213536.0,66.949600000000004,-705.29200000000003,-744.11599999999999,-748.89999999999998,30.345700000000001,0.61784300000000003,0.92553700000000005
213537.0,62.889699999999998,-2299.04,-2330.4899999999998,-2339.1399999999999,29.525300000000001,-0.36654599999999998,1.1498299999999999
213538.0,64.592100000000002,-2203.1199999999999,-2227.2600000000002,-2240.23,32.080800000000004,-1.7679499999999999,1.89076
213539.0,62.2669,-1548.9200000000001,-1575.1700000000001,-1586.0899999999999,30.313700000000001,-2.6757900000000001,1.1124099999999999
213540.0,53.318600000000004,-2011.0699999999999,-2033.4000000000001,-2043.3099999999999,25.846900000000002,-2.4602300000000001,0.90534099999999995
213541.0,49.302900000000001,-2074.9499999999998,-2092.1100000000001,-2101.75,24.999600000000001,-1.0290900000000001,0.0097820600000000004
213542.0,39.026600000000002,-1735.6800000000001,-1744.6500000000001,-1752.1900000000001,20.7867,1.7503200000000001,-2.0647700000000002
213543.0,32.910899999999998,-1732.3099999999999,-1740.0899999999999,-1745.1099999999999,17.5838,2.4431400000000001,-2.0716199999999998
213544.0,22.278700000000001,-1571.27,-1576.4300000000001,-1580.48,11.563499999999999,2.7736100000000001,-1.65557
213545.0,13.5884,-1327.8900000000001,-1328.1700000000001,-1333.0899999999999,6.5863500000000004,2.7296999999999998,-1.4762599999999999
213546.0,12.886799999999999,-1211.4400000000001,-1206.6099999999999,-1213.52,5.6002999999999998,2.8446199999999999,-1.8212299999999999
213547.0,14.9757,-1024.6700000000001,-1016.3200000000001,-1025.4100000000001,5.9935400000000003,2.9313600000000002,-2.18303
213548.0,16.448899999999998,-613.75199999999995,-599.56200000000001,-610.57899999999995,4.1751699999999996,3.2414299999999998,-2.60459
213549.0,15.0547,-444.96499999999997,-430.27800000000002,-440.76299999999998,2.52576,2.8068200000000001,-2.0179999999999998
213550.0,14.3466,-264.87099999999998,-249.934,-258.05099999999999,-0.19489799999999999,2.3500299999999998,-2.6709100000000001
213551.0,13.350300000000001,-140.40299999999999,-127.732,-132.673,-1.04125,2.3839899999999998,-3.4430800000000001
213552.0,12.9429,-56.561199999999999,-46.494900000000001,-48.389600000000002,-0.92510400000000004,2.4585499999999998,-4.5081600000000002
213553.0,118.08499999999999,1294.75,1396.95,1297.2,0.34130100000000002,8.9256899999999995,34.184699999999999
213554.0,65.956599999999995,305.512,362.524,297.32299999999998,2.5772200000000001,11.206,-7.5134800000000004
213555.0,69.079700000000003,1969.8299999999999,1930.76,1925.8900000000001,31.774999999999999,0.69199999999999995,-0.47880099999999998
213556.0,48.562100000000001,1963.3900000000001,1953.5799999999999,1941.28,25.751300000000001,0.401416,-0.34172999999999998
213557.0,17.4404,689.40200000000004,700.71900000000005,692.04600000000005,5.4610200000000004,4.7168599999999996,-3.7781699999999998
213558.0,12.767099999999999,309.95600000000002,322.36900000000003,315.30200000000002,1.1803600000000001,2.9920200000000001,-2.2839700000000001
213559.0,35.229599999999998,1569.26,1561.28,1553.54,18.6068,1.7538899999999999,-1.61907
213560.0,59.655799999999999,1029.03,1002.7,992.51300000000003,28.688700000000001,-2.1466500000000002,-1.85758
213561.0,43.089799999999997,-542.45299999999997,-544.95100000000002,-580.202,10.7151,6.1614699999999996,-4.5264899999999999
213562.0,52.597999999999999,-539.09400000000005,-517.31600000000003,-567.91300000000001,11.5517,7.33101,-9.5315200000000004
213563.0,49.301900000000003,777.63400000000001,762.09900000000005,735.37900000000002,17.677,5.5026000000000002,-3.2669899999999998
213564.0,57.411900000000003,-474.80900000000003,-498.51999999999998,-519.178,24.1432,4.5743499999999999,-1.39588
213565.0,63.603400000000001,875.06500000000005,845.94000000000005,830.38,28.624600000000001,3.7504,-0.71929799999999999
213566.0,67.112899999999996,267.279,233.45699999999999,223.22300000000001,31.050699999999999,2.0853799999999998,-1.1397600000000001
213567.0,67.353800000000007,-896.00099999999998,-931.02499999999998,-938.46100000000001,31.550799999999999,1.5330299999999999,0.49197099999999999
213568.0,64.071100000000001,1784.3900000000001,1749.55,1743.74,29.7453,-0.210373,-0.49427500000000002
213569.0,62.793999999999997,2290.75,2263.4699999999998,2253.6300000000001,30.501000000000001,-3.71116,-0.64760399999999996
213570.0,60.7121,2069.1999999999998,2045.2,2034.8599999999999,30.038499999999999,-3.96156,0.520783
213571.0,54.255600000000001,1994.3900000000001,1979.5799999999999,1966.28,27.804600000000001,-3.0815999999999999,0.97810600000000003
213572.0,53.116999999999997,1973.8,1962.1099999999999,1948.9100000000001,27.996600000000001,-1.1468799999999999,0.520563
213573.0,49.743299999999998,-1928.0,-1939.1099999999999,-1951.77,26.1342,-0.52650600000000003,-0.311807
213574.0,42.227600000000002,1823.5799999999999,1815.25,1804.6600000000001,22.386099999999999,1.4216599999999999,-1.1292500000000001
213575.0,26.3704,1513.1099999999999,1508.0,1501.5599999999999,13.807499999999999,1.8737699999999999,-2.0327899999999999
213576.0,18.654,1307.0799999999999,1309.25,1301.29,9.2394400000000001,3.0738400000000001,-2.0559099999999999
213577.0,17.298100000000002,1064.1300000000001,1069.8099999999999,1061.5799999999999,7.4212600000000002,3.61958,-3.7161200000000001
213578.0,17.528500000000001,885.01599999999996,894.57799999999997,885.57600000000002,6.3758499999999998,3.8935200000000001,-4.2199299999999997
213579.0,16.859100000000002,-819.96299999999997,-809.28899999999999,-818.10900000000004,5.3609299999999998,3.7145600000000001,-4.4361600000000001
213580.0,16.054300000000001,464.22300000000001,477.392,468.32499999999999,2.9393899999999999,2.7108599999999998,-4.9510199999999998
213581.0,13.6556,184.375,197.86199999999999,192.02000000000001,-1.1657500000000001,3.1168900000000002,-2.3102499999999999
213582.0,14.0989,78.742099999999994,91.126599999999996,87.6995,-1.9930399999999999,3.7160700000000002,-2.7542900000000001
213583.0,14.043799999999999,15.0183,25.189900000000002,24.710100000000001,-2.09612,3.9135300000000002,-3.61883
213584.0,49.531799999999997,29.982399999999998,5.6807499999999997,60.645400000000002,-3.8801000000000001,5.1730799999999997,4.1632699999999998
213585.0,73.099699999999999,91.705500000000001,156.68299999999999,79.110799999999998,2.54894,5.4738300000000004,-3.41831
213586.0,43.678600000000003,1010.95,1031.03,983.55499999999995,5.9986499999999996,4.0889100000000003,-3.9043999999999999
213587.0,45.259799999999998,-75.271600000000007,-76.879499999999993,-111.554,15.2597,4.4867900000000001,-3.1002399999999999
213588.0,54.251300000000001,123.735,108.69499999999999,82.657200000000003,23.0533,4.0335599999999996,-1.1925399999999999
213589.0,62.192799999999998,282.26100000000002,258.11500000000001,238.90000000000001,28.3491,3.67625,-0.23085800000000001
213590.0,66.289900000000003,-97.082499999999996,-127.289,-140.48699999999999,30.991,3.0361199999999999,0.16798199999999999
213591.0,66.278000000000006,-2056.0700000000002,-2095.04,-2098.9699999999998,30.028500000000001,0.30909300000000001,-0.12231499999999999
213592.0,62.636099999999999,-932.16600000000005,-966.37099999999998,-972.62599999999998,28.853200000000001,-0.59018099999999996,-0.74204000000000003
213593.0,62.346899999999998,-1360.99,-1387.5899999999999,-1397.96,30.415500000000002,-2.6268199999999999,-0.14935100000000001
213594.0,62.481699999999996,-2240.3699999999999,-2267.2399999999998,-2277.1599999999999,30.3416,-4.2519,0.43346899999999999
213595.0,57.020499999999998,-1920.9100000000001,-1943.8099999999999,-1954.0899999999999,27.904499999999999,-3.9605299999999999,0.95497399999999999
213596.0,54.7911,-1867.8399999999999,-1883.9300000000001,-1895.95,28.217199999999998,-2.2795700000000001,0.56573200000000001
213597.0,43.504300000000001,-1897.3699999999999,-1905.55,-1917.46,22.957799999999999,0.63764799999999999,-1.17313
213598.0,36.697299999999998,-1641.8199999999999,-1648.1600000000001,-1658.05,19.438199999999998,1.27545,-1.59155
213599.0,27.612500000000001,-1509.52,-1513.8199999999999,-1521.71,14.520099999999999,1.68868,-1.4959
213600.0,18.275600000000001,-1426.55,-1426.8499999999999,-1434.3499999999999,9.1411700000000007,2.2666599999999999,-1.7677400000000001
213601.0,16.587,-1178.79,-1174.98,-1182.96,7.2987399999999996,3.2975300000000001,-3.4067099999999999
213602.0,16.162700000000001,-977.00300000000004,-969.745,-978.14400000000001,5.8823800000000004,3.8342399999999999,-4.12521
213603.0,17.757000000000001,-601.07600000000002,-586.48900000000003,-596.53999999999996,3.5968499999999999,4.1350300000000004,-4.3977500000000003
213604.0,14.6808,-401.358,-387.49299999999999,-395.95999999999998,2.1394199999999999,3.8255499999999998,-1.94669
213605.0,14.1488,-268.49400000000003,-254.05199999999999,-261.00799999999998,-0.37588500000000002,2.9518,-2.3891200000000001
213606.0,13.706099999999999,-145.84100000000001,-133.06100000000001,-137.267,-1.46458,3.0188000000000001,-2.9903900000000001
213607.0,13.7209,-55.428800000000003,-44.962600000000002,-46.165500000000002,-1.6924699999999999,3.25034,-4.0651900000000003
213608.0,112.494,-890.46100000000001,-797.20799999999997,-888.45299999999997,9.0691799999999994,8.8454099999999993,34.930500000000002
213609.0,70.300600000000003,-608.49300000000005,-550.86099999999999,-620.53499999999997,7.9706799999999998,10.179,-9.6656399999999998
213610.0,65.389799999999994,684.822,647.505,642.57899999999995,29.816099999999999,0.170346,-1.6424000000000001
213611.0,51.699599999999997,1854.3299999999999,1845.29,1832.3399999999999,27.657900000000001,-1.2435099999999999,-1.5249699999999999
213612.0,15.642099999999999,675.24800000000005,685.95399999999995,680.06100000000004,4.4643100000000002,4.8479900000000002,-3.0613800000000002
213613.0,14.533200000000001,321.95100000000002,335.48000000000002,330.62,0.74502199999999996,3.3226300000000002,-3.44062
213614.0,36.381900000000002,1693.3800000000001,1687.8599999999999,1678.9400000000001,19.6248,0.41159400000000002,-1.6813800000000001
213615.0,59.890999999999998,2553.7800000000002,2522.0500000000002,2517.0999999999999,27.9925,-2.23786,-3.28938
213616.0,44.3964,500.416,500.22699999999998,462.50200000000001,10.146000000000001,5.2439200000000001,-7.0565600000000002
213617.0,56.717500000000001,283.07900000000001,306.04000000000002,252.31,13.292999999999999,6.7716000000000003,-11.087400000000001
213618.0,47.498600000000003,-441.935,-454.947,-483.63499999999999,15.5566,4.5593899999999996,-5.8353099999999998
213619.0,53.403399999999998,1331.03,1310.46,1288.0899999999999,21.423100000000002,3.5429200000000001,-4.22715
213620.0,59.287199999999999,575.81600000000003,549.30399999999997,532.78300000000002,26.121099999999998,2.7211799999999999,-3.2633399999999999
213621.0,62.853900000000003,1794.6300000000001,1762.51,1752.3599999999999,28.647099999999998,1.37348,-2.7363300000000002
213622.0,63.674599999999998,-1155.2,-1188.02,-1196.1199999999999,29.670999999999999,0.74322900000000003,-0.96220000000000006
213623.0,63.907400000000003,1400.1300000000001,1362.9200000000001,1359.45,29.149699999999999,-0.53536899999999998,-1.6620600000000001
213624.0,57.747799999999998,1559.8499999999999,1532.3499999999999,1526.24,27.7012,-4.03287,-2.71773
213625.0,56.2485,1962.1700000000001,1939.6900000000001,1931.6099999999999,27.986499999999999,-4.4253400000000003,-1.0184200000000001
213626.0,53.967300000000002,2085.73,2072.52,2060.2399999999998,28.209700000000002,-3.51295,-0.38886300000000001
213627.0,56.072800000000001,2025.6700000000001,2015.02,2001.74,29.981000000000002,-2.1491099999999999,-0.94342400000000004
213628.0,52.4876,-1896.55,-1906.22,-1919.3800000000001,27.960799999999999,-1.8278700000000001,-1.36816
213629.0,44.223300000000002,1740.8199999999999,1733.5,1722.28,23.707999999999998,-0.49562600000000001,-1.5611900000000001
213630.0,28.221399999999999,1411.8499999999999,1408.3399999999999,1401.6900000000001,15.3103,1.24838,-1.70675
213631.0,21.208300000000001,1244.8599999999999,1245.1400000000001,1238.9100000000001,11.3439,2.5072399999999999,-1.5983400000000001
213632.0,17.402799999999999,1095.75,1098.0799999999999,1092.72,8.7384900000000005,3.3151299999999999,-2.5259900000000002
213633.0,15.0197,878.26400000000001,884.61400000000003,879.18399999999997,6.3223799999999999,3.4718499999999999,-3.3759199999999998
213634.0,13.5564,-781.03700000000003,-772.17499999999995,-777.67999999999995,4.1095699999999997,3.5559799999999999,-3.4219300000000001
213635.0,16.930700000000002,504.32400000000001,518.64800000000002,512.78300000000002,1.90499,3.4060199999999998,-5.3349299999999999
213636.0,15.3339,173.79400000000001,187.977,183.87899999999999,-1.4765600000000001,4.0164999999999997,-2.6044100000000001
213637.0,15.5708,79.4816,91.474999999999994,90.248599999999996,-2.7983199999999999,4.2992699999999999,-3.3101500000000001
213638.0,17.291,11.0619,20.212499999999999,22.9983,-4.8045799999999996,4.3740500000000004,-4.2951100000000002
213639.0,50.555999999999997,15.561999999999999,-5.0725899999999999,50.0533,-4.3494200000000003,7.5613900000000003,0.40209699999999998
213640.0,73.671400000000006,207.94999999999999,271.779,193.52600000000001,5.1770300000000002,4.2284899999999999,-5.49498
213641.0,45.920000000000002,-723.86400000000003,-703.13599999999997,-752.524,6.0956799999999998,3.5485899999999999,-6.1712999999999996
213642.0,44.925600000000003,131.08099999999999,131.94999999999999,94.8309,13.398400000000001,3.6051700000000002,-5.61043
213643.0,51.037500000000001,-474.75799999999998,-487.101,-514.875,20.533799999999999,3.2114400000000001,-3.7611699999999999
213644.0,57.921399999999998,-1166.6800000000001,-1187.3800000000001,-1208.3399999999999,25.8904,2.5996299999999999,-2.7062400000000002
213645.0,61.743499999999997,-1369.28,-1396.6600000000001,-1410.75,28.623200000000001,1.95878,-1.69245
213646.0,64.466899999999995,-549.22400000000005,-586.68299999999999,-590.66200000000003,29.342600000000001,-0.15677199999999999,-1.2790299999999999
213647.0,62.493400000000001,-2160.0900000000001,-2197.21,-2200.1500000000001,28.252500000000001,-0.72943999999999998,-2.1352500000000001
213648.0,58.931199999999997,-2103.3899999999999,-2134.9400000000001,-2139.3400000000001,27.616199999999999,-2.6097700000000001,-1.9443999999999999
213649.0,57.764699999999998,-1477.8699999999999,-1505.21,-1510.9400000000001,27.902699999999999,-4.5073400000000001,-1.0672299999999999
213650.0,56.175800000000002,-1955.8699999999999,-1978.46,-1986.05,28.011500000000002,-4.5514099999999997,-0.38283099999999998
213651.0,56.816499999999998,-2047.8599999999999,-2063.0500000000002,-2074.0300000000002,29.895900000000001,-3.0034900000000002,-0.74723899999999999
213652.0,45.475999999999999,-1734.6800000000001,-1741.6199999999999,-1754.1500000000001,24.257300000000001,-1.0525500000000001,-1.5764499999999999
213653.0,37.821800000000003,-1729.6500000000001,-1734.8499999999999,-1745.25,20.268899999999999,-0.25998700000000002,-1.6965699999999999
213654.0,29.710000000000001,-1554.8,-1557.8,-1566.0799999999999,16.029299999999999,0.81344399999999994,-1.57555
213655.0,21.8383,-1297.1700000000001,-1297.5,-1304.3699999999999,11.6999,1.7474499999999999,-1.5789899999999999
213656.0,17.9587,-1180.7,-1178.5899999999999,-1184.8099999999999,9.1356000000000002,2.7414399999999999,-2.5575199999999998
213657.0,14.523099999999999,-1003.2,-998.33799999999997,-1003.9400000000001,6.3014900000000003,3.44659,-3.07544
213658.0,16.683599999999998,-618.67499999999995,-604.74000000000001,-611.31399999999996,2.2254900000000002,4.0772599999999999,-4.7540199999999997
213659.0,15.9207,-448.82999999999998,-434.05099999999999,-439.67099999999999,1.47407,4.31698,-2.83467
213660.0,15.659000000000001,-268.62700000000001,-253.21199999999999,-258.517,-0.46379700000000001,3.70248,-2.5459299999999998
213661.0,15.4679,-141.58199999999999,-128.245,-130.72999999999999,-1.67624,3.8831799999999999,-3.3999700000000002
213662.0,16.338699999999999,-53.438299999999998,-42.444499999999998,-41.573399999999999,-3.0732900000000001,3.9276499999999999,-4.5143399999999998
213663.0,108.864,1173.55,1257.2,1173.0599999999999,19.058499999999999,8.7675699999999992,34.118899999999996
213664.0,76.246899999999997,389.20999999999998,447.79399999999998,373.947,13.1812,9.03932,-12.7539
213665.0,60.248899999999999,1779.0999999999999,1744.8699999999999,1739.48,27.061,-0.67167699999999997,-3.9326699999999999
213666.0,51.511499999999998,1878.3399999999999,1869.95,1859.8699999999999,28.060400000000001,-2.36558,-2.4367800000000002
213667.0,15.557700000000001,703.65899999999999,711.81200000000001,709.60599999999999,4.3233499999999996,5.8407099999999996,-3.17685
213668.0,18.859400000000001,320.39800000000002,334.88900000000001,333.56900000000002,-0.38634499999999999,5.9015700000000004,-4.4021800000000004
213669.0,35.957999999999998,1493.3699999999999,1488.73,1482.9400000000001,19.973800000000001,-0.77273599999999998,-2.0331000000000001
213670.0,59.911999999999999,872.05999999999995,835.76700000000005,835.28599999999994,26.905899999999999,-2.4549099999999999,-4.6450800000000001
213671.0,47.227600000000002,-447.55200000000002,-445.19999999999999,-486.19299999999998,9.9259799999999991,4.0787699999999996,-9.92333
213672.0,61.506999999999998,-424.70100000000002,-400.24200000000002,-457.03300000000002,15.179600000000001,5.6524299999999998,-13.682499999999999
213673.0,47.100499999999997,821.98299999999995,811.74900000000002,780.62199999999996,13.698700000000001,3.2922899999999999,-8.7708100000000009
213674.0,50.020099999999999,-496.07100000000003,-513.48000000000002,-537.35500000000002,18.597200000000001,2.40394,-7.2648599999999997
213675.0,54.0762,786.38499999999999,763.16899999999998,746.08100000000002,22.9573,1.5378700000000001,-6.0103400000000002
213676.0,57.375500000000002,119.754,90.559399999999997,80.215299999999999,25.5396,0.38322099999999998,-4.9454000000000002
213677.0,58.630899999999997,-734.34299999999996,-763.72500000000002,-772.78800000000001,27.039300000000001,-0.29082599999999997,-3.2770600000000001
213678.0,61.420999999999999,1584.28,1547.4300000000001,1545.0899999999999,27.565300000000001,-1.1918,-3.6103900000000002
213679.0,54.972700000000003,2184.4000000000001,2154.4099999999999,2152.52,25.525200000000002,-3.8379500000000002,-4.6009000000000002
213680.0,50.358600000000003,1964.6800000000001,1944.3,1938.26,25.056699999999999,-4.1573099999999998,-2.93493
213681.0,50.581299999999999,1884.25,1873.46,1862.8299999999999,26.860499999999998,-3.6743199999999998,-1.7496499999999999
213682.0,56.448,1875.3900000000001,1865.6300000000001,1854.6600000000001,30.672499999999999,-2.8479800000000002,-2.3588
213683.0,52.609400000000001,-1841.5799999999999,-1850.3199999999999,-1861.3099999999999,28.557500000000001,-2.3677800000000002,-1.9181699999999999
213684.0,43.201500000000003,1743.97,1737.5899999999999,1729.3800000000001,23.703499999999998,-1.68119,-1.9730399999999999
213685.0,28.7075,1439.51,1436.4400000000001,1432.76,16.057400000000001,0.40672000000000003,-2.2973400000000002
213686.0,21.550999999999998,1245.23,1244.6199999999999,1242.01,11.9529,1.7173799999999999,-2.4635699999999998
213687.0,16.8568,1025.04,1027.0699999999999,1025.01,8.7898899999999998,2.82057,-2.8471600000000001
213688.0,15.0222,874.51099999999997,880.06299999999999,878.06600000000003,6.4178499999999996,3.8903699999999999,-3.3150300000000001
213689.0,13.9071,-812.38699999999994,-805.06700000000001,-806.81799999999998,4.2145400000000004,4.5276399999999999,-3.4050400000000001
213690.0,19.227900000000002,491.89600000000002,505.92200000000003,502.99900000000002,1.4893099999999999,6.89689,-4.3235999999999999
213691.0,18.866199999999999,173.45099999999999,188.065,188.547,-2.7650899999999998,5.5046099999999996,-2.66065
213692.0,19.976500000000001,57.945,70.195300000000003,75.039299999999997,-4.1659800000000002,5.3140400000000003,-3.1307800000000001
213693.0,23.684100000000001,9.5878399999999999,18.621500000000001,29.190799999999999,-6.1714900000000004,6.0903999999999998,-3.9411100000000001
213694.0,50.159999999999997,36.068899999999999,18.9788,70.868899999999996,-5.2502800000000001,9.7839500000000008,-4.01267
213695.0,74.817800000000005,-24.393699999999999,38.505800000000001,-40.020400000000002,7.8732499999999996,3.0472700000000001,-8.1735699999999998
213696.0,49.290500000000002,896.94200000000001,918.83100000000002,866.73299999999995,6.45052,2.65788,-8.7671899999999994
213697.0,46.056899999999999,-148.69,-145.476,-185.41399999999999,11.9054,2.63056,-8.1290800000000001
213698.0,48.932000000000002,106.239,96.702100000000002,66.836200000000005,18.092199999999998,2.12799,-6.6085799999999999
213699.0,53.496000000000002,329.92899999999997,312.589,290.26999999999998,23.003699999999998,1.5232300000000001,-5.2122599999999997
213700.0,56.1815,13.044499999999999,-10.5715,-25.685700000000001,25.580400000000001,0.76320399999999999,-4.0188499999999996
213701.0,60.897799999999997,-1864.76,-1899.1300000000001,-1903.72,27.758900000000001,-1.0870500000000001,-3.3234499999999998
213702.0,60.669600000000003,-741.47699999999998,-778.60799999999995,-779.68700000000001,27.1633,-1.4296800000000001,-3.7084299999999999
213703.0,57.380299999999998,-1204.6900000000001,-1240.8,-1239.9200000000001,25.514600000000002,-2.7536200000000002,-3.8053699999999999
213704.0,53.017000000000003,-2123.02,-2152.5300000000002,-2153.5799999999999,24.664000000000001,-4.2397799999999997,-3.08819
213705.0,52.301600000000001,-1813.8,-1834.9200000000001,-1840.04,26.371400000000001,-4.3969300000000002,-1.9069499999999999
213706.0,57.186999999999998,-1767.49,-1781.5699999999999,-1790.5699999999999,30.662500000000001,-3.2858200000000002,-1.9615
213707.0,44.781300000000002,-1819.1400000000001,-1825.26,-1835.1600000000001,24.426400000000001,-1.9221600000000001,-1.65601
213708.0,37.585000000000001,-1566.8599999999999,-1571.6199999999999,-1578.98,20.702300000000001,-1.2734300000000001,-1.8266500000000001
213709.0,30.170500000000001,-1439.1600000000001,-1441.9000000000001,-1447.0599999999999,16.817299999999999,-0.23189199999999999,-2.11551
213710.0,22.5274,-1361.0899999999999,-1361.3699999999999,-1365.0599999999999,12.529299999999999,0.90492099999999998,-2.54182
213711.0,17.133500000000002,-1124.76,-1122.8,-1125.4000000000001,9.1013900000000003,1.8448199999999999,-3.1271800000000001
213712.0,13.950799999999999,-946.09299999999996,-941.90899999999999,-943.66600000000005,6.3528500000000001,3.0207099999999998,-3.3132000000000001
213713.0,16.789300000000001,-612.077,-600.34299999999996,-602.78899999999999,1.0340100000000001,6.0573699999999997,-4.2282099999999998
213714.0,20.060199999999998,-420.74000000000001,-405.649,-407.89699999999999,0.214944,7.3595899999999999,-3.69319
213715.0,19.8109,-271.73500000000001,-255.602,-257.06400000000002,-1.4340999999999999,6.6395099999999996,-2.2530399999999999
213716.0,18.787099999999999,-128.36500000000001,-115.214,-112.583,-2.6859700000000002,5.5118999999999998,-2.92767
213717.0,20.998000000000001,-31.568300000000001,-21.621099999999998,-13.4437,-4.3306699999999996,5.6047799999999999,-3.7969599999999999
213718.0,108.188,-997.0,-923.00999999999999,-1001.3,29.900200000000002,8.1445500000000006,31.686699999999998
213719.0,83.279399999999995,-535.21699999999998,-475.30399999999997,-553.399,18.422999999999998,7.9916200000000002,-15.4504
213720.0,54.228400000000001,516.01099999999997,485.75799999999998,480.06799999999998,23.5884,-1.5236499999999999,-6.9460300000000004
213721.0,51.556600000000003,1723.6800000000001,1715.4200000000001,1709.1800000000001,28.452400000000001,-3.4600399999999998,-3.4103500000000002
213722.0,18.605599999999999,649.34799999999996,656.62800000000004,658.548,4.0498799999999999,7.1477599999999999,-4.9341400000000002
213723.0,22.280999999999999,297.62099999999998,312.173,314.471,-2.80619,7.00786,-4.9998800000000001
213724.0,35.892200000000003,1606.76,1602.29,1600.1300000000001,20.216100000000001,-1.3538600000000001,-2.73319
213725.0,56.7575,2349.2800000000002,2312.7199999999998,2314.3600000000001,24.711200000000002,-2.3803200000000002,-5.5807500000000001
213726.0,50.607300000000002,620.80600000000004,625.26400000000001,581.101,10.4771,2.9670399999999999,-12.000400000000001
213727.0,66.759200000000007,405.11099999999999,430.76900000000001,370.75999999999999,17.6479,4.7460899999999997,-15.654299999999999
213728.0,47.735100000000003,-363.13600000000002,-370.96800000000002,-404.40600000000001,12.408300000000001,2.0572599999999999,-10.995200000000001
213729.0,48.128500000000003,1351.54,1336.96,1311.73,16.148700000000002,1.0163199999999999,-10.2287
213730.0,49.874099999999999,529.24400000000003,509.42200000000003,491.714,19.783999999999999,0.095193399999999997,-9.2318499999999997
213731.0,52.081800000000001,1680.8499999999999,1655.3399999999999,1644.51,22.124700000000001,-0.81538699999999997,-8.1174199999999992
213732.0,53.104900000000001,-1023.3099999999999,-1048.7,-1058.5,23.799700000000001,-1.4883200000000001,-6.4395899999999999
213733.0,56.279899999999998,1195.1600000000001,1161.3599999999999,1159.3800000000001,24.719200000000001,-1.8602000000000001,-6.0733100000000002
213734.0,52.4726,1393.73,1361.1700000000001,1362.73,23.478899999999999,-2.81291,-4.6258600000000003
213735.0,46.481299999999997,1813.49,1791.3800000000001,1788.46,22.548400000000001,-3.2497199999999999,-3.73258
213736.0,44.619599999999998,1923.1700000000001,1914.5899999999999,1905.6600000000001,23.849799999999998,-3.42049,-2.5466700000000002
213737.0,55.1325,1873.8399999999999,1864.77,1856.9000000000001,30.285299999999999,-3.4908600000000001,-3.4554499999999999
213738.0,52.596400000000003,-1756.2,-1765.1500000000001,-1772.3199999999999,29.026399999999999,-2.9426100000000002,-2.3932600000000002
213739.0,43.288800000000002,1632.9200000000001,1626.48,1622.28,24.1081,-2.5765500000000001,-2.8349799999999998
213740.0,29.386199999999999,1346.3800000000001,1343.0799999999999,1343.45,16.654599999999999,-0.0083142300000000006,-2.6867999999999999
213741.0,22.499099999999999,1199.6500000000001,1198.53,1200.4400000000001,12.5167,1.72323,-2.8605499999999999
213742.0,17.882000000000001,1063.1600000000001,1065.6300000000001,1068.03,8.6189599999999995,3.89439,-3.3455300000000001
213743.0,18.116700000000002,848.07500000000005,854.19299999999998,856.16600000000005,6.2159599999999999,5.8604399999999996,-4.3157899999999998
213744.0,17.976199999999999,-749.36300000000006,-741.65499999999997,-739.89400000000001,4.4449100000000001,6.0896100000000004,-5.05077
213745.0,21.020099999999999,489.62200000000001,502.15899999999999,502.41199999999998,0.42204000000000003,8.5302399999999992,-4.5684199999999997
213746.0,23.546900000000001,150.124,165.05500000000001,170.624,-4.6378899999999996,6.5820100000000004,-2.7605
213747.0,25.057400000000001,75.528599999999997,87.481999999999999,97.918400000000005,-4.6978400000000002,7.6370800000000001,-1.8380000000000001
213748.0,27.2376,18.520199999999999,25.322700000000001,41.719099999999997,-6.0927600000000002,7.9664999999999999,-2.11938
213749.0,49.600700000000003,18.354900000000001,4.6071999999999997,50.364699999999999,-8.5035399999999992,12.164300000000001,-6.9688800000000004
213750.0,77.007800000000003,103.99299999999999,166.31100000000001,86.962900000000005,10.9198,2.3048500000000001,-10.355600000000001
213751.0,53.245800000000003,-846.673,-823.76599999999996,-879.01900000000001,7.5783199999999997,1.80891,-10.6623
213752.0,47.818300000000001,33.824800000000003,38.712699999999998,-3.7355499999999999,10.995900000000001,1.7031799999999999,-9.9481099999999998
213753.0,48.100499999999997,-524.52200000000005,-531.68499999999995,-563.56700000000001,16.076799999999999,1.0862799999999999,-8.9180399999999995
213754.0,50.097499999999997,-1158.71,-1173.1500000000001,-1196.55,20.200900000000001,0.25103999999999999,-7.9934599999999998
213755.0,51.322899999999997,-1296.8399999999999,-1316.6700000000001,-1332.79,22.4224,-0.62577099999999997,-7.1070000000000002
213756.0,55.445900000000002,-372.0,-402.23899999999998,-407.13499999999999,24.959299999999999,-2.0549400000000002,-5.9512299999999998
213757.0,56.061100000000003,-1955.97,-1989.9200000000001,-1990.5799999999999,24.940899999999999,-2.2590400000000002,-5.3568199999999999
213758.0,54.491500000000002,-1904.29,-1940.6500000000001,-1937.5699999999999,23.576699999999999,-2.6812100000000001,-4.4869000000000003
213759.0,50.072099999999999,-1307.47,-1339.23,-1337.3299999999999,22.2806,-3.1051700000000002,-3.5145400000000002
213760.0,47.070099999999996,-1798.3099999999999,-1820.29,-1822.6900000000001,23.198799999999999,-3.6810999999999998,-2.4945400000000002
213761.0,55.758800000000001,-1893.8199999999999,-1907.3800000000001,-1913.6099999999999,30.258600000000001,-3.2500399999999998,-2.7900200000000002
213762.0,44.728099999999998,-1614.0799999999999,-1620.79,-1626.3900000000001,24.863700000000001,-2.5211199999999998,-2.0877699999999999
213763.0,37.214100000000002,-1631.3699999999999,-1636.45,-1639.72,20.8596,-1.77745,-2.3739300000000001
213764.0,30.686800000000002,-1478.03,-1481.24,-1482.25,17.367799999999999,-0.73280800000000001,-2.6219899999999998
213765.0,23.4512,-1239.9000000000001,-1240.9000000000001,-1240.0,13.1922,0.54784500000000003,-2.9458500000000001
213766.0,17.453199999999999,-1137.8199999999999,-1136.3699999999999,-1134.1700000000001,8.9900300000000009,2.2947500000000001,-3.4736699999999998
213767.0,16.1251,-968.04100000000005,-963.82299999999998,-961.07799999999997,6.1128299999999998,4.2667799999999998,-4.3357200000000002
213768.0,19.756399999999999,-590.06399999999996,-577.83799999999997,-577.71000000000004,0.512602,7.4757199999999999,-4.8584899999999998
213769.0,23.101600000000001,-421.745,-406.27499999999998,-406.51600000000002,-1.7358899999999999,8.63767,-4.6607000000000003
213770.0,23.389099999999999,-232.16399999999999,-217.19800000000001,-213.93899999999999,-3.65855,8.3627500000000001,-2.1361300000000001
213771.0,23.414300000000001,-113.471,-102.15000000000001,-93.175399999999996,-4.0283300000000004,7.8050800000000002,-1.47082
213772.0,25.738900000000001,-40.712600000000002,-32.4452,-18.391300000000001,-4.3267300000000004,8.3823299999999996,-2.1203699999999999
213773.0,111.633,1027.3900000000001,1091.3399999999999,1018.92,41.541699999999999,7.1304999999999996,28.460699999999999
213774.0,90.695599999999999,467.01499999999999,528.50400000000002,446.73599999999999,23.7349,6.9608400000000001,-17.806100000000001
213775.0,48.876899999999999,1679.1199999999999,1653.4300000000001,1647.72,19.853400000000001,-2.6491500000000001,-10.7409
213776.0,51.075800000000001,1701.1300000000001,1694.04,1692.0599999999999,28.68,-3.49037,-3.4760599999999999
213777.0,19.8188,667.346,672.88699999999994,680.10699999999997,4.5386100000000003,7.66601,-3.2579199999999999
213778.0,23.1203,300.52600000000001,313.029,319.97800000000001,-2.8782100000000002,7.6421400000000004,-3.7854800000000002
213779.0,37.090200000000003,1391.9300000000001,1386.1700000000001,1387.6900000000001,20.9678,-1.0604800000000001,-2.9770699999999999
213780.0,49.280000000000001,658.28800000000001,626.36500000000001,628.77099999999996,20.695699999999999,-2.44014,-7.69564
213781.0,54.235500000000002,-303.39800000000002,-297.53699999999998,-344.077,11.4259,1.86721,-14.280200000000001
213782.0,72.557000000000002,-295.01900000000001,-268.37799999999999,-331.34699999999998,20.2623,3.7971200000000001,-18.186900000000001
213783.0,49.442,941.21000000000004,935.06200000000001,899.81899999999996,11.6989,0.71039099999999999,-13.364599999999999
213784.0,48.2301,-422.58600000000001,-434.90800000000002,-461.38099999999997,14.336600000000001,-0.66005999999999998,-13.2834
213785.0,48.4373,806.87099999999998,789.85000000000002,771.31200000000001,17.293800000000001,-1.6612499999999999,-12.803000000000001
213786.0,48.623199999999997,82.889499999999998,61.1631,49.920699999999997,19.009,-2.4110200000000002,-11.8332
213787.0,48.931800000000003,-674.46000000000004,-695.93899999999996,-706.245,20.5944,-2.9578799999999998,-10.111700000000001
213788.0,49.133800000000001,1422.0,1393.3099999999999,1391.8299999999999,20.5227,-2.5617700000000001,-9.3717600000000001
213789.0,46.213900000000002,1941.6300000000001,1911.45,1914.0599999999999,19.945900000000002,-1.8668800000000001,-5.5647700000000002
213790.0,43.750900000000001,1732.73,1706.97,1707.72,19.7864,-2.34517,-5.1178100000000004
213791.0,36.362000000000002,1667.3199999999999,1658.21,1652.3599999999999,19.234300000000001,-2.2495500000000002,-2.96862
213792.0,48.943600000000004,1664.4200000000001,1657.3900000000001,1652.6400000000001,27.161300000000001,-3.4088599999999998,-3.7427199999999998
213793.0,51.983400000000003,-1646.3099999999999,-1655.8299999999999,-1657.78,29.127199999999998,-3.03843,-2.3388
213794.0,45.805199999999999,1608.96,1601.27,1601.51,25.7652,-2.3429500000000001,-3.3060800000000001
213795.0,30.1663,1366.6300000000001,1362.46,1366.03,17.090199999999999,0.427485,-2.45235
213796.0,24.291799999999999,1196.45,1194.8099999999999,1200.26,13.3833,2.33283,-2.08168
213797.0,20.822700000000001,990.91399999999999,991.63300000000004,998.40999999999997,10.036,4.7412200000000002,-2.0542500000000001
213798.0,20.314399999999999,844.26800000000003,848.50599999999997,855.23000000000002,7.20749,6.9575100000000001,-2.5773000000000001
213799.0,19.637699999999999,-776.45799999999997,-770.02800000000002,-763.57100000000003,4.9455299999999998,7.01593,-3.6538400000000002
213800.0,19.959800000000001,450.81799999999998,460.5,466.29899999999998,0.52801600000000004,7.8808100000000003,-3.0392299999999999
213801.0,27.183900000000001,181.47800000000001,196.256,205.251,-4.8893300000000002,8.54894,-2.2927200000000001
213802.0,26.438400000000001,69.238,80.6541,92.240399999999994,-4.2933899999999996,8.9756900000000002,-1.31162
213803.0,24.694900000000001,11.5448,16.416699999999999,32.311700000000002,-5.8517400000000004,7.0900999999999996,-0.90868800000000005
213804.0,51.5032,42.654499999999999,27.2348,73.907799999999995,-10.7354,12.5684,-6.74505
213805.0,80.340900000000005,-131.87700000000001,-69.635999999999996,-150.21899999999999,14.025399999999999,1.6620200000000001,-12.964499999999999
213806.0,57.230600000000003,762.17499999999995,785.74000000000001,727.89599999999996,9.0884300000000007,0.83740000000000003,-12.744999999999999
213807.0,49.861699999999999,-279.59399999999999,-273.80599999999998,-317.976,10.536199999999999,0.74267000000000005,-11.869899999999999
213808.0,48.341200000000001,8.9608799999999995,3.2875200000000002,-29.9374,14.548999999999999,-0.062714900000000004,-11.213900000000001
213809.0,48.851399999999998,280.24599999999998,268.01600000000002,243.54400000000001,18.005800000000001,-1.17716,-10.9838
213810.0,48.740299999999998,15.2645,-1.7257800000000001,-18.5457,19.7363,-2.2215699999999998,-10.5656
213811.0,49.384,-1744.3699999999999,-1769.72,-1774.8199999999999,21.199200000000001,-3.2056300000000002,-9.3359000000000005
213812.0,48.894100000000002,-564.61199999999997,-592.85599999999999,-593.75099999999998,21.211099999999998,-3.1089199999999999,-7.9185499999999998
213813.0,47.542499999999997,-980.90700000000004,-1011.96,-1009.28,20.2483,-2.9462199999999998,-6.2160500000000001
213814.0,45.488700000000001,-1878.8099999999999,-1908.28,-1906.05,19.8186,-2.16777,-4.7944599999999999
213815.0,40.633499999999998,-1576.3299999999999,-1600.6900000000001,-1599.46,18.589700000000001,-2.7996599999999998,-2.9423699999999999
213816.0,49.204999999999998,-1548.8099999999999,-1563.04,-1565.1400000000001,26.679500000000001,-2.6159400000000002,-3.0795400000000002
213817.0,47.0458,-1661.5899999999999,-1669.1500000000001,-1669.8499999999999,26.588799999999999,-2.1838099999999998,-2.2548300000000001
213818.0,38.215200000000003,-1444.6099999999999,-1450.5899999999999,-1450.1800000000001,21.659600000000001,-1.0491900000000001,-2.3230300000000002
213819.0,31.150300000000001,-1346.8900000000001,-1351.3499999999999,-1348.95,17.7027,-0.031791199999999999,-2.25387
213820.0,24.6815,-1295.48,-1298.0599999999999,-1293.3199999999999,13.823,1.23106,-2.2034400000000001
213821.0,20.198699999999999,-1078.9100000000001,-1079.1199999999999,-1072.48,10.317,3.09328,-2.3993199999999999
213822.0,18.369299999999999,-909.88400000000001,-907.19500000000005,-899.88999999999999,7.0160200000000001,5.2182199999999996,-3.0456799999999999
213823.0,20.1265,-569.43100000000004,-558.68100000000004,-554.02800000000002,1.2341200000000001,7.8573700000000004,-3.0579800000000001
213824.0,21.866299999999999,-379.75999999999999,-367.44299999999998,-362.666,-1.6044,8.4143000000000008,-2.8653900000000001
213825.0,25.5779,-251.30799999999999,-238.167,-230.459,-4.3107600000000001,9.3174100000000006,-1.2439100000000001
213826.0,26.366199999999999,-127.214,-115.489,-104.515,-3.81786,9.3291000000000004,-1.12029
213827.0,24.8889,-34.6721,-25.552199999999999,-13.190799999999999,-3.0621499999999999,8.8642000000000003,-1.5157700000000001
213828.0,118.334,-1094.6600000000001,-1040.49,-1108.0799999999999,53.085799999999999,5.9706000000000001,23.095600000000001
213829.0,99.076700000000002,-455.46899999999999,-391.91199999999998,-477.30599999999998,28.991,5.8298800000000002,-20.724
213830.0,47.584000000000003,534.47799999999995,512.63699999999994,507.10700000000003,17.174700000000001,-4.6665200000000002,-15.1175
213831.0,45.429600000000001,1463.55,1460.3199999999999,1459.6199999999999,25.892800000000001,-0.78969800000000001,-3.5339700000000001
213832.0,19.937100000000001,604.31600000000003,607.37900000000002,617.899,5.7109300000000003,6.9844600000000003,-0.58144700000000005
213833.0,26.354299999999999,332.88499999999999,341.81599999999997,355.34500000000003,-0.19839799999999999,10.1614,-0.58531100000000003
213834.0,39.131900000000002,1418.1600000000001,1411.4200000000001,1415.3499999999999,22.2224,-0.203542,-2.25238
213835.0,43.143300000000004,2221.6900000000001,2196.9499999999998,2199.1999999999998,16.2029,-3.8428100000000001,-12.4899
213836.0,59.003300000000003,784.83000000000004,792.19799999999998,742.80200000000002,12.638299999999999,0.63256900000000005,-17.036300000000001
213837.0,79.251599999999996,541.99400000000003,570.0,503.94499999999999,22.959800000000001,2.6083699999999999,-21.457000000000001
213838.0,52.671900000000001,-208.69300000000001,-213.18299999999999,-250.66399999999999,11.376799999999999,-1.0077,-16.224599999999999
213839.0,50.545099999999998,1480.05,1469.24,1441.47,13.277699999999999,-2.5368300000000001,-16.517700000000001
213840.0,49.915500000000002,628.77800000000002,613.423,594.38999999999999,15.7157,-3.7177799999999999,-16.521599999999999
213841.0,48.694499999999998,1745.9000000000001,1726.99,1715.4100000000001,16.819099999999999,-4.4689500000000004,-15.8283
213842.0,48.289200000000001,-1070.3499999999999,-1089.23,-1099.73,18.374199999999998,-4.7488099999999998,-13.9815
213843.0,45.291800000000002,1147.5,1124.3599999999999,1123.1900000000001,16.720800000000001,-4.3981000000000003,-14.0291
213844.0,37.744300000000003,1186.74,1164.74,1166.5899999999999,14.9155,-2.1677200000000001,-9.9431999999999992
213845.0,37.392099999999999,1558.71,1534.95,1539.1600000000001,14.6823,-2.2850799999999998,-9.1939100000000007
213846.0,25.9711,1666.1300000000001,1656.21,1655.0,12.5465,-0.91246799999999995,-5.4150900000000002
213847.0,35.574300000000001,1606.6800000000001,1603.9200000000001,1600.77,19.632899999999999,-1.1391100000000001,-5.1323999999999996
213848.0,45.499699999999997,-1489.6800000000001,-1497.4300000000001,-1496.4100000000001,25.724799999999998,-0.92547299999999999,-3.1183000000000001
213849.0,48.002899999999997,1407.4000000000001,1399.51,1402.1700000000001,27.155899999999999,-0.78930299999999998,-3.73047
213850.0,32.0745,1191.26,1185.75,1191.6199999999999,18.1677,0.66676999999999997,-1.2538199999999999
213851.0,26.280999999999999,1073.9400000000001,1071.3099999999999,1078.4200000000001,14.5694,2.22879,-0.23047599999999999
213852.0,23.157900000000001,963.18200000000002,962.30700000000002,971.04700000000003,11.853400000000001,3.8814099999999998,0.16062499999999999
213853.0,21.1617,772.995,774.846,784.16600000000005,8.80166,5.9847200000000003,0.376467
213854.0,19.324300000000001,-679.24000000000001,-675.26999999999998,-665.60000000000002,6.0853999999999999,6.0709200000000001,-1.16964
213855.0,21.7242,485.80900000000003,493.35700000000003,504.24299999999999,2.1320100000000002,8.0985899999999997,-1.1397600000000001
213856.0,29.477399999999999,180.71799999999999,192.09800000000001,205.37899999999999,-2.8287200000000001,11.361599999999999,0.46031
213857.0,27.089700000000001,81.396600000000007,89.706299999999999,104.294,-3.3058299999999998,9.9635400000000001,-0.24765200000000001
213858.0,26.566099999999999,9.7594999999999992,12.1669,31.161300000000001,-6.5010899999999996,7.44773,-0.286329
213859.0,49.512599999999999,14.075699999999999,-7.7086399999999999,38.628700000000002,-8.1595700000000004,9.2129399999999997,-11.3263
213860.0,84.494100000000003,-7.3847300000000002,54.918399999999998,-26.8889,17.301300000000001,1.0796600000000001,-15.9215
213861.0,61.974699999999999,-993.71100000000001,-969.17999999999995,-1029.8199999999999,10.8466,-0.38493899999999998,-15.2281
213862.0,52.958500000000001,-124.97799999999999,-118.068,-164.45699999999999,10.364599999999999,-0.52788900000000005,-14.170400000000001
213863.0,50.296300000000002,-666.63300000000004,-671.02499999999998,-705.96100000000001,13.669700000000001,-1.5020199999999999,-13.773400000000001
213864.0,49.824199999999998,-1271.4200000000001,-1282.52,-1307.79,16.595099999999999,-2.7241900000000001,-14.0466
213865.0,49.022199999999998,-1380.02,-1395.53,-1412.6300000000001,17.883099999999999,-4.0205299999999999,-14.1096
213866.0,46.789999999999999,-366.74799999999999,-388.16500000000002,-393.255,18.0199,-5.0484600000000004,-13.4796
213867.0,44.351399999999998,-1881.3599999999999,-1903.7,-1905.0,17.326899999999998,-4.8765799999999997,-12.4529
213868.0,40.996499999999997,-1752.9400000000001,-1776.2,-1774.73,15.904299999999999,-4.4289399999999999,-10.8643
213869.0,37.488799999999998,-1084.95,-1105.97,-1104.8,15.4999,-2.67889,-9.0269899999999996
213870.0,31.201000000000001,-1528.7,-1549.8699999999999,-1545.8900000000001,12.478,-2.7586599999999999,-5.8864400000000003
213871.0,36.3384,-1618.8,-1632.0599999999999,-1630.74,19.007999999999999,-1.45486,-4.8311700000000002
213872.0,48.630000000000003,-1372.0899999999999,-1378.3599999999999,-1376.9200000000001,27.724599999999999,-0.080550700000000003,-2.9729700000000001
213873.0,40.071100000000001,-1423.53,-1429.1900000000001,-1426.8900000000001,22.901800000000001,0.49062800000000001,-1.54881
213874.0,32.887799999999999,-1301.1400000000001,-1306.4300000000001,-1301.95,18.728400000000001,1.01328,-0.80916299999999997
213875.0,26.378,-1093.0599999999999,-1096.8800000000001,-1090.28,14.759399999999999,1.75074,-0.20455899999999999
213876.0,22.660599999999999,-1020.5,-1022.03,-1013.83,11.9781,2.9389500000000002,-0.23266800000000001
213877.0,19.671600000000002,-875.26499999999999,-873.89200000000005,-864.60900000000004,8.7420799999999996,4.3357400000000004,-0.40411599999999998
213878.0,20.1203,-552.17700000000002,-546.12599999999998,-535.75599999999997,2.3881600000000001,7.7318800000000003,-0.69704600000000005
213879.0,24.431699999999999,-423.48200000000003,-416.35700000000003,-403.495,0.204347,9.8134499999999996,0.126891
213880.0,29.505800000000001,-261.77100000000002,-250.941,-237.756,-2.6062400000000001,11.735799999999999,1.01416
213881.0,28.094000000000001,-138.94900000000001,-129.322,-116.559,-1.96092,11.535,0.18666199999999999
213882.0,25.5943,-49.895000000000003,-42.725700000000003,-28.902699999999999,-2.5251600000000001,9.8879000000000001,-0.59246100000000002
213883.0,129.124,879.98800000000006,924.94500000000005,862.10000000000002,64.818299999999994,4.5937700000000001,16.931999999999999
213884.0,108.381,548.93100000000004,614.73400000000004,525.58100000000002,34.538800000000002,4.7971399999999997,-23.713699999999999
213885.0,51.9206,1841.0799999999999,1820.8699999999999,1815.6700000000001,16.1858,-7.55816,-19.9802
213886.0,34.641199999999998,1456.21,1463.6900000000001,1461.6199999999999,17.566199999999998,1.0284800000000001,-8.6878600000000006
213887.0,21.550799999999999,551.04899999999998,553.58100000000002,564.60299999999995,8.2643299999999993,5.2229299999999999,2.70166
213888.0,29.9834,255.291,262.58699999999999,282.13600000000002,2.93466,9.2932100000000002,3.4672399999999999
213889.0,35.997199999999999,1109.03,1107.8800000000001,1111.52,20.3093,0.61036599999999996,-3.95289
213890.0,46.088700000000003,761.89099999999996,742.09900000000005,744.52300000000002,13.8375,-7.0398300000000003,-18.7211
213891.0,64.532200000000003,-118.146,-109.163,-161.72499999999999,14.3226,-0.71645300000000001,-19.800000000000001
213892.0,86.901700000000005,-143.34700000000001,-113.51600000000001,-183.08099999999999,25.682600000000001,1.32786,-25.258099999999999
213893.0,56.805999999999997,1125.8900000000001,1122.74,1082.98,11.3055,-2.80403,-19.184699999999999
213894.0,54.493600000000001,-243.97999999999999,-254.23500000000001,-282.93900000000002,12.805899999999999,-4.4594899999999997,-19.953900000000001
213895.0,53.479199999999999,982.30499999999995,967.21799999999996,948.21500000000003,14.8018,-5.8169399999999998,-20.213699999999999
213896.0,52.388300000000001,253.94,235.959,224.608,15.7738,-6.9530799999999999,-19.973299999999998
213897.0,51.651000000000003,-838.78200000000004,-857.08399999999995,-867.20600000000002,17.4907,-6.9567199999999998,-18.094100000000001
213898.0,49.379199999999997,1564.1900000000001,1543.8599999999999,1542.99,15.1919,-7.5591999999999997,-19.5152
213899.0,38.855400000000003,1977.78,1963.21,1965.74,11.248900000000001,-5.1127099999999999,-17.0274
213900.0,36.795299999999997,1686.52,1669.3699999999999,1677.04,9.3937899999999992,-4.6899499999999996,-16.346599999999999
213901.0,23.940200000000001,1564.48,1559.0799999999999,1562.75,5.36538,-1.82874,-12.300000000000001
213902.0,25.849299999999999,1494.53,1500.51,1499.1500000000001,9.3144600000000004,0.072246599999999994,-11.232200000000001
213903.0,33.987900000000003,-1444.52,-1442.4200000000001,-1442.03,17.4437,-0.39475900000000003,-8.8787900000000004
213904.0,42.881399999999999,1331.72,1332.02,1333.53,23.362200000000001,0.30913299999999999,-8.1308399999999992
213905.0,30.662099999999999,1096.3699999999999,1093.95,1099.8599999999999,17.3947,1.1295299999999999,-0.838256
213906.0,26.790400000000002,951.56399999999996,949.99300000000005,956.62599999999998,14.885,1.78823,1.5706899999999999
213907.0,24.596900000000002,782.20000000000005,781.29100000000005,788.899,13.115500000000001,2.2493599999999998,2.7069999999999999
213908.0,22.847000000000001,678.87300000000005,680.13499999999999,688.38999999999999,10.8947,3.81575,3.74438
213909.0,20.2639,-625.13,-623.43399999999997,-613.45899999999995,8.4801900000000003,4.3720400000000001,2.4662500000000001
213910.0,24.640899999999998,380.39699999999999,387.19900000000001,401.87900000000002,4.9800899999999997,7.1643499999999998,2.3920400000000002
213911.0,34.429200000000002,141.39099999999999,151.53299999999999,172.73699999999999,-0.121236,11.2378,3.6027800000000001
213912.0,35.202399999999997,38.103299999999997,44.849800000000002,69.917299999999997,-1.1989700000000001,11.2302,2.12385
213913.0,37.069400000000002,14.1015,12.5825,43.691800000000001,-3.6313800000000001,11.435600000000001,2.5444
213914.0,57.202199999999998,-2.3359100000000002,-30.122499999999999,16.2668,-7.62608,13.3733,-17.569099999999999
213915.0,89.752899999999997,-254.125,-191.85400000000001,-275.17399999999998,20.528400000000001,0.59591899999999998,-19.653500000000001
213916.0,67.456000000000003,594.952,620.89400000000001,557.20799999999997,12.957700000000001,-1.79565,-17.890799999999999
213917.0,56.910400000000003,-461.29599999999999,-453.154,-502.29899999999998,10.483599999999999,-1.95485,-16.495000000000001
213918.0,53.547400000000003,-168.43000000000001,-171.81,-208.613,13.334099999999999,-3.0503200000000001,-16.4893
213919.0,52.466000000000001,109.45,98.586299999999994,72.814800000000005,15.700799999999999,-4.4225300000000001,-17.246400000000001
213920.0,51.728200000000001,-152.87100000000001,-168.292,-185.15899999999999,16.879300000000001,-5.9161200000000003,-17.641500000000001
213921.0,50.303600000000003,-1897.75,-1917.98,-1922.5599999999999,16.7103,-7.6133699999999997,-18.2209
213922.0,47.642000000000003,-695.17600000000004,-715.18399999999997,-715.96799999999996,15.404199999999999,-7.6836000000000002,-17.927299999999999
213923.0,43.156199999999998,-1065.78,-1084.51,-1082.53,13.0457,-7.2964099999999998,-17.072900000000001
213924.0,36.948399999999999,-1889.6199999999999,-1903.28,-1901.0899999999999,11.158300000000001,-5.39114,-15.736700000000001
213925.0,29.041,-1500.8399999999999,-1514.72,-1508.02,6.4771200000000002,-5.1104799999999999,-12.8416
213926.0,26.389099999999999,-1404.6099999999999,-1410.6900000000001,-1406.9000000000001,9.6478999999999999,-2.5043899999999999,-11.1053
213927.0,44.119599999999998,-1415.51,-1411.73,-1412.8,24.020700000000001,0.48313899999999999,-8.2356700000000007
213928.0,37.417999999999999,-1178.3599999999999,-1175.4000000000001,-1174.8199999999999,21.0854,0.93942300000000001,-4.1977399999999996
213929.0,31.332100000000001,-1077.72,-1077.02,-1073.3900000000001,17.8322,1.4796199999999999,-1.28139
213930.0,26.434000000000001,-1040.0899999999999,-1040.47,-1034.5799999999999,14.7363,1.9521299999999999,1.0409999999999999
213931.0,24.030100000000001,-850.46199999999999,-850.83900000000006,-843.88400000000001,12.8986,2.41059,2.2363200000000001
213932.0,21.4374,-717.71699999999998,-717.04600000000005,-708.78300000000002,10.484,3.0068199999999998,3.07856
213933.0,21.716999999999999,-459.61200000000002,-456.5,-443.37299999999999,5.2586399999999998,6.7108800000000004,3.19916
213934.0,27.310099999999998,-305.38799999999998,-300.185,-282.82499999999999,3.5240499999999999,9.0100499999999997,3.9281100000000002
213935.0,31.7697,-198.22900000000001,-189.482,-169.815,0.35039399999999998,10.502800000000001,3.7729699999999999
213936.0,33.841299999999997,-83.105099999999993,-76.168899999999994,-53.5306,0.11526,11.695499999999999,2.3952200000000001
213937.0,35.283900000000003,1.6716899999999999,3.0676100000000002,29.696200000000001,-0.17083699999999999,12.612500000000001,2.54582
213938.0,142.33099999999999,-1214.29,-1177.8800000000001,-1236.4000000000001,76.047399999999996,3.2847499999999998,9.2538599999999995
213939.0,119.337,-370.66899999999998,-301.68299999999999,-395.49299999999999,40.208799999999997,3.55484,-27.4787
213940.0,59.710000000000001,830.57500000000005,809.53999999999996,805.30799999999999,16.317299999999999,-10.7013,-24.990600000000001
213941.0,43.3157,1663.73,1683.1199999999999,1683.1600000000001,7.9390099999999997,-1.7919499999999999,-20.822600000000001
213942.0,24.3567,433.964,442.31900000000002,451.142,9.0246700000000004,1.57009,6.3286800000000003
213943.0,34.959099999999999,232.03899999999999,236.20500000000001,254.91300000000001,9.2929999999999993,6.6970700000000001,11.3026
213944.0,37.6937,1400.25,1415.0699999999999,1420.0,11.200200000000001,-2.04847,-15.4381
213945.0,56.618400000000001,2592.6399999999999,2571.9400000000001,2576.8600000000001,14.061199999999999,-11.337300000000001,-25.0077
213946.0,70.6464,989.00199999999995,999.60500000000002,944.08000000000004,16.3584,-2.22376,-22.851400000000002
213947.0,95.487499999999997,703.51900000000001,735.85799999999995,662.04100000000005,28.255500000000001,-0.076453999999999994,-29.524799999999999
213948.0,61.728900000000003,5.1195500000000003,2.8194400000000002,-38.658999999999999,11.5487,-4.6877700000000004,-22.5334
213949.0,59.570799999999998,1704.1700000000001,1693.6900000000001,1664.53,12.832100000000001,-6.4535099999999996,-23.5533
213950.0,58.453000000000003,866.86900000000003,851.14700000000005,832.64099999999996,14.371499999999999,-8.1068200000000008,-23.939900000000002
213951.0,58.747,2006.5,1987.73,1977.1500000000001,15.466100000000001,-9.6149699999999996,-24.449400000000001
213952.0,57.844099999999997,-1336.9400000000001,-1356.28,-1365.6199999999999,17.506699999999999,-9.4353800000000003,-22.490400000000001
213953.0,58.551299999999998,1482.8299999999999,1461.3599999999999,1462.0799999999999,15.5436,-11.223699999999999,-25.031400000000001
213954.0,51.446800000000003,1582.23,1566.76,1573.55,11.2521,-10.252700000000001,-24.298200000000001
213955.0,50.393799999999999,1957.26,1940.78,1954.0,8.4306300000000007,-10.3161,-24.349399999999999
213956.0,40.320500000000003,2051.4200000000001,2047.9100000000001,2058.0999999999999,2.7917800000000002,-6.8964999999999996,-21.441400000000002
213957.0,40.105499999999999,1926.6500000000001,1938.4100000000001,1942.1300000000001,2.879,-3.3610000000000002,-21.243099999999998
213958.0,39.8626,-1760.21,-1750.22,-1747.75,9.0929900000000004,-3.96515,-19.691600000000001
213959.0,46.964199999999998,1491.78,1507.04,1509.9000000000001,13.776999999999999,-2.52081,-21.074100000000001
213960.0,29.032599999999999,1089.5999999999999,1103.1600000000001,1109.4300000000001,8.8245799999999992,-1.0932200000000001,-9.9612999999999996
213961.0,22.886299999999999,914.78499999999997,928.11599999999999,933.55700000000002,7.5233699999999999,-0.104835,-4.9693899999999998
213962.0,20.417300000000001,775.35000000000002,787.45000000000005,792.38499999999999,7.8259400000000001,0.0101949,-0.94244399999999995
213963.0,21.3948,583.67700000000002,594.72000000000003,599.69500000000005,8.4282000000000004,0.92694100000000001,3.6710500000000001
213964.0,22.892199999999999,-508.89499999999998,-498.71300000000002,-492.03399999999999,8.7423400000000004,1.4089799999999999,4.9174899999999999
213965.0,29.329499999999999,345.62900000000002,352.70699999999999,366.22000000000003,9.2802000000000007,3.4517099999999998,8.9023500000000002
213966.0,39.501899999999999,140.02600000000001,143.22999999999999,165.511,7.5161300000000004,11.5627,11.715299999999999
213967.0,41.896799999999999,85.122200000000007,84.444199999999995,112.15600000000001,6.2338300000000002,15.163399999999999,8.1518999999999995
213968.0,42.466999999999999,27.8552,19.6812,54.1616,5.7003599999999999,15.2851,3.2244799999999998
213969.0,72.257300000000001,30.706299999999999,4.1483299999999996,60.330100000000002,-11.4948,18.313300000000002,-21.976900000000001
213970.0,96.313599999999994,-135.49199999999999,-73.091700000000003,-158.61099999999999,23.7315,0.0049722200000000003,-23.915600000000001
213971.0,73.633700000000005,-1175.6500000000001,-1147.9000000000001,-1214.8299999999999,15.3674,-3.26694,-20.7288
213972.0,61.376100000000001,-328.59500000000003,-319.404,-371.048,10.9937,-3.5193699999999999,-19.064299999999999
213973.0,57.626600000000003,-877.34199999999998,-880.30200000000002,-918.51999999999998,13.3651,-4.68058,-19.465499999999999
213974.0,56.190600000000003,-1491.3399999999999,-1502.54,-1528.4300000000001,15.2149,-6.343,-20.467199999999998
213975.0,56.476100000000002,-1616.6500000000001,-1632.78,-1649.1800000000001,16.525200000000002,-8.0486199999999997,-21.465199999999999
213976.0,57.746299999999998,-672.08399999999995,-693.66700000000003,-696.90800000000002,16.982600000000001,-10.5144,-23.032499999999999
213977.0,56.3521,-2225.1599999999999,-2247.1300000000001,-2245.6300000000001,15.614000000000001,-10.989000000000001,-23.309799999999999
213978.0,53.219499999999996,-2130.1199999999999,-2151.0700000000002,-2145.4000000000001,13.1035,-11.039999999999999,-23.089600000000001
213979.0,48.292299999999997,-1478.72,-1494.4000000000001,-1486.8800000000001,10.3644,-9.9116199999999992,-22.587800000000001
213980.0,43.391500000000001,-1915.5899999999999,-1929.96,-1917.0899999999999,4.5762499999999999,-10.0526,-21.053100000000001
213981.0,38.838700000000003,-1967.6800000000001,-1971.3199999999999,-1962.01,4.2762500000000001,-6.9765199999999998,-20.342500000000001
213982.0,47.807000000000002,-1540.05,-1522.9400000000001,-1524.5699999999999,15.7829,-3.0770900000000001,-20.350999999999999
213983.0,41.374000000000002,-1490.04,-1469.6600000000001,-1470.5799999999999,13.272600000000001,-3.02129,-15.898400000000001
213984.0,34.244100000000003,-1272.6900000000001,-1252.6300000000001,-1251.0999999999999,10.2323,-2.58833,-11.591200000000001
213985.0,27.709199999999999,-988.83000000000004,-970.09299999999996,-967.11800000000005,7.9144699999999997,-1.7653700000000001,-7.1847300000000001
213986.0,23.470500000000001,-868.572,-851.79100000000005,-848.77800000000002,7.7728799999999998,-0.78415199999999996,-2.9741300000000002
213987.0,21.659099999999999,-702.63999999999999,-688.46500000000003,-684.59400000000005,7.9463900000000001,0.091775899999999994,1.7185900000000001
213988.0,26.980599999999999,-401.40100000000001,-395.81400000000002,-383.37900000000002,8.6270000000000007,3.3259599999999998,8.4886199999999992
213989.0,33.184399999999997,-304.35599999999999,-302.14400000000001,-283.42399999999998,8.5464699999999993,6.0939399999999999,11.164400000000001
213990.0,37.945999999999998,-180.46899999999999,-180.13499999999999,-155.59299999999999,6.4010999999999996,9.5999599999999994,11.970599999999999
213991.0,41.4251,-96.638199999999998,-100.161,-69.652699999999996,5.3318300000000001,13.528700000000001,9.0551300000000001
213992.0,44.875399999999999,-38.419600000000003,-48.313099999999999,-12.5815,6.1352900000000004,16.3782,5.00082
213993.0,157.06899999999999,697.87900000000002,725.99099999999999,672.76099999999997,86.653700000000001,2.3106599999999999,0.508127
213994.0,131.297,644.55499999999995,717.02200000000005,618.154,46.408499999999997,2.4451000000000001,-31.081099999999999
213995.0,69.154200000000003,2237.8800000000001,2214.9000000000001,2212.5100000000002,16.6052,-13.9474,-30.4572
213996.0,67.065100000000001,2558.77,2570.77,2583.0,7.4274699999999996,-10.990399999999999,-34.301099999999998
213997.0,43.070900000000002,911.226,951.81500000000005,953.09199999999998,-4.7715699999999996,-3.6335799999999998,-3.9252099999999999
213998.0,47.475999999999999,414.452,448.03399999999999,458.26600000000002,7.75779,3.21441,12.4689
213999.0,69.160300000000007,2157.23,2174.1900000000001,2191.73,3.6706099999999999,-12.311500000000001,-33.640799999999999
214000.0,69.345200000000006,1323.4000000000001,1297.52,1307.25,15.1799,-15.5626,-30.9754
214001.0,77.511899999999997,100.755,113.089,54.8962,18.702500000000001,-3.9533100000000001,-26.401299999999999
214002.0,104.63,28.493200000000002,64.1083,-14.4817,30.6279,-1.67778,-34.0533
214003.0,67.412999999999997,1368.51,1367.0899999999999,1324.3900000000001,12.275499999999999,-6.8149199999999999,-26.247800000000002
214004.0,65.391000000000005,21.2911,10.8528,-18.401900000000001,13.214,-8.7663100000000007,-27.3949
214005.0,65.005899999999997,1275.5599999999999,1258.9400000000001,1240.97,14.3605,-10.716200000000001,-28.076499999999999
214006.0,66.872500000000002,591.47299999999996,571.22900000000004,561.78099999999995,15.629899999999999,-12.513999999999999,-29.319600000000001
214007.0,65.755099999999999,-1186.54,-1207.47,-1215.6900000000001,17.856000000000002,-12.244999999999999,-27.322700000000001
214008.0,69.425399999999996,2035.23,2010.55,2014.3599999999999,16.238299999999999,-14.8521,-30.754899999999999
214009.0,67.0792,2649.5799999999999,2625.9299999999998,2639.8800000000001,13.1625,-15.7059,-30.636500000000002
214010.0,68.835599999999999,2490.8400000000001,2464.9400000000001,2486.7600000000002,11.156000000000001,-17.188199999999998,-31.074000000000002
214011.0,61.039000000000001,2507.4899999999998,2492.5500000000002,2513.4000000000001,6.4933199999999998,-15.209,-29.206
214012.0,59.971800000000002,2546.7600000000002,2548.1500000000001,2563.5,5.3544299999999998,-12.2156,-30.572099999999999
214013.0,60.6447,-2490.4200000000001,-2493.4099999999999,-2478.8200000000002,9.2936399999999999,-11.680400000000001,-30.721299999999999
214014.0,74.644300000000001,2428.4200000000001,2440.5999999999999,2456.48,9.4946999999999999,-12.3245,-37.646900000000002
214015.0,63.885599999999997,2056.0100000000002,2078.48,2095.02,-1.89825,-11.3522,-29.0627
214016.0,59.265099999999997,1785.4200000000001,1814.8099999999999,1827.27,-6.0241499999999997,-9.3424700000000005,-24.195399999999999
214017.0,55.575099999999999,1460.1099999999999,1495.1800000000001,1503.27,-7.8689499999999999,-7.7968599999999997,-19.509
214018.0,49.489199999999997,1191.0899999999999,1230.5899999999999,1234.1199999999999,-7.4180400000000004,-5.9921800000000003,-12.437900000000001
214019.0,52.9876,-1121.5799999999999,-1074.6099999999999,-1071.4400000000001,-5.8899699999999999,-7.2129799999999999,-7.7984099999999996
214020.0,45.220100000000002,619.11699999999996,661.35199999999998,664.04399999999998,-0.57598899999999997,0.191833,6.8082799999999999
214021.0,48.7303,249.59899999999999,269.09199999999998,284.88499999999999,15.1958,7.2278099999999998,13.999499999999999
214022.0,52.084299999999999,96.9636,105.752,126.33199999999999,18.140799999999999,12.088100000000001,14.2066
214023.0,54.625799999999998,30.254200000000001,17.4481,48.488,23.335000000000001,13.300000000000001,5.4702900000000003
214024.0,69.330699999999993,21.1951,-3.6211799999999998,45.265099999999997,-15.492699999999999,19.575800000000001,-19.5321
214025.0,104.066,-396.01900000000001,-333.11500000000001,-421.70699999999999,26.755800000000001,-0.78944899999999996,-28.562799999999999
214026.0,80.495199999999997,398.98700000000002,429.14299999999997,358.93400000000003,17.986000000000001,-4.8539199999999996,-23.922799999999999
214027.0,66.367699999999999,-686.20600000000002,-675.91700000000003,-729.51800000000003,11.917899999999999,-5.3588199999999997,-22.098299999999998
214028.0,62.128500000000003,-412.495,-414.97000000000003,-453.73700000000002,13.7037,-6.6816399999999998,-22.7866
214029.0,61.053600000000003,-156.25999999999999,-167.56999999999999,-193.447,15.0694,-8.5711200000000005,-24.0533
214030.0,63.045200000000001,-451.56,-468.678,-484.72500000000002,16.6767,-10.5143,-25.7133
214031.0,66.915999999999997,-2309.52,-2333.3699999999999,-2334.5,17.620699999999999,-13.640000000000001,-28.232500000000002
214032.0,66.877300000000005,-1185.23,-1210.96,-1205.8599999999999,16.5764,-14.4307,-28.673200000000001
214033.0,65.756500000000003,-1650.4400000000001,-1677.28,-1666.1900000000001,14.6235,-15.045,-28.6219
214034.0,63.613100000000003,-2590.0500000000002,-2614.8000000000002,-2599.5999999999999,12.549200000000001,-15.065,-28.436900000000001
214035.0,62.274299999999997,-2335.3600000000001,-2361.1399999999999,-2338.6599999999999,7.8458199999999998,-16.3429,-27.700099999999999
214036.0,59.6738,-2363.21,-2380.1100000000001,-2359.0900000000001,6.5936300000000001,-14.460599999999999,-28.466000000000001
214037.0,67.214799999999997,-2497.1199999999999,-2489.2600000000002,-2479.2399999999998,12.5123,-10.9064,-33.912999999999997
214038.0,64.6434,-2248.8699999999999,-2231.25,-2221.2399999999998,6.8303500000000001,-12.0672,-31.700900000000001
214039.0,63.723799999999997,-2095.23,-2069.8600000000001,-2059.5300000000002,0.728742,-12.975899999999999,-29.1065
214040.0,63.039400000000001,-1964.3199999999999,-1931.76,-1922.6600000000001,-4.3296000000000001,-12.7759,-25.747299999999999
214041.0,61.361600000000003,-1646.8699999999999,-1607.5799999999999,-1601.49,-6.8427600000000002,-11.3408,-21.749600000000001
214042.0,57.494500000000002,-1365.51,-1320.95,-1317.4100000000001,-7.4461000000000004,-9.4986800000000002,-15.410299999999999
214043.0,51.481099999999998,-823.19399999999996,-776.56600000000003,-769.46900000000005,-3.5223900000000001,-3.3871500000000001,2.7812399999999999
214044.0,51.350999999999999,-561.90300000000002,-524.54399999999998,-507.43200000000002,4.23001,0.29741400000000001,9.2226300000000005
214045.0,51.162199999999999,-376.84199999999998,-353.98899999999998,-327.91699999999997,11.043200000000001,4.2202999999999999,11.554
214046.0,51.771999999999998,-205.34999999999999,-194.67500000000001,-164.53299999999999,13.774800000000001,9.8491900000000001,12.5945
214047.0,55.277799999999999,-53.677500000000002,-65.631900000000002,-25.5078,19.998000000000001,12.7624,5.5992499999999996
214048.0,171.08000000000001,-1360.4200000000001,-1340.95,-1389.2,95.193200000000004,2.1066600000000002,-10.0418
214049.0,144.506,-268.012,-191.27799999999999,-296.07600000000002,52.863799999999998,1.24502,-34.9495
214050.0,79.990899999999996,1311.51,1286.3,1286.52,17.078900000000001,-17.491900000000001,-36.402299999999997
214051.0,93.846299999999999,3469.2199999999998,3451.8600000000001,3483.6799999999998,15.500299999999999,-23.033799999999999,-43.7164
214052.0,82.768699999999995,2678.98,2747.27,2744.4499999999998,-22.0776,-6.5300900000000004,-16.1478
214053.0,93.838200000000001,1324.74,1422.9100000000001,1402.8399999999999,-10.388400000000001,8.5692799999999991,8.0219400000000007
214054.0,101.797,3804.48,3786.5100000000002,3829.5,10.1488,-28.851600000000001,-45.3078
214055.0,82.738,3263.9000000000001,3233.0,3248.3899999999999,15.8855,-19.707000000000001,-37.4499
214056.0,85.722700000000003,1221.6900000000001,1236.6500000000001,1175.7,21.203700000000001,-6.0660100000000003,-30.888999999999999
214057.0,114.556,880.96000000000004,920.88999999999999,837.00599999999997,33.130299999999998,-3.7090200000000002,-38.7624
214058.0,74.007199999999997,275.43400000000003,275.67899999999997,231.73599999999999,13.004899999999999,-9.1602999999999994,-30.5379
214059.0,71.9358,2008.71,1998.6800000000001,1969.3099999999999,13.6076,-11.191599999999999,-31.546900000000001
214060.0,73.079400000000007,1211.46,1194.1700000000001,1176.71,14.733599999999999,-13.639699999999999,-32.789700000000003
214061.0,76.551000000000002,2411.3099999999999,2389.5500000000002,2381.3899999999999,16.098299999999998,-15.789199999999999,-34.721800000000002
214062.0,75.064300000000003,-1756.53,-1779.26,-1785.95,18.433900000000001,-15.397600000000001,-32.611800000000002
214063.0,81.576999999999998,2051.2199999999998,2023.29,2031.1700000000001,16.794599999999999,-18.684699999999999,-37.145699999999998
214064.0,82.863100000000003,2385.6799999999998,2353.23,2375.0799999999999,14.3377,-20.654499999999999,-37.184800000000003
214065.0,86.881200000000007,2934.9499999999998,2897.3000000000002,2928.4899999999998,13.1113,-23.177099999999999,-37.440899999999999
214066.0,83.301500000000004,3255.5500000000002,3222.6199999999999,3255.7199999999998,10.6464,-23.346499999999999,-35.935600000000001
214067.0,82.604799999999997,3412.04,3390.0,3420.5100000000002,11.1562,-22.2454,-37.513800000000003
214068.0,88.639200000000002,-3305.3800000000001,-3335.6799999999998,-3303.4299999999998,16.665099999999999,-21.302299999999999,-39.503599999999999
214069.0,106.124,3613.4699999999998,3592.1399999999999,3631.5,17.429300000000001,-26.536100000000001,-48.559699999999999
214070.0,96.189099999999996,3709.5900000000001,3700.1100000000001,3742.3099999999999,1.71269,-29.6371,-41.383299999999998
214071.0,90.039000000000001,3655.8899999999999,3660.27,3696.96,-6.1177400000000004,-27.785399999999999,-37.206699999999998
214072.0,85.614699999999999,3512.8099999999999,3534.4400000000001,3562.4200000000001,-12.800700000000001,-23.510100000000001,-33.287300000000002
214073.0,82.897000000000006,3165.7199999999998,3208.3200000000002,3223.5700000000002,-18.447500000000002,-16.943000000000001,-27.6463
214074.0,93.027500000000003,-2991.1300000000001,-2928.8400000000001,-2915.6599999999999,-26.436699999999998,-15.153,-18.199400000000001
214075.0,101.746,2029.95,2130.9200000000001,2108.4400000000001,-24.301100000000002,6.2609899999999996,3.2924799999999999
214076.0,77.676500000000004,773.69399999999996,852.20799999999997,842.96199999999999,7.0613299999999999,7.4729000000000001,8.0117899999999995
214077.0,74.3339,327.55399999999997,394.26400000000001,392.42500000000001,16.597999999999999,6.5201900000000004,8.9544200000000007
214078.0,78.314800000000005,49.624099999999999,82.951599999999999,94.552999999999997,37.912799999999997,1.8625400000000001,-7.7181199999999999
214079.0,66.415599999999998,29.273099999999999,19.443100000000001,46.737099999999998,-18.174600000000002,25.616,-17.109999999999999
214080.0,112.444,-284.18700000000001,-220.80000000000001,-313.13200000000001,30.140599999999999,-1.70719,-32.757399999999997
214081.0,88.334599999999995,-1382.0,-1348.9200000000001,-1422.3399999999999,20.890799999999999,-6.6248500000000003,-27.724900000000002
214082.0,72.277100000000004,-573.78899999999999,-561.577,-616.84699999999998,12.933299999999999,-7.6497000000000002,-25.933299999999999
214083.0,67.394099999999995,-1154.23,-1155.6900000000001,-1194.9200000000001,13.9292,-8.8582000000000001,-26.624600000000001
214084.0,67.170599999999993,-1801.6300000000001,-1812.6099999999999,-1838.74,15.1973,-10.9329,-28.108499999999999
214085.0,71.005200000000002,-1972.1099999999999,-1990.04,-2005.77,17.1191,-13.3284,-30.434999999999999
214086.0,77.477900000000005,-1169.01,-1195.3499999999999,-1193.6300000000001,18.343399999999999,-17.096699999999998,-33.985700000000001
214087.0,78.631600000000006,-2810.0300000000002,-2839.1399999999999,-2829.8800000000001,17.367599999999999,-18.243300000000001,-34.719099999999997
214088.0,78.963899999999995,-2822.4699999999998,-2854.3099999999999,-2837.8000000000002,15.707000000000001,-19.244399999999999,-34.752000000000002
214089.0,79.244699999999995,-2311.0100000000002,-2344.2399999999998,-2321.5300000000002,14.185600000000001,-20.186199999999999,-34.585099999999997
214090.0,81.475700000000003,-2936.2600000000002,-2974.1100000000001,-2942.54,11.4681,-22.5547,-34.073399999999999
214091.0,82.890000000000001,-3226.23,-3262.1199999999999,-3228.3800000000001,11.803000000000001,-22.588699999999999,-35.1496
214092.0,95.586299999999994,-3395.48,-3421.21,-3388.3600000000001,19.205500000000001,-21.624300000000002,-43.709099999999999
214093.0,91.439099999999996,-3644.3499999999999,-3664.29,-3627.8600000000001,11.4709,-24.175799999999999,-41.6907
214094.0,89.255799999999994,-3688.4099999999999,-3700.7600000000002,-3662.1399999999999,2.2549199999999998,-26.912400000000002,-39.205599999999997
214095.0,88.509500000000003,-3597.1199999999999,-3598.1599999999999,-3560.2199999999998,-6.5440699999999996,-28.084900000000001,-36.231499999999997
214096.0,88.422200000000004,-3569.4400000000001,-3554.75,-3521.1799999999998,-13.957700000000001,-26.5946,-33.0473
214097.0,88.692899999999995,-3369.1900000000001,-3333.9699999999998,-3308.6500000000001,-20.5137,-22.313700000000001,-27.9129
214098.0,110.663,-2510.6999999999998,-2412.2600000000002,-2416.1100000000001,-30.959800000000001,-3.7935699999999999,-0.64025500000000002
214099.0,105.65900000000001,-1830.77,-1724.8199999999999,-1732.29,-14.521599999999999,2.1155599999999999,3.0521500000000001
214100.0,91.316599999999994,-1164.02,-1073.24,-1073.3099999999999,4.6091800000000003,2.6346400000000001,2.57098
214101.0,84.744900000000001,-676.423,-598.67600000000004,-594.09199999999998,14.8903,3.48855,4.3975200000000001
214102.0,80.263099999999994,-255.94499999999999,-219.893,-197.11799999999999,34.389800000000001,-2.4129999999999998,-8.8928399999999996
214103.0,183.083,505.35899999999998,515.99199999999996,471.66800000000001,100.751,2.64533,-21.9071
214104.0,158.874,758.16899999999998,839.26999999999998,728.08500000000004,60.4407,-0.062832600000000002,-38.119799999999998
214105.0,92.314700000000002,2792.77,2765.1599999999999,2768.4699999999998,17.926500000000001,-21.497900000000001,-42.775599999999997
214106.0,114.23699999999999,4392.7700000000004,4348.5600000000004,4394.4499999999998,19.8233,-29.816299999999998,-48.895099999999999
214107.0,40.817900000000002,4638.6300000000001,4669.96,4674.4300000000003,-11.9154,-5.5443499999999997,1.4648600000000001
214108.0,122.881,2638.1799999999998,2752.4400000000001,2692.1100000000001,-18.946999999999999,26.453800000000001,26.6004
214109.0,124.536,4835.4899999999998,4776.1099999999997,4840.3400000000001,19.991700000000002,-38.331899999999997,-44.961100000000002
214110.0,98.1922,2098.04,2063.2800000000002,2084.4899999999998,16.849399999999999,-24.5457,-44.949300000000001
214111.0,95.726799999999997,354.31700000000001,373.161,308.92500000000001,23.902100000000001,-8.5675399999999993,-36.325200000000002
214112.0,125.976,212.24799999999999,257.89100000000002,168.096,36.401600000000002,-6.3240299999999996,-43.690800000000003
214113.0,81.431799999999996,1672.1900000000001,1674.78,1629.6500000000001,13.702999999999999,-11.514799999999999,-35.3249
214114.0,79.477400000000003,365.036,355.61799999999999,326.03699999999998,13.881399999999999,-13.6203,-36.238500000000002
214115.0,82.066199999999995,1669.8299999999999,1652.1400000000001,1635.0799999999999,15.0677,-16.632899999999999,-37.937600000000003
214116.0,87.207700000000003,1057.4000000000001,1034.0899999999999,1027.6099999999999,16.7898,-19.309899999999999,-40.4315
214117.0,85.398399999999995,-1671.5699999999999,-1696.1400000000001,-1700.8499999999999,19.228000000000002,-18.802800000000001,-38.217799999999997
214118.0,95.718599999999995,2694.9299999999998,2663.73,2676.2399999999998,17.847100000000001,-23.143799999999999,-44.197499999999998
214119.0,99.880300000000005,3549.8600000000001,3511.5300000000002,3540.9000000000001,15.088800000000001,-25.875,-45.011200000000002
214120.0,104.026,3540.5300000000002,3495.4000000000001,3534.7199999999998,13.373799999999999,-28.382999999999999,-44.944800000000001
214121.0,102.544,3741.6900000000001,3696.73,3739.4000000000001,11.4352,-29.1815,-43.377699999999997
214122.0,102.039,4034.3899999999999,3994.3200000000002,4035.77,12.7898,-28.618099999999998,-43.9724
214123.0,110.94199999999999,-4030.5900000000001,-4079.3299999999999,-4033.79,20.1553,-27.914000000000001,-46.627899999999997
214124.0,128.06999999999999,4670.0500000000002,4614.2399999999998,4671.4300000000003,24.334599999999998,-34.399500000000003,-51.259099999999997
214125.0,115.28100000000001,5167.0799999999999,5110.1999999999998,5175.8299999999999,13.843999999999999,-40.109099999999998,-36.871499999999997
214126.0,100.584,5283.79,5236.8100000000004,5297.5100000000002,7.7418500000000003,-38.4542,-28.639700000000001
214127.0,79.866299999999995,5249.8800000000001,5218.7700000000004,5268.8299999999999,2.68065,-32.429600000000001,-20.699200000000001
214128.0,54.2669,5096.9399999999996,5088.8699999999999,5122.8900000000003,-3.2412299999999998,-22.328600000000002,-12.5136
214129.0,55.371899999999997,-4889.6800000000003,-4882.1899999999996,-4852.1099999999997,-20.352900000000002,-14.155799999999999,3.4603899999999999
214130.0,102.48699999999999,3731.1999999999998,3822.3400000000001,3780.4200000000001,-24.846499999999999,16.800599999999999,22.806899999999999
214131.0,110.169,1598.78,1706.27,1651.0599999999999,-2.4873400000000001,24.962499999999999,22.963999999999999
214132.0,84.005600000000001,744.27700000000004,828.154,783.46400000000006,12.3626,16.107900000000001,13.3652
214133.0,104.444,174.23099999999999,237.27199999999999,186.03899999999999,47.9206,10.2036,-10.610900000000001
214134.0,64.669700000000006,45.326999999999998,46.328400000000002,59.428800000000003,-17.425699999999999,29.809100000000001,-11.828099999999999
214135.0,121.502,-558.46100000000001,-494.92099999999999,-591.04399999999998,34.485100000000003,-2.8340700000000001,-36.522599999999997
214136.0,97.862700000000004,175.321,211.99600000000001,135.07400000000001,24.135200000000001,-8.7640200000000004,-32.446199999999997
214137.0,79.541700000000006,-961.24800000000005,-946.31200000000001,-1003.33,14.115399999999999,-10.2555,-30.502199999999998
214138.0,73.830299999999994,-726.27599999999995,-726.01999999999998,-766.01099999999997,13.989000000000001,-11.1129,-31.1142
214139.0,74.394400000000005,-510.72800000000001,-520.95000000000005,-547.63400000000001,15.196,-13.412100000000001,-32.725299999999997
214140.0,79.640500000000003,-862.23099999999999,-880.68100000000004,-895.90999999999997,17.591699999999999,-16.243600000000001,-35.446199999999997
214141.0,89.703400000000002,-2885.8899999999999,-2915.0500000000002,-2909.8899999999999,19.421199999999999,-20.970400000000001,-40.287599999999998
214142.0,92.496899999999997,-1866.46,-1899.0899999999999,-1885.03,18.448799999999999,-22.647600000000001,-41.601700000000001
214143.0,94.258899999999997,-2443.8299999999999,-2479.6399999999999,-2457.23,16.590199999999999,-24.087700000000002,-42.176000000000002
214144.0,95.754900000000006,-3507.9200000000001,-3546.73,-3516.6599999999999,14.5191,-25.486799999999999,-42.206200000000003
214145.0,99.266300000000001,-3407.52,-3452.48,-3412.9200000000001,12.238200000000001,-28.003,-41.810200000000002
214146.0,102.376,-3631.4400000000001,-3678.8299999999999,-3635.0799999999999,13.350300000000001,-28.674499999999998,-42.397399999999998
214147.0,118.492,-4389.6099999999997,-4440.9300000000003,-4390.3699999999999,24.023900000000001,-28.659300000000002,-49.155700000000003
214148.0,114.22,-4543.6599999999999,-4597.3199999999997,-4538.3800000000001,18.5563,-31.846699999999998,-43.890599999999999
214149.0,108.437,-4813.25,-4868.1599999999999,-4802.9099999999999,11.144600000000001,-34.969200000000001,-36.640999999999998
214150.0,100.34999999999999,-5093.6999999999998,-5145.6800000000003,-5078.5600000000004,3.6162000000000001,-35.902700000000003,-28.5501
214151.0,87.956000000000003,-5133.7799999999997,-5176.8100000000004,-5113.5500000000002,-2.7660499999999999,-33.356499999999997,-20.357500000000002
214152.0,68.928200000000004,-5095.5900000000001,-5121.1000000000004,-5069.21,-9.5258400000000005,-26.314900000000002,-11.2821
214153.0,96.973100000000002,-4310.0900000000001,-4244.7200000000003,-4254.9700000000003,-35.3521,4.2463199999999999,25.113099999999999
214154.0,113.476,-3337.9699999999998,-3235.8200000000002,-3278.4200000000001,-25.315799999999999,16.9236,27.066299999999998
214155.0,107.794,-2268.5700000000002,-2158.0100000000002,-2209.6399999999999,-2.9054600000000002,19.3431,20.735399999999998
214156.0,93.952100000000002,-1304.0699999999999,-1206.74,-1255.4200000000001,17.9068,12.847,9.3893599999999999
214157.0,87.972399999999993,-556.80600000000004,-501.73599999999999,-533.72900000000004,41.723300000000002,-1.0847,-8.5386500000000005
214158.0,191.29900000000001,-1491.6900000000001,-1488.95,-1532.03,101.878,3.4025599999999998,-35.013300000000001
214159.0,174.82900000000001,-162.82400000000001,-76.118600000000001,-195.01300000000001,68.233400000000003,-2.1196000000000002,-41.790999999999997
214160.0,104.816,1922.51,1892.0799999999999,1898.78,18.9724,-25.5625,-48.917900000000003
214161.0,116.075,4948.5500000000002,4893.3900000000003,4945.1499999999996,18.767499999999998,-28.224599999999999,-48.852600000000002
214162.0,47.215600000000002,4606.9799999999996,4598.6199999999999,4604.96,5.3004300000000004,-4.9206200000000004,25.918199999999999
214163.0,124.309,2910.5100000000002,2980.7800000000002,2902.7600000000002,-6.1640699999999997,29.0488,49.208300000000001
214164.0,114.008,5461.5500000000002,5389.9700000000003,5457.1899999999996,18.964099999999998,-31.934899999999999,-36.6449
214165.0,114.703,4135.3400000000001,4095.9299999999998,4123.29,18.945900000000002,-29.788599999999999,-52.262799999999999
214166.0,107.791,1498.28,1522.6099999999999,1454.79,26.808900000000001,-11.5259,-42.906199999999998
214167.0,139.191,1069.9100000000001,1122.95,1026.8599999999999,40.575499999999998,-9.3729499999999994,-49.062399999999997
214168.0,90.287899999999993,616.20299999999997,622.50900000000001,576.04200000000003,14.4285,-13.929,-40.985500000000002
214169.0,88.105500000000006,2396.7600000000002,2388.9899999999998,2358.79,13.7553,-16.042100000000001,-41.698999999999998
214170.0,91.136799999999994,1651.1400000000001,1633.5699999999999,1616.9200000000001,14.7662,-19.414200000000001,-43.368699999999997
214171.0,97.885499999999993,2923.4699999999998,2898.5700000000002,2893.9099999999999,17.127199999999998,-22.700900000000001,-46.180599999999998
214172.0,95.638999999999996,-2291.5999999999999,-2317.8299999999999,-2320.3200000000002,19.826899999999998,-22.1022,-43.750900000000001
214173.0,110.639,2784.6199999999999,2749.4899999999998,2766.8400000000001,19.660599999999999,-27.9099,-51.052300000000002
214174.0,116.971,3402.1500000000001,3358.3499999999999,3394.9099999999999,17.247299999999999,-31.171299999999999,-52.346800000000002
214175.0,119.81100000000001,4088.54,4037.77,4084.52,14.7896,-32.923000000000002,-51.824300000000001
214176.0,114.84699999999999,4530.1700000000001,4479.3299999999999,4528.7299999999996,11.787100000000001,-31.861999999999998,-49.037999999999997
214177.0,108.88500000000001,4791.3000000000002,4744.1800000000003,4791.5100000000002,11.948499999999999,-28.8565,-47.2562
214178.0,115.89700000000001,-4660.3900000000003,-4714.8500000000004,-4662.29,18.784800000000001,-27.949400000000001,-48.866300000000003
214179.0,122.233,5182.5299999999997,5115.4300000000003,5176.9899999999998,22.161000000000001,-30.596699999999998,-46.541800000000002
214180.0,101.611,5449.2799999999997,5377.9200000000001,5444.3199999999997,14.9567,-31.526499999999999,-25.222899999999999
214181.0,84.9191,5466.6400000000003,5401.5600000000004,5460.3199999999997,11.2027,-28.5519,-13.2371
214182.0,67.703199999999995,5381.7299999999996,5327.0500000000002,5373.9200000000001,9.6596600000000006,-23.613499999999998,-1.5591200000000001
214183.0,51.624600000000001,5079.6400000000003,5041.1000000000004,5072.6099999999997,8.9008000000000003,-16.613199999999999,10.580299999999999
214184.0,56.982799999999997,-4791.2700000000004,-4818.6300000000001,-4795.3900000000003,-2.0644399999999998,-10.4405,27.414899999999999
214185.0,83.795500000000004,3912.1300000000001,3947.54,3909.5100000000002,-3.2579600000000002,12.773300000000001,41.421599999999998
214186.0,119.923,1837.8299999999999,1908.8199999999999,1817.53,3.10615,31.2149,38.8872
214187.0,87.674099999999996,977.25099999999998,1018.12,937.63699999999994,18.747,19.412099999999999,14.6502
214188.0,129.34299999999999,288.012,342.13900000000001,235.98099999999999,46.498600000000003,21.835999999999999,-10.9473
214189.0,45.189700000000002,17.223800000000001,-5.1295599999999997,6.9866799999999998,-15.152799999999999,17.468699999999998,-4.5526900000000001
214190.0,131.672,-446.46800000000002,-383.09500000000003,-482.50999999999999,39.973999999999997,-4.2448499999999996,-40.375300000000003
214191.0,109.002,-1624.01,-1583.0899999999999,-1663.6099999999999,27.758800000000001,-11.188700000000001,-38.0
214192.0,88.682000000000002,-880.95699999999999,-862.13999999999999,-920.75800000000004,15.6942,-13.205,-36.1265
214193.0,81.884,-1508.99,-1505.6700000000001,-1546.9200000000001,13.7994,-13.570499999999999,-36.5411
214194.0,82.179500000000004,-2200.54,-2209.0300000000002,-2236.3400000000001,14.6233,-15.9278,-37.862900000000003
214195.0,88.174000000000007,-2427.4499999999998,-2445.75,-2460.4200000000001,17.459700000000002,-18.982900000000001,-40.663800000000002
214196.0,102.364,-1808.96,-1841.29,-1832.26,20.890000000000001,-24.886900000000001,-46.461100000000002
214197.0,107.325,-3574.5,-3611.6599999999999,-3591.9699999999998,20.283300000000001,-27.218,-48.391500000000001
214198.0,110.554,-3724.0599999999999,-3765.4000000000001,-3735.71,18.496500000000001,-29.032499999999999,-49.3416
214199.0,112.321,-3347.9699999999998,-3393.25,-3354.5,15.8302,-30.3597,-49.332700000000003
214200.0,114.48699999999999,-4097.21,-4148.8500000000004,-4099.7799999999997,12.545,-31.9574,-48.411700000000003
214201.0,113.074,-4491.9099999999999,-4545.6499999999996,-4492.8800000000001,12.5578,-30.690799999999999,-47.079999999999998
214202.0,116.389,-4831.8000000000002,-4888.4799999999996,-4832.8299999999999,21.450500000000002,-27.4725,-47.424799999999998
214203.0,108.13500000000001,-5160.1999999999998,-5220.0299999999997,-5157.5699999999997,17.774999999999999,-29.022400000000001,-38.622100000000003
214204.0,98.550299999999993,-5281.7700000000004,-5344.2399999999998,-5278.0699999999997,13.174899999999999,-30.092300000000002,-27.853899999999999
214205.0,86.579499999999996,-5258.8100000000004,-5321.0100000000002,-5257.0600000000004,8.5011500000000009,-29.183800000000002,-15.7347
214206.0,73.199600000000004,-5289.2299999999996,-5347.0699999999997,-5291.0699999999997,5.6591899999999997,-25.722200000000001,-3.4072900000000002
214207.0,59.860999999999997,-5138.1000000000004,-5185.7200000000003,-5142.6899999999996,3.5083799999999998,-19.904800000000002,9.7977600000000002
214208.0,83.201999999999998,-4296.9099999999999,-4290.5500000000002,-4300.7700000000004,-12.9672,3.4361199999999998,45.835999999999999
214209.0,115.376,-3514.9499999999998,-3475.5900000000001,-3527.3600000000001,-16.763500000000001,19.561299999999999,55.164299999999997
214210.0,113.19499999999999,-2465.27,-2413.9200000000001,-2491.2600000000002,-2.7153499999999999,27.460699999999999,44.276499999999999
214211.0,90.614800000000002,-1458.98,-1424.26,-1503.6700000000001,19.802,20.990400000000001,17.874700000000001
214212.0,86.911799999999999,-703.35699999999997,-682.85400000000004,-754.17100000000005,32.307600000000001,11.181100000000001,0.99963500000000005
214213.0,195.10300000000001,365.601,363.57499999999999,319.5,97.957899999999995,3.7417899999999999,-48.989400000000003
214214.0,190.36199999999999,849.63300000000004,942.20100000000002,815.90099999999995,75.352400000000003,-4.5305900000000001,-45.873100000000001
214215.0,115.07899999999999,3423.5599999999999,3390.4400000000001,3400.21,19.0288,-28.854500000000002,-54.129199999999997
214216.0,111.458,5492.7799999999997,5436.9399999999996,5494.46,17.941400000000002,-24.262,-46.465200000000003
214217.0,43.400199999999998,3950.7199999999998,3971.7600000000002,3955.5599999999999,-6.5780000000000003,-5.5056700000000003,20.805
214218.0,119.428,2332.8400000000001,2423.3200000000002,2341.6100000000001,-3.15401,21.0014,42.584200000000003
214219.0,98.4482,5506.2799999999997,5444.1099999999997,5508.2299999999996,13.1214,-24.48,-33.603099999999998
214220.0,127.79600000000001,2983.9699999999998,2938.8000000000002,2972.1900000000001,21.536100000000001,-33.921999999999997,-57.274500000000003
214221.0,122.366,653.93299999999999,685.45699999999999,613.48299999999995,30.1065,-14.929399999999999,-50.597999999999999
214222.0,153.565,403.11900000000003,464.57999999999998,362.64100000000002,45.350900000000003,-12.4015,-54.914400000000001
214223.0,101.52800000000001,2062.9299999999998,2074.5799999999999,2025.79,15.6683,-16.574000000000002,-47.608699999999999
214224.0,98.063000000000002,810.52099999999996,806.14599999999996,774.69100000000003,13.163399999999999,-18.453399999999998,-48.058199999999999
214225.0,100.078,2160.3200000000002,2144.0500000000002,2127.4899999999998,13.424099999999999,-21.802299999999999,-49.127800000000001
214226.0,107.17100000000001,1605.1800000000001,1579.4400000000001,1576.4100000000001,16.239599999999999,-25.440999999999999,-51.650199999999998
214227.0,104.054,-2234.5999999999999,-2261.3800000000001,-2261.8400000000001,19.1998,-24.7865,-48.8157
214228.0,122.73699999999999,3441.46,3401.9000000000001,3423.8699999999999,21.162600000000001,-31.785,-56.307699999999997
214229.0,129.899,4579.4300000000003,4529.1499999999996,4572.7700000000004,20.361599999999999,-34.997,-56.915500000000002
214230.0,130.126,4695.5,4638.2700000000004,4692.8599999999997,17.783300000000001,-35.319800000000001,-55.108600000000003
214231.0,120.129,4969.3100000000004,4912.6999999999998,4969.96,13.988300000000001,-31.639800000000001,-50.329900000000002
214232.0,108.453,5242.9899999999998,5191.8900000000003,5246.3999999999996,12.711600000000001,-26.0899,-46.327199999999998
214233.0,113.104,-5161.4399999999996,-5217.79,-5159.7700000000004,18.264600000000002,-25.4191,-46.8352
214234.0,111.715,5584.2600000000002,5521.9899999999998,5585.21,18.396100000000001,-25.191500000000001,-43.2971
214235.0,82.633600000000001,5549.1300000000001,5492.1899999999996,5551.1800000000003,7.5375500000000004,-22.744,-24.101800000000001
214236.0,63.225999999999999,5340.8900000000003,5295.1400000000003,5342.5600000000004,2.2383199999999999,-19.938700000000001,-14.349
214237.0,43.2667,4976.4099999999999,4946.6499999999996,4977.9799999999996,-1.72715,-16.922799999999999,-4.8008699999999997
214238.0,27.758199999999999,4548.0200000000004,4539.9300000000003,4550.9799999999996,-4.4939200000000001,-12.917,6.0883599999999998
214239.0,46.0242,-4277.8599999999997,-4264.3999999999996,-4264.3299999999999,-11.551600000000001,-10.1334,20.229700000000001
214240.0,81.016099999999994,3191.96,3247.4000000000001,3199.0799999999999,-5.2203900000000001,6.7588900000000001,34.713900000000002
214241.0,96.808199999999999,1481.45,1563.4400000000001,1480.01,9.1885300000000001,19.440200000000001,19.514500000000002
214242.0,74.751300000000001,794.98699999999997,840.14700000000005,778.27300000000002,22.6846,5.9851200000000002,-16.960000000000001
214243.0,124.348,210.70500000000001,263.86900000000003,173.49000000000001,35.598399999999998,6.4733499999999999,-42.209800000000001
214244.0,44.587499999999999,-9.9688700000000008,-57.349600000000002,-29.0229,-1.15021,7.5069900000000001,-6.0503099999999996
214245.0,142.566,-720.49800000000005,-657.30200000000002,-759.07500000000005,45.508299999999998,-5.7027900000000002,-45.072699999999998
214246.0,121.57299999999999,-84.093599999999995,-38.398400000000002,-122.42,31.622800000000002,-13.6873,-44.383499999999998
214247.0,100.50700000000001,-1309.1199999999999,-1285.6099999999999,-1346.3800000000001,17.994399999999999,-16.471,-42.814700000000002
214248.0,92.108900000000006,-1137.99,-1130.3299999999999,-1173.45,13.562200000000001,-16.340800000000002,-42.9863
214249.0,90.804000000000002,-965.29700000000003,-970.62300000000005,-998.79300000000001,13.1793,-18.429300000000001,-43.7166
214250.0,96.0488,-1361.74,-1378.55,-1392.8299999999999,16.0578,-21.3644,-46.029499999999999
214251.0,112.56999999999999,-3542.1100000000001,-3577.1399999999999,-3564.4000000000001,21.623799999999999,-28.0075,-51.5533
214252.0,119.252,-2644.8299999999999,-2686.8899999999999,-2661.4200000000001,22.2712,-30.7972,-53.356400000000001
214253.0,123.434,-3359.1300000000001,-3407.1700000000001,-3369.9099999999999,21.263000000000002,-32.747799999999998,-54.024500000000003
214254.0,124.355,-4556.0100000000002,-4609.2799999999997,-4561.3100000000004,18.7301,-33.531700000000001,-53.088700000000003
214255.0,123.474,-4557.3800000000001,-4617.3999999999996,-4558.0799999999999,14.930899999999999,-33.497300000000003,-50.499699999999997
214256.0,116.367,-4815.7700000000004,-4875.8999999999996,-4814.1199999999999,13.509,-29.862400000000001,-46.905999999999999
214257.0,108.389,-5383.1000000000004,-5437.3699999999999,-5380.29,19.125699999999998,-24.254000000000001,-43.896700000000003
214258.0,96.431799999999996,-5331.6000000000004,-5385.4499999999998,-5326.25,14.0246,-24.6037,-35.008200000000002
214259.0,83.542699999999996,-5346.8800000000001,-5398.1999999999998,-5340.6000000000004,8.32104,-24.3352,-25.817599999999999
214260.0,67.671099999999996,-5333.0,-5376.71,-5326.5799999999999,2.52793,-22.829899999999999,-15.961499999999999
214261.0,50.205199999999998,-5051.5699999999997,-5081.9700000000003,-5045.0600000000004,-2.3437299999999999,-20.2286,-6.1077399999999997
214262.0,36.5349,-4708.4399999999996,-4720.0699999999997,-4700.0,-6.5490300000000001,-16.543500000000002,5.1789199999999997
214263.0,75.038300000000007,-3640.75,-3600.4499999999998,-3622.1799999999998,-14.6137,-0.055681899999999999,35.446399999999997
214264.0,106.895,-2899.9899999999998,-2831.6100000000001,-2879.6500000000001,-15.377800000000001,14.082800000000001,46.2714
214265.0,82.753399999999999,-2042.49,-1979.55,-2041.6400000000001,1.4033500000000001,18.366499999999998,25.307600000000001
214266.0,66.433700000000002,-1223.8399999999999,-1193.8499999999999,-1251.2,20.672799999999999,10.3713,-10.6555
214267.0,80.934700000000007,-609.91600000000005,-594.33000000000004,-652.79100000000005,21.808900000000001,2.5325799999999998,-28.017099999999999
214268.0,195.11500000000001,-1530.7,-1533.45,-1581.77,88.912599999999998,2.9775800000000001,-62.853999999999999
214269.0,202.614,-101.529,-3.4676900000000002,-135.69900000000001,79.820099999999996,-6.8191499999999996,-50.546900000000001
214270.0,121.19799999999999,2548.23,2513.9699999999998,2526.0900000000001,16.6586,-30.5473,-58.171599999999998
214271.0,117.718,5809.9399999999996,5757.9200000000001,5823.6000000000004,17.268799999999999,-25.744599999999998,-49.569200000000002
214272.0,63.312399999999997,4361.1599999999999,4413.1199999999999,4369.6700000000001,-18.160299999999999,-0.99467700000000003,15.1251
214273.0,165.77000000000001,1952.6300000000001,2082.25,1958.78,-13.6394,36.418100000000003,47.964599999999997
214274.0,109.89100000000001,6099.0,6045.96,6114.4300000000003,11.1821,-27.7179,-42.921300000000002
214275.0,133.989,4898.4300000000003,4848.54,4887.1800000000003,22.0593,-35.705599999999997,-59.480499999999999
214276.0,139.56700000000001,1819.9400000000001,1859.75,1783.0,34.6004,-18.670500000000001,-58.940100000000001
214277.0,168.06700000000001,1254.5,1323.3800000000001,1216.8,50.839599999999997,-14.963800000000001,-60.712699999999998
214278.0,115.73099999999999,1060.2,1078.8099999999999,1027.0699999999999,18.226700000000001,-19.625399999999999,-55.322099999999999
214279.0,110.02200000000001,2915.1999999999998,2916.1799999999998,2882.9200000000001,12.8565,-20.951799999999999,-55.430599999999998
214280.0,109.54600000000001,2210.1399999999999,2197.2199999999998,2180.21,11.2454,-23.801600000000001,-55.513199999999998
214281.0,114.64100000000001,3511.5599999999999,3486.9699999999998,3484.8200000000002,13.3965,-27.202100000000002,-56.927300000000002
214282.0,109.773,-2875.8299999999999,-2900.9099999999999,-2900.0300000000002,16.360499999999998,-26.507400000000001,-53.3277
214283.0,128.614,3468.4099999999999,3425.7399999999998,3451.5,20.052700000000002,-33.5411,-59.372599999999998
214284.0,136.667,4254.1599999999999,4198.25,4248.9099999999999,22.2639,-36.707900000000002,-58.561
214285.0,136.78100000000001,5012.4899999999998,4950.6099999999997,5013.7200000000003,20.305199999999999,-36.579099999999997,-56.4238
214286.0,127.21899999999999,5487.5799999999999,5427.0200000000004,5494.46,16.717700000000001,-32.599200000000003,-51.7273
214287.0,115.806,5728.3599999999997,5675.0500000000002,5740.04,14.389699999999999,-27.274999999999999,-48.156500000000001
214288.0,119.08199999999999,-5548.25,-5604.5600000000004,-5538.9499999999998,18.168099999999999,-27.3871,-48.850000000000001
214289.0,120.40000000000001,5939.6300000000001,5884.9300000000003,5954.5100000000002,17.1265,-27.168500000000002,-49.5807
214290.0,95.554199999999994,5954.6800000000003,5908.4399999999996,5969.29,4.2528199999999998,-27.540600000000001,-35.4679
214291.0,77.090100000000007,5833.1700000000001,5799.9300000000003,5846.71,-2.1630400000000001,-26.015599999999999,-26.832999999999998
214292.0,54.9026,5592.6800000000003,5579.3999999999996,5605.3800000000001,-8.0238899999999997,-22.221599999999999,-16.6645
214293.0,37.576799999999999,5093.79,5107.5600000000004,5105.2600000000002,-13.3089,-14.9574,-3.93181
214294.0,63.890000000000001,-4781.5500000000002,-4743.7399999999998,-4754.1800000000003,-26.316600000000001,-7.8464400000000003,15.007300000000001
214295.0,133.64599999999999,3295.1100000000001,3398.0700000000002,3304.9000000000001,-20.924199999999999,22.055299999999999,42.423099999999998
214296.0,106.414,823.08900000000006,915.74400000000003,815.20500000000004,8.3210300000000004,22.1721,9.3779400000000006
214297.0,93.850899999999996,224.12,253.839,205.36000000000001,26.7362,-7.4359400000000004,-39.6021
214298.0,158.102,26.936900000000001,28.000800000000002,-14.5458,37.087400000000002,-26.275700000000001,-75.349400000000003
214299.0,54.931399999999996,-13.3286,-34.593699999999998,7.63591,6.2775100000000004,17.0105,-15.2056
214300.0,152.62100000000001,-592.05600000000004,-530.43499999999995,-633.03300000000002,50.738300000000002,-6.4809200000000002,-49.809100000000001
214301.0,135.238,-1895.8099999999999,-1846.28,-1933.76,36.402700000000003,-16.025700000000001,-50.891800000000003
214302.0,114.861,-1271.5799999999999,-1243.1600000000001,-1306.1900000000001,21.715299999999999,-19.947299999999998,-50.3157
214303.0,104.935,-1987.3900000000001,-1974.6500000000001,-2019.6199999999999,14.1038,-19.505099999999999,-50.5349
214304.0,101.101,-2728.4200000000001,-2729.3000000000002,-2758.3299999999999,11.437799999999999,-20.9984,-50.454700000000003
214305.0,103.73,-2983.7199999999998,-2997.1199999999999,-3011.3600000000001,13.1343,-23.411300000000001,-51.719999999999999
214306.0,117.65600000000001,-2435.8200000000002,-2471.1999999999998,-2455.73,19.900400000000001,-29.596800000000002,-55.023800000000001
214307.0,124.69499999999999,-4264.8900000000003,-4309.5100000000002,-4279.7299999999996,22.214500000000001,-32.392400000000002,-55.892000000000003
214308.0,129.47399999999999,-4495.3199999999997,-4547.9200000000001,-4504.8400000000001,22.9312,-34.3596,-55.641300000000001
214309.0,130.77699999999999,-4198.8400000000001,-4257.8500000000004,-4202.4200000000001,21.650700000000001,-35.105899999999998,-53.899500000000003
214310.0,129.964,-5003.4099999999999,-5068.46,-5000.8400000000001,18.3918,-34.797400000000003,-51.114199999999997
214311.0,122.849,-5412.3500000000004,-5475.6300000000001,-5405.4300000000003,15.8141,-31.310500000000001,-47.993699999999997
214312.0,116.89400000000001,-5646.9700000000003,-5698.6000000000004,-5634.8800000000001,18.591100000000001,-26.390499999999999,-48.652500000000003
214313.0,107.43899999999999,-5877.1099999999997,-5926.5,-5861.7299999999996,12.350300000000001,-26.961200000000002,-42.699399999999997
214314.0,96.027000000000001,-5885.0500000000002,-5930.04,-5868.3000000000002,4.3198800000000004,-27.442399999999999,-35.812600000000003
214315.0,81.571100000000001,-5741.1899999999996,-5776.5600000000004,-5723.21,-3.6460499999999998,-26.717099999999999,-27.459700000000002
214316.0,64.577200000000005,-5643.2600000000002,-5662.3699999999999,-5623.1700000000001,-11.2447,-24.083100000000002,-17.300999999999998
214317.0,50.339599999999997,-5335.1899999999996,-5330.9799999999996,-5312.2200000000003,-18.360499999999998,-18.431799999999999,-4.2767600000000003
214318.0,120.78100000000001,-4005.71,-3920.29,-3971.3800000000001,-32.916400000000003,11.008900000000001,42.549399999999999
214319.0,149.20099999999999,-2846.9400000000001,-2727.4099999999999,-2815.3899999999999,-23.101600000000001,27.142800000000001,48.089799999999997
214320.0,105.31399999999999,-1531.0899999999999,-1433.9200000000001,-1528.76,8.9909300000000005,21.7607,8.30701
214321.0,113.67400000000001,-589.654,-550.29700000000003,-620.88199999999995,36.496400000000001,-1.14761,-41.507599999999996
214322.0,154.72,-163.953,-172.56100000000001,-214.50800000000001,39.182600000000001,-25.835000000000001,-71.028800000000004
214323.0,193.36799999999999,326.62400000000002,327.608,272.93400000000003,76.958699999999993,1.0756699999999999,-74.572800000000001
214324.0,210.43000000000001,880.46299999999997,982.52499999999998,846.20299999999997,81.967299999999994,-8.6505899999999993,-54.201700000000002
214325.0,125.009,4065.6999999999998,4033.8899999999999,4047.4200000000001,11.1562,-30.758299999999998,-62.318800000000003
214326.0,134.17099999999999,6371.1999999999998,6322.9499999999998,6396.5799999999999,18.802299999999999,-32.738700000000001,-56.360900000000001
214327.0,75.492900000000006,4743.2399999999998,4789.3900000000003,4728.5200000000004,-11.7827,7.5042499999999999,26.378900000000002
214328.0,191.06100000000001,1858.3299999999999,1973.6700000000001,1806.0599999999999,-14.379099999999999,41.524500000000003,53.689999999999998
214329.0,128.50299999999999,6586.1099999999997,6534.1000000000004,6608.46,15.2881,-32.658999999999999,-52.426299999999998
214330.0,134.28100000000001,3577.0700000000002,3527.0599999999999,3569.2399999999998,17.673300000000001,-35.406500000000001,-60.998899999999999
214331.0,158.50399999999999,979.51499999999999,1027.9200000000001,946.55999999999995,40.2072,-22.435600000000001,-67.673299999999998
214332.0,181.523,568.54200000000003,642.39200000000005,532.69100000000003,56.586100000000002,-16.869499999999999,-66.091300000000004
214333.0,133.01900000000001,2549.8400000000001,2576.5500000000002,2521.6999999999998,22.7194,-23.0762,-64.007000000000005
214334.0,124.828,1408.46,1416.71,1381.28,13.9537,-23.7195,-63.975999999999999
214335.0,121.038,2814.02,2806.8200000000002,2788.8400000000001,9.3003800000000005,-25.680800000000001,-63.002600000000001
214336.0,122.17,2267.5700000000002,2247.1300000000001,2245.2600000000002,9.1030300000000004,-28.176100000000002,-62.811300000000003
214337.0,114.848,-2870.3499999999999,-2890.8400000000001,-2889.3400000000001,11.293900000000001,-27.551500000000001,-58.134399999999999
214338.0,129.691,4055.1300000000001,4013.46,4041.6900000000001,14.5067,-33.268999999999998,-61.9422
214339.0,139.30000000000001,5169.7600000000002,5112.8199999999997,5168.75,19.706600000000002,-37.391300000000001,-60.164999999999999
214340.0,143.18899999999999,5312.9899999999998,5250.6099999999997,5320.5200000000004,20.043700000000001,-38.868699999999997,-58.731400000000001
214341.0,140.78200000000001,5647.6300000000001,5586.2299999999996,5662.8500000000004,19.186299999999999,-37.847099999999998,-56.219700000000003
214342.0,134.12899999999999,6020.5299999999997,5966.6400000000003,6041.7799999999997,17.875,-34.839300000000001,-54.4358
214343.0,136.19300000000001,-5972.3699999999999,-6029.1899999999996,-5952.8100000000004,19.4346,-34.604700000000001,-55.0764
214344.0,137.042,6562.3699999999999,6511.7200000000003,6587.71,19.645900000000001,-32.457900000000002,-57.652099999999997
214345.0,110.901,6717.3800000000001,6669.79,6735.1400000000003,8.5611200000000007,-31.908100000000001,-43.200600000000001
214346.0,86.195300000000003,6564.25,6526.6999999999998,6576.1700000000001,1.8740399999999999,-28.8323,-31.228000000000002
214347.0,51.749099999999999,6189.7799999999997,6169.9499999999998,6194.3599999999997,-4.0991,-21.646599999999999,-15.457599999999999
214348.0,25.099,5638.5799999999999,5644.9700000000003,5634.71,-8.30992,-10.2111,3.1325400000000001
214349.0,64.681399999999996,-5274.2399999999998,-5248.9700000000003,-5268.4399999999996,-22.0823,-1.5569599999999999,27.007000000000001
214350.0,171.63999999999999,3378.6500000000001,3480.77,3350.0100000000002,-19.1374,33.867899999999999,59.853299999999997
214351.0,121.251,663.63400000000001,723.61500000000001,586.92200000000003,3.7268500000000002,13.0352,-4.71035
214352.0,136.77500000000001,10.720700000000001,6.75854,-63.183,16.0733,-28.107199999999999,-58.815300000000001
214353.0,193.08600000000001,-52.805199999999999,-84.299199999999999,-113.024,31.560199999999998,-49.1374,-90.053899999999999
214354.0,47.248100000000001,62.999899999999997,34.463700000000003,47.528399999999998,-4.2153400000000003,22.799900000000001,-1.5691600000000001
214355.0,161.33500000000001,-841.71100000000001,-782.45699999999999,-885.30899999999997,55.007899999999999,-6.6198199999999998,-54.235999999999997
214356.0,149.09,-349.971,-297.834,-388.03100000000001,41.719000000000001,-17.9636,-57.408200000000001
214357.0,131.245,-1728.1500000000001,-1694.96,-1759.8800000000001,27.040400000000002,-23.3721,-58.398499999999999
214358.0,120.527,-1682.4000000000001,-1664.4200000000001,-1710.8199999999999,16.389500000000002,-23.017499999999998,-59.132599999999996
214359.0,114.121,-1584.6300000000001,-1580.22,-1609.95,10.5114,-23.8337,-58.354500000000002
214360.0,112.95099999999999,-2007.6700000000001,-2016.0599999999999,-2030.27,9.5866900000000008,-25.3735,-58.1937
214361.0,119.21899999999999,-4150.3199999999997,-4181.8999999999996,-4165.2799999999997,14.4841,-29.913,-58.168500000000002
214362.0,124.45399999999999,-3226.75,-3268.48,-3236.9699999999998,17.739799999999999,-32.281700000000001,-57.732500000000002
214363.0,129.52500000000001,-3927.7199999999998,-3978.2399999999998,-3932.9299999999998,20.1919,-34.4056,-56.821399999999997
214364.0,133.691,-5136.8199999999997,-5194.8800000000001,-5135.6099999999997,21.0428,-36.2363,-55.265999999999998
214365.0,137.928,-5185.5699999999997,-5249.8000000000002,-5177.0699999999997,20.425799999999999,-37.745100000000001,-54.017000000000003
214366.0,137.34399999999999,-5523.4899999999998,-5586.8100000000004,-5508.5600000000004,18.779800000000002,-37.085299999999997,-53.237200000000001
214367.0,136.255,-6303.6800000000003,-6355.6099999999997,-6280.1199999999999,19.9984,-32.3249,-57.024000000000001
214368.0,128.13800000000001,-6361.3599999999997,-6410.9899999999998,-6335.3699999999999,14.527200000000001,-31.220800000000001,-53.0199
214369.0,113.575,-6478.0900000000001,-6524.3400000000001,-6452.8599999999997,6.3212400000000004,-30.780999999999999,-44.697899999999997
214370.0,93.568399999999997,-6541.3000000000002,-6580.2399999999998,-6518.6099999999997,-1.81504,-28.975200000000001,-33.226500000000001
214371.0,67.169200000000004,-6287.3900000000003,-6313.1499999999996,-6268.1499999999996,-9.8651499999999999,-24.1845,-17.662800000000001
214372.0,42.289299999999997,-5890.3299999999999,-5895.5100000000002,-5876.6700000000001,-16.235700000000001,-15.3345,1.63609
214373.0,148.25800000000001,-4242.0100000000002,-4169.0699999999997,-4247.4300000000003,-30.862200000000001,20.627600000000001,63.514600000000002
214374.0,168.32599999999999,-2790.04,-2693.8499999999999,-2825.4899999999998,-20.0001,32.403500000000001,57.918999999999997
214375.0,127.294,-1337.1900000000001,-1272.01,-1413.5899999999999,10.1021,15.9453,-4.7933500000000002
214376.0,164.67099999999999,-348.58600000000001,-332.02600000000001,-444.05799999999999,31.366399999999999,-16.174499999999998,-64.316199999999995
214377.0,202.70699999999999,57.524500000000003,31.6355,-19.5381,39.078099999999999,-45.642200000000003,-92.457800000000006
214378.0,190.84299999999999,-1493.6099999999999,-1484.03,-1548.03,63.091200000000001,-2.4579,-83.441100000000006
214379.0,214.00999999999999,-103.39700000000001,3.17523,-136.24600000000001,81.363299999999995,-10.2294,-56.829900000000002
214380.0,132.61199999999999,3298.8099999999999,3273.8299999999999,3288.1100000000001,4.1695399999999996,-30.846900000000002,-68.818600000000004
214381.0,143.595,6662.4300000000003,6612.1000000000004,6690.5100000000002,22.9678,-38.862299999999998,-57.070500000000003
214382.0,98.938100000000006,4516.4899999999998,4565.29,4482.3000000000002,-8.4571000000000005,15.8756,34.636099999999999
214383.0,150.374,1708.6800000000001,1811.8299999999999,1653.0699999999999,-14.526199999999999,23.331099999999999,17.096
214384.0,133.20400000000001,7158.8400000000001,7103.1800000000003,7179.1199999999999,25.225300000000001,-32.361400000000003,-51.816600000000001
214385.0,135.42099999999999,5477.8500000000004,5434.8599999999997,5477.9700000000003,7.9935299999999998,-34.597099999999998,-65.071299999999994
214386.0,177.399,2120.1199999999999,2175.8899999999999,2090.6900000000001,46.427900000000001,-25.984000000000002,-76.0715
214387.0,192.863,1378.3199999999999,1454.3099999999999,1342.9300000000001,62.048699999999997,-18.036899999999999,-70.602800000000002
214388.0,152.88399999999999,1557.8199999999999,1592.8900000000001,1535.25,29.294799999999999,-26.724599999999999,-73.314499999999995
214389.0,142.93000000000001,3576.1999999999998,3592.8400000000001,3555.3400000000001,17.571100000000001,-26.908999999999999,-73.646100000000004
214390.0,136.20599999999999,2968.9899999999998,2969.5799999999999,2950.75,9.2042800000000007,-27.831700000000001,-72.180899999999994
214391.0,133.88200000000001,4297.0100000000002,4283.6700000000001,4281.8800000000001,5.1545500000000004,-29.311599999999999,-70.856399999999994
214392.0,124.13,-3633.8099999999999,-3647.6700000000001,-3645.5799999999999,5.60494,-28.920500000000001,-64.903400000000005
214393.0,133.71600000000001,4140.9499999999998,4105.9300000000003,4135.3299999999999,5.4723499999999996,-32.663499999999999,-67.152799999999999
214394.0,140.71799999999999,4758.6999999999998,4708.0200000000004,4765.2799999999997,11.1722,-37.512099999999997,-63.927
214395.0,145.518,5491.9099999999999,5435.3299999999999,5506.0900000000001,13.8833,-40.506300000000003,-61.834099999999999
214396.0,148.75200000000001,6020.0200000000004,5961.1800000000003,6040.2600000000002,17.168500000000002,-42.546700000000001,-59.858400000000003
214397.0,145.82400000000001,6410.9399999999996,6355.6899999999996,6435.4799999999996,20.039000000000001,-41.7196,-57.234999999999999
214398.0,146.447,-6302.8000000000002,-6361.9099999999999,-6278.1400000000003,21.964500000000001,-40.224299999999999,-56.528399999999998
214399.0,142.858,6924.2200000000003,6871.6199999999999,6950.6599999999999,26.9056,-35.411200000000001,-56.6218
214400.0,109.867,7010.8199999999997,6957.0699999999997,7022.21,18.498999999999999,-28.389500000000002,-40.802799999999998
214401.0,77.589299999999994,6799.0299999999997,6754.25,6800.54,10.7525,-23.011299999999999,-25.876999999999999
214402.0,36.957299999999996,6376.5900000000001,6351.0299999999997,6366.8999999999996,3.7043900000000001,-14.698,-7.68194
214403.0,33.683700000000002,5598.2700000000004,5601.7399999999998,5574.6099999999997,-2.1493899999999999,-2.79095,12.1571
214404.0,78.6036,-5132.2700000000004,-5109.0200000000004,-5145.0100000000002,-18.136800000000001,7.0053999999999998,36.722700000000003
214405.0,166.309,3133.0700000000002,3235.4400000000001,3092.46,-17.708100000000002,32.7911,49.005499999999998
214406.0,129.87100000000001,751.42700000000002,795.18799999999999,676.34799999999996,-0.64402700000000002,-8.6133699999999997,-43.990000000000002
214407.0,166.09,295.12900000000002,289.11200000000002,218.94,3.6874899999999999,-35.433999999999997,-78.307199999999995
214408.0,167.297,75.758399999999995,65.453400000000002,7.4842500000000003,16.037600000000001,-38.253900000000002,-79.083200000000005
214409.0,45.842700000000001,95.624899999999997,60.964199999999998,64.241200000000006,-9.8616700000000002,14.8338,4.1290800000000001
214410.0,168.48699999999999,-669.67200000000003,-612.88699999999994,-716.00599999999997,58.3949,-6.2803699999999996,-57.842300000000002
214411.0,161.81700000000001,-2124.6599999999999,-2071.73,-2164.1999999999998,47.018099999999997,-19.520600000000002,-63.117199999999997
214412.0,148.75700000000001,-1686.1300000000001,-1648.99,-1715.26,33.933300000000003,-26.460000000000001,-66.493099999999998
214413.0,138.608,-2572.9099999999999,-2550.0799999999999,-2597.3800000000001,21.0867,-26.749099999999999,-68.441599999999994
214414.0,130.363,-3436.23,-3426.5500000000002,-3456.29,11.907999999999999,-27.0501,-67.537400000000005
214415.0,126.19,-3748.02,-3750.5500000000002,-3764.3200000000002,7.1218000000000004,-27.735700000000001,-66.415499999999994
214416.0,124.31,-3137.3200000000002,-3161.1900000000001,-3144.2600000000002,6.5140000000000002,-30.298100000000002,-63.560299999999998
214417.0,126.086,-4882.3000000000002,-4915.2200000000003,-4883.79,8.5550800000000002,-32.051699999999997,-62.0745
214418.0,129.339,-5031.8100000000004,-5072.4399999999996,-5027.9899999999998,11.4619,-34.046599999999998,-60.654000000000003
214419.0,134.03800000000001,-4686.4799999999996,-4735.04,-4676.1199999999999,13.9064,-36.767299999999999,-58.770899999999997
214420.0,141.11799999999999,-5506.2600000000002,-5562.0,-5489.6700000000001,16.661300000000001,-39.731900000000003,-57.845399999999998
214421.0,145.547,-6011.1300000000001,-6070.7299999999996,-5989.3299999999999,18.842700000000001,-41.454900000000002,-56.677999999999997
214422.0,146.25,-6555.1999999999998,-6612.9099999999999,-6528.29,25.226700000000001,-36.7714,-57.202100000000002
214423.0,137.53700000000001,-6897.3900000000003,-6953.2700000000004,-6870.3000000000002,22.7773,-33.047600000000003,-53.893999999999998
214424.0,116.621,-6948.1999999999998,-7001.3100000000004,-6925.1400000000003,15.315899999999999,-29.289100000000001,-43.766500000000001
214425.0,87.105699999999999,-6759.3000000000002,-6805.3800000000001,-6743.0,6.2845500000000003,-24.4877,-29.035900000000002
214426.0,51.9681,-6525.5799999999999,-6558.0200000000004,-6517.0600000000004,-2.4596499999999999,-17.899799999999999,-10.3292
214427.0,30.896999999999998,-5992.8500000000004,-6003.1099999999997,-5994.3100000000004,-10.2464,-8.1426599999999993,10.774900000000001
214428.0,142.459,-4010.0500000000002,-3942.4499999999998,-4038.2399999999998,-24.367000000000001,23.676600000000001,56.453800000000001
214429.0,135.059,-2578.6999999999998,-2498.1599999999999,-2637.6900000000001,-13.0115,19.974299999999999,24.623200000000001
214430.0,140.43700000000001,-1273.6700000000001,-1226.27,-1359.8,5.7719199999999997,-4.8431600000000001,-43.981900000000003
214431.0,181.22399999999999,-542.02999999999997,-530.62599999999998,-631.47699999999998,10.644399999999999,-26.7836,-84.061800000000005
214432.0,167.60300000000001,-205.88399999999999,-216.97,-280.197,13.7944,-35.813000000000002,-79.269000000000005
214433.0,188.91300000000001,352.59899999999999,376.44299999999998,301.83100000000002,49.170499999999997,-6.9896399999999996,-89.315899999999999
214434.0,213.34299999999999,849.14300000000003,960.65999999999997,819.16200000000003,78.084599999999995,-11.3489,-58.191499999999998
214435.0,149.423,5033.9300000000003,5018.5,5033.7600000000002,-1.07867,-32.447299999999998,-79.435199999999995
214436.0,133.089,6832.9899999999998,6786.0799999999999,6861.04,17.934699999999999,-38.174999999999997,-51.8748
214437.0,115.26600000000001,4055.1500000000001,4109.0,4007.8899999999999,-1.56647,20.9758,37.7761
214438.0,111.262,1612.03,1664.6199999999999,1548.6400000000001,-6.1208299999999998,-11.149800000000001,-24.336200000000002
214439.0,123.226,6954.4899999999998,6903.9499999999998,6976.0299999999997,32.9497,-28.972799999999999,-42.040199999999999
214440.0,146.041,4438.54,4406.8800000000001,4450.2399999999998,-3.3326899999999999,-34.736499999999999,-73.4054
214441.0,194.44,1219.3800000000001,1280.6900000000001,1192.72,52.463200000000001,-29.128599999999999,-83.468299999999999
214442.0,201.28999999999999,644.06399999999996,719.971,607.88,66.413700000000006,-18.528199999999998,-74.021699999999996
214443.0,174.03700000000001,3011.96,3054.3499999999999,2994.6999999999998,37.522799999999997,-30.395199999999999,-82.5976
214444.0,164.19,2083.5,2108.9899999999998,2070.0900000000001,24.099,-30.497,-84.171899999999994
214445.0,156.25200000000001,3656.1500000000001,3665.6199999999999,3646.3400000000001,12.5549,-30.752199999999998,-83.317999999999998
214446.0,152.53399999999999,3208.5799999999999,3204.1199999999999,3202.8699999999999,4.2547100000000002,-31.578800000000001,-82.043700000000001
214447.0,141.197,-3818.2199999999998,-3825.27,-3821.5599999999999,2.00936,-31.5608,-75.053200000000004
214448.0,148.03299999999999,4991.4099999999999,4966.7399999999998,4997.2299999999996,-3.2279100000000001,-33.5351,-76.861400000000003
214449.0,146.62,5932.0600000000004,5893.6999999999998,5949.6000000000004,-1.35371,-37.011000000000003,-70.546099999999996
214450.0,145.447,5972.8800000000001,5929.0,5995.8000000000002,1.5100899999999999,-39.365200000000002,-65.935500000000005
214451.0,143.71700000000001,6211.1800000000003,6163.7700000000004,6237.6899999999996,5.9700699999999998,-40.982999999999997,-61.378100000000003
214452.0,136.96700000000001,6520.1899999999996,6472.4700000000003,6547.6000000000004,11.3413,-40.189,-55.352499999999999
214453.0,135.21600000000001,-6456.3800000000001,-6504.5100000000002,-6425.8400000000001,15.7097,-38.225000000000001,-53.041600000000003
214454.0,131.38800000000001,6987.7299999999996,6939.1599999999999,7014.1099999999997,27.340499999999999,-34.999899999999997,-48.333300000000001
214455.0,108.53400000000001,6996.4899999999998,6943.2600000000002,7004.79,32.160899999999998,-23.638300000000001,-34.909100000000002
214456.0,78.178600000000003,6694.8100000000004,6650.1400000000003,6688.4799999999996,23.335000000000001,-19.2774,-23.1722
214457.0,34.819000000000003,6101.8500000000004,6081.4899999999998,6082.0200000000004,13.035299999999999,-9.6655200000000008,-2.4638800000000001
214458.0,57.085799999999999,5270.2799999999997,5283.3299999999999,5236.3599999999997,5.9693899999999998,5.8794899999999997,20.690899999999999
214459.0,89.399500000000003,-4791.1199999999999,-4762.3400000000001,-4816.8999999999996,-10.3453,14.1487,40.1494
214460.0,122.373,2660.3299999999999,2732.8200000000002,2601.29,-8.4545100000000009,14.022500000000001,19.577200000000001
214461.0,121.574,1001.58,1024.8900000000001,935.25,7.4509400000000001,-21.5684,-47.359200000000001
214462.0,122.67100000000001,583.327,590.20500000000004,528.70500000000004,14.4931,-18.773499999999999,-57.602200000000003
214463.0,121.69499999999999,177.38800000000001,195.16800000000001,133.755,20.190000000000001,-10.4567,-58.489199999999997
214464.0,24.258700000000001,40.448999999999998,21.2547,34.259500000000003,-5.5885400000000001,8.1177200000000003,-1.74821
214465.0,173.54499999999999,-876.06399999999996,-820.03899999999999,-924.45899999999995,59.514699999999998,-5.8002399999999996,-61.097099999999998
214466.0,172.33199999999999,-520.94299999999998,-467.64400000000001,-562.20299999999997,51.447899999999997,-20.659199999999998,-67.663399999999996
214467.0,166.12200000000001,-2095.71,-2055.6399999999999,-2122.98,41.631300000000003,-29.099499999999999,-73.971100000000007
214468.0,158.43199999999999,-2261.52,-2234.3099999999999,-2281.9200000000001,28.2636,-30.462900000000001,-77.908299999999997
214469.0,150.22800000000001,-2345.5300000000002,-2330.8699999999999,-2359.9699999999998,16.628900000000002,-30.7012,-78.0518
214470.0,144.83000000000001,-2895.1300000000001,-2892.0799999999999,-2904.5900000000001,7.8372599999999997,-30.941299999999998,-77.010300000000001
214471.0,139.309,-5097.5600000000004,-5112.7700000000004,-5094.4099999999999,-0.87661299999999998,-32.188699999999997,-73.0458
214472.0,138.267,-4125.3500000000004,-4147.6800000000003,-4115.2399999999998,-1.8692899999999999,-33.143300000000004,-70.676199999999994
214473.0,137.62899999999999,-4746.0299999999997,-4773.8100000000004,-4729.6400000000003,-0.87846599999999997,-34.285699999999999,-68.111500000000007
214474.0,137.346,-5860.5500000000002,-5894.4399999999996,-5837.6099999999997,1.18719,-36.262900000000002,-64.451899999999995
214475.0,138.42699999999999,-5815.2299999999996,-5855.1400000000003,-5787.4200000000001,4.9611400000000003,-38.383000000000003,-61.079500000000003
214476.0,137.65700000000001,-6067.79,-6112.7700000000004,-6036.6499999999996,9.4523700000000002,-39.344999999999999,-56.697099999999999
214477.0,134.03299999999999,-6750.7399999999998,-6801.5100000000002,-6720.5100000000002,23.253599999999999,-35.401600000000002,-50.186799999999998
214478.0,128.517,-6773.4899999999998,-6826.3199999999997,-6743.46,27.567900000000002,-30.656199999999998,-45.232799999999997
214479.0,115.345,-6823.04,-6877.8800000000001,-6799.1300000000001,26.114999999999998,-24.5745,-38.972999999999999
214480.0,85.159199999999998,-6768.1599999999999,-6818.04,-6756.7200000000003,16.8292,-19.446899999999999,-26.3169
214481.0,41.194899999999997,-6341.0200000000004,-6374.04,-6340.2200000000003,4.6335600000000001,-12.250999999999999,-4.6469199999999997
214482.0,35.854500000000002,-5710.5900000000001,-5716.25,-5719.9899999999998,-4.3239999999999998,0.27534500000000001,19.6816
214483.0,106.827,-3469.7600000000002,-3418.6500000000001,-3527.29,-7.4399600000000001,11.8454,25.5715
214484.0,119.70699999999999,-2186.52,-2144.02,-2272.6799999999998,2.3820899999999998,-10.108499999999999,-19.261099999999999
214485.0,131.19499999999999,-1355.53,-1330.1700000000001,-1432.29,7.8924799999999999,-22.978000000000002,-48.164999999999999
214486.0,129.43700000000001,-848.57600000000002,-831.58299999999997,-901.15899999999999,10.8438,-18.299800000000001,-61.777700000000003
214487.0,112.06699999999999,-457.35300000000001,-445.65100000000001,-497.09800000000001,14.1028,-10.1837,-56.183199999999999
214488.0,189.57499999999999,-1380.6500000000001,-1335.98,-1422.8699999999999,35.951300000000003,-12.503299999999999,-92.966999999999999
214489.0,207.91,-164.721,-47.137500000000003,-190.333,70.506,-11.8911,-58.866399999999999
214490.0,174.81700000000001,4513.0299999999997,4506.6999999999998,4524.3900000000003,-0.90876900000000005,-36.1479,-93.803700000000006
214491.0,113.18300000000001,7020.1099999999997,6994.9300000000003,7055.0200000000004,1.66222,-32.533000000000001,-47.941899999999997
214492.0,98.187299999999993,3329.8200000000002,3382.3499999999999,3280.0599999999999,8.9268800000000006,4.8272000000000004,22.232700000000001
214493.0,110.16,1831.3499999999999,1864.4300000000001,1801.25,8.9232399999999998,-22.9755,-49.385300000000001
214494.0,76.345100000000002,6797.0100000000002,6777.5,6829.1300000000001,23.398199999999999,-17.456800000000001,-20.278400000000001
214495.0,167.95599999999999,6815.8900000000003,6794.3000000000002,6840.8299999999999,-11.319000000000001,-36.638399999999997,-85.967200000000005
214496.0,207.923,2272.0700000000002,2337.46,2247.54,57.258400000000002,-31.537400000000002,-89.313599999999994
214497.0,205.94999999999999,1397.8900000000001,1472.5,1360.3699999999999,68.784000000000006,-18.4818,-76.209900000000005
214498.0,194.303,1925.6400000000001,1974.02,1913.3,45.968400000000003,-33.890000000000001,-91.066299999999998
214499.0,186.929,4191.3800000000001,4224.8800000000001,4185.6999999999998,32.849800000000002,-34.171500000000002,-94.617500000000007
214500.0,180.81700000000001,3824.9200000000001,3843.0500000000002,3824.1100000000001,19.950500000000002,-34.448799999999999,-95.910799999999995
214501.0,177.63800000000001,5357.9799999999996,5362.3500000000004,5362.3999999999996,8.5403900000000004,-35.360399999999998,-95.857799999999997
214502.0,165.19200000000001,-4764.1300000000001,-4766.29,-4759.25,3.3529100000000001,-35.692300000000003,-88.305599999999998
214503.0,172.46000000000001,5448.5100000000002,5433.4899999999998,5467.0799999999999,-7.3499100000000004,-36.592599999999997,-90.763199999999998
214504.0,162.92699999999999,6055.9499999999998,6029.2200000000003,6086.4499999999998,-12.8232,-37.0242,-80.579999999999998
214505.0,154.42599999999999,6665.1499999999996,6635.3599999999997,6700.1599999999999,-12.4724,-37.263199999999998,-73.165899999999993
214506.0,143.197,6982.6899999999996,6952.2799999999997,7020.1099999999997,-10.043100000000001,-36.683799999999998,-65.070499999999996
214507.0,126.559,7092.4700000000003,7063.9799999999996,7128.8199999999997,-5.2172900000000002,-34.538699999999999,-55.339599999999997
214508.0,119.312,-6868.71,-6892.5900000000001,-6825.6800000000003,-1.3920699999999999,-31.944600000000001,-50.724600000000002
214509.0,96.476200000000006,6931.0299999999997,6908.0900000000001,6964.3400000000001,11.8606,-28.156099999999999,-37.0032
214510.0,89.134100000000004,6398.1099999999997,6371.2700000000004,6417.6099999999997,37.339500000000001,-13.854200000000001,-22.820599999999999
214511.0,90.754900000000006,6094.1199999999999,6063.4300000000003,6094.6999999999998,38.469200000000001,-16.473400000000002,-25.965299999999999
214512.0,50.768700000000003,5545.2200000000003,5538.2799999999997,5527.6599999999999,27.1158,-6.7507999999999999,-0.20307500000000001
214513.0,74.987099999999998,4520.4700000000003,4547.9399999999996,4485.8800000000001,16.531099999999999,5.8024300000000002,24.503599999999999
214514.0,75.787999999999997,-3994.1999999999998,-3960.25,-4031.8200000000002,3.91255,2.4094899999999999,24.7363
214515.0,90.551100000000005,2415.4000000000001,2461.6599999999999,2367.3600000000001,7.1064299999999996,-12.8005,-17.192799999999998
214516.0,93.486999999999995,1308.1199999999999,1346.8800000000001,1274.79,14.3421,-12.8294,-35.236199999999997
214517.0,85.631500000000003,664.53499999999997,705.31200000000001,630.66800000000001,15.228300000000001,-5.9465700000000004,-27.9299
214518.0,112.861,152.97499999999999,192.34299999999999,120.13200000000001,19.846599999999999,-8.2986000000000004,-49.758699999999997
214519.0,21.020099999999999,45.724299999999999,24.721299999999999,38.226300000000002,-5.1039199999999996,2.1072500000000001,-1.87171
214520.0,175.16499999999999,-652.74099999999999,-595.48900000000003,-702.26800000000003,57.442100000000003,-5.1592599999999997,-63.6083
214521.0,180.10300000000001,-2219.1500000000001,-2164.8200000000002,-2261.8600000000001,54.613300000000002,-21.455200000000001,-70.739000000000004
214522.0,181.07499999999999,-1961.28,-1918.6300000000001,-1987.01,48.551200000000001,-31.0686,-80.087500000000006
214523.0,178.43000000000001,-3078.1900000000001,-3046.8499999999999,-3094.3200000000002,36.960799999999999,-33.806699999999999,-86.721199999999996
214524.0,172.911,-4178.9499999999998,-4159.96,-4187.79,24.4971,-34.3551,-89.349900000000005
214525.0,168.48400000000001,-4705.0,-4697.3400000000001,-4707.6199999999999,13.012700000000001,-34.959899999999998,-89.678700000000006
214526.0,163.321,-4389.5100000000002,-4398.9499999999998,-4376.1499999999996,-3.7061099999999998,-36.066299999999998,-86.287300000000002
214527.0,161.215,-6198.5,-6213.7600000000002,-6176.4200000000001,-8.8515099999999993,-36.1554,-83.219499999999996
214528.0,157.48699999999999,-6350.0100000000002,-6369.1300000000001,-6320.3900000000003,-11.615,-35.964300000000001,-78.968599999999995
214529.0,151.42099999999999,-5935.0100000000002,-5957.4399999999996,-5898.5299999999997,-12.3309,-35.934600000000003,-72.905500000000004
214530.0,143.655,-6601.8100000000004,-6626.7399999999998,-6560.6000000000004,-10.6431,-35.757300000000001,-66.116600000000005
214531.0,132.59399999999999,-6872.0500000000002,-6898.0200000000004,-6828.1499999999996,-7.2387300000000003,-34.429699999999997,-58.0991
214532.0,103.485,-6795.5699999999997,-6816.7600000000002,-6751.3100000000004,6.11137,-27.3931,-40.824800000000003
214533.0,84.588499999999996,-6798.3800000000001,-6817.5799999999999,-6750.5799999999999,14.192500000000001,-18.2395,-25.702300000000001
214534.0,90.168800000000005,-6506.1499999999996,-6528.2700000000004,-6465.3199999999997,26.627400000000002,-11.7005,-29.063199999999998
214535.0,88.309299999999993,-6134.0,-6161.6800000000003,-6111.8800000000001,29.377300000000002,-12.6135,-30.900500000000001
214536.0,41.574800000000003,-5830.2399999999998,-5850.6800000000003,-5825.3299999999999,17.343499999999999,-9.3268199999999997,-2.7645900000000001
214537.0,47.669699999999999,-5112.3199999999997,-5105.8599999999997,-5125.7600000000002,7.1145399999999999,0.67586000000000002,24.562200000000001
214538.0,93.877300000000005,-2915.0900000000001,-2877.9299999999998,-2976.8699999999999,10.3287,-12.3607,-13.436500000000001
214539.0,117.76300000000001,-2160.6999999999998,-2137.1399999999999,-2219.1199999999999,14.8499,-24.530100000000001,-44.931100000000001
214540.0,83.970799999999997,-1646.4100000000001,-1618.6199999999999,-1680.8699999999999,10.844900000000001,-15.4939,-31.941199999999998
214541.0,81.707899999999995,-1077.46,-1033.46,-1103.29,9.8464299999999998,-5.1038699999999997,-29.254999999999999
214542.0,104.29300000000001,-460.48899999999998,-423.70499999999998,-484.93900000000002,15.603300000000001,-8.7747100000000007,-48.529899999999998
214543.0,193.93600000000001,448.971,519.38,420.221,27.213899999999999,-17.786899999999999,-94.219899999999996
214544.0,201.58600000000001,772.16700000000003,901.65499999999997,753.49000000000001,58.208399999999997,-12.797499999999999,-59.009500000000003
214545.0,204.15600000000001,6362.8599999999997,6362.1899999999996,6384.29,6.2779800000000003,-41.305999999999997,-109.497
214546.0,98.070700000000002,7816.96,7811.7799999999997,7856.5100000000002,-10.06,-27.893899999999999,-41.569600000000001
214547.0,91.072100000000006,3065.4200000000001,3132.52,3043.79,12.497199999999999,-17.720700000000001,-12.4033
214548.0,114.286,1751.5699999999999,1802.6199999999999,1740.55,9.9586799999999993,-22.510899999999999,-51.489699999999999
214549.0,39.226199999999999,6517.3400000000001,6533.1999999999998,6549.7299999999996,10.243499999999999,-3.4978500000000001,11.5488
214550.0,196.31899999999999,6187.4300000000003,6170.6899999999996,6225.0500000000002,-11.226000000000001,-40.953499999999998,-101.33499999999999
214551.0,216.727,1273.99,1341.55,1250.29,60.488900000000001,-32.785600000000002,-93.1691
214552.0,205.923,611.63900000000001,686.43100000000004,574.04200000000003,67.509299999999996,-18.244800000000001,-77.273399999999995
214553.0,210.81,3239.3000000000002,3293.2199999999998,3232.1399999999999,53.023299999999999,-36.8825,-97.606200000000001
214554.0,208.28899999999999,2552.9099999999999,2592.8000000000002,2554.4299999999998,42.265999999999998,-37.327500000000001,-103.78100000000001
214555.0,206.459,4411.6000000000004,4436.8599999999997,4418.9099999999999,30.1556,-38.280700000000003,-108.003
214556.0,205.63800000000001,4260.1000000000004,4271.1199999999999,4273.3699999999999,18.145499999999998,-39.953699999999998,-110.089
214557.0,192.20699999999999,-5000.21,-5000.3599999999997,-4988.5500000000002,10.6447,-40.477800000000002,-102.551
214558.0,202.08199999999999,6561.1000000000004,6550.9499999999998,6591.21,-3.5084499999999998,-41.699300000000001,-106.877
214559.0,187.488,7772.96,7752.1300000000001,7816.2299999999996,-16.742100000000001,-39.708100000000002,-93.761099999999999
214560.0,173.14400000000001,7795.0500000000002,7774.1599999999999,7841.5500000000002,-20.146599999999999,-37.802700000000002,-83.474199999999996
214561.0,153.07900000000001,7884.4300000000003,7865.54,7929.9700000000003,-20.274699999999999,-35.277099999999997,-71.122399999999999
214562.0,126.111,7912.5799999999999,7898.0600000000004,7954.0299999999997,-16.5123,-32.245800000000003,-56.082099999999997
214563.0,111.501,-7715.6700000000001,-7723.8299999999999,-7664.3800000000001,-16.0425,-27.338000000000001,-45.832599999999999
214564.0,54.6235,7371.6499999999996,7376.4399999999996,7409.8299999999999,-0.87693299999999996,-16.553999999999998,-16.942900000000002
214565.0,57.1663,5848.5799999999999,5862.8400000000001,5870.75,30.7011,-4.04176,2.0365700000000002
214566.0,89.561999999999998,5276.2399999999998,5283.8699999999999,5291.8000000000002,44.055399999999999,-12.542,-22.694700000000001
214567.0,73.308000000000007,4649.71,4678.4399999999996,4655.96,36.816200000000002,-10.262700000000001,-10.111800000000001
214568.0,74.926000000000002,3890.9200000000001,3947.1599999999999,3882.4699999999998,23.0106,-10.2318,0.52266999999999997
214569.0,79.537300000000002,-3578.5999999999999,-3521.75,-3594.0,11.651,-20.107500000000002,-10.9765
214570.0,106.71299999999999,2303.1799999999998,2363.5,2284.3899999999999,8.0676799999999993,-24.525700000000001,-37.700099999999999
214571.0,94.581900000000005,1230.3199999999999,1282.0999999999999,1212.1800000000001,12.942600000000001,-15.774100000000001,-35.345300000000002
214572.0,88.148499999999999,648.34199999999998,700.93799999999999,618.09900000000005,9.7198700000000002,-15.9649,-21.9878
214573.0,121.517,179.21199999999999,225.124,134.404,14.5883,-22.497199999999999,-46.320399999999999
214574.0,24.3461,52.024700000000003,30.777000000000001,47.381999999999998,-7.6754800000000003,2.0117400000000001,-3.1346699999999998
214575.0,174.58000000000001,-817.06299999999999,-750.17700000000002,-864.19000000000005,50.998800000000003,-5.6981099999999998,-65.144000000000005
214576.0,184.572,-540.24000000000001,-484.39800000000002,-583.64700000000005,55.743200000000002,-21.381499999999999,-72.908900000000003
214577.0,191.17099999999999,-2251.9299999999998,-2206.04,-2276.0300000000002,53.542299999999997,-32.435400000000001,-83.658699999999996
214578.0,196.18899999999999,-2626.9899999999998,-2591.48,-2638.4000000000001,45.513800000000003,-36.103700000000003,-94.107299999999995
214579.0,195.70699999999999,-2967.9899999999998,-2944.8899999999999,-2971.4400000000001,34.004800000000003,-37.4681,-99.992400000000004
214580.0,194.12299999999999,-3800.6199999999999,-3789.6500000000001,-3797.2199999999998,22.139399999999998,-38.9069,-102.595
214581.0,191.185,-6529.75,-6538.6700000000001,-6508.29,0.53354699999999999,-41.267000000000003,-101.17700000000001
214582.0,189.15799999999999,-5762.6199999999999,-5777.79,-5730.6000000000004,-8.1728000000000005,-41.113700000000001,-97.926100000000005
214583.0,183.97900000000001,-6519.2700000000004,-6537.8999999999996,-6478.1700000000001,-15.0863,-39.879600000000003,-92.363100000000003
214584.0,174.52000000000001,-7680.6400000000003,-7700.6800000000003,-7632.3500000000004,-19.688800000000001,-38.097000000000001,-84.139799999999994
214585.0,159.697,-7572.2399999999998,-7591.5799999999999,-7520.3299999999999,-21.2986,-35.501199999999997,-73.685900000000004
214586.0,138.072,-7637.0699999999997,-7652.9099999999999,-7584.5900000000001,-20.556699999999999,-31.857600000000001,-60.319400000000002
214587.0,74.6922,-7547.9700000000003,-7546.8699999999999,-7493.5900000000001,-8.8817000000000004,-17.587800000000001,-22.478100000000001
214588.0,51.747199999999999,-6889.4399999999996,-6875.2600000000002,-6833.0299999999997,-1.0164,-3.3666299999999998,4.3638700000000004
214589.0,51.048999999999999,-6106.1599999999999,-6083.4799999999996,-6061.8100000000004,18.865400000000001,0.48497800000000002,-4.5366200000000001
214590.0,84.208100000000002,-5521.96,-5500.3699999999999,-5490.0699999999997,35.835799999999999,-6.0604399999999998,-27.892700000000001
214591.0,64.728300000000004,-4993.1099999999997,-4967.8299999999999,-4967.6000000000004,30.467099999999999,-9.0080899999999993,-13.125999999999999
214592.0,55.908299999999997,-4354.9399999999996,-4312.1400000000003,-4348.1300000000001,19.3249,-11.798299999999999,0.68282600000000004
214593.0,110.20699999999999,-2760.3600000000001,-2703.8099999999999,-2788.21,10.596299999999999,-28.1051,-36.012
214594.0,118.598,-2087.3400000000001,-2042.27,-2112.2399999999998,14.194000000000001,-28.745699999999999,-49.018900000000002
214595.0,92.718000000000004,-1588.0699999999999,-1542.3299999999999,-1609.04,13.6149,-20.039000000000001,-33.392299999999999
214596.0,88.589600000000004,-1024.0699999999999,-968.25300000000004,-1049.4300000000001,8.4084000000000003,-16.911799999999999,-23.120699999999999
214597.0,111.733,-443.64800000000002,-403.09199999999998,-477.48000000000002,10.502599999999999,-27.2547,-43.831400000000002
214598.0,133.84,1.7817400000000001,4.7968099999999998,9.8104899999999997,8.4263899999999996,-34.603400000000001,-68.455799999999996
214599.0,84.163499999999999,24.684000000000001,1.15106,47.0197,-4.4252500000000001,-22.8828,-35.942399999999999
214600.0,52.299799999999998,37.172800000000002,10.197800000000001,54.253900000000002,-9.4381199999999996,-10.369899999999999,-14.891299999999999
214601.0,48.390700000000002,37.907600000000002,11.105600000000001,53.426900000000003,-9.7612000000000005,-8.4546500000000009,-12.4664
214602.0,76.771799999999999,27.968,4.0813800000000002,49.741799999999998,-5.0855499999999996,-20.353300000000001,-31.669
214603.0,122.79300000000001,4.1878000000000002,0.62894399999999995,21.138400000000001,3.5741999999999998,-35.390900000000002,-60.337499999999999
214604.0,132.90299999999999,-49.994199999999999,-35.690899999999999,-46.726599999999998,9.4789300000000001,-37.162700000000001,-66.035300000000007
214605.0,146.631,10.3421,3.0278399999999999,27.1191,7.2452100000000002,-40.1068,-73.166399999999996
214606.0,117.68300000000001,7.5420699999999998,2.2389199999999998,24.6311,1.1489499999999999,-35.452500000000001,-56.756399999999999
214607.0,112.027,12.0463,1.30271,29.461500000000001,-1.17302,-34.471899999999998,-52.8367
214608.0,111.096,11.933199999999999,-5.5000200000000001,31.014500000000002,-2.34537,-32.775599999999997,-51.9696
214609.0,106.06999999999999,14.119199999999999,-7.6924299999999999,35.651299999999999,-3.0836100000000002,-29.813099999999999,-48.808700000000002
214610.0,96.616,19.048200000000001,-4.5320499999999999,41.8489,-3.73658,-26.334700000000002,-43.199800000000003
214611.0,70.089699999999993,31.4541,7.5824199999999999,52.954099999999997,-5.6086,-17.863700000000001,-27.782
214612.0,64.333200000000005,33.689,9.61965,54.394599999999997,-6.2270599999999998,-15.8325,-24.248799999999999
214613.0,58.847999999999999,36.137,11.3957,55.3309,-6.9886499999999998,-13.736000000000001,-20.7774
214614.0,55.725000000000001,35.465600000000002,9.1071100000000005,53.536499999999997,-7.6424700000000003,-12.1546,-18.1586
214615.0,54.732700000000001,36.054600000000001,8.9102399999999999,53.622300000000003,-8.5825200000000006,-11.4931,-16.893000000000001
214616.0,47.076099999999997,38.827500000000001,10.471500000000001,52.947699999999998,-10.465400000000001,-7.2116499999999997,-10.452
214617.0,46.068100000000001,38.7425,9.5290099999999995,50.641399999999997,-11.3756,-6.3365600000000004,-9.5040600000000008
214618.0,48.892699999999998,40.206099999999999,8.0629200000000001,52.308599999999998,-13.0282,-5.8938199999999998,-8.3349299999999999
214619.0,40.921500000000002,39.822099999999999,11.7918,47.4876,-13.165699999999999,-2.8673199999999999,-4.8502099999999997
214620.0,25.4208,63.526899999999998,41.9221,59.655799999999999,-8.62791,1.45539,-2.4781599999999999
214621.0,144.12799999999999,-10.363899999999999,-4.6003999999999996,4.3286800000000003,8.0663099999999996,-36.353700000000003,-74.046499999999995
214622.0,83.584100000000007,21.748000000000001,3.2389600000000001,50.220199999999998,-4.5603199999999999,-21.0246,-36.136600000000001
214623.0,54.174799999999998,38.521799999999999,10.733599999999999,57.015799999999999,-10.753299999999999,-9.6196900000000003,-15.080500000000001
214624.0,49.609099999999998,38.303199999999997,11.409000000000001,54.275300000000001,-11.038,-8.2547099999999993,-12.690799999999999
214625.0,77.012100000000004,25.577300000000001,5.6606399999999999,52.686100000000003,-5.2868899999999996,-18.888500000000001,-32.172499999999999
214626.0,129.60400000000001,0.096632399999999993,-0.97672400000000004,23.2331,4.2779999999999996,-35.005600000000001,-64.5625
214627.0,139.965,-68.222099999999998,-43.301699999999997,-52.870600000000003,11.595800000000001,-37.247999999999998,-69.643000000000001
214628.0,157.93000000000001,-7.6737000000000002,-9.2532800000000002,19.368200000000002,7.6432099999999998,-41.5745,-79.172700000000006
214629.0,118.21599999999999,3.0897399999999999,1.21363,28.939800000000002,2.4754800000000001,-32.5672,-57.892299999999999
214630.0,109.208,6.5544900000000004,1.8667800000000001,35.282600000000002,-0.037956900000000002,-30.2925,-52.253999999999998
214631.0,107.95099999999999,6.1625699999999997,-2.4691399999999999,36.077800000000003,-2.4234800000000001,-29.309999999999999,-51.091000000000001
214632.0,103.363,11.846,-1.99396,41.555399999999999,-3.2270500000000002,-27.571899999999999,-47.911799999999999
214633.0,93.208600000000004,16.276399999999999,-0.72487000000000001,45.521500000000003,-3.90076,-24.268599999999999,-41.768300000000004
214634.0,71.627600000000001,28.7288,6.9313599999999997,54.219099999999997,-5.9243699999999997,-17.243600000000001,-28.5931
214635.0,66.860100000000003,31.273399999999999,7.4502300000000004,55.476100000000002,-6.1865300000000003,-15.398400000000001,-25.260100000000001
214636.0,62.466500000000003,33.4313,7.1685999999999996,55.850499999999997,-6.6431500000000003,-13.5116,-21.915299999999998
214637.0,58.663200000000003,37.502299999999998,10.0588,58.0107,-7.8940099999999997,-12.010199999999999,-19.018699999999999
214638.0,56.887700000000002,36.499200000000002,8.7862600000000004,55.7652,-9.2547300000000003,-10.971,-17.748899999999999
214639.0,47.398899999999998,44.462200000000003,16.9757,59.122999999999998,-11.460699999999999,-7.12059,-10.441599999999999
214640.0,46.339599999999997,36.665999999999997,8.6227900000000002,49.764800000000001,-12.315300000000001,-5.9659300000000002,-9.3140300000000007
214641.0,49.010800000000003,46.424300000000002,15.835599999999999,59.643799999999999,-14.026300000000001,-5.4660000000000002,-8.3153500000000005
214642.0,42.737499999999997,34.142000000000003,6.6674600000000002,42.445399999999999,-15.006399999999999,-2.75528,-5.0405300000000004
214643.0,29.1435,64.420699999999997,40.290599999999998,59.348100000000002,-10.513299999999999,1.39219,-2.9636300000000002
214644.0,143.11799999999999,-9.2167700000000004,2.0309400000000002,12.341900000000001,5.3448200000000003,-32.735500000000002,-74.907799999999995
214645.0,80.707700000000003,22.209900000000001,7.7405299999999997,53.762999999999998,-5.57768,-18.378599999999999,-35.334499999999998
214646.0,56.367100000000001,38.587200000000003,10.123100000000001,58.769500000000001,-11.670299999999999,-8.7804099999999998,-15.762499999999999
214647.0,52.3292,39.219499999999996,11.5451,57.222099999999998,-12.0022,-7.6627200000000002,-13.439399999999999
214648.0,76.898499999999999,25.635300000000001,8.3767999999999994,55.803199999999997,-5.7599299999999998,-16.882000000000001,-32.813699999999997
214649.0,128.09100000000001,-1.86602,2.7381700000000002,28.293800000000001,2.61259,-29.815200000000001,-65.645399999999995
214650.0,146.941,-72.307199999999995,-42.7042,-50.247900000000001,9.5944000000000003,-35.682200000000002,-74.801699999999997
214651.0,162.79599999999999,-13.050599999999999,-9.3795900000000003,22.371300000000002,4.5012100000000004,-38.8277,-83.228499999999997
214652.0,118.43899999999999,0.68774599999999997,2.3953099999999998,33.213700000000003,1.53687,-27.6736,-59.7714
214653.0,111.083,3.1053199999999999,0.45862999999999998,37.728700000000003,-1.2097899999999999,-26.727,-54.450499999999998
214654.0,107.571,6.7572299999999998,1.3526,41.859200000000001,-3.6560999999999999,-25.860600000000002,-51.878500000000003
214655.0,99.797799999999995,12.012,3.7288399999999999,46.9803,-4.5928000000000004,-23.6037,-47.059800000000003
214656.0,88.087599999999995,18.2258,6.93743,51.778799999999997,-5.1028200000000004,-20.568000000000001,-39.917400000000001
214657.0,72.560100000000006,28.123000000000001,8.2129799999999999,57.507300000000001,-6.5248100000000004,-15.041600000000001,-29.516200000000001
214658.0,68.423699999999997,31.005299999999998,8.1121300000000005,58.754899999999999,-7.4707499999999998,-12.903600000000001,-26.365600000000001
214659.0,65.272300000000001,33.701300000000003,8.0088299999999997,59.1586,-7.9575300000000002,-11.327999999999999,-23.967300000000002
214660.0,61.305700000000002,34.212200000000003,7.0677099999999999,57.6873,-9.3304899999999993,-10.0588,-20.563400000000001
214661.0,59.040799999999997,36.663699999999999,8.6858500000000003,58.138100000000001,-10.638999999999999,-9.4471100000000003,-18.563300000000002
214662.0,49.570999999999998,41.905200000000001,13.5443,58.137999999999998,-12.416700000000001,-6.3177000000000003,-10.751799999999999
214663.0,47.724499999999999,41.534599999999998,12.4361,54.420900000000003,-13.4557,-5.1039599999999998,-9.4615500000000008
214664.0,51.394100000000002,45.947000000000003,13.767799999999999,58.4221,-15.9742,-4.5821100000000001,-8.5687300000000004
214665.0,46.022199999999998,42.128999999999998,12.8889,49.7181,-17.2196,-2.2246299999999999,-5.1371599999999997
214666.0,31.193300000000001,71.367900000000006,45.369,64.621300000000005,-11.5763,1.0686599999999999,-2.6774
214667.0,134.779,-7.2231500000000004,7.5883500000000002,18.326699999999999,3.6951800000000001,-27.6707,-71.492699999999999
214668.0,79.0595,24.306100000000001,12.1653,57.6999,-6.4543999999999997,-15.477600000000001,-35.302399999999999
214669.0,58.410899999999998,39.206499999999998,10.34,61.262799999999999,-12.3043,-7.5084,-16.654199999999999
214670.0,56.000100000000003,39.265799999999999,9.0023,58.086100000000002,-13.689500000000001,-6.0660800000000004,-14.419499999999999
214671.0,76.838399999999993,27.078099999999999,11.535,59.0854,-7.8592599999999999,-14.233499999999999,-33.404200000000003
214672.0,120.914,3.69232,9.3059700000000003,35.087800000000001,0.74733899999999998,-24.250399999999999,-63.2804
214673.0,151.66399999999999,-73.112300000000005,-45.533299999999997,-49.604199999999999,6.00617,-32.042499999999997,-79.892899999999997
214674.0,158.74100000000001,-8.9720899999999997,-0.827179,29.823,1.91048,-33.333599999999997,-82.863200000000006
214675.0,118.447,1.67093,2.3601200000000002,34.360700000000001,-0.0721382,-23.169,-61.570599999999999
214676.0,114.018,2.27156,-1.59642,38.459699999999998,-1.84613,-23.099,-57.517299999999999
214677.0,107.57899999999999,6.0235300000000001,-0.0044566099999999997,43.214500000000001,-3.7555299999999998,-22.299600000000002,-52.9009
214678.0,96.335499999999996,14.819100000000001,7.0613400000000004,51.195099999999996,-4.7249499999999998,-19.715699999999998,-46.122399999999999
214679.0,84.548199999999994,20.940100000000001,11.286099999999999,55.713099999999997,-5.1965700000000004,-16.961099999999998,-39.014000000000003
214680.0,73.668599999999998,28.4574,8.6273099999999996,58.849299999999999,-8.8944100000000006,-12.7082,-30.472100000000001
214681.0,70.509900000000002,30.5838,7.4591000000000003,59.114699999999999,-9.7658100000000001,-11.6799,-27.4939
214682.0,66.970200000000006,32.952599999999997,8.1855799999999999,59.738199999999999,-9.9773399999999999,-10.9504,-24.714099999999998
214683.0,62.268999999999998,36.322899999999997,10.652699999999999,61.803600000000003,-10.2247,-9.8776899999999994,-20.886700000000001
214684.0,59.367600000000003,36.0227,9.3177199999999996,59.710500000000003,-10.9871,-8.7650600000000001,-18.484500000000001
214685.0,54.117100000000001,46.907899999999998,15.277799999999999,63.1736,-14.853899999999999,-5.0041700000000002,-11.7204
214686.0,51.613900000000001,40.451099999999997,9.2182399999999998,53.688699999999997,-15.472799999999999,-4.6863799999999998,-10.2585
214687.0,55.128900000000002,49.995399999999997,15.9796,63.930599999999998,-17.7087,-4.6455399999999996,-8.3342700000000001
214688.0,49.488100000000003,36.265799999999999,5.7012499999999999,44.590499999999999,-19.0974,-2.5427399999999998,-5.0863899999999997
214689.0,32.875799999999998,71.679599999999994,44.465800000000002,63.755899999999997,-12.6252,0.52616700000000005,-2.1651600000000002
214690.0,128.80600000000001,-1.4643299999999999,16.259,26.773199999999999,1.5137100000000001,-22.587,-69.384399999999999
214691.0,81.785200000000003,23.659300000000002,11.037000000000001,58.257800000000003,-8.2853700000000003,-13.484400000000001,-37.1676
214692.0,60.3078,39.302900000000001,10.0802,61.851199999999999,-14.220599999999999,-6.5903799999999997,-17.114799999999999
214693.0,58.335599999999999,42.123600000000003,10.198399999999999,60.728700000000003,-15.0763,-5.9087300000000003,-14.7995
214694.0,78.733500000000006,25.9556,9.7584700000000009,59.211399999999998,-9.8354499999999998,-12.8142,-34.2014
214695.0,117.375,4.1519300000000001,11.6233,37.234699999999997,-0.47920299999999999,-20.688099999999999,-62.153199999999998
214696.0,154.74000000000001,-62.995600000000003,-36.3613,-38.848399999999998,1.71143,-27.390699999999999,-83.736900000000006
214697.0,152.80000000000001,-3.3012299999999999,8.4589400000000001,36.305900000000001,-1.3223199999999999,-26.684000000000001,-81.578800000000001
214698.0,116.937,4.9370700000000003,5.79976,37.731999999999999,-2.2829999999999999,-19.9191,-61.699399999999997
214699.0,114.16,6.5551000000000004,2.04915,41.868899999999996,-4.5095200000000002,-18.723500000000001,-59.142200000000003
214700.0,109.045,10.5097,3.7722799999999999,47.708799999999997,-5.9393700000000003,-18.0395,-55.1633
214701.0,95.894900000000007,16.738,8.95167,53.779699999999998,-6.3931100000000001,-16.258099999999999,-46.758600000000001
214702.0,85.338200000000001,21.5503,12.1073,57.150199999999998,-6.8517000000000001,-14.3347,-40.1357
214703.0,75.670000000000002,28.676200000000001,9.3991199999999999,60.676099999999998,-10.4344,-12.202,-31.305900000000001
214704.0,72.811400000000006,30.304400000000001,9.0999700000000008,61.954099999999997,-10.769,-11.436,-28.512
214705.0,69.241500000000002,32.127699999999997,9.6739300000000004,63.205100000000002,-11.0977,-10.2182,-25.455100000000002
214706.0,64.621099999999998,33.092500000000001,9.5433299999999992,62.4602,-11.7271,-8.7195800000000006,-21.806799999999999
214707.0,60.505499999999998,37.3429,11.972,63.098500000000001,-12.712300000000001,-7.3959200000000003,-18.722000000000001
214708.0,56.773099999999999,44.7226,10.8155,60.8979,-16.020600000000002,-5.0320799999999997,-11.796099999999999
214709.0,55.161099999999998,44.537300000000002,10.306100000000001,58.039299999999997,-16.6355,-4.1541199999999998,-10.7158
214710.0,58.698099999999997,46.922199999999997,9.5567499999999992,61.604199999999999,-18.511900000000001,-3.5817600000000001,-8.5355000000000008
214711.0,52.966999999999999,44.188200000000002,10.3056,52.829599999999999,-19.918800000000001,-2.2450600000000001,-5.3106499999999999
214712.0,35.387999999999998,78.367400000000004,48.279800000000002,69.550799999999995,-13.265000000000001,-0.060393099999999998,-1.4940899999999999
214713.0,127.452,-0.36306500000000003,17.829499999999999,26.417200000000001,-1.5191300000000001,-18.664400000000001,-69.835400000000007
214714.0,86.144000000000005,22.671299999999999,9.7744400000000002,59.767200000000003,-9.8527699999999996,-11.7356,-39.5623
214715.0,61.256100000000004,40.585099999999997,13.2745,65.885099999999994,-15.0251,-6.1182999999999996,-17.183599999999998
214716.0,57.3992,40.039900000000003,11.3262,61.654400000000003,-15.0525,-5.3198999999999996,-14.349600000000001
214717.0,81.957099999999997,24.934799999999999,9.5394000000000005,61.391399999999997,-11.006,-10.9633,-35.8962
214718.0,118.92700000000001,6.7504200000000001,16.445799999999998,41.141800000000003,-2.6181700000000001,-17.272400000000001,-63.991500000000002
214719.0,152.459,-64.728300000000004,-38.043100000000003,-41.075200000000002,-1.2563599999999999,-24.9069,-83.141599999999997
214720.0,149.25800000000001,0.53883499999999995,10.7088,39.171100000000003,-3.9563600000000001,-22.113099999999999,-80.748500000000007
214721.0,116.691,3.7075,8.1821199999999994,39.782600000000002,-3.8166899999999999,-17.360199999999999,-61.938000000000002
214722.0,113.879,4.6573700000000002,2.8719199999999998,42.434100000000001,-5.7426500000000003,-16.828600000000002,-59.222900000000003
214723.0,112.358,7.27325,1.7659800000000001,46.270800000000001,-7.5541999999999998,-15.957000000000001,-57.513300000000001
214724.0,100.878,14.6653,6.8769200000000001,53.943399999999997,-8.31006,-14.0082,-49.9039
214725.0,90.413899999999998,19.889099999999999,10.090199999999999,57.897300000000001,-8.8156400000000001,-12.5404,-43.037399999999998
214726.0,79.062200000000004,26.287099999999999,9.5424900000000008,62.752200000000002,-11.9373,-10.4145,-33.0518
214727.0,76.806799999999996,26.314599999999999,8.1215299999999999,63.199199999999998,-12.8361,-9.6149199999999997,-30.3598
214728.0,73.537300000000002,27.434999999999999,6.8061699999999998,63.073799999999999,-13.649900000000001,-8.4525799999999993,-27.1021
214729.0,68.095299999999995,33.256999999999998,9.8189899999999994,65.3673,-14.289099999999999,-6.9320199999999996,-22.7102
214730.0,63.389699999999998,35.762700000000002,10.360099999999999,63.466099999999997,-14.5298,-6.2364300000000004,-19.593499999999999
214731.0,56.543100000000003,49.549900000000001,16.674499999999998,67.444699999999997,-15.7187,-4.2029699999999997,-11.741400000000001
214732.0,57.598300000000002,42.5017,5.9757600000000002,56.204300000000003,-17.456499999999998,-3.7444799999999998,-10.6287
214733.0,62.976599999999998,54.332500000000003,13.0931,68.664000000000001,-19.884599999999999,-3.4744000000000002,-9.0653799999999993
214734.0,56.7151,38.511299999999999,0.80211699999999997,46.958500000000001,-20.8612,-2.1217000000000001,-5.3434400000000002
214735.0,38.002200000000002,77.2119,43.985799999999998,67.960499999999996,-13.628500000000001,-0.58052400000000004,-1.12124
214736.0,132.56100000000001,-1.8732800000000001,20.299600000000002,25.452400000000001,-5.7226600000000003,-17.071899999999999,-72.955299999999994
214737.0,92.442099999999996,16.743099999999998,6.4672200000000002,59.196599999999997,-12.404199999999999,-9.5613399999999995,-42.683100000000003
214738.0,61.3142,38.201900000000002,13.1241,66.227599999999995,-15.3409,-3.8768199999999999,-17.235199999999999
214739.0,57.459600000000002,41.555999999999997,14.505800000000001,65.175899999999999,-15.5121,-3.1556999999999999,-14.3912
214740.0,85.7864,20.159500000000001,7.99064,61.3247,-13.211600000000001,-8.6752500000000001,-37.710799999999999
214741.0,125.694,1.1775899999999999,15.8215,39.472700000000003,-7.19008,-15.161199999999999,-67.906899999999993
214742.0,145.75200000000001,-71.347300000000004,-39.169400000000003,-45.499299999999998,-5.0182399999999996,-21.142499999999998,-79.488600000000005
214743.0,150.84999999999999,2.91812,14.340299999999999,44.493600000000001,-8.4095399999999998,-18.677700000000002,-81.879499999999993
214744.0,120.58,-1.8860300000000001,10.336399999999999,40.555999999999997,-7.2018000000000004,-14.1944,-64.154600000000002
214745.0,116.33499999999999,0.162188,6.9037300000000004,45.463099999999997,-8.3480899999999991,-13.551600000000001,-60.502600000000001
214746.0,114.599,3.0216400000000001,3.7956599999999998,48.0991,-9.9739299999999993,-13.0227,-58.674500000000002
214747.0,107.441,7.36463,2.38375,51.2286,-11.007899999999999,-11.2493,-53.643999999999998
214748.0,99.773300000000006,12.768599999999999,4.3884100000000004,55.763399999999997,-11.7692,-10.123100000000001,-48.140900000000002
214749.0,82.910899999999998,22.227599999999999,7.13164,62.323500000000003,-14.7597,-7.7460399999999998,-34.640099999999997
214750.0,81.319500000000005,24.179500000000001,6.0658799999999999,63.499299999999998,-16.046299999999999,-6.9859600000000004,-32.185000000000002
214751.0,77.225999999999999,28.246200000000002,7.4264400000000004,65.932100000000005,-15.8695,-6.3637199999999998,-28.568899999999999
214752.0,70.515900000000002,31.011600000000001,7.8787200000000004,65.6905,-15.244999999999999,-5.6261299999999999,-23.383199999999999
214753.0,65.426000000000002,35.229300000000002,11.503,66.333100000000002,-15.2597,-5.0059500000000003,-20.317900000000002
214754.0,57.349600000000002,45.655000000000001,13.968299999999999,65.890699999999995,-15.9765,-3.06854,-12.114100000000001
214755.0,57.824599999999997,45.144399999999997,9.5423799999999996,61.077199999999998,-17.3748,-3.1330200000000001,-10.3277
214756.0,64.873199999999997,49.345999999999997,7.4564599999999999,65.386200000000002,-20.336500000000001,-2.9386899999999998,-9.2729700000000008
214757.0,58.735599999999998,46.506599999999999,6.8825900000000004,55.561399999999999,-21.209199999999999,-2.0462400000000001,-5.06569
214758.0,39.305799999999998,84.029700000000005,49.192500000000003,75.109800000000007,-13.589600000000001,-1.5064200000000001,-0.74362099999999998
214759.0,138.637,-12.1639,16.856300000000001,20.687100000000001,-9.9571100000000001,-17.557600000000001,-75.343500000000006
214760.0,98.408900000000003,13.645200000000001,3.1653799999999999,58.704099999999997,-13.863300000000001,-6.9994399999999999,-46.0015
214761.0,62.099600000000002,40.630899999999997,15.523300000000001,69.892200000000003,-16.072500000000002,-2.3448699999999998,-16.768899999999999
214762.0,58.427500000000002,41.377800000000001,13.6835,65.196100000000001,-15.9762,-2.00265,-14.630100000000001
214763.0,89.641499999999994,20.467600000000001,7.3895299999999997,63.158799999999999,-14.1838,-6.1108000000000002,-39.866999999999997
214764.0,129.261,-5.2072399999999996,13.7639,37.128900000000002,-10.7873,-13.760899999999999,-69.383300000000006
214765.0,140.16900000000001,-79.544399999999996,-35.991,-46.098599999999998,-8.8487799999999996,-18.802800000000001,-74.817599999999999
214766.0,155.31800000000001,-7.0327000000000002,12.9451,41.601100000000002,-13.993600000000001,-17.3126,-83.354900000000001
214767.0,123.3,-5.1578299999999997,9.9181600000000003,39.103700000000003,-10.0831,-11.452999999999999,-65.790800000000004
214768.0,118.899,-1.98692,7.73848,44.902999999999999,-10.801500000000001,-10.0444,-62.308399999999999
214769.0,115.648,0.160994,4.2949900000000003,47.8459,-12.1058,-9.8008900000000008,-59.309600000000003
214770.0,109.92700000000001,5.1380699999999999,3.10229,52.183999999999997,-12.9414,-9.2954500000000007,-54.799799999999998
214771.0,105.764,8.1179000000000006,0.968194,54.4101,-13.533899999999999,-8.3703500000000002,-51.32
214772.0,85.924099999999996,22.111999999999998,5.4273800000000003,63.224699999999999,-15.422000000000001,-5.9923700000000002,-36.088500000000003
214773.0,83.547899999999998,25.171399999999998,5.0909300000000002,64.899900000000002,-16.7681,-5.5529500000000001,-32.989400000000003
214774.0,78.986599999999996,26.919499999999999,4.7927600000000004,64.752300000000005,-16.9056,-4.3212099999999998,-29.254300000000001
214775.0,74.009299999999996,31.167000000000002,8.2337100000000003,67.707999999999998,-16.3902,-3.4052699999999998,-25.4132
214776.0,68.048500000000004,33.386899999999997,10.168699999999999,67.276700000000005,-16.206099999999999,-2.9989599999999998,-21.144300000000001
214777.0,58.558700000000002,48.272399999999998,15.973599999999999,69.266000000000005,-16.258099999999999,-1.4877100000000001,-12.4833
214778.0,56.792700000000004,44.046700000000001,9.6154200000000003,60.984000000000002,-16.8019,-1.6191800000000001,-10.248200000000001
214779.0,62.021299999999997,54.7806,15.237299999999999,71.590999999999994,-19.183199999999999,-1.73739,-8.61388
214780.0,57.092799999999997,41.721800000000002,3.09335,51.652900000000002,-20.113600000000002,-1.50963,-4.6429099999999996
214781.0,39.386800000000001,78.821399999999997,43.362299999999998,71.113600000000005,-12.855600000000001,-1.8914599999999999,-0.66835199999999995
214782.0,139.71700000000001,-10.482699999999999,24.177,27.915800000000001,-13.0421,-14.279999999999999,-75.396600000000007
214783.0,101.242,13.599,3.7464200000000001,58.979700000000001,-15.9422,-3.5256799999999999,-47.772199999999998
214784.0,64.999200000000002,38.808500000000002,10.849500000000001,68.608900000000006,-16.257200000000001,-0.37392300000000001,-17.593900000000001
214785.0,58.167999999999999,45.770899999999997,16.855,68.940799999999996,-15.446199999999999,-0.87729400000000002,-14.4048
214786.0,95.9435,16.913900000000002,3.3595199999999998,61.2363,-15.976599999999999,-2.9667500000000002,-43.4512
214787.0,127.10599999999999,-2.0897299999999999,19.052399999999999,40.703400000000002,-13.830500000000001,-9.7791099999999993,-68.121399999999994
214788.0,137.768,-73.713800000000006,-22.6191,-34.551699999999997,-11.0139,-15.048500000000001,-72.556299999999993
214789.0,157.00299999999999,-11.3118,18.434100000000001,42.682200000000002,-17.168700000000001,-13.9377,-83.643900000000002
214790.0,124.40600000000001,-1.2558400000000001,14.273999999999999,40.890900000000002,-14.0442,-8.1164000000000005,-66.644900000000007
214791.0,121.366,0.67277500000000001,10.5664,45.375300000000003,-14.6264,-6.6948800000000004,-64.030100000000004
214792.0,117.33799999999999,2.3143600000000002,7.4725999999999999,49.094299999999997,-14.8246,-5.7899700000000003,-60.648400000000002
214793.0,111.816,5.3984199999999998,5.3109700000000002,53.067599999999999,-15.1347,-5.02501,-56.164499999999997
214794.0,106.925,9.2113999999999994,3.98509,56.294199999999996,-15.8309,-4.4101400000000002,-52.066000000000003
214795.0,91.919499999999999,19.6648,3.1892100000000001,63.939700000000002,-16.778199999999998,-2.76241,-39.2455
214796.0,86.287899999999993,23.211400000000001,3.7145000000000001,65.661000000000001,-17.284800000000001,-2.4387400000000001,-34.2624
214797.0,80.906499999999994,28.665700000000001,6.29915,67.827399999999997,-17.503699999999998,-2.1772499999999999,-30.014900000000001
214798.0,77.489599999999996,30.522300000000001,6.0315200000000004,67.344499999999996,-17.753299999999999,-1.5289900000000001,-27.046900000000001
214799.0,71.930499999999995,34.555599999999998,8.4316099999999992,68.595600000000005,-17.0914,-0.66890400000000005,-22.846299999999999
214800.0,56.5383,49.443199999999997,16.918099999999999,68.820099999999996,-15.3483,-0.65858300000000003,-11.902200000000001
214801.0,55.467300000000002,47.883200000000002,13.9682,64.747399999999999,-15.5379,-0.91561899999999996,-10.6966
214802.0,58.425899999999999,52.887700000000002,15.5822,70.675600000000003,-16.720300000000002,-0.58986700000000003,-8.2087199999999996
214803.0,53.780799999999999,49.189500000000002,11.85,60.163200000000003,-17.4526,-0.69044300000000003,-4.19313
214804.0,38.431800000000003,85.415599999999998,50.109099999999998,78.841200000000001,-11.56,-2.2780999999999998,-0.979217
214805.0,139.94200000000001,-16.8505,21.648299999999999,23.035900000000002,-15.7597,-8.6025899999999993,-75.452200000000005
214806.0,104.22499999999999,10.739000000000001,3.9300000000000002,58.4863,-18.1373,-0.024763400000000001,-49.073900000000002
214807.0,67.562799999999996,43.840499999999999,12.415800000000001,71.836799999999997,-16.7118,1.86825,-18.8443
214808.0,59.502400000000002,43.9664,13.6249,66.965299999999999,-15.1327,1.4679,-15.272
214809.0,101.59099999999999,12.4222,1.5942000000000001,60.198599999999999,-18.3474,0.46007999999999999,-46.1631
214810.0,128.96299999999999,-7.1459099999999998,17.140899999999998,36.415199999999999,-16.255500000000001,-5.6733000000000002,-69.071600000000004
214811.0,136.91,-70.370400000000004,-16.664300000000001,-31.126799999999999,-13.0314,-10.054399999999999,-72.145499999999998
214812.0,155.76300000000001,-11.606299999999999,22.919899999999998,41.806399999999996,-19.526700000000002,-7.5896699999999999,-83.155799999999999
214813.0,128.30500000000001,-5.8062399999999998,12.5222,37.4437,-17.185300000000002,-5.8491200000000001,-68.458799999999997
214814.0,122.997,-1.67302,9.9264600000000005,43.020600000000002,-17.428100000000001,-4.1631999999999998,-64.682199999999995
214815.0,118.11,1.4836199999999999,7.7778900000000002,46.738799999999998,-17.477699999999999,-2.2609599999999999,-61.142800000000001
214816.0,115.40000000000001,3.3733399999999998,4.6132200000000001,50.285299999999999,-18.035799999999998,-1.00593,-58.292900000000003
214817.0,110.30200000000001,6.3858699999999997,3.2676699999999999,54.496899999999997,-18.275200000000002,-0.35724,-53.819699999999997
214818.0,96.830399999999997,14.517899999999999,-0.80308599999999997,61.318800000000003,-18.122900000000001,1.38123,-41.805100000000003
214819.0,89.276499999999999,21.666399999999999,2.5232999999999999,65.250399999999999,-17.536300000000001,1.8505199999999999,-36.226599999999998
214820.0,83.795599999999993,25.2682,2.8636599999999999,65.322400000000002,-17.701899999999998,1.54677,-31.993500000000001
214821.0,80.120999999999995,32.3964,5.9218999999999999,69.123000000000005,-18.318300000000001,1.3131699999999999,-28.198399999999999
214822.0,74.693700000000007,35.3033,5.6792800000000003,67.598600000000005,-17.925799999999999,1.30054,-24.033300000000001
214823.0,54.818300000000001,55.399900000000002,24.808499999999999,75.746200000000002,-14.1867,0.97316899999999995,-11.919
214824.0,54.269300000000001,43.936,12.573700000000001,62.590800000000002,-14.960100000000001,0.50212500000000004,-10.8985
214825.0,58.575600000000001,58.206000000000003,21.309200000000001,77.123400000000004,-16.2881,1.3698399999999999,-8.41282
214826.0,53.349899999999998,41.396599999999999,3.8229299999999999,53.308,-16.170500000000001,0.50829100000000005,-4.4635100000000003
214827.0,37.526699999999998,81.511899999999997,47.418199999999999,77.027199999999993,-10.888400000000001,-2.5917300000000001,-0.97162700000000002
214828.0,144.68000000000001,-15.0364,25.410900000000002,22.6995,-18.950299999999999,-4.4177499999999998,-78.023099999999999
214829.0,108.55800000000001,8.4075199999999999,2.3951799999999999,56.536200000000001,-20.043199999999999,3.8214399999999999,-51.296700000000001
214830.0,68.712000000000003,43.327399999999997,10.9224,70.909000000000006,-16.157699999999998,3.52088,-19.9694
214831.0,62.655700000000003,43.867400000000004,12.2638,68.541499999999999,-15.100300000000001,2.1664699999999999,-16.735299999999999
214832.0,102.479,13.9476,3.0953400000000002,60.067500000000003,-19.852499999999999,4.4420999999999999,-46.601199999999999
214833.0,135.28899999999999,-8.2310599999999994,18.651800000000001,34.9574,-19.8566,-1.8036399999999999,-72.304199999999994
214834.0,136.828,-72.933000000000007,-16.597000000000001,-35.2254,-13.534599999999999,-4.3128700000000002,-72.215599999999995
214835.0,158.97499999999999,-10.4518,24.649699999999999,40.880899999999997,-21.9498,-1.51142,-85.157499999999999
214836.0,133.19999999999999,-7.4034000000000004,14.9086,37.0289,-20.426600000000001,-1.6217200000000001,-70.715500000000006
214837.0,125.373,-1.38009,13.5547,44.238799999999998,-19.886399999999998,-0.0056958900000000003,-65.597700000000003
214838.0,121.21899999999999,1.2133499999999999,10.375999999999999,47.622199999999999,-20.0244,0.802782,-62.387599999999999
214839.0,118.90300000000001,1.8888100000000001,5.6104399999999996,49.988999999999997,-20.462199999999999,1.83308,-59.7864
214840.0,114.40900000000001,4.1094200000000001,2.65449,52.841900000000003,-20.257999999999999,3.0664899999999999,-55.923000000000002
214841.0,96.613100000000003,19.761500000000002,3.66079,63.0946,-19.272200000000002,4.96896,-42.075699999999998
214842.0,90.905600000000007,23.9041,3.4620600000000001,64.643100000000004,-18.693899999999999,5.0122600000000004,-37.5488
214843.0,86.324399999999997,28.529299999999999,4.63673,66.824399999999997,-18.579599999999999,4.6864999999999997,-33.655500000000004
214844.0,82.718500000000006,30.7942,3.00278,66.848500000000001,-18.732099999999999,4.6870700000000003,-29.7182
214845.0,75.682699999999997,36.934699999999999,6.53423,68.506,-17.7425,4.44191,-24.7896
214846.0,57.366,50.521299999999997,19.4377,72.767700000000005,-14.512600000000001,2.5643799999999999,-12.7369
214847.0,55.353099999999998,47.551400000000001,15.6424,66.7072,-14.9964,2.4267300000000001,-11.184200000000001
214848.0,60.692,55.636899999999997,16.530100000000001,74.492699999999999,-16.463000000000001,2.6639499999999998,-8.6960800000000003
214849.0,55.070599999999999,49.197699999999998,10.084300000000001,61.488199999999999,-16.247900000000001,1.1916899999999999,-4.9963800000000003
214850.0,36.7622,87.673000000000002,54.467500000000001,84.819900000000004,-10.286899999999999,-2.34639,-0.70063900000000001
214851.0,158.62200000000001,-26.9514,16.841999999999999,8.8489599999999999,-22.2441,-1.2395700000000001,-85.712900000000005
214852.0,111.578,10.821999999999999,3.6028699999999998,55.231000000000002,-22.044699999999999,7.6999199999999997,-53.132199999999997
214853.0,70.131100000000004,43.702399999999997,12.129300000000001,71.859999999999999,-16.444099999999999,7.1054700000000004,-20.6312
214854.0,66.616299999999995,44.456200000000003,11.492800000000001,67.064899999999994,-17.2971,7.4100400000000004,-18.551200000000001
214855.0,103.883,16.697500000000002,4.3226100000000001,59.265300000000003,-21.040800000000001,7.8126699999999998,-47.569299999999998
214856.0,145.19900000000001,-14.635,13.8369,27.802700000000002,-23.283200000000001,2.1558999999999999,-77.543700000000001
214857.0,139.36199999999999,-85.048500000000004,-25.380500000000001,-52.703200000000002,-15.0093,3.5690499999999998,-73.100700000000003
214858.0,169.83199999999999,-16.1495,19.075500000000002,32.011099999999999,-25.558,5.0222899999999999,-91.184200000000004
214859.0,137.05199999999999,-10.8636,12.4528,31.381499999999999,-23.585000000000001,3.0228799999999998,-72.442700000000002
214860.0,130.03899999999999,-5.8955500000000001,11.043900000000001,38.043100000000003,-23.307099999999998,4.4568000000000003,-67.694500000000005
214861.0,125.41800000000001,-3.3618999999999999,8.4782299999999999,42.428600000000003,-23.042400000000001,5.2454499999999999,-64.185699999999997
214862.0,120.645,1.3043800000000001,6.4916600000000004,47.7361,-22.772300000000001,6.4187599999999998,-60.370899999999999
214863.0,116.197,5.9782200000000003,4.5445200000000003,51.596299999999999,-22.432400000000001,7.2920199999999999,-56.815800000000003
214864.0,97.621499999999997,20.6159,3.5239099999999999,61.154400000000003,-20.437899999999999,7.6875299999999998,-42.704999999999998
214865.0,92.777600000000007,25.317299999999999,3.8994599999999999,63.7395,-20.121500000000001,7.5754000000000001,-38.5702
214866.0,88.532399999999996,27.566500000000001,2.8070499999999998,64.419300000000007,-19.8428,7.3223200000000004,-34.700200000000002
214867.0,85.290800000000004,31.8873,4.5265399999999998,68.350899999999996,-19.512799999999999,6.9108400000000003,-31.1614
214868.0,76.556799999999996,34.226900000000001,5.8073499999999996,67.7072,-17.503299999999999,6.3039899999999998,-25.446300000000001
214869.0,62.018599999999999,56.007300000000001,21.406199999999998,76.187700000000007,-16.327500000000001,6.0739900000000002,-14.527100000000001
214870.0,58.930199999999999,45.916499999999999,9.6076499999999996,63.933900000000001,-15.2735,3.6444000000000001,-12.054500000000001
214871.0,64.127700000000004,61.357700000000001,18.722000000000001,80.040999999999997,-16.652000000000001,3.6619799999999998,-9.6059099999999997
214872.0,56.969099999999997,41.863100000000003,1.3443099999999999,54.883699999999997,-16.479700000000001,2.2316600000000002,-5.0632999999999999
214873.0,36.034399999999998,84.363799999999998,51.895099999999999,82.579800000000006,-9.7135400000000001,-2.1828099999999999,-0.74103200000000002
214874.0,174.67400000000001,-30.034099999999999,17.802700000000002,0.61563299999999999,-28.558399999999999,2.19651,-93.609700000000004
214875.0,114.27200000000001,11.7454,4.2030200000000004,51.788800000000002,-24.801500000000001,11.666399999999999,-54.2898
214876.0,74.159999999999997,38.870800000000003,8.9713100000000008,69.345699999999994,-18.051600000000001,8.2364700000000006,-22.983599999999999
214877.0,68.651300000000006,40.218000000000004,9.90822,69.803299999999993,-16.275300000000001,5.5972499999999998,-19.439299999999999
214878.0,108.491,15.111000000000001,2.5722700000000001,54.780099999999997,-23.780100000000001,12.0259,-49.704500000000003
214879.0,157.25399999999999,-18.893000000000001,10.6226,19.911999999999999,-27.7364,7.0070499999999996,-83.749600000000001
214880.0,141.65199999999999,-95.074600000000004,-33.729900000000001,-68.366399999999999,-15.302099999999999,7.9867800000000004,-73.786799999999999
214881.0,182.99100000000001,-20.028099999999998,13.712999999999999,23.246200000000002,-31.265000000000001,10.2622,-97.785899999999998
214882.0,144.56800000000001,-12.497299999999999,11.3847,27.485700000000001,-26.401299999999999,7.3613299999999997,-76.228099999999998
214883.0,136.45400000000001,-4.6297199999999998,12.629200000000001,36.775500000000001,-26.295300000000001,8.5601599999999998,-70.776200000000003
214884.0,128.18700000000001,2.2109299999999998,13.842700000000001,43.064999999999998,-25.730599999999999,9.7694799999999997,-65.396699999999996
214885.0,122.133,5.16934,9.7694200000000002,45.965600000000002,-25.336200000000002,10.908300000000001,-60.926200000000001
214886.0,117.492,7.3138899999999998,5.1866399999999997,47.726199999999999,-24.946000000000002,11.428900000000001,-57.218499999999999
214887.0,101.953,19.9636,2.9106900000000002,58.798200000000001,-22.494199999999999,11.940200000000001,-44.674900000000001
214888.0,96.681899999999999,23.617799999999999,2.7998799999999999,61.475200000000001,-21.6144,11.4857,-40.395499999999998
214889.0,92.512500000000003,27.906600000000001,3.7245300000000001,64.908199999999994,-21.148299999999999,11.1752,-36.485199999999999
214890.0,88.052099999999996,30.2346,3.0114299999999998,65.288899999999998,-20.677600000000002,10.8193,-32.634900000000002
214891.0,78.224000000000004,36.777700000000003,6.8054100000000002,67.604399999999998,-18.5504,10.386200000000001,-25.758199999999999
214892.0,65.698499999999996,47.484200000000001,8.7048100000000002,71.299800000000005,-14.599,5.9327399999999999,-13.8652
214893.0,64.455699999999993,52.5139,12.213900000000001,69.999200000000002,-16.862500000000001,4.5475300000000001,-14.200699999999999
214894.0,67.130399999999995,56.606499999999997,10.946400000000001,73.900099999999995,-17.621400000000001,4.9389500000000002,-10.459899999999999
214895.0,59.665100000000002,51.903100000000002,9.0426800000000007,64.889300000000006,-17.2727,3.3079999999999998,-4.8239299999999998
214896.0,37.521000000000001,88.141199999999998,55.262500000000003,87.866200000000006,-10.346500000000001,-2.0840399999999999,-0.73118300000000003
214897.0,184.51499999999999,-35.853299999999997,14.634499999999999,-12.370900000000001,-35.142699999999998,3.8811800000000001,-97.263999999999996
214898.0,119.095,8.7125800000000009,2.6328800000000001,47.909300000000002,-27.228000000000002,15.619899999999999,-56.023600000000002
214899.0,79.969999999999999,42.3902,11.3818,69.780600000000007,-20.316500000000001,10.314,-27.548100000000002
214900.0,69.388300000000001,39.258400000000002,4.1990100000000004,62.054000000000002,-17.199000000000002,8.5191599999999994,-19.677299999999999
214901.0,112.986,13.510199999999999,1.8182,51.648600000000002,-25.9163,15.991199999999999,-51.466999999999999
214902.0,167.38999999999999,-20.161999999999999,9.4525000000000006,10.9397,-34.040199999999999,10.843,-88.066500000000005
214903.0,144.83699999999999,-109.754,-50.768999999999998,-93.227199999999996,-18.125599999999999,10.109,-75.073400000000007
214904.0,194.19900000000001,-18.0669,11.9397,19.074300000000001,-39.205100000000002,13.680300000000001,-102.267
214905.0,154.19999999999999,-18.2606,5.8540999999999999,15.333399999999999,-32.100499999999997,12.387600000000001,-80.261799999999994
214906.0,143.23699999999999,-10.0192,7.1164199999999997,25.921199999999999,-30.450299999999999,13.8325,-73.465999999999994
214907.0,134.041,-2.85514,9.3005099999999992,33.780700000000003,-28.872900000000001,14.176500000000001,-67.868600000000001
214908.0,127.58199999999999,2.24946,7.91472,39.982199999999999,-28.026299999999999,14.9185,-63.2744
214909.0,122.935,6.47715,5.8941499999999998,45.2224,-27.557500000000001,15.42,-59.434100000000001
214910.0,106.997,17.472899999999999,0.98938199999999998,54.419699999999999,-24.449000000000002,16.209399999999999,-46.978700000000003
214911.0,101.896,21.991,1.6390199999999999,58.110300000000002,-23.475899999999999,16.0684,-42.820900000000002
214912.0,97.630799999999994,23.7577,-0.60391600000000001,58.780900000000003,-22.994399999999999,15.839399999999999,-38.813899999999997
214913.0,90.794700000000006,32.216500000000003,3.5570400000000002,64.303600000000003,-21.5745,15.526300000000001,-33.4343
214914.0,81.886600000000001,34.575099999999999,2.5123099999999998,63.334699999999998,-19.333100000000002,14.256500000000001,-27.0624
214915.0,68.880700000000004,52.597700000000003,8.1352100000000007,72.650000000000006,-15.681800000000001,9.38917,-12.5398
214916.0,69.677599999999998,50.442500000000003,8.1751699999999996,68.418800000000005,-18.895499999999998,6.3397500000000004,-16.266400000000001
214917.0,68.390799999999999,59.9056,12.827199999999999,76.286500000000004,-17.654499999999999,6.13748,-11.155799999999999
214918.0,62.031799999999997,50.375999999999998,4.0603699999999998,62.369799999999998,-16.996300000000002,3.6869000000000001,-5.6583800000000002
214919.0,43.991199999999999,79.868600000000001,41.515599999999999,80.924300000000002,-11.6151,-2.0859100000000002,-1.27566
214920.0,192.411,-35.454300000000003,18.575199999999999,-16.503,-41.820399999999999,5.0639000000000003,-99.0685
214921.0,125.797,7.1436000000000002,1.17693,42.222299999999997,-30.248100000000001,20.929400000000001,-58.567599999999999
214922.0,83.198899999999995,39.619599999999998,3.7658399999999999,60.1083,-20.658100000000001,15.6815,-28.66
214923.0,75.837199999999996,44.679499999999997,3.7589000000000001,59.626199999999997,-19.254799999999999,15.987299999999999,-21.312999999999999
214924.0,118.55800000000001,12.985099999999999,1.2227399999999999,47.237099999999998,-28.774000000000001,20.898,-53.377600000000001
214925.0,175.839,-22.8765,8.7265099999999993,3.5247999999999999,-40.232599999999998,13.0556,-90.720600000000005
214926.0,153.53200000000001,-116.419,-57.557899999999997,-108.76300000000001,-24.8782,10.930999999999999,-78.069000000000003
214927.0,204.33099999999999,-18.7241,10.807600000000001,10.7582,-48.596600000000002,16.625800000000002,-104.828
214928.0,162.39599999999999,-18.3033,6.1688200000000002,10.0885,-37.389000000000003,15.2014,-83.217100000000002
214929.0,149.81299999999999,-7.5367199999999999,9.2376400000000007,22.773900000000001,-35.132399999999997,17.3383,-75.603499999999997
214930.0,141.47499999999999,-2.4845799999999998,10.166600000000001,29.3508,-33.735100000000003,18.2105,-70.321299999999994
214931.0,134.548,0.69750800000000002,7.8016800000000002,34.369199999999999,-32.252099999999999,19.526299999999999,-65.558400000000006
214932.0,130.15700000000001,1.3435600000000001,2.0259100000000001,36.203800000000001,-31.123699999999999,20.5337,-62.123399999999997
214933.0,111.47,17.715499999999999,0.946183,50.367199999999997,-27.216699999999999,20.6968,-48.385199999999998
214934.0,106.29900000000001,22.289999999999999,1.19381,53.500599999999999,-26.074000000000002,20.321899999999999,-44.510300000000001
214935.0,101.569,27.479099999999999,1.6107499999999999,57.743699999999997,-24.797699999999999,19.831299999999999,-40.5122
214936.0,93.944199999999995,30.497699999999998,-0.45724599999999999,59.313000000000002,-22.199400000000001,18.8355,-34.651800000000001
214937.0,86.873599999999996,39.0715,5.9653499999999999,65.230500000000006,-20.397500000000001,16.591100000000001,-30.695900000000002
214938.0,73.798199999999994,48.983499999999999,5.09138,65.942300000000003,-19.1069,13.722799999999999,-16.608499999999999
214939.0,71.784300000000002,51.215899999999998,7.5946699999999998,69.427599999999998,-18.975899999999999,9.49695,-16.054600000000001
214940.0,71.786299999999997,55.251800000000003,6.4568399999999997,72.021000000000001,-18.2591,8.7412899999999993,-12.158099999999999
214941.0,64.327500000000001,58.455500000000001,9.6879200000000001,70.082599999999999,-16.456099999999999,5.6145199999999997,-7.0840500000000004
214942.0,47.5351,83.070099999999996,41.4131,85.376000000000005,-11.551399999999999,-1.3324199999999999,-2.3999999999999999
214943.0,202.46100000000001,-46.401000000000003,14.924799999999999,-27.518799999999999,-50.000900000000001,7.62127,-100.592
214944.0,132.643,6.7644000000000002,0.201242,34.432400000000001,-34.448900000000002,25.908799999999999,-60.635800000000003
214945.0,86.272499999999994,42.960099999999997,4.2460300000000002,62.5381,-20.312799999999999,19.090299999999999,-28.7041
214946.0,82.607799999999997,41.146099999999997,0.82394699999999998,63.4527,-19.022099999999998,16.955400000000001,-24.853999999999999
214947.0,125.79900000000001,10.857200000000001,-2.1218400000000002,38.4557,-32.253799999999998,26.206700000000001,-55.844700000000003
214948.0,184.339,-29.075500000000002,7.4007100000000001,-5.1613100000000003,-46.800199999999997,17.1065,-92.199299999999994
214949.0,162.67599999999999,-125.53100000000001,-60.206099999999999,-117.408,-32.356999999999999,11.5105,-79.838099999999997
214950.0,213.904,-24.4603,11.4686,1.46116,-57.5062,18.7773,-106.05800000000001
214951.0,171.57599999999999,-25.5885,2.8524400000000001,-1.2221500000000001,-42.840400000000002,19.806999999999999,-85.724199999999996
214952.0,161.102,-16.755500000000001,2.5401600000000002,9.2904699999999991,-40.428600000000003,21.999400000000001,-79.687600000000003
214953.0,150.762,-8.2518399999999996,5.08467,18.9114,-38.341000000000001,22.706600000000002,-73.527500000000003
214954.0,141.37200000000001,0.026945299999999998,6.7398999999999996,27.395,-36.531799999999997,23.894300000000001,-67.476600000000005
214955.0,135.27500000000001,5.8431100000000002,5.8348800000000001,32.953800000000001,-35.057299999999998,24.991399999999999,-63.254600000000003
214956.0,116.798,18.291699999999999,0.26190000000000002,44.8401,-29.443300000000001,25.327999999999999,-50.359000000000002
214957.0,110.93000000000001,23.155000000000001,0.53671100000000005,48.867800000000003,-27.924800000000001,24.205300000000001,-46.382599999999996
214958.0,105.108,26.598400000000002,-1.2890900000000001,50.957599999999999,-26.229099999999999,23.4512,-41.966500000000003
214959.0,98.163899999999998,34.332700000000003,0.913829,56.196800000000003,-23.756,22.539000000000001,-36.939399999999999
214960.0,91.724999999999994,36.741900000000001,0.680064,55.680399999999999,-22.095600000000001,20.659600000000001,-33.298099999999998
214961.0,79.416300000000007,51.841799999999999,8.2784800000000001,72.029399999999995,-18.857299999999999,15.2857,-21.248100000000001
214962.0,74.643699999999995,45.283999999999999,-0.91910499999999995,61.196800000000003,-18.587,13.2285,-17.196000000000002
214963.0,78.452200000000005,60.868200000000002,7.5895099999999998,76.634799999999998,-19.5855,12.643000000000001,-14.1092
214964.0,68.721500000000006,44.729500000000002,-7.5414500000000002,56.370899999999999,-16.2591,8.9660499999999992,-8.4085699999999992
214965.0,44.308700000000002,83.626999999999995,45.3887,87.273300000000006,-10.313700000000001,0.74801200000000001,-3.0320499999999999
214966.0,211.309,-50.829300000000003,17.337299999999999,-33.843200000000003,-58.985100000000003,12.354100000000001,-99.963999999999999
214967.0,141.86799999999999,3.9102399999999999,-2.0459000000000001,24.9466,-38.3215,31.901599999999998,-63.415599999999998
214968.0,92.437700000000007,42.8123,0.021225299999999999,57.556600000000003,-21.514700000000001,22.235499999999998,-31.588200000000001
214969.0,88.104200000000006,44.707099999999997,-1.5956999999999999,57.490000000000002,-20.8855,20.048400000000001,-27.9803
214970.0,133.566,10.5245,-2.8723299999999998,30.400200000000002,-35.168300000000002,31.923100000000002,-58.399000000000001
214971.0,189.34700000000001,-32.786700000000003,6.79948,-16.289000000000001,-54.077500000000001,22.425799999999999,-90.155600000000007
214972.0,168.268,-129.24100000000001,-53.3536,-116.946,-39.738999999999997,14.577400000000001,-77.378100000000003
214973.0,221.39599999999999,-34.250399999999999,10.9457,-10.1465,-65.901499999999999,22.716899999999999,-104.729
214974.0,176.619,-24.479199999999999,6.5780000000000003,-9.75366,-48.883800000000001,24.863900000000001,-84.551199999999994
214975.0,171.88300000000001,-17.814,4.4198700000000004,-1.0319100000000001,-46.900599999999997,27.432200000000002,-82.228300000000004
214976.0,162.97,-11.4854,3.8814799999999998,7.7930400000000004,-44.011899999999997,29.357900000000001,-77.138400000000004
214977.0,153.875,-5.76715,2.2972999999999999,14.952299999999999,-41.516199999999998,30.898599999999998,-71.450100000000006
214978.0,146.53200000000001,-1.9654199999999999,-0.61146699999999998,19.128499999999999,-39.5839,31.554300000000001,-66.747900000000001
214979.0,124.761,16.825900000000001,-2.0178099999999999,35.485900000000001,-31.874600000000001,31.1568,-53.386200000000002
214980.0,118.956,21.930099999999999,-2.4306800000000002,39.946199999999997,-29.873200000000001,30.110399999999998,-49.6539
214981.0,111.816,29.192,-1.18571,45.818899999999999,-27.459299999999999,28.618300000000001,-45.016300000000001
214982.0,104.166,33.2956,-2.4277299999999999,48.4026,-24.833400000000001,26.722000000000001,-40.058799999999998
214983.0,97.510000000000005,38.518900000000002,-0.370558,53.545999999999999,-22.813199999999998,24.337,-35.811599999999999
214984.0,85.489400000000003,49.890999999999998,-1.2973399999999999,62.035600000000002,-19.800999999999998,18.921099999999999,-23.5852
214985.0,80.727599999999995,49.299599999999998,-1.94984,61.362900000000003,-19.1327,16.225899999999999,-20.319600000000001
214986.0,85.533600000000007,56.764299999999999,-2.7112500000000002,69.244799999999998,-20.1067,16.160699999999999,-17.168500000000002
214987.0,74.192700000000002,50.3748,-7.4126500000000002,59.753399999999999,-15.947800000000001,12.2256,-10.3901
214988.0,43.450000000000003,89.926900000000003,52.340899999999998,93.370900000000006,-9.5274300000000007,2.4762400000000002,-3.7939799999999999
214989.0,216.32400000000001,-56.472999999999999,15.057700000000001,-44.695099999999996,-65.273600000000002,16.358000000000001,-97.976900000000001
214990.0,149.90899999999999,2.9666800000000002,-4.7817999999999996,11.3468,-41.914000000000001,37.7361,-65.154300000000006
214991.0,100.461,45.3889,-3.84422,49.993000000000002,-22.6508,26.422499999999999,-35.529400000000003
214992.0,95.588899999999995,44.514699999999998,-7.1530399999999998,49.795200000000001,-21.649899999999999,24.053000000000001,-31.755099999999999
214993.0,140.822,11.1264,-4.3801399999999999,17.9846,-37.997100000000003,37.319600000000001,-60.353000000000002
214994.0,191.476,-31.146699999999999,9.5962899999999998,-20.736499999999999,-58.533099999999997,25.272600000000001,-87.795699999999997
214995.0,170.37200000000001,-128.15700000000001,-46.781700000000001,-118.55200000000001,-45.160699999999999,18.934000000000001,-72.801699999999997
214996.0,223.404,-36.107999999999997,14.210699999999999,-19.8598,-72.223699999999994,27.255400000000002,-100.089
214997.0,177.393,-24.591899999999999,8.5822699999999994,-15.970499999999999,-53.2729,27.712199999999999,-81.1614
214998.0,175.904,-19.2788,6.3281400000000003,-11.277200000000001,-52.492100000000001,31.464600000000001,-79.981099999999998
214999.0,172.56399999999999,-16.903099999999998,0.57059000000000004,-8.4461200000000005,-50.8538,34.955300000000001,-77.7286
215000.0,165.17500000000001,-11.5433,-3.2259600000000002,-2.2641800000000001,-47.9482,37.234499999999997,-73.367199999999997
215001.0,157.40799999999999,-3.0979399999999999,-2.7368700000000001,6.2071899999999998,-44.9955,37.741,-69.154200000000003
215002.0,131.54300000000001,18.7926,-3.2118000000000002,24.089500000000001,-34.1708,36.1496,-55.531999999999996
215003.0,125.628,23.979199999999999,-4.5876299999999999,28.389600000000002,-31.667200000000001,34.7224,-52.2669
215004.0,119.059,27.696200000000001,-6.7978899999999998,32.136200000000002,-28.9236,33.048999999999999,-48.393700000000003
215005.0,112.092,35.823799999999999,-4.1695599999999997,40.738799999999998,-26.112500000000001,31.032399999999999,-44.006900000000002
215006.0,106.074,37.658799999999999,-6.9298599999999997,42.575299999999999,-24.296600000000002,28.525700000000001,-40.033799999999999
215007.0,93.364099999999993,54.353900000000003,-2.8935,60.291899999999998,-20.6876,22.520199999999999,-27.440799999999999
215008.0,87.568299999999994,46.2226,-11.8704,52.082799999999999,-19.503599999999999,19.168299999999999,-23.630400000000002
215009.0,91.715000000000003,64.067700000000002,-2.1893699999999998,70.743399999999994,-20.015499999999999,18.678000000000001,-20.706600000000002
215010.0,79.7376,42.515799999999999,-21.1617,48.194699999999997,-15.456799999999999,14.767099999999999,-13.3972
215011.0,46.998600000000003,87.030199999999994,46.009,89.949100000000001,-8.8205100000000005,4.6141100000000002,-5.7905899999999999
215012.0,218.49700000000001,-54.6417,21.178599999999999,-47.872,-72.1374,17.987100000000002,-92.875500000000002
215013.0,157.636,6.1137499999999996,-2.3936799999999998,0.77427599999999996,-43.883400000000002,43.299900000000001,-66.812200000000004
215014.0,109.866,45.9283,-9.8644200000000009,39.862000000000002,-23.5349,29.983000000000001,-40.417299999999997
215015.0,104.251,48.240099999999998,-10.826499999999999,43.7087,-22.389399999999998,26.917300000000001,-36.281199999999998
215016.0,148.53399999999999,13.461,-3.7786,6.3105200000000004,-39.206699999999998,42.331899999999997,-62.8489
215017.0,196.54499999999999,-34.918999999999997,10.6554,-31.275200000000002,-65.208299999999994,29.633500000000002,-84.290899999999993
215018.0,162.375,-120.83499999999999,-42.241700000000002,-122.843,-49.6783,20.206900000000001,-61.639299999999999
215019.0,220.06399999999999,-27.406400000000001,20.642299999999999,-21.983699999999999,-77.762900000000002,27.9712,-92.8476
215020.0,184.476,-27.679400000000001,10.5204,-25.2666,-59.974400000000003,33.135800000000003,-78.684700000000007
215021.0,178.57400000000001,-20.229399999999998,9.0215599999999991,-18.712800000000001,-57.159399999999998,36.502499999999998,-75.885999999999996
215022.0,177.357,-16.566700000000001,3.7976800000000002,-16.696100000000001,-55.745100000000001,39.243200000000002,-75.488399999999999
215023.0,172.37899999999999,-8.9523600000000005,0.98472099999999996,-10.552,-52.496499999999997,41.883800000000001,-73.182599999999994
215024.0,165.041,-2.5259200000000002,-1.78424,-5.8980300000000003,-48.154600000000002,43.177399999999999,-69.939499999999995
215025.0,139.511,21.642800000000001,-3.2254900000000002,13.084,-35.044199999999996,40.563499999999998,-58.776400000000002
215026.0,133.64500000000001,27.770600000000002,-4.7594200000000004,18.689599999999999,-32.348999999999997,38.664999999999999,-55.950800000000001
215027.0,127.32599999999999,34.9529,-4.3657300000000001,25.634599999999999,-29.874199999999998,36.581899999999997,-52.451099999999997
215028.0,121.27,37.131799999999998,-8.5726999999999993,28.065200000000001,-27.502700000000001,34.626300000000001,-48.591799999999999
215029.0,116.024,41.668399999999998,-9.3510299999999997,33.898800000000001,-25.577400000000001,32.495199999999997,-44.959899999999998
215030.0,100.54600000000001,52.532400000000003,-12.037100000000001,48.887300000000003,-20.698899999999998,24.848099999999999,-31.753299999999999
215031.0,94.396299999999997,53.866900000000001,-11.291700000000001,51.607799999999997,-19.1904,21.528099999999998,-27.760400000000001
215032.0,96.665999999999997,60.357999999999997,-11.968500000000001,59.3489,-19.095700000000001,20.484000000000002,-24.714700000000001
215033.0,86.284599999999998,55.099600000000002,-15.6723,54.797499999999999,-15.068099999999999,16.7898,-17.6145
215034.0,57.296900000000001,85.961100000000002,35.858699999999999,87.121700000000004,-9.8184500000000003,7.7783800000000003,-8.9901900000000001
215035.0,211.27600000000001,-49.010899999999999,30.317399999999999,-46.741199999999999,-81.0916,14.0861,-77.881399999999999
215036.0,158.26400000000001,8.5009300000000003,-2.31507,-14.9481,-43.565600000000003,45.813499999999998,-64.919799999999995
215037.0,121.479,48.680799999999998,-15.2524,28.7942,-25.079499999999999,32.760899999999999,-46.3279
215038.0,114.937,49.716799999999999,-17.338799999999999,33.139800000000001,-23.061699999999998,30.102399999999999,-41.780299999999997
215039.0,152.39500000000001,19.364899999999999,-1.0184800000000001,-8.8836200000000005,-39.218200000000003,44.982599999999998,-62.986699999999999
215040.0,187.19200000000001,-28.7865,20.318899999999999,-27.831299999999999,-70.174300000000002,28.3565,-71.856499999999997
215041.0,135.59700000000001,-130.98599999999999,-51.744799999999998,-123.88500000000001,-46.948,18.687200000000001,-40.660200000000003
215042.0,206.768,-10.577500000000001,26.542100000000001,-11.162800000000001,-84.678299999999993,27.278300000000002,-76.614900000000006
215043.0,180.26400000000001,-30.514399999999998,10.0214,-30.728999999999999,-63.427599999999998,34.469499999999996,-71.2029
215044.0,176.239,-20.4284,8.8463700000000003,-23.297499999999999,-59.914499999999997,39.2744,-70.034099999999995
215045.0,170.916,-14.1045,7.2001099999999996,-21.657,-55.748699999999999,41.674300000000002,-68.328900000000004
215046.0,168.846,-8.5571400000000004,1.94831,-21.986999999999998,-52.349499999999999,43.9208,-68.480000000000004
215047.0,163.74100000000001,0.88510299999999997,0.60400399999999999,-17.343499999999999,-47.938899999999997,45.3414,-66.887500000000003
215048.0,147.631,25.875299999999999,-3.8664299999999998,-4.6125999999999996,-35.946300000000001,43.431399999999996,-61.514699999999998
215049.0,144.04599999999999,29.505800000000001,-9.6676099999999998,-0.69436900000000001,-33.533700000000003,41.770800000000001,-60.215600000000002
215050.0,138.97300000000001,33.118200000000002,-13.3733,5.0086300000000001,-31.268899999999999,39.774000000000001,-57.705199999999998
215051.0,132.714,41.311900000000001,-11.7128,15.4672,-28.82,37.5077,-54.134599999999999
215052.0,127.542,42.796799999999998,-16.254899999999999,19.6096,-27.040600000000001,35.045699999999997,-50.771799999999999
215053.0,109.185,58.243499999999997,-13.084899999999999,43.9754,-20.8384,27.374199999999998,-36.955100000000002
215054.0,102.26300000000001,54.703400000000002,-18.068899999999999,42.428199999999997,-18.9086,23.721599999999999,-32.371499999999997
215055.0,100.511,66.228800000000007,-11.6302,55.369900000000001,-17.7224,21.304200000000002,-28.659199999999998
215056.0,92.676400000000001,55.807099999999998,-22.1812,47.470199999999998,-14.449199999999999,17.209299999999999,-22.895499999999998
215057.0,73.0595,74.673500000000004,9.4435300000000009,70.8917,-11.3209,10.403700000000001,-14.2119
215058.0,188.001,-28.6493,53.471800000000002,-18.581399999999999,-82.832599999999999,8.6514900000000008,-53.284599999999998
215059.0,154.31700000000001,39.714599999999997,18.195,-27.1617,-43.054200000000002,41.981099999999998,-56.182000000000002
215060.0,133.089,51.699300000000001,-22.222100000000001,15.1472,-27.0261,33.4236,-51.8703
215061.0,125.33199999999999,55.545699999999997,-21.184999999999999,23.107700000000001,-24.336300000000001,30.7685,-47.047199999999997
215062.0,151.33500000000001,37.702800000000003,9.36022,-19.7303,-36.816200000000002,40.828600000000002,-61.538800000000002
215063.0,165.91200000000001,-1.39808,41.902999999999999,-10.772500000000001,-76.003799999999998,21.255199999999999,-46.450099999999999
215064.0,102.196,-155.209,-72.230900000000005,-101.39,-31.442699999999999,20.526199999999999,-17.302199999999999
215065.0,174.499,0.72196700000000003,29.7851,23.518999999999998,-81.079800000000006,28.1464,-50.496200000000002
215066.0,161.357,-0.70553999999999994,31.029,-21.1935,-72.2654,28.595199999999998,-44.117600000000003
215067.0,162.673,7.5767800000000003,27.546299999999999,-27.191800000000001,-69.475499999999997,35.717399999999998,-44.1693
215068.0,159.24700000000001,18.1129,28.5792,-31.280799999999999,-62.978700000000003,39.350999999999999,-43.775199999999998
215069.0,159.66900000000001,28.9968,28.200199999999999,-32.896599999999999,-57.869999999999997,41.494700000000002,-46.5471
215070.0,159.09,34.627499999999998,22.209299999999999,-34.710700000000003,-51.520800000000001,42.471800000000002,-51.101199999999999
215071.0,150.691,37.034599999999998,1.3143100000000001,-12.2781,-34.954999999999998,40.200699999999998,-63.895299999999999
215072.0,148.88,40.014499999999998,-4.8680000000000003,-7.30192,-33.718699999999998,39.834099999999999,-62.8874
215073.0,146.816,44.058,-10.199299999999999,-3.2377099999999999,-32.081699999999998,38.707599999999999,-61.529499999999999
215074.0,143.19,44.806399999999996,-17.100999999999999,0.21399000000000001,-30.2423,36.835500000000003,-59.522300000000001
215075.0,139.99299999999999,48.726900000000001,-19.874500000000001,8.3763699999999996,-29.372199999999999,35.190899999999999,-56.946100000000001
215076.0,118.685,56.5505,-22.8111,28.6938,-21.988700000000001,28.1966,-42.3748
215077.0,110.943,62.072600000000001,-18.503499999999999,38.715400000000002,-19.148800000000001,25.001100000000001,-37.314700000000002
215078.0,105.93600000000001,64.283500000000004,-19.453600000000002,44.202399999999997,-16.747299999999999,21.898199999999999,-32.704300000000003
215079.0,97.539699999999996,68.764799999999994,-13.3371,52.774900000000002,-13.5395,17.4618,-28.081399999999999
215080.0,83.575299999999999,77.379499999999993,2.7928600000000001,67.392300000000006,-10.9094,12.2273,-20.504200000000001
215081.0,145.25200000000001,-39.305,43.120100000000001,28.474,-58.6937,10.648999999999999,-39.251300000000001
215082.0,131.81700000000001,40.093499999999999,21.739899999999999,-20.759,-31.797999999999998,35.912999999999997,-50.167000000000002
215083.0,141.35300000000001,57.425600000000003,-25.2986,8.1241099999999999,-28.994299999999999,30.162700000000001,-56.373399999999997
215084.0,133.613,59.487499999999997,-26.087,13.775499999999999,-25.926600000000001,28.6752,-51.212800000000001
215085.0,142.20599999999999,54.608400000000003,19.267199999999999,-27.8368,-35.526299999999999,31.711200000000002,-52.5578
215086.0,130.28299999999999,-9.2417200000000008,33.850700000000003,24.063800000000001,-58.445999999999998,19.770900000000001,-36.6158
215087.0,91.2864,-130.05699999999999,-59.718600000000002,-55.889699999999998,-21.155899999999999,23.048200000000001,7.4249000000000001
215088.0,138.82400000000001,-5.96122,29.165900000000001,62.845799999999997,-61.294199999999996,27.470199999999998,-26.994199999999999
215089.0,131.101,5.1352599999999997,42.784199999999998,19.93,-59.465899999999998,23.212,-35.977699999999999
215090.0,123.20699999999999,10.388500000000001,42.432499999999997,13.882300000000001,-51.354199999999999,28.640699999999999,-35.964199999999998
215091.0,123.05500000000001,11.364599999999999,34.3065,3.09138,-43.213700000000003,34.5077,-41.566600000000001
215092.0,128.97800000000001,14.6914,29.377700000000001,-4.6560800000000002,-38.762099999999997,37.744700000000002,-48.234400000000001
215093.0,130.346,22.803100000000001,25.072500000000002,-12.3744,-34.369700000000002,38.154899999999998,-50.847900000000003
215094.0,147.947,58.274000000000001,12.1065,-27.4665,-36.152999999999999,29.843299999999999,-57.069400000000002
215095.0,150.63499999999999,52.476900000000001,-0.66570799999999997,-19.4849,-34.903399999999998,30.968299999999999,-63.194200000000002
215096.0,148.52799999999999,48.7943,-11.8154,-11.2103,-31.674399999999999,31.885899999999999,-64.195800000000006
215097.0,146.68199999999999,54.554200000000002,-14.2859,-1.94706,-30.413699999999999,31.145399999999999,-62.686
215098.0,146.62299999999999,51.883499999999998,-24.0747,-1.1155600000000001,-31.1234,30.481200000000001,-61.242899999999999
215099.0,127.884,66.285399999999996,-21.282900000000001,25.336600000000001,-23.7652,27.0136,-47.299300000000002
215100.0,121.63800000000001,62.131999999999998,-27.322700000000001,26.969999999999999,-21.203099999999999,25.0471,-42.707900000000002
215101.0,115.80200000000001,70.7256,-21.8916,40.732100000000003,-18.097899999999999,22.8414,-37.249899999999997
215102.0,104.515,63.363100000000003,-25.058599999999998,39.874299999999998,-14.651999999999999,18.447299999999998,-31.439299999999999
215103.0,89.003500000000003,76.314099999999996,-2.95424,61.101700000000001,-12.4903,13.467499999999999,-23.097300000000001
215104.0,88.478700000000003,-11.3376,30.959599999999998,50.539499999999997,-40.082700000000003,-1.04159,-1.2577400000000001
215105.0,78.714100000000002,32.042299999999997,18.757300000000001,20.641300000000001,-18.475899999999999,15.3232,-37.914000000000001
215106.0,145.94999999999999,64.909599999999998,-24.157,0.54598899999999995,-31.6722,22.540900000000001,-58.948700000000002
215107.0,142.209,64.516800000000003,-29.3782,8.7767999999999997,-27.448599999999999,24.0837,-56.372500000000002
215108.0,98.634399999999999,42.284300000000002,26.894500000000001,18.795400000000001,-22.398800000000001,18.927399999999999,-47.335000000000001
215109.0,84.849599999999995,6.0653600000000001,25.043700000000001,62.116500000000002,-37.789700000000003,4.8448599999999997,-11.6432
215110.0,71.566800000000001,-59.430100000000003,-21.613499999999998,-12.1401,-20.0413,11.9076,23.1904
215111.0,95.737399999999994,14.308,30.308299999999999,63.416499999999999,-47.465600000000002,10.6921,7.7854599999999996
215112.0,89.682400000000001,9.5721100000000003,34.175899999999999,61.023800000000001,-38.468499999999999,5.3508399999999998,-22.589500000000001
215113.0,79.736800000000002,14.790699999999999,36.5518,54.511800000000001,-32.524700000000003,5.7162600000000001,-25.162299999999998
215114.0,69.180199999999999,14.289999999999999,22.7959,40.145200000000003,-26.762699999999999,6.89194,-25.649899999999999
215115.0,69.832700000000003,24.9283,24.315000000000001,36.1494,-25.385999999999999,7.5433599999999998,-29.661300000000001
215116.0,72.250799999999998,29.707999999999998,23.769600000000001,28.450800000000001,-22.5426,9.6939899999999994,-33.587600000000002
215117.0,106.98,55.156999999999996,19.6645,2.64419,-19.369499999999999,17.964099999999998,-48.981200000000001
215118.0,129.71199999999999,76.9572,14.5443,-5.7635800000000001,-27.1874,13.538399999999999,-53.174900000000001
215119.0,146.68700000000001,77.117099999999994,7.6547400000000003,-8.3663299999999996,-38.068100000000001,11.8856,-59.305100000000003
215120.0,142.76900000000001,68.831900000000005,-7.7275600000000004,-7.5291899999999998,-33.954799999999999,16.033000000000001,-58.614100000000001
215121.0,143.94999999999999,70.228700000000003,-14.311999999999999,-1.26389,-32.186300000000003,19.636299999999999,-58.4313
215122.0,136.53299999999999,64.274299999999997,-32.870899999999999,13.7829,-25.361599999999999,23.042999999999999,-51.759399999999999
215123.0,131.47399999999999,68.101399999999998,-30.9682,21.8096,-24.051300000000001,21.652799999999999,-47.5107
215124.0,128.29599999999999,69.284599999999998,-34.993299999999998,27.596399999999999,-21.206299999999999,21.2958,-42.760800000000003
215125.0,117.48399999999999,72.944900000000004,-28.1631,39.050800000000002,-16.2073,18.139199999999999,-36.890099999999997
215126.0,99.667900000000003,81.139399999999995,-8.5360899999999997,57.821399999999997,-13.349600000000001,13.2278,-28.1648
215127.0,53.613,30.9331,42.164900000000003,64.925399999999996,-16.985900000000001,-13.414300000000001,13.7735
215128.0,52.834400000000002,40.995399999999997,24.133800000000001,51.558999999999997,-19.595700000000001,-16.611000000000001,-8.9014600000000002
215129.0,138.71199999999999,74.570700000000002,-18.436900000000001,11.272600000000001,-28.0669,10.1387,-57.153599999999997
215130.0,144.16399999999999,72.493200000000002,-27.467500000000001,8.5940200000000004,-32.356000000000002,11.281700000000001,-56.488599999999998
215131.0,57.189100000000003,35.374400000000001,23.880199999999999,50.105200000000004,-19.357900000000001,-9.7567699999999995,-21.153300000000002
215132.0,68.415700000000001,39.790799999999997,34.117100000000001,75.998000000000005,-24.0137,-17.194299999999998,13.105
215133.0,34.1327,-34.817700000000002,-19.244599999999998,-2.4620899999999999,-10.206,-1.4577599999999999,4.4962999999999997
215134.0,53.969499999999996,50.517299999999999,45.145800000000001,76.286500000000004,-26.006,-1.5259799999999999,3.8925999999999998
215135.0,78.875799999999998,35.0901,30.479299999999999,75.430899999999994,-28.976299999999998,-22.672000000000001,10.4213
215136.0,77.114400000000003,37.2774,26.933800000000002,68.178899999999999,-28.959900000000001,-25.344200000000001,6.3796600000000003
215137.0,70.128900000000002,45.675400000000003,28.176400000000001,63.452500000000001,-24.467600000000001,-26.375900000000001,5.8216099999999997
215138.0,65.158500000000004,45.979599999999998,22.454499999999999,55.464399999999998,-21.508500000000002,-25.5534,3.2832699999999999
215139.0,60.363700000000001,46.845399999999998,24.055099999999999,54.1036,-21.496600000000001,-22.421099999999999,-1.9872399999999999
215140.0,58.727499999999999,35.229500000000002,12.782999999999999,43.636800000000001,-10.0457,-0.432583,-28.180199999999999
215141.0,76.322100000000006,54.8307,11.079499999999999,41.036200000000001,-10.051399999999999,5.9726100000000004,-36.1203
215142.0,112.736,73.997799999999998,20.5366,31.507200000000001,-28.976500000000001,2.6272000000000002,-50.917400000000001
215143.0,129.23699999999999,74.0017,12.3081,15.203900000000001,-34.488500000000002,1.70336,-56.241700000000002
215144.0,129.94,70.243799999999993,-6.5202900000000001,9.5600699999999996,-28.046600000000002,7.3062300000000002,-56.117899999999999
215145.0,140.76599999999999,77.501400000000004,-26.5563,18.3504,-28.8598,14.5527,-53.258400000000002
215146.0,138.51900000000001,70.844999999999999,-36.316499999999998,17.7651,-25.776800000000001,15.952,-51.048000000000002
215147.0,138.113,78.314499999999995,-35.224600000000002,29.202200000000001,-23.785799999999998,16.1677,-47.8429
215148.0,129.90000000000001,67.414299999999997,-44.982700000000001,25.482099999999999,-18.745899999999999,14.9954,-42.688800000000001
215149.0,111.631,82.309700000000007,-18.3139,51.814799999999998,-14.7235,12.287599999999999,-33.5242
215150.0,33.2532,34.224499999999999,44.776000000000003,68.016800000000003,-0.93202600000000002,-7.7048699999999997,3.0757300000000001
215151.0,69.866500000000002,50.3491,36.867199999999997,87.713399999999993,-13.9345,-26.7501,4.8489000000000004
215152.0,117.54600000000001,81.661100000000005,-4.8714700000000004,32.695300000000003,-25.072800000000001,-4.2811700000000004,-45.5625
215153.0,132.73099999999999,81.299000000000007,-8.95932,33.440399999999997,-31.5169,-2.0323899999999999,-53.253399999999999
215154.0,70.279600000000002,48.470100000000002,30.6114,73.254599999999996,-16.780799999999999,-29.357600000000001,6.6587399999999999
215155.0,45.909700000000001,42.617100000000001,41.191899999999997,80.751999999999995,-8.3160500000000006,-11.138299999999999,2.4071899999999999
215156.0,32.708199999999998,-39.6661,-27.409800000000001,-11.068300000000001,-10.928699999999999,-5.58331,-0.38685999999999998
215157.0,44.9953,61.413499999999999,52.431899999999999,83.451400000000007,-19.7638,-1.5022,-5.2187099999999997
215158.0,64.093199999999996,38.994599999999998,37.7288,88.423199999999994,-11.7721,-19.1876,5.1751199999999997
215159.0,76.743200000000002,41.916600000000003,34.5075,97.260999999999996,-14.693199999999999,-23.5442,4.1188799999999999
215160.0,78.817599999999999,40.235399999999998,31.7182,97.833500000000001,-13.767799999999999,-24.145600000000002,2.15056
215161.0,74.928799999999995,43.938400000000001,33.382899999999999,99.123000000000005,-11.200699999999999,-22.0776,3.48455
215162.0,70.848200000000006,47.733699999999999,36.549799999999998,96.553700000000006,-11.579599999999999,-22.517900000000001,3.7217600000000002
215163.0,64.682299999999998,46.507300000000001,27.2286,69.849100000000007,-17.496600000000001,-24.9711,3.0676399999999999
215164.0,59.228299999999997,41.318199999999997,14.238200000000001,71.819400000000002,-10.978199999999999,-13.3064,-6.4708800000000002
215165.0,74.621600000000001,45.488500000000002,10.918200000000001,73.306600000000003,-15.8756,-3.9976799999999999,-24.723199999999999
215166.0,91.657200000000003,57.977600000000002,22.629899999999999,63.427700000000002,-26.264199999999999,-4.5737800000000002,-39.9876
215167.0,98.603800000000007,66.263499999999993,6.6632100000000003,37.620899999999999,-22.633199999999999,-6.36538,-42.421999999999997
215168.0,136.22399999999999,73.099900000000005,-27.087199999999999,28.012899999999998,-27.451899999999998,2.04156,-53.945799999999998
215169.0,140.547,73.338499999999996,-35.008000000000003,30.565899999999999,-28.2834,5.8367199999999997,-52.654000000000003
215170.0,140.27099999999999,76.188699999999997,-40.103099999999998,32.566800000000001,-26.203399999999998,8.7826500000000003,-48.411299999999997
215171.0,135.18799999999999,77.900800000000004,-40.069499999999998,34.622599999999998,-21.938199999999998,9.40564,-44.280000000000001
215172.0,120.82899999999999,85.040400000000005,-24.6006,49.847099999999998,-17.4512,8.7422199999999997,-36.7684
215173.0,31.051300000000001,33.372700000000002,41.935499999999998,63.457599999999999,0.52792799999999995,-7.22072,5.3578400000000004
215174.0,82.255499999999998,47.852400000000003,39.873100000000001,113.774,-1.69865,-24.262799999999999,4.3196099999999999
215175.0,86.971500000000006,61.340800000000002,11.5863,68.334199999999996,-23.5837,-6.6748000000000003,-31.034600000000001
215176.0,106.96899999999999,71.800299999999993,-6.9445199999999998,50.851999999999997,-23.7834,-9.1521699999999999,-38.747300000000003
215177.0,84.446899999999999,49.372199999999999,41.823300000000003,117.14,-1.98434,-25.325900000000001,3.3779699999999999
215178.0,34.841099999999997,53.450099999999999,50.4636,83.492900000000006,-4.6945100000000002,-6.7260999999999997,1.9018299999999999
215179.0,36.370399999999997,-53.275500000000001,-39.152099999999997,-21.868099999999998,-13.2691,-4.1722099999999998,-0.13822300000000001
215180.0,47.4846,71.456299999999999,61.2044,93.204400000000007,-21.7317,-2.1539299999999999,-2.7711800000000002
215181.0,45.998600000000003,39.503700000000002,42.039900000000003,82.597499999999997,-4.3356399999999997,-9.8902800000000006,1.9845200000000001
215182.0,62.8551,41.613399999999999,39.6858,96.602500000000006,-8.2742299999999993,-13.9274,3.1592600000000002
215183.0,76.006299999999996,44.393700000000003,39.393700000000003,108.20399999999999,-8.7978299999999994,-19.168199999999999,2.98176
215184.0,82.119,46.402000000000001,37.586500000000001,112.64700000000001,-6.7148899999999996,-22.156099999999999,5.3372299999999999
215185.0,82.856800000000007,46.354700000000001,37.5914,112.274,-4.0987999999999998,-23.861999999999998,5.9664599999999997
215186.0,89.317899999999995,48.323999999999998,38.976199999999999,114.15000000000001,-6.7046599999999996,-29.970400000000001,6.1200799999999997
215187.0,92.614199999999997,49.229399999999998,33.229500000000002,107.14400000000001,-9.82742,-33.542499999999997,11.1898
215188.0,89.025899999999993,43.195300000000003,21.116900000000001,97.133300000000006,-15.248200000000001,-28.9526,6.4736200000000004
215189.0,79.994900000000001,44.4803,16.4602,92.090100000000007,-15.7073,-19.6479,-6.1926100000000002
215190.0,74.678399999999996,47.069899999999997,10.114100000000001,76.331400000000002,-16.817599999999999,-11.0687,-18.7746
215191.0,127.143,103.22,-0.34866900000000001,58.373699999999999,-29.332899999999999,-15.1411,-40.013500000000001
215192.0,136.77199999999999,90.295900000000003,-18.5947,38.947400000000002,-34.774999999999999,-16.190100000000001,-42.386299999999999
215193.0,137.19399999999999,92.3523,-25.545000000000002,43.660299999999999,-28.346900000000002,-7.6424399999999997,-43.612900000000003
215194.0,138.417,73.453299999999999,-46.517499999999998,33.423400000000001,-24.1066,0.145457,-45.544499999999999
215195.0,128.40000000000001,86.478399999999993,-28.8659,54.734499999999997,-19.426100000000002,2.5825399999999998,-39.513100000000001
215196.0,567.79499999999996,7905.4799999999996,8166.1599999999999,8080.2399999999998,-99.068899999999999,-10.247400000000001,282.661
215197.0,548.20399999999995,-8231.6200000000008,-7981.3999999999996,-8027.0600000000004,-61.325899999999997,33.4392,278.46199999999999
215198.0,553.43899999999996,8324.1700000000001,8606.6599999999999,8571.3299999999999,-71.212599999999995,76.330799999999996,259.82900000000001
215199.0,556.40099999999995,-8674.6700000000001,-8384.4799999999996,-8409.5599999999995,-69.797200000000004,112.998,244.33699999999999
215200.0,574.28599999999994,8107.0200000000004,8430.5,8386.5400000000009,-109.34999999999999,107.224,236.001
215201.0,638.75800000000004,-9194.2800000000007,-8808.5400000000009,-8885.6599999999999,-179.678,69.918499999999995,239.095
215202.0,727.93799999999999,8275.3700000000008,8719.5699999999997,8616.4500000000007,-245.34399999999999,45.956000000000003,245.51599999999999
215203.0,829.13,-9828.9200000000001,-9328.7700000000004,-9451.4500000000007,-307.32499999999999,22.4389,257.39600000000002
215204.0,905.27800000000002,7383.3500000000004,7921.9399999999996,7784.8800000000001,-351.03800000000001,15.0212,267.16300000000001
215205.0,992.87599999999998,-10194.4,-9605.3899999999994,-9754.0400000000009,-393.65800000000002,-0.0062620599999999998,282.529
215206.0,1135.9000000000001,7897.6599999999999,8575.5400000000009,8421.6100000000006,-452.24099999999999,-32.674900000000001,313.38499999999999
215207.0,1248.2,-9611.7900000000009,-8864.9099999999999,-9022.1299999999992,-495.23099999999999,-50.042299999999997,341.37900000000002
215208.0,1321.5999999999999,8308.3099999999995,9096.2399999999998,8938.6000000000004,-522.21600000000001,-56.332900000000002,364.01100000000002
215209.0,1341.5799999999999,-10073.4,-9277.9799999999996,-9433.3500000000004,-527.43299999999999,-55.6432,375.39100000000002
215210.0,1268.97,7836.75,8581.7099999999991,8409.0599999999995,-502.67599999999999,-41.216900000000003,361.00999999999999
215211.0,1207.6800000000001,-9873.2000000000007,-9166.1100000000006,-9353.9300000000003,-480.459,-33.082099999999997,346.524
215212.0,1246.0999999999999,8794.5799999999999,9537.3400000000001,9372.3700000000008,-483.90100000000001,-36.299199999999999,360.53300000000002
215213.0,1326.3299999999999,-10177.299999999999,-9356.6200000000008,-9459.25,-486.78800000000001,-39.686199999999999,384.58100000000002
215214.0,1296.0599999999999,8325.0300000000007,9151.5200000000004,9063.5799999999999,-461.173,-37.361699999999999,373.89699999999999
215215.0,1119.3299999999999,-9316.9500000000007,-8577.0599999999995,-8719.9500000000007,-404.80200000000002,-47.103299999999997,312.25700000000001
215216.0,917.20000000000005,9779.3999999999996,10416.0,10206.799999999999,-342.89400000000001,-71.291200000000003,229.10900000000001
215217.0,795.83299999999997,-8851.3400000000001,-8278.3799999999992,-8528.25,-303.12700000000001,-93.786500000000004,167.089
215218.0,711.48099999999999,9799.5400000000009,10332.9,10064.1,-270.45999999999998,-112.913,108.27500000000001
215219.0,634.59400000000005,-9301.1399999999994,-8833.4799999999996,-9136.4099999999999,-231.88999999999999,-153.702,23.891500000000001
215220.0,629.08600000000001,9820.5100000000002,10258.4,9946.4899999999998,-222.447,-177.47999999999999,-10.931100000000001
215221.0,636.62300000000005,-9270.2900000000009,-8800.7600000000002,-9071.7800000000007,-241.071,-144.066,25.946400000000001
215222.0,196.67699999999999,-1244.0999999999999,-1160.5,-1262.1300000000001,31.4358,-19.050899999999999,-92.750399999999999
215223.0,195.98500000000001,-270.93700000000001,-134.886,-286.22699999999998,50.665300000000002,-12.7677,-55.964799999999997
215224.0,231.53999999999999,5685.4099999999999,5686.1499999999996,5713.0100000000002,18.7881,-46.657200000000003,-122.854
215225.0,77.861800000000002,8509.25,8510.2800000000007,8544.2800000000007,-13.6684,-25.0791,-28.420100000000001
215226.0,113.18000000000001,2582.1399999999999,2643.96,2573.0799999999999,25.638300000000001,-32.614800000000002,-32.5672
215227.0,118.616,1588.1199999999999,1638.96,1573.49,17.521999999999998,-32.266599999999997,-46.485399999999998
215228.0,75.105000000000004,6706.2399999999998,6749.5,6734.5200000000004,4.2122599999999997,3.3135599999999998,36.998600000000003
215229.0,222.06800000000001,8622.0100000000002,8602.5400000000009,8665.8600000000006,-0.416574,-47.7761,-114.471
215230.0,221.79300000000001,2238.0900000000001,2309.8600000000001,2215.9899999999998,61.214100000000002,-33.037500000000001,-95.659599999999998
215231.0,202.482,1316.45,1399.95,1283.77,62.0685,-18.873100000000001,-76.6006
215232.0,220.077,1984.48,2042.6900000000001,1981.79,57.070900000000002,-38.387900000000002,-101.143
215233.0,223.60499999999999,4446.6999999999998,4490.46,4454.0299999999997,50.478099999999998,-39.476500000000001,-109.59399999999999
215234.0,227.71600000000001,4348.9700000000003,4377.5900000000001,4361.79,41.1355,-40.837400000000002,-117.13
215235.0,230.87100000000001,6196.4799999999996,6210.7700000000004,6215.4099999999999,30.253699999999998,-43.937800000000003,-121.753
215236.0,217.00899999999999,-5761.8999999999996,-5762.1700000000001,-5746.0699999999997,21.822500000000002,-44.556899999999999,-114.678
215237.0,229.89599999999999,6952.4399999999996,6940.9799999999996,6989.04,8.4127299999999998,-48.040399999999998,-120.867
215238.0,210.42599999999999,8097.9099999999999,8074.0799999999999,8146.29,-7.5715599999999998,-46.980400000000003,-105.554
215239.0,190.80799999999999,8838.3400000000001,8816.9500000000007,8888.4200000000001,-14.1645,-44.195900000000002,-92.932100000000005
215240.0,160.88399999999999,9131.2600000000002,9114.2600000000002,9177.3400000000001,-16.962499999999999,-39.107199999999999,-75.800200000000004
215241.0,121.301,9014.9300000000003,9003.7900000000009,9053.8099999999995,-16.286000000000001,-33.183599999999998,-53.372199999999999
215242.0,98.4345,-8626.6200000000008,-8631.3400000000001,-8575.5699999999997,-20.931000000000001,-25.627300000000002,-34.327399999999997
215243.0,40.762599999999999,7715.8500000000004,7737.0,7750.8199999999997,-6.83324,-8.0688600000000008,11.4871
215244.0,70.288700000000006,5459.0900000000001,5510.8800000000001,5476.6999999999998,21.474299999999999,-1.9706999999999999,22.094899999999999
215245.0,82.700199999999995,4563.2799999999997,4614.1000000000004,4577.5500000000002,37.011899999999997,-12.664199999999999,-7.8983299999999996
215246.0,97.958100000000002,3879.9099999999999,3938.02,3889.4099999999999,39.2271,-19.571400000000001,-17.4679
215247.0,105.327,3189.9299999999998,3253.71,3190.5300000000002,33.070700000000002,-26.6799,-23.4328
215248.0,121.508,-2960.1199999999999,-2892.9200000000001,-2962.27,29.159199999999998,-36.360199999999999,-34.555799999999998
215249.0,119.94,2080.3800000000001,2137.9000000000001,2067.73,17.828299999999999,-35.1387,-42.941400000000002
215250.0,101.917,1073.2,1122.55,1058.02,18.300599999999999,-26.567699999999999,-35.823500000000003
215251.0,92.129400000000004,574.44500000000005,628.15099999999995,557.0,14.5191,-22.648599999999998,-27.0244
215252.0,125.639,145.20599999999999,203.10400000000001,116.319,16.4635,-24.011700000000001,-49.608800000000002
215253.0,26.125699999999998,39.534199999999998,17.345700000000001,35.532499999999999,-8.6886600000000005,0.98874700000000004,-3.34612
215254.0,173.09200000000001,-521.04499999999996,-437.13,-561.85500000000002,43.538499999999999,-7.3409399999999998,-63.194299999999998
215255.0,188.774,-2166.2800000000002,-2099.29,-2205.9000000000001,53.982900000000001,-21.384499999999999,-74.857200000000006
215256.0,195.541,-1990.98,-1941.6800000000001,-2012.5799999999999,56.064900000000002,-32.594900000000003,-84.964100000000002
215257.0,207.01599999999999,-3254.8000000000002,-3215.4200000000001,-3261.8800000000001,51.534100000000002,-36.962000000000003,-98.167599999999993
215258.0,214.22200000000001,-4583.2200000000003,-4557.6000000000004,-4582.3199999999997,43.4176,-38.938800000000001,-108.09399999999999
215259.0,216.77199999999999,-5390.9200000000001,-5378.4700000000003,-5383.4899999999998,32.626399999999997,-41.621099999999998,-113.258
215260.0,217.047,-5704.5699999999997,-5717.0699999999997,-5678.6800000000003,11.2501,-46.501399999999997,-114.15300000000001
215261.0,214.75,-7819.5500000000002,-7841.9300000000003,-7782.8599999999997,1.1706000000000001,-47.061900000000001,-110.756
215262.0,207.76599999999999,-8236.6399999999994,-8264.0699999999997,-8191.6400000000003,-7.1338600000000003,-46.4512,-104.13
215263.0,195.33600000000001,-8011.3599999999997,-8040.1700000000001,-7960.2600000000002,-14.108599999999999,-45.134999999999998,-94.046599999999998
215264.0,173.404,-8750.0499999999993,-8775.4599999999991,-8696.1399999999994,-18.636500000000002,-40.968000000000004,-79.727699999999999
215265.0,139.61199999999999,-8924.3700000000008,-8941.3099999999995,-8870.9400000000005,-21.669,-33.999899999999997,-59.353400000000001
215266.0,60.554499999999997,-8032.71,-8022.1599999999999,-7978.9399999999996,-16.337399999999999,-10.7653,5.28071
215267.0,70.871899999999997,-7243.9399999999996,-7209.21,-7192.6099999999997,-6.4046900000000004,2.7377099999999999,30.6557
215268.0,60.7393,-6084.8900000000003,-6030.54,-6049.4799999999996,12.910299999999999,1.2370699999999999,17.339600000000001
215269.0,82.304900000000004,-4984.2399999999998,-4921.1400000000003,-4959.6800000000003,32.128500000000003,-8.8869799999999994,-11.6235
215270.0,100.85299999999999,-4290.6899999999996,-4222.0,-4267.04,37.597099999999998,-17.1309,-21.5852
215271.0,111.23999999999999,-3636.8499999999999,-3565.75,-3624.4400000000001,35.134,-27.306100000000001,-26.508400000000002
215272.0,130.09200000000001,-2418.6900000000001,-2359.71,-2432.7399999999998,23.3629,-41.611800000000002,-43.1524
215273.0,127.68000000000001,-1911.5,-1863.8499999999999,-1932.28,22.813600000000001,-40.538800000000002,-45.1599
215274.0,108.95999999999999,-1386.3,-1337.8599999999999,-1406.72,21.449200000000001,-31.642499999999998,-35.287799999999997
215275.0,94.880099999999999,-881.66499999999996,-827.05100000000004,-897.92499999999995,15.551500000000001,-25.207599999999999,-27.296600000000002
215276.0,110.756,-426.20600000000002,-379.56900000000002,-442.28699999999998,13.2164,-29.027200000000001,-44.838500000000003
215277.0,201.63399999999999,395.25,481.69099999999997,382.61900000000003,37.384999999999998,-18.044899999999998,-94.450999999999993
215278.0,185.98400000000001,702.16600000000005,825.35500000000002,681.529,52.019500000000001,-7.9857500000000003,-52.080500000000001
215279.0,249.86099999999999,7076.75,7073.5699999999997,7102.8400000000001,33.0687,-50.8658,-129.88999999999999
215280.0,63.757599999999996,9092.1299999999992,9092.4699999999993,9123.6800000000003,-9.1002799999999997,-25.450800000000001,-17.2135
215281.0,130.279,2291.27,2360.5799999999999,2296.1900000000001,19.515699999999999,-37.9026,-48.4208
215282.0,117.55200000000001,1486.98,1552.28,1491.27,15.2761,-28.083100000000002,-47.432899999999997
215283.0,107.85599999999999,6482.4899999999998,6541.0299999999997,6503.1700000000001,-5.4794700000000001,-0.99516700000000002,54.454300000000003
215284.0,236.52500000000001,7481.0799999999999,7452.96,7516.9700000000003,17.3093,-56.848700000000001,-118.69
215285.0,221.38399999999999,1145.1800000000001,1216.49,1122.53,62.9024,-31.7759,-94.688299999999998
215286.0,195.08799999999999,449.66000000000003,531.57500000000005,417.52600000000001,62.084600000000002,-18.391400000000001,-70.960899999999995
215287.0,221.42599999999999,3141.6999999999998,3201.2199999999998,3141.52,58.096899999999998,-38.029600000000002,-101.673
215288.0,228.55500000000001,2538.6500000000001,2583.7399999999998,2550.1799999999998,54.661799999999999,-39.302799999999998,-111.047
215289.0,238.60400000000001,4589.3900000000003,4617.3999999999996,4603.9200000000001,49.552799999999998,-41.502499999999998,-120.843
215290.0,246.93600000000001,4689.5699999999997,4701.6300000000001,4708.3900000000003,42.124499999999998,-46.130699999999997,-127.798
215291.0,233.91499999999999,-5568.3699999999999,-5572.79,-5553.75,33.532200000000003,-46.8733,-121.729
215292.0,246.56299999999999,7573.8500000000004,7556.4700000000003,7606.4899999999998,24.757899999999999,-54.329300000000003,-126.708
215293.0,226.333,9307.3099999999995,9272.3600000000006,9345.7199999999993,11.015700000000001,-59.531599999999997,-109.83499999999999
215294.0,204.54499999999999,9511.2099999999991,9479.2600000000002,9553.1599999999999,4.0179900000000002,-57.742100000000001,-96.032799999999995
215295.0,169.834,9660.4599999999991,9634.2199999999993,9702.5900000000001,-0.284445,-50.3855,-76.720299999999995
215296.0,117.84,9556.2399999999998,9540.0,9593.8899999999994,-4.2682599999999997,-38.490099999999998,-48.626199999999997
215297.0,90.308800000000005,-9204.2900000000009,-9215.5699999999997,-9155.5200000000004,-13.127000000000001,-31.109300000000001,-23.6645
215298.0,66.674099999999996,8003.7299999999996,8030.96,8030.0600000000004,-11.7056,-10.146100000000001,31.6615
215299.0,88.530799999999999,5291.3100000000004,5365.6800000000003,5306.1099999999997,9.0678000000000001,-5.4104900000000002,30.8415
215300.0,87.171899999999994,4244.6400000000003,4322.54,4254.6800000000003,21.933299999999999,-15.9292,-1.5376000000000001
215301.0,107.562,3400.29,3477.8499999999999,3405.5500000000002,27.262799999999999,-25.3889,-24.302600000000002
215302.0,122.38800000000001,2791.0599999999999,2864.8000000000002,2794.04,25.4161,-32.724800000000002,-39.161799999999999
215303.0,142.38499999999999,-2642.6799999999998,-2562.73,-2637.1599999999999,25.4712,-39.203899999999997,-50.776400000000002
215304.0,129.316,1860.29,1926.47,1867.5599999999999,14.0504,-36.223700000000001,-52.415700000000001
215305.0,103.301,1032.26,1095.8299999999999,1034.1600000000001,16.972999999999999,-22.4269,-38.185099999999998
215306.0,97.601600000000005,538.03399999999999,601.54300000000001,536.52800000000002,15.731,-21.3888,-33.064799999999998
215307.0,135.816,138.15199999999999,205.61699999999999,121.279,19.720199999999998,-25.8323,-55.686500000000002
215308.0,29.849699999999999,59.231499999999997,34.343699999999998,53.629800000000003,-10.5814,1.02532,-3.67787
215309.0,165.238,-629.79999999999995,-542.42200000000003,-668.52300000000002,39.619599999999998,-7.1933600000000002,-57.506999999999998
215310.0,190.39099999999999,-361.00700000000001,-285.33199999999999,-397.82100000000003,55.135300000000001,-19.847799999999999,-73.210300000000004
215311.0,193.626,-2157.6799999999998,-2106.1599999999999,-2177.1300000000001,55.592199999999998,-31.1098,-84.226100000000002
215312.0,209.232,-2589.5900000000001,-2547.2199999999998,-2592.5599999999999,54.682299999999998,-35.790399999999998,-98.377399999999994
215313.0,223.10900000000001,-3061.1199999999999,-3034.29,-3057.48,49.113,-38.315899999999999,-111.806
215314.0,230.90799999999999,-4108.7399999999998,-4097.1800000000003,-4100.79,41.926400000000001,-42.192500000000003,-119.163
215315.0,234.09200000000001,-7376.6400000000003,-7396.1999999999998,-7353.1499999999996,24.7636,-50.686399999999999,-120.91
215316.0,230.08000000000001,-6885.4499999999998,-6917.75,-6854.46,16.270099999999999,-53.722900000000003,-116.161
215317.0,221.64400000000001,-7897.7200000000003,-7937.54,-7863.0200000000004,9.0316700000000001,-56.478099999999998,-108.23
215318.0,207.59899999999999,-9273.0699999999997,-9315.9200000000001,-9232.9099999999999,2.7991899999999998,-58.081800000000001,-96.233699999999999
215319.0,181.45699999999999,-9300.9500000000007,-9340.4699999999993,-9255.7700000000004,-1.619,-53.978999999999999,-79.139799999999994
215320.0,139.87200000000001,-9352.4099999999999,-9381.3600000000006,-9302.6299999999992,-8.0862999999999996,-43.950299999999999,-54.206699999999998
215321.0,72.754499999999993,-8565.6700000000001,-8551.7700000000004,-8517.2999999999993,-17.3888,-15.125299999999999,24.760400000000001
215322.0,98.607100000000003,-7217.0299999999997,-7169.25,-7176.6999999999998,-10.9209,-5.66601,49.284300000000002
215323.0,82.864999999999995,-5865.2299999999996,-5791.21,-5838.71,6.7669600000000001,-7.7633400000000004,27.861899999999999
215324.0,90.890299999999996,-4825.1999999999998,-4741.1999999999998,-4807.8599999999997,22.273900000000001,-16.615200000000002,-3.8475100000000002
215325.0,115.663,-3875.4499999999998,-3790.1399999999999,-3863.4299999999998,30.1648,-26.523700000000002,-26.716899999999999
215326.0,133.86199999999999,-3173.0700000000002,-3089.5,-3165.9499999999998,30.560400000000001,-34.099699999999999,-41.591000000000001
215327.0,139.554,-2153.3800000000001,-2080.6999999999998,-2146.1900000000001,19.223600000000001,-40.082599999999999,-53.960500000000003
215328.0,120.93600000000001,-1749.48,-1684.8,-1742.5599999999999,17.3353,-32.726700000000001,-47.356000000000002
215329.0,105.574,-1364.21,-1299.3299999999999,-1361.1400000000001,17.8767,-23.784500000000001,-38.604799999999997
215330.0,98.367599999999996,-876.178,-811.13400000000001,-875.03899999999999,15.9861,-21.227699999999999,-33.663899999999998
215331.0,118.43600000000001,-421.59800000000001,-365.44799999999998,-421.44999999999999,15.718299999999999,-27.907499999999999,-51.006300000000003
215332.0,210.256,-1394.4400000000001,-1307.03,-1405.1400000000001,39.306800000000003,-16.761199999999999,-100.065
215333.0,176.00299999999999,-234.93600000000001,-124.261,-263.34399999999999,46.386400000000002,-3.5486800000000001,-52.548999999999999
215334.0,254.435,5730.1499999999996,5725.9799999999996,5749.9799999999996,43.527299999999997,-53.433700000000002,-129.09200000000001
215335.0,82.940799999999996,9038.1200000000008,9036.0300000000007,9081.7999999999993,3.2496399999999999,-35.076500000000003,-19.6008
215336.0,134.28200000000001,2640.96,2723.3000000000002,2657.8499999999999,5.23001,-33.269599999999997,-54.635100000000001
215337.0,102.45999999999999,1586.1199999999999,1654.99,1586.55,17.8415,-17.440899999999999,-36.134599999999999
215338.0,112.83,6962.3400000000001,7028.1800000000003,6987.6800000000003,-16.811299999999999,-14.9001,51.343000000000004
215339.0,243.50299999999999,8917.1900000000005,8882.9400000000005,8936.3299999999999,31.2788,-66.526600000000002,-116.74299999999999
215340.0,208.84100000000001,2025.1099999999999,2087.25,1998.3900000000001,58.854599999999998,-27.753299999999999,-90.693700000000007
215341.0,174.58199999999999,1192.23,1261.6199999999999,1155.6400000000001,52.517400000000002,-16.3584,-65.087699999999998
215342.0,214.995,1721.8,1779.1199999999999,1721.9200000000001,54.983699999999999,-36.389099999999999,-99.837000000000003
215343.0,223.78299999999999,4185.3900000000003,4229.9499999999998,4199.2600000000002,54.381999999999998,-36.955199999999998,-108.857
215344.0,235.85900000000001,4145.3000000000002,4171.3299999999999,4157.2299999999996,53.573999999999998,-40.0991,-117.878
215345.0,247.232,6097.25,6105.7700000000004,6110.5500000000002,49.989699999999999,-46.440199999999997,-125.194
215346.0,237.34899999999999,-5733.2700000000004,-5738.9200000000001,-5724.0900000000001,41.532499999999999,-47.2958,-121.492
215347.0,251.386,7142.21,7121.46,7162.29,37.9161,-59.613199999999999,-125.127
215348.0,237.62700000000001,8468.6000000000004,8428.3199999999997,8495.1299999999992,24.989999999999998,-72.474800000000002,-108.68899999999999
215349.0,214.31299999999999,9267.6100000000006,9230.3500000000004,9305.8500000000004,18.128799999999998,-69.3232,-93.543099999999995
215350.0,182.446,9610.3199999999997,9576.6200000000008,9657.3299999999999,14.620799999999999,-60.263500000000001,-74.878399999999999
215351.0,133.446,9543.1299999999992,9520.7099999999991,9591.5699999999997,10.436400000000001,-47.637799999999999,-47.392299999999999
215352.0,110.59,-9154.1299999999992,-9173.3299999999999,-9098.6100000000006,2.6713900000000002,-44.6128,-23.943100000000001
215353.0,66.418999999999997,8161.5100000000002,8190.3699999999999,8197.25,-8.60398,-23.843499999999999,21.641999999999999
215354.0,106.617,5499.29,5588.8599999999997,5515.6400000000003,-11.606299999999999,-12.9161,34.819600000000001
215355.0,97.361000000000004,4453.9300000000003,4551.6999999999998,4468.6700000000001,-3.3160799999999999,-18.359999999999999,-5.76004
215356.0,121.351,3738.3699999999999,3837.46,3757.3499999999999,0.33990100000000001,-25.160299999999999,-38.850200000000001
215357.0,142.68700000000001,3142.73,3235.5799999999999,3163.2600000000002,2.4401600000000001,-32.886699999999998,-57.620600000000003
215358.0,143.017,-2984.5100000000002,-2891.23,-2963.8499999999999,5.9817600000000004,-33.192500000000003,-57.268799999999999
215359.0,110.386,2161.7600000000002,2235.96,2170.04,11.0998,-24.443200000000001,-41.084699999999998
215360.0,103.086,1005.48,1069.5,1003.7,20.8078,-16.6755,-37.760300000000001
215361.0,108.172,524.63900000000001,584.81100000000004,523.64300000000003,17.957699999999999,-21.833300000000001,-43.2898
215362.0,145.44300000000001,126.968,195.49000000000001,113.82899999999999,18.617799999999999,-27.2652,-63.548999999999999
215363.0,31.783999999999999,44.576500000000003,17.959599999999998,37.395000000000003,-11.670999999999999,0.76947699999999997,-3.2107399999999999
215364.0,150.36199999999999,-475.88999999999999,-392.72699999999998,-514.66499999999996,27.4255,-7.1258400000000002,-53.403399999999998
215365.0,177.358,-1989.8800000000001,-1918.96,-2028.73,47.838200000000001,-15.2226,-69.763000000000005
215366.0,182.97300000000001,-1758.72,-1706.25,-1777.73,49.996099999999998,-27.630199999999999,-80.784099999999995
215367.0,203.39099999999999,-3007.21,-2964.96,-3007.98,54.070799999999998,-33.310499999999998,-95.655900000000003
215368.0,222.05199999999999,-4362.3999999999996,-4334.3500000000004,-4356.9700000000003,50.538800000000002,-35.726799999999997,-111.283
215369.0,230.41999999999999,-5246.0600000000004,-5236.2799999999997,-5241.1999999999998,46.537999999999997,-40.386400000000002,-117.801
215370.0,241.71600000000001,-5818.2799999999997,-5840.2200000000003,-5803.1599999999999,36.3626,-54.480499999999999,-121.812
215371.0,236.72,-8059.8400000000001,-8095.75,-8043.1999999999998,28.903099999999998,-61.846699999999998,-115.313
215372.0,227.358,-8565.8999999999996,-8606.0699999999997,-8545.5100000000002,22.0395,-68.566000000000003,-105.328
215373.0,213.18199999999999,-8409.3600000000006,-8452.0900000000001,-8376.7099999999991,17.831499999999998,-70.988799999999998,-91.446600000000004
215374.0,188.16499999999999,-9203.1900000000005,-9244.4500000000007,-9159.0200000000004,14.861000000000001,-65.179000000000002,-74.214200000000005
215375.0,152.15799999999999,-9422.6399999999994,-9457.4500000000007,-9367.9400000000005,9.2091899999999995,-55.306800000000003,-50.375599999999999
215376.0,82.227400000000003,-8530.3999999999996,-8522.8999999999996,-8477.0799999999999,-8.5598600000000005,-32.800899999999999,16.480699999999999
215377.0,105.526,-7623.0900000000001,-7580.1599999999999,-7579.5299999999997,-15.775600000000001,-24.488299999999999,47.328499999999998
215378.0,96.153400000000005,-6260.3699999999999,-6184.8199999999997,-6232.4300000000003,-9.4662100000000002,-20.9404,33.0837
215379.0,95.989000000000004,-4976.5900000000001,-4881.6300000000001,-4958.29,1.0650500000000001,-22.177099999999999,-6.31386
215380.0,125.631,-4175.5,-4074.5700000000002,-4158.8000000000002,6.9271799999999999,-27.859400000000001,-38.856299999999997
215381.0,149.53100000000001,-3540.75,-3440.6999999999998,-3521.0599999999999,7.1971699999999998,-33.488300000000002,-58.9114
215382.0,115.28100000000001,-2507.21,-2425.5,-2489.9699999999998,8.8084100000000003,-24.633900000000001,-43.4788
215383.0,101.581,-1978.47,-1907.0799999999999,-1969.29,16.020199999999999,-16.566600000000001,-37.413800000000002
215384.0,104.54900000000001,-1389.25,-1322.55,-1387.5599999999999,21.387699999999999,-14.773899999999999,-39.0075
215385.0,111.45999999999999,-862.83699999999999,-799.59199999999998,-863.03200000000004,20.352499999999999,-19.191500000000001,-44.957099999999997
215386.0,129.304,-432.25700000000001,-375.73599999999999,-430.27600000000001,16.479199999999999,-27.8096,-59.155700000000003
215387.0,220.20099999999999,370.35000000000002,448.55399999999997,353.56900000000002,44.221400000000003,-15.862299999999999,-106.70399999999999
215388.0,176.92699999999999,761.33199999999999,877.90800000000002,731.20500000000004,36.036700000000003,-2.2054800000000001,-55.925600000000003
215389.0,246.54599999999999,6371.6099999999997,6372.1499999999996,6383.6800000000003,48.6736,-54.186700000000002,-122.105
215390.0,119.215,8900.0499999999993,8913.7800000000007,8975.1399999999994,-0.696963,-45.831400000000002,-32.212400000000002
215391.0,101.443,3353.0999999999999,3428.8699999999999,3355.2399999999998,11.415100000000001,-19.951899999999998,-32.264899999999997
215392.0,100.395,1713.9000000000001,1783.22,1698.8099999999999,20.4526,-9.5088200000000001,-28.722799999999999
215393.0,94.734899999999996,7390.9700000000003,7455.29,7436.8299999999999,-16.7102,-28.700500000000002,28.138000000000002
215394.0,253.70500000000001,6779.6499999999996,6756.6999999999998,6795.7700000000004,34.849800000000002,-71.296999999999997,-121.541
215395.0,188.548,887.70100000000002,955.42999999999995,865.50699999999995,43.512300000000003,-23.503799999999998,-84.911900000000003
215396.0,153.15299999999999,367.31,447.34899999999999,337.37799999999999,29.531500000000001,-15.894600000000001,-58.831899999999997
215397.0,201.13900000000001,2759.96,2817.46,2759.8499999999999,44.540399999999998,-32.759599999999999,-96.562399999999997
215398.0,208.339,2078.8699999999999,2121.1900000000001,2091.0,50.213000000000001,-34.852899999999998,-101.279
215399.0,219.92500000000001,4069.7800000000002,4092.9499999999998,4075.6500000000001,55.770699999999998,-36.950800000000001,-107.245
215400.0,234.822,4062.7800000000002,4070.29,4067.6999999999998,55.400799999999997,-45.419400000000003,-115.038
215401.0,230.06299999999999,-4884.5500000000002,-4884.9300000000003,-4883.3800000000001,47.336399999999998,-47.813699999999997,-114.523
215402.0,249.96199999999999,6874.9700000000003,6859.0699999999997,6885.5299999999997,43.524900000000002,-60.823700000000002,-122.70099999999999
215403.0,248.22900000000001,8589.0300000000007,8571.1399999999994,8626.8600000000006,21.712199999999999,-77.305199999999999,-115.25
215404.0,218.47399999999999,8781.8299999999999,8767.3199999999997,8839.5799999999999,10.6714,-71.877399999999994,-95.754400000000004
215405.0,189.559,8966.7700000000004,8955.2700000000004,9038.6100000000006,5.4889200000000002,-63.316800000000001,-76.802700000000002
215406.0,152.10300000000001,9024.2000000000007,9022.8600000000006,9101.8400000000001,2.26044,-53.444800000000001,-52.966200000000001
215407.0,136.84999999999999,-8841.9599999999991,-8838.3999999999996,-8757.9300000000003,-1.62134,-52.398000000000003,-35.157699999999998
215408.0,89.225800000000007,8379.4699999999993,8416.3999999999996,8445.8700000000008,-8.2476500000000001,-38.2012,-4.4297199999999997
215409.0,105.30500000000001,6365.1400000000003,6449.5,6385.54,-17.639500000000002,-23.215199999999999,30.148099999999999
215410.0,106.81,5288.0500000000002,5378.8699999999999,5302.1899999999996,-16.083400000000001,-31.166,-13.6052
215411.0,137.511,4482.75,4571.2399999999998,4504.04,-12.6066,-39.923499999999997,-49.162799999999997
215412.0,131.096,3973.0100000000002,4055.02,3989.9200000000001,-0.89385199999999998,-34.503999999999998,-51.599299999999999
215413.0,97.976500000000001,-3819.77,-3742.2399999999998,-3804.1700000000001,5.2490199999999998,-18.289300000000001,-34.001800000000003
215414.0,93.029600000000002,2502.04,2576.1500000000001,2491.1599999999999,18.020600000000002,-9.2475699999999996,-18.3172
215415.0,112.768,1055.9300000000001,1118.5899999999999,1042.1500000000001,19.722300000000001,-15.721,-44.080199999999998
215416.0,124.55500000000001,510.30399999999997,565.202,504.416,15.879200000000001,-22.980499999999999,-57.159100000000002
215417.0,152.04300000000001,119.223,180.72900000000001,107.76000000000001,14.3005,-27.214200000000002,-72.254999999999995
215418.0,33.520499999999998,61.8414,34.037999999999997,53.686700000000002,-12.725,0.065717899999999996,-2.8890400000000001
215419.0,142.404,-651.39200000000005,-559.26400000000001,-681.899,10.722899999999999,-8.0259,-50.0396
215420.0,162.28100000000001,-208.245,-123.485,-239.66399999999999,30.889399999999998,-11.907,-63.804000000000002
215421.0,170.58699999999999,-1821.8699999999999,-1759.79,-1837.52,38.944200000000002,-23.250900000000001,-77.153899999999993
215422.0,187.22200000000001,-2171.3299999999999,-2130.8099999999999,-2171.5,46.573099999999997,-29.622900000000001,-89.931600000000003
215423.0,208.69300000000001,-2588.46,-2564.0,-2585.4699999999998,49.652700000000003,-31.910599999999999,-104.19199999999999
215424.0,216.768,-3556.6700000000001,-3547.6199999999999,-3558.2600000000002,47.801200000000001,-37.203099999999999,-109.36499999999999
215425.0,241.95099999999999,-6664.3100000000004,-6678.2799999999997,-6658.4399999999996,44.082299999999996,-56.887999999999998,-119.29000000000001
215426.0,242.37799999999999,-6215.29,-6234.9499999999998,-6205.6700000000001,33.538200000000003,-67.104799999999997,-117.18300000000001
215427.0,235.607,-7234.0299999999997,-7248.1000000000004,-7208.8599999999997,24.258199999999999,-76.734300000000005,-107.84999999999999
215428.0,216.583,-8609.0400000000009,-8621.6000000000004,-8558.8199999999997,15.8024,-76.725499999999997,-91.631
215429.0,191.48099999999999,-8634.2299999999996,-8644.5900000000001,-8566.4400000000005,9.2591000000000001,-69.066299999999998,-74.593699999999998
215430.0,164.089,-8761.9300000000003,-8768.2700000000004,-8680.4699999999993,3.5589499999999998,-60.119700000000002,-54.32
215431.0,109.893,-8624.8199999999997,-8607.6499999999996,-8544.6000000000004,-9.6530900000000006,-45.612200000000001,-8.2089499999999997
215432.0,101.86499999999999,-7874.4399999999996,-7840.9300000000003,-7807.7299999999996,-17.270800000000001,-38.469900000000003,23.828700000000001
215433.0,94.376999999999995,-6904.8800000000001,-6851.9499999999998,-6866.4399999999996,-16.539999999999999,-33.930399999999999,28.2104
215434.0,99.371600000000001,-5874.2600000000002,-5799.1499999999996,-5861.2799999999997,-10.4034,-37.875700000000002,-11.7126
215435.0,138.13399999999999,-4910.8100000000004,-4824.3999999999996,-4899.2799999999997,-6.3504199999999997,-43.617600000000003,-47.081899999999997
215436.0,133.87700000000001,-4302.1700000000001,-4218.8800000000001,-4282.25,-1.61327,-37.293199999999999,-51.857599999999998
215437.0,83.004099999999994,-3058.7199999999998,-2986.0100000000002,-3057.4499999999998,12.7958,-5.0533000000000001,-19.371099999999998
215438.0,95.466099999999997,-2191.96,-2124.6799999999998,-2202.3600000000001,19.444600000000001,-5.9270199999999997,-29.098800000000001
215439.0,113.002,-1487.24,-1425.0599999999999,-1501.29,21.254300000000001,-12.5062,-44.7502
215440.0,130.05699999999999,-887.87,-829.38199999999995,-899.21600000000001,18.5791,-20.131399999999999,-59.020299999999999
215441.0,141.679,-415.65699999999998,-362.86900000000003,-418.31200000000001,13.6784,-26.2331,-69.553700000000006
215442.0,225.851,-1663.02,-1591.2,-1686.79,38.169499999999999,-20.0747,-112.544
215443.0,187.51300000000001,-58.024900000000002,66.156599999999997,-89.2941,36.661200000000001,0.071883699999999995,-60.131
215444.0,237.083,4496.46,4507.2200000000003,4505.3800000000001,46.578099999999999,-52.359200000000001,-117.43899999999999
215445.0,151.65700000000001,9051.1000000000004,9094.7700000000004,9159.75,-22.459199999999999,-50.2117,-40.640599999999999
215446.0,94.929199999999994,3774.5,3850.6199999999999,3749.4000000000001,14.667899999999999,-2.9919699999999998,1.31199
215447.0,109.574,1704.4400000000001,1774.75,1676.1300000000001,15.7675,-11.4146,-32.320999999999998
215448.0,97.464699999999993,8037.5900000000001,8106.1000000000004,8108.7799999999997,-23.8828,-27.646799999999999,14.266500000000001
215449.0,285.51100000000002,7752.9200000000001,7771.1400000000003,7790.6300000000001,22.732700000000001,-75.643000000000001,-143.44999999999999
215450.0,174.13200000000001,1741.9200000000001,1819.1600000000001,1727.3499999999999,37.504800000000003,-19.745000000000001,-76.655100000000004
215451.0,145.21199999999999,1136.6600000000001,1225.71,1112.4000000000001,26.6433,-14.0915,-50.599600000000002
215452.0,187.02799999999999,1350.29,1413.22,1350.01,34.658999999999999,-28.5106,-91.210999999999999
215453.0,181.721,3636.9899999999998,3679.4299999999998,3643.1999999999998,42.899299999999997,-32.156700000000001,-87.221100000000007
215454.0,190.33500000000001,3313.46,3338.3800000000001,3315.75,54.802500000000002,-33.095100000000002,-88.246399999999994
215455.0,221.96700000000001,5011.25,5026.7600000000002,5012.5699999999997,57.6083,-44.526400000000002,-105.10899999999999
215456.0,223.92500000000001,-4567.8400000000001,-4557.04,-4571.9200000000001,49.861499999999999,-49.412500000000001,-108.292
215457.0,249.94399999999999,5848.7700000000004,5857.25,5866.4499999999998,37.3855,-58.345500000000001,-126.26900000000001
215458.0,288.03199999999998,7577.3299999999999,7605.9700000000003,7648.6800000000003,0.88607499999999995,-83.760400000000004,-139.09899999999999
215459.0,250.142,8604.3899999999994,8636.3600000000006,8702.0499999999993,-13.1793,-77.105000000000004,-110.72
215460.0,219.24199999999999,9124.3199999999997,9158.5100000000002,9237.3700000000008,-20.637499999999999,-67.760999999999996,-87.426900000000003
215461.0,181.96600000000001,9260.8799999999992,9299.9899999999998,9376.6200000000008,-23.489000000000001,-57.238399999999999,-61.185000000000002
215462.0,167.34700000000001,-9068.3400000000001,-9026.4099999999999,-8946.6900000000005,-25.354099999999999,-53.488999999999997,-44.860999999999997
215463.0,121.114,8659.3799999999992,8713.4099999999999,8755.3600000000006,-23.408000000000001,-41.973199999999999,-16.267600000000002
215464.0,94.267700000000005,6982.3199999999997,7065.2799999999997,7027.1400000000003,-23.9026,-22.870200000000001,11.977499999999999
215465.0,125.81100000000001,6245.8599999999997,6330.1599999999999,6284.1000000000004,-24.9986,-35.689599999999999,-39.945500000000003
215466.0,131.53700000000001,5754.1700000000001,5829.4399999999996,5781.0500000000002,-17.038499999999999,-35.094200000000001,-52.825000000000003
215467.0,85.455600000000004,4929.0699999999997,5002.54,4926.1400000000003,0.84620600000000001,-15.7441,-17.6584
215468.0,66.628900000000002,-4500.0500000000002,-4440.5699999999997,-4511.5799999999999,4.1034499999999996,1.45299,2.9881199999999999
215469.0,101.828,2652.6900000000001,2728.5799999999999,2620.8200000000002,17.893799999999999,-3.9607000000000001,-7.44841
215470.0,125.91200000000001,991.04200000000003,1053.23,970.702,12.9621,-18.5106,-54.084600000000002
215471.0,134.08600000000001,479.67200000000003,533.16899999999998,470.37700000000001,9.18262,-22.2606,-65.304199999999994
215472.0,154.922,100.27800000000001,155.59899999999999,90.569100000000006,8.3837899999999994,-24.988399999999999,-77.941900000000004
215473.0,36.358499999999999,48.135199999999998,17.565899999999999,39.649799999999999,-13.513,-0.65491600000000005,-2.9300000000000002
215474.0,139.53,-588.553,-489.16899999999998,-610.85400000000004,6.6180099999999999,-8.6460799999999995,-46.626399999999997
215475.0,155.78100000000001,-1780.4100000000001,-1680.0,-1802.71,27.8812,-9.4630600000000005,-54.313600000000001
215476.0,164.726,-1378.6300000000001,-1301.9400000000001,-1389.1800000000001,31.377600000000001,-18.940899999999999,-73.717500000000001
215477.0,166.78399999999999,-2553.6599999999999,-2510.5599999999999,-2552.5700000000002,35.846499999999999,-24.358000000000001,-82.402299999999997
215478.0,176.84800000000001,-3692.02,-3669.4899999999998,-3692.6900000000001,44.702199999999998,-26.861799999999999,-86.780199999999994
215479.0,199.148,-4279.5200000000004,-4259.4799999999996,-4286.8599999999997,48.080100000000002,-35.2592,-97.284099999999995
215480.0,240.43799999999999,-4565.2299999999996,-4555.9899999999998,-4559.1000000000004,42.743299999999998,-57.859499999999997,-118.631
215481.0,266.14299999999997,-6846.25,-6816.8299999999999,-6824.8699999999999,27.3748,-72.263099999999994,-131.94
215482.0,271.95600000000002,-7617.3800000000001,-7579.4399999999996,-7564.3999999999996,11.525700000000001,-86.612700000000004,-127.56699999999999
215483.0,246.839,-7747.8900000000003,-7712.1800000000003,-7658.6999999999998,-4.00143,-84.648600000000002,-105.419
215484.0,220.453,-8728.6100000000006,-8691.2399999999998,-8618.5400000000009,-14.4983,-74.941599999999994,-85.089299999999994
215485.0,193.499,-9118.7000000000007,-9080.8899999999994,-8995.8899999999994,-21.620999999999999,-63.523699999999998,-63.418900000000001
215486.0,140.50200000000001,-8784.6000000000004,-8738.8700000000008,-8670.7099999999991,-28.234200000000001,-45.133499999999998,-21.481300000000001
215487.0,114.33799999999999,-8404.6700000000001,-8357.6900000000005,-8308.2800000000007,-27.4663,-34.757199999999997,8.4829000000000008
215488.0,92.202699999999993,-7549.5100000000002,-7494.1499999999996,-7485.5699999999997,-24.756399999999999,-30.4603,9.4056300000000004
215489.0,118.645,-6558.9399999999996,-6491.6099999999997,-6524.3400000000001,-22.104099999999999,-41.089700000000001,-37.171399999999998
215490.0,126.94,-6041.2399999999998,-5980.6300000000001,-6014.8100000000004,-18.991199999999999,-39.913200000000003,-49.939300000000003
215491.0,63.672899999999998,-5500.1899999999996,-5448.4099999999999,-5487.0,-9.7775800000000004,-16.889299999999999,-15.7034
215492.0,88.862499999999997,-3335.7800000000002,-3268.3699999999999,-3363.3800000000001,14.1134,0.873251,-6.5854699999999999
215493.0,107.98999999999999,-2290.7199999999998,-2224.3899999999999,-2321.8400000000001,17.2879,-9.8462800000000001,-31.8384
215494.0,129.80000000000001,-1453.76,-1391.3599999999999,-1480.0799999999999,15.710000000000001,-18.102499999999999,-54.454900000000002
215495.0,142.28399999999999,-844.09400000000005,-785.50199999999995,-862.16600000000005,12.0657,-22.158000000000001,-67.122699999999995
215496.0,150.68600000000001,-393.46499999999997,-342.36000000000001,-399.93799999999999,8.4281500000000005,-24.911300000000001,-76.696299999999994
215497.0,224.25800000000001,233.167,303.91500000000002,206.66999999999999,25.4373,-27.5185,-113.28
215498.0,198.72300000000001,891.54399999999998,1022.59,860.11800000000005,39.122,2.5028299999999999,-64.814700000000002
215499.0,234.38999999999999,4898.8199999999997,4931.6199999999999,4916.6999999999998,40.662199999999999,-47.705100000000002,-118.80200000000001
215500.0,178.84899999999999,9974.9599999999991,10035.799999999999,10111.700000000001,-32.416499999999999,-52.577399999999997,-46.420699999999997
215501.0,107.30200000000001,3958.2399999999998,4042.46,3925.29,9.8632100000000005,-1.4555400000000001,9.3448200000000003
215502.0,119.565,1759.6700000000001,1837.55,1731.1500000000001,3.0151300000000001,-16.503399999999999,-38.0822
215503.0,115.333,8663.2099999999991,8737.1900000000005,8755.2800000000007,-29.925699999999999,-29.5488,16.8872
215504.0,342.36000000000001,5838.4499999999998,5903.0500000000002,5904.4099999999999,13.6808,-78.531899999999993,-176.90299999999999
215505.0,160.97200000000001,683.50900000000001,757.51400000000001,669.14099999999996,36.730600000000003,-16.8475,-68.960899999999995
215506.0,141.21700000000001,379.983,463.73200000000003,353.048,31.036899999999999,-11.470000000000001,-47.125799999999998
215507.0,172.89400000000001,2429.6900000000001,2497.5999999999999,2427.8600000000001,32.104300000000002,-24.0686,-82.306200000000004
215508.0,153.036,1512.79,1556.73,1510.6700000000001,37.495800000000003,-27.021100000000001,-70.671199999999999
215509.0,153.76499999999999,2997.73,3024.6100000000001,2995.96,49.984900000000003,-29.8673,-65.061700000000002
215510.0,201.40600000000001,2647.6700000000001,2676.96,2652.21,51.018099999999997,-40.860300000000002,-94.871399999999994
215511.0,219.047,-3456.5599999999999,-3415.9099999999999,-3454.9899999999998,47.517000000000003,-47.471600000000002,-104.652
215512.0,270.702,5480.1800000000003,5526.1800000000003,5516.8400000000001,32.115600000000001,-57.885899999999999,-139.47499999999999
215513.0,352.04000000000002,8323.5499999999993,8391.7299999999996,8429.1800000000003,-10.6615,-87.389300000000006,-175.19200000000001
215514.0,302.23000000000002,9065.5599999999995,9133.4799999999996,9201.8400000000001,-26.1889,-80.366100000000003,-136.602
215515.0,262.98899999999998,9630.4099999999999,9694.4300000000003,9781.4400000000005,-33.118499999999997,-71.440700000000007,-105.39100000000001
215516.0,216.14099999999999,9942.7399999999998,10005.1,10091.700000000001,-34.702599999999997,-60.296700000000001,-71.695700000000002
215517.0,196.15700000000001,-9890.3400000000001,-9834.3400000000001,-9738.9300000000003,-37.256799999999998,-54.3461,-51.221200000000003
215518.0,142.32900000000001,9560.5400000000009,9625.1700000000001,9679.5200000000004,-32.409700000000001,-43.201900000000002,-16.959900000000001
215519.0,101.38,7881.5500000000002,7964.0200000000004,7947.8500000000004,-26.020499999999998,-28.776199999999999,3.3380399999999999
215520.0,111.44,7207.6800000000003,7280.7799999999997,7254.4799999999996,-18.839700000000001,-29.238399999999999,-39.479799999999997
215521.0,77.003600000000006,6438.4799999999996,6502.6099999999997,6451.5500000000002,-2.7068300000000001,-11.6928,-26.154499999999999
215522.0,86.373699999999999,5314.4300000000003,5387.3199999999997,5295.3000000000002,8.9465500000000002,0.74872300000000003,6.93621
215523.0,81.916499999999999,-4791.3800000000001,-4727.5900000000001,-4815.4099999999999,6.5413500000000004,-0.71230099999999996,11.558199999999999
215524.0,109.637,2701.4000000000001,2786.1399999999999,2667.8699999999999,6.0676100000000002,-9.5979600000000005,-12.74
215525.0,133.21600000000001,1055.5699999999999,1123.71,1035.8299999999999,2.36619,-21.2851,-57.713900000000002
215526.0,135.63200000000001,496.37900000000002,553.60900000000004,487.15199999999999,2.3004099999999998,-22.844000000000001,-65.641199999999998
215527.0,154.19900000000001,109.997,167.48699999999999,98.092699999999994,5.2175900000000004,-25.041699999999999,-76.775499999999994
215528.0,39.285499999999999,66.156499999999994,32.344999999999999,57.579599999999999,-13.911899999999999,-1.3674500000000001,-3.1800999999999999
215529.0,138.22999999999999,-745.87,-647.70299999999997,-765.65599999999995,9.6463099999999997,-9.3501899999999996,-46.887700000000002
215530.0,142.04300000000001,-86.829300000000003,3.3164099999999999,-111.11199999999999,27.130099999999999,-8.0149699999999999,-47.855600000000003
215531.0,156.06299999999999,-1499.1300000000001,-1420.04,-1509.9200000000001,28.437000000000001,-14.1907,-68.558400000000006
215532.0,148.21100000000001,-1712.8699999999999,-1666.46,-1713.3499999999999,29.9255,-18.4434,-73.218999999999994
215533.0,138.55000000000001,-1784.1300000000001,-1755.6400000000001,-1786.73,37.723999999999997,-21.6633,-64.875100000000003
215534.0,177.67400000000001,-2265.52,-2223.9000000000001,-2274.3899999999999,46.274500000000003,-33.703400000000002,-80.738799999999998
215535.0,255.84999999999999,-5266.2399999999998,-5215.9799999999996,-5246.8400000000001,39.968699999999998,-59.136600000000001,-126.81699999999999
215536.0,317.05099999999999,-5039.3400000000001,-4958.0900000000001,-4999.1300000000001,25.363800000000001,-78.270399999999995,-158.38900000000001
215537.0,329.43200000000002,-6704.1300000000001,-6621.2700000000004,-6621.1300000000001,2.8363499999999999,-90.266900000000007,-160.39599999999999
215538.0,295.13400000000001,-8728.9699999999993,-8659.6599999999999,-8601.9799999999996,-16.322800000000001,-86.810900000000004,-131.10900000000001
215539.0,262.19299999999998,-9206.2399999999998,-9141.3999999999996,-9057.8999999999996,-27.614000000000001,-77.190200000000004,-103.268
215540.0,228.858,-9628.6200000000008,-9571.6299999999992,-9470.5900000000001,-34.544199999999996,-65.283699999999996,-74.822699999999998
215541.0,163.583,-9778.0200000000004,-9721.8199999999997,-9638.6599999999999,-38.7639,-44.404800000000002,-23.0182
215542.0,133.45599999999999,-9102.7199999999993,-9046.7999999999993,-8984.1200000000008,-35.520800000000001,-32.403599999999997,10.232900000000001
215543.0,108.06100000000001,-8242.3899999999994,-8176.2200000000003,-8155.9799999999996,-31.249099999999999,-29.546099999999999,-0.65709200000000001
215544.0,114.943,-7539.5600000000004,-7473.54,-7483.3599999999997,-24.586099999999998,-30.747599999999998,-39.813400000000001
215545.0,68.821399999999997,-6898.6599999999999,-6852.4200000000001,-6866.5600000000004,-13.395,-12.2294,-26.2348
215546.0,48.381500000000003,-6033.9399999999996,-5987.7299999999996,-6033.0799999999999,-1.44109,4.2506199999999996,7.8304999999999998
215547.0,101.139,-3432.2399999999998,-3357.29,-3465.5799999999999,7.89452,-12.444000000000001,-10.792400000000001
215548.0,120.627,-2326.3600000000001,-2251.1799999999998,-2358.6399999999999,5.7320599999999997,-20.354500000000002,-36.917900000000003
215549.0,139.024,-1524.4200000000001,-1454.0599999999999,-1551.03,4.5645800000000003,-24.347200000000001,-57.607599999999998
215550.0,145.45400000000001,-889.31100000000004,-825.26400000000001,-907.91800000000001,4.5161600000000002,-25.549499999999998,-67.075599999999994
215551.0,149.619,-401.16300000000001,-347.33199999999999,-408.63099999999997,4.2254199999999997,-26.058599999999998,-75.143299999999996
215552.0,215.58000000000001,-1739.8800000000001,-1672.49,-1767.3,14.000400000000001,-33.9895,-108.444
215553.0,210.595,-54.512900000000002,82.609300000000005,-84.525499999999994,43.946199999999997,4.57456,-69.940100000000001
215554.0,230.69999999999999,2914.73,2966.0799999999999,2939.8400000000001,38.139200000000002,-46.900599999999997,-115.876
215555.0,203.18899999999999,10631.6,10695.0,10792.799999999999,-26.557600000000001,-54.494300000000003,-59.098599999999998
215556.0,102.485,3735.1700000000001,3820.8499999999999,3715.3000000000002,7.7085999999999997,-14.6172,-9.0371900000000007
215557.0,127.152,1906.3699999999999,1992.29,1891.3399999999999,-2.9826000000000001,-24.602,-42.529400000000003
215558.0,129.06899999999999,9688.0,9762.6000000000004,9799.6000000000004,-25.718900000000001,-36.756700000000002,17.587700000000002
215559.0,388.84100000000001,7045.3100000000004,7132.8100000000004,7125.3400000000001,23.175799999999999,-78.592100000000002,-203.304
215560.0,145.04400000000001,1664.79,1740.1700000000001,1652.6700000000001,29.739799999999999,-16.751799999999999,-59.999099999999999
215561.0,141.322,1182.03,1271.3399999999999,1155.6400000000001,25.6172,-10.6762,-47.0152
215562.0,152.77600000000001,1043.52,1113.8299999999999,1038.53,31.445399999999999,-18.003499999999999,-68.512200000000007
215563.0,129.52600000000001,3028.75,3077.2800000000002,3020.3000000000002,34.953800000000001,-19.3477,-55.2318
215564.0,123.955,2209.5999999999999,2242.6500000000001,2205.1599999999999,41.878900000000002,-24.446100000000001,-48.482599999999998
215565.0,173.00800000000001,3515.2199999999998,3553.5700000000002,3520.5999999999999,40.910200000000003,-35.965600000000002,-81.111800000000002
215566.0,213.851,-3033.1300000000001,-2957.9099999999999,-3023.9899999999998,45.082799999999999,-44.626399999999997,-97.6494
215567.0,297.72500000000002,4541.7700000000004,4613.25,4591.0100000000002,35.616799999999998,-60.784700000000001,-152.46299999999999
215568.0,404.077,7621.6199999999999,7702.4899999999998,7741.9300000000003,5.8708600000000004,-85.778800000000004,-208.018
215569.0,339.18599999999998,9286.2900000000009,9356.4500000000007,9435.6499999999996,-8.1346000000000007,-77.898399999999995,-163.19
215570.0,291.10700000000003,10237.5,10301.299999999999,10404.299999999999,-17.637699999999999,-69.369399999999999,-126.66800000000001
215571.0,241.50999999999999,10663.700000000001,10726.4,10833.0,-23.741299999999999,-60.576599999999999,-88.800899999999999
215572.0,216.30600000000001,-10563.0,-10512.0,-10392.200000000001,-29.675599999999999,-55.619900000000001,-62.684699999999999
215573.0,161.03899999999999,10322.0,10389.700000000001,10465.0,-28.979800000000001,-46.4878,-22.995999999999999
215574.0,99.444100000000006,8604.9400000000005,8678.8600000000006,8676.5900000000001,-15.759499999999999,-31.3565,17.256699999999999
215575.0,64.017200000000003,7535.4899999999998,7596.4899999999998,7564.4799999999996,1.72285,-19.1097,8.1741399999999995
215576.0,78.615899999999996,6281.46,6342.9700000000003,6274.8299999999999,17.202200000000001,-5.7723800000000001,17.859999999999999
215577.0,91.423199999999994,4923.3500000000004,4997.6700000000001,4904.8400000000001,16.314299999999999,-7.3448599999999997,7.2190399999999997
215578.0,95.408799999999999,-4418.3199999999997,-4338.8599999999997,-4430.3599999999997,12.602499999999999,-17.367999999999999,-10.099
215579.0,115.901,2765.29,2854.7399999999998,2748.3600000000001,0.045030599999999997,-21.0214,-27.725200000000001
215580.0,132.48500000000001,1180.04,1257.9200000000001,1168.4000000000001,-3.36694,-24.472999999999999,-53.581499999999998
215581.0,130.07900000000001,604.51999999999998,671.00300000000004,599.58100000000002,-2.1514199999999999,-22.032800000000002,-59.659500000000001
215582.0,151.35900000000001,145.554,215.68600000000001,131.72200000000001,2.9199799999999998,-23.5167,-71.0518
215583.0,40.7211,50.505800000000001,15.2644,42.563899999999997,-14.0266,-2.22906,-3.0501900000000002
215584.0,142.57599999999999,-609.19399999999996,-512.423,-628.42600000000004,11.8164,-9.5045500000000001,-51.776299999999999
215585.0,124.578,-1824.71,-1741.8499999999999,-1847.6900000000001,13.925599999999999,-8.3690599999999993,-42.544600000000003
215586.0,140.88499999999999,-1193.23,-1118.02,-1205.77,25.331,-9.3670000000000009,-60.286099999999998
215587.0,130.63900000000001,-2064.0700000000002,-2013.5,-2069.0599999999999,29.738800000000001,-12.3786,-60.8812
215588.0,118.39100000000001,-2831.8699999999999,-2783.3099999999999,-2832.7800000000002,35.896900000000002,-17.9861,-47.530000000000001
215589.0,161.749,-2960.7800000000002,-2893.3800000000001,-2964.4499999999998,43.841299999999997,-31.5654,-64.814700000000002
215590.0,276.66899999999998,-3140.4400000000001,-3053.0700000000002,-3111.6199999999999,42.009099999999997,-59.679099999999998,-134.934
215591.0,356.97300000000001,-5858.1800000000003,-5752.9399999999996,-5809.6700000000001,32.506599999999999,-78.534800000000004,-180.215
215592.0,373.541,-7317.0799999999999,-7223.1300000000001,-7225.3900000000003,13.961,-86.092799999999997,-189.81899999999999
215593.0,329.23599999999999,-8162.9099999999999,-8098.96,-8025.4799999999996,-2.94651,-81.189599999999999,-157.48699999999999
215594.0,285.37900000000002,-9657.6599999999999,-9604.2099999999991,-9499.5,-13.578900000000001,-72.568799999999996,-123.386
215595.0,248.48699999999999,-10388.799999999999,-10340.5,-10216.9,-22.818899999999999,-63.307200000000002,-90.528599999999997
215596.0,182.47800000000001,-10403.4,-10350.200000000001,-10241.0,-34.456200000000003,-47.115099999999998,-29.039400000000001
215597.0,150.83000000000001,-10059.299999999999,-10005.4,-9918.75,-33.0961,-36.879800000000003,9.8502100000000006
215598.0,114.315,-9164.2900000000009,-9105.1599999999999,-9062.5300000000007,-25.0579,-31.462299999999999,11.2478
215599.0,67.121200000000002,-8070.2299999999996,-8016.75,-8012.8800000000001,-9.91296,-18.9008,4.3183699999999998
215600.0,51.826700000000002,-7004.9099999999999,-6955.2600000000002,-6985.5500000000002,6.8292799999999998,-2.2915700000000001,14.735099999999999
215601.0,73.736500000000007,-5691.6899999999996,-5626.0699999999997,-5696.2200000000003,14.821099999999999,-5.0208000000000004,5.1433200000000001
215602.0,115.974,-3380.8800000000001,-3294.5900000000001,-3394.8499999999999,6.2596100000000003,-26.9285,-27.7529
215603.0,130.11500000000001,-2485.4400000000001,-2399.1900000000001,-2499.0,1.0923400000000001,-30.249199999999998,-42.386699999999998
215604.0,138.53100000000001,-1680.01,-1598.2,-1693.47,-1.31837,-29.459199999999999,-53.561100000000003
215605.0,139.86799999999999,-1020.6799999999999,-946.70500000000004,-1032.0799999999999,-0.52803199999999995,-26.332799999999999,-60.6539
215606.0,140.33500000000001,-487.84500000000003,-425.42099999999999,-492.04199999999997,0.45510499999999998,-23.862200000000001,-67.844700000000003
215607.0,200.96899999999999,355.22300000000001,423.28800000000001,331.29000000000002,-2.7522099999999998,-38.3964,-98.503
215608.0,220.797,866.09699999999998,1013.46,841.85199999999998,45.857300000000002,4.5011599999999996,-74.170599999999993
215609.0,220.36699999999999,3486.8200000000002,3559.21,3514.7600000000002,27.543900000000001,-47.619999999999997,-108.758
215610.0,229.12,10875.299999999999,10941.299999999999,11055.6,-16.962700000000002,-52.551600000000001,-78.287899999999993
215611.0,114.756,3513.52,3602.4299999999998,3504.6300000000001,8.5015300000000007,-28.746099999999998,-23.792000000000002
215612.0,132.97800000000001,1854.6300000000001,1942.8599999999999,1856.6800000000001,-0.063140199999999994,-30.892399999999999,-49.029899999999998
215613.0,132.89599999999999,9920.5699999999997,9991.5799999999999,10049.6,-17.432700000000001,-35.712299999999999,11.5657
215614.0,387.005,4782.75,4884.3999999999996,4865.3400000000001,28.170500000000001,-72.599000000000004,-202.33699999999999
215615.0,127.491,610.50800000000004,687.73699999999997,599.43899999999996,27.4712,-17.8322,-45.0715
215616.0,153.416,470.75299999999999,577.92399999999998,448.91800000000001,24.648199999999999,-8.1502999999999997,-49.031199999999998
215617.0,122.79000000000001,2032.7,2088.8000000000002,2020.55,36.923900000000003,-12.090199999999999,-46.8048
215618.0,124.099,747.57100000000003,781.71799999999996,725.97299999999996,45.9711,-12.1615,-45.631900000000002
215619.0,125.246,1946.6400000000001,1978.99,1935.3199999999999,45.581200000000003,-21.347100000000001,-46.711500000000001
215620.0,156.14500000000001,1383.6700000000001,1436.8499999999999,1390.0899999999999,33.866599999999998,-32.3506,-71.349199999999996
215621.0,207.935,-2158.8200000000002,-2057.9000000000001,-2146.1100000000001,35.093499999999999,-42.020499999999998,-91.618099999999998
215622.0,295.80599999999998,4156.6499999999996,4249.21,4210.3599999999997,27.318999999999999,-61.454799999999999,-149.947
215623.0,412.84899999999999,7655.0299999999997,7741.8500000000004,7774.3299999999999,23.788900000000002,-71.842299999999994,-217.44800000000001
215624.0,365.85500000000002,8845.3799999999992,8919.6299999999992,8995.5599999999995,12.6692,-65.497500000000002,-185.815
215625.0,326.85599999999999,9827.8400000000001,9897.25,10002.1,-2.0702600000000002,-62.689100000000003,-154.86000000000001
215626.0,272.56,10514.4,10580.5,10697.4,-11.5251,-56.933700000000002,-113.154
215627.0,239.90199999999999,-10620.4,-10567.799999999999,-10433.299999999999,-17.3916,-55.123199999999997,-80.812299999999993
215628.0,177.19300000000001,10701.9,10769.6,10865.5,-19.345199999999998,-45.3352,-35.854199999999999
215629.0,111.916,8907.5,8978.8400000000001,8988.1499999999996,-7.2035499999999999,-24.099699999999999,39.949199999999998
215630.0,118.158,7452.7299999999996,7525.3800000000001,7484.4499999999998,9.0168900000000001,-12.7127,55.537599999999998
215631.0,116.955,5882.1800000000003,5962.3599999999997,5882.5299999999997,17.051400000000001,-13.0847,44.315199999999997
215632.0,100.843,4583.1400000000003,4668.1700000000001,4574.1599999999999,13.899699999999999,-21.883800000000001,5.1086400000000003
215633.0,115.014,-4170.3699999999999,-4081.3899999999999,-4172.8199999999997,11.8622,-30.004100000000001,-25.582799999999999
215634.0,129.18799999999999,2585.73,2676.25,2584.73,1.57321,-31.378499999999999,-42.593800000000002
215635.0,127.801,1200.98,1284.46,1202.6700000000001,-0.42079800000000001,-27.827000000000002,-48.916800000000002
215636.0,122.78,606.80499999999995,681.70399999999995,612.68299999999999,-1.6386799999999999,-23.763999999999999,-52.180399999999999
215637.0,147.726,149.47,233.685,144.23699999999999,0.42936400000000002,-24.3842,-64.494399999999999
215638.0,40.747799999999998,67.775000000000006,31.990500000000001,60.880800000000001,-13.360300000000001,-2.6137800000000002,-2.7710900000000001
215639.0,149.88900000000001,-808.096,-714.60299999999995,-828.31799999999998,14.9192,-10.9689,-58.871600000000001
215640.0,118.53100000000001,-163.16200000000001,-73.098100000000002,-177.227,6.9589999999999996,-6.66425,-37.394300000000001
215641.0,117.092,-1275.04,-1206.1300000000001,-1287.45,29.393999999999998,-6.1825000000000001,-41.814799999999998
215642.0,127.79000000000001,-1065.04,-1012.85,-1079.52,44.034599999999998,-7.5418900000000004,-47.0901
215643.0,130.297,-841.24300000000005,-789.09900000000005,-850.36199999999997,49.172800000000002,-18.450199999999999,-42.5227
215644.0,160.065,-1154.6900000000001,-1076.1500000000001,-1154.71,45.547499999999999,-31.4725,-58.466900000000003
215645.0,271.685,-3949.8299999999999,-3836.23,-3918.3400000000001,29.330100000000002,-55.709299999999999,-131.15000000000001
215646.0,348.41000000000003,-3922.0599999999999,-3799.9099999999999,-3872.6199999999999,25.8186,-67.066900000000004,-177.548
215647.0,371.23000000000002,-5864.79,-5766.2700000000004,-5780.8800000000001,21.345500000000001,-67.998900000000006,-195.01499999999999
215648.0,344.37,-8283.5499999999993,-8219.6800000000003,-8155.04,12.616400000000001,-64.636099999999999,-176.25200000000001
215649.0,314.41300000000001,-9183.3999999999996,-9129.6700000000001,-9025.5100000000002,3.1224099999999999,-65.526200000000003,-149.00999999999999
215650.0,276.21600000000001,-10005.6,-9956.3999999999996,-9824.2199999999993,-8.0043399999999991,-61.281700000000001,-113.212
215651.0,199.83799999999999,-10796.1,-10743.0,-10613.4,-21.811900000000001,-47.430599999999998,-41.891599999999997
215652.0,161.63800000000001,-10306.6,-10254.700000000001,-10144.799999999999,-20.9802,-37.844700000000003,2.47553
215653.0,129.23599999999999,-9449.0900000000001,-9395.7299999999996,-9328.5799999999999,-12.7066,-27.459299999999999,31.705100000000002
215654.0,109.72499999999999,-8285.8400000000001,-8228.0100000000002,-8215.25,0.62258599999999997,-13.359400000000001,49.186199999999999
215655.0,96.177199999999999,-6738.7200000000003,-6667.25,-6709.79,10.9587,-10.383599999999999,39.535800000000002
215656.0,93.285899999999998,-5291.46,-5206.9899999999998,-5286.21,13.979699999999999,-21.454799999999999,2.2486799999999998
215657.0,136.05500000000001,-3187.8499999999999,-3095.0500000000002,-3190.0900000000001,7.8125900000000001,-35.582299999999996,-43.606900000000003
215658.0,138.76400000000001,-2361.6599999999999,-2270.9000000000001,-2359.98,4.4297000000000004,-35.060499999999998,-49.735399999999998
215659.0,133.06399999999999,-1679.5,-1592.25,-1677.8900000000001,1.6593899999999999,-30.975200000000001,-49.481999999999999
215660.0,131.39099999999999,-1037.4100000000001,-955.85799999999995,-1036.23,0.062119899999999999,-27.025600000000001,-53.280799999999999
215661.0,132.744,-493.82400000000001,-420.803,-487.00999999999999,-1.63289,-23.4314,-60.7866
215662.0,188.92699999999999,-1517.8299999999999,-1437.4400000000001,-1532.3,-26.6967,-37.385199999999998,-84.710700000000003
215663.0,219.52699999999999,-117.215,42.762500000000003,-129.52600000000001,40.619300000000003,-2.3981599999999998,-71.905799999999999
215664.0,222.339,1961.3900000000001,2059.5900000000001,1991.49,20.122699999999998,-46.011200000000002,-106.889
215665.0,258.137,10422.0,10500.0,10617.299999999999,-13.2326,-41.7425,-103.104
215666.0,123.973,3378.4299999999998,3480.2600000000002,3372.1900000000001,3.6958500000000001,-28.863600000000002,-24.397099999999998
215667.0,135.785,1754.0599999999999,1845.4000000000001,1762.6500000000001,-2.4611399999999999,-25.3886,-54.322000000000003
215668.0,143.30199999999999,10084.0,10159.6,10238.4,-12.5329,-26.4239,-5.25624
215669.0,330.42599999999999,5622.9099999999999,5739.8000000000002,5699.8800000000001,21.8062,-58.619500000000002,-170.15199999999999
215670.0,116.22,1605.04,1660.8299999999999,1578.99,38.205800000000004,-13.1166,-33.504600000000003
215671.0,164.048,1311.3599999999999,1422.9300000000001,1290.1199999999999,36.081699999999998,-6.97417,-50.302700000000002
215672.0,93.003399999999999,399.17599999999999,418.50999999999999,370.93700000000001,41.157899999999998,-7.5359100000000003,-23.664999999999999
215673.0,109.26900000000001,2013.22,2030.9100000000001,1980.9300000000001,43.645400000000002,-7.3135599999999998,-37.138300000000001
215674.0,132.601,1249.3,1290.21,1234.5699999999999,38.674700000000001,-22.657800000000002,-54.961799999999997
215675.0,159.88300000000001,2588.3499999999999,2660.5999999999999,2599.0500000000002,28.352599999999999,-32.7378,-71.587299999999999
215676.0,205.94399999999999,-2182.3899999999999,-2077.6900000000001,-2172.23,23.598199999999999,-42.448,-91.899600000000007
215677.0,280.36700000000002,3472.9400000000001,3586.4400000000001,3524.9499999999998,18.733699999999999,-58.685000000000002,-138.48699999999999
215678.0,364.54700000000003,5823.9499999999998,5930.9899999999998,5938.7700000000004,20.822399999999998,-51.840200000000003,-192.511
215679.0,372.76799999999997,7541.3999999999996,7642.0699999999997,7692.9899999999998,12.7189,-47.862400000000001,-194.71899999999999
215680.0,365.98500000000001,8998.5499999999993,9090.7800000000007,9178.3999999999996,-0.36161100000000002,-47.576000000000001,-185.19499999999999
215681.0,310.142,9998.1100000000006,10080.0,10190.700000000001,-7.0991999999999997,-44.756599999999999,-143.773
215682.0,268.35300000000001,-10161.799999999999,-10092.4,-9958.9099999999999,-10.0443,-46.579999999999998,-105.364
215683.0,196.923,10452.799999999999,10528.299999999999,10636.299999999999,-15.3125,-34.357599999999998,-54.849400000000003
215684.0,127.64400000000001,8963.5200000000004,9043.4400000000005,9072.9799999999996,-1.6425399999999999,-18.420500000000001,43.380499999999998
215685.0,154.577,7507.3500000000004,7597.3699999999999,7564.9399999999996,11.3584,-13.2889,74.700900000000004
215686.0,140.70400000000001,5948.4399999999996,6046.9899999999998,5965.9099999999999,14.512600000000001,-16.295999999999999,57.945900000000002
215687.0,113.56100000000001,4521.8299999999999,4623.4899999999998,4520.1700000000001,9.2533399999999997,-23.608899999999998,12.4122
215688.0,118.843,-4068.1199999999999,-3969.4200000000001,-4068.75,3.27826,-28.445900000000002,-24.894600000000001
215689.0,136.16200000000001,2496.4699999999998,2592.6300000000001,2498.27,-2.1046499999999999,-28.933299999999999,-48.089500000000001
215690.0,127.46899999999999,1111.1400000000001,1199.1300000000001,1122.01,-1.0566899999999999,-22.2712,-51.1631
215691.0,119.27200000000001,572.53599999999994,653.37599999999998,587.32000000000005,-2.0612900000000001,-19.3033,-50.122599999999998
215692.0,140.97999999999999,134.381,223.70400000000001,138.929,-2.02508,-20.8978,-60.442399999999999
215693.0,39.645200000000003,54.150700000000001,18.467500000000001,47.972099999999998,-12.0764,-2.83107,-2.5287299999999999
215694.0,151.405,-700.90599999999995,-609.09699999999998,-718.96400000000006,17.018599999999999,-13.453900000000001,-60.824300000000001
215695.0,116.565,-1927.7,-1842.79,-1940.46,20.574400000000001,-5.73149,-35.415399999999998
215696.0,98.903999999999996,-833.40200000000004,-784.60500000000002,-851.13499999999999,39.636499999999998,-3.07843,-22.207100000000001
215697.0,123.05,-1126.99,-1082.8900000000001,-1154.78,51.899500000000003,-4.64175,-31.903400000000001
215698.0,133.40899999999999,-1829.1800000000001,-1772.28,-1849.96,43.2776,-18.4511,-45.845799999999997
215699.0,154.83699999999999,-2134.6599999999999,-2059.5999999999999,-2136.0500000000002,35.649000000000001,-33.439599999999999,-60.735700000000001
215700.0,256.09300000000002,-2265.6500000000001,-2143.7600000000002,-2237.1700000000001,12.7774,-50.229900000000001,-122.91800000000001
215701.0,297.64400000000001,-4775.4399999999996,-4643.8900000000003,-4727.3699999999999,13.3413,-51.444899999999997,-149.25
215702.0,322.06700000000001,-5781.2600000000002,-5651.8500000000004,-5703.8800000000001,15.664099999999999,-45.1188,-167.494
215703.0,341.65300000000002,-6370.3699999999999,-6255.5299999999997,-6247.3000000000002,14.5456,-45.095500000000001,-178.68799999999999
215704.0,347.83199999999999,-8158.21,-8059.4799999999996,-7996.4099999999999,8.2273399999999999,-50.600200000000001,-176.21100000000001
215705.0,311.79300000000001,-9476.6900000000005,-9400.8700000000008,-9284.5599999999995,-1.86513,-48.978900000000003,-143.65700000000001
215706.0,219.17400000000001,-10386.799999999999,-10322.700000000001,-10184.799999999999,-13.2874,-39.639800000000001,-60.110900000000001
215707.0,175.095,-10332.200000000001,-10273.5,-10147.200000000001,-11.7403,-31.0487,-13.522
215708.0,149.262,-9627.7399999999998,-9572.1000000000004,-9477.3299999999999,-4.3059900000000004,-21.397099999999998,34.153399999999998
215709.0,147.905,-8333.2399999999998,-8270.0200000000004,-8231.4200000000001,5.5763299999999996,-13.319599999999999,66.6417
215710.0,119.935,-6841.9200000000001,-6761.2299999999996,-6790.7799999999997,9.7650400000000008,-15.0318,52.981099999999998
215711.0,97.648399999999995,-5340.5,-5246.8599999999997,-5324.8800000000001,6.9220800000000002,-22.500599999999999,10.383599999999999
215712.0,143.00899999999999,-3096.4899999999998,-2996.3699999999999,-3100.7399999999998,1.0159100000000001,-31.985099999999999,-47.999499999999998
215713.0,141.887,-2286.6100000000001,-2192.3800000000001,-2285.1399999999999,1.1339300000000001,-29.332599999999999,-54.175899999999999
215714.0,131.64400000000001,-1576.3,-1486.0999999999999,-1569.3099999999999,1.1769799999999999,-24.607800000000001,-51.494900000000001
215715.0,126.735,-976.23199999999997,-889.48900000000003,-966.48199999999997,-0.49000100000000002,-21.617100000000001,-51.268500000000003
215716.0,127.78700000000001,-471.98700000000002,-393.03300000000002,-456.75400000000002,-3.36904,-19.1145,-57.550800000000002
215717.0,187.96700000000001,443.80799999999999,547.05700000000002,445.52600000000001,-49.443199999999997,-34.721699999999998,-68.056100000000001
215718.0,205.29300000000001,818.92999999999995,981.13199999999995,815.55100000000004,33.177599999999998,-9.17042,-62.507899999999999
215719.0,219.02699999999999,3049.8800000000001,3184.23,3087.8899999999999,1.72858,-39.391399999999997,-98.182699999999997
215720.0,306.887,9910.4200000000001,10014.299999999999,10122.200000000001,-21.584399999999999,-24.587399999999999,-138.226
215721.0,126.604,3510.4000000000001,3627.29,3515.0900000000001,0.313967,-26.5425,-16.0837
215722.0,137.13900000000001,1723.8299999999999,1824.26,1734.95,-6.6630599999999998,-20.7561,-52.564599999999999
215723.0,166.91800000000001,9950.4099999999999,10042.4,10131.700000000001,-17.219000000000001,-9.3534500000000005,-26.261099999999999
215724.0,281.565,3491.21,3634.1900000000001,3569.6700000000001,11.675800000000001,-44.9236,-138.36600000000001
215725.0,114.938,382.99900000000002,419.75799999999998,344.13499999999999,43.427399999999999,-6.3347199999999999,-32.363900000000001
215726.0,157.90799999999999,383.584,474.791,355.75700000000001,47.798200000000001,-6.0109399999999997,-45.976900000000001
215727.0,68.954400000000007,1445.8099999999999,1457.1500000000001,1410.77,28.875399999999999,-3.0145400000000002,-12.5451
215728.0,78.183199999999999,-165.06200000000001,-121.947,-186.92599999999999,18.616599999999998,-3.9964300000000001,-24.120200000000001
215729.0,140.63200000000001,1194.6700000000001,1286.1500000000001,1196.24,7.0391599999999999,-19.980399999999999,-58.319600000000001
215730.0,173.71600000000001,891.46400000000006,1007.4400000000001,917.52300000000002,0.488348,-31.957599999999999,-73.042500000000004
215731.0,201.14400000000001,-1837.05,-1710.73,-1816.8199999999999,-4.7773700000000003,-37.655900000000003,-86.267399999999995
215732.0,262.79300000000001,3532.4000000000001,3675.0500000000002,3584.5799999999999,6.2060300000000002,-46.208500000000001,-125.04900000000001
215733.0,314.92399999999998,5544.4899999999998,5683.5200000000004,5662.8900000000003,10.744999999999999,-40.532699999999998,-160.22499999999999
215734.0,348.80500000000001,6419.7600000000002,6551.2700000000004,6570.8999999999996,4.8571400000000002,-34.965000000000003,-180.43100000000001
215735.0,371.76900000000001,7671.9700000000003,7789.9899999999998,7847.8400000000001,-4.8463700000000003,-28.704699999999999,-192.845
215736.0,349.07499999999999,8930.6900000000005,9038.1299999999992,9126.8299999999999,-12.755000000000001,-25.5459,-173.65199999999999
215737.0,308.86599999999999,-9389.1399999999994,-9281.9899999999998,-9175.5799999999999,-14.440899999999999,-27.8003,-139.34100000000001
215738.0,234.33600000000001,10263.0,10361.0,10470.9,-22.854099999999999,-17.520199999999999,-81.637600000000006
215739.0,130.76499999999999,9267.1700000000001,9358.8600000000006,9400.6499999999996,-3.4849100000000002,-3.2755299999999998,31.860199999999999
215740.0,159.423,7884.0799999999999,7983.25,7959.21,11.392799999999999,-2.88137,75.215199999999996
215741.0,154.673,6199.7200000000003,6309.3000000000002,6231.1000000000004,15.2684,-11.4602,66.525899999999993
215742.0,124.187,4722.9899999999998,4839.6099999999997,4735.3699999999999,7.7059699999999998,-21.811699999999998,22.4148
215743.0,118.995,-4276.2200000000003,-4164.9700000000003,-4264.0900000000001,-1.25485,-27.584,-15.2531
215744.0,136.392,2493.8899999999999,2603.02,2499.6300000000001,-4.7343999999999999,-25.671600000000002,-41.797800000000002
215745.0,131.929,1109.52,1203.51,1124.28,-4.8807900000000002,-16.5322,-54.311700000000002
215746.0,120.148,559.649,644.04600000000005,576.85000000000002,-3.4155000000000002,-13.723599999999999,-51.214199999999998
215747.0,135.30600000000001,130.91999999999999,220.68199999999999,137.62700000000001,-2.84375,-16.668700000000001,-57.589599999999997
215748.0,38.758600000000001,70.099000000000004,35.509700000000002,65.767600000000002,-11.4267,-3.0649799999999998,-2.3789500000000001
215749.0,142.05199999999999,-749.94799999999998,-661.30700000000002,-763.77300000000002,23.6188,-13.3066,-53.8523
215750.0,116.31999999999999,12.7667,76.621899999999997,-9.0815400000000004,36.779000000000003,-6.2781000000000002,-33.685200000000002
215751.0,87.073899999999995,-911.48400000000004,-879.02700000000004,-934.10799999999995,38.223399999999998,-2.85466,-17.075600000000001
215752.0,91.538899999999998,-339.36700000000002,-293.02300000000002,-368.077,31.3215,-3.2298200000000001,-19.1692
215753.0,136.06,-10.7064,87.365399999999994,-27.550799999999999,13.061299999999999,-14.467000000000001,-44.040799999999997
215754.0,160.76900000000001,-661.69200000000001,-549.88800000000003,-652.68200000000002,-0.80474100000000004,-28.0838,-62.994199999999999
215755.0,242.756,-3574.77,-3429.3299999999999,-3542.2199999999998,-5.1816700000000004,-41.441299999999998,-109.88
215756.0,259.697,-3182.5700000000002,-3027.1999999999998,-3125.0599999999999,2.9769800000000002,-40.941899999999997,-120.935
215757.0,287.15100000000001,-4290.1999999999998,-4119.4799999999996,-4201.6099999999997,11.3385,-37.930700000000002,-136.483
215758.0,325.33300000000003,-6043.3299999999999,-5876.4799999999996,-5916.8199999999997,11.4673,-34.267699999999998,-162.46799999999999
215759.0,352.80099999999999,-6911.2299999999996,-6763.0299999999997,-6754.5500000000002,6.5514200000000002,-30.907299999999999,-180.90600000000001
215760.0,342.08499999999998,-8155.4099999999999,-8033.4200000000001,-7966.8699999999999,-4.3222399999999999,-26.884,-170.655
215761.0,251.268,-10142.9,-10052.6,-9919.0,-18.0319,-22.3782,-86.796599999999998
215762.0,195.512,-10120.1,-10045.1,-9911.5200000000004,-16.338200000000001,-12.910399999999999,-33.796399999999998
215763.0,157.56100000000001,-9691.4400000000005,-9629.9599999999991,-9518.25,-8.3270499999999998,-2.4874700000000001,22.160699999999999
215764.0,155.304,-8747.5100000000002,-8686.6100000000006,-8626.7099999999991,3.3738100000000002,1.2378199999999999,66.168199999999999
215765.0,131.488,-7161.1099999999997,-7081.9499999999998,-7095.4499999999998,8.2086100000000002,-7.5455899999999998,62.013199999999998
215766.0,104.30800000000001,-5563.75,-5462.71,-5534.4399999999996,3.8633199999999999,-20.7178,21.919
215767.0,140.45699999999999,-3170.3800000000001,-3057.9899999999998,-3166.5300000000002,-4.2820799999999997,-28.599900000000002,-40.8521
215768.0,144.786,-2267.6500000000001,-2161.5900000000001,-2263.2600000000002,-3.94245,-25.5732,-52.123800000000003
215769.0,137.75299999999999,-1576.25,-1478.1700000000001,-1566.29,-1.8857200000000001,-20.869,-54.517899999999997
215770.0,128.279,-973.74199999999996,-882.45299999999997,-960.40499999999997,-1.1571899999999999,-17.048200000000001,-52.552999999999997
215771.0,124.256,-453.68099999999998,-372.44200000000001,-436.57299999999998,-3.6619700000000002,-14.759600000000001,-55.506999999999998
215772.0,193.387,-1653.8699999999999,-1521.22,-1626.98,-64.503299999999996,-33.330800000000004,-47.721699999999998
215773.0,180.66200000000001,-126.783,12.160299999999999,-135.94300000000001,34.259,-11.117900000000001,-51.9133
215774.0,212.554,1833.4100000000001,1983.0,1873.26,0.96556299999999995,-33.483600000000003,-89.084900000000005
215775.0,356.21899999999999,9200.5900000000001,9327.0200000000004,9416.8899999999994,-30.586200000000002,-9.3046600000000002,-171.65899999999999
215776.0,127.961,3660.9899999999998,3794.9699999999998,3692.8699999999999,-2.5162800000000001,-22.051200000000001,-8.16831
215777.0,133.87200000000001,1844.77,1959.76,1863.48,-7.1871700000000001,-17.467400000000001,-42.546199999999999
215778.0,179.791,10037.200000000001,10133.799999999999,10226.5,-9.06508,4.4815899999999997,-41.296500000000002
215779.0,277.26299999999998,4728.3900000000003,4907.5699999999997,4819.4499999999998,-1.63168,-35.029400000000003,-127.938
215780.0,109.628,1203.4400000000001,1247.3399999999999,1168.5999999999999,36.613100000000003,-2.8988299999999998,-33.172699999999999
215781.0,145.06899999999999,980.01199999999994,1046.2,944.24199999999996,52.082599999999999,-2.55138,-40.245399999999997
215782.0,72.090699999999998,71.367199999999997,115.265,50.051400000000001,20.426200000000001,1.13628,-14.427
215783.0,97.392700000000005,1672.75,1753.8099999999999,1666.23,14.932600000000001,-4.5407299999999999,-23.190100000000001
215784.0,162.81,1000.25,1126.9000000000001,1011.23,5.5427499999999998,-18.3306,-59.547400000000003
215785.0,190.381,2541.8899999999999,2683.3299999999999,2570.4699999999998,-1.10853,-28.339200000000002,-75.394599999999997
215786.0,207.16300000000001,-2226.6799999999998,-2069.27,-2196.0900000000001,-5.1972199999999997,-29.465599999999998,-80.280199999999994
215787.0,251.78200000000001,3003.6199999999999,3170.3899999999999,3061.7600000000002,1.39185,-35.190600000000003,-112.806
215788.0,294.84100000000001,4450.5699999999997,4624.5900000000001,4575.4899999999998,-6.3767899999999997,-30.904199999999999,-141.17599999999999
215789.0,312.91000000000003,5699.6400000000003,5860.3199999999997,5849.21,-10.4041,-23.8203,-154.62899999999999
215790.0,345.601,6877.1999999999998,7021.8599999999997,7049.0799999999999,-14.9619,-15.765499999999999,-175.51599999999999
215791.0,368.339,8105.5,8238.8999999999996,8300.0499999999993,-21.565100000000001,-11.1187,-186.38300000000001
215792.0,348.14800000000002,-8594.6399999999994,-8452.9799999999996,-8388.0499999999993,-23.353300000000001,-9.7416800000000006,-169.12200000000001
215793.0,273.5,9922.6000000000004,10035.299999999999,10140.1,-25.788599999999999,-2.6741700000000002,-111.50700000000001
215794.0,130.96199999999999,9201.3799999999992,9290.1599999999999,9339.4200000000001,12.4011,8.0270799999999998,24.587199999999999
215795.0,154.60499999999999,7869.7200000000003,7966.8900000000003,7954.4300000000003,25.8384,4.32118,66.975399999999993
215796.0,147.81999999999999,6324.9300000000003,6441.54,6378.79,20.544699999999999,-7.1536,58.349499999999999
215797.0,126.054,4859.96,4990.79,4901.3599999999997,6.0993199999999996,-17.583400000000001,21.8873
215798.0,121.70699999999999,-4418.1099999999997,-4289.5100000000002,-4373.6499999999996,-2.9116200000000001,-24.5915,-7.6206399999999999
215799.0,134.27500000000001,2700.6300000000001,2828.5799999999999,2724.9400000000001,-5.8138800000000002,-21.822800000000001,-29.710000000000001
215800.0,130.78,1142.1800000000001,1242.8199999999999,1158.6500000000001,-7.6772999999999998,-11.873799999999999,-50.8628
215801.0,120.476,599.24800000000005,686.02800000000002,615.26199999999994,-4.36843,-8.0995399999999993,-51.195900000000002
215802.0,136.35400000000001,143.423,238.24799999999999,147.63300000000001,-0.44474900000000001,-12.904299999999999,-56.219999999999999
215803.0,38.1203,52.658999999999999,19.116,50.324599999999997,-10.973000000000001,-2.6758500000000001,-2.4609800000000002
215804.0,130.315,-488.28399999999999,-413.86000000000001,-504.05900000000003,36.053400000000003,-10.8581,-43.844299999999997
215805.0,110.65900000000001,-1499.0599999999999,-1446.5699999999999,-1526.71,38.056199999999997,-6.0838999999999999,-30.651299999999999
215806.0,74.855199999999996,-563.65200000000004,-526.52200000000005,-581.99099999999999,26.844000000000001,-3.4322400000000002,-18.3508
215807.0,87.522099999999995,-945.62599999999998,-882.48199999999997,-964.50900000000001,15.827500000000001,-4.7315500000000004,-20.858599999999999
215808.0,151.24299999999999,-1577.3199999999999,-1458.02,-1589.0799999999999,7.7285399999999997,-15.2089,-45.564300000000003
215809.0,184.03,-2047.96,-1902.77,-2035.1600000000001,-3.65788,-22.364699999999999,-65.676599999999993
215810.0,242.85900000000001,-2072.8499999999999,-1891.3099999999999,-2026.76,-2.6089600000000002,-34.033499999999997,-97.930199999999999
215811.0,266.60300000000001,-4227.3699999999999,-4027.3899999999999,-4152.6499999999996,-2.2010999999999998,-34.249499999999998,-110.922
215812.0,280.45800000000003,-4792.4399999999996,-4590.79,-4687.2600000000002,-1.0216799999999999,-32.689500000000002,-122.384
215813.0,297.21199999999999,-4878.0900000000001,-4688.7200000000003,-4746.9799999999996,-2.8420700000000001,-26.402100000000001,-139.04300000000001
215814.0,324.86799999999999,-6233.3900000000003,-6057.8500000000004,-6083.1800000000003,-5.20566,-19.23,-160.56100000000001
215815.0,351.61799999999999,-7435.4799999999996,-7275.9899999999998,-7258.9399999999996,-12.718400000000001,-12.8537,-177.20599999999999
215816.0,284.04899999999998,-9563.1800000000003,-9452.8700000000008,-9337.1800000000003,-23.332100000000001,-1.6667700000000001,-116.518
215817.0,208.374,-10091.4,-10010.9,-9876.9200000000001,-12.9826,7.69137,-50.046700000000001
215818.0,159.434,-9745.6800000000003,-9687.3099999999995,-9569.5699999999997,3.3216299999999999,15.0222,13.7216
215819.0,151.67699999999999,-8647.3799999999992,-8588.3600000000006,-8521.75,17.617899999999999,12.2376,57.077800000000003
215820.0,129.21799999999999,-7232.9099999999999,-7145.5100000000002,-7149.4200000000001,17.040299999999998,-3.2763900000000001,53.175199999999997
215821.0,112.562,-5733.04,-5616.1400000000003,-5673.3400000000001,5.80532,-18.603999999999999,20.648
215822.0,134.428,-3381.1300000000001,-3251.9200000000001,-3349.8800000000001,-6.3986700000000001,-24.953299999999999,-28.549299999999999
215823.0,139.92599999999999,-2483.5,-2361.8299999999999,-2462.3800000000001,-5.9069200000000004,-22.238299999999999,-42.073399999999999
215824.0,138.989,-1664.53,-1555.6600000000001,-1648.3900000000001,-4.2378600000000004,-18.054500000000001,-51.4146
215825.0,129.101,-1012.03,-916.66899999999998,-997.81299999999999,-2.0225300000000002,-12.714399999999999,-52.377400000000002
215826.0,121.48999999999999,-490.70299999999997,-407.26499999999999,-475.15899999999999,-2.2367900000000001,-9.2680699999999998,-53.480899999999998
215827.0,185.18799999999999,550.02499999999998,699.59400000000005,598.29999999999995,-62.607100000000003,-30.269500000000001,-27.7241
215828.0,152.99199999999999,672.721,781.14400000000001,653.37199999999996,35.512500000000003,-9.9275800000000007,-41.229599999999998
215829.0,222.506,2783.3400000000001,2935.7199999999998,2821.7800000000002,17.962599999999998,-31.4498,-94.399699999999996
215830.0,365.27300000000002,8617.6700000000001,8754.8299999999999,8816.0200000000004,-35.287599999999998,4.3249700000000004,-181.36600000000001
215831.0,127.761,3748.7199999999998,3892.2800000000002,3809.23,2.3770799999999999,-13.671900000000001,-7.3162099999999999
215832.0,128.86500000000001,1949.3,2077.1700000000001,1983.24,-6.8379300000000001,-10.056800000000001,-31.620000000000001
215833.0,174.911,9365.1299999999992,9457.3500000000004,9536.4500000000007,-0.52507099999999995,16.8306,-50.623899999999999
215834.0,282.66899999999998,2887.8699999999999,3083.0599999999999,2984.3400000000001,-5.6397599999999999,-30.4756,-127.075
215835.0,112.098,17.376200000000001,76.482299999999995,-8.8340499999999995,33.763199999999998,-1.10067,-33.728099999999998
215836.0,131.28899999999999,-11.9758,44.051900000000003,-48.126100000000001,48.401600000000002,0.293072,-35.293900000000001
215837.0,93.227500000000006,1216.0999999999999,1284.49,1208.3800000000001,28.288900000000002,1.05383,-18.462900000000001
215838.0,116.72,-208.839,-114.77200000000001,-212.03399999999999,27.657499999999999,-6.6249000000000002,-26.063400000000001
215839.0,168.869,1175.3699999999999,1298.8,1178.75,24.2837,-19.642199999999999,-59.893500000000003
215840.0,198.59200000000001,772.74800000000005,908.40499999999997,790.37400000000002,22.011099999999999,-26.601700000000001,-80.704800000000006
215841.0,221.46199999999999,-1683.6400000000001,-1515.8699999999999,-1652.98,19.148900000000001,-29.1435,-84.566800000000001
215842.0,255.678,3038.5700000000002,3217.8699999999999,3104.9899999999998,8.8566500000000001,-33.2879,-111.294
215843.0,289.995,4844.8599999999997,5034.3900000000003,4968.6000000000004,-16.8873,-24.348700000000001,-133.767
215844.0,295.65800000000002,5406.8100000000004,5582.9899999999998,5553.7600000000002,-24.665099999999999,-16.947399999999998,-139.023
215845.0,315.06,6258.4200000000001,6418.8000000000002,6424.7399999999998,-28.0932,-8.60853,-152.71000000000001
215846.0,347.18900000000002,7362.6899999999996,7510.3699999999999,7545.04,-30.196300000000001,-0.77623699999999995,-172.88800000000001
215847.0,349.05099999999999,-7907.5699999999997,-7754.1999999999998,-7726.4399999999996,-30.901299999999999,2.4818799999999999,-173.595
215848.0,290.38499999999999,9427.7800000000007,9541.1499999999996,9625.1499999999996,-24.2043,11.063700000000001,-132.62200000000001
215849.0,132.20599999999999,8708.2099999999991,8798.1399999999994,8841.6700000000001,21.392099999999999,16.945900000000002,21.1799
215850.0,150.899,7397.7799999999997,7504.0699999999997,7500.1599999999999,30.428899999999999,9.0466700000000007,54.310400000000001
215851.0,139.13200000000001,5970.9899999999998,6099.4799999999996,6058.0699999999997,21.930900000000001,-2.5476999999999999,40.790799999999997
215852.0,127.001,4790.3999999999996,4931.4899999999998,4864.96,10.339499999999999,-10.4795,13.350199999999999
215853.0,125.444,-4473.3199999999997,-4333.0699999999997,-4396.4499999999998,3.1703999999999999,-15.268000000000001,-8.3494100000000007
215854.0,129.542,2769.5700000000002,2908.1500000000001,2816.29,-3.37093,-12.7432,-21.178699999999999
215855.0,125.56399999999999,1262.6800000000001,1373.3099999999999,1288.23,-8.3389299999999995,-6.7250199999999998,-42.256599999999999
215856.0,113.827,671.95500000000004,765.053,687.75699999999995,-3.0216599999999998,-1.94184,-42.7087
215857.0,139.654,171.50800000000001,276.77699999999999,168.03299999999999,2.30633,-7.7894199999999998,-51.139600000000002
215858.0,37.456099999999999,68.307000000000002,35.581000000000003,67.141400000000004,-10.489699999999999,-2.52725,-2.5489199999999999
215859.0,119.212,-389.654,-329.89100000000002,-409.995,42.0501,-8.1543399999999995,-34.187800000000003
215860.0,101.937,399.66800000000001,452.44799999999998,373.69499999999999,32.270299999999999,-6.0130499999999998,-27.8538
215861.0,76.128100000000003,-693.04300000000001,-646.98000000000002,-706.86900000000003,23.013999999999999,-2.1926800000000002,-20.349299999999999
215862.0,98.795599999999993,-306.125,-233.68600000000001,-318.54599999999999,20.070699999999999,-7.41282,-26.3672
215863.0,157.608,-60.781999999999996,57.380299999999998,-72.878,21.542899999999999,-18.580300000000001,-47.869399999999999
215864.0,194.548,-602.22400000000005,-456.64499999999998,-595.30899999999997,22.5808,-24.4969,-69.004099999999994
215865.0,252.52799999999999,-3259.2399999999998,-3061.6399999999999,-3203.5700000000002,11.412000000000001,-32.344099999999997,-98.486400000000003
215866.0,277.86099999999999,-2675.7399999999998,-2456.7399999999998,-2593.9299999999998,1.5165200000000001,-31.223700000000001,-111.85899999999999
215867.0,282.26400000000001,-3726.7399999999998,-3511.9699999999998,-3619.1100000000001,-8.2213399999999996,-25.826499999999999,-119.547
215868.0,283.50700000000001,-5293.9399999999996,-5095.0,-5163.3100000000004,-15.339499999999999,-20.116700000000002,-126.23
215869.0,296.10399999999998,-5764.1099999999997,-5581.2399999999998,-5617.0100000000002,-20.805700000000002,-12.8399,-138.68799999999999
215870.0,325.44799999999998,-6663.4300000000003,-6495.4300000000003,-6501.6300000000001,-25.297799999999999,-4.6620699999999999,-159.90600000000001
215871.0,296.053,-9071.0799999999999,-8956.1000000000004,-8872.4500000000007,-23.371400000000001,14.4216,-136.07599999999999
215872.0,204.46000000000001,-9456.6000000000004,-9380.2700000000004,-9263.2199999999993,-4.7607400000000002,24.7014,-61.769199999999998
215873.0,155.041,-9138.5200000000004,-9074.7199999999993,-8972.8299999999999,14.444599999999999,27.332799999999999,8.4921799999999994
215874.0,149.505,-8204.9599999999991,-8124.3400000000001,-8071.0900000000001,24.793099999999999,18.264600000000002,44.266100000000002
215875.0,132.70099999999999,-6792.3900000000003,-6679.0,-6681.2799999999997,20.3278,1.1267499999999999,35.415300000000002
215876.0,123.73099999999999,-5516.6899999999996,-5382.5500000000002,-5422.0799999999999,10.8024,-10.842599999999999,10.8344
215877.0,129.989,-3461.5300000000002,-3321.8699999999999,-3401.7800000000002,-1.6272200000000001,-15.990500000000001,-21.540700000000001
215878.0,132.15299999999999,-2548.46,-2415.6900000000001,-2503.8200000000002,-4.3161399999999999,-14.2363,-32.180900000000001
215879.0,133.46700000000001,-1791.3800000000001,-1670.95,-1759.52,-5.5782100000000003,-11.910299999999999,-43.255099999999999
215880.0,120.77,-1114.28,-1011.99,-1094.73,-1.9003300000000001,-6.3172699999999997,-43.236499999999999
215881.0,116.28700000000001,-540.53300000000002,-452.51900000000001,-528.41200000000003,-0.612147,-1.37263,-47.219900000000003
215882.0,166.012,-1451.8099999999999,-1300.6199999999999,-1388.5999999999999,-51.5899,-26.507100000000001,-7.5052500000000002
215883.0,136.09800000000001,-298.50700000000001,-215.31299999999999,-327.678,39.258600000000001,-5.3929999999999998,-34.701799999999999
215884.0,235.09700000000001,1239.23,1414.04,1282.46,14.0145,-27.6904,-95.759399999999999
215885.0,320.63299999999998,7662.0699999999997,7795.1400000000003,7830.9700000000003,-34.526699999999998,12.7249,-158.09800000000001
215886.0,134.136,3753.3000000000002,3907.1900000000001,3832.77,-6.97363,5.0353599999999998,-0.85375599999999996
215887.0,123.79600000000001,2159.2800000000002,2290.6100000000001,2200.7199999999998,-7.4449500000000004,3.8837600000000001,-23.040099999999999
215888.0,190.98599999999999,8675.6299999999992,8770.8899999999994,8829.0900000000001,-3.6987100000000002,25.341899999999999,-74.166399999999996
215889.0,284.19799999999998,4161.1999999999998,4365.2799999999997,4258.0600000000004,-10.4438,-27.093800000000002,-125.136
215890.0,110.476,897.21000000000004,966.35900000000004,881.03099999999995,34.183999999999997,-1.45868,-29.045300000000001
215891.0,120.38500000000001,638.48800000000006,699.42100000000005,607.18399999999997,41.449199999999998,2.2161200000000001,-30.1296
215892.0,102.20099999999999,-181.09299999999999,-118.642,-190.72200000000001,40.851399999999998,-1.12107,-16.7394
215893.0,122.664,1368.79,1450.97,1358.5599999999999,42.964700000000001,-8.1106800000000003,-23.180900000000001
215894.0,168.62299999999999,554.01800000000003,674.34100000000001,551.346,31.701899999999998,-19.007400000000001,-56.357599999999998
215895.0,203.72900000000001,1975.9000000000001,2123.5999999999999,1992.73,22.078900000000001,-24.065200000000001,-78.933899999999994
215896.0,230.286,-1692.8800000000001,-1509.72,-1660.3699999999999,17.141999999999999,-28.311900000000001,-83.852999999999994
215897.0,262.67399999999998,2421.98,2618.6999999999998,2492.7399999999998,3.28708,-29.325900000000001,-110.452
215898.0,290.01400000000001,3899.1599999999999,4094.4000000000001,4018.4099999999999,-21.6127,-21.467600000000001,-131.99600000000001
215899.0,288.62599999999998,5074.9200000000001,5252.0100000000002,5213.6099999999997,-30.690300000000001,-14.1562,-133.96700000000001
215900.0,285.23200000000003,6015.2600000000002,6174.1000000000004,6167.21,-33.492800000000003,-5.29915,-133.82400000000001
215901.0,304.221,6843.6599999999999,6992.7200000000003,7009.5900000000001,-34.867199999999997,2.4218799999999998,-145.90700000000001
215902.0,306.40199999999999,-7169.5699999999997,-7017.7200000000003,-7013.2299999999996,-31.125599999999999,9.1140000000000008,-149.40700000000001
215903.0,274.82100000000003,8411.1100000000006,8516.6200000000008,8569.8099999999995,-21.610399999999998,23.924399999999999,-132.709
215904.0,138.28999999999999,8008.9300000000003,8114.3800000000001,8156.3699999999999,11.8307,20.583500000000001,-6.3472200000000001
215905.0,147.71700000000001,6973.4899999999998,7098.5799999999999,7105.6099999999997,17.9709,13.8912,35.098100000000002
215906.0,144.98500000000001,5845.9399999999996,5989.3699999999999,5961.5100000000002,8.6998599999999993,7.7967300000000002,32.966299999999997
215907.0,138.05699999999999,4728.7399999999998,4882.5500000000002,4826.5100000000002,-1.7015499999999999,5.5193399999999997,16.156700000000001
215908.0,139.14400000000001,-4417.6800000000003,-4259.3400000000001,-4319.3900000000003,-5.3364799999999999,4.5622100000000003,-3.7608799999999998
215909.0,128.48400000000001,2931.1399999999999,3075.4499999999998,2991.5100000000002,-7.9384499999999996,4.7149799999999997,-12.834
215910.0,118.337,1459.5999999999999,1574.47,1484.96,-3.8324699999999998,3.7985899999999999,-31.580500000000001
215911.0,106.291,810.52700000000004,908.09500000000003,819.67899999999997,5.51302,5.2580200000000001,-28.363099999999999
215912.0,145.71600000000001,207.852,325.08999999999997,195.27699999999999,9.6638199999999994,-6.8328699999999998,-42.566600000000001
215913.0,38.8474,53.826099999999997,20.995799999999999,54.294199999999996,-11.2879,-2.32544,-2.3965100000000001
215914.0,112.121,-182.608,-130.63,-206.916,42.534999999999997,-5.7806899999999999,-28.792899999999999
215915.0,91.380099999999999,-1201.9200000000001,-1140.96,-1220.52,23.890899999999998,-4.03505,-21.5518
215916.0,78.049199999999999,-348.36799999999999,-300.93000000000001,-361.06299999999999,25.917000000000002,-1.3176300000000001,-18.7759
215917.0,106.58799999999999,-722.06100000000004,-653.78899999999999,-734.86199999999997,34.547699999999999,-9.2046799999999998,-24.679500000000001
215918.0,166.601,-1242.6300000000001,-1121.8499999999999,-1254.03,36.8093,-21.221299999999999,-45.628999999999998
215919.0,202.13,-1569.8599999999999,-1415.21,-1562.73,28.8537,-25.622900000000001,-67.142700000000005
215920.0,256.73200000000003,-1544.8199999999999,-1336.48,-1486.0699999999999,5.8601299999999998,-29.984400000000001,-97.456699999999998
215921.0,276.93000000000001,-3683.4299999999998,-3462.1100000000001,-3601.8899999999999,-3.23692,-29.184799999999999,-110.33199999999999
215922.0,282.26799999999997,-4250.8100000000004,-4035.3800000000001,-4147.1899999999996,-12.208600000000001,-23.705500000000001,-119.33
215923.0,278.21600000000001,-4325.3999999999996,-4127.0500000000002,-4202.7299999999996,-21.3596,-16.628299999999999,-122.67100000000001
215924.0,273.29000000000002,-5529.1700000000001,-5352.4099999999999,-5391.7299999999996,-27.990300000000001,-7.3428899999999997,-124.27800000000001
215925.0,287.54399999999998,-6419.0699999999997,-6252.96,-6271.2200000000003,-31.921399999999998,0.17163,-135.06800000000001
215926.0,275.053,-7977.5900000000001,-7864.6400000000003,-7820.0799999999999,-19.691099999999999,24.183700000000002,-132.86500000000001
215927.0,208.696,-8628.5200000000004,-8544.8099999999995,-8465.9899999999998,-3.9619300000000002,31.802099999999999,-82.979799999999997
215928.0,159.63800000000001,-8467.1800000000003,-8383.3099999999995,-8297.5599999999995,12.1143,28.249600000000001,-18.895499999999998
215929.0,155.328,-7603.6599999999999,-7497.54,-7442.4200000000001,18.272600000000001,20.2194,24.1509
215930.0,147.751,-6560.0100000000002,-6424.0699999999997,-6419.3800000000001,10.3758,10.618399999999999,26.008600000000001
215931.0,141.065,-5465.9700000000003,-5312.9499999999998,-5346.8599999999997,0.64866900000000005,5.7389000000000001,11.845599999999999
215932.0,134.858,-3547.0799999999999,-3395.23,-3469.5599999999999,-6.8111300000000004,4.1996000000000002,-15.2515
215933.0,128.13200000000001,-2751.6199999999999,-2613.79,-2694.4200000000001,-6.3164800000000003,3.3591000000000002,-25.035900000000002
215934.0,122.697,-1989.1700000000001,-1867.05,-1952.95,-3.78912,3.0326200000000001,-32.573
215935.0,109.97199999999999,-1295.04,-1190.77,-1279.3699999999999,4.3336100000000002,5.0621700000000001,-28.734999999999999
215936.0,110.76000000000001,-644.755,-553.72900000000004,-638.79200000000003,5.6220400000000001,4.8208200000000003,-37.968299999999999
215937.0,150.214,992.87400000000002,1136.49,1063.02,-41.616300000000003,-20.241900000000001,14.903600000000001
215938.0,124.31699999999999,465.83999999999997,539.83500000000004,437.19400000000002,39.055500000000002,-0.23097300000000001,-28.653199999999998
215939.0,246.18199999999999,2032.1600000000001,2227.6399999999999,2079.25,12.358700000000001,-25.128399999999999,-94.918599999999998
215940.0,252.70699999999999,6812.1099999999997,6932.8699999999999,6954.5200000000004,-30.205100000000002,13.5405,-119.593
215941.0,148.054,4533.8500000000004,4690.0699999999997,4627.1800000000003,-18.6478,22.831900000000001,16.108000000000001
215942.0,113.59699999999999,2720.54,2839.0799999999999,2740.0700000000002,0.84811300000000001,15.481299999999999,-4.6174600000000003
215943.0,222.47900000000001,7416.6599999999999,7525.5699999999997,7563.21,-24.1188,31.1754,-95.671899999999994
215944.0,285.08100000000002,2231.9400000000001,2446.2399999999998,2325.7399999999998,-14.0219,-22.948599999999999,-121.76600000000001
215945.0,104.693,-271.02800000000002,-202.24100000000001,-283.613,38.246200000000002,0.0484044,-16.4983
215946.0,121.59999999999999,-205.15799999999999,-133.815,-231.12700000000001,40.503300000000003,2.7400099999999998,-27.236799999999999
215947.0,101.623,754.13999999999999,809.62699999999995,742.69500000000005,46.036999999999999,0.57127799999999995,-6.40604
215948.0,123.88200000000001,-861.85199999999998,-778.90099999999995,-871.97900000000004,46.063899999999997,-7.5885600000000002,-18.119199999999999
215949.0,170.553,404.38900000000001,536.53200000000004,405.0,31.654599999999999,-17.681100000000001,-50.869199999999999
215950.0,212.452,-20.504799999999999,147.36699999999999,1.1573899999999999,21.211400000000001,-22.218499999999999,-75.920000000000002
215951.0,237.89599999999999,-996.60400000000004,-798.21500000000003,-962.44000000000005,14.376200000000001,-26.938500000000001,-81.751599999999996
215952.0,269.834,2341.73,2554.6999999999998,2414.7199999999998,0.085760900000000001,-25.837299999999999,-109.04300000000001
215953.0,288.654,4223.2200000000003,4424.3100000000004,4333.3800000000001,-23.705200000000001,-17.963699999999999,-129.41900000000001
215954.0,283.16399999999999,4757.1700000000001,4935.5600000000004,4883.5799999999999,-29.305199999999999,-11.4353,-131.607
215955.0,268.536,5426.4499999999998,5586.1999999999998,5566.1700000000001,-29.914300000000001,-4.3040000000000003,-124.69799999999999
215956.0,269.40300000000002,6138.5299999999997,6284.0900000000001,6287.2200000000003,-33.365499999999997,2.0236999999999998,-125.926
215957.0,249.15899999999999,-6431.9899999999998,-6292.9200000000001,-6293.5299999999997,-24.171900000000001,11.0261,-116.48699999999999
215958.0,236.36099999999999,7213.3400000000001,7318.25,7351.3699999999999,-24.474799999999998,24.7014,-110.547
215959.0,183.75,7556.6700000000001,7678.6099999999997,7712.9300000000003,-20.9023,34.630000000000003,-53.615699999999997
215960.0,158.59899999999999,7064.4099999999999,7201.1400000000003,7216.6700000000001,-13.970800000000001,34.044499999999999,-3.2791299999999999
215961.0,161.036,6220.6700000000001,6372.5299999999997,6361.54,-19.629999999999999,29.619,14.5054
215962.0,162.59899999999999,5393.0900000000001,5555.3599999999997,5519.5200000000004,-27.5123,24.903199999999998,13.011200000000001
215963.0,156.52600000000001,-5176.4399999999996,-5015.4200000000001,-5052.4700000000003,-16.754300000000001,26.032900000000001,9.8487299999999998
215964.0,128.523,3591.8699999999999,3729.2800000000002,3641.0599999999999,-4.9971500000000004,21.214600000000001,13.552199999999999
215965.0,109.169,1871.0599999999999,1974.5799999999999,1870.3399999999999,9.3311700000000002,10.4422,-13.3843
215966.0,107.76900000000001,1014.92,1106.3599999999999,1000.5,18.029699999999998,8.4273900000000008,-13.3992
215967.0,157.81899999999999,266.10399999999998,391.15600000000001,238.238,15.243,-8.9562299999999997,-36.832500000000003
215968.0,44.997799999999998,69.041600000000003,31.111599999999999,70.700999999999993,-12.681699999999999,-2.33968,-2.6787299999999998
215969.0,107.40600000000001,-195.36500000000001,-143.38900000000001,-219.50800000000001,39.4514,-5.1413700000000002,-27.3752
215970.0,88.631500000000003,592.35400000000004,658.00999999999999,579.64300000000003,25.085599999999999,0.67805300000000002,-14.826599999999999
215971.0,83.228200000000001,-331.14299999999997,-277.48599999999999,-341.38,32.731900000000003,2.3547600000000002,-7.37155
215972.0,118.16800000000001,239.636,320.91300000000001,231.19999999999999,42.493600000000001,-8.0534800000000004,-18.159500000000001
215973.0,171.91,612.327,745.23199999999997,608.22400000000005,39.836100000000002,-21.7712,-41.411200000000001
215974.0,207.59700000000001,111.40000000000001,281.00900000000001,122.465,26.811199999999999,-25.2056,-63.301099999999998
215975.0,261.29399999999998,-2603.6500000000001,-2384.4899999999998,-2544.1100000000001,3.0440100000000001,-28.067699999999999,-95.492500000000007
215976.0,276.17399999999998,-2037.45,-1812.02,-1957.6500000000001,-6.9698599999999997,-26.805,-107.666
215977.0,279.24099999999999,-3101.7199999999998,-2887.48,-3005.71,-15.4984,-21.838200000000001,-117.298
215978.0,272.35700000000003,-4669.3100000000004,-4474.2399999999998,-4557.6400000000003,-21.364999999999998,-15.0345,-120.268
215979.0,260.08100000000002,-5042.8699999999999,-4870.1199999999999,-4914.4799999999996,-25.179400000000001,-6.21197,-117.583
215980.0,262.02600000000001,-5682.4399999999996,-5519.8900000000003,-5543.6199999999999,-27.883700000000001,-0.0919489,-119.995
215981.0,233.64400000000001,-6987.5900000000001,-6870.04,-6854.6400000000003,-19.2819,23.235099999999999,-109.527
215982.0,223.34700000000001,-7229.79,-7115.5600000000004,-7085.7600000000002,-17.896999999999998,30.264800000000001,-98.037199999999999
215983.0,193.13399999999999,-7528.0900000000001,-7411.9700000000003,-7362.0900000000001,-13.1371,34.852899999999998,-61.578800000000001
215984.0,172.24799999999999,-7475.3299999999999,-7350.2799999999997,-7296.8900000000003,-6.2004799999999998,35.388500000000001,-14.538
215985.0,170.97200000000001,-6772.5699999999997,-6624.6400000000003,-6599.6700000000001,-11.123200000000001,29.464500000000001,4.3585200000000004
215986.0,170.642,-5953.5299999999997,-5788.3699999999999,-5797.2600000000002,-20.5593,25.144200000000001,4.6390500000000001
215987.0,133.964,-4258.0699999999997,-4115.3800000000001,-4183.6400000000003,-7.5237400000000001,27.174099999999999,9.6810700000000001
215988.0,117.916,-3303.1999999999998,-3180.6500000000001,-3271.4400000000001,-3.8376800000000002,23.007000000000001,-6.7878299999999996
215989.0,108.77500000000001,-2447.8699999999999,-2344.02,-2443.5500000000002,4.0018000000000002,17.165500000000002,-13.472
215990.0,107.254,-1580.9000000000001,-1489.26,-1595.1099999999999,14.3461,12.5862,-13.023199999999999
215991.0,112.22199999999999,-763.11300000000006,-676.14499999999998,-778.15099999999995,10.575200000000001,7.3858199999999998,-31.608599999999999
215992.0,149.483,-974.74400000000003,-842.03200000000004,-913.28499999999997,-38.666899999999998,-8.4978099999999994,38.338700000000003
215993.0,106.36,-525.39599999999996,-447.62900000000002,-533.34799999999996,35.301099999999998,-0.0391407,-16.779599999999999
215994.0,252.90799999999999,414.39600000000002,626.35900000000004,464.00999999999999,12.783300000000001,-23.403300000000002,-91.206100000000006
215995.0,221.19900000000001,5817.3699999999999,5937.4399999999996,5943.6700000000001,-28.407599999999999,13.790800000000001,-101.217
215996.0,133.28299999999999,5911.0200000000004,6039.0299999999997,6001.4300000000003,-5.0865999999999998,35.5,17.509799999999998
215997.0,124.435,3458.6199999999999,3558.9499999999998,3458.6900000000001,35.195399999999999,10.115600000000001,21.605699999999999
215998.0,237.328,6596.5799999999999,6718.3900000000003,6747.25,-38.540300000000002,29.3645,-100.158
215999.0,281.69,3299.0300000000002,3521.0500000000002,3387.4699999999998,-9.9387699999999999,-20.296600000000002,-115.961
216000.0,120.848,571.10799999999995,620.08600000000001,548.19399999999996,57.659100000000002,1.4661900000000001,-13.879899999999999
216001.0,125.815,546.30700000000002,613.31100000000004,520.87099999999998,48.441800000000001,2.2185800000000002,-25.390000000000001
216002.0,116.407,-841.53300000000002,-792.55799999999999,-854.04700000000003,58.745199999999997,2.2907600000000001,-2.1541600000000001
216003.0,131.65000000000001,602.77700000000004,693.17899999999997,597.39800000000002,50.809699999999999,-7.1317899999999996,-15.7752
216004.0,176.01300000000001,-237.13499999999999,-92.328599999999994,-230.30199999999999,34.674300000000002,-17.369800000000001,-46.341099999999997
216005.0,218.63800000000001,1157.72,1341.27,1183.6300000000001,23.090499999999999,-21.274899999999999,-71.272800000000004
216006.0,242.809,-953.78399999999999,-742.42100000000005,-917.524,14.0632,-26.342700000000001,-77.365399999999994
216007.0,272.928,1592.2,1817.01,1663.9200000000001,1.25518,-23.011900000000001,-105.41500000000001
216008.0,285.53300000000002,2967.9200000000001,3178.79,3070.6599999999999,-18.5154,-15.9642,-124.33799999999999
216009.0,281.899,4049.52,4240.54,4168.6499999999996,-24.307700000000001,-9.1882900000000003,-128.47399999999999
216010.0,263.154,4862.3400000000001,5030.6499999999996,4992.2200000000003,-26.854700000000001,-1.5575300000000001,-120.752
216011.0,245.36600000000001,5454.2299999999996,5596.6199999999999,5582.4700000000003,-30.404800000000002,6.0943800000000001,-113.815
216012.0,222.71299999999999,-5587.6400000000003,-5453.9700000000003,-5460.4200000000001,-19.82,10.783799999999999,-101.69799999999999
216013.0,220.40899999999999,6186.0699999999997,6300.9300000000003,6321.3500000000004,-29.308299999999999,19.545000000000002,-98.153300000000002
216014.0,239.97200000000001,6741.0799999999999,6869.9799999999996,6904.8400000000001,-46.867100000000001,43.055799999999998,-87.771500000000003
216015.0,216.93700000000001,6890.9399999999996,7024.6800000000003,7059.7299999999996,-43.666899999999998,52.367699999999999,-55.715800000000002
216016.0,201.572,6887.8299999999999,7029.1800000000003,7052.0799999999999,-42.155000000000001,52.708799999999997,-32.7776
216017.0,173.94999999999999,6610.2399999999998,6749.4499999999998,6749.21,-35.251300000000001,45.996400000000001,-16.701599999999999
216018.0,142.761,-6442.6999999999998,-6336.3699999999999,-6319.1000000000004,-6.8348699999999996,46.4694,10.3765
216019.0,137.61699999999999,4765.1499999999996,4880.6599999999999,4800.6999999999998,26.618500000000001,22.4284,40.013500000000001
216020.0,122.413,2251.5900000000001,2343.6599999999999,2230.96,36.223300000000002,3.9091200000000002,8.1740100000000009
216021.0,118.744,1167.78,1255.9200000000001,1139.52,31.595500000000001,3.08758,-2.4635799999999999
216022.0,166.649,286.89499999999998,417.47199999999998,253.36799999999999,15.0587,-13.1972,-36.590800000000002
216023.0,48.303699999999999,56.4238,14.8264,58.535699999999999,-12.3598,-1.72349,-3.8027700000000002
216024.0,99.715900000000005,-71.501900000000006,-13.229900000000001,-86.157499999999999,36.935400000000001,-4.3870800000000001,-21.043099999999999
216025.0,99.112399999999994,-1051.1500000000001,-997.11800000000005,-1066.8900000000001,41.404899999999998,3.2722600000000002,-14.493600000000001
216026.0,108.31100000000001,185.44999999999999,239.12700000000001,176.584,52.318399999999997,4.1291599999999997,-3.2997100000000001
216027.0,134.65700000000001,1.3182799999999999,95.683199999999999,-3.2751800000000002,51.497100000000003,-6.4546299999999999,-15.191000000000001
216028.0,176.37200000000001,-540.524,-396.30500000000001,-540.01099999999997,40.399500000000003,-20.215299999999999,-37.679900000000004
216029.0,211.02500000000001,-845.91099999999994,-665.27200000000005,-831.25400000000002,26.594200000000001,-24.868099999999998,-58.756100000000004
216030.0,264.95699999999999,-792.04499999999996,-561.61900000000003,-732.83299999999997,4.0891200000000003,-25.899699999999999,-91.618200000000002
216031.0,275.32900000000001,-2893.96,-2661.8699999999999,-2817.0999999999999,-4.1294899999999997,-23.791599999999999,-103.476
216032.0,279.01499999999999,-3403.7800000000002,-3180.9699999999998,-3312.6700000000001,-10.669499999999999,-20.051600000000001,-113.517
216033.0,273.30900000000003,-3398.5900000000001,-3191.7399999999998,-3292.4000000000001,-15.3034,-14.076599999999999,-117.336
216034.0,258.28300000000002,-4492.6700000000001,-4309.3800000000001,-4369.4899999999998,-19.298999999999999,-5.36104,-114.477
216035.0,244.75800000000001,-5200.0699999999997,-5040.3400000000001,-5071.3199999999997,-21.206900000000001,1.71936,-111.09
216036.0,219.84200000000001,-5897.5699999999997,-5768.6199999999999,-5764.4799999999996,-21.1525,16.495000000000001,-98.304100000000005
216037.0,233.70400000000001,-6376.7399999999998,-6235.7700000000004,-6228.3699999999999,-27.035699999999999,23.045200000000001,-99.767700000000005
216038.0,239.25800000000001,-6686.2200000000003,-6536.5200000000004,-6518.3299999999999,-31.510899999999999,35.456400000000002,-91.340000000000003
216039.0,224.72399999999999,-6854.6599999999999,-6708.8900000000003,-6670.1899999999996,-29.119399999999999,48.135199999999998,-64.853200000000001
216040.0,214.501,-6999.5299999999997,-6854.5,-6808.9499999999998,-30.445699999999999,51.1783,-43.4176
216041.0,191.066,-6887.3500000000004,-6752.8299999999999,-6714.79,-28.918199999999999,49.051000000000002,-26.583600000000001
216042.0,125.01300000000001,-5542.8299999999999,-5453.9099999999999,-5481.6099999999997,20.143000000000001,37.111199999999997,36.825099999999999
216043.0,109.003,-4263.6400000000003,-4177.8800000000001,-4256.2600000000002,26.680199999999999,22.005299999999998,22.486699999999999
216044.0,111.495,-2979.4099999999999,-2899.1300000000001,-3005.3499999999999,28.151599999999998,12.849299999999999,10.9346
216045.0,116.967,-1830.26,-1747.8299999999999,-1867.0599999999999,28.045500000000001,6.7201399999999998,-1.06715
216046.0,120.081,-840.49199999999996,-752.83000000000004,-868.28999999999996,12.0547,2.6530499999999999,-31.979600000000001
216047.0,157.36699999999999,1165.48,1290.1600000000001,1217.8699999999999,-33.240200000000002,2.0043000000000002,56.801200000000001
216048.0,91.487099999999998,345.74799999999999,418.61000000000001,353.178,34.337200000000003,-0.50646400000000003,-1.7583500000000001
216049.0,252.40100000000001,1074.96,1296.78,1125.29,14.700799999999999,-22.627500000000001,-83.5655
216050.0,228.11799999999999,4963.3599999999997,5090.4399999999996,5080.7600000000002,-39.128799999999998,18.898700000000002,-102.241
216051.0,111.97,6644.7200000000003,6723.5100000000002,6691.4899999999998,9.8530499999999996,48.4131,12.959199999999999
216052.0,162.124,3925.5300000000002,4014.73,3906.5300000000002,58.539099999999998,11.1816,43.266500000000001
216053.0,273.767,5936.1599999999999,6067.3000000000002,6086.7799999999997,-71.239900000000006,34.616100000000003,-109.53700000000001
216054.0,275.88400000000001,1041.9400000000001,1272.48,1124.3699999999999,-5.5443699999999998,-18.603000000000002,-106.521
216055.0,131.68600000000001,-756.673,-729.46900000000005,-787.86800000000005,68.116900000000001,-0.30284800000000001,-16.924299999999999
216056.0,118.22799999999999,-513.48900000000003,-470.64400000000001,-541.85400000000004,55.454900000000002,1.70688,-17.203800000000001
216057.0,125.139,109.889,155.07900000000001,97.847700000000003,65.642600000000002,0.067323999999999995,-0.74895900000000004
216058.0,135.97499999999999,-1614.1700000000001,-1518.3199999999999,-1613.79,54.737200000000001,-6.9564500000000002,-8.2529000000000003
216059.0,178.24100000000001,-415.81700000000001,-261.45699999999999,-402.24099999999999,37.466999999999999,-17.186599999999999,-39.819099999999999
216060.0,219.84399999999999,-899.21100000000001,-705.63199999999995,-869.58600000000001,26.106200000000001,-21.398,-64.024799999999999
216061.0,246.626,-161.11000000000001,63.775300000000001,-121.76600000000001,16.6266,-25.282299999999999,-70.247299999999996
216062.0,268.27600000000001,1286.1800000000001,1517.4400000000001,1353.8599999999999,4.39222,-21.174399999999999,-96.881500000000003
216063.0,280.202,2859.6700000000001,3083.8899999999999,2955.1799999999998,-14.4619,-14.3597,-114.434
216064.0,276.47500000000002,3214.79,3420.3699999999999,3323.75,-21.428100000000001,-6.8559000000000001,-119.977
216065.0,255.74299999999999,3737.8899999999999,3912.9099999999999,3854.3699999999999,-26.6906,2.9871599999999998,-114.639
216066.0,236.126,4325.8599999999997,4471.3199999999997,4442.6800000000003,-32.209600000000002,12.0966,-107.06999999999999
216067.0,231.16499999999999,-4598.8299999999999,-4450.79,-4474.6099999999997,-25.872199999999999,13.3895,-103.176
216068.0,239.89699999999999,5472.79,5596.5100000000002,5599.3999999999996,-51.355400000000003,25.463000000000001,-103.31100000000001
216069.0,280.61099999999999,6664.4399999999996,6792.0299999999997,6828.7600000000002,-78.189499999999995,47.446199999999997,-102.19799999999999
216070.0,252.86500000000001,7131.0100000000002,7246.7799999999997,7290.3900000000003,-68.252700000000004,57.747700000000002,-80.848100000000002
216071.0,213.453,7324.04,7426.5699999999997,7463.9899999999998,-53.2498,61.377000000000002,-57.748800000000003
216072.0,156.035,7239.9399999999996,7326.46,7339.8299999999999,-27.962199999999999,59.523200000000003,-29.1614
216073.0,123.71599999999999,-7060.0200000000004,-7021.9300000000003,-6992.8199999999997,5.6200200000000002,62.296300000000002,7.33887
216074.0,150.131,5440.1000000000004,5521.6099999999997,5440.4799999999996,47.070599999999999,28.246099999999998,47.905900000000003
216075.0,154.417,2429.02,2526.48,2402.3699999999999,53.248100000000001,3.1338400000000002,28.885000000000002
216076.0,128.91399999999999,1170.8,1268.9300000000001,1144.6400000000001,34.945399999999999,1.49329,4.7345800000000002
216077.0,169.90799999999999,271.04700000000003,410.88499999999999,246.09299999999999,9.1098800000000004,-14.229699999999999,-38.058799999999998
216078.0,45.3645,62.306600000000003,24.009599999999999,65.822000000000003,-11.273400000000001,0.47880699999999998,-4.5581100000000001
216079.0,98.180099999999996,22.077200000000001,82.340999999999994,14.856999999999999,42.160499999999999,1.0985199999999999,-7.8360500000000002
216080.0,108.087,1014.9,1052.3399999999999,993.94600000000003,53.414999999999999,1.4317599999999999,-12.8086
216081.0,115.953,224.19,268.44600000000003,217.27000000000001,60.616999999999997,0.51280000000000003,-6.0105000000000004
216082.0,133.447,891.28099999999995,982.84699999999998,890.66300000000001,54.537399999999998,-7.6409900000000004,-9.4602500000000003
216083.0,177.95400000000001,1331.4000000000001,1484.6099999999999,1335.02,40.8996,-19.168199999999999,-29.532800000000002
216084.0,215.071,885.46799999999996,1078.6099999999999,904.73500000000001,27.954599999999999,-23.735900000000001,-52.4985
216085.0,265.125,-1674.8099999999999,-1434.7,-1616.4400000000001,8.0909999999999993,-23.781700000000001,-84.366299999999995
216086.0,274.42500000000001,-987.76099999999997,-745.65200000000004,-913.70799999999997,0.41182000000000002,-21.496200000000002,-96.177700000000002
216087.0,279.47800000000001,-1912.1199999999999,-1674.1099999999999,-1824.1199999999999,-5.9797700000000003,-18.1357,-105.77500000000001
216088.0,275.26600000000002,-3321.3400000000001,-3094.8800000000001,-3220.8800000000001,-10.385300000000001,-11.928800000000001,-110.14700000000001
216089.0,256.92899999999997,-3522.21,-3322.0799999999999,-3408.8400000000001,-13.754799999999999,-2.4419599999999999,-108.34
216090.0,238.804,-3981.5300000000002,-3811.7600000000002,-3861.3699999999999,-18.516500000000001,6.3501099999999999,-104.905
216091.0,238.72,-5186.29,-5042.75,-5053.5500000000002,-37.943899999999999,18.5669,-104.024
216092.0,264.27600000000001,-5608.8100000000004,-5454.3500000000004,-5457.2799999999997,-55.463799999999999,24.492899999999999,-108.627
216093.0,271.37099999999998,-6262.8400000000001,-6114.0,-6093.71,-62.501399999999997,37.269100000000002,-103.554
216094.0,250.13399999999999,-6942.4700000000003,-6818.4700000000003,-6775.5699999999997,-57.428699999999999,52.534199999999998,-85.353899999999996
216095.0,217.934,-7256.2399999999998,-7158.2299999999996,-7106.7399999999998,-47.574199999999998,61.398899999999998,-63.487299999999998
216096.0,168.559,-7339.29,-7272.0600000000004,-7223.6499999999996,-27.061699999999998,64.567400000000006,-34.5931
216097.0,134.71899999999999,-6202.0799999999999,-6171.8699999999999,-6184.3800000000001,39.296900000000001,47.313200000000002,45.127899999999997
216098.0,140.21000000000001,-4844.6700000000001,-4792.5500000000002,-4862.3199999999997,48.906700000000001,24.2103,47.527200000000001
216099.0,139.34399999999999,-3327.6900000000001,-3252.04,-3360.6199999999999,45.497100000000003,10.0932,34.654000000000003
216100.0,126.718,-1932.1800000000001,-1839.3,-1963.98,33.2742,1.90469,6.6651499999999997
216101.0,126.495,-855.16700000000003,-755.23599999999999,-874.55799999999999,7.78986,-1.1201099999999999,-34.2318
216102.0,166.31299999999999,-1179.6500000000001,-1056.78,-1118.1600000000001,-19.276399999999999,8.5693599999999996,70.717600000000004
216103.0,91.563900000000004,-500.57999999999998,-453.47899999999998,-506.86399999999998,43.9071,1.72922,3.53668
216104.0,243.96600000000001,-676.35299999999995,-450.18599999999998,-626.32500000000005,15.6889,-22.297499999999999,-70.592399999999998
216105.0,258.83100000000002,4293.1199999999999,4429.1800000000003,4406.1300000000001,-69.424899999999994,32.151899999999998,-105.712
216106.0,110.188,6831.21,6878.79,6839.75,18.983000000000001,46.718299999999999,29.336500000000001
216107.0,187.512,3927.3099999999999,4010.1599999999999,3895.73,70.531800000000004,18.209199999999999,54.050800000000002
216108.0,333.262,6484.4499999999998,6606.0699999999997,6615.3400000000001,-122.34699999999999,47.209400000000002,-120.367
216109.0,267.68799999999999,1854.6800000000001,2092.5,1932.1700000000001,-4.9314400000000003,-18.762599999999999,-93.801699999999997
216110.0,109.19799999999999,-19.806999999999999,16.532499999999999,-40.411099999999998,55.854199999999999,3.2195100000000001,-3.6641400000000002
216111.0,107.786,59.577500000000001,85.655299999999997,30.893999999999998,55.742699999999999,3.3746100000000001,-1.9278
216112.0,119.258,-1378.7,-1318.1500000000001,-1383.8900000000001,57.912300000000002,0.69903199999999999,7.1009700000000002
216113.0,138.05600000000001,-53.022399999999998,53.645200000000003,-44.902799999999999,52.709400000000002,-5.5467899999999997,4.2675799999999997
216114.0,175.85900000000001,-1039.9100000000001,-875.86099999999999,-1019.46,36.605899999999998,-16.0305,-26.840599999999998
216115.0,215.87700000000001,229.024,430.36200000000002,262.90800000000002,27.720400000000001,-21.552199999999999,-51.772300000000001
216116.0,247.38300000000001,-23.0517,214.14500000000001,19.2483,19.664200000000001,-23.575299999999999,-58.745199999999997
216117.0,257.52100000000002,327.63600000000002,562.11300000000006,390.94,5.8872600000000004,-20.663599999999999,-83.243399999999994
216118.0,272.60300000000001,1338.05,1572.22,1427.8099999999999,-16.4651,-13.764900000000001,-101.75
216119.0,267.63999999999999,2244.8400000000001,2460.27,2342.8899999999999,-27.447099999999999,-4.1340700000000004,-107.11
216120.0,255.72900000000001,2945.77,3131.25,3052.0599999999999,-39.268099999999997,8.9465199999999996,-107.30800000000001
216121.0,248.46600000000001,3604.2600000000002,3760.3800000000001,3715.3600000000001,-52.1616,21.537099999999999,-104.577
216122.0,249.488,-3883.9099999999999,-3722.2199999999998,-3765.3400000000001,-51.3703,21.936900000000001,-103.04300000000001
216123.0,292.91899999999998,5248.3900000000003,5377.0799999999999,5369.96,-94.480999999999995,40.315899999999999,-113.211
216124.0,308.40899999999999,7409.8900000000003,7510.1199999999999,7532.3699999999999,-121.05200000000001,54.542700000000004,-99.093999999999994
216125.0,243.911,8032.0299999999997,8107.6000000000004,8132.1999999999998,-96.800299999999993,57.865400000000001,-66.235600000000005
216126.0,178.00200000000001,8170.1300000000001,8225.2000000000007,8246.1599999999999,-65.208399999999997,57.375500000000002,-38.414200000000001
216127.0,117.315,7728.8000000000002,7774.9700000000003,7775.5699999999997,-26.989899999999999,55.814999999999998,-4.9058799999999998
216128.0,115.97799999999999,-7318.9300000000003,-7311.1199999999999,-7300.7299999999996,13.3569,59.684100000000001,25.685500000000001
216129.0,166.679,5520.5100000000002,5581.3400000000001,5499.0500000000002,59.790900000000001,31.165400000000002,53.776600000000002
216130.0,173.61099999999999,2398.0300000000002,2499.3800000000001,2365.9899999999998,59.061100000000003,8.9547000000000008,40.375500000000002
216131.0,131.32900000000001,1152.45,1259.05,1129.49,29.688600000000001,4.7540100000000001,8.1202699999999997
216132.0,171.137,253.37,403.59199999999998,239.11600000000001,0.28790500000000002,-11.390000000000001,-36.456699999999998
216133.0,44.883299999999998,50.317599999999999,12.9277,54.171199999999999,-10.879,2.4136700000000002,-5.3239400000000003
216134.0,112.955,210.87799999999999,261.19400000000002,195.673,54.892699999999998,7.9714,-0.46724900000000003
216135.0,100.66,-438.24599999999998,-394.88299999999998,-452.75200000000001,49.420299999999997,3.6724999999999999,3.87635
216136.0,102.489,667.09000000000003,724.83600000000001,666.68299999999999,48.758000000000003,1.68835,1.30219
216137.0,125.428,485.06,582.00199999999995,495.56,48.601999999999997,-7.1949399999999999,0.34748400000000002
216138.0,178.62899999999999,128.714,294.29199999999997,142.999,39.9114,-17.988,-17.361799999999999
216139.0,217.77099999999999,-56.521500000000003,151.14500000000001,-30.930199999999999,28.436199999999999,-21.783100000000001,-41.266300000000001
216140.0,262.16699999999997,315.96300000000002,564.58100000000002,372.82799999999997,11.1023,-21.982299999999999,-73.041300000000007
216141.0,272.48000000000002,-1613.45,-1360.4200000000001,-1542.04,2.1536,-20.726900000000001,-85.4178
216142.0,277.18799999999999,-1956.5899999999999,-1704.9000000000001,-1870.96,-5.7522500000000001,-17.729099999999999,-94.274699999999996
216143.0,271.221,-1775.72,-1536.26,-1680.8699999999999,-12.5693,-10.7143,-98.517200000000003
216144.0,255.636,-2709.1599999999999,-2494.23,-2605.6999999999998,-20.710599999999999,-0.021186199999999999,-98.997200000000007
216145.0,244.161,-3342.5999999999999,-3157.46,-3229.6999999999998,-33.185400000000001,11.907,-99.606399999999994
216146.0,278.01400000000001,-4612.4200000000001,-4461.5100000000002,-4487.3699999999999,-78.232799999999997,29.607900000000001,-110.696
216147.0,315.90100000000001,-5751.2600000000002,-5610.04,-5617.6199999999999,-107.747,36.415700000000001,-118.401
216148.0,299.113,-6870.2600000000002,-6767.6400000000003,-6742.3100000000004,-112.51600000000001,48.861400000000003,-100.92
216149.0,245.00999999999999,-7653.4300000000003,-7591.21,-7547.2799999999997,-94.498199999999997,58.012099999999997,-69.783000000000001
216150.0,184.37299999999999,-8080.3999999999996,-8044.8199999999997,-8002.4099999999999,-67.402100000000004,60.530000000000001,-39.994199999999999
216151.0,128.071,-7962.9700000000003,-7945.6199999999999,-7912.7399999999998,-30.675000000000001,61.8992,-6.6315
216152.0,154.446,-6300.1000000000004,-6285.3100000000004,-6316.29,50.110599999999998,48.137900000000002,53.691699999999997
216153.0,170.96000000000001,-4882.3999999999996,-4834.54,-4916.0600000000004,60.820900000000002,30.6114,58.5488
216154.0,159.822,-3301.0100000000002,-3220.04,-3334.0900000000001,53.912300000000002,16.335999999999999,43.566800000000001
216155.0,129.524,-1913.6400000000001,-1808.0699999999999,-1934.4100000000001,30.233599999999999,4.70885,8.1036099999999998
216156.0,130.084,-852.73699999999997,-739.19299999999998,-858.74699999999996,-0.29113099999999997,0.71811499999999995,-33.212600000000002
216157.0,190.76400000000001,1310.8499999999999,1434.1900000000001,1386.52,-4.2438000000000002,17.862100000000002,89.024199999999993
216158.0,99.077200000000005,315.947,335.34699999999998,291.37,52.255200000000002,5.18614,5.3725800000000001
216159.0,235.39599999999999,8.0788899999999995,240.51499999999999,59.979900000000001,15.0589,-21.236499999999999,-53.918199999999999
216160.0,288.90899999999999,4321.5,4458.1800000000003,4429.5200000000004,-94.462599999999995,42.104199999999999,-109.23099999999999
216161.0,114.066,7238.9300000000003,7276.3400000000001,7248.54,27.302,34.788800000000002,44.763800000000003
216162.0,222.90899999999999,3824.8499999999999,3909.5599999999999,3802.6700000000001,86.456500000000005,18.988099999999999,74.469099999999997
216163.0,356.459,6902.7399999999998,6994.3000000000002,7013.3500000000004,-134.33600000000001,51.083199999999998,-134.916
216164.0,262.91899999999998,-406.10199999999998,-159.56299999999999,-330.13099999999997,-8.4896100000000008,-19.2227,-81.605500000000006
216165.0,115.084,-1303.02,-1256.79,-1312.8499999999999,57.972900000000003,8.5127600000000001,9.24681
216166.0,119.785,-845.74099999999999,-826.55600000000004,-880.49900000000002,63.369700000000002,4.4018199999999998,-0.10861899999999999
216167.0,129.857,-384.01999999999998,-308.73899999999998,-382.54399999999998,60.495699999999999,5.0485800000000003,9.1081299999999992
216168.0,147.911,-2116.1399999999999,-1997.24,-2102.98,54.780500000000004,-4.14405,5.1092899999999997
216169.0,179.518,-1052.24,-876.36099999999999,-1025.71,36.509999999999998,-14.273099999999999,-14.6714
216170.0,214.22499999999999,-1736.26,-1521.5799999999999,-1696.49,25.738,-19.334900000000001,-34.895099999999999
216171.0,247.905,718.56200000000001,968.875,764.64999999999998,20.107299999999999,-20.689499999999999,-43.648000000000003
216172.0,247.69200000000001,5.4951600000000003,244.846,67.749200000000002,5.9145700000000003,-20.7102,-67.567099999999996
216173.0,269.73200000000003,1302.72,1545.99,1390.6800000000001,-25.818899999999999,-12.737399999999999,-90.829899999999995
216174.0,268.31999999999999,1639.5699999999999,1864.6400000000001,1735.0599999999999,-43.553699999999999,-0.37830799999999998,-96.644900000000007
216175.0,265.68700000000001,2286.5300000000002,2481.9400000000001,2386.25,-60.811300000000003,14.829599999999999,-100.32299999999999
216176.0,269.791,3180.96,3344.1199999999999,3285.0100000000002,-76.652299999999997,29.5548,-103.392
216177.0,265.20999999999998,-3656.5599999999999,-3497.7600000000002,-3551.7399999999998,-78.446100000000001,28.8095,-99.707800000000006
216178.0,325.279,5587.7799999999997,5702.1000000000004,5697.6599999999999,-115.783,48.618899999999996,-123.715
216179.0,318.06599999999997,8231.0699999999997,8296.5699999999997,8331.5,-125.393,53.2883,-112.072
216180.0,232.886,8865.3799999999992,8905.2900000000009,8943.8799999999992,-92.771100000000004,53.1145,-71.486599999999996
216181.0,154.935,8858.2700000000004,8885.5900000000001,8915.3199999999997,-58.334000000000003,50.595999999999997,-34.993699999999997
216182.0,90.366,8359.2900000000009,8386.9500000000007,8391.5100000000002,-20.7242,43.997999999999998,7.2655099999999999
216183.0,116.039,-7866.6700000000001,-7866.8100000000004,-7848.75,22.837599999999998,48.085299999999997,39.328099999999999
216184.0,194.55799999999999,5593.04,5653.46,5584.7299999999996,72.303799999999995,26.805399999999999,72.5535
216185.0,183.15000000000001,2256.02,2360.0799999999999,2233.6399999999999,65.735299999999995,10.983599999999999,46.759999999999998
216186.0,128.41,1059.6800000000001,1170.1700000000001,1046.7,28.326799999999999,7.5550499999999996,5.7808599999999997
216187.0,170.33199999999999,232.703,388.24900000000002,226.624,-3.4275699999999998,-7.7385099999999998,-34.741199999999999
216188.0,48.407800000000002,63.710099999999997,22.800000000000001,66.657799999999995,-10.3681,4.5063599999999999,-7.2336099999999997
216189.0,128.74700000000001,229.34800000000001,267.14400000000001,203.94999999999999,66.439999999999998,8.9264200000000002,-4.4821499999999999
216190.0,112.898,1501.49,1553.1500000000001,1492.0599999999999,53.4634,10.079599999999999,14.387
216191.0,118.453,729.30100000000004,806.63800000000003,731.78200000000004,50.943899999999999,7.1903600000000001,9.9155599999999993
216192.0,139.07499999999999,1303.5699999999999,1419.23,1321.26,50.516800000000003,-3.7519,0.035781399999999998
216193.0,184.27099999999999,1822.4400000000001,2000.3299999999999,1851.3399999999999,42.103299999999997,-15.9338,-13.362500000000001
216194.0,222.70699999999999,1544.4100000000001,1769.0799999999999,1580.6300000000001,28.801400000000001,-18.872599999999998,-28.234000000000002
216195.0,256.65100000000001,-562.01300000000003,-307.09899999999999,-505.77699999999999,11.2224,-21.223299999999998,-58.687600000000003
216196.0,268.80099999999999,314.90600000000001,575.96400000000006,383.88999999999999,-0.18481800000000001,-22.069700000000001,-72.781999999999996
216197.0,272.80799999999999,-466.88600000000002,-207.18299999999999,-384.03500000000003,-12.4872,-18.9331,-81.828599999999994
216198.0,266.77699999999999,-1793.04,-1546.3599999999999,-1701.03,-25.18,-10.3256,-86.273300000000006
216199.0,256.60899999999998,-2027.0899999999999,-1805.52,-1930.29,-40.582000000000001,2.51945,-89.202100000000002
216200.0,251.98699999999999,-2674.04,-2485.48,-2573.8099999999999,-57.962600000000002,16.4742,-92.921300000000002
216201.0,302.82999999999998,-4807.5699999999997,-4672.7799999999997,-4700.4099999999999,-104.13500000000001,37.148800000000001,-115.21899999999999
216202.0,339.13799999999998,-5984.0100000000002,-5877.1800000000003,-5876.0699999999997,-126.988,42.482900000000001,-128.69900000000001
216203.0,315.71199999999999,-7378.1099999999997,-7315.4499999999998,-7274.0200000000004,-122.249,51.409399999999998,-113.53700000000001
216204.0,244.31399999999999,-8470.3799999999992,-8445.6599999999999,-8382.1599999999999,-92.793700000000001,57.073099999999997,-77.183400000000006
216205.0,171.49799999999999,-8774.5499999999993,-8767.6000000000004,-8708.7900000000009,-60.463999999999999,56.925800000000002,-40.029299999999999
216206.0,112.764,-8575.5699999999997,-8577.0100000000002,-8531.3099999999995,-23.1252,55.032400000000003,-0.58314200000000005
216207.0,184.292,-6538.8400000000001,-6518.2600000000002,-6545.9899999999998,63.774500000000003,40.122100000000003,73.734999999999999
216208.0,210.80099999999999,-4824.5799999999999,-4766.8299999999999,-4847.8800000000001,77.958600000000004,30.069099999999999,78.035300000000007
216209.0,174.10400000000001,-3145.0300000000002,-3053.5999999999999,-3168.6799999999998,61.478000000000002,17.834599999999998,48.0959
216210.0,130.93700000000001,-1785.6700000000001,-1670.8900000000001,-1795.71,28.683399999999999,7.8002200000000004,4.7156000000000002
216211.0,132.29900000000001,-805.50999999999999,-686.04600000000005,-804.84000000000003,-3.9310100000000001,5.2141200000000003,-32.573399999999999
216212.0,226.202,-609.899,-491.02999999999997,-545.13900000000001,8.0196699999999996,32.864100000000001,111.218
216213.0,101.77800000000001,-766.50599999999997,-769.47000000000003,-783.37,56.030000000000001,6.4818100000000003,13.8009
216214.0,232.32400000000001,-1518.1700000000001,-1279.48,-1463.0999999999999,18.072399999999998,-19.960000000000001,-40.574800000000003
216215.0,273.12200000000001,3977.2199999999998,4097.9499999999998,4076.1399999999999,-89.158100000000005,36.182200000000002,-107.084
216216.0,99.381900000000002,7521.0799999999999,7550.9200000000001,7543.0799999999999,23.905899999999999,36.715200000000003,33.665700000000001
216217.0,254.11799999999999,4100.29,4192.5699999999997,4106.8599999999997,88.301100000000005,16.888999999999999,103.88500000000001
216218.0,331.173,6547.9899999999998,6610.0,6640.7299999999996,-112.224,45.878700000000002,-140.09800000000001
216219.0,263.28699999999998,703.55600000000004,963.80600000000004,782.51900000000001,-20.0535,-17.625900000000001,-67.740799999999993
216220.0,132.143,-366.61000000000001,-333.363,-379.00999999999999,71.713099999999997,5.4325400000000004,9.5483200000000004
216221.0,134.67699999999999,-83.570999999999998,-74.400099999999995,-125.71299999999999,71.988299999999995,2.0339700000000001,-10.518700000000001
216222.0,140.31399999999999,-1954.5599999999999,-1889.04,-1946.3299999999999,71.712999999999994,4.18032,11.349399999999999
216223.0,153.50999999999999,-590.947,-471.79000000000002,-574.32600000000002,60.617100000000001,-3.9368500000000002,-0.68666099999999997
216224.0,191.85900000000001,-1548.5999999999999,-1360.72,-1514.23,40.428699999999999,-14.7384,-20.282399999999999
216225.0,221.577,-400.947,-175.453,-353.20100000000002,30.1371,-19.1602,-31.142700000000001
216226.0,239.059,631.94000000000005,877.95100000000002,683.33500000000004,23.186199999999999,-21.2133,-34.963200000000001
216227.0,245.398,-719.45799999999997,-468.62599999999998,-652.20100000000002,0.65356000000000003,-19.4726,-53.264600000000002
216228.0,272.149,198.80199999999999,454.02699999999999,288.10300000000001,-40.306699999999999,-10.681900000000001,-78.583600000000004
216229.0,272.39699999999999,1229.71,1460.8199999999999,1324.8699999999999,-59.871499999999997,2.2118600000000002,-87.476900000000001
216230.0,260.82900000000001,2149.9200000000001,2343.7199999999998,2243.0,-68.946200000000005,15.185700000000001,-91.091399999999993
216231.0,265.404,3041.6100000000001,3198.9899999999998,3138.1300000000001,-80.124499999999998,26.601299999999998,-100.271
216232.0,252.666,-3391.5,-3246.8099999999999,-3299.8099999999999,-78.591200000000001,25.7332,-95.305199999999999
216233.0,293.34399999999999,5137.9700000000003,5225.3199999999997,5234.0900000000001,-96.622100000000003,41.423499999999997,-121.68300000000001
216234.0,327.01299999999998,7730.25,7773.5299999999997,7820.6099999999997,-114.581,50.7776,-133.77600000000001
216235.0,253.471,8600.1200000000008,8625.6499999999996,8682.0699999999997,-84.058800000000005,54.808,-97.915999999999997
216236.0,173.80199999999999,8887.0699999999997,8906.5699999999997,8953.2399999999998,-52.662799999999997,54.972799999999999,-55.833500000000001
216237.0,97.706000000000003,8498.1499999999996,8517.6100000000006,8540.1599999999999,-17.9115,47.829599999999999,-11.4778
216238.0,113.26000000000001,-8018.6400000000003,-8024.2799999999997,-7980.6099999999997,22.8474,51.272500000000001,23.6813
216239.0,193.346,5999.9200000000001,6059.5500000000002,6014.3299999999999,65.101900000000001,26.340800000000002,80.997
216240.0,213.08799999999999,2371.4299999999998,2482.7600000000002,2367.8600000000001,69.746600000000001,9.6390100000000007,76.873099999999994
216241.0,135.85499999999999,1110.9300000000001,1223.95,1102.0799999999999,28.037400000000002,8.3648399999999992,26.043600000000001
216242.0,166.751,244.63900000000001,403.09199999999998,237.22999999999999,-4.2166800000000002,-7.7639100000000001,-20.2944
216243.0,57.868000000000002,45.298400000000001,-4.3148600000000004,46.318600000000004,-11.1914,7.6416000000000004,-9.7406900000000007
216244.0,132.988,413.43000000000001,441.93299999999999,390.22199999999998,71.787499999999994,5.50983,-6.3767899999999997
216245.0,121.21299999999999,-255.64500000000001,-212.31899999999999,-266.03899999999999,62.745199999999997,10.2278,6.6441299999999996
216246.0,134.08500000000001,1158.6300000000001,1231.28,1163.3499999999999,63.721800000000002,7.8403799999999997,14.7836
216247.0,158.09999999999999,1044.1300000000001,1170.6600000000001,1063.8699999999999,60.775399999999998,-2.1501299999999999,0.0088610600000000005
216248.0,197.30799999999999,573.24599999999998,764.125,611.46400000000006,45.875,-15.651,-20.6677
216249.0,225.262,417.41199999999998,646.154,467.73099999999999,33.311100000000003,-19.426100000000002,-31.290099999999999
216250.0,250.97499999999999,1206.49,1465.48,1264.27,7.8179999999999996,-22.779399999999999,-43.966500000000003
216251.0,266.51100000000002,-559.92700000000002,-289.09199999999998,-488.52100000000002,-10.275600000000001,-22.776499999999999,-57.862099999999998
216252.0,272.26600000000002,-844.58699999999999,-574.45000000000005,-762.16899999999998,-27.286000000000001,-18.404499999999999,-66.774900000000002
216253.0,267.11399999999998,-712.27499999999998,-458.15800000000002,-622.46199999999999,-41.553899999999999,-9.2701700000000002,-73.241600000000005
216254.0,250.571,-1787.79,-1571.74,-1698.9400000000001,-54.466700000000003,4.6662299999999997,-78.408299999999997
216255.0,247.43600000000001,-2633.71,-2452.0,-2545.8299999999999,-66.870699999999999,14.9489,-86.349999999999994
216256.0,272.98200000000003,-4308.8199999999997,-4199.6000000000004,-4219.0799999999999,-90.555199999999999,32.6509,-110.363
216257.0,309.98399999999998,-5589.9700000000003,-5505.9300000000003,-5501.6000000000004,-106.298,36.610700000000001,-130.03299999999999
216258.0,317.10000000000002,-6894.2399999999998,-6842.8699999999999,-6803.5,-109.452,45.556399999999996,-131.87899999999999
216259.0,260.24099999999999,-7975.1300000000001,-7960.5,-7886.4499999999998,-82.504000000000005,56.019199999999998,-101.83199999999999
216260.0,192.96199999999999,-8658.0599999999995,-8657.3600000000006,-8576.9200000000001,-50.603499999999997,60.070300000000003,-63.771000000000001
216261.0,131.09700000000001,-8657.2999999999993,-8663.9300000000003,-8594.1700000000001,-15.8123,58.662999999999997,-23.5519
216262.0,184.15000000000001,-6881.21,-6864.9700000000003,-6861.3800000000001,60.948900000000002,42.234900000000003,75.456199999999995
216263.0,240.88200000000001,-5210.9700000000003,-5152.3100000000004,-5200.29,84.316800000000001,30.601900000000001,101.584
216264.0,205.49799999999999,-3353.4099999999999,-3251.4899999999998,-3351.98,67.043800000000005,16.911200000000001,76.689700000000002
216265.0,143.227,-1860.6400000000001,-1736.8399999999999,-1867.01,26.551100000000002,8.32165,26.044899999999998
216266.0,131.185,-827.14400000000001,-705.23000000000002,-835.125,-7.4558299999999997,7.6051299999999999,-17.9757
216267.0,239.58600000000001,1834.8800000000001,1939.26,1863.7,30.780000000000001,45.231000000000002,115.044
216268.0,114.497,-64.189599999999999,-93.706900000000005,-68.616699999999994,56.163499999999999,5.6088399999999998,30.507100000000001
216269.0,235.33000000000001,-486.346,-230.98500000000001,-421.01400000000001,7.3926699999999999,-16.3111,-23.264099999999999
216270.0,223.86099999999999,3311.73,3413.5599999999999,3392.9699999999998,-68.694800000000001,22.9315,-92.524799999999999
216271.0,102.227,7080.3699999999999,7107.3000000000002,7118.4499999999998,14.608599999999999,53.5396,-4.5079799999999999
216272.0,223.035,4548.4499999999998,4638.8100000000004,4594.9700000000003,80.591899999999995,22.2712,86.882300000000001
216273.0,272.58699999999999,4971.8199999999997,5028.8900000000003,5058.3000000000002,-83.646199999999993,34.238599999999998,-121.09999999999999
216274.0,263.76799999999997,-1006.08,-735.20899999999995,-922.07100000000003,-33.840600000000002,-15.5054,-50.803100000000001
216275.0,133.40799999999999,-1552.1199999999999,-1522.01,-1568.73,72.589399999999998,2.6392199999999999,9.7662800000000001
216276.0,126.901,-1156.47,-1154.9000000000001,-1189.8199999999999,70.030299999999997,1.67886,-8.4708400000000008
216277.0,138.93899999999999,-860.39599999999996,-795.29999999999995,-846.30499999999995,67.843000000000004,3.1478199999999998,25.479800000000001
216278.0,149.62100000000001,-2746.3299999999999,-2614.02,-2711.9299999999998,50.1252,0.233018,15.399800000000001
216279.0,196.876,-1536.3,-1327.1300000000001,-1488.6600000000001,25.645099999999999,-11.6769,-10.3447
216280.0,226.09999999999999,-2101.25,-1859.1800000000001,-2045.71,17.7486,-17.114100000000001,-18.8079
216281.0,229.38300000000001,1043.1400000000001,1291.46,1107.04,10.5494,-20.870699999999999,-19.119399999999999
216282.0,249.46199999999999,-601.09900000000005,-333.95400000000001,-524.65599999999995,-14.980499999999999,-16.113499999999998,-36.4724
216283.0,269.154,730.45600000000002,990.72500000000002,820.39999999999998,-49.613500000000002,-10.5274,-64.049199999999999
216284.0,259.46699999999998,1093.3099999999999,1319.4200000000001,1183.54,-63.058700000000002,-0.367564,-74.223299999999995
216285.0,231.57599999999999,1699.8399999999999,1881.5699999999999,1785.27,-60.785400000000003,8.59253,-76.420900000000003
216286.0,228.72200000000001,2433.5100000000002,2576.04,2518.0100000000002,-66.7941,15.9857,-87.085400000000007
216287.0,211.48599999999999,-2762.5,-2634.6500000000001,-2687.2199999999998,-61.173900000000003,16.030100000000001,-82.343900000000005
216288.0,233.53700000000001,4137.8999999999996,4210.9499999999998,4219.5500000000002,-69.738600000000005,27.824200000000001,-102.61199999999999
216289.0,301.64800000000002,6178.96,6219.3100000000004,6263.3900000000003,-96.694800000000001,43.132899999999999,-131.66999999999999
216290.0,262.11200000000002,7100.4700000000003,7120.9700000000003,7175.96,-78.590699999999998,53.165700000000001,-111.238
216291.0,197.21899999999999,7536.6899999999996,7548.6999999999998,7598.1899999999996,-52.2652,59.238399999999999,-75.242800000000003
216292.0,137.66499999999999,7561.1999999999998,7574.3900000000003,7607.0200000000004,-21.701499999999999,59.598100000000002,-41.689500000000002
216293.0,130.26900000000001,-7329.0500000000002,-7331.3100000000004,-7273.8400000000001,16.983899999999998,63.997700000000002,-14.6104
216294.0,143.53800000000001,6049.25,6104.3400000000001,6089.6199999999999,51.716000000000001,38.990600000000001,43.120899999999999
216295.0,236.34700000000001,2821.9299999999998,2941.8600000000001,2867.3200000000002,79.757900000000006,10.099,92.144499999999994
216296.0,168.52000000000001,1353.1800000000001,1478.29,1385.24,45.581000000000003,5.7131699999999999,55.970799999999997
216297.0,177.012,314.39400000000001,498.79700000000003,338.21800000000002,10.167999999999999,-15.306800000000001,6.8682100000000004
216298.0,72.266499999999994,61.985199999999999,-2.4427500000000002,58.0623,-11.8933,9.7875200000000007,-14.108000000000001
216299.0,127.989,640.24599999999998,661.04999999999995,623.82399999999996,70.819299999999998,5.2516600000000002,8.3323499999999999
216300.0,119.33199999999999,1700.51,1738.77,1692.21,63.854300000000002,7.2393900000000002,0.455984
216301.0,134.28,1040.02,1112.74,1053.74,64.155000000000001,7.5222600000000002,18.577200000000001
216302.0,162.666,1863.2,2002.8900000000001,1895.6800000000001,56.288499999999999,0.83335499999999996,17.514199999999999
216303.0,203.28399999999999,2353.1300000000001,2566.2199999999998,2399.71,31.7058,-12.7919,-7.5095499999999999
216304.0,218.041,1853.8299999999999,2086.9000000000001,1909.1800000000001,16.186800000000002,-19.0992,-19.795300000000001
216305.0,252.36500000000001,-47.502699999999997,225.881,26.572700000000001,-4.9464899999999998,-21.8218,-27.148900000000001
216306.0,267.84399999999999,878.10199999999998,1160.76,958.37400000000002,-25.449400000000001,-20.164400000000001,-40.534700000000001
216307.0,272.88999999999999,82.094999999999999,360.44,166.19399999999999,-39.655999999999999,-16.559899999999999,-50.953000000000003
216308.0,260.529,-1252.9100000000001,-998.91800000000001,-1167.8099999999999,-48.128799999999998,-9.1434800000000003,-59.265500000000003
216309.0,229.779,-1449.4200000000001,-1245.03,-1369.9300000000001,-52.171900000000001,2.6156799999999998,-65.228800000000007
216310.0,219.887,-1998.26,-1828.01,-1920.8099999999999,-57.520699999999998,8.1152700000000006,-74.002499999999998
216311.0,218.142,-3560.1999999999998,-3467.1500000000001,-3487.2199999999998,-66.372,21.734300000000001,-92.663600000000002
216312.0,251.17500000000001,-4257.5600000000004,-4177.8299999999999,-4180.1300000000001,-79.567400000000006,25.4331,-109.508
216313.0,282.08100000000002,-5274.2399999999998,-5211.6199999999999,-5192.6800000000003,-90.327500000000001,33.876399999999997,-124.074
216314.0,254.792,-6461.0699999999997,-6435.96,-6384.3199999999997,-74.959900000000005,48.968400000000003,-109.961
216315.0,206.45500000000001,-7192.8199999999997,-7189.4099999999999,-7119.3800000000001,-47.919699999999999,60.2727,-80.997299999999996
216316.0,160.113,-7469.2299999999996,-7473.4300000000003,-7404.8100000000004,-16.538699999999999,64.527500000000003,-51.272100000000002
216317.0,151.745,-6635.21,-6623.0,-6581.7200000000003,50.919499999999999,56.958799999999997,32.443199999999997
216318.0,212.97499999999999,-5452.3199999999997,-5406.71,-5394.0900000000001,80.914299999999997,41.185000000000002,77.056600000000003
216319.0,225.255,-3861.1599999999999,-3766.23,-3801.6599999999999,81.742900000000006,22.695499999999999,86.112300000000005
216320.0,169.791,-2231.4200000000001,-2099.1300000000001,-2184.96,47.460599999999999,9.0620100000000008,52.638800000000003
216321.0,126.33499999999999,-998.28200000000004,-863.56899999999996,-974.48400000000004,7.9246999999999996,5.0720700000000001,7.8942100000000002
216322.0,234.23699999999999,-513.43499999999995,-428.34399999999999,-520.37800000000004,60.546900000000001,49.594999999999999,97.656899999999993
216323.0,135.667,-934.81600000000003,-990.33900000000006,-944.31399999999996,57.976999999999997,3.4190900000000002,43.362200000000001
216324.0,247.88499999999999,-1581.3199999999999,-1307.3599999999999,-1505.0699999999999,-12.700699999999999,-12.4269,-13.180400000000001
216325.0,171.65000000000001,2246.96,2341.77,2321.2399999999998,-48.631500000000003,10.9572,-69.630200000000002
216326.0,106.16,5282.8599999999997,5302.9200000000001,5314.75,8.2692899999999998,50.407200000000003,-29.790099999999999
216327.0,149.518,3855.3000000000002,3932.02,3917.3499999999999,57.0852,36.796700000000001,34.358400000000003
216328.0,205.55600000000001,3519.21,3584.0100000000002,3594.0,-57.820500000000003,22.171800000000001,-92.741500000000002
216329.0,256.31,713.22000000000003,981.57500000000005,797.58699999999999,-39.7562,-15.1775,-35.451900000000002
216330.0,129.47800000000001,-733.12599999999998,-704.51499999999999,-748.61099999999999,70.949700000000007,3.1438999999999999,6.6299000000000001
216331.0,116.732,-541.072,-554.80499999999995,-557.84400000000005,66.348399999999998,1.3703700000000001,7.6356799999999998
216332.0,138.08199999999999,-2194.9200000000001,-2103.4299999999998,-2177.7199999999998,60.593200000000003,5.1660199999999996,17.119599999999998
216333.0,161.78800000000001,-791.40599999999995,-633.04899999999998,-739.47799999999995,41.651499999999999,3.1029900000000001,21.538399999999999
216334.0,200.53200000000001,-1733.29,-1513.8399999999999,-1674.0999999999999,18.610299999999999,-6.99078,10.853199999999999
216335.0,234.559,-544.20699999999999,-284.92000000000002,-478.84199999999998,2.10297,-11.9597,-2.6552699999999998
216336.0,253.23500000000001,684.83199999999999,965.38,760.48500000000001,-5.7901199999999999,-14.9497,-7.0912300000000004
216337.0,253.84,-706.048,-431.274,-623.55700000000002,-29.5501,-13.4467,-23.332699999999999
216338.0,250.84700000000001,89.567300000000003,339.923,173.76900000000001,-46.965800000000002,-14.488200000000001,-48.267499999999998
216339.0,231.39599999999999,882.10599999999999,1094.9100000000001,963.91499999999996,-54.395200000000003,-8.1137800000000002,-57.446100000000001
216340.0,195.69200000000001,1436.23,1604.0,1513.6199999999999,-47.272500000000001,-1.7113,-58.962400000000002
216341.0,183.50200000000001,1859.3800000000001,1990.47,1936.5799999999999,-50.416600000000003,4.0555300000000001,-65.764300000000006
216342.0,165.41499999999999,-1966.8499999999999,-1847.1199999999999,-1898.21,-42.7346,5.62723,-60.443600000000004
216343.0,179.31800000000001,2795.7600000000002,2872.7600000000002,2870.4699999999998,-48.6297,16.5688,-78.482699999999994
216344.0,238.47900000000001,4108.8299999999999,4147.8100000000004,4175.6099999999997,-74.834199999999996,31.834399999999999,-105.917
216345.0,226.797,4857.5,4870.9899999999998,4913.5,-68.690899999999999,42.297899999999998,-98.912999999999997
216346.0,175.43600000000001,5427.2600000000002,5430.8900000000003,5472.2700000000004,-42.804900000000004,47.279800000000002,-74.607799999999997
216347.0,129.596,5536.0900000000001,5543.0699999999997,5570.8599999999997,-14.606299999999999,48.408200000000001,-51.994599999999998
216348.0,121.24299999999999,-5379.04,-5375.8699999999999,-5341.0100000000002,11.857900000000001,54.121099999999998,-37.214300000000001
216349.0,110.27200000000001,4747.25,4790.5600000000004,4788.5,35.479100000000003,46.859499999999997,-1.2757099999999999
216350.0,193.203,2703.2800000000002,2814.9200000000001,2782.6399999999999,68.339500000000001,23.430099999999999,62.633299999999998
216351.0,181.386,1479.1099999999999,1606.9100000000001,1560.49,55.567900000000002,14.137600000000001,59.1096
216352.0,205.10900000000001,363.32900000000001,581.81100000000004,449.24799999999999,30.1447,-15.456799999999999,27.5809
216353.0,82.474500000000006,56.610300000000002,-17.3977,46.751100000000001,-10.896699999999999,11.1549,-20.2303
216354.0,134.41800000000001,796.45699999999999,814.62599999999998,780.49900000000002,67.862200000000001,10.2948,31.935400000000001
216355.0,117.151,150.90799999999999,185.60499999999999,149.655,63.656799999999997,5.9142799999999998,8.4454999999999991
216356.0,127.595,1399.6099999999999,1484.0899999999999,1424.1900000000001,58.465400000000002,4.1675000000000004,10.140700000000001
216357.0,155.04400000000001,1183.3199999999999,1333.8,1234.4100000000001,43.783200000000001,1.0548,15.4659
216358.0,196.47499999999999,699.95000000000005,913.26400000000001,755.92700000000002,21.419899999999998,-9.5075099999999999,9.2935099999999995
216359.0,233.797,537.11699999999996,792.78399999999999,594.98800000000006,4.0087900000000003,-15.055400000000001,2.1553300000000002
216360.0,262.08699999999999,1187.6300000000001,1476.79,1275.71,-19.921199999999999,-15.437200000000001,-17.1417
216361.0,264.00400000000002,-596.09400000000005,-313.31700000000001,-509.86900000000003,-34.934600000000003,-16.445799999999998,-27.142900000000001
216362.0,258.90600000000001,-808.827,-540.505,-727.38800000000003,-41.832599999999999,-17.023099999999999,-37.131
216363.0,239.422,-492.43700000000001,-252.12200000000001,-414.64499999999998,-42.661099999999998,-13.7666,-45.408700000000003
216364.0,200.696,-1262.8499999999999,-1072.9300000000001,-1191.4000000000001,-40.694699999999997,-5.2631199999999998,-50.407299999999999
216365.0,183.39400000000001,-1703.46,-1545.3699999999999,-1632.3,-42.502099999999999,-1.2879700000000001,-55.983499999999999
216366.0,168.499,-2334.1199999999999,-2239.8899999999999,-2266.8499999999999,-46.958599999999997,11.7591,-69.030799999999999
216367.0,192.155,-3007.6399999999999,-2920.9400000000001,-2938.54,-55.584899999999998,16.316700000000001,-82.776399999999995
216368.0,220.31200000000001,-3620.4200000000001,-3544.2199999999998,-3552.0900000000001,-66.324799999999996,22.278400000000001,-97.609800000000007
216369.0,214.738,-4231.3100000000004,-4193.6999999999998,-4174.0600000000004,-64.054000000000002,36.891800000000003,-95.186899999999994
216370.0,181.471,-4977.9300000000003,-4974.3299999999999,-4931.0200000000004,-42.614899999999999,49.687899999999999,-77.528800000000004
216371.0,145.02699999999999,-5397.75,-5404.0100000000002,-5358.6099999999997,-13.6393,53.137700000000002,-58.274999999999999
216372.0,124.88500000000001,-5063.7299999999996,-5048.1400000000003,-5016.54,37.769599999999997,55.621499999999997,-10.0162
216373.0,154.23599999999999,-4418.4799999999996,-4379.1499999999996,-4348.3100000000004,59.445399999999999,50.568800000000003,24.529499999999999
216374.0,191.11600000000001,-3444.9000000000001,-3369.9899999999998,-3349.2600000000002,73.458500000000001,38.571800000000003,52.532600000000002
216375.0,182.99299999999999,-2294.6599999999999,-2179.7199999999998,-2189.46,62.5852,22.5092,51.735500000000002
216376.0,140.57900000000001,-1141.96,-1009.2,-1051.73,32.385800000000003,12.2644,28.1479
216377.0,231.71899999999999,1841.7,1908.9100000000001,1807.4100000000001,82.337199999999996,48.129300000000001,78.334800000000001
216378.0,149.22,-54.301499999999997,-128.822,-76.418599999999998,63.1828,-0.42316700000000002,44.330500000000001
216379.0,251.76300000000001,-183.489,95.077399999999997,-98.398200000000003,-23.0246,-10.673500000000001,-10.263
216380.0,136.79300000000001,1481.4100000000001,1579.1500000000001,1550.5699999999999,-36.2742,2.4409200000000002,-48.890500000000003
216381.0,54.685299999999998,3478.2199999999998,3501.6300000000001,3505.2600000000002,2.8001299999999998,23.255199999999999,-15.2601
216382.0,88.0852,2366.2800000000002,2418.9200000000001,2405.5300000000002,25.199999999999999,31.7407,13.9717
216383.0,147.89599999999999,1929.9300000000001,1988.8800000000001,1985.28,-50.4771,16.2422,-58.202599999999997
216384.0,239.727,-659.07799999999997,-404.37400000000002,-578.34900000000005,-33.857399999999998,-17.352900000000002,-27.672699999999999
216385.0,112.19,-1992.6500000000001,-1950.03,-1991.53,52.062800000000003,9.7807600000000008,28.273199999999999
216386.0,116.78400000000001,-1479.4100000000001,-1504.74,-1493.8499999999999,59.204700000000003,1.89052,29.596599999999999
216387.0,139.30699999999999,-906.02200000000005,-777.32799999999997,-870.47400000000005,37.664099999999998,9.8755000000000006,23.146000000000001
216388.0,172.714,-2394.0599999999999,-2215.3800000000001,-2337.73,30.649100000000001,3.9160599999999999,25.3688
216389.0,205.57499999999999,-1283.4000000000001,-1057.4100000000001,-1211.8900000000001,19.447900000000001,-4.2160399999999996,18.6919
216390.0,238.68700000000001,-1976.55,-1708.1099999999999,-1893.3699999999999,-3.9119700000000002,-9.2215799999999994,2.5149400000000002
216391.0,272.928,846.27999999999997,1150.24,930.79399999999998,-10.1028,-9.4827499999999993,-4.7622600000000004
216392.0,248.72399999999999,-162.37,106.711,-79.352800000000002,-32.609699999999997,-13.072900000000001,-20.021899999999999
216393.0,227.578,793.42700000000002,1029.4400000000001,873.87300000000005,-34.822600000000001,-20.0136,-35.417299999999997
216394.0,207.59299999999999,749.81500000000005,950.346,828.03999999999996,-44.758000000000003,-16.089300000000001,-43.448900000000002
216395.0,168.441,905.89400000000001,1062.8499999999999,976.07299999999998,-37.080300000000001,-10.689,-42.264099999999999
216396.0,154.69499999999999,1151.4400000000001,1277.97,1220.75,-41.023000000000003,-5.37242,-47.442300000000003
216397.0,137.31100000000001,-1259.6099999999999,-1140.1099999999999,-1194.5899999999999,-31.544699999999999,-1.59893,-41.324399999999997
216398.0,132.358,1720.5899999999999,1801.6400000000001,1786.8199999999999,-36.146900000000002,9.0027600000000003,-50.8904
216399.0,185.36000000000001,2610.1599999999999,2635.71,2651.9899999999998,-72.973699999999994,25.346499999999999,-70.997900000000001
216400.0,171.10300000000001,3332.9899999999998,3333.9299999999998,3362.6799999999998,-64.670100000000005,28.698899999999998,-66.843800000000002
216401.0,116.688,3764.9899999999998,3762.0500000000002,3789.0900000000001,-37.334899999999998,25.7013,-47.582299999999996
216402.0,70.326400000000007,3806.3099999999999,3816.0500000000002,3832.0500000000002,-11.008100000000001,22.325399999999998,-29.3279
216403.0,61.2012,-3618.8099999999999,-3609.3099999999999,-3595.8699999999999,2.9748999999999999,26.4299,-20.206299999999999
216404.0,65.960300000000004,2934.3000000000002,2969.7199999999998,2964.8400000000001,16.2486,28.379300000000001,-3.5093200000000002
216405.0,119.861,1724.1199999999999,1799.5699999999999,1774.8800000000001,34.725499999999997,26.844100000000001,37.180900000000001
216406.0,133.70099999999999,1008.8099999999999,1101.74,1072.76,31.2499,20.755199999999999,47.853499999999997
216407.0,180.762,274.52999999999997,461.43000000000001,364.68400000000003,20.323799999999999,-5.1397199999999996,41.421500000000002
216408.0,88.2149,70.591700000000003,-8.1654400000000003,55.743600000000001,-12.7098,12.480700000000001,-22.921600000000002
216409.0,147.411,835.49699999999996,850.93299999999999,817.28800000000001,69.703199999999995,14.3401,43.537500000000001
216410.0,117.863,2147.5300000000002,2190.4200000000001,2151.5900000000001,52.583500000000001,9.2156400000000005,34.930900000000001
216411.0,121.526,1285.1400000000001,1395.8099999999999,1325.9300000000001,33.378399999999999,4.2788700000000004,25.6465
216412.0,146.929,1573.6500000000001,1732.3199999999999,1638.0899999999999,22.2836,0.76944699999999999,18.1861
216413.0,192.596,1931.0599999999999,2145.3400000000001,2004.9300000000001,16.6251,-6.2791499999999996,14.166700000000001
216414.0,249.90799999999999,1686.0999999999999,1965.6600000000001,1768.1500000000001,6.4912900000000002,-10.0627,5.0488900000000001
216415.0,266.85300000000001,-443.33100000000002,-150.55000000000001,-360.42599999999999,-25.238399999999999,-10.9169,-14.3916
216416.0,250.892,497.72800000000001,767.03700000000003,577.71799999999996,-33.386200000000002,-14.9259,-22.738499999999998
216417.0,236.18799999999999,-99.602999999999994,149.30699999999999,-22.293700000000001,-34.005899999999997,-19.620200000000001,-28.697399999999998
216418.0,219.34999999999999,-1102.51,-875.02499999999998,-1024.7,-32.286999999999999,-20.783899999999999,-34.583399999999997
216419.0,177.273,-881.51300000000003,-703.55200000000002,-811.94600000000003,-30.030899999999999,-12.965199999999999,-36.905999999999999
216420.0,160.84800000000001,-982.28899999999999,-830.03300000000002,-914.63400000000001,-32.720599999999997,-9.5184899999999999,-40.539200000000001
216421.0,130.786,-1531.27,-1430.6700000000001,-1467.3800000000001,-32.892299999999999,5.7413499999999997,-44.666499999999999
216422.0,144.054,-1649.99,-1555.6700000000001,-1589.1700000000001,-41.534300000000002,10.6358,-52.845500000000001
216423.0,170.32400000000001,-2033.4200000000001,-1957.6099999999999,-1982.0899999999999,-61.0672,16.656700000000001,-64.549899999999994
216424.0,166.33799999999999,-2707.1799999999998,-2685.3699999999999,-2676.3200000000002,-63.521700000000003,27.993400000000001,-64.438999999999993
216425.0,130.21199999999999,-3317.5900000000001,-3331.7199999999998,-3300.6399999999999,-42.588000000000001,32.189300000000003,-50.593499999999999
216426.0,85.796499999999995,-3666.9200000000001,-3680.1300000000001,-3650.8800000000001,-15.9895,29.373799999999999,-33.475999999999999
216427.0,66.261300000000006,-3223.0100000000002,-3196.4899999999998,-3194.9299999999998,18.839600000000001,28.2515,-7.8283800000000001
216428.0,87.121700000000004,-2708.7600000000002,-2668.1100000000001,-2669.5700000000002,28.110299999999999,33.636699999999998,8.7519500000000008
216429.0,116.64400000000001,-2148.8299999999999,-2096.6300000000001,-2093.3200000000002,38.314100000000003,35.130800000000001,29.387899999999998
216430.0,130.53700000000001,-1491.72,-1417.02,-1416.29,36.9495,27.801400000000001,40.784999999999997
216431.0,127.833,-813.91700000000003,-720.05600000000004,-726.43700000000001,23.963000000000001,20.7867,41.112200000000001
216432.0,229.91499999999999,-521.51400000000001,-470.68200000000002,-574.93600000000004,99.096500000000006,42.982100000000003,56.8765
216433.0,154.19399999999999,-882.774,-969.96299999999997,-916.96299999999997,64.868399999999994,-5.7944599999999999,41.8782
216434.0,245.01499999999999,-1100.24,-825.33900000000006,-1003.34,-18.392399999999999,-9.8415400000000002,-11.6203
216435.0,124.681,1046.1099999999999,1148.1500000000001,1097.6199999999999,-43.341500000000003,0.22200800000000001,-26.460899999999999
216436.0,27.3352,2948.04,2974.5799999999999,2967.1700000000001,-6.1177599999999996,3.4678300000000002,3.4845100000000002
216437.0,54.148699999999998,1791.23,1835.53,1821.8099999999999,10.604200000000001,7.4362199999999996,17.180199999999999
216438.0,134.70699999999999,1680.45,1724.9200000000001,1718.74,-66.630899999999997,16.982500000000002,-27.206099999999999
216439.0,223.691,885.01999999999998,1126.1099999999999,967.27700000000004,-19.4008,-19.649999999999999,-29.937999999999999
216440.0,130.40600000000001,-791.30399999999997,-716.18100000000004,-777.53499999999997,41.366900000000001,19.128,44.630400000000002
216441.0,115.152,-626.15800000000002,-635.70699999999999,-642.49400000000003,52.039299999999997,8.47377,39.657899999999998
216442.0,155.28200000000001,-2007.4300000000001,-1861.03,-1962.52,26.725100000000001,14.898199999999999,38.414200000000001
216443.0,179.221,-409.07600000000002,-221.54599999999999,-349.625,23.676500000000001,6.4199200000000003,30.341200000000001
216444.0,214.25899999999999,-1283.0799999999999,-1044.1400000000001,-1203.9300000000001,10.2699,-3.3942000000000001,19.230799999999999
216445.0,246.93600000000001,-58.709200000000003,220.941,40.345300000000002,-11.6447,-8.8408999999999995,2.6450300000000002
216446.0,261.17399999999998,186.13200000000001,481.24900000000002,285.85899999999998,-8.6071500000000007,-7.9390700000000001,-8.0014599999999998
216447.0,229.24299999999999,-318.94,-66.321799999999996,-234.76400000000001,-16.189499999999999,-14.6812,-22.229800000000001
216448.0,214.869,-47.038200000000003,180.07300000000001,35.299199999999999,-24.793299999999999,-22.176200000000001,-32.608899999999998
216449.0,199.68000000000001,440.48000000000002,636.572,518.221,-43.048200000000001,-18.535799999999998,-36.652999999999999
216450.0,161.81200000000001,744.91499999999996,899.75,812.31100000000004,-40.2453,-11.675800000000001,-30.7364
216451.0,148.97999999999999,937.85799999999995,1067.6300000000001,998.25099999999998,-46.571300000000001,-6.18879,-31.2104
216452.0,131.905,-946.89599999999996,-822.60400000000004,-891.75099999999998,-36.857199999999999,-1.4161600000000001,-23.6797
216453.0,120.834,1237.95,1315.9200000000001,1285.6400000000001,-52.209699999999998,7.8831499999999997,-23.1113
216454.0,145.346,2172.0900000000001,2174.5300000000002,2188.3899999999999,-72.812600000000003,20.571400000000001,-35.208500000000001
216455.0,129.602,2854.8400000000001,2838.3699999999999,2859.3699999999999,-63.190899999999999,17.547899999999998,-34.289499999999997
216456.0,89.244900000000001,3305.2600000000002,3296.29,3312.9899999999998,-43.408499999999997,12.714600000000001,-23.2179
216457.0,42.0443,3286.6300000000001,3296.46,3300.7199999999998,-20.473400000000002,7.49993,-7.8474700000000004
216458.0,24.866599999999998,-3074.8600000000001,-3069.9699999999998,-3063.5500000000002,-9.4566199999999991,9.1915300000000002,0.14385400000000001
216459.0,38.415799999999997,2429.3299999999999,2466.5100000000002,2453.25,4.84443,3.4382100000000002,10.085000000000001
216460.0,75.311400000000006,1185.5599999999999,1239.6700000000001,1223.77,16.145099999999999,10.4749,27.329599999999999
216461.0,84.572000000000003,659.24199999999996,720.06899999999996,705.49800000000005,13.467599999999999,11.3786,32.629100000000001
216462.0,120.38,168.59100000000001,282.19600000000003,230.76499999999999,6.0529000000000002,-3.1763400000000002,39.338799999999999
216463.0,99.060199999999995,62.032800000000002,-27.073399999999999,39.003100000000003,-13.821899999999999,12.376899999999999,-28.0596
216464.0,148.60599999999999,825.35500000000002,837.43600000000004,808.86900000000003,65.596500000000006,14.4618,51.415500000000002
216465.0,130.25,264.70299999999997,331.94799999999998,270.12400000000002,39.889899999999997,15.058299999999999,49.411799999999999
216466.0,151.851,1348.6700000000001,1488.72,1391.21,21.873100000000001,12.6922,43.488399999999999
216467.0,170.99100000000001,867.17200000000003,1049.9400000000001,930.63300000000004,15.785399999999999,7.5973100000000002,28.770700000000001
216468.0,214.149,246.75999999999999,488.72899999999998,334.20999999999998,11.671900000000001,-0.34712399999999999,11.750299999999999
216469.0,257.68299999999999,41.560099999999998,335.04000000000002,147.655,-0.31003199999999997,-7.0673500000000002,0.234567
216470.0,243.70699999999999,753.14599999999996,1022.88,833.83900000000006,-13.617100000000001,-12.2295,-17.184000000000001
216471.0,233.94900000000001,-858.673,-605.66700000000003,-784.16300000000001,-18.660299999999999,-18.908000000000001,-25.1861
216472.0,224.97200000000001,-811.55399999999997,-570.89400000000001,-732.62300000000005,-21.636199999999999,-21.6188,-29.743400000000001
216473.0,215.821,-201.92599999999999,26.151700000000002,-119.336,-26.502300000000002,-22.471499999999999,-31.373000000000001
216474.0,173.62799999999999,-696.221,-516.60900000000004,-624.14400000000001,-29.3781,-13.4788,-28.884
216475.0,157.42500000000001,-912.12900000000002,-756.952,-846.14700000000005,-36.798499999999997,-8.8352900000000005,-27.637899999999998
216476.0,125.172,-1012.61,-903.98000000000002,-959.0,-42.455199999999998,4.5080400000000003,-21.206399999999999
216477.0,128.06100000000001,-1325.0699999999999,-1237.6700000000001,-1276.01,-54.020800000000001,10.6088,-22.7255
216478.0,131.00700000000001,-1653.76,-1611.3299999999999,-1627.3499999999999,-64.513400000000004,15.414199999999999,-29.3658
216479.0,129.76499999999999,-2129.54,-2139.4499999999998,-2129.2199999999998,-65.058599999999998,17.930499999999999,-32.015300000000003
216480.0,105.23699999999999,-2835.9499999999998,-2864.8299999999999,-2839.9400000000001,-50.234099999999998,18.022300000000001,-24.463799999999999
216481.0,60.450099999999999,-3190.1300000000001,-3209.0300000000002,-3187.1500000000001,-27.002099999999999,15.0962,-10.9678
216482.0,28.034400000000002,-2717.3899999999999,-2693.29,-2700.6100000000001,3.7989000000000002,5.0140799999999999,8.34802
216483.0,48.450499999999998,-2162.6799999999998,-2124.0999999999999,-2139.0100000000002,11.218,5.6784800000000004,15.677199999999999
216484.0,68.276799999999994,-1538.04,-1491.74,-1505.1900000000001,17.7317,10.0717,23.892700000000001
216485.0,79.251499999999993,-996.81799999999998,-940.71799999999996,-953.04100000000005,15.065200000000001,11.760400000000001,29.310099999999998
216486.0,88.561400000000006,-511.45299999999997,-450.67000000000002,-458.32299999999998,7.7150600000000003,11.642200000000001,36.377400000000002
216487.0,227.691,2004.9100000000001,2033.26,1932.73,113.785,30.444199999999999,26.847999999999999
216488.0,147.982,-65.397499999999994,-138.60400000000001,-99.509299999999996,57.531700000000001,-2.9230700000000001,51.373800000000003
216489.0,236.54400000000001,426.28199999999998,692.89700000000005,526.35400000000004,-19.332599999999999,-11.7431,-0.62045700000000004
216490.0,149.38499999999999,1377.02,1477.01,1412.5599999999999,-67.683700000000002,6.8746299999999998,-15.5373
216491.0,33.555,3203.3099999999999,3230.3699999999999,3224.04,-11.9975,0.70884100000000005,5.5282999999999998
216492.0,53.956200000000003,2017.99,2066.1599999999999,2050.7800000000002,9.2029099999999993,-7.66181,14.881600000000001
216493.0,135.982,2240.1300000000001,2265.2600000000002,2251.0500000000002,-74.994200000000006,13.4101,-14.1731
216494.0,213.25200000000001,-852.80899999999997,-617.428,-766.20299999999997,-19.150500000000001,-19.629000000000001,-15.2864
216495.0,130.523,-1698.4000000000001,-1617.24,-1684.48,51.963999999999999,18.656600000000001,27.327999999999999
216496.0,123.61,-1330.0799999999999,-1313.8900000000001,-1335.97,47.756500000000003,18.995899999999999,48.174900000000001
216497.0,143.71199999999999,-666.60900000000004,-532.03399999999999,-629.09799999999996,41.346600000000002,10.383800000000001,15.6152
216498.0,171.64400000000001,-2168.73,-1984.5,-2107.2800000000002,28.945399999999999,3.6442600000000001,13.084300000000001
216499.0,219.761,-891.255,-642.44799999999998,-804.846,3.0800999999999998,-4.2667900000000003,10.641
216500.0,261.24599999999998,-1365.1900000000001,-1071.8699999999999,-1256.8399999999999,-25.578700000000001,-9.87622,0.84131299999999998
216501.0,240.69399999999999,174.55799999999999,447.52600000000001,279.79500000000002,-16.0703,-9.1647400000000001,-3.95547
216502.0,208.96000000000001,62.463799999999999,298.5,147.941,-3.6570800000000001,-15.988200000000001,-2.1211600000000002
216503.0,208.97999999999999,418.10300000000001,641.74599999999998,501.79700000000003,-30.231000000000002,-20.2743,-21.560400000000001
216504.0,202.774,355.86500000000001,552.41099999999994,430.95600000000002,-53.246200000000002,-15.9815,-27.901700000000002
216505.0,173.16300000000001,594.06799999999998,749.84900000000005,654.42100000000005,-56.136699999999998,-7.6061500000000004,-24.8292
216506.0,161.10900000000001,960.15800000000002,1089.8,1008.48,-62.595100000000002,-1.07203,-20.9802
216507.0,150.71899999999999,-1110.6199999999999,-981.84900000000005,-1064.28,-55.526200000000003,4.09138,-14.7774
216508.0,154.75399999999999,1806.5899999999999,1872.75,1830.8199999999999,-80.403700000000001,12.523099999999999,-15.5212
216509.0,108.53,2762.6500000000001,2752.1399999999999,2762.3400000000001,-59.226799999999997,13.768700000000001,-13.8965
216510.0,109.063,3130.1300000000001,3110.6100000000001,3127.3400000000001,-57.704799999999999,13.337999999999999,-18.595099999999999
216511.0,93.658199999999994,3431.9499999999998,3424.0100000000002,3435.4099999999999,-50.1235,10.9801,-16.028199999999998
216512.0,52.891500000000001,3496.9699999999998,3507.4099999999999,3509.8200000000002,-28.803999999999998,6.3286800000000003,-4.0154100000000001
216513.0,33.106299999999997,-3326.04,-3324.4899999999998,-3315.7399999999998,-16.7074,6.6963299999999997,3.2389299999999999
216514.0,42.513300000000001,2653.4299999999998,2694.8000000000002,2681.1799999999998,1.56229,-4.4853199999999998,11.632400000000001
216515.0,62.449800000000003,1335.5999999999999,1385.6900000000001,1371.2,15.1656,-9.2187999999999999,17.907699999999998
216516.0,61.8889,694.57100000000003,745.89200000000005,735.67399999999998,16.169499999999999,-7.4639199999999999,14.8878
216517.0,76.900599999999997,178.25399999999999,251.14599999999999,229.04599999999999,11.6881,-12.6816,16.639500000000002
216518.0,111.419,72.884799999999998,-27.266300000000001,42.5871,-15.4239,11.497999999999999,-33.6158
216519.0,159.58799999999999,779.60400000000004,804.39999999999998,765.53399999999999,53.006900000000002,19.242799999999999,70.158299999999997
216520.0,135.642,1913.1400000000001,1997.1300000000001,1920.1199999999999,40.254800000000003,19.2196,44.3964
216521.0,153.63800000000001,1069.8399999999999,1214.8499999999999,1104.1600000000001,38.193300000000001,14.1256,21.600300000000001
216522.0,184.59100000000001,1431.8800000000001,1629.77,1489.6700000000001,29.1538,9.1660299999999992,8.2920499999999997
216523.0,231.25999999999999,1652.05,1913.55,1740.49,11.5669,0.105352,-1.0287200000000001
216524.0,269.26100000000002,1166.04,1471.8699999999999,1279.1800000000001,-12.5769,-8.6190999999999995,-5.00169
216525.0,208.56800000000001,-914.11199999999997,-678.52800000000002,-829.48000000000002,-7.6844999999999999,-13.9626,-2.1914099999999999
216526.0,224.392,486.77199999999999,736.17600000000004,571.61599999999999,-11.422599999999999,-21.8888,-9.7137200000000004
216527.0,222.524,191.88499999999999,435.35399999999998,276.79300000000001,-21.666699999999999,-20.667000000000002,-18.379000000000001
216528.0,219.30500000000001,-722.50400000000002,-488.98700000000002,-638.74599999999998,-33.735199999999999,-19.922799999999999,-22.382899999999999
216529.0,182.90700000000001,-530.43700000000001,-344.40499999999997,-461.66899999999998,-41.534799999999997,-10.6875,-21.548100000000002
216530.0,165.94399999999999,-721.31899999999996,-565.69600000000003,-663.48699999999997,-51.156799999999997,-3.22899,-19.0779
216531.0,150.511,-1492.1500000000001,-1389.04,-1455.04,-67.585099999999997,8.9451000000000001,-13.2683
216532.0,131.70500000000001,-1785.76,-1735.4200000000001,-1769.1700000000001,-69.876099999999994,11.612,-10.306699999999999
216533.0,104.014,-2232.7800000000002,-2230.77,-2235.1100000000001,-58.394500000000001,10.794700000000001,-8.6707699999999992
216534.0,106.783,-2646.8499999999999,-2662.71,-2654.1799999999998,-58.3003,10.6676,-15.0052
216535.0,103.438,-3003.9000000000001,-3026.8899999999999,-3011.02,-55.015300000000003,12.7677,-15.436299999999999
216536.0,68.409400000000005,-3334.9400000000001,-3353.4000000000001,-3335.6999999999998,-35.5747,12.2661,-5.9018800000000002
216537.0,26.573599999999999,-2953.6399999999999,-2934.1599999999999,-2935.3000000000002,-1.9578599999999999,0.28817399999999999,10.576000000000001
216538.0,44.035699999999999,-2408.96,-2372.71,-2382.8499999999999,7.3125799999999996,-5.3308,14.652699999999999
216539.0,57.267099999999999,-1771.53,-1727.22,-1739.97,14.750999999999999,-8.2919,16.926500000000001
216540.0,60.695500000000003,-1087.0,-1037.01,-1051.25,15.642799999999999,-9.3583300000000005,15.241099999999999
216541.0,59.407400000000003,-497.45299999999997,-444.84100000000001,-454.71199999999999,11.7408,-7.2254399999999999,14.294700000000001
216542.0,220.42699999999999,-803.87099999999998,-791.75,-878.56100000000004,116.449,17.950099999999999,10.1569
216543.0,135.369,-697.726,-742.11099999999999,-736.40200000000004,57.195399999999999,3.4488099999999999,47.350099999999998
216544.0,231.08699999999999,-416.22800000000001,-160.185,-319.18200000000002,-25.6006,-14.4186,15.0937
216545.0,178.89400000000001,2053.9699999999998,2134.46,2071.3099999999999,-92.811300000000003,9.6462699999999995,-12.8935
216546.0,33.453899999999997,3418.04,3445.1199999999999,3440.3200000000002,-12.654999999999999,-0.82364999999999999,1.8789499999999999
216547.0,55.490699999999997,2167.75,2219.1300000000001,2206.7199999999998,9.8038299999999996,-8.6145999999999994,11.7293
216548.0,126.718,3257.5100000000002,3262.4699999999998,3241.5599999999999,-71.1922,6.1103399999999999,-11.2911
216549.0,215.02099999999999,950.64099999999996,1185.28,1042.9300000000001,-32.319800000000001,-17.764800000000001,8.8252000000000006
216550.0,120.593,-667.63800000000003,-603.35799999999995,-650.68499999999995,56.8628,14.3439,17.2791
216551.0,135.88,-438.45600000000002,-416.78500000000003,-441.24400000000003,55.888599999999997,22.596399999999999,48.384500000000003
216552.0,133.74600000000001,-1918.73,-1791.76,-1880.28,39.576300000000003,5.8621600000000003,11.0639
216553.0,176.679,-254.642,-59.786900000000003,-187.309,19.7102,2.8654899999999999,14.642899999999999
216554.0,232.70500000000001,-939.23099999999999,-676.20600000000002,-843.46000000000004,-10.073399999999999,-3.83209,14.599299999999999
216555.0,271.52999999999997,568.73000000000002,866.75699999999995,680.33100000000002,-40.9619,-13.0138,7.5771300000000004
216556.0,234.107,-511.04700000000003,-249.69800000000001,-413.928,-25.268799999999999,-10.6692,8.0769300000000008
216557.0,206.101,37.835900000000002,267.69900000000001,127.149,-7.9317700000000002,-15.1027,20.982399999999998
216558.0,209.03899999999999,-35.622300000000003,183.94200000000001,49.398800000000001,-44.853700000000003,-17.239899999999999,0.50260300000000002
216559.0,207.322,549.28999999999996,740.47299999999996,620.85400000000004,-68.662099999999995,-13.2843,-10.313499999999999
216560.0,189.21000000000001,1071.9300000000001,1224.29,1125.05,-75.849000000000004,-4.3304499999999999,-13.4498
216561.0,182.25999999999999,1556.9400000000001,1675.5,1593.26,-84.851799999999997,3.7932000000000001,-12.9848
216562.0,170.24000000000001,-1690.9300000000001,-1578.5699999999999,-1658.79,-78.779300000000006,5.4345400000000001,-8.7360799999999994
216563.0,158.65299999999999,2675.4499999999998,2711.9899999999998,2670.1399999999999,-87.219200000000001,8.9345400000000001,-13.5639
216564.0,104.316,3457.3600000000001,3451.25,3447.6700000000001,-58.68,8.39649,-9.4531200000000002
216565.0,95.782399999999996,3673.75,3664.9200000000001,3668.6599999999999,-53.334000000000003,10.148099999999999,-9.5380599999999998
216566.0,87.280900000000003,3846.6999999999998,3843.7199999999998,3846.6100000000001,-48.588200000000001,7.7930200000000003,-10.7189
216567.0,56.989699999999999,3765.5100000000002,3777.52,3776.8299999999999,-31.500299999999999,3.7124199999999998,-5.5739099999999997
216568.0,32.786299999999997,-3553.0599999999999,-3551.0900000000001,-3543.9200000000001,-17.8766,3.91011,0.53880300000000003
216569.0,41.522100000000002,2875.8400000000001,2917.71,2907.7199999999998,1.8978900000000001,-5.3050300000000004,8.0473599999999994
216570.0,68.120800000000003,1456.75,1515.3499999999999,1501.4400000000001,15.883900000000001,-11.923,14.653700000000001
216571.0,71.007000000000005,788.56899999999996,850.92600000000004,836.95299999999997,15.5783,-13.809799999999999,13.2851
216572.0,74.907499999999999,167.976,237.85499999999999,218.65100000000001,11.656000000000001,-16.951699999999999,11.9948
216573.0,121.214,66.059100000000001,-42.999200000000002,31.3764,-18.437200000000001,8.4044600000000003,-37.179699999999997
216574.0,172.34899999999999,644.58900000000006,689.774,619.31899999999996,52.249000000000002,26.969200000000001,71.903400000000005
216575.0,142.06100000000001,172.55699999999999,257.37799999999999,176.52500000000001,50.656399999999998,19.865500000000001,38.4084
216576.0,150.107,1302.04,1444.1400000000001,1338.01,42.422600000000003,11.230700000000001,11.265700000000001
216577.0,185.28899999999999,793.03700000000003,996.63999999999999,857.60199999999998,23.674499999999998,6.1780999999999997,4.4368600000000002
216578.0,238.12100000000001,12.3096,283.13200000000001,106.97499999999999,-0.95831500000000003,-2.3228300000000002,2.15144
216579.0,278.36200000000002,-429.80599999999998,-117.788,-316.82799999999997,-26.915800000000001,-12.158099999999999,0.49632399999999999
216580.0,204.577,193.828,423.24599999999998,281.51499999999999,-12.4413,-11.476900000000001,16.202400000000001
216581.0,228.47399999999999,-1058.2,-802.86199999999997,-959.02999999999997,-18.937000000000001,-18.3828,11.5794
216582.0,221.261,-831.572,-589.649,-739.43299999999999,-32.864899999999999,-17.7363,3.9474800000000001
216583.0,219.047,-228.34700000000001,0.30287599999999998,-143.93899999999999,-48.0276,-17.7348,-2.0209800000000002
216584.0,192.63200000000001,-872.96500000000003,-689.10000000000002,-808.72000000000003,-59.462299999999999,-9.5021000000000004,-5.9945300000000001
216585.0,179.53399999999999,-1324.98,-1175.46,-1275.49,-69.816100000000006,-0.51158700000000001,-8.2586600000000008
216586.0,150.91800000000001,-2151.6599999999999,-2091.0900000000001,-2145.9699999999998,-79.506500000000003,7.3639599999999996,-9.90489
216587.0,126.72499999999999,-2762.6900000000001,-2751.4099999999999,-2779.3000000000002,-71.030900000000003,5.6372099999999996,-8.8892799999999994
216588.0,108.011,-3142.46,-3151.5,-3160.1799999999998,-61.1633,5.9937899999999997,-5.77921
216589.0,97.550299999999993,-3313.5999999999999,-3324.1100000000001,-3323.6300000000001,-54.886899999999997,8.6192600000000006,-7.0682400000000003
216590.0,93.599400000000003,-3539.6700000000001,-3551.7199999999998,-3547.8499999999999,-52.138800000000003,8.4544899999999998,-9.6172199999999997
216591.0,68.691299999999998,-3677.3499999999999,-3689.8600000000001,-3680.96,-37.996600000000001,7.3324600000000002,-5.8188599999999999
216592.0,23.644600000000001,-3184.75,-3165.0999999999999,-3163.9699999999998,-1.8205499999999999,-0.90942800000000001,6.7644500000000001
216593.0,42.890500000000003,-2605.48,-2567.98,-2574.0,7.8443699999999996,-5.6708100000000004,10.678599999999999
216594.0,58.076700000000002,-1907.7,-1859.99,-1868.76,14.736700000000001,-9.1269200000000001,13.381500000000001
216595.0,66.205600000000004,-1241.6700000000001,-1184.3,-1196.5599999999999,15.1531,-12.6556,12.5878
216596.0,67.855099999999993,-599.976,-537.47199999999998,-551.33000000000004,11.956799999999999,-14.354699999999999,10.403
216597.0,209.005,1519.1500000000001,1526.71,1459.6800000000001,113.628,14.987500000000001,8.7993500000000004
216598.0,126.66800000000001,223.72499999999999,199.38,171.98699999999999,62.759999999999998,4.0424100000000003,26.890999999999998
216599.0,230.01300000000001,1130.9400000000001,1384.4100000000001,1227.8099999999999,-30.749700000000001,-15.0055,10.2463
216600.0,178.20400000000001,3091.2800000000002,3139.5900000000001,3089.5500000000002,-98.832499999999996,2.95092,-1.4213899999999999
216601.0,37.834200000000003,3668.2399999999998,3699.04,3688.5700000000002,-14.7918,-3.41933,1.2111700000000001
216602.0,57.102400000000003,2321.9699999999998,2378.6199999999999,2363.1399999999999,8.2634699999999999,-8.9277200000000008,9.0356799999999993
216603.0,123.31699999999999,3841.3699999999999,3838.0500000000002,3815.3099999999999,-69.268299999999996,2.1999,-8.0587300000000006
216604.0,220.81899999999999,-75.665199999999999,156.87,20.8474,-46.140799999999999,-16.2362,14.5885
216605.0,112.57599999999999,-1759.8900000000001,-1708.1700000000001,-1738.4200000000001,54.430500000000002,12.2826,20.878299999999999
216606.0,137.76300000000001,-1199.1500000000001,-1184.74,-1209.21,66.527299999999997,16.755800000000001,38.3187
216607.0,132.99100000000001,-679.26599999999996,-547.48699999999997,-634.15700000000004,33.185600000000001,7.4097600000000003,15.936299999999999
216608.0,189.23699999999999,-1973.54,-1762.0,-1901.0699999999999,9.7674099999999999,3.4527100000000002,16.528500000000001
216609.0,242.45400000000001,-440.50700000000001,-168.285,-341.95699999999999,-18.6922,-6.4686399999999997,14.3881
216610.0,274.774,-724.173,-426.791,-613.23599999999999,-47.779200000000003,-16.7592,4.3782800000000002
216611.0,236.73599999999999,-478.52600000000001,-215.64099999999999,-384.19299999999998,-28.496300000000002,-11.2112,2.6977699999999998
216612.0,207.35300000000001,780.35699999999997,1010.88,873.66899999999998,-18.372,-14.136200000000001,18.667000000000002
216613.0,216.80000000000001,1284.1500000000001,1496.4200000000001,1370.71,-62.805799999999998,-13.973800000000001,11.6417
216614.0,215.32599999999999,1344.27,1525.24,1412.95,-83.639099999999999,-9.7023899999999994,4.4223600000000003
216615.0,207.41800000000001,1759.1099999999999,1900.8699999999999,1805.8299999999999,-95.439599999999999,-2.6020099999999999,2.6343000000000001
216616.0,198.00700000000001,2366.4200000000001,2460.5,2388.3800000000001,-103.143,2.8200099999999999,0.32467800000000002
216617.0,170.50899999999999,-2533.1300000000001,-2458.8000000000002,-2524.0999999999999,-89.577699999999993,0.82284999999999997,4.5737399999999999
216618.0,137.721,3574.25,3584.4499999999998,3553.5999999999999,-77.857100000000003,1.7886299999999999,-3.2262200000000001
216619.0,118.56699999999999,4273.4099999999999,4274.0100000000002,4255.5699999999997,-66.623400000000004,3.89079,-11.067299999999999
216620.0,89.918700000000001,4360.8800000000001,4360.5,4352.3800000000001,-50.824199999999998,4.69475,-8.1815499999999997
216621.0,74.764399999999995,4242.1199999999999,4244.3999999999996,4240.8100000000004,-42.3857,2.8038699999999999,-7.4520799999999996
216622.0,57.353200000000001,4076.5700000000002,4092.0,4085.3000000000002,-31.853200000000001,-0.440911,-4.665
216623.0,34.602200000000003,-3868.4000000000001,-3861.54,-3860.9899999999998,-19.544799999999999,0.048666899999999999,0.20233599999999999
216624.0,44.380600000000001,3029.8800000000001,3076.5999999999999,3062.0900000000001,0.25464700000000001,-6.6156300000000003,6.3968999999999996
216625.0,69.896799999999999,1563.8699999999999,1629.47,1612.28,15.0678,-11.0778,11.020099999999999
216626.0,74.435100000000006,820.98900000000003,892.48500000000001,873.92200000000003,14.3125,-12.483700000000001,10.479799999999999
216627.0,77.550299999999993,181.24100000000001,258.92099999999999,237.87200000000001,10.547599999999999,-14.028600000000001,9.0876599999999996
216628.0,128.81399999999999,79.894300000000001,-35.022599999999997,48.729399999999998,-20.388300000000001,2.5169600000000001,-39.712899999999998
216629.0,165.488,601.84100000000001,657.26999999999998,558.49699999999996,60.185299999999998,27.070799999999998,48.192
216630.0,145.495,1997.98,2077.02,2000.76,57.732500000000002,17.770299999999999,37.355200000000004
216631.0,148.608,1148.3099999999999,1292.1900000000001,1187.6099999999999,37.381900000000002,9.9668899999999994,18.273499999999999
216632.0,188.94999999999999,1338.99,1551.1900000000001,1410.52,13.1441,3.3775900000000001,7.8012699999999997
216633.0,243.85300000000001,1318.1800000000001,1595.03,1417.8,-11.355,-5.1305199999999997,1.6431500000000001
216634.0,281.89299999999997,628.86800000000005,942.35599999999999,742.51999999999998,-32.569699999999997,-15.154999999999999,-3.1244999999999998
216635.0,210.71199999999999,-1593.54,-1357.7,-1503.73,-19.7056,-10.190099999999999,11.8132
216636.0,231.71299999999999,-220.733,34.6417,-116.97199999999999,-30.620200000000001,-16.3216,14.0762
216637.0,224.255,-579.82500000000005,-343.16699999999997,-482.84199999999998,-46.723100000000002,-15.367800000000001,13.804399999999999
216638.0,219.874,-1568.21,-1353.03,-1483.8199999999999,-63.305799999999998,-13.724600000000001,12.787000000000001
216639.0,204.83199999999999,-1517.9000000000001,-1343.3099999999999,-1456.2,-77.369699999999995,-7.5036699999999996,10.250400000000001
216640.0,189.845,-1902.1400000000001,-1771.6600000000001,-1864.26,-86.2834,-1.6349,7.7604699999999998
216641.0,135.619,-3130.3099999999999,-3110.9000000000001,-3148.5700000000002,-75.987700000000004,0.47495599999999999,1.3002100000000001
216642.0,122.711,-3397.8299999999999,-3398.8400000000001,-3424.79,-69.063999999999993,-0.25087799999999999,-3.9834000000000001
216643.0,122.893,-3782.6999999999998,-3787.77,-3806.6799999999998,-69.367400000000004,2.1346599999999998,-7.6260399999999997
216644.0,97.881100000000004,-4181.1700000000001,-4192.8000000000002,-4198.46,-55.195599999999999,5.0415000000000001,-6.6209899999999999
216645.0,80.494,-4141.1300000000001,-4149.1700000000001,-4149.1499999999996,-45.5137,3.7836400000000001,-7.2421600000000002
216646.0,64.067499999999995,-4034.5599999999999,-4038.8299999999999,-4036.79,-36.491900000000001,2.0504799999999999,-5.2704800000000001
216647.0,25.249099999999999,-3394.0900000000001,-3370.3099999999999,-3374.0100000000002,-3.5263900000000001,-2.9111500000000001,5.2822899999999997
216648.0,44.094200000000001,-2771.5300000000002,-2729.0500000000002,-2738.4899999999998,6.2774900000000002,-6.6150399999999996,8.2080500000000001
216649.0,59.105400000000003,-2074.1999999999998,-2020.9400000000001,-2032.4400000000001,13.8786,-9.0157600000000002,10.2568
216650.0,68.648300000000006,-1329.0999999999999,-1264.0699999999999,-1279.6400000000001,14.043200000000001,-11.325200000000001,9.6131499999999992
216651.0,72.193700000000007,-640.33299999999997,-568.41099999999994,-586.33199999999999,10.692,-12.6524,7.82437
216652.0,30.000900000000001,27.1647,38.054900000000004,59.526800000000001,-0.61604899999999996,-4.3371399999999998,3.1097700000000001
216653.0,84.104900000000001,50.247700000000002,45.979100000000003,124.36799999999999,2.0916600000000001,-20.129999999999999,2.34111
216654.0,89.868600000000001,41.036200000000001,8.3447099999999992,94.402900000000002,-20.1875,-17.2027,-10.076000000000001
216655.0,94.884500000000003,49.076799999999999,-14.1503,78.8279,-17.661999999999999,-8.97227,-18.813500000000001
216656.0,91.655500000000004,50.868699999999997,47.1584,130.77699999999999,4.1190100000000003,-23.477499999999999,0.48148299999999999
216657.0,31.6113,47.511600000000001,44.904000000000003,75.291700000000006,-5.5834700000000002,-4.0840500000000004,1.2569399999999999
216658.0,38.801699999999997,-64.105199999999996,-47.917099999999998,-34.365000000000002,-16.431899999999999,-2.42916,-2.0615199999999998
216659.0,50.660899999999998,67.986000000000004,59.091500000000003,89.452200000000005,-24.374600000000001,-0.28672300000000001,-4.2061299999999999
216660.0,33.267800000000001,36.616399999999999,39.391500000000001,68.886799999999994,-3.5435599999999998,-5.9111599999999997,1.2548699999999999
216661.0,39.037799999999997,39.612499999999997,38.730800000000002,75.308899999999994,-5.6994300000000004,-6.18445,1.3261000000000001
216662.0,47.553199999999997,35.387,34.999200000000002,79.280199999999994,-5.8104199999999997,-8.3695599999999999,1.4250400000000001
216663.0,61.361600000000003,41.031599999999997,37.534100000000002,96.433199999999999,-4.0003599999999997,-12.018000000000001,1.69357
216664.0,75.507800000000003,47.692900000000002,42.944899999999997,115.069,-1.0220800000000001,-16.2895,2.6023399999999999
216665.0,98.754400000000004,51.438000000000002,47.924500000000002,138.58500000000001,4.2523,-24.388200000000001,-0.47098400000000001
216666.0,101.907,47.754800000000003,45.005299999999998,139.048,0.0483957,-24.384799999999998,1.64821
216667.0,100.26600000000001,45.185299999999998,38.719499999999996,128.90600000000001,-7.9518800000000001,-26.543700000000001,7.2453799999999999
216668.0,95.018699999999995,39.892600000000002,21.615400000000001,109.205,-10.126099999999999,-25.718599999999999,10.512499999999999
216669.0,91.249200000000002,41.063200000000002,18.303000000000001,104.572,-17.764700000000001,-21.4221,1.4294500000000001
216670.0,113.538,59.813800000000001,-12.475300000000001,76.300600000000003,-31.7592,-1.3741000000000001,-32.506599999999999
216671.0,116.949,63.971499999999999,-10.4634,69.302599999999998,-29.979399999999998,-1.52752,-40.857500000000002
216672.0,127.236,84.117000000000004,-21.878499999999999,66.316699999999997,-20.446999999999999,-6.1098699999999999,-41.462899999999998
216673.0,141.94800000000001,85.118300000000005,-35.235399999999998,59.549199999999999,-27.3063,-8.9550199999999993,-43.244900000000001
216674.0,132.19999999999999,86.956800000000001,-26.163599999999999,68.301400000000001,-26.560500000000001,-6.3867599999999998,-37.435299999999998
216675.0,25.3963,24.6691,35.678400000000003,51.749899999999997,-4.5668100000000003,-2.8799000000000001,0.60297900000000004
216676.0,56.651600000000002,38.173900000000003,34.921900000000001,90.090100000000007,-1.8922300000000001,-10.389699999999999,0.20295099999999999
216677.0,127.566,19.207799999999999,-10.625400000000001,122.883,-17.482500000000002,-13.056699999999999,-6.1458500000000003
216678.0,136.52199999999999,25.214400000000001,-14.397500000000001,133.66300000000001,-17.710100000000001,-2.02441,-4.4420599999999997
216679.0,61.351399999999998,40.852800000000002,37.973100000000002,96.829499999999996,-0.0013720799999999999,-12.3238,-1.35286
216680.0,27.726199999999999,47.413899999999998,45.628300000000003,69.411699999999996,-8.6811600000000002,-2.2395900000000002,-0.64219800000000005
216681.0,41.8596,-60.811100000000003,-42.895699999999998,-37.404600000000002,-20.650500000000001,-1.0859099999999999,-2.5738099999999999
216682.0,51.501899999999999,62.427399999999999,56.301699999999997,78.588800000000006,-27.096699999999998,-0.27407300000000001,-4.1556100000000002
216683.0,24.677399999999999,36.755400000000002,39.896900000000002,60.606000000000002,-5.2375999999999996,-2.7527499999999998,-0.22275500000000001
216684.0,26.486899999999999,38.210599999999999,38.333500000000001,62.180199999999999,-6.1812699999999996,-2.2585000000000002,0.073735999999999996
216685.0,30.697700000000001,37.006399999999999,36.587499999999999,65.032700000000006,-6.2138,-3.0307900000000001,0.72234299999999996
216686.0,35.458100000000002,37.324800000000003,35.447000000000003,70.066400000000002,-4.5524899999999997,-4.3994999999999997,0.073553599999999997
216687.0,45.0075,35.846200000000003,33.841799999999999,77.915099999999995,-2.82558,-6.8600199999999996,0.89685599999999999
216688.0,61.208399999999997,38.374000000000002,36.759300000000003,94.924899999999994,0.15640399999999999,-12.271800000000001,-0.94616599999999995
216689.0,64.669799999999995,38.400799999999997,36.621400000000001,98.849400000000003,-0.81423199999999996,-11.7075,-1.1902200000000001
216690.0,74.073700000000002,34.692999999999998,30.511900000000001,103.92400000000001,-3.5180099999999999,-10.681699999999999,-1.5942000000000001
216691.0,89.193799999999996,33.685099999999998,25.380099999999999,114.23399999999999,-8.3663799999999995,-12.3125,-4.64602
216692.0,110.98099999999999,22.8127,5.7032999999999996,115.43300000000001,-16.748799999999999,-16.020600000000002,-9.1170500000000008
216693.0,137.25899999999999,21.248899999999999,-12.3093,124.749,-31.343399999999999,6.0756899999999998,-12.52
216694.0,119.57599999999999,18.606000000000002,-19.3202,99.309299999999993,-25.6463,7.45547,-19.548100000000002
216695.0,121.386,51.614600000000003,-35.256399999999999,89.775499999999994,-13.776899999999999,4.7357699999999996,-24.358000000000001
216696.0,138.18700000000001,79.642399999999995,-38.735900000000001,88.426000000000002,-21.827100000000002,-1.7229099999999999,-29.023099999999999
216697.0,132.31100000000001,78.803299999999993,-19.9114,84.761300000000006,-37.718800000000002,-9.1882800000000007,-29.5336
216698.0,23.744299999999999,25.625699999999998,34.392000000000003,44.800699999999999,-9.4485700000000001,-1.8940600000000001,-1.70932
216699.0,29.052800000000001,36.981499999999997,35.003,63.054099999999998,-2.8588100000000001,-4.3898599999999997,-2.9696799999999999
216700.0,127.633,37.8523,1.2524,120.934,-24.593599999999999,-29.135400000000001,14.676399999999999
216701.0,141.14500000000001,50.119599999999998,-1.5149600000000001,129.31999999999999,-21.77,-35.6355,23.537299999999998
216702.0,32.463299999999997,32.491999999999997,30.725200000000001,62.068899999999999,-4.8857999999999997,-3.7156899999999999,-1.88575
216703.0,25.8903,35.502099999999999,35.905799999999999,52.384,-11.189399999999999,-1.37669,-1.8857200000000001
216704.0,42.180799999999998,-30.756900000000002,-13.7898,-13.5694,-22.044,-1.99742,-2.4329900000000002
216705.0,46.7378,42.624499999999998,41.759,54.243899999999996,-25.744499999999999,-1.72143,-3.7137099999999998
216706.0,22.630500000000001,33.367400000000004,35.123899999999999,52.052799999999998,-7.6774699999999996,-1.9659500000000001,-1.19783
216707.0,23.076499999999999,38.625799999999998,37.500900000000001,57.008600000000001,-6.9785300000000001,-2.72729,-1.1887799999999999
216708.0,23.428000000000001,35.722299999999997,34.4773,55.520299999999999,-5.3759600000000001,-3.5868600000000002,-1.3433999999999999
216709.0,24.826799999999999,38.275799999999997,35.991799999999998,59.266100000000002,-4.2645999999999997,-4.2637700000000001,-2.1226799999999999
216710.0,26.432700000000001,38.467300000000002,36.094299999999997,61.362000000000002,-2.84334,-4.5501300000000002,-3.06568
216711.0,35.015500000000003,31.442799999999998,27.414899999999999,61.039999999999999,-8.2036599999999993,-1.9868600000000001,0.54941200000000001
216712.0,39.423099999999998,25.808199999999999,18.903199999999998,53.486899999999999,-12.7593,-0.37282300000000002,4.4891100000000002
216713.0,51.884,25.317799999999998,13.163399999999999,60.492699999999999,-15.6104,-2.3967399999999999,6.6115300000000001
216714.0,78.066400000000002,25.900400000000001,-0.071100200000000002,80.554699999999997,-14.6044,-10.4969,3.7804799999999998
216715.0,109.28100000000001,42.5169,7.9901600000000004,116.608,-20.476299999999998,-21.034800000000001,6.2583700000000002
216716.0,150.67599999999999,31.684699999999999,-25.866800000000001,103.27,-32.418599999999998,-37.017899999999997,30.998699999999999
216717.0,131.78299999999999,35.172800000000002,-4.2898800000000001,100.637,-35.065199999999997,-27.1633,31.823799999999999
216718.0,103.06,22.5458,-35.644799999999996,64.737200000000001,-24.386500000000002,-9.8053299999999997,17.5825
216719.0,120.973,79.754000000000005,-35.593299999999999,89.605999999999995,-5.46143,1.17686,-0.88124199999999997
216720.0,129.58000000000001,82.600399999999993,-16.174199999999999,97.078900000000004,-37.525100000000002,-10.0177,-17.022200000000002
216721.0,28.098700000000001,29.998899999999999,33.131599999999999,42.521900000000002,-14.1837,-3.3163800000000001,-2.9215399999999998
216722.0,24.169,38.063299999999998,37.643700000000003,59.0565,-2.2611500000000002,-4.6353,-4.2680400000000001
216723.0,81.322299999999998,74.070499999999996,42.400300000000001,111.36799999999999,-28.6629,0.96079000000000003,13.790100000000001
216724.0,89.430999999999997,80.608500000000006,32.977400000000003,115.518,-24.751000000000001,3.2552400000000001,18.057099999999998
216725.0,27.770900000000001,35.122599999999998,33.753900000000002,58.969700000000003,-6.5569199999999999,-2.7976800000000002,-2.2778900000000002
216726.0,25.0367,36.8872,37.383000000000003,51.043900000000001,-11.3771,-3.5588600000000001,-1.5149699999999999
216727.0,38.045699999999997,16.072900000000001,30.6602,30.892900000000001,-19.8492,-3.7660200000000001,-1.4956100000000001
216728.0,38.347700000000003,24.822700000000001,31.197500000000002,36.263300000000001,-20.8339,-4.1966900000000003,-2.3777599999999999
216729.0,22.370799999999999,37.9621,38.409700000000001,54.063600000000001,-8.0195799999999995,-3.9048099999999999,-1.7813699999999999
216730.0,21.399699999999999,36.079300000000003,35.689,52.822000000000003,-5.8955599999999997,-3.8502299999999998,-2.7200899999999999
216731.0,20.967300000000002,40.707000000000001,39.055500000000002,57.585299999999997,-3.8464999999999998,-4.0442499999999999,-3.1988099999999999
216732.0,22.092300000000002,39.566600000000001,37.936999999999998,57.618000000000002,-2.37751,-4.92232,-3.6739999999999999
216733.0,23.388300000000001,39.7881,38.670499999999997,59.070799999999998,-1.0236400000000001,-5.4576799999999999,-4.4680900000000001
216734.0,40.693199999999997,25.988299999999999,19.317699999999999,55.028799999999997,-13.815899999999999,-0.75719700000000001,-0.082377800000000001
216735.0,69.186099999999996,10.2355,-0.94639899999999999,50.506100000000004,-29.335699999999999,1.46831,0.69439700000000004
216736.0,72.772199999999998,15.7736,-16.127400000000002,55.478499999999997,-21.789400000000001,-0.099959300000000001,1.88479
216737.0,76.608800000000002,65.814099999999996,14.792400000000001,94.308099999999996,-17.073399999999999,-5.5815099999999997,3.2667999999999999
216738.0,81.541899999999998,89.144599999999997,49.761600000000001,120.866,-29.268999999999998,-4.3309899999999999,8.4903700000000004
216739.0,114.845,77.849900000000005,5.3421099999999999,103.92700000000001,-27.523399999999999,1.2295400000000001,32.0625
216740.0,131.93899999999999,65.0732,14.0053,88.630799999999994,-48.929200000000002,-3.9891200000000002,44.015599999999999
216741.0,109.776,25.578299999999999,-11.654400000000001,38.837699999999998,-42.4846,-1.19333,39.055500000000002
216742.0,102.215,49.487099999999998,-49.019100000000002,37.376800000000003,2.6884999999999999,9.0200600000000009,22.5459
216743.0,114.15900000000001,84.022000000000006,-19.886299999999999,85.972899999999996,-25.2836,6.0810000000000004,-0.19189500000000001
216744.0,33.732199999999999,38.058199999999999,35.362200000000001,49.843299999999999,-16.583300000000001,-5.3910799999999997,-3.9883899999999999
216745.0,24.278099999999998,35.004300000000001,35.762099999999997,56.982900000000001,-4.4988700000000001,-2.0080800000000001,-4.0673599999999999
216746.0,74.5715,88.619299999999996,49.696899999999999,109.34999999999999,-26.8916,14.161799999999999,3.5663100000000001
216747.0,81.577100000000002,105.47799999999999,61.775700000000001,123.212,-27.768899999999999,20.347000000000001,5.7755099999999997
216748.0,32.389200000000002,32.250500000000002,29.449000000000002,56.376100000000001,-11.129899999999999,-0.7329,-2.4727000000000001
216749.0,25.112500000000001,43.098500000000001,43.862099999999998,58.275599999999997,-10.2933,-4.9225399999999997,-2.6300400000000002
216750.0,33.5366,62.586799999999997,75.235100000000003,84.357200000000006,-14.969900000000001,-5.3916399999999998,-1.48567
216751.0,29.7012,1.839,14.846,21.2988,-12.6241,-5.4845499999999996,-2.52101
216752.0,22.641100000000002,52.5458,53.587000000000003,69.027199999999993,-7.5570199999999996,-4.5975799999999998,-2.7278500000000001
216753.0,21.1449,39.2791,40.957599999999999,57.183399999999999,-4.5554500000000004,-4.5552599999999996,-3.1235900000000001
216754.0,21.968699999999998,39.545900000000003,37.946599999999997,57.109000000000002,-3.3439100000000002,-4.2983900000000004,-4.2638299999999996
216755.0,21.779900000000001,39.633800000000001,39.339599999999997,58.4375,-1.9071800000000001,-3.5966399999999998,-4.6706700000000003
216756.0,21.936299999999999,41.550199999999997,41.606999999999999,61.166499999999999,-1.5834299999999999,-2.85276,-4.6753600000000004
216757.0,53.386200000000002,19.5472,9.2787500000000005,46.003900000000002,-24.291699999999999,-0.30487199999999998,-0.90912400000000004
216758.0,83.489999999999995,15.5602,-8.3827300000000005,41.471800000000002,-41.094299999999997,-3.6094300000000001,0.26146399999999997
216759.0,77.676400000000001,27.854199999999999,-23.352599999999999,48.0105,-25.514399999999998,-2.5830600000000001,0.192302
216760.0,83.117800000000003,77.173699999999997,21.146999999999998,100.444,-24.564800000000002,5.7719699999999996,-2.1695700000000002
216761.0,86.148300000000006,102.506,61.909700000000001,128.607,-34.601700000000001,12.1214,0.028412199999999999
216762.0,104.65600000000001,77.586299999999994,16.314800000000002,91.066500000000005,-25.421299999999999,34.828200000000002,14.2986
216763.0,140.667,73.831199999999995,7.10128,87.445300000000003,-52.092700000000001,38.527999999999999,23.425899999999999
216764.0,131.93799999999999,-2.14114,-71.8215,0.91019799999999995,-51.137599999999999,26.026800000000001,28.5944
216765.0,101.95399999999999,46.263399999999997,-43.523299999999999,26.044599999999999,-9.7105399999999999,12.555300000000001,31.5367
216766.0,95.040800000000004,64.482900000000001,-32.803199999999997,36.158999999999999,-13.0078,5.1795999999999998,17.638500000000001
216767.0,34.020800000000001,42.5931,41.632100000000001,58.954700000000003,-15.4781,-5.8711799999999998,-4.1207799999999999
216768.0,25.6572,34.112900000000003,31.258800000000001,44.358400000000003,-13.0463,0.89170499999999997,-0.98895900000000003
216769.0,88.684399999999997,87.326499999999996,32.607199999999999,101.871,-32.048999999999999,2.0481600000000002,16.013500000000001
216770.0,93.8917,74.469499999999996,15.8973,79.411500000000004,-36.618000000000002,3.7426599999999999,18.315799999999999
216771.0,39.547600000000003,26.5243,17.0504,32.933300000000003,-21.240400000000001,2.4987900000000001,0.30022500000000002
216772.0,28.258400000000002,38.738900000000001,41.543900000000001,55.889200000000002,-11.347899999999999,-4.0187900000000001,-6.0517500000000002
216773.0,34.424599999999998,102.53400000000001,114.11499999999999,133.07599999999999,-10.327199999999999,-7.1130199999999997,0.13547300000000001
216774.0,30.4314,10.3124,27.414200000000001,39.362499999999997,-7.1862399999999997,-6.5278200000000002,-1.1164799999999999
216775.0,25.4421,46.919699999999999,48.390599999999999,64.092299999999994,-9.0103100000000005,-2.5868799999999998,-6.1064600000000002
216776.0,22.2529,32.864800000000002,34.991,49.927799999999998,-6.6510499999999997,-1.5330600000000001,-5.6580899999999996
216777.0,20.472799999999999,41.4512,40.427900000000001,55.615000000000002,-6.6351000000000004,-1.1576900000000001,-4.72187
216778.0,19.415500000000002,36.705800000000004,36.301699999999997,50.445700000000002,-6.8841799999999997,-1.21899,-3.4557600000000002
216779.0,20.428799999999999,36.351300000000002,34.6203,48.586199999999998,-8.6012000000000004,-0.59730099999999997,-2.6112299999999999
216780.0,69.031599999999997,7.8377400000000002,-7.9867499999999998,11.067,-38.2849,4.3282100000000003,-0.056578499999999997
216781.0,95.445300000000003,-2.68187,-43.578299999999999,-9.1220400000000001,-49.887599999999999,7.9252599999999997,-1.21773
216782.0,90.293099999999995,31.248200000000001,-35.226100000000002,20.634,-36.376399999999997,10.4961,2.9835099999999999
216783.0,88.980999999999995,84.430899999999994,26.084700000000002,90.282700000000006,-35.173000000000002,7.5162000000000004,9.2511899999999994
216784.0,93.575299999999999,79.199299999999994,24.142299999999999,96.626000000000005,-34.526200000000003,3.8330199999999999,16.749700000000001
216785.0,105.801,50.3825,-18.895900000000001,50.413400000000003,-37.095100000000002,8.8909699999999994,25.992599999999999
216786.0,132.655,45.803199999999997,-50.372199999999999,42.808799999999998,-39.715299999999999,9.0952199999999994,34.8643
216787.0,155.12299999999999,40.320300000000003,-79.266400000000004,27.954999999999998,-45.320799999999998,6.5735400000000004,39.985199999999999
216788.0,126.675,25.211099999999998,-61.772199999999998,15.115,-36.844200000000001,12.447800000000001,39.6631
216789.0,97.318299999999994,28.661999999999999,-58.311999999999998,-0.84873100000000001,-3.7501600000000002,21.872199999999999,26.613299999999999
216790.0,30.431799999999999,29.8172,36.767499999999998,46.1083,-14.565799999999999,-3.2520099999999998,-4.3740899999999998
216791.0,52.209099999999999,16.3264,4.5550199999999998,3.0545300000000002,-27.773900000000001,8.2910599999999999,3.9544199999999998
216792.0,122.961,81.956900000000005,3.3378399999999999,63.409100000000002,-50.530799999999999,14.1373,24.4468
216793.0,123.629,69.146500000000003,-14.9659,43.5518,-49.450800000000001,7.6584399999999997,27.048999999999999
216794.0,62.453899999999997,14.0578,-6.1965199999999996,-2.9224399999999999,-32.872900000000001,7.6859500000000001,6.49979
216795.0,32.812199999999997,23.006399999999999,27.269300000000001,35.601399999999998,-16.8307,-3.4138999999999999,-4.7870299999999997
216796.0,30.6496,94.409599999999998,106.10599999999999,116.63200000000001,-12.1927,-0.38741999999999999,-6.3834200000000001
216797.0,30.893999999999998,46.948300000000003,63.870600000000003,69.316800000000001,-12.275700000000001,-1.6947099999999999,-5.3401199999999998
216798.0,26.801300000000001,32.043700000000001,32.709099999999999,41.121000000000002,-13.6972,-3.3961800000000002,-3.8328199999999999
216799.0,25.6419,35.160200000000003,35.792000000000002,44.054299999999998,-13.308400000000001,-3.5056699999999998,-2.2665099999999998
216800.0,26.4437,29.144400000000001,29.909300000000002,36.497700000000002,-14.6281,-1.30782,-1.0261199999999999
216801.0,32.617400000000004,25.5687,23.311499999999999,26.514500000000002,-18.4939,2.99668,-0.958534
216802.0,42.191899999999997,24.200199999999999,16.511700000000001,16.796700000000001,-23.007100000000001,6.6470399999999996,0.93557800000000002
216803.0,78.929500000000004,5.5463800000000001,-26.230699999999999,-9.10365,-41.363599999999998,3.5219,10.015599999999999
216804.0,95.031899999999993,14.4221,-33.5745,3.0202399999999998,-47.356900000000003,0.65711399999999998,11.766
216805.0,97.179299999999998,36.555900000000001,-26.904800000000002,24.489699999999999,-42.263300000000001,5.0385299999999997,14.1654
216806.0,101.854,67.768100000000004,1.36775,52.478400000000001,-43.3245,10.9459,15.8766
216807.0,108.654,85.206699999999998,8.4699100000000005,65.339399999999998,-41.887999999999998,14.376899999999999,19.6907
216808.0,128.321,70.5869,-35.870899999999999,29.949999999999999,-37.9726,-6.2334199999999997,33.494100000000003
216809.0,142.40000000000001,81.572199999999995,-35.974699999999999,34.018900000000002,-36.479799999999997,-11.6066,42.397199999999998
216810.0,155.613,71.976799999999997,-56.2089,20.574999999999999,-40.811199999999999,-4.1514199999999999,47.195300000000003
216811.0,135.66999999999999,51.561399999999999,-37.045299999999997,19.8553,-45.222099999999998,-1.56216,45.521999999999998
216812.0,97.053200000000004,35.168500000000002,-48.258099999999999,1.5125599999999999,2.4178000000000002,-0.060715199999999997,37.0443
216813.0,32.404899999999998,23.0426,35.323999999999998,24.776299999999999,-16.6645,-4.0111999999999997,-3.4713799999999999
216814.0,75.568299999999994,8.8668300000000002,-14.4679,-2.88443,-33.928899999999999,2.05905,24.738299999999999
216815.0,147.863,70.847399999999993,-29.160499999999999,29.624600000000001,-58.480899999999998,7.6646599999999996,35.8185
216816.0,137.46199999999999,45.812199999999997,-51.811799999999998,0.69573700000000005,-52.622,9.7513299999999994,32.362099999999998
216817.0,75.908000000000001,19.9481,-10.2454,7.51145,-31.207100000000001,-1.40811,26.730799999999999
216818.0,44.2209,20.660799999999998,27.2819,20.790600000000001,-24.311199999999999,-6.3886500000000002,-2.3762300000000001
216819.0,37.300699999999999,8.8117400000000004,23.243400000000001,13.130599999999999,-19.467500000000001,-0.62147600000000003,-5.4353699999999998
216820.0,43.282600000000002,30.341799999999999,40.2866,31.550000000000001,-23.8218,-2.00061,-4.8508199999999997
216821.0,39.857700000000001,22.4039,25.261299999999999,21.530100000000001,-22.365300000000001,-4.0517300000000001,-3.0190999999999999
216822.0,46.185499999999998,28.870999999999999,28.8507,25.693000000000001,-26.529,1.1214999999999999,-1.62497
216823.0,48.612299999999998,25.701499999999999,22.033100000000001,19.594100000000001,-27.321300000000001,5.3076600000000003,1.90883
216824.0,56.073700000000002,10.849,-2.24282,2.09721,-30.148299999999999,4.6411600000000002,8.5530899999999992
216825.0,68.935400000000001,11.8247,-5.7526299999999999,2.7990699999999999,-34.049100000000003,3.3032900000000001,18.3444
216826.0,78.215299999999999,53.176600000000001,13.2218,39.671300000000002,-30.868500000000001,-5.08202,25.4452
216827.0,89.703299999999999,79.050799999999995,31.210599999999999,62.527000000000001,-35.380600000000001,-7.2137000000000002,28.071200000000001
216828.0,105.57299999999999,66.783100000000005,15.2196,50.734900000000003,-44.624899999999997,-3.88564,31.819500000000001
216829.0,117.72,58.081400000000002,-10.582000000000001,38.753300000000003,-46.143300000000004,4.7215400000000001,34.843899999999998
216830.0,128.346,57.784599999999998,-35.624499999999998,24.277200000000001,-45.650500000000001,9.0375899999999998,32.953299999999999
216831.0,141.35400000000001,90.210300000000004,-39.310099999999998,27.340699999999998,-36.1509,17.4971,29.192699999999999
216832.0,152.73099999999999,83.084800000000001,-46.393999999999998,20.514900000000001,-43.456000000000003,20.353100000000001,35.778799999999997
216833.0,158.99700000000001,104.741,-27.195699999999999,42.2898,-43.589700000000001,12.8117,44.794400000000003
216834.0,149.001,53.461100000000002,-63.211799999999997,1.45076,-24.4923,-1.05362,58.163400000000003
216835.0,115.267,101.551,29.7807,84.247799999999998,0.21572,-11.889900000000001,53.708399999999997
216836.0,41.737299999999998,11.6439,28.5045,-1.88893,-16.407299999999999,-8.8733400000000007,0.93288400000000005
216837.0,69.198800000000006,74.388099999999994,52.690800000000003,78.662099999999995,-29.939599999999999,-5.4380499999999996,21.823899999999998
216838.0,153.93600000000001,66.524299999999997,-43.818199999999997,19.697900000000001,-54.165900000000001,-3.5360100000000001,43.418700000000001
216839.0,147.916,54.224800000000002,-55.176299999999998,8.6278799999999993,-50.056899999999999,-4.87378,41.759
216840.0,62.1248,91.793099999999995,65.125600000000006,88.767499999999998,-28.176100000000002,-3.1603400000000001,16.413699999999999
216841.0,57.134099999999997,13.7121,26.206299999999999,1.32822,-28.221299999999999,-11.614800000000001,1.42397
216842.0,54.857300000000002,-35.861400000000003,-15.6754,-47.4407,-24.661799999999999,-9.2291000000000007,7.1620100000000004
216843.0,63.679099999999998,30.466899999999999,33.764000000000003,10.3409,-32.017600000000002,-11.491099999999999,5.8087
216844.0,61.933799999999998,4.7309599999999996,14.4902,-2.6852800000000001,-32.762500000000003,-11.282500000000001,-1.9282900000000001
216845.0,71.933999999999997,4.5976900000000001,1.1516299999999999,3.6373000000000002,-40.548499999999997,-8.0808099999999996,3.4916399999999999
216846.0,67.517200000000003,15.315200000000001,0.35775600000000002,18.286100000000001,-33.575600000000001,-5.8957499999999996,16.282499999999999
216847.0,66.581999999999994,55.746600000000001,36.782800000000002,59.147599999999997,-28.041399999999999,-6.83683,22.347899999999999
216848.0,67.886700000000005,78.911500000000004,64.095500000000001,86.500699999999995,-28.862500000000001,-6.1167299999999996,23.1495
216849.0,65.029600000000002,98.851600000000005,65.719899999999996,87.096999999999994,-30.360600000000002,3.6675499999999999,13.865600000000001
216850.0,86.611800000000002,92.1768,42.343800000000002,69.283100000000005,-36.956600000000002,10.3497,20.135300000000001
216851.0,101.771,92.148600000000002,36.525199999999998,63.806199999999997,-44.796500000000002,8.7277900000000006,24.412199999999999
216852.0,114.855,75.587699999999998,3.9452199999999999,43.279499999999999,-44.501100000000001,1.4499899999999999,33.578200000000002
216853.0,138.07400000000001,71.462400000000002,-22.6433,32.756399999999999,-48.933399999999999,-2.2558099999999999,41.4499
216854.0,143.84399999999999,64.252300000000005,-56.364199999999997,19.223199999999999,-38.632599999999996,-2.6464099999999999,41.020600000000002
216855.0,150.65000000000001,61.900199999999998,-69.539599999999993,22.3399,-34.495399999999997,0.77656199999999997,42.747999999999998
216856.0,161.976,97.709900000000005,-45.728999999999999,59.0503,-36.372300000000003,2.0944400000000001,43.704000000000001
216857.0,144.36500000000001,70.251499999999993,-57.452199999999998,41.414400000000001,-12.2737,10.1302,46.990299999999998
216858.0,72.259399999999999,132.851,81.943799999999996,135.31700000000001,-11.773899999999999,16.782699999999998,20.308900000000001
216859.0,42.298999999999999,35.3157,57.640500000000003,25.537400000000002,-10.359299999999999,-9.9209899999999998,10.9495
216860.0,69.879800000000003,91.2363,67.869799999999998,80.178799999999995,-36.841700000000003,5.3329399999999998,10.263999999999999
216861.0,155.45699999999999,78.410300000000007,-42.941099999999999,28.599799999999998,-51.566200000000002,-5.9701300000000002,40.496899999999997
216862.0,154.15899999999999,60.507800000000003,-55.050800000000002,14.5688,-53.890099999999997,-6.7719800000000001,39.830399999999997
216863.0,83.319800000000001,95.053700000000006,59.268799999999999,77.588099999999997,-42.099200000000003,4.1260700000000003,14.3003
216864.0,58.964300000000001,12.898899999999999,33.322000000000003,4.2009100000000004,-24.8628,-11.955299999999999,13.2051
216865.0,55.319699999999997,-55.603400000000001,-37.0852,-71.251199999999997,-22.978899999999999,-9.4880499999999994,10.465299999999999
216866.0,65.827100000000002,61.842199999999998,51.868099999999998,37.606699999999996,-30.140000000000001,-15.417400000000001,12.2439
216867.0,67.510000000000005,13.757899999999999,15.9785,5.11782,-32.359900000000003,-18.452300000000001,9.9308800000000002
216868.0,84.772199999999998,47.378999999999998,37.136299999999999,44.7958,-40.704099999999997,-20.989899999999999,16.421500000000002
216869.0,76.805700000000002,74.161500000000004,65.527799999999999,74.677300000000002,-37.924500000000002,-11.336,19.317900000000002
216870.0,54.499000000000002,95.598200000000006,83.432199999999995,89.403899999999993,-29.537199999999999,-1.1432800000000001,8.9043500000000009
216871.0,51.901499999999999,103.578,91.093400000000003,95.126499999999993,-28.687799999999999,4.2774400000000004,4.0060200000000004
216872.0,91.958500000000001,84.153700000000001,39.350900000000003,59.034999999999997,-43.499000000000002,2.3973399999999998,20.410499999999999
216873.0,98.029399999999995,87.311499999999995,32.752600000000001,57.003799999999998,-42.376800000000003,0.040883700000000002,25.695
216874.0,101.127,82.8309,22.160399999999999,49.794899999999998,-42.025199999999998,-0.27775100000000003,26.834099999999999
216875.0,118.99299999999999,89.775199999999998,9.4131499999999999,46.335799999999999,-47.439799999999998,1.0874699999999999,29.154900000000001
216876.0,141.78,75.728099999999998,-24.0032,28.4392,-53.698399999999999,-0.36109599999999997,36.442700000000002
216877.0,138.09299999999999,65.284899999999993,-46.510100000000001,22.038699999999999,-42.215800000000002,-3.8944800000000002,37.165999999999997
216878.0,150.31,58.6417,-84.133300000000006,13.976699999999999,-28.490200000000002,-2.5386799999999998,37.130299999999998
216879.0,157.179,108.56999999999999,-34.7926,79.860500000000002,-23.6312,3.8458800000000002,43.682299999999998
216880.0,129.928,68.693299999999994,-34.534399999999998,68.696899999999999,-12.7186,10.5547,42.447600000000001
216881.0,68.117999999999995,115.898,72.085700000000003,133.613,-13.099299999999999,10.5246,16.161000000000001
216882.0,36.899099999999997,90.649199999999993,112.09699999999999,87.288300000000007,-8.6811199999999999,-4.7829199999999998,13.2088
216883.0,107.117,65.109200000000001,31.472999999999999,29.722100000000001,-50.626100000000001,-8.8439599999999992,28.0304
216884.0,154.97399999999999,88.614500000000007,-38.804699999999997,34.237900000000003,-47.193100000000001,-9.8396299999999997,39.9208
216885.0,148.41800000000001,63.839300000000001,-45.612400000000001,26.610700000000001,-52.609999999999999,-8.2288200000000007,37.551699999999997
216886.0,132.43100000000001,54.354399999999998,1.7035199999999999,8.6216200000000001,-61.6357,-11.9613,32.944699999999997
216887.0,47.835599999999999,43.451500000000003,61.999899999999997,41.133800000000001,-18.041,-8.6900099999999991,15.1972
216888.0,45.1813,-53.857399999999998,-40.327500000000001,-61.058500000000002,-18.2439,-10.205,11.5191
216889.0,59.7438,109.44499999999999,90.874200000000002,90.962999999999994,-26.168600000000001,-14.5847,13.335900000000001
216890.0,59.354599999999998,45.843699999999998,40.690300000000001,28.0016,-28.093499999999999,-13.954000000000001,10.298
216891.0,81.180199999999999,81.5124,70.644199999999998,48.979300000000002,-41.258400000000002,-10.545299999999999,10.438700000000001
216892.0,86.242000000000004,79.933099999999996,76.929599999999994,48.365299999999998,-44.161299999999997,-6.4020000000000001,13.581200000000001
216893.0,79.316299999999998,78.928899999999999,66.722300000000004,49.703099999999999,-39.6143,-8.0025099999999991,15.755000000000001
216894.0,82.596699999999998,80.0672,60.064799999999998,49.919499999999999,-39.487200000000001,-7.9929600000000001,20.386900000000001
216895.0,141.232,59.464500000000001,-7.7153400000000003,2.7265999999999999,-61.8264,-14.4322,36.209099999999999
216896.0,138.83500000000001,68.4863,-7.8555400000000004,5.4721799999999998,-54.886899999999997,-14.094200000000001,39.383499999999998
216897.0,136.19499999999999,73.995800000000003,-5.5386300000000004,13.345000000000001,-49.694800000000001,-11.589700000000001,43.038499999999999
216898.0,143.13499999999999,74.885300000000001,-18.889099999999999,17.239899999999999,-49.516300000000001,-11.6234,44.779899999999998
216899.0,150.22900000000001,66.784700000000001,-40.415700000000001,12.6907,-49.9803,-10.356299999999999,45.216900000000003
216900.0,126.304,66.328800000000001,-37.485599999999998,38.446100000000001,-37.830100000000002,-4.7679799999999997,31.2562
216901.0,139.114,56.597700000000003,-83.519000000000005,21.931000000000001,-22.2866,-4.5216099999999999,24.659199999999998
216902.0,128.38200000000001,120.962,3.7614800000000002,108.64400000000001,-17.5793,4.7845500000000003,31.843699999999998
216903.0,105.893,70.645099999999999,-9.0286000000000008,80.944500000000005,-12.8384,10.7639,32.128100000000003
216904.0,65.416799999999995,109.813,65.9328,127.56100000000001,-12.1257,8.4013299999999997,14.2281
216905.0,41.344000000000001,89.448300000000003,98.830100000000002,75.350399999999993,-18.2256,-6.0102799999999998,7.8614800000000002
216906.0,138.02799999999999,50.751199999999997,8.5968099999999996,3.4485899999999998,-60.693300000000001,-21.301100000000002,39.238500000000002
216907.0,134.28700000000001,85.976500000000001,-23.438199999999998,40.138199999999998,-39.448900000000002,-15.770300000000001,34.452500000000001
216908.0,125.584,56.008000000000003,-39.880400000000002,27.3902,-40.728499999999997,-15.147600000000001,30.752199999999998
216909.0,161.13800000000001,45.939700000000002,-14.8996,-5.5888999999999998,-69.874700000000004,-24.397200000000002,45.865200000000002
216910.0,48.042000000000002,89.532300000000006,96.968500000000006,74.836699999999993,-19.931999999999999,-8.1166699999999992,13.3916
216911.0,52.640999999999998,-6.1860099999999996,11.9178,-12.5123,-22.4495,-12.8005,9.7516700000000007
216912.0,52.978099999999998,93.111699999999999,89.598799999999997,75.499200000000002,-25.217700000000001,-11.509499999999999,8.9593900000000009
216913.0,60.303199999999997,75.582700000000003,78.131,54.847000000000001,-24.6648,-12.299200000000001,17.012799999999999
216914.0,76.725499999999997,81.246399999999994,81.494299999999996,60.392099999999999,-33.3292,-16.432200000000002,20.849499999999999
216915.0,89.784899999999993,62.755000000000003,61.287300000000002,41.751199999999997,-40.540300000000002,-18.080400000000001,24.066600000000001
216916.0,106.636,57.879100000000001,43.6999,26.902000000000001,-49.139400000000002,-19.5456,27.444900000000001
216917.0,119.88,50.885399999999997,23.7103,10.223100000000001,-54.024000000000001,-19.942299999999999,32.329300000000003
216918.0,165.13200000000001,47.267899999999997,-30.605799999999999,-7.8507899999999999,-68.890900000000002,-25.886500000000002,45.498899999999999
216919.0,160.56100000000001,50.593600000000002,-35.919899999999998,-6.3518299999999996,-64.287700000000001,-25.5899,43.2654
216920.0,154.571,55.480800000000002,-34.956299999999999,-2.7652600000000001,-59.522799999999997,-24.4208,41.5137
216921.0,150.078,67.099800000000002,-33.773200000000003,6.6896500000000003,-52.369,-22.335599999999999,41.103000000000002
216922.0,142.29900000000001,65.961500000000001,-35.505899999999997,13.0854,-46.652200000000001,-17.909099999999999,40.952399999999997
216923.0,107.714,88.905900000000003,0.362342,72.615099999999998,-31.2957,-14.4305,21.420300000000001
216924.0,115.345,57.0685,-54.469700000000003,39.8461,-22.032699999999998,-9.2421900000000008,16.0778
216925.0,109.488,123.66,24.411000000000001,120.41800000000001,-17.246600000000001,4.5478899999999998,22.318000000000001
216926.0,97.877700000000004,72.336100000000002,-5.4705199999999996,85.442700000000002,-6.91622,11.1365,24.624199999999998
216927.0,68.755799999999994,108.38500000000001,73.1143,138.274,-11.5661,11.656599999999999,15.565799999999999
216928.0,70.380300000000005,52.490099999999998,52.871200000000002,28.642600000000002,-28.994599999999998,-17.974499999999999,17.167200000000001
216929.0,145.905,45.621699999999997,-0.86477800000000005,12.3858,-64.509,-25.009699999999999,41.661799999999999
216930.0,119.54900000000001,82.565299999999993,-11.0906,52.645699999999998,-39.4938,-19.543299999999999,23.111999999999998
216931.0,112.227,76.756399999999999,-16.603400000000001,50.892299999999999,-34.3414,-13.983700000000001,22.360499999999998
216932.0,159.84399999999999,40.921199999999999,-19.146000000000001,6.7381900000000003,-70.469399999999993,-27.3385,43.538499999999999
216933.0,71.887299999999996,86.884299999999996,93.155600000000007,65.6584,-29.3443,-14.535600000000001,21.037299999999998
216934.0,85.849599999999995,53.436999999999998,91.194999999999993,52.715800000000002,-32.606699999999996,-24.238600000000002,17.9316
216935.0,66.516300000000001,20.9251,41.773899999999998,5.9435099999999998,-25.200600000000001,-17.811599999999999,14.094799999999999
216936.0,64.206599999999995,85.808999999999997,92.126199999999997,65.758499999999998,-25.575500000000002,-12.5685,19.3017
216937.0,69.983900000000006,77.371799999999993,78.190600000000003,56.854500000000002,-29.216699999999999,-14.2376,20.7392
216938.0,91.1327,63.2256,59.471400000000003,42.507599999999996,-40.523000000000003,-16.856000000000002,26.8384
216939.0,115.599,55.792000000000002,39.895600000000002,32.670699999999997,-52.709099999999999,-20.502400000000002,33.4039
216940.0,134.31399999999999,51.794800000000002,20.337199999999999,23.185300000000002,-60.898200000000003,-23.361499999999999,38.162999999999997
216941.0,156.84100000000001,45.2072,-27.390599999999999,9.8212399999999995,-67.195400000000006,-28.436800000000002,39.470100000000002
216942.0,150.17099999999999,53.729900000000001,-25.031400000000001,21.3811,-62.305599999999998,-28.111999999999998,35.742600000000003
216943.0,149.97800000000001,54.3003,-29.688600000000001,24.8872,-61.8185,-27.7698,32.997
216944.0,143.846,61.4619,-31.713100000000001,29.514500000000002,-55.613500000000002,-26.7666,29.088000000000001
216945.0,128.714,68.981800000000007,-20.535,38.692700000000002,-47.689100000000003,-22.916499999999999,25.493400000000001
216946.0,95.165899999999993,97.084400000000002,10.960800000000001,76.0655,-26.774699999999999,-6.3754299999999997,15.653700000000001
216947.0,92.398200000000003,71.408900000000003,-15.3089,54.436500000000002,-23.059100000000001,-1.9958400000000001,14.0722
216948.0,92.795000000000002,104.32299999999999,15.8423,94.267099999999999,-16.2483,2.3145199999999999,15.944100000000001
216949.0,89.385000000000005,85.674400000000006,1.85022,87.8566,-6.3485699999999996,8.9665800000000004,11.738899999999999
216950.0,72.384900000000002,105.25700000000001,68.480599999999995,135.16999999999999,-15.574999999999999,16.440300000000001,10.8573
216951.0,97.569100000000006,47.893999999999998,63.343299999999999,33.251199999999997,-34.114899999999999,-27.3901,32.136600000000001
216952.0,151.99799999999999,32.771900000000002,-15.394,9.4055300000000006,-64.8977,-29.727599999999999,45.005800000000001
216953.0,130.84800000000001,67.681799999999996,-25.974399999999999,49.615000000000002,-47.538600000000002,-26.408200000000001,16.767600000000002
216954.0,120.366,53.299900000000001,-42.856400000000001,37.808300000000003,-39.533700000000003,-21.055099999999999,12.5563
216955.0,154.56999999999999,38.261499999999998,-16.713999999999999,17.136600000000001,-66.352199999999996,-31.042200000000001,42.7624
216956.0,89.1173,68.534400000000005,78.666399999999996,51.664900000000003,-35.429200000000002,-21.6493,27.153700000000001
216957.0,119.575,16.676500000000001,72.743099999999998,22.469999999999999,-41.846200000000003,-35.639299999999999,28.179500000000001
216958.0,108.43000000000001,26.587,61.442,20.651900000000001,-36.375700000000002,-34.547400000000003,30.276499999999999
216959.0,78.985100000000003,66.436700000000002,73.201599999999999,49.667400000000001,-30.906099999999999,-18.685300000000002,25.068300000000001
216960.0,78.191900000000004,78.6477,79.153000000000006,59.875,-30.294,-17.236599999999999,26.503699999999998
216961.0,94.242800000000003,64.201300000000003,58.528399999999998,45.537100000000002,-38.7789,-17.966999999999999,32.286200000000001
216962.0,125.121,43.189999999999998,24.668199999999999,23.567799999999998,-53.962800000000001,-22.579799999999999,40.927100000000003
216963.0,147.38900000000001,32.444699999999997,-2.6091000000000002,10.323399999999999,-63.878599999999999,-27.4604,45.742800000000003
216964.0,148.822,42.012999999999998,-21.088899999999999,22.1038,-63.634300000000003,-31.312799999999999,36.224600000000002
216965.0,142.726,43.955300000000001,-27.830300000000001,25.058299999999999,-59.781999999999996,-29.844799999999999,30.677399999999999
216966.0,145.22999999999999,45.940600000000003,-30.355699999999999,28.953800000000001,-61.011699999999998,-29.3917,28.977699999999999
216967.0,140.49199999999999,52.353099999999998,-32.377400000000002,34.149700000000003,-55.576799999999999,-30.117999999999999,24.3733
216968.0,132.0,50.4895,-33.825200000000002,33.534399999999998,-50.991300000000003,-28.385899999999999,20.325299999999999
216969.0,90.335300000000004,98.572500000000005,21.111799999999999,88.142799999999994,-26.241,-13.606999999999999,8.9105799999999995
216970.0,72.890199999999993,66.761399999999995,3.1064799999999999,59.348999999999997,-19.5184,-9.4752299999999998,9.4107599999999998
216971.0,77.838899999999995,115.92,43.637900000000002,112.063,-16.042100000000001,-5.3730799999999999,8.9339300000000001
216972.0,78.8215,62.173699999999997,-13.522,65.655100000000004,-7.5021899999999997,3.14066,1.7227399999999999
216973.0,61.913400000000003,116.752,85.369399999999999,146.21799999999999,-12.4597,13.5441,3.6219899999999998
216974.0,114.342,32.9801,69.059700000000007,25.612500000000001,-39.841999999999999,-29.121500000000001,37.175400000000003
216975.0,148.88,33.3157,-11.084099999999999,19.5457,-60.115299999999998,-32.9758,46.590000000000003
216976.0,136.15799999999999,54.688000000000002,-29.931699999999999,45.459400000000002,-51.765900000000002,-34.6663,11.9717
216977.0,126.36199999999999,49.852899999999998,-34.609699999999997,37.014499999999998,-46.230400000000003,-32.746200000000002,6.4366399999999997
216978.0,144.023,34.990699999999997,-12.910500000000001,24.945900000000002,-58.743400000000001,-33.357900000000001,41.383000000000003
216979.0,107.455,45.087200000000003,60.309600000000003,32.0349,-38.765900000000002,-30.146899999999999,35.170299999999997
216980.0,125.59,-48.770699999999998,4.0823200000000002,-50.164299999999997,-46.1128,-31.4604,34.426099999999998
216981.0,137.22399999999999,46.0045,71.732500000000002,36.752400000000002,-55.3459,-37.732700000000001,38.228299999999997
216982.0,105.979,49.863900000000001,60.057400000000001,34.080800000000004,-38.820099999999996,-27.7758,35.973399999999998
216983.0,105.291,50.915199999999999,52.234499999999997,30.5181,-38.0578,-26.691199999999998,37.234000000000002
216984.0,113.812,51.012099999999997,42.7849,28.843699999999998,-41.696399999999997,-25.599499999999999,42.405099999999997
216985.0,134.434,40.499299999999998,18.571200000000001,21.030100000000001,-51.969499999999996,-27.393599999999999,49.280500000000004
216986.0,151.303,32.4711,-3.29155,16.6463,-60.877400000000002,-31.3309,51.205800000000004
216987.0,144.10300000000001,35.036000000000001,-18.959700000000002,25.431100000000001,-59.606999999999999,-34.991,36.260599999999997
216988.0,143.63999999999999,39.838799999999999,-23.905999999999999,26.474900000000002,-58.756999999999998,-35.978999999999999,31.632300000000001
216989.0,143.26599999999999,42.430500000000002,-27.729600000000001,28.4772,-58.319800000000001,-35.421300000000002,28.397400000000001
216990.0,137.24100000000001,50.734699999999997,-25.997399999999999,37.002000000000002,-53.934199999999997,-34.645099999999999,22.2484
216991.0,132.12299999999999,48.665700000000001,-29.488099999999999,38.560600000000001,-51.097099999999998,-33.2361,17.218800000000002
216992.0,104.84099999999999,75.800299999999993,-3.1349800000000001,61.838700000000003,-34.376600000000003,-26.3626,3.54956
216993.0,90.342399999999998,57.2087,-15.778600000000001,49.246899999999997,-27.4819,-18.597100000000001,4.0413199999999998
216994.0,84.823999999999998,91.002499999999998,16.5837,87.780600000000007,-22.010000000000002,-11.893700000000001,1.69634
216995.0,67.034099999999995,69.402699999999996,5.7372699999999996,71.298100000000005,-8.4624500000000005,-0.21235100000000001,-5.8038499999999997
216996.0,47.0672,128.51400000000001,105.446,150.012,-4.5622600000000002,14.4834,-3.3321700000000001
216997.0,127.759,12.0799,54.530900000000003,9.4784799999999994,-42.8718,-30.649000000000001,44.985399999999998
216998.0,144.09100000000001,26.582799999999999,-10.868499999999999,17.9207,-54.753999999999998,-37.095100000000002,46.5002
216999.0,128.99700000000001,50.071800000000003,-23.996400000000001,46.368499999999997,-47.572699999999998,-37.236199999999997,12.457800000000001
217000.0,122.009,43.661099999999998,-29.963000000000001,40.662100000000002,-43.764200000000002,-34.822000000000003,9.8959299999999999
217001.0,137.84700000000001,31.393000000000001,-10.542199999999999,23.855699999999999,-53.177700000000002,-37.011600000000001,40.453299999999999
217002.0,126.937,29.7377,49.6004,20.401499999999999,-42.471600000000002,-37.108400000000003,44.358800000000002
217003.0,131.732,-79.256100000000004,-30.187200000000001,-76.2102,-43.331600000000002,-29.669,47.651800000000001
217004.0,149.50200000000001,44.633400000000002,62.4099,42.916800000000002,-56.977400000000003,-38.898299999999999,50.737400000000001
217005.0,129.43199999999999,24.064,39.962699999999998,13.9297,-43.0319,-36.3127,47.3461
217006.0,130.38499999999999,30.487400000000001,35.2667,17.6419,-43.721299999999999,-36.616799999999998,48.283900000000003
217007.0,136.04599999999999,26.1709,20.103899999999999,12.961499999999999,-46.529200000000003,-36.488199999999999,51.277900000000002
217008.0,142.52099999999999,24.564399999999999,5.90876,12.3377,-49.847000000000001,-36.148299999999999,53.753799999999998
217009.0,149.25200000000001,21.514500000000002,-8.2302999999999997,11.865500000000001,-55.094099999999997,-36.732999999999997,53.013599999999997
217010.0,138.61600000000001,30.4284,-15.7376,26.037500000000001,-54.1952,-38.375799999999998,36.683900000000001
217011.0,140.84999999999999,29.3231,-23.129300000000001,27.7058,-54.605800000000002,-40.850499999999997,32.752000000000002
217012.0,139.67500000000001,31.110099999999999,-27.452500000000001,30.171800000000001,-53.263399999999997,-41.683300000000003,28.3446
217013.0,136.16,36.873699999999999,-28.840800000000002,34.792499999999997,-50.972999999999999,-40.905299999999997,22.649799999999999
217014.0,129.21100000000001,39.036799999999999,-29.958200000000001,35.854599999999998,-48.212499999999999,-38.148200000000003,16.386299999999999
217015.0,115.895,67.589100000000002,-12.613799999999999,62.200899999999997,-38.048499999999997,-31.694099999999999,3.90551
217016.0,112.361,46.144199999999998,-36.174900000000001,40.335299999999997,-37.080800000000004,-26.861499999999999,-1.0578399999999999
217017.0,102.568,90.647900000000007,10.8451,86.069400000000002,-32.1357,-20.439299999999999,-6.9447400000000004
217018.0,72.736099999999993,60.770600000000002,-0.54249199999999997,58.2515,-17.562799999999999,-5.1020099999999999,-15.01
217019.0,43.778100000000002,133.79499999999999,106.801,138.53700000000001,-4.8705800000000004,15.000999999999999,-9.8501300000000001
217020.0,145.35900000000001,6.4713399999999996,53.9236,14.075799999999999,-44.079999999999998,-35.6083,56.413699999999999
217021.0,142.994,19.2837,-6.6156100000000002,21.813800000000001,-49.667900000000003,-43.7669,46.751800000000003
217022.0,125.60899999999999,40.781500000000001,-21.5108,46.951099999999997,-44.851700000000001,-41.046700000000001,11.3332
217023.0,121.515,36.912700000000001,-27.784199999999998,43.169400000000003,-43.4788,-37.830100000000002,7.5637400000000001
217024.0,137.10300000000001,22.7315,-8.9814699999999998,25.795100000000001,-48.253500000000003,-43.281599999999997,41.1496
217025.0,140.97399999999999,12.678699999999999,35.632300000000001,13.9008,-43.599400000000003,-41.1905,53.481000000000002
217026.0,147.26599999999999,-89.056100000000001,-31.172699999999999,-77.986199999999997,-41.701900000000002,-37.545400000000001,56.002699999999997
217027.0,164.274,23.877700000000001,49.4377,33.9876,-54.452599999999997,-46.057499999999997,61.182200000000002
217028.0,140.179,12.3363,31.062999999999999,14.0023,-42.8962,-41.105699999999999,53.970700000000001
217029.0,141.86799999999999,10.637700000000001,21.335899999999999,13.666600000000001,-43.827100000000002,-41.666499999999999,54.968600000000002
217030.0,148.67099999999999,8.4648500000000002,8.0076099999999997,10.532999999999999,-48.107500000000002,-42.4925,56.973100000000002
217031.0,148.71799999999999,11.7705,0.22731999999999999,11.6143,-49.315800000000003,-43.297800000000002,54.970999999999997
217032.0,147.822,15.9353,-3.2336,17.2012,-50.383299999999998,-43.717599999999997,51.990299999999998
217033.0,133.59700000000001,26.391400000000001,-10.0092,30.823699999999999,-47.760399999999997,-42.836100000000002,36.488599999999998
217034.0,135.31899999999999,26.8322,-15.870799999999999,33.077199999999998,-49.273000000000003,-43.549799999999998,32.7044
217035.0,133.65000000000001,26.838999999999999,-21.431899999999999,33.983499999999999,-48.8399,-43.822499999999998,27.197500000000002
217036.0,132.04599999999999,31.055499999999999,-22.795400000000001,38.724499999999999,-48.159700000000001,-43.823500000000003,21.172899999999998
217037.0,127.685,31.938400000000001,-24.621200000000002,39.345399999999998,-46.512599999999999,-42.3812,15.8325
217038.0,119.297,56.0379,-14.7874,61.913899999999998,-40.512799999999999,-35.739199999999997,1.74501
217039.0,117.56100000000001,37.457500000000003,-36.859200000000001,44.649099999999997,-38.987299999999998,-32.2928,-2.7704900000000001
217040.0,117.23399999999999,65.620500000000007,-13.9651,72.2791,-37.229599999999998,-28.339200000000002,-9.4545300000000001
217041.0,91.823499999999996,46.847000000000001,-17.604600000000001,48.520400000000002,-28.7773,-15.6982,-17.731200000000001
217042.0,44.355600000000003,118.675,84.192499999999995,119.196,-8.9566300000000005,4.93588,-12.198399999999999
217043.0,167.50700000000001,-28.506799999999998,27.548400000000001,-3.60134,-45.938699999999997,-42.945399999999999,67.892700000000005
217044.0,140.66200000000001,7.8647900000000002,-5.9783299999999997,25.920999999999999,-44.610999999999997,-47.487200000000001,45.762599999999999
217045.0,122.16800000000001,31.009499999999999,-18.259499999999999,51.051400000000001,-42.785600000000002,-42.207599999999999,9.5263299999999997
217046.0,120.108,28.823699999999999,-24.770299999999999,47.301900000000003,-42.113100000000003,-39.953000000000003,6.1276299999999999
217047.0,135.84800000000001,11.525600000000001,-7.4970400000000001,30.888000000000002,-43.290999999999997,-47.308599999999998,40.878
217048.0,154.97800000000001,-8.2895400000000006,23.658799999999999,12.2424,-42.5959,-45.789200000000001,61.910200000000003
217049.0,166.31800000000001,-98.942300000000003,-25.067399999999999,-75.217699999999994,-37.995699999999999,-48.141100000000002,63.5351
217050.0,184.03800000000001,-14.855600000000001,24.8611,11.4658,-53.425800000000002,-54.546900000000001,71.077699999999993
217051.0,147.23599999999999,-5.6929699999999999,17.145800000000001,10.5777,-41.352200000000003,-43.729799999999997,58.869199999999999
217052.0,150.19,-0.52240200000000003,13.1638,12.151400000000001,-44.679099999999998,-44.202800000000003,59.251800000000003
217053.0,154.83099999999999,-2.9248599999999998,1.73319,9.39879,-47.830399999999997,-46.232900000000001,59.387999999999998
217054.0,150.49199999999999,1.9381299999999999,-1.89707,15.1257,-46.804900000000004,-47.485700000000001,54.990299999999998
217055.0,145.45699999999999,3.54698,-5.7417600000000002,18.9649,-45.777500000000003,-47.545999999999999,50.405099999999997
217056.0,131.536,14.554500000000001,-9.8901199999999996,33.486899999999999,-42.664999999999999,-46.6402,36.0381
217057.0,129.63499999999999,16.886900000000001,-12.8771,36.012500000000003,-43.485500000000002,-46.119599999999998,31.253799999999998
217058.0,126.774,20.851900000000001,-13.648199999999999,40.673000000000002,-43.525700000000001,-45.434199999999997,25.353300000000001
217059.0,124.913,23.363900000000001,-16.010400000000001,43.671599999999998,-43.576599999999999,-44.771000000000001,19.4145
217060.0,122.854,23.990100000000002,-18.7272,44.758000000000003,-43.595999999999997,-43.279899999999998,14.4757
217061.0,121.854,41.941299999999998,-20.535900000000002,56.856999999999999,-42.138399999999997,-38.561399999999999,0.94948900000000003
217062.0,119.834,33.020400000000002,-32.753,44.612299999999998,-42.089700000000001,-35.3337,-5.0716999999999999
217063.0,126.22,57.827199999999998,-16.437999999999999,67.920199999999994,-42.353499999999997,-35.231900000000003,-12.373900000000001
217064.0,109.884,31.6008,-30.0517,38.6477,-38.432600000000001,-26.6448,-20.234000000000002
217065.0,56.027700000000003,104.212,65.332899999999995,105.786,-16.096900000000002,-4.84274,-15.450799999999999
217066.0,181.46199999999999,-40.420499999999997,21.991700000000002,-1.62639,-47.455599999999997,-46.823900000000002,74.421700000000001
217067.0,135.476,2.7253699999999998,-0.42061399999999999,34.916499999999999,-39.018300000000004,-47.626199999999997,44.099200000000003
217068.0,118.038,26.762799999999999,-11.760300000000001,54.120100000000001,-42.860599999999998,-40.692700000000002,7.47844
217069.0,115.65300000000001,27.280100000000001,-16.633500000000002,52.416200000000003,-42.014299999999999,-38.267400000000002,2.7556600000000002
217070.0,130.88800000000001,5.5429700000000004,-2.85433,37.304699999999997,-39.008499999999998,-47.505699999999997,38.515500000000003
217071.0,168.792,-26.6479,14.469900000000001,6.1428599999999998,-45.253599999999999,-49.152000000000001,67.532300000000006
217072.0,178.00299999999999,-110.729,-25.810700000000001,-73.569599999999994,-34.532899999999998,-53.233499999999999,68.726100000000002
217073.0,195.63499999999999,-36.506900000000002,12.851699999999999,5.4454900000000004,-51.3872,-58.927300000000002,77.0458
217074.0,163.298,-18.645199999999999,11.1158,8.4617100000000001,-44.078200000000002,-48.549900000000001,65.707499999999996
217075.0,160.232,-14.7172,3.2047400000000001,11.6867,-43.604999999999997,-48.624899999999997,64.113900000000001
217076.0,154.71000000000001,-10.190200000000001,0.75151800000000002,19.485199999999999,-42.4831,-48.2438,60.173999999999999
217077.0,148.34700000000001,-7.5962100000000001,-2.4911799999999999,24.6829,-40.921199999999999,-48.294899999999998,55.023899999999998
217078.0,140.88,-0.45915699999999998,0.46113900000000002,32.228499999999997,-39.169400000000003,-47.9283,49.375599999999999
217079.0,126.253,9.2250899999999998,-3.5259100000000001,41.761000000000003,-38.668700000000001,-46.797400000000003,32.9041
217080.0,122.051,14.484500000000001,-1.7644200000000001,47.290199999999999,-38.881300000000003,-45.4604,27.615400000000001
217081.0,119.68000000000001,15.2987,-5.6144800000000004,46.9709,-39.7699,-44.395499999999998,22.8233
217082.0,117.63500000000001,19.133299999999998,-7.5160499999999999,49.361899999999999,-39.973199999999999,-43.811599999999999,16.8962
217083.0,116.342,21.6265,-8.7933400000000006,51.051299999999998,-41.296799999999998,-42.116599999999998,11.7105
217084.0,118.79900000000001,36.556600000000003,-13.149900000000001,61.6374,-42.368299999999998,-38.156399999999998,-2.1423000000000001
217085.0,119.13,26.412099999999999,-24.797799999999999,50.033299999999997,-43.523800000000001,-36.626399999999997,-5.6125499999999997
217086.0,129.72399999999999,45.1312,-19.962900000000001,66.1404,-44.177700000000002,-38.581800000000001,-12.4034
217087.0,121.937,21.561499999999999,-37.721800000000002,36.043799999999997,-43.565199999999997,-32.913699999999999,-21.1509
217088.0,69.349199999999996,93.975399999999993,50.875500000000002,97.000900000000001,-23.061199999999999,-11.031700000000001,-16.848400000000002
217089.0,189.78100000000001,-59.811999999999998,8.9990100000000002,-4.6404199999999998,-45.879100000000001,-46.0974,80.301199999999994
217090.0,125.687,3.8091400000000002,8.6307799999999997,44.304400000000001,-34.4133,-44.593200000000003,40.0456
217091.0,109.66,27.105599999999999,-0.75947399999999998,63.461399999999998,-39.455599999999997,-36.975200000000001,6.88666
217092.0,106.622,25.817499999999999,-6.2385700000000002,58.750500000000002,-38.339500000000001,-35.469000000000001,2.3481700000000001
217093.0,122.20999999999999,6.9606500000000002,7.08202,47.2926,-35.146500000000003,-44.480800000000002,34.985500000000002
217094.0,180.0,-41.977499999999999,5.8744699999999996,8.1877499999999994,-44.277200000000001,-49.601399999999998,74.681100000000001
217095.0,179.47399999999999,-119.17100000000001,-27.014099999999999,-63.32,-29.2865,-52.224400000000003,70.688599999999994
217096.0,199.12899999999999,-51.879399999999997,5.24186,11.461499999999999,-47.494599999999998,-58.075299999999999,79.812799999999996
217097.0,172.05600000000001,-41.065100000000001,-4.0395700000000003,8.3189399999999996,-41.926600000000001,-49.741900000000001,70.535399999999996
217098.0,162.93299999999999,-28.935600000000001,-3.0920299999999998,20.280100000000001,-39.536700000000003,-49.199199999999998,65.263400000000004
217099.0,151.07900000000001,-18.927399999999999,-0.30350300000000002,27.750800000000002,-36.775100000000002,-47.392499999999998,58.802700000000002
217100.0,143.03700000000001,-10.6488,1.36642,33.755600000000001,-36.359999999999999,-46.575600000000001,52.924799999999998
217101.0,132.28200000000001,-3.1515900000000001,4.6270899999999999,38.227400000000003,-34.659100000000002,-45.465200000000003,45.616599999999998
217102.0,118.23399999999999,9.2655999999999992,4.4257099999999996,49.259099999999997,-35.418900000000001,-43.990099999999998,29.404299999999999
217103.0,115.535,10.6983,2.2204299999999999,51.325099999999999,-36.089399999999998,-42.843400000000003,24.949999999999999
217104.0,112.756,16.6919,4.7417100000000003,57.360799999999998,-36.362400000000001,-41.376300000000001,21.0426
217105.0,110.25700000000001,19.2258,1.66306,58.142000000000003,-36.952399999999997,-40.300400000000003,15.069699999999999
217106.0,108.485,20.822900000000001,-0.95155000000000001,58.088900000000002,-38.3917,-38.177900000000001,10.0039
217107.0,109.95699999999999,36.297499999999999,-2.4841500000000001,67.388999999999996,-39.4756,-35.1937,-2.7850000000000001
217108.0,116.084,21.066800000000001,-21.6386,53.4709,-43.101599999999998,-34.489800000000002,-5.03139
217109.0,131.685,39.152500000000003,-19.372900000000001,72.507499999999993,-45.509300000000003,-37.636699999999998,-11.376200000000001
217110.0,128.53899999999999,10.4459,-47.6967,37.014099999999999,-44.741399999999999,-35.2376,-19.670000000000002
217111.0,81.920400000000001,79.636499999999998,35.163200000000003,89.185400000000001,-27.927099999999999,-17.489599999999999,-17.886700000000001
217112.0,192.30699999999999,-63.077599999999997,9.1998700000000007,7.9647500000000004,-41.5105,-41.479199999999999,84.685100000000006
217113.0,118.977,4.5728099999999996,15.9786,55.945300000000003,-28.9558,-41.627299999999998,37.675600000000003
217114.0,106.584,18.9253,5.9541199999999996,66.355199999999996,-36.576000000000001,-37.490600000000001,5.6865500000000004
217115.0,104.261,19.362500000000001,2.1244999999999998,63.739199999999997,-36.180900000000001,-36.0899,1.20364
217116.0,113.798,7.4499700000000004,15.773,58.9816,-28.845300000000002,-40.7605,32.525300000000001
217117.0,178.16999999999999,-51.608899999999998,-1.58874,17.228000000000002,-38.8185,-44.946899999999999,76.083500000000001
217118.0,174.48400000000001,-132.20099999999999,-38.961799999999997,-65.4666,-24.704000000000001,-47.487400000000001,70.531400000000005
217119.0,198.994,-57.168500000000002,1.7936300000000001,20.966100000000001,-43.636800000000001,-53.816299999999998,82.103399999999993
217120.0,165.81899999999999,-40.061500000000002,0.0121108,25.442299999999999,-36.184899999999999,-44.930999999999997,68.895600000000002
217121.0,158.71899999999999,-30.9194,0.237201,31.257100000000001,-36.180399999999999,-45.595199999999998,63.583399999999997
217122.0,147.14099999999999,-21.047499999999999,3.5135700000000001,35.973700000000001,-34.201700000000002,-45.087499999999999,56.534300000000002
217123.0,137.84399999999999,-13.0174,5.4805200000000003,41.502299999999998,-32.891100000000002,-44.4619,50.0623
217124.0,126.751,-0.79176800000000003,14.064399999999999,51.600900000000003,-30.4314,-43.008299999999998,43.015500000000003
217125.0,111.22199999999999,9.14907,13.922800000000001,60.355800000000002,-30.5855,-40.148499999999999,27.8551
217126.0,111.06399999999999,10.553100000000001,10.0573,60.734999999999999,-32.764000000000003,-39.970399999999998,24.348099999999999
217127.0,108.70099999999999,8.9120299999999997,4.6962599999999997,59.959899999999998,-32.520099999999999,-39.452800000000003,19.448899999999998
217128.0,106.898,10.456799999999999,5.8947599999999998,63.936500000000002,-33.417099999999998,-38.496000000000002,12.9909
217129.0,107.617,13.5283,7.33805,65.706599999999995,-36.536099999999998,-37.502299999999998,9.5497899999999998
217130.0,107.02800000000001,25.8142,1.3876999999999999,68.537099999999995,-37.464599999999997,-35.444400000000002,-1.8109900000000001
217131.0,113.854,15.3628,-16.581600000000002,56.610199999999999,-40.769799999999996,-35.817100000000003,-5.4233099999999999
217132.0,130.756,22.553000000000001,-20.732199999999999,64.065899999999999,-47.770800000000001,-38.324300000000001,-12.260400000000001
217133.0,133.53899999999999,10.131500000000001,-37.069299999999998,45.511499999999998,-49.534100000000002,-36.940199999999997,-20.2347
217134.0,103.47,53.206499999999998,11.374000000000001,73.519099999999995,-37.364199999999997,-25.602,-22.6508
217135.0,188.15000000000001,-70.782700000000006,3.3498299999999999,9.5990099999999998,-35.209600000000002,-38.188400000000001,84.278000000000006
217136.0,116.95399999999999,-5.76769,14.5722,59.423499999999997,-24.306799999999999,-39.268099999999997,36.2502
217137.0,114.05200000000001,-1.7436,4.33812,61.806199999999997,-37.095100000000002,-41.328000000000003,4.7165100000000004
217138.0,111.67,1.72482,0.44264999999999999,60.036299999999997,-37.640799999999999,-39.761600000000001,0.17669499999999999
217139.0,110.27200000000001,-1.96784,16.983699999999999,61.916400000000003,-22.5824,-39.485300000000002,30.1281
217140.0,176.172,-53.672199999999997,0.30907400000000002,26.2989,-34.703600000000002,-42.913499999999999,75.069599999999994
217141.0,168.268,-128.328,-40.557499999999997,-58.390700000000002,-18.802499999999998,-42.2502,71.744200000000006
217142.0,194.745,-55.066200000000002,2.4159999999999999,32.207900000000002,-36.309800000000003,-49.172400000000003,83.291300000000007
217143.0,162.95699999999999,-48.630600000000001,-3.62399,26.573899999999998,-32.392499999999998,-42.832099999999997,67.347200000000001
217144.0,153.834,-35.881100000000004,1.6354500000000001,37.475900000000003,-31.77,-42.299199999999999,61.189599999999999
217145.0,143.006,-25.308700000000002,6.7960500000000001,46.095799999999997,-30.191299999999998,-41.232900000000001,54.0946
217146.0,132.25,-15.6386,11.0046,53.567300000000003,-28.032699999999998,-40.4572,46.785699999999999
217147.0,122.655,-10.695499999999999,13.0471,56.067399999999999,-25.8188,-39.395400000000002,40.630800000000001
217148.0,108.79600000000001,-0.78346199999999999,19.731400000000001,64.277900000000002,-24.302499999999998,-39.563800000000001,26.138300000000001
217149.0,112.033,-1.9209000000000001,16.0152,64.028400000000005,-28.126000000000001,-40.7774,23.815799999999999
217150.0,112.48099999999999,-0.57059899999999997,11.684799999999999,63.202800000000003,-30.251100000000001,-42.451700000000002,18.836400000000001
217151.0,111.492,-2.56155,9.4923099999999998,59.504399999999997,-32.623100000000001,-43.180199999999999,11.4697
217152.0,114.628,-4.5669399999999998,8.4784699999999997,59.615000000000002,-36.783299999999997,-42.5105,8.3040400000000005
217153.0,112.343,9.4092800000000008,-0.59981799999999996,63.509700000000002,-39.284300000000002,-38.363799999999998,-1.5689299999999999
217154.0,116.334,7.58019,-10.586399999999999,58.717399999999998,-41.583599999999997,-37.905000000000001,-7.3373499999999998
217155.0,126.491,13.680400000000001,-11.4854,64.305499999999995,-46.955599999999997,-38.292000000000002,-13.119999999999999
217156.0,128.672,8.7448099999999993,-20.240100000000002,53.764600000000002,-49.630800000000001,-36.693600000000004,-17.848299999999998
217157.0,114.79000000000001,31.278300000000002,-2.39405,62.563200000000002,-42.946399999999997,-30.980899999999998,-23.079799999999999
217158.0,179.19200000000001,-64.867999999999995,10.312799999999999,23.8294,-26.459700000000002,-34.648099999999999,80.739999999999995
217159.0,115.29300000000001,-11.597200000000001,21.4299,63.267800000000001,-21.727900000000002,-38.809600000000003,32.325000000000003
217160.0,119.44,-10.948700000000001,11.2315,66.259,-38.547400000000003,-40.975099999999998,3.2093799999999999
217161.0,118.63500000000001,-10.3002,2.3218399999999999,62.064599999999999,-40.514200000000002,-39.442500000000003,0.29208699999999999
217162.0,108.108,-9.7687299999999997,22.050799999999999,63.834499999999998,-19.875900000000001,-38.331800000000001,25.8599
217163.0,170.958,-61.8583,-2.6361599999999998,30.519400000000001,-27.408100000000001,-38.901899999999998,72.716200000000001
217164.0,158.673,-118.31399999999999,-38.556699999999999,-45.038899999999998,-12.2356,-36.497500000000002,70.345600000000005
217165.0,182.37799999999999,-53.615200000000002,4.1995899999999997,40.200299999999999,-25.502400000000002,-43.111800000000002,79.612899999999996
217166.0,159.46799999999999,-50.290799999999997,3.0434600000000001,40.402999999999999,-26.310099999999998,-38.632199999999997,64.918499999999995
217167.0,148.048,-38.900599999999997,8.2684099999999994,49.590000000000003,-25.388200000000001,-38.138199999999998,56.977800000000002
217168.0,137.202,-31.094000000000001,11.949,54.473100000000002,-24.510200000000001,-37.464199999999998,49.396799999999999
217169.0,128.48599999999999,-24.896699999999999,13.5379,57.009300000000003,-23.514299999999999,-37.832599999999999,42.887900000000002
217170.0,120.709,-14.5212,21.018699999999999,62.6111,-22.3264,-38.517299999999999,37.208599999999997
217171.0,103.36,-9.4409500000000008,26.218299999999999,65.338700000000003,-18.6676,-37.320300000000003,20.513300000000001
217172.0,106.911,-14.4283,24.4026,65.365099999999998,-21.779199999999999,-37.611800000000002,18.134
217173.0,111.48399999999999,-18.0839,17.609500000000001,63.743200000000002,-26.3035,-38.828400000000002,16.135999999999999
217174.0,112.199,-15.9483,15.1821,62.846299999999999,-29.5505,-40.547600000000003,10.1937
217175.0,115.654,-15.282500000000001,13.093299999999999,62.328299999999999,-33.9758,-41.628300000000003,5.4056600000000001
217176.0,115.44499999999999,1.03027,4.4361699999999997,67.590000000000003,-40.259099999999997,-37.447800000000001,-3.7831100000000002
217177.0,118.988,-3.2284000000000002,-6.7338100000000001,60.288600000000002,-43.880699999999997,-36.058199999999999,-8.4000699999999995
217178.0,126.185,5.96943,-4.26593,66.273399999999995,-48.346600000000002,-36.090000000000003,-14.6579
217179.0,126.48,1.2022600000000001,-11.4511,55.616399999999999,-50.531500000000001,-34.234299999999998,-18.360700000000001
217180.0,112.818,29.539200000000001,11.427,71.501999999999995,-44.362400000000001,-29.882300000000001,-20.7851
217181.0,158.756,-57.768999999999998,10.7781,33.539700000000003,-17.7072,-25.1662,72.078000000000003
217182.0,113.562,-27.420400000000001,28.341699999999999,81.405500000000004,-8.3293099999999995,-24.283300000000001,26.045200000000001
217183.0,120.604,-20.626799999999999,17.2148,71.465500000000006,-42.481999999999999,-29.937799999999999,-2.1762600000000001
217184.0,122.64,-18.619700000000002,7.6002700000000001,65.943200000000004,-45.6755,-32.296500000000002,-3.2424400000000002
217185.0,105.863,-19.7852,36.805,84.112499999999997,-10.3246,-23.717700000000001,18.991199999999999
217186.0,147.34200000000001,-43.344200000000001,12.189,48.951099999999997,-20.273099999999999,-29.5916,61.570500000000003
217187.0,145.54400000000001,-93.031599999999997,-21.649999999999999,-8.9047300000000007,1.5402100000000001,-22.739100000000001,66.975399999999993
217188.0,159.58500000000001,-36.463700000000003,18.156700000000001,61.684100000000001,-12.0844,-29.564499999999999,71.067400000000006
217189.0,136.81200000000001,-41.084699999999998,10.6023,47.756399999999999,-20.987100000000002,-29.3157,54.299999999999997
217190.0,129.38999999999999,-34.673200000000001,12.325799999999999,53.963799999999999,-19.2209,-29.534500000000001,48.706400000000002
217191.0,124.747,-29.91,16.407599999999999,62.558500000000002,-14.090400000000001,-29.250299999999999,44.671199999999999
217192.0,120.376,-27.725899999999999,23.120699999999999,72.195800000000006,-8.8245500000000003,-28.0885,38.3003
217193.0,116.88,-31.395399999999999,23.4848,75.506100000000004,-7.23752,-26.011900000000001,31.096
217194.0,97.580600000000004,-10.4122,45.725900000000003,85.820499999999996,-13.0207,-23.1812,11.4217
217195.0,95.921999999999997,-7.7477499999999999,48.189900000000002,85.309100000000001,-17.785699999999999,-22.4937,7.0927800000000003
217196.0,100.23099999999999,-10.506500000000001,46.088200000000001,86.094800000000006,-22.654800000000002,-21.244800000000001,5.3167400000000002
217197.0,105.995,-16.873899999999999,37.513100000000001,84.116699999999994,-26.904699999999998,-21.472999999999999,2.2780999999999998
217198.0,113.149,-22.883500000000002,25.320399999999999,76.325500000000005,-34.267800000000001,-25.121500000000001,-0.97528000000000004
217199.0,120.004,-6.4328399999999997,9.8600100000000008,70.300299999999993,-45.427599999999998,-32.303100000000001,-7.6637000000000004
217200.0,123.974,-8.0079899999999995,-1.1828700000000001,64.619299999999996,-48.817900000000002,-32.401499999999999,-9.0310600000000001
217201.0,127.464,-0.36953900000000001,-2.3391899999999999,67.789500000000004,-49.9514,-33.5274,-14.2087
217202.0,128.101,-1.5170999999999999,-7.6020700000000003,58.140000000000001,-52.702300000000001,-32.297899999999998,-18.1554
217203.0,112.34399999999999,19.823,4.2427400000000004,65.836799999999997,-46.067599999999999,-26.697399999999998,-18.613700000000001
217204.0,132.78200000000001,-27.731100000000001,24.443899999999999,53.738900000000001,-8.7417599999999993,-13.7927,62.509099999999997
217205.0,91.718900000000005,12.555400000000001,56.685200000000002,66.4238,-21.101500000000001,-34.926499999999997,17.747499999999999
217206.0,110.21899999999999,0.103299,39.8887,81.182299999999998,-45.789700000000003,-15.234400000000001,-8.7736400000000003
217207.0,114.77,-5.2000099999999998,24.6007,75.736500000000007,-49.232100000000003,-14.9961,-8.1514900000000008
217208.0,87.257599999999996,12.378,56.690300000000001,62.281500000000001,-23.133400000000002,-32.8733,13.214399999999999
217209.0,119.69799999999999,-25.258700000000001,19.221800000000002,65.917699999999996,-4.51715,-12.581799999999999,50.184399999999997
217210.0,124.599,-71.108400000000003,-18.965599999999998,-19.581499999999998,0.21050199999999999,-27.675799999999999,59.2727
217211.0,133.34800000000001,-13.222200000000001,25.2532,66.645899999999997,-8.4845400000000009,-26.514199999999999,59.6387
217212.0,115.31999999999999,-17.634899999999998,29.565300000000001,79.791200000000003,-1.09175,-9.1552799999999994,44.4313
217213.0,110.78100000000001,-15.33,32.710299999999997,81.758700000000005,-3.0388999999999999,-11.0983,40.022100000000002
217214.0,106.57599999999999,-12.4991,31.649100000000001,74.478800000000007,-8.1887799999999995,-17.816199999999998,38.862000000000002
217215.0,92.704800000000006,-4.8331099999999996,38.220300000000002,63.8155,-10.482900000000001,-27.0044,28.671199999999999
217216.0,89.664400000000001,5.0181100000000001,49.6325,62.526600000000002,-15.735099999999999,-33.828899999999997,19.422999999999998
217217.0,80.026499999999999,14.8208,55.864100000000001,62.783099999999997,-23.5703,-29.421199999999999,6.43771
217218.0,75.392700000000005,21.311599999999999,59.188400000000001,70.145099999999999,-24.248100000000001,-25.233499999999999,3.66296
217219.0,76.0154,21.7013,61.175699999999999,71.662800000000004,-26.315100000000001,-23.001000000000001,3.2436199999999999
217220.0,81.516099999999994,17.152100000000001,58.1599,73.350099999999998,-29.979399999999998,-21.634599999999999,1.7431300000000001
217221.0,95.195800000000006,4.9444499999999998,48.224600000000002,74.787000000000006,-37.680300000000003,-18.477699999999999,-4.0899700000000001
217222.0,116.345,-1.2251300000000001,17.858799999999999,75.191599999999994,-50.003900000000002,-18.871400000000001,-8.5848800000000001
217223.0,126.05200000000001,-12.493,-3.7994699999999999,63.861499999999999,-53.737499999999997,-24.052700000000002,-9.1022499999999997
217224.0,133.08699999999999,-4.0102599999999997,-6.2311300000000003,70.216099999999997,-55.266500000000001,-27.1374,-14.835800000000001
217225.0,135.83799999999999,-8.71753,-15.5162,58.559699999999999,-58.266500000000001,-27.255299999999998,-18.3353
217226.0,119.798,23.407499999999999,3.9349099999999999,71.842399999999998,-51.813099999999999,-23.133900000000001,-18.473800000000001
217227.0,103.82599999999999,6.6817299999999999,31.336600000000001,54.720399999999998,-11.3041,-11.5703,52.484299999999998
217228.0,44.926099999999998,-12.8636,9.3927099999999992,29.210599999999999,-7.9258800000000003,-7.5330599999999999,10.495799999999999
217229.0,95.717500000000001,16.235399999999998,45.734699999999997,62.2361,-46.020299999999999,-16.340499999999999,-11.223800000000001
217230.0,103.44199999999999,24.721499999999999,46.166699999999999,75.727199999999996,-51.813000000000002,-10.581899999999999,-10.692600000000001
217231.0,44.5321,-22.055599999999998,0.218608,20.659700000000001,-9.4797100000000007,-6.9220199999999998,8.1748899999999995
217232.0,97.201899999999995,19.6297,45.589599999999997,68.896100000000004,-7.74742,-16.449000000000002,47.0259
217233.0,88.751300000000001,-86.485600000000005,-61.755200000000002,-61.683399999999999,-1.25956,-21.797799999999999,44.095500000000001
217234.0,100.645,6.3123399999999998,10.552300000000001,58.535600000000002,-12.337199999999999,-23.999700000000001,42.509300000000003
217235.0,94.403700000000001,-0.30740499999999998,32.415199999999999,49.107799999999997,-10.9633,-25.596699999999998,39.540100000000002
217236.0,90.7881,8.0747400000000003,41.478900000000003,57.9405,-17.7194,-27.6418,31.998000000000001
217237.0,77.410300000000007,16.645700000000001,43.781100000000002,59.936399999999999,-18.5367,-20.196999999999999,27.7012
217238.0,50.602499999999999,15.195,35.959000000000003,51.9056,-9.5619700000000005,-12.0413,16.681100000000001
217239.0,43.3889,-3.46645,19.471599999999999,35.208300000000001,-7.1739499999999996,-8.4770500000000002,11.222799999999999
217240.0,40.911799999999999,-11.5244,12.1974,26.973299999999998,-10.752599999999999,-7.9630799999999997,1.3079799999999999
217241.0,41.317399999999999,14.5067,38.886099999999999,48.709600000000002,-13.5787,-8.5890400000000007,-0.87952799999999998
217242.0,47.097900000000003,17.013100000000001,44.804099999999998,48.827399999999997,-19.171199999999999,-8.4645100000000006,0.32702199999999998
217243.0,58.680100000000003,8.5262600000000006,37.278500000000001,42.546900000000001,-26.499400000000001,-10.4908,0.44864300000000001
217244.0,76.868399999999994,6.0339600000000004,36.312199999999997,45.469000000000001,-36.271099999999997,-14.7864,-3.0651899999999999
217245.0,106.53100000000001,29.0625,40.507100000000001,82.655100000000004,-53.6158,-6.4755200000000004,-8.35337
217246.0,122.389,6.6342699999999999,5.9249099999999997,68.300200000000004,-59.523699999999998,-9.8098200000000002,-8.4520900000000001
217247.0,139.74000000000001,8.8289600000000004,-9.9896200000000004,74.960700000000003,-63.860900000000001,-15.9473,-13.632899999999999
217248.0,146.21199999999999,-2.8258000000000001,-32.877699999999997,57.3035,-65.7988,-18.8673,-18.219200000000001
217249.0,121.593,27.5322,-6.0679299999999996,71.637500000000003,-52.956600000000002,-17.1236,-17.662299999999998
217250.0,666.423,9651.7600000000002,10173.9,9964.4599999999991,-260.02800000000002,-70.150499999999994,80.384900000000002
217251.0,702.904,-9979.3999999999996,-9424.3299999999999,-9594.2700000000004,-266.61799999999999,-6.1593799999999996,112.624
217252.0,673.24099999999999,9215.4300000000003,9771.9099999999999,9588.8999999999996,-254.244,-7.9754699999999996,77.085300000000004
217253.0,644.78300000000002,-9872.4599999999991,-9326.8999999999996,-9570.5100000000002,-229.81899999999999,-96.133399999999995,-42.786999999999999
217254.0,774.33699999999999,10110.200000000001,10661.4,10356.200000000001,-212.12899999999999,-199.41200000000001,-197.124
217255.0,926.12699999999995,-10356.1,-9786.9699999999993,-10128.0,-210.797,-248.82900000000001,-312.28800000000001
217256.0,1075.26,9953.2000000000007,10544.9,10175.1,-218.56100000000001,-281.32600000000002,-411.25799999999998
217257.0,1244.3099999999999,-10400.799999999999,-9777.9699999999993,-10168.1,-230.94399999999999,-334.56799999999998,-501.77600000000001
217258.0,1329.97,9494.7000000000007,10136.9,9739.1599999999999,-246.64699999999999,-352.78300000000002,-547.03899999999999
217259.0,1303.54,-10792.200000000001,-10162.1,-10567.200000000001,-260.791,-318.75700000000001,-542.97699999999998
217260.0,1289.49,9192.9799999999996,9816.4400000000005,9408.0300000000007,-270.87200000000001,-302.51999999999998,-537.66499999999996
217261.0,1269.5699999999999,-11051.6,-10433.299999999999,-10838.5,-276.25700000000001,-293.92200000000003,-525.28800000000001
217262.0,1234.3800000000001,9318.3199999999997,9924.4500000000007,9523.8099999999995,-277.91500000000002,-282.411,-505.846
217263.0,1168.1099999999999,-11194.200000000001,-10615.1,-11007.200000000001,-272.08499999999998,-264.84899999999999,-472.55500000000001
217264.0,1069.4000000000001,9151.9200000000001,9690.75,9315.4400000000005,-254.84899999999999,-244.727,-424.315
217265.0,927.00699999999995,-10991.200000000001,-10519.5,-10877.700000000001,-224.03100000000001,-216.94900000000001,-358.54700000000003
217266.0,789.74300000000005,9863.2800000000007,10254.200000000001,9903.1399999999994,-191.59200000000001,-189.756,-298.19400000000002
217267.0,691.85699999999997,-11436.299999999999,-11095.799999999999,-11420.1,-160.482,-174.79900000000001,-257.601
217268.0,587.928,9613.4200000000001,9901.7099999999991,9612.8400000000001,-122.173,-160.11099999999999,-216.56
217269.0,460.57400000000001,-11280.6,-11078.1,-11338.5,-69.7928,-143.45599999999999,-163.00899999999999
217270.0,360.26799999999997,9495.9400000000005,9587.7399999999998,9344.9599999999991,-6.8258599999999996,-131.411,-104.506
217271.0,362.34800000000001,-11496.700000000001,-11532.6,-11763.0,72.0655,-126.556,-40.868699999999997
217272.0,436.44600000000003,11067.9,10954.0,10733.5,135.499,-127.38200000000001,-2.8808099999999999
217273.0,491.43200000000002,-10307.6,-10457.0,-10662.6,181.601,-124.94799999999999,12.408200000000001
217274.0,512.51599999999996,11653.700000000001,11497.6,11321.299999999999,218.88800000000001,-108.80200000000001,12.7407
217275.0,471.17899999999997,-10509.0,-10622.6,-10779.299999999999,220.75200000000001,-82.335899999999995,-7.8071900000000003
217276.0,208.46700000000001,-1104.3,-1098.3199999999999,-1147.4400000000001,114.643,20.728400000000001,13.968299999999999
217277.0,129.83500000000001,-515.88099999999997,-533.87400000000002,-579.23099999999999,67.406899999999993,0.97978100000000001,2.9497900000000001
217278.0,241.27699999999999,314.60700000000003,573.76900000000001,412.93000000000001,-43.897799999999997,-15.8467,10.4786
217279.0,150.559,4045.75,4074.1599999999999,4033.52,-84.301400000000001,-2.7706,2.6063499999999999
217280.0,46.472200000000001,3891.6300000000001,3930.0599999999999,3907.3499999999999,-18.264099999999999,-2.8523399999999999,-2.2283400000000002
217281.0,61.499099999999999,2461.48,2529.7199999999998,2498.9000000000001,4.8095400000000001,-7.1151400000000002,4.3721899999999998
217282.0,109.27200000000001,4616.4200000000001,4620.3100000000004,4599.4700000000003,-61.503999999999998,0.33582099999999998,-8.6318999999999999
217283.0,233.15600000000001,2166.29,2398.5100000000002,2265.8000000000002,-64.331100000000006,-14.028700000000001,14.5481
217284.0,115.31100000000001,-594.548,-539.89400000000001,-568.447,47.637,12.790100000000001,35.3842
217285.0,130.93700000000001,-280.59500000000003,-262.61799999999999,-301.82299999999998,66.733099999999993,7.9067499999999997,28.528300000000002
217286.0,136.68700000000001,-1812.3499999999999,-1678.6500000000001,-1756.4400000000001,29.706499999999998,10.221299999999999,27.0549
217287.0,191.137,-10.4352,204.44399999999999,69.037700000000001,6.0436800000000002,2.5175900000000002,18.190899999999999
217288.0,246.32499999999999,-537.44200000000001,-262.154,-438.55099999999999,-23.5806,-9.9597800000000003,11.1227
217289.0,286.012,1120.6400000000001,1424.0,1231.3,-57.643599999999999,-19.1265,3.2669899999999998
217290.0,243.44499999999999,-1114.98,-849.46699999999998,-1016.63,-39.374000000000002,-13.6241,0.734985
217291.0,215.15799999999999,995.31899999999996,1229.03,1091.4000000000001,-33.536499999999997,-13.8947,17.736899999999999
217292.0,235.047,1458.46,1662.8099999999999,1543.8199999999999,-86.971500000000006,-10.2761,14.563800000000001
217293.0,233.381,2314.9000000000001,2481.1300000000001,2377.9699999999998,-104.369,-5.3284399999999996,13.890000000000001
217294.0,222.12700000000001,3034.7399999999998,3153.3899999999999,3069.3099999999999,-111.92400000000001,-1.97444,13.8612
217295.0,195.97800000000001,3638.2800000000002,3707.0599999999999,3644.7199999999998,-106.27500000000001,-1.18866,7.9740000000000002
217296.0,152.05500000000001,-3589.3099999999999,-3549.5999999999999,-3601.1799999999998,-82.917900000000003,-3.78653,9.3440100000000008
217297.0,113.999,4353.3500000000004,4359.3100000000004,4333.8199999999997,-64.382499999999993,-2.2484000000000002,-2.00861
217298.0,108.791,4631.3900000000003,4636.5200000000004,4617.1599999999999,-60.766800000000003,0.47988900000000001,-12.3161
217299.0,86.788899999999998,4682.4099999999999,4682.8999999999996,4669.6999999999998,-48.478000000000002,0.18242900000000001,-10.2258
217300.0,76.897800000000004,4611.6000000000004,4615.8000000000002,4605.1899999999996,-43.127099999999999,0.246811,-9.0841100000000008
217301.0,64.148399999999995,4338.6999999999998,4359.2600000000002,4343.0200000000004,-34.707099999999997,-0.93248399999999998,-6.9848400000000002
217302.0,40.751300000000001,-4095.8200000000002,-4083.25,-4091.4400000000001,-22.363700000000001,0.35470200000000002,-3.5458099999999999
217303.0,50.379100000000001,3267.04,3323.73,3294.8600000000001,-2.88015,-5.3891099999999996,2.2633399999999999
217304.0,73.238399999999999,1646.1500000000001,1724.01,1692.96,11.6585,-8.6450899999999997,6.4116600000000004
217305.0,76.939099999999996,877.01700000000005,958.79899999999998,930.33799999999997,10.6342,-9.6810200000000002,6.5423499999999999
217306.0,78.825599999999994,177.48099999999999,262.05599999999998,234.852,7.0266999999999999,-11.087199999999999,5.8986599999999996
217307.0,128.16999999999999,77.765000000000001,-34.964700000000001,61.899700000000003,-21.677900000000001,-4.21976,-35.558199999999999
217308.0,152.72,467.85199999999998,526.53099999999995,415.51900000000001,63.916400000000003,19.4252,15.083600000000001
217309.0,142.56,107.61499999999999,187.27000000000001,112.572,52.654499999999999,16.104199999999999,41.845799999999997
217310.0,153.19200000000001,1234.55,1379.99,1276.28,30.1889,9.5460100000000008,34.814999999999998
217311.0,194.24000000000001,612.447,830.33799999999997,688.12800000000004,8.9791600000000003,1.42316,15.9933
217312.0,249.09899999999999,-312.71800000000002,-30.705100000000002,-211.59299999999999,-14.1097,-8.3589900000000004,-1.25465
217313.0,289.44099999999997,-887.96299999999997,-568.90300000000002,-770.88400000000001,-38.6633,-17.838200000000001,-7.8646099999999999
217314.0,215.797,-601.24099999999999,-365.21300000000002,-507.16800000000001,-33.480699999999999,-12.110799999999999,11.695499999999999
217315.0,238.77000000000001,-2083.3400000000001,-1828.1600000000001,-1974.3,-46.242600000000003,-15.638199999999999,15.0572
217316.0,236.422,-2106.9899999999998,-1871.3399999999999,-2006.4400000000001,-65.039299999999997,-12.035399999999999,16.5794
217317.0,231.041,-1746.9200000000001,-1544.2,-1666.5899999999999,-83.159899999999993,-7.3532200000000003,20.053799999999999
217318.0,216.53399999999999,-2621.4699999999998,-2465.79,-2569.9899999999998,-94.223500000000001,-3.2241399999999998,21.2256
217319.0,190.50800000000001,-3216.7199999999998,-3117.6300000000001,-3199.1900000000001,-94.969300000000004,-2.9099699999999999,16.546900000000001
217320.0,118.182,-3906.9200000000001,-3900.7600000000002,-3931.3800000000001,-65.992400000000004,-5.1555,3.4178299999999999
217321.0,111.203,-4246.7399999999998,-4244.2299999999996,-4268.5799999999999,-62.5794,-4.1329099999999999,-3.0625200000000001
217322.0,110.58499999999999,-4373.7399999999998,-4371.7700000000004,-4391.9200000000001,-62.186100000000003,-1.9116299999999999,-9.0601199999999995
217323.0,90.489800000000002,-4445.3500000000004,-4451.7399999999998,-4463.0100000000002,-50.763800000000003,-0.67250600000000005,-8.4890899999999991
217324.0,80.244100000000003,-4500.1099999999997,-4505.0500000000002,-4511.2600000000002,-45.271099999999997,-0.0271308,-8.1021599999999996
217325.0,68.198099999999997,-4368.8800000000001,-4369.04,-4373.25,-38.491,1.20923,-7.8212999999999999
217326.0,29.262499999999999,-3657.4000000000001,-3626.4200000000001,-3641.46,-6.3023199999999999,-2.1302099999999999,1.0207299999999999
217327.0,46.922499999999999,-2999.21,-2947.0,-2969.7800000000002,3.1025,-5.1863900000000003,3.5037400000000001
217328.0,60.853099999999998,-2204.3899999999999,-2140.3000000000002,-2164.9000000000001,10.536199999999999,-6.91378,5.4735300000000002
217329.0,71.480000000000004,-1437.99,-1362.0799999999999,-1388.2,10.3713,-8.8101299999999991,5.5151599999999998
217330.0,75.113,-702.36000000000001,-621.65899999999999,-646.59900000000005,7.2209500000000002,-9.9887200000000007,4.6274100000000002
217331.0,222.578,1797.8800000000001,1799.0699999999999,1757.8499999999999,120.97799999999999,27.928100000000001,23.3948
217332.0,135.142,115.438,92.688199999999995,48.902999999999999,68.888599999999997,-0.15934699999999999,-14.0909
217333.0,254.43299999999999,1834.0799999999999,2098.8000000000002,1935.4300000000001,-57.321899999999999,-18.8721,9.8193599999999996
217334.0,118.746,5106.5100000000002,5133.1999999999998,5093.6999999999998,-64.833500000000001,-9.0269600000000008,3.0466099999999998
217335.0,59.152900000000002,3831.6100000000001,3885.3299999999999,3846.8099999999999,-15.805,2.1941199999999998,-12.040699999999999
217336.0,69.609700000000004,2345.8299999999999,2424.1199999999999,2379.0700000000002,2.9918200000000001,-2.20974,-7.5653499999999996
217337.0,87.378200000000007,4870.6800000000003,4885.2200000000003,4866.5799999999999,-48.541699999999999,-4.1410799999999997,-8.6962499999999991
217338.0,254.34100000000001,1263.9200000000001,1496.0899999999999,1365.47,-87.206199999999995,-12.656700000000001,15.8901
217339.0,120.27800000000001,-1406.4300000000001,-1335.5899999999999,-1384.55,43.559699999999999,11.0503,38.565399999999997
217340.0,121.045,-1016.99,-978.47299999999996,-1049.02,59.207099999999997,1.4045799999999999,11.3543
217341.0,142.005,-350.875,-216.75399999999999,-288.93900000000002,30.220600000000001,9.9425500000000007,34.695399999999999
217342.0,192.25,-1722.76,-1509.7,-1633.2,4.3719099999999997,3.22098,29.073699999999999
217343.0,250.75999999999999,-158.32400000000001,118.98999999999999,-53.433999999999997,-29.238499999999998,-8.9747800000000009,20.465800000000002
217344.0,297.27800000000002,-275.54199999999997,33.253900000000002,-162.346,-67.478499999999997,-20.890599999999999,7.98245
217345.0,253.178,-1022.53,-753.63999999999999,-918.57000000000005,-51.3812,-18.344799999999999,2.0673300000000001
217346.0,227.98500000000001,1779.26,2017.0699999999999,1878.8800000000001,-50.631300000000003,-14.628500000000001,16.902100000000001
217347.0,263.89299999999997,3039.6500000000001,3233.2199999999998,3119.9499999999998,-115.923,-7.1084300000000002,16.321400000000001
217348.0,263.75400000000002,3549.0900000000001,3691.48,3595.9699999999998,-132.863,-2.70513,16.212599999999998
217349.0,222.39500000000001,4236.4399999999996,4326.4899999999998,4250.5900000000001,-117.935,-3.9228200000000002,14.7416
217350.0,172.85499999999999,4799.0699999999997,4851.3599999999997,4793.0,-93.718999999999994,-8.1064100000000003,9.0008199999999992
217351.0,128.84200000000001,-4743.4799999999996,-4722.5200000000004,-4765.7200000000003,-69.628799999999998,-12.0274,8.5954200000000007
217352.0,92.381699999999995,5061.2399999999998,5077.5799999999999,5052.0500000000002,-51.293500000000002,-6.0288399999999998,-3.1984599999999999
217353.0,85.444000000000003,4861.5200000000004,4872.71,4858.4499999999998,-46.991,-2.4284300000000001,-12.773400000000001
217354.0,77.720200000000006,4643.54,4649.3999999999996,4637.6199999999999,-42.180500000000002,1.1503300000000001,-14.079499999999999
217355.0,80.264399999999995,4455.9499999999998,4469.5600000000004,4452.7799999999997,-42.662199999999999,3.4243000000000001,-15.3698
217356.0,70.486699999999999,4292.0100000000002,4326.3999999999996,4298.1000000000004,-33.150199999999998,3.33284,-14.470700000000001
217357.0,46.494100000000003,-4119.1599999999999,-4093.6500000000001,-4115.6000000000004,-19.654499999999999,3.11355,-11.561299999999999
217358.0,64.2423,3116.9299999999998,3187.4299999999998,3142.1300000000001,-2.4240300000000001,0.212286,-9.6686399999999999
217359.0,73.226699999999994,1548.0999999999999,1630.8499999999999,1589.1600000000001,6.37805,-4.5771600000000001,-3.68594
217360.0,72.276499999999999,789.57399999999996,871.649,835.56200000000001,3.32213,-6.1604700000000001,-0.20801
217361.0,71.380399999999995,155.36600000000001,235.88399999999999,204.16,-0.48663499999999998,-6.8525,2.4778699999999998
217362.0,114.976,105.352,4.6096899999999996,114.64700000000001,-14.198399999999999,-2.8631700000000002,-21.7438
217363.0,143.90600000000001,537.23500000000001,597.87800000000004,490.43400000000003,60.638100000000001,9.6009100000000007,-15.2249
217364.0,130.43000000000001,1694.9100000000001,1784.8399999999999,1698.01,42.274900000000002,14.1707,32.808500000000002
217365.0,154.726,797.26700000000005,943.36099999999999,839.72699999999998,25.728899999999999,7.8313899999999999,40.1126
217366.0,200.87,1054.5599999999999,1276.47,1133.75,8.8279200000000007,0.62208300000000005,26.901800000000001
217367.0,254.57400000000001,1067.03,1354.4200000000001,1172.3800000000001,-16.230699999999999,-9.2655799999999999,10.6914
217368.0,297.83300000000003,282.63400000000001,607.62800000000004,403.697,-46.483199999999997,-20.730599999999999,-0.28105400000000003
217369.0,225.84399999999999,-2398.04,-2158.79,-2296.21,-47.8048,-13.6805,10.6258
217370.0,254.898,-1326.9300000000001,-1065.8199999999999,-1210.76,-64.237899999999996,-13.0639,15.7309
217371.0,256.99099999999999,-2034.27,-1797.71,-1931.6900000000001,-86.687600000000003,-7.2354500000000002,19.367999999999999
217372.0,250.36000000000001,-3403.9499999999998,-3215.9299999999998,-3333.0599999999999,-106.712,-1.6979,22.069099999999999
217373.0,218.393,-3704.9499999999998,-3591.3800000000001,-3680.0100000000002,-108.869,-1.63201,21.928100000000001
217374.0,176.5,-4262.6700000000001,-4204.1400000000003,-4269.75,-93.754499999999993,-8.4044100000000004,15.064
217375.0,99.910799999999995,-4910.7799999999997,-4899.1099999999997,-4928.5600000000004,-54.457799999999999,-11.3466,3.6123400000000001
217376.0,90.722300000000004,-4717.9300000000003,-4705.6599999999999,-4727.8000000000002,-50.406700000000001,-8.3902900000000002,-3.0545100000000001
217377.0,85.4636,-4656.4399999999996,-4644.8699999999999,-4662.4099999999999,-47.439300000000003,-6.3632099999999996,-8.0138700000000007
217378.0,75.481300000000005,-4590.7299999999996,-4583.3500000000004,-4597.4899999999998,-41.731999999999999,-2.88713,-9.9597599999999993
217379.0,80.094200000000001,-4335.2700000000004,-4327.6899999999996,-4342.2299999999996,-43.8872,0.72366799999999998,-12.604900000000001
217380.0,70.263900000000007,-4266.5900000000001,-4256.6899999999996,-4271.5699999999997,-37.492400000000004,3.1496200000000001,-13.1404
217381.0,44.5578,-3590.7800000000002,-3545.3800000000001,-3575.4499999999998,-4.88483,1.67893,-10.0861
217382.0,57.8185,-2905.7800000000002,-2841.79,-2877.5300000000002,2.2986200000000001,-0.58761200000000002,-8.9574499999999997
217383.0,64.537499999999994,-2157.6799999999998,-2085.4099999999999,-2120.0100000000002,6.3529400000000003,-2.52542,-5.93513
217384.0,69.978800000000007,-1372.8800000000001,-1293.47,-1326.6900000000001,3.88157,-4.4550999999999998,-2.5912799999999998
217385.0,70.827100000000002,-656.11599999999999,-575.98099999999999,-606.04899999999998,0.12894900000000001,-5.7331200000000004,0.75334599999999996
217386.0,242.387,-523.53999999999996,-527.36900000000003,-579.41399999999999,129.93000000000001,26.653099999999998,31.896899999999999
217387.0,134.10400000000001,-836.35299999999995,-874.72299999999996,-891.16899999999998,68.963499999999996,4.2391300000000003,-20.723099999999999
217388.0,269.13,925.08299999999997,1192.3199999999999,1032.77,-72.030000000000001,-22.430099999999999,19.327500000000001
217389.0,104.502,5839.7399999999998,5874.1300000000001,5833.6199999999999,-53.015999999999998,-17.304200000000002,7.2954800000000004
217390.0,75.458500000000001,3144.7199999999998,3226.48,3177.98,0.73880800000000002,4.8476299999999997,-13.5467
217391.0,68.377499999999998,1517.8800000000001,1590.5799999999999,1550.4000000000001,8.1359200000000005,-2.1463399999999999,-12.7111
217392.0,73.992800000000003,5333.4700000000003,5356.6199999999999,5338.8900000000003,-40.170200000000001,-8.0350000000000001,-0.44194699999999998
217393.0,285.60899999999998,3589.6199999999999,3817.6900000000001,3688.8200000000002,-115.977,-13.343999999999999,22.032
217394.0,115.494,-133.70400000000001,-42.423200000000001,-119.223,40.239699999999999,4.1433600000000004,20.081099999999999
217395.0,115.702,-155.69900000000001,-102.51000000000001,-189.12899999999999,47.932400000000001,-3.99716,-15.512
217396.0,148.62899999999999,-1307.99,-1163.79,-1249.2,29.660900000000002,7.8098599999999996,34.1342
217397.0,202.05199999999999,426.83199999999999,646.79700000000003,524.30799999999999,1.4233199999999999,3.87798,37.985700000000001
217398.0,255.607,-147.876,130.13200000000001,-30.0871,-33.078800000000001,-5.6739499999999996,34.3476
217399.0,293.99299999999999,1544.97,1845.97,1664.22,-69.276799999999994,-21.528700000000001,23.925599999999999
217400.0,272.495,-1575.6900000000001,-1292.5,-1467.27,-59.563899999999997,-23.1584,15.826499999999999
217401.0,253.58099999999999,1966.24,2209.6399999999999,2071.1900000000001,-76.044799999999995,-15.543799999999999,22.484400000000001
217402.0,303.45600000000002,3396.5300000000002,3573.1599999999999,3466.4699999999998,-149.50200000000001,-7.5704799999999999,19.3796
217403.0,281.536,4773.46,4878.8599999999997,4796.8000000000002,-151.69800000000001,-7.2373799999999999,17.072600000000001
217404.0,200.261,5720.0100000000002,5777.46,5713.6000000000004,-107.932,-14.6631,16.3492
217405.0,149.75899999999999,6021.1800000000003,6064.29,6012.3199999999997,-78.879599999999996,-19.040600000000001,10.879300000000001
217406.0,115.31,-5801.7799999999997,-5784.0,-5818.5200000000004,-60.224600000000002,-20.430299999999999,9.4747299999999992
217407.0,84.174499999999995,5576.9200000000001,5607.0799999999999,5578.6700000000001,-43.530700000000003,-13.171799999999999,2.5750600000000001
217408.0,73.332899999999995,4907.6300000000001,4926.4799999999996,4911.25,-40.796199999999999,-4.2062200000000001,-3.23461
217409.0,68.411600000000007,4679.2299999999996,4699.8699999999999,4684.0,-37.376600000000003,0.095962099999999995,-6.8049799999999996
217410.0,69.128399999999999,4402.79,4439.96,4415.1199999999999,-33.322800000000001,3.4427099999999999,-10.602
217411.0,68.004099999999994,3872.1500000000001,3935.5500000000002,3896.25,-18.269500000000001,4.9676900000000002,-12.6058
217412.0,50.5899,-3632.6599999999999,-3579.1399999999999,-3613.8200000000002,-3.5233400000000001,1.6716500000000001,-10.0396
217413.0,81.118600000000001,2333.6500000000001,2419.7800000000002,2370.5599999999999,11.3589,1.87391,-13.913500000000001
217414.0,53.968299999999999,899.13499999999999,958.17899999999997,927.69799999999998,-1.1930499999999999,-4.91777,-8.5655900000000003
217415.0,52.0869,465.161,520.08299999999997,494.60399999999998,-10.188700000000001,-5.8468499999999999,-3.3055099999999999
217416.0,54.410200000000003,93.4696,150.68799999999999,126.81,-11.487399999999999,-5.3230000000000004,0.76385899999999995
217417.0,114.06,104.449,2.9733100000000001,124.908,4.5440100000000001,-2.5739399999999999,-6.7308300000000001
217418.0,131.59700000000001,508.74400000000003,565.64099999999996,482.29500000000002,54.474699999999999,4.6255300000000004,-31.1416
217419.0,106.09,-294.82600000000002,-199.876,-288.83499999999998,29.412700000000001,6.50779,4.0977399999999999
217420.0,143.22,715.87400000000002,861.73000000000002,762.17700000000002,20.539300000000001,4.5841200000000004,28.9758
217421.0,206.88200000000001,136.245,364.31700000000001,221.517,4.8592300000000002,-1.17988,31.011099999999999
217422.0,260.49700000000001,-724.35299999999995,-432.851,-611.096,-19.378900000000002,-8.6958199999999994,23.939599999999999
217423.0,297.80700000000002,-1276.1199999999999,-952.82600000000002,-1152.77,-47.236899999999999,-21.099299999999999,16.351600000000001
217424.0,254.256,-1320.6600000000001,-1063.8499999999999,-1211.72,-66.279600000000002,-13.8614,18.670000000000002
217425.0,279.76600000000002,-3209.0700000000002,-2941.96,-3090.0799999999999,-87.468299999999999,-9.54528,20.989999999999998
217426.0,284.00799999999998,-3668.0799999999999,-3439.21,-3568.9200000000001,-113.845,-6.3137499999999998,26.704799999999999
217427.0,258.06700000000001,-3777.04,-3631.7199999999998,-3726.5,-126.611,-5.0317400000000001,26.490600000000001
217428.0,206.57400000000001,-5055.6300000000001,-5006.1300000000001,-5062.3199999999997,-112.744,-11.8483,20.748999999999999
217429.0,162.59700000000001,-5770.6400000000003,-5745.3599999999997,-5789.29,-87.6708,-20.931899999999999,14.2174
217430.0,92.504199999999997,-5542.2399999999998,-5517.3100000000004,-5549.0799999999999,-46.935600000000001,-17.849,7.1477899999999996
217431.0,78.225499999999997,-5346.3999999999996,-5321.5299999999997,-5344.4499999999998,-40.515700000000002,-13.2257,5.65137
217432.0,73.910399999999996,-4959.2299999999996,-4936.21,-4955.5100000000002,-39.808199999999999,-8.8227499999999992,2.4020800000000002
217433.0,69.3142,-4613.9099999999999,-4596.25,-4612.8800000000001,-38.441499999999998,-4.9396300000000002,-1.0657799999999999
217434.0,67.460700000000003,-4454.3299999999999,-4433.9899999999998,-4451.3800000000001,-36.933500000000002,-1.29104,-5.5175799999999997
217435.0,52.643999999999998,-4149.4200000000001,-4118.1300000000001,-4141.8699999999999,-24.1889,1.2674000000000001,-8.3960699999999999
217436.0,69.416600000000003,-2937.9899999999998,-2864.6799999999998,-2907.1900000000001,9.96997,0.36017199999999999,-12.319900000000001
217437.0,76.144900000000007,-2118.73,-2037.28,-2080.23,9.5751100000000005,-2.2012999999999998,-13.274800000000001
217438.0,64.676400000000001,-1319.3199999999999,-1248.3800000000001,-1282.1900000000001,0.474775,-3.0864600000000002,-11.2021
217439.0,55.055999999999997,-765.06600000000003,-706.14700000000005,-730.60699999999997,-9.1337799999999998,-2.5893700000000002,-6.6398099999999998
217440.0,51.301000000000002,-372.08100000000002,-317.935,-337.94600000000003,-10.9864,-2.4616500000000001,-0.96205200000000002
217441.0,254.245,2366.7600000000002,2365.6300000000001,2287.1399999999999,137.732,12.793200000000001,18.154199999999999
217442.0,131.614,-257.32100000000003,-314.76900000000001,-291.76799999999997,68.568899999999999,11.8409,-9.8069299999999995
217443.0,283.50599999999997,2350.8400000000001,2623.6999999999998,2466.04,-84.540899999999993,-21.7209,20.2438
217444.0,110.446,6658.9899999999998,6701.5600000000004,6654.7399999999998,-51.655700000000003,-24.834199999999999,10.523999999999999
217445.0,108.38800000000001,2371.6399999999999,2481.6799999999998,2438.6799999999998,27.994599999999998,0.370195,-7.5219199999999997
217446.0,64.166799999999995,276.21800000000002,336.375,318.69,18.284500000000001,-1.72862,-8.9003899999999998
217447.0,86.0047,5763.1700000000001,5797.4300000000003,5775.3800000000001,-45.2072,-9.23597,5.9340000000000002
217448.0,320.11000000000001,2853.6599999999999,3068.2399999999998,2943.8099999999999,-146.58199999999999,-16.008500000000002,28.3765
217449.0,112.19499999999999,-1058.3199999999999,-951.84699999999998,-1041.71,30.169899999999998,-2.0196100000000001,-0.22791600000000001
217450.0,87.263400000000004,-1101.7,-1056.0899999999999,-1119.3299999999999,34.447200000000002,-1.19737,-16.888999999999999
217451.0,152.59200000000001,164.71100000000001,323.86599999999999,221.89099999999999,28.1204,3.9376600000000002,21.340900000000001
217452.0,207.71000000000001,-1150.3800000000001,-920.66800000000001,-1049.1900000000001,1.3493599999999999,1.58653,33.503599999999999
217453.0,257.93599999999998,410.113,692.13699999999994,539.54899999999998,-36.168799999999997,-6.4900000000000002,29.960100000000001
217454.0,280.71600000000001,173.31399999999999,463.767,300.83999999999997,-64.457599999999999,-19.4605,23.204599999999999
217455.0,290.29599999999999,-1412.5699999999999,-1109.0799999999999,-1296.01,-62.581800000000001,-22.184999999999999,15.6189
217456.0,291.541,2772.7199999999998,3024.4000000000001,2881.5700000000002,-107.545,-15.605,24.312999999999999
217457.0,332.06900000000002,5229.3500000000004,5378.0500000000002,5283.7299999999996,-173.82599999999999,-17.172699999999999,24.180900000000001
217458.0,262.73899999999998,6064.0600000000004,6129.1700000000001,6072.8999999999996,-144.839,-18.450299999999999,21.086500000000001
217459.0,165.976,6571.3199999999997,6601.8100000000004,6560.1400000000003,-88.782600000000002,-22.647500000000001,17.9512
217460.0,139.07599999999999,6739.6899999999996,6780.5,6732.5500000000002,-70.999899999999997,-25.305800000000001,9.8367599999999999
217461.0,115.18899999999999,-6596.29,-6572.7200000000003,-6607.5,-58.326700000000002,-25.263100000000001,8.2155500000000004
217462.0,103.289,6271.75,6313.9700000000003,6278.1099999999997,-51.087800000000001,-20.258900000000001,4.1954799999999999
217463.0,64.5946,5442.3000000000002,5473.0299999999997,5455.5200000000004,-33.302,-3.5634999999999999,5.6119399999999997
217464.0,57.555399999999999,4908.9300000000003,4951.6300000000001,4928.8400000000001,-25.3963,-1.19635,1.1706799999999999
217465.0,63.658099999999997,4271.2399999999998,4338.1099999999997,4306.1199999999999,-14.827400000000001,0.432639,-3.4493900000000002
217466.0,84.737499999999997,3485.6199999999999,3581.48,3540.1100000000001,6.5956400000000004,0.78152500000000003,-6.1517400000000002
217467.0,84.267700000000005,-3194.27,-3109.7199999999998,-3143.3800000000001,23.029699999999998,-2.9220799999999998,-4.0314399999999999
217468.0,105.096,1146.8900000000001,1244.0899999999999,1209.79,34.425800000000002,-0.93879199999999996,-8.1059199999999993
217469.0,27.845500000000001,-76.321200000000005,-53.851100000000002,-55.928699999999999,-4.8976800000000003,-3.8369,-8.0974400000000006
217470.0,42.885199999999998,-48.703000000000003,-37.541499999999999,-35.3932,-22.364000000000001,-6.1120799999999997,-4.9481099999999998
217471.0,45.187899999999999,24.178699999999999,45.884599999999999,42.8187,-22.691700000000001,-5.1692499999999999,-1.0068999999999999
217472.0,110.22499999999999,118.82599999999999,14.6616,126.48399999999999,7.5551899999999996,8.6401400000000006,3.9928499999999998
217473.0,104.56100000000001,734.96000000000004,779.27599999999995,730.15700000000004,50.850299999999997,6.8242500000000001,-16.6951
217474.0,85.712299999999999,1397.49,1487.45,1423.49,13.5573,0.48170800000000003,-11.0184
217475.0,125.675,267.83300000000003,409.99400000000003,325.642,9.5091599999999996,0.56381800000000004,7.9269100000000003
217476.0,202.73599999999999,488.55000000000001,718.11699999999996,584.52300000000002,0.89194600000000002,-3.22302,19.907399999999999
217477.0,265.173,480.52699999999999,779.24800000000005,604.81200000000001,-21.528400000000001,-10.270300000000001,18.7578
217478.0,289.048,-223.16300000000001,94.097099999999998,-95.975399999999993,-43.340400000000002,-18.1934,12.133599999999999
217479.0,292.99299999999999,-3042.8600000000001,-2758.1300000000001,-2929.0799999999999,-85.798900000000003,-14.8888,22.153700000000001
217480.0,304.52499999999998,-2528.2600000000002,-2265.5300000000002,-2415.6799999999998,-112.179,-10.986499999999999,28.8583
217481.0,304.24200000000002,-3749.6500000000001,-3550.4099999999999,-3665.3400000000001,-138.708,-15.446300000000001,37.057899999999997
217482.0,249.62200000000001,-5602.0,-5519.5799999999999,-5577.0799999999999,-132.15899999999999,-18.531600000000001,34.2714
217483.0,185.304,-6068.0200000000004,-6065.1099999999997,-6087.6800000000003,-101.518,-23.212299999999999,21.224499999999999
217484.0,151.73599999999999,-6427.8100000000004,-6411.5600000000004,-6442.79,-80.547399999999996,-27.805800000000001,13.0191
217485.0,107.35599999999999,-6397.8500000000004,-6358.8100000000004,-6395.96,-52.743000000000002,-23.390000000000001,5.3144600000000004
217486.0,89.963300000000004,-5851.3100000000004,-5818.6599999999999,-5840.8900000000003,-45.534999999999997,-14.505599999999999,11.656499999999999
217487.0,68.599900000000005,-5478.3299999999999,-5453.4300000000003,-5468.8199999999997,-35.089799999999997,-7.6089599999999997,11.029
217488.0,58.802700000000002,-5118.3599999999997,-5091.2600000000002,-5107.6199999999999,-29.556799999999999,-6.4213199999999997,7.1722299999999999
217489.0,51.014400000000002,-4568.6499999999996,-4530.3500000000004,-4550.4700000000003,-21.703600000000002,-4.8689900000000002,2.3797899999999998
217490.0,49.368299999999998,-4008.9899999999998,-3952.73,-3977.2800000000002,-1.6593100000000001,-3.1612900000000002,-1.9894000000000001
217491.0,110.627,-1982.96,-1877.47,-1918.4100000000001,34.741900000000001,-3.49248,-5.6414400000000002
217492.0,98.136899999999997,-771.94899999999996,-669.50800000000004,-709.63699999999994,21.918600000000001,-4.16425,-6.9276600000000004
217493.0,62.035600000000002,5.9061899999999996,74.221900000000005,48.6982,-2.2346499999999998,-3.18845,-8.7200299999999995
217494.0,47.853000000000002,233.88999999999999,262.05799999999999,255.65600000000001,-22.010400000000001,-2.9445999999999999,-7.2208500000000004
217495.0,42.1267,100.383,112.771,114.952,-22.781400000000001,-2.4845600000000001,-2.15333
217496.0,258.63400000000001,-513.93799999999999,-502.78100000000001,-604.23000000000002,137.37299999999999,-3.21163,-17.9084
217497.0,131.42599999999999,-965.67999999999995,-1028.3,-990.12,68.194800000000001,9.8621700000000008,3.6922600000000001
217498.0,305.32499999999999,1492.5899999999999,1776.1099999999999,1617.6600000000001,-99.552000000000007,-17.178699999999999,26.0716
217499.0,106.711,6765.2700000000004,6812.6800000000003,6759.1199999999999,-45.648699999999998,-29.077300000000001,2.7309000000000001
217500.0,122.75,1743.8900000000001,1855.1800000000001,1828.23,40.1631,-6.1535000000000002,0.89115100000000003
217501.0,70.027900000000002,-240.97200000000001,-186.857,-181.59999999999999,23.511800000000001,-0.76266100000000003,1.0255700000000001
217502.0,116.758,6454.9399999999996,6503.1800000000003,6468.8500000000004,-61.195399999999999,-13.2667,-2.6087400000000001
217503.0,338.66699999999997,5203.3299999999999,5395.0500000000002,5284.1899999999996,-167.22,-19.268799999999999,25.163399999999999
217504.0,108.42400000000001,-32.110599999999998,77.404700000000005,-12.8126,20.450700000000001,2.4508399999999999,8.7639200000000006
217505.0,69.233699999999999,-381.54700000000003,-347.83100000000002,-386.197,29.5382,11.6287,12.314500000000001
217506.0,155.00399999999999,-910.14599999999996,-740.24000000000001,-847.24800000000005,22.762599999999999,-0.16630900000000001,10.5558
217507.0,207.566,859.65099999999995,1095.03,969.02999999999997,4.91073,-2.2864200000000001,21.405200000000001
217508.0,264.072,295.19299999999998,584.06399999999996,433.37400000000002,-39.878100000000003,-8.9871599999999994,26.436399999999999
217509.0,288.642,1987.5999999999999,2281.9499999999998,2122.7600000000002,-71.090999999999994,-15.827299999999999,27.5229
217510.0,306.90199999999999,-2012.8800000000001,-1696.5599999999999,-1882.6400000000001,-74.129400000000004,-17.048300000000001,18.3095
217511.0,324.221,3014.4200000000001,3270.2199999999998,3125.8699999999999,-132.577,-16.424600000000002,27.310400000000001
217512.0,320.09800000000001,5441.1800000000003,5557.9499999999998,5482.6099999999997,-173.13999999999999,-23.617100000000001,10.712999999999999
217513.0,219.94800000000001,6768.7299999999996,6811.3299999999999,6771.5900000000001,-122.366,-22.8611,7.8962000000000003
217514.0,133.25999999999999,7251.3199999999997,7273.8900000000003,7242.8900000000003,-71.940100000000001,-21.918199999999999,2.5766800000000001
217515.0,119.87,7164.7799999999997,7206.96,7158.46,-59.521599999999999,-23.3203,-2.7766700000000002
217516.0,107.316,-6792.0,-6759.75,-6803.21,-50.903700000000001,-26.8811,-4.01729
217517.0,140.905,6549.8699999999999,6605.3599999999997,6554.6099999999997,-69.434700000000007,-27.028099999999998,-10.962400000000001
217518.0,61.664299999999997,5848.0500000000002,5893.9899999999998,5870.4899999999998,-26.9405,-3.6229200000000001,0.96004800000000001
217519.0,56.061799999999998,5109.3699999999999,5172.0100000000002,5146.9499999999998,-7.24627,-1.05175,-0.48345500000000002
217520.0,74.638800000000003,4195.8599999999997,4278.9700000000003,4250.6499999999996,7.58927,-3.1886399999999999,-1.94821
217521.0,103.157,3017.0700000000002,3121.48,3090.6900000000001,25.193000000000001,-5.74688,-1.2738100000000001
217522.0,108.465,-2566.0700000000002,-2467.5,-2494.5100000000002,35.9437,-5.8744899999999998,0.81589
217523.0,112.07299999999999,586.77200000000005,680.29300000000001,666.08100000000002,40.382100000000001,-3.2497600000000002,2.4197799999999998
217524.0,29.577200000000001,-552.125,-546.83799999999997,-520.85799999999995,2.0805400000000001,-1.4952000000000001,-2.2268599999999998
217525.0,47.2714,-372.83699999999999,-392.18700000000001,-359.339,-20.814499999999999,-4.9441100000000002,-3.8175500000000002
217526.0,53.330199999999998,-35.752200000000002,-47.292499999999997,-22.097200000000001,-27.379899999999999,-5.7370200000000002,-2.5281799999999999
217527.0,90.256399999999999,51.695399999999999,-42.273600000000002,26.810400000000001,-9.4367199999999993,1.0989100000000001,15.9626
217528.0,98.661199999999994,682.16499999999996,716.15300000000002,684.25099999999998,51.386699999999998,9.3002000000000002,12.4389
217529.0,81.274799999999999,-299.69299999999998,-210.71100000000001,-265.298,9.0043699999999998,4.6704600000000003,9.2506400000000006
217530.0,125.13800000000001,333.75200000000001,477.94099999999997,402.92399999999998,-3.63388,-0.38507999999999998,2.4485199999999998
217531.0,193.65600000000001,-358.56700000000001,-135.33199999999999,-247.786,-5.0281900000000004,-3.6716899999999999,1.86463
217532.0,266.221,-1167.8099999999999,-864.58199999999999,-1025.8499999999999,-21.462,-10.0242,6.7482499999999996
217533.0,292.29000000000002,-1725.3499999999999,-1404.1500000000001,-1586.74,-46.958399999999997,-14.8713,9.8705599999999993
217534.0,318.46699999999998,-2028.53,-1730.8099999999999,-1906.01,-102.277,-15.713699999999999,26.623799999999999
217535.0,315.50599999999997,-4427.9300000000003,-4179.0,-4323.4499999999998,-127.048,-16.9038,33.6111
217536.0,295.87900000000002,-5299.4799999999996,-5142.6400000000003,-5235.9499999999998,-145.922,-24.523199999999999,32.613999999999997
217537.0,222.749,-5663.0500000000002,-5622.9099999999999,-5657.3000000000002,-122.08799999999999,-26.179300000000001,21.8368
217538.0,157.251,-6795.3100000000004,-6802.8900000000003,-6815.0699999999997,-86.008899999999997,-26.209299999999999,7.6638500000000001
217539.0,128.71299999999999,-7062.5799999999999,-7045.0299999999997,-7074.1199999999999,-67.898799999999994,-26.387599999999999,1.1118699999999999
217540.0,141.047,-6473.6700000000001,-6410.6599999999999,-6465.8000000000002,-66.263000000000005,-31.537800000000001,-8.1866699999999994
217541.0,118.812,-6413.3400000000001,-6372.6700000000001,-6402.0600000000004,-62.817999999999998,-17.831,0.76073500000000005
217542.0,63.025599999999997,-6118.8299999999999,-6098.4499999999998,-6108.6400000000003,-34.074399999999997,-6.7460699999999996,3.7013699999999998
217543.0,39.904499999999999,-5459.8900000000003,-5426.7399999999998,-5437.8599999999997,-14.988899999999999,-3.9549699999999999,2.39655
217544.0,49.210700000000003,-4730.5,-4675.6000000000004,-4693.3000000000002,0.12429900000000001,-4.66601,-0.41014099999999998
217545.0,74.4876,-3756.8400000000001,-3681.6300000000001,-3703.5,17.723400000000002,-6.1491699999999998,-0.90525900000000004
217546.0,123.773,-1322.47,-1209.95,-1239.28,40.811100000000003,-4.3039899999999998,3.9556
217547.0,103.39700000000001,-180.99000000000001,-79.084299999999999,-102.416,26.311,-2.5271300000000001,3.8005300000000002
217548.0,61.587200000000003,561.58600000000001,625.399,618.99599999999998,4.5804,-2.8725800000000001,0.51390499999999995
217549.0,44.353499999999997,766.94500000000005,781.63699999999994,795.779,-20.372299999999999,-5.0837000000000003,-2.6453700000000002
217550.0,54.253999999999998,469.85000000000002,454.85300000000001,480.62400000000002,-27.830100000000002,-6.0052899999999996,-1.7522
217551.0,253.53399999999999,2210.98,2237.0799999999999,2127.4000000000001,126.68000000000001,-15.2683,-43.155299999999997
217552.0,122.56999999999999,-122.081,-171.328,-143.923,65.065100000000001,5.1774300000000002,11.774800000000001
217553.0,321.714,3043.54,3333.3699999999999,3179.3899999999999,-109.989,-17.819299999999998,32.5274
217554.0,80.910799999999995,6397.5,6451.0100000000002,6404.1000000000004,-24.060400000000001,-21.223700000000001,-17.367000000000001
217555.0,95.005799999999994,1786.1600000000001,1879.4100000000001,1853.6800000000001,25.1126,-7.20418,2.5348700000000002
217556.0,68.503100000000003,147.58500000000001,204.41399999999999,209.43100000000001,17.6448,-2.0381900000000002,8.2940699999999996
217557.0,158.36699999999999,5836.0299999999997,5899.7799999999997,5848.6400000000003,-78.877899999999997,-18.220300000000002,-25.8202
217558.0,341.77100000000002,4180.7700000000004,4347.9799999999996,4258.3400000000001,-176.24600000000001,-22.171900000000001,19.483899999999998
217559.0,105.60899999999999,-1142.9200000000001,-1040.0899999999999,-1127.28,20.7163,7.1235999999999997,12.961399999999999
217560.0,79.9452,-1111.5899999999999,-1078.1300000000001,-1117.1900000000001,32.221699999999998,16.120999999999999,19.6541
217561.0,151.02699999999999,292.62299999999999,460.21800000000002,361.76400000000001,19.8581,-0.623471,10.7087
217562.0,210.28200000000001,-927.32799999999997,-688.66899999999998,-807.95799999999997,4.8034699999999999,-5.2239500000000003,21.203700000000001
217563.0,280.55900000000003,643.55100000000004,946.19799999999998,792.15499999999997,-47.547600000000003,-8.4634300000000007,31.689
217564.0,309.54399999999998,575.57399999999996,882.68600000000004,721.11099999999999,-83.665199999999999,-12.630599999999999,34.333199999999998
217565.0,315.86900000000003,-1947.98,-1631.3599999999999,-1802.71,-86.197000000000003,-15.4537,21.7102
217566.0,348.74000000000001,3785.46,4038.0100000000002,3903.4699999999998,-152.06800000000001,-18.695499999999999,33.120600000000003
217567.0,274.19,6588.8299999999999,6675.5699999999997,6622.9399999999996,-150.01900000000001,-25.352599999999999,-1.32711
217568.0,176.50200000000001,7010.5,7042.1800000000003,7017.9399999999996,-98.132000000000005,-21.392800000000001,-4.7368800000000002
217569.0,107.896,7037.4200000000001,7060.4799999999996,7039.1999999999998,-56.7453,-15.9558,-15.530900000000001
217570.0,86.759,6803.4899999999998,6842.2200000000003,6807.1499999999996,-38.0503,-15.028600000000001,-19.449300000000001
217571.0,83.875699999999995,-6461.2600000000002,-6427.4499999999998,-6462.3000000000002,-31.294599999999999,-21.3795,-22.706299999999999
217572.0,156.83699999999999,6030.1300000000001,6103.4899999999998,6040.3199999999997,-67.043599999999998,-27.119499999999999,-37.279699999999998
217573.0,87.908100000000005,5656.79,5712.4099999999999,5677.1300000000001,-38.242600000000003,-5.94224,-16.911999999999999
217574.0,60.007599999999996,4892.5200000000004,4958.5799999999999,4928.4799999999996,-0.42444999999999999,-2.3709699999999998,-10.0398
217575.0,75.763999999999996,3829.8600000000001,3910.0999999999999,3879.27,14.6311,-4.9126200000000004,-6.0718899999999998
217576.0,89.454400000000007,2809.6399999999999,2900.71,2869.98,21.434699999999999,-7.3923899999999998,-2.59104
217577.0,88.897000000000006,-2392.3299999999999,-2302.25,-2332.0900000000001,22.615400000000001,-3.90388,-1.3682099999999999
217578.0,87.711600000000004,843.47199999999998,926.92700000000002,912.87699999999995,22.351500000000001,-4.2658399999999999,7.0795000000000003
217579.0,41.608800000000002,-253.76599999999999,-237.27699999999999,-210.291,8.3953799999999994,-1.0011399999999999,4.8880600000000003
217580.0,41.000700000000002,-262.94400000000002,-278.45800000000003,-238.238,-11.957599999999999,-2.3079499999999999,0.77010400000000001
217581.0,52.316499999999998,9.0801200000000009,-13.732100000000001,26.857299999999999,-21.581499999999998,-5.6606199999999998,-0.74098299999999995
217582.0,102.256,42.435200000000002,-43.6738,4.6284099999999997,-29.3172,13.177300000000001,24.277799999999999
217583.0,108.501,622.95299999999997,657.05600000000004,623.71000000000004,50.694800000000001,11.564399999999999,29.0032
217584.0,92.048199999999994,1505.8099999999999,1597.0699999999999,1529.9100000000001,15.5558,6.6832799999999999,17.348199999999999
217585.0,129.679,228.49000000000001,376.85000000000002,297.62099999999998,-6.0872000000000002,-0.61216300000000001,7.5481400000000001
217586.0,192.61099999999999,211.12899999999999,431.92599999999999,333.59100000000001,-10.7446,-3.4413200000000002,1.6266799999999999
217587.0,273.55099999999999,227.76900000000001,538.24800000000005,389.69099999999997,-27.6738,-5.3626500000000004,5.8941499999999998
217588.0,302.90600000000001,-540.48800000000006,-211.97399999999999,-383.137,-57.912500000000001,-8.9191500000000001,12.423
217589.0,332.12700000000001,-3851.6999999999998,-3551.7800000000002,-3714.3299999999999,-113.815,-16.866099999999999,31.472100000000001
217590.0,311.63999999999999,-3579.0900000000001,-3354.2199999999998,-3476.5,-134.83199999999999,-19.9313,33.506500000000003
217591.0,261.154,-4967.4099999999999,-4861.1800000000003,-4921.0200000000004,-135.72,-29.129999999999999,25.0824
217592.0,188.852,-6713.6000000000004,-6691.8699999999999,-6711.0100000000002,-103.878,-29.254000000000001,10.053100000000001
217593.0,129.363,-6777.6499999999996,-6781.5600000000004,-6787.9499999999998,-70.230400000000003,-24.3842,-4.9340999999999999
217594.0,93.553100000000001,-6694.6300000000001,-6680.7299999999996,-6698.7200000000003,-47.631599999999999,-19.815000000000001,-12.9261
217595.0,150.59100000000001,-6104.6400000000003,-6015.9399999999996,-6081.8000000000002,-59.077399999999997,-31.5015,-30.913499999999999
217596.0,155.57400000000001,-5756.3999999999996,-5683.3800000000001,-5737.0,-74.673599999999993,-22.952100000000002,-23.1173
217597.0,91.229399999999998,-5657.7200000000003,-5627.6800000000003,-5651.29,-45.990000000000002,-7.8027499999999996,-18.6571
217598.0,39.413200000000003,-5339.9200000000001,-5309.5699999999997,-5324.0100000000002,-10.4147,0.00339267,-13.376799999999999
217599.0,55.756999999999998,-4415.3599999999997,-4357.0200000000004,-4380.1099999999997,8.5677099999999999,-1.4372799999999999,-9.8841400000000004
217600.0,75.994200000000006,-3372.73,-3294.3499999999999,-3323.6999999999998,17.239799999999999,-3.4059699999999999,-6.9398299999999997
217601.0,92.714500000000001,-1363.3099999999999,-1269.28,-1294.75,21.555800000000001,-2.8855400000000002,5.2006800000000002
217602.0,85.848699999999994,-490.16500000000002,-405.61500000000001,-419.97399999999999,18.272200000000002,-1.63083,8.5560100000000006
217603.0,65.060100000000006,162.98400000000001,223.345,224.624,9.7464399999999998,-2.8609300000000002,8.1854099999999992
217604.0,43.453099999999999,528.78800000000001,552.97500000000002,571.37,-11.4109,-4.9427399999999997,4.3191300000000004
217605.0,49.2622,447.339,437.57400000000001,469.202,-22.386700000000001,-6.71387,0.63819099999999995
217606.0,241.798,-773.74699999999996,-730.38199999999995,-842.02200000000005,109.488,-25.176100000000002,-60.825600000000001
217607.0,110.211,-816.32500000000005,-844.58699999999999,-835.51599999999996,59.268999999999998,1.2625200000000001,18.061199999999999
217608.0,338.73000000000002,2193.46,2484.6199999999999,2341.1700000000001,-119.05500000000001,-20.020299999999999,49.755899999999997
217609.0,63.299399999999999,5439.4799999999996,5493.8900000000003,5472.3500000000004,12.585599999999999,-11.514900000000001,-17.1477
217610.0,69.039000000000001,1808.2,1885.5699999999999,1842.5799999999999,2.2809200000000001,-4.93933,-7.5173199999999998
217611.0,55.002200000000002,680.25199999999995,742.23199999999997,722.07399999999996,-1.2608600000000001,-0.65992200000000001,-2.6255899999999999
217612.0,172.78899999999999,4556.75,4638.96,4577.3999999999996,-77.069800000000001,-26.4405,-38.5229
217613.0,338.41800000000001,6427.0200000000004,6569.1300000000001,6506.7600000000002,-176.78899999999999,-30.4818,30.303000000000001
217614.0,99.914199999999994,28.583200000000001,121.15600000000001,46.922699999999999,23.821200000000001,10.928800000000001,15.4251
217615.0,80.838399999999993,-206.00299999999999,-169.46100000000001,-209.58199999999999,30.492599999999999,18.091999999999999,20.693300000000001
217616.0,146.768,-928.63400000000001,-771.92200000000003,-863.43600000000004,24.961400000000001,0.74828899999999998,18.953399999999998
217617.0,219.36099999999999,891.03200000000004,1135.75,1011.42,-0.98705600000000004,-4.2435299999999998,32.362200000000001
217618.0,306.70400000000001,561.75999999999999,880.54399999999998,724.23199999999997,-58.945700000000002,-10.3695,48.630000000000003
217619.0,330.11799999999999,2519.7600000000002,2835.6399999999999,2682.4400000000001,-92.4846,-15.654400000000001,50.749099999999999
217620.0,322.69,-2643.3000000000002,-2330.6900000000001,-2479.5700000000002,-94.001000000000005,-14.521000000000001,34.809899999999999
217621.0,381.88400000000001,3989.5700000000002,4234.5200000000004,4118.9799999999996,-173.96199999999999,-25.147099999999998,51.966999999999999
217622.0,223.399,6334.0299999999997,6396.5600000000004,6366.8800000000001,-121.057,-28.148700000000002,14.489800000000001
217623.0,141.40700000000001,7028.3599999999997,7057.6999999999998,7047.1400000000003,-76.891800000000003,-22.002700000000001,6.92713
217624.0,76.562600000000003,7008.6999999999998,7037.1800000000003,7029.04,-39.239199999999997,-12.7217,-6.0962100000000001
217625.0,42.984699999999997,6405.0600000000004,6440.0,6430.2399999999998,-8.1772100000000005,-6.2069200000000002,-13.6214
217626.0,47.085999999999999,-5841.8699999999999,-5811.9799999999996,-5822.6700000000001,1.60873,-14.154,-17.5105
217627.0,119.824,4703.6899999999996,4789.8800000000001,4733.4799999999996,-27.7926,-23.6313,-39.227699999999999
217628.0,137.59999999999999,4401.04,4463.1199999999999,4414.9499999999998,-61.997700000000002,-16.946200000000001,-33.451900000000002
217629.0,71.311999999999998,4032.8400000000001,4092.1500000000001,4049.4000000000001,-15.3688,-5.9494100000000003,-22.0671
217630.0,70.014700000000005,3369.54,3442.4699999999998,3395.3200000000002,0.40814400000000001,-2.2647599999999999,-16.156099999999999
217631.0,72.9024,2548.02,2627.4899999999998,2579.0500000000002,5.2038200000000003,-2.8914599999999999,-11.4998
217632.0,71.768199999999993,-2224.2600000000002,-2145.71,-2191.3600000000001,1.7298500000000001,-0.069035100000000002,-12.560499999999999
217633.0,65.651600000000002,1234.4100000000001,1308.6900000000001,1274.72,-4.0928100000000001,-4.49817,-4.1180899999999996
217634.0,37.072200000000002,247.179,284.93000000000001,281.93900000000002,0.023644700000000001,3.0856599999999998,-2.86252
217635.0,30.148700000000002,54.243600000000001,66.296800000000005,78.283600000000007,-11.010300000000001,3.59998,-4.9308500000000004
217636.0,35.928400000000003,62.035600000000002,57.427199999999999,78.442899999999995,-15.9755,0.80532099999999995,-7.2388599999999999
217637.0,107.318,-45.334600000000002,-128.761,-88.124499999999998,-27.3949,-8.2935099999999995,35.768900000000002
217638.0,114.34999999999999,486.32299999999998,525.80499999999995,487.73399999999998,46.361600000000003,12.799899999999999,39.290300000000002
217639.0,87.268799999999999,-407.964,-324.11799999999999,-384.24200000000002,16.738800000000001,7.7947499999999996,18.1584
217640.0,126.533,334.89499999999998,477.733,396.53100000000001,1.9081600000000001,0.59133199999999997,14.1518
217641.0,205.655,-355.17700000000002,-121.011,-233.47,-10.648199999999999,-2.34836,16.2362
217642.0,295.28300000000002,-1323.0699999999999,-994.96900000000005,-1150.48,-41.047499999999999,-3.5381800000000001,20.715299999999999
217643.0,315.69099999999997,-2168.98,-1838.1900000000001,-1992.48,-70.210899999999995,-9.5809499999999996,28.331
217644.0,351.03699999999998,-2796.9299999999998,-2496.3099999999999,-2641.4200000000001,-126.839,-17.091999999999999,45.762799999999999
217645.0,307.31200000000001,-5460.2200000000003,-5274.4700000000003,-5355.4099999999999,-141.13900000000001,-26.896000000000001,46.5182
217646.0,230.464,-6384.6099999999997,-6327.5100000000002,-6346.4799999999996,-120.039,-33.3705,36.552399999999999
217647.0,163.143,-6317.8500000000004,-6302.4799999999996,-6307.6400000000003,-86.257300000000001,-30.776199999999999,20.57
217648.0,103.777,-6888.1300000000001,-6886.3900000000003,-6883.04,-54.637500000000003,-23.756399999999999,5.7952500000000002
217649.0,46.733199999999997,-6689.25,-6680.0699999999997,-6678.71,-21.319099999999999,-15.0275,-3.85005
217650.0,114.45999999999999,-4954.3900000000003,-4856.6099999999997,-4911.0200000000004,-20.190000000000001,-27.2182,-28.6035
217651.0,169.64099999999999,-4569.2399999999998,-4447.7200000000003,-4526.1300000000001,-63.011699999999998,-29.732099999999999,-30.698399999999999
217652.0,139.67699999999999,-4394.0500000000002,-4327.3599999999997,-4379.1499999999996,-61.212600000000002,-18.9711,-34.221400000000003
217653.0,69.429900000000004,-4181.9700000000003,-4151.79,-4180.8299999999999,-23.0185,-4.3675699999999997,-27.664100000000001
217654.0,59.9711,-3749.3800000000001,-3698.9499999999998,-3736.3400000000001,-4.9932699999999999,0.96446399999999999,-22.084299999999999
217655.0,68.325999999999993,-3033.2199999999998,-2963.6500000000001,-3008.0700000000002,3.0714899999999998,1.8039000000000001,-17.3916
217656.0,67.5916,-1568.0999999999999,-1492.3299999999999,-1529.77,-4.8528900000000004,-1.22638,-7.8873199999999999
217657.0,60.545099999999998,-1033.01,-964.44500000000005,-990.45399999999995,-1.5433699999999999,0.80672900000000003,-4.5588199999999999
217658.0,52.781999999999996,-472.99200000000002,-414.959,-429.589,0.69358500000000001,3.2651300000000001,-2.5649799999999998
217659.0,42.800699999999999,-42.063200000000002,-2.8530500000000001,-5.4844499999999998,-10.605600000000001,2.9270499999999999,-3.0319500000000001
217660.0,37.618400000000001,133.83799999999999,148.143,157.845,-16.625399999999999,1.15923,-6.9371
217661.0,229.73599999999999,1979.9200000000001,2043.8,1934.3499999999999,86.356999999999999,-34.623199999999997,-76.900599999999997
217662.0,101.181,-13.017200000000001,-15.6251,-28.682700000000001,51.311599999999999,0.38799899999999998,26.627400000000002
217663.0,376.43000000000001,3852.0599999999999,4155.4399999999996,4011.6500000000001,-138.19200000000001,-24.3935,67.161100000000005
217664.0,90.302199999999999,5144.8999999999996,5197.7700000000004,5199.1800000000003,41.906999999999996,0.59541699999999997,-2.0639599999999998
217665.0,64.470100000000002,1307.77,1374.74,1325.74,-7.8682299999999996,-4.3555000000000001,-10.151
217666.0,63.311199999999999,685.60799999999995,735.245,702.65099999999995,-24.578199999999999,-9.7892600000000005,0.27031500000000003
217667.0,115.663,2996.3400000000001,3095.1799999999998,3046.0999999999999,-30.1357,-19.2118,-27.198399999999999
217668.0,333.01499999999999,5524.1099999999997,5650.5699999999997,5597.3100000000004,-172.29400000000001,-41.785400000000003,38.773800000000001
217669.0,97.314400000000006,-944.69000000000005,-862.44200000000001,-926.30899999999997,27.615400000000001,15.3241,17.195499999999999
217670.0,96.075000000000003,-844.85299999999995,-806.12300000000005,-845.77599999999995,29.722200000000001,23.661200000000001,33.4863
217671.0,142.40899999999999,256.74400000000003,406.95299999999997,308.548,27.752300000000002,2.24973,12.773300000000001
217672.0,223.673,-894.39599999999996,-641.73099999999999,-778.51800000000003,-6.0835699999999999,-5.6985299999999999,24.712900000000001
217673.0,317.46600000000001,962.71500000000003,1292.6900000000001,1130.78,-63.652200000000001,-17.273,44.945500000000003
217674.0,355.64800000000002,1136.55,1469.97,1309.9100000000001,-101.879,-23.947800000000001,58.332999999999998
217675.0,354.37400000000002,-2618.48,-2285.6799999999998,-2442.1900000000001,-107.90600000000001,-16.533999999999999,47.123100000000001
217676.0,408.51799999999997,4952.6400000000003,5190.25,5087.0699999999997,-189.37700000000001,-35.6111,65.575999999999993
217677.0,206.78999999999999,7589.79,7644.6199999999999,7619.5900000000001,-106.761,-33.568100000000001,31.240500000000001
217678.0,133.22300000000001,7509.5500000000002,7546.3500000000004,7533.9700000000003,-66.030799999999999,-26.262499999999999,22.709599999999998
217679.0,69.139600000000002,7100.8100000000004,7139.25,7135.6000000000004,-27.176500000000001,-16.297699999999999,11.795199999999999
217680.0,47.749899999999997,6286.6899999999996,6326.5299999999997,6331.0100000000002,11.4124,-4.8380900000000002,3.33249
217681.0,57.032600000000002,-5701.1800000000003,-5674.1099999999997,-5667.8000000000002,27.180299999999999,-5.5691199999999998,-0.0797572
217682.0,95.203199999999995,3884.1900000000001,3971.79,3942.8899999999999,27.235399999999998,-6.0153999999999996,-15.837400000000001
217683.0,148.589,2911.9699999999998,2991.7600000000002,2936.4299999999998,-64.926199999999994,-21.470300000000002,-31.809999999999999
217684.0,101.956,2806.9200000000001,2871.5100000000002,2816.1500000000001,-39.9803,-10.1508,-23.310300000000002
217685.0,79.323099999999997,2425.3099999999999,2497.3000000000002,2437.9400000000001,-16.238499999999998,-3.4668299999999999,-18.548100000000002
217686.0,73.967399999999998,1885.2,1962.28,1904.4300000000001,-4.1249500000000001,-1.64327,-13.937799999999999
217687.0,71.903300000000002,-1711.1800000000001,-1636.76,-1689.3399999999999,-6.67035,0.40137499999999998,-14.6776
217688.0,63.721800000000002,908.59400000000005,965.41300000000001,925.86500000000001,-19.718800000000002,-9.5896699999999999,-4.9251699999999996
217689.0,51.322299999999998,448.15499999999997,492.60500000000002,464.62200000000001,-18.4953,-5.0880900000000002,2.24126
217690.0,44.298200000000001,214.04499999999999,252.32499999999999,228.81,-16.700700000000001,-1.57473,0.0158862
217691.0,37.853099999999998,53.455199999999998,81.392200000000003,63.646799999999999,-16.1496,-0.92047699999999999,-4.0107600000000003
217692.0,109.94199999999999,70.847700000000003,7.2109500000000004,67.002700000000004,-2.8134700000000001,-10.991899999999999,51.255099999999999
217693.0,126.334,430.48399999999998,476.72399999999999,433.41899999999998,41.1143,13.2217,52.768900000000002
217694.0,88.754400000000004,1214.6500000000001,1288.1900000000001,1237.8299999999999,19.084399999999999,12.3277,26.379100000000001
217695.0,122.024,176.38200000000001,312.50299999999999,227.453,10.122400000000001,3.38259,10.9975
217696.0,216.55000000000001,304.56700000000001,551.76800000000003,419.39400000000001,-12.4222,-3.4548999999999999,12.7384
217697.0,307.88,50.006500000000003,389.39999999999998,225.53800000000001,-48.049599999999998,-10.306699999999999,19.319700000000001
217698.0,339.42099999999999,-999.30700000000002,-648.36900000000003,-812.55700000000002,-78.818200000000004,-17.496099999999998,32.434800000000003
217699.0,367.01900000000001,-4771.2299999999996,-4476.7600000000002,-4609.6599999999999,-139.16999999999999,-21.321899999999999,57.713299999999997
217700.0,304.96600000000001,-4796.7700000000004,-4643.0500000000002,-4697.5200000000004,-142.27600000000001,-37.424999999999997,57.303100000000001
217701.0,224.76599999999999,-6206.6700000000001,-6171.1800000000003,-6176.04,-113.605,-38.423999999999999,45.685499999999998
217702.0,158.738,-7555.3100000000004,-7539.6099999999997,-7543.1400000000003,-79.842600000000004,-32.601300000000002,29.8947
217703.0,98.285600000000002,-7172.0299999999997,-7163.8299999999999,-7157.9300000000003,-46.439100000000003,-25.111000000000001,19.562799999999999
217704.0,38.647300000000001,-6608.6099999999997,-6596.8400000000001,-6585.5200000000004,-5.6895600000000002,-14.2994,11.3057
217705.0,88.573999999999998,-4521.1599999999999,-4437.71,-4465.3199999999997,25.4192,-10.2197,-7.5454699999999999
217706.0,131.78700000000001,-3407.0,-3266.8400000000001,-3333.02,-14.916399999999999,-22.7624,-11.4953
217707.0,149.43799999999999,-2900.27,-2776.8600000000001,-2846.0,-49.536999999999999,-26.944299999999998,-20.926200000000001
217708.0,101.845,-2826.9200000000001,-2764.8299999999999,-2815.1199999999999,-39.569200000000002,-13.4672,-24.966200000000001
217709.0,74.516000000000005,-2641.8800000000001,-2592.8400000000001,-2640.25,-21.081199999999999,-1.87439,-25.0457
217710.0,67.8001,-2275.1300000000001,-2212.7399999999998,-2263.5900000000001,-6.9128100000000003,1.09996,-19.527899999999999
217711.0,70.233599999999996,-1130.0699999999999,-1062.22,-1107.9200000000001,-18.572600000000001,-3.4451399999999999,-9.4952000000000005
217712.0,64.228099999999998,-824.11400000000003,-770.14999999999998,-804.81399999999996,-24.148299999999999,-5.8551599999999997,-3.1587800000000001
217713.0,49.856699999999996,-624.46699999999998,-581.19500000000005,-608.31700000000001,-18.458100000000002,-3.0956299999999999,0.35983599999999999
217714.0,45.221800000000002,-371.89499999999998,-331.51999999999998,-355.42099999999999,-16.408999999999999,-0.53300499999999995,-0.079542399999999999
217715.0,42.490400000000001,-150.73099999999999,-114.441,-135.56299999999999,-15.9084,0.24306,-4.0585800000000001
217716.0,208.76599999999999,-1215.8299999999999,-1132.0699999999999,-1234.23,59.423400000000001,-37.318100000000001,-81.478899999999996
217717.0,97.500699999999995,-538.57100000000003,-510.92099999999999,-551.35599999999999,41.509999999999998,0.357711,31.912500000000001
217718.0,415.86599999999999,2849.98,3179.8200000000002,3020.46,-162.928,-36.490499999999997,50.621000000000002
217719.0,98.613,5868.3199999999997,5920.9899999999998,5933.6499999999996,38.626100000000001,1.04725,23.4087
217720.0,63.974400000000003,457.73599999999999,516.45100000000002,470.93099999999998,-15.7841,-8.0186200000000003,-10.0936
217721.0,81.034499999999994,373.20400000000001,396.42899999999997,372.26400000000001,-41.4482,-15.7418,5.97682
217722.0,115.84699999999999,3110.77,3212.4499999999998,3194.29,39.015999999999998,0.058346299999999997,3.2649699999999999
217723.0,332.49900000000002,7525.3199999999997,7645.5900000000001,7584.7299999999996,-172.827,-49.9589,29.503399999999999
217724.0,93.631699999999995,175.68299999999999,247.31999999999999,193.881,28.763200000000001,19.482600000000001,18.136700000000001
217725.0,105.006,113.93899999999999,158.494,114.589,31.405999999999999,22.651399999999999,39.036000000000001
217726.0,129.00399999999999,-930.39200000000005,-797.08000000000004,-881.36699999999996,29.0928,9.1443200000000004,8.4100800000000007
217727.0,209.38999999999999,865.53399999999999,1105.3900000000001,978.73500000000001,0.21640200000000001,-6.3194100000000004,13.3047
217728.0,311.92899999999997,548.32100000000003,879.84100000000001,715.06799999999998,-62.376199999999997,-22.1159,24.014299999999999
217729.0,376.14699999999999,2710.9400000000001,3068.0900000000001,2889.5300000000002,-113.59399999999999,-31.9831,36.681899999999999
217730.0,392.93700000000001,-3046.9899999999998,-2677.9099999999999,-2859.8800000000001,-126.339,-25.773700000000002,27.995000000000001
217731.0,424.44400000000002,5007.4700000000003,5246.1099999999997,5138.6199999999999,-203.649,-47.5032,45.135199999999998
217732.0,218.881,7357.2200000000003,7412.9700000000003,7382.6000000000004,-111.21599999999999,-40.297499999999999,34.6083
217733.0,154.28700000000001,7955.46,7995.2799999999997,7982.0100000000002,-73.351100000000002,-34.0,31.4236
217734.0,96.185900000000004,7828.0,7868.8500000000004,7865.7299999999996,-34.6449,-24.5596,27.629899999999999
217735.0,68.5959,7091.5,7135.5600000000004,7142.6499999999996,1.6059399999999999,-11.81,25.662600000000001
217736.0,62.9709,-6501.7399999999998,-6482.4300000000003,-6462.3000000000002,19.830500000000001,-5.5827600000000004,22.5473
217737.0,130.065,4447.2700000000004,4524.96,4527.21,56.693399999999997,6.3888800000000003,17.674499999999998
217738.0,96.2483,2013.1900000000001,2116.5799999999999,2082.73,-9.1376000000000008,-13.323600000000001,-6.9469700000000003
217739.0,101.67700000000001,1599.73,1691.97,1646.8800000000001,-31.4468,-15.8033,-8.9448500000000006
217740.0,88.559899999999999,1319.3199999999999,1407.1700000000001,1348.0799999999999,-19.119499999999999,-10.860099999999999,-11.150600000000001
217741.0,82.3827,869.351,953.21000000000004,890.84900000000005,-10.144399999999999,-6.9034500000000003,-14.6454
217742.0,78.791799999999995,-674.18200000000002,-594.26499999999999,-651.952,-13.102499999999999,-2.49505,-13.784800000000001
217743.0,62.109900000000003,293.447,324.09800000000001,296.38299999999998,-28.6785,-13.142099999999999,-2.1646999999999998
217744.0,72.136399999999995,489.24799999999999,525.17999999999995,492.23500000000001,-33.130000000000003,-12.507099999999999,9.1085799999999999
217745.0,65.561099999999996,382.14999999999998,435.26600000000002,390.548,-21.498999999999999,-8.1455199999999994,9.4309100000000008
217746.0,65.665400000000005,77.031099999999995,136.797,84.821700000000007,-16.848199999999999,-5.8557199999999998,7.9672599999999996
217747.0,68.666300000000007,117.26900000000001,71.144499999999994,130.06,-0.38763300000000001,19.195,15.579700000000001
217748.0,130.50700000000001,135.82400000000001,191.09899999999999,136.952,35.414499999999997,12.141299999999999,57.250799999999998
217749.0,96.313699999999997,-629.81500000000005,-559.81200000000001,-610.10400000000004,23.300999999999998,14.5715,32.152799999999999
217750.0,111.38800000000001,297.12599999999998,418.78699999999998,345.71199999999999,13.677,7.7488200000000003,11.7636
217751.0,200.56,-307.09399999999999,-76.548500000000004,-195.00399999999999,-7.5649199999999999,-2.9637600000000002,7.1401500000000002
217752.0,305.64499999999998,-1300.9400000000001,-960.91800000000001,-1123.9200000000001,-43.708399999999997,-15.0844,8.9924300000000006
217753.0,362.95699999999999,-2224.9699999999998,-1847.4000000000001,-2031.8599999999999,-86.7607,-23.404900000000001,13.845800000000001
217754.0,376.67599999999999,-3632.52,-3338.1599999999999,-3471.5500000000002,-151.477,-33.084400000000002,39.118899999999996
217755.0,300.87200000000001,-6472.1499999999996,-6333.3599999999997,-6386.8100000000004,-146.119,-44.802900000000001,43.775599999999997
217756.0,234.50700000000001,-7430.1800000000003,-7393.1499999999996,-7408.9700000000003,-120.53400000000001,-42.9343,40.1755
217757.0,175.52099999999999,-7309.0600000000004,-7290.6400000000003,-7298.6099999999997,-88.968199999999996,-36.641100000000002,30.429300000000001
217758.0,118.94199999999999,-7787.4799999999996,-7777.8199999999997,-7772.5699999999997,-54.936500000000002,-29.332699999999999,27.929600000000001
217759.0,67.386799999999994,-7473.6599999999999,-7459.6800000000003,-7446.7600000000002,-17.443100000000001,-18.158899999999999,26.432099999999998
217760.0,99.521600000000007,-5181.3699999999999,-5131.3199999999997,-5121.0699999999997,43.586799999999997,0.89674200000000004,18.968499999999999
217761.0,124.752,-3875.98,-3771.6300000000001,-3788.6999999999998,41.253999999999998,-5.7744099999999996,17.878799999999998
217762.0,136.33099999999999,-2628.6500000000001,-2482.6700000000001,-2528.6399999999999,6.9573200000000002,-19.6006,13.842599999999999
217763.0,122.791,-1792.2,-1666.22,-1719.3800000000001,-20.520800000000001,-24.420300000000001,2.84171
217764.0,90.1464,-1501.6800000000001,-1411.21,-1465.47,-17.022500000000001,-15.5145,-10.2455
217765.0,82.537899999999993,-1167.8900000000001,-1085.04,-1145.6199999999999,-10.116400000000001,-7.3076999999999996,-16.641400000000001
217766.0,70.706999999999994,-289.62599999999998,-230.935,-274.904,-25.923999999999999,-4.6497000000000002,-6.3569699999999996
217767.0,79.116699999999994,-179.334,-146.92400000000001,-175.83799999999999,-40.556899999999999,-10.720000000000001,3.20275
217768.0,66.183899999999994,-369.32499999999999,-350.17599999999999,-373.20499999999998,-33.520699999999998,-11.7597,6.7942400000000003
217769.0,51.882199999999997,-505.83100000000002,-474.57600000000002,-505.05599999999998,-20.957599999999999,-8.9219899999999992,7.7892700000000001
217770.0,56.739699999999999,-347.37299999999999,-296.69999999999999,-339.76900000000001,-15.3583,-6.1328699999999996,7.2712000000000003
217771.0,180.59399999999999,1497.02,1595.8299999999999,1499.6500000000001,33.262900000000002,-31.3078,-74.930199999999999
217772.0,98.762100000000004,282.18099999999998,340.642,275.685,30.228100000000001,-3.3263199999999999,32.351799999999997
217773.0,439.59500000000003,3731.4400000000001,4078.3099999999999,3919.0599999999999,-171.625,-49.0349,49.079300000000003
217774.0,90.354299999999995,7400.3999999999996,7451.6499999999996,7460.6800000000003,9.7942800000000005,-10.430199999999999,38.206400000000002
217775.0,90.581699999999998,-297.40899999999999,-224.45400000000001,-265.697,-28.223600000000001,-23.779900000000001,-5.8955799999999998
217776.0,97.924499999999995,208.40199999999999,213.24799999999999,200.809,-52.588900000000002,-19.549800000000001,3.0506000000000002
217777.0,146.71199999999999,4546.6800000000003,4639.5900000000001,4633.5500000000002,61.331000000000003,10.2538,24.609500000000001
217778.0,347.23700000000002,5899.25,6018.5900000000001,5959.2399999999998,-179.00399999999999,-59.511600000000001,32.353700000000003
217779.0,110.27200000000001,-679.15999999999997,-613.47699999999998,-657.57500000000005,32.054200000000002,24.4604,36.148600000000002
217780.0,111.536,-512.62900000000002,-453.791,-511.05399999999997,28.786300000000001,18.027899999999999,43.234000000000002
217781.0,121.599,365.80000000000001,470.86900000000003,417.06299999999999,37.624400000000001,18.3474,20.398099999999999
217782.0,181.739,-1126.8699999999999,-921.15599999999995,-1019.08,14.938000000000001,-0.51543099999999997,14.091200000000001
217783.0,291.80399999999997,504.66899999999998,819.88499999999999,672.63599999999997,-49.670499999999997,-21.2118,24.292400000000001
217784.0,377.08800000000002,725.66399999999999,1088.75,917.52599999999995,-108.952,-35.027500000000003,36.171900000000001
217785.0,411.34800000000001,-2378.3499999999999,-1987.5599999999999,-2169.8000000000002,-127.46599999999999,-34.6265,26.7959
217786.0,443.91300000000001,5156.7700000000004,5402.5799999999999,5294.6099999999997,-212.24700000000001,-63.479500000000002,37.783099999999997
217787.0,251.34399999999999,8181.25,8236.5,8208.0100000000002,-127.593,-48.6432,40.603900000000003
217788.0,196.822,8461.2099999999991,8499.2199999999993,8486.4799999999996,-95.114999999999995,-42.628700000000002,40.922199999999997
217789.0,142.11600000000001,8467.6800000000003,8504.6100000000006,8500.2199999999993,-59.488300000000002,-33.133299999999998,41.092700000000001
217790.0,104.098,8124.7399999999998,8168.0600000000004,8169.8100000000004,-27.254799999999999,-22.592600000000001,41.315300000000001
217791.0,75.599800000000002,-7763.0600000000004,-7749.1999999999998,-7728.4099999999999,-9.5091999999999999,-15.7258,35.542200000000001
217792.0,116.91800000000001,6165.9899999999998,6233.21,6242.1800000000003,42.011400000000002,0.67865600000000004,32.514499999999998
217793.0,136.202,3082.04,3192.71,3171.27,48.941000000000003,12.4633,13.726800000000001
217794.0,115.12,1750.26,1867.8399999999999,1836.3199999999999,26.569900000000001,1.1585700000000001,2.50983
217795.0,113.73399999999999,729.89099999999996,851.44000000000005,809.16200000000003,18.042300000000001,-13.229799999999999,-1.9161600000000001
217796.0,107.10599999999999,32.896799999999999,147.22999999999999,94.647999999999996,0.71996899999999997,-22.132000000000001,-7.6493399999999996
217797.0,123.652,89.911500000000004,218.53800000000001,150.23099999999999,-20.319299999999998,-23.133500000000002,-2.6675900000000001
217798.0,93.620400000000004,-190.93100000000001,-166.63,-188.774,-47.602699999999999,-21.7865,-0.045076499999999999
217799.0,76.288700000000006,472.35500000000002,493.85500000000002,470.59800000000001,-39.081600000000002,-14.005699999999999,6.9821600000000004
217800.0,69.211600000000004,422.392,475.82900000000001,429.24200000000002,-24.6708,-7.0217900000000002,9.6611799999999999
217801.0,81.654399999999995,111.262,190.12200000000001,122.655,-16.686499999999999,-1.64839,11.161899999999999
217802.0,63.655799999999999,74.707899999999995,26.916399999999999,88.088399999999993,-7.5720900000000002,7.4746600000000001,14.2583
217803.0,121.06399999999999,67.1785,134.232,70.540099999999995,25.877400000000002,8.8585899999999995,52.058
217804.0,108.999,951.13800000000003,1023.51,970.65999999999997,22.494900000000001,15.0891,42.713299999999997
217805.0,110.015,-20.1555,80.251599999999996,26.1936,21.9544,13.578799999999999,29.029399999999999
217806.0,173.517,374.11700000000002,571.44500000000005,479.21899999999999,8.2476199999999995,2.1325500000000002,14.669
217807.0,288.80799999999999,435.36900000000003,761.02499999999998,609.57799999999997,-30.276399999999999,-12.660299999999999,13.0527
217808.0,365.68000000000001,-565.351,-181.44399999999999,-358.88200000000001,-81.108999999999995,-26.384799999999998,19.565000000000001
217809.0,389.411,-4853.3100000000004,-4550.4499999999998,-4681.1199999999999,-154.84700000000001,-47.4572,35.245100000000001
217810.0,313.63200000000001,-5073.3199999999997,-4935.3699999999999,-4987.5200000000004,-152.374,-53.933300000000003,42.545699999999997
217811.0,259.76900000000001,-6635.0900000000001,-6591.1000000000004,-6613.2399999999998,-134.31,-48.890599999999999,39.748800000000003
217812.0,212.029,-8271.9400000000005,-8251.5100000000002,-8261.8400000000001,-108.68000000000001,-42.850299999999997,35.122500000000002
217813.0,162.88399999999999,-8266.0799999999999,-8258.7000000000007,-8254.2399999999998,-78.2303,-36.113599999999998,37.199199999999998
217814.0,114.46899999999999,-8145.6499999999996,-8134.5600000000004,-8122.8599999999997,-45.648600000000002,-26.4297,38.1524
217815.0,82.762699999999995,-6902.6300000000001,-6874.8599999999997,-6850.7299999999996,24.991399999999999,-4.7325299999999997,31.009699999999999
217816.0,119.508,-5439.8000000000002,-5381.5799999999999,-5369.1199999999999,50.046500000000002,3.0274100000000002,28.696200000000001
217817.0,143.20699999999999,-3924.9400000000001,-3817.27,-3831.6700000000001,50.580199999999998,4.7452100000000002,28.954899999999999
217818.0,142.93799999999999,-2568.3099999999999,-2430.6700000000001,-2465.0599999999999,35.149700000000003,-4.1285800000000004,20.652200000000001
217819.0,135.99100000000001,-1351.6900000000001,-1209.3699999999999,-1257.6900000000001,23.8399,-17.663900000000002,6.8304
217820.0,134.30199999999999,-484.71199999999999,-338.95400000000001,-404.96199999999999,6.41364,-25.062200000000001,-3.9942799999999998
217821.0,102.5,384.24000000000001,458.76600000000002,411.75599999999997,-41.9313,-17.9772,0.66818900000000003
217822.0,96.011799999999994,226.648,247.16,225.99700000000001,-51.484499999999997,-16.501999999999999,2.22309
217823.0,74.063299999999998,-190.03899999999999,-192.28,-199.59899999999999,-39.0867,-15.729200000000001,5.3185000000000002
217824.0,51.6051,-433.66300000000001,-416.10000000000002,-438.53399999999999,-23.697299999999998,-11.2852,7.7162100000000002
217825.0,59.232799999999997,-371.51600000000002,-319.47199999999998,-367.18400000000003,-14.619300000000001,-5.2927799999999996,9.6849500000000006
217826.0,159.62799999999999,-1453.3199999999999,-1340.28,-1431.9300000000001,10.2948,-26.9742,-63.6751
217827.0,109.08,-394.70999999999998,-314.18099999999998,-397.90499999999997,19.0717,-1.2039299999999999,36.744500000000002
217828.0,433.40899999999999,2040.5599999999999,2393.1100000000001,2245.6500000000001,-158.86000000000001,-55.148699999999998,54.659399999999998
217829.0,103.682,8631.6800000000003,8678.7000000000007,8672.7099999999991,-25.451899999999998,-24.471900000000002,41.006100000000004
217830.0,110.562,-411.54700000000003,-291.61500000000001,-344.35500000000002,-14.0159,-15.6747,-4.3786399999999999
217831.0,124.595,-308.077,-291.73500000000001,-301.59899999999999,-64.651799999999994,-30.4314,-0.98877499999999996
217832.0,108.807,6640.9799999999996,6721.0699999999997,6706.1499999999996,33.1404,-1.3135600000000001,32.130400000000002
217833.0,375.00999999999999,7169.0900000000001,7301.46,7231.54,-190.01300000000001,-66.179100000000005,44.810899999999997
217834.0,121.14400000000001,673.577,752.15300000000002,696.78099999999995,31.02,21.3017,42.966900000000003
217835.0,120.246,540.77099999999996,619.19299999999998,540.40099999999995,20.803999999999998,13.9922,46.167000000000002
217836.0,127.19,-656.01199999999994,-565.53800000000001,-605.51400000000001,43.907400000000003,20.658000000000001,31.3401
217837.0,163.75800000000001,770.19899999999996,938.45899999999995,870.85199999999998,30.369299999999999,7.9898499999999997,27.997900000000001
217838.0,259.35599999999999,70.350300000000004,352.86599999999999,233.38499999999999,-27.892299999999999,-14.803900000000001,36.233699999999999
217839.0,355.97800000000001,1984.95,2338.4299999999998,2187.5999999999999,-87.995800000000003,-34.572099999999999,42.910600000000002
217840.0,408.18900000000002,-2345.0700000000002,-1943.9400000000001,-2118.5799999999999,-110.20699999999999,-39.636299999999999,37.038400000000003
217841.0,455.334,4324.3999999999996,4584.1300000000001,4466.79,-212.38399999999999,-72.550899999999999,42.673999999999999
217842.0,291.33699999999999,7483.7700000000004,7544.3999999999996,7511.5900000000001,-147.73500000000001,-55.839599999999997,49.272300000000001
217843.0,241.917,8700.5699999999997,8738.8700000000008,8722.2299999999996,-119.977,-49.644100000000002,47.750700000000002
217844.0,190.10900000000001,9250.6399999999994,9285.0499999999993,9273.5200000000004,-89.028300000000002,-41.273600000000002,45.9435
217845.0,145.83500000000001,9200.3999999999996,9239.6499999999996,9230.9099999999999,-59.152799999999999,-33.104199999999999,45.493600000000001
217846.0,109.801,-8837.2600000000002,-8826.0100000000002,-8818.1200000000008,-42.274900000000002,-27.712399999999999,37.0274
217847.0,87.543300000000002,7757.6199999999999,7817.1199999999999,7809.5100000000002,5.4443599999999996,-13.509,35.974800000000002
217848.0,137.34299999999999,5056.1599999999999,5160.7200000000003,5132.7200000000003,50.9801,10.5405,25.456700000000001
217849.0,159.131,3378.1799999999998,3495.5599999999999,3455.6599999999999,65.357399999999998,20.2698,14.011100000000001
217850.0,163.21299999999999,1727.1700000000001,1856.8399999999999,1809.8399999999999,65.109899999999996,16.8109,6.9118300000000001
217851.0,134.15899999999999,373.84500000000003,513.61300000000006,457.86099999999999,32.329000000000001,0.87896200000000002,1.7992900000000001
217852.0,155.209,-118.062,57.207099999999997,-18.115100000000002,-4.1167100000000003,-15.882400000000001,5.5174399999999997
217853.0,114.715,-576.51300000000003,-506.39699999999999,-535.71400000000006,-48.758499999999998,-27.713000000000001,-1.0296000000000001
217854.0,98.354100000000003,159.43299999999999,170.93299999999999,155.20500000000001,-51.1768,-22.1996,6.8094099999999997
217855.0,75.066800000000001,357.14800000000002,399.61700000000002,361.68299999999999,-33.715800000000002,-10.2554,9.6210299999999993
217856.0,82.223399999999998,110.044,191.75399999999999,129.839,-16.3399,0.30562899999999998,13.0185
217857.0,64.345699999999994,60.936999999999998,11.2738,71.805899999999994,-11.2339,5.7922599999999997,13.376200000000001
217858.0,117.203,-194.97,-119.71599999999999,-185.94499999999999,14.989100000000001,9.0120100000000001,50.838000000000001
217859.0,112.509,-1131.45,-1049.55,-1112.78,14.131,13.7628,44.584800000000001
217860.0,113.756,-77.935000000000002,14.734400000000001,-37.078000000000003,26.004300000000001,13.495699999999999,36.0306
217861.0,159.21899999999999,-343.59899999999999,-176.80199999999999,-250.20099999999999,22.983899999999998,7.3775399999999998,29.6463
217862.0,261.23599999999999,-969.87,-676.08500000000004,-805.40899999999999,-10.0344,-6.8659499999999998,30.331900000000001
217863.0,350.83699999999999,-1633.6500000000001,-1259.1700000000001,-1422.47,-62.587499999999999,-26.230899999999998,34.240499999999997
217864.0,396.74400000000003,-2925.75,-2600.79,-2740.5900000000001,-144.83099999999999,-55.207299999999996,43.292099999999998
217865.0,337.03800000000001,-5909.4499999999998,-5748.8199999999997,-5821.3299999999999,-158.94200000000001,-58.844499999999996,51.666499999999999
217866.0,291.91399999999999,-7247.2700000000004,-7191.0200000000004,-7222.7299999999996,-150.21000000000001,-53.923699999999997,46.243699999999997
217867.0,252.53,-7674.7700000000004,-7652.0299999999997,-7664.2399999999998,-130.37100000000001,-48.857900000000001,41.758000000000003
217868.0,208.68799999999999,-8775.1700000000001,-8768.4300000000003,-8767.6499999999996,-104.29000000000001,-43.166800000000002,41.954700000000003
217869.0,160.75399999999999,-9123.6200000000008,-9115.8099999999995,-9111.8299999999999,-75.249600000000001,-35.220799999999997,40.9268
217870.0,74.245900000000006,-8180.0900000000001,-8158.7399999999998,-8149.0200000000004,-9.7729400000000002,-18.228000000000002,34.015599999999999
217871.0,76.422700000000006,-7330.1999999999998,-7292.6599999999999,-7286.4099999999999,18.867699999999999,-6.9115200000000003,31.3401
217872.0,109.03,-6026.2399999999998,-5960.2200000000003,-5964.8100000000004,41.398000000000003,3.29121,29.647099999999998
217873.0,146.40199999999999,-4417.8900000000003,-4323.4499999999998,-4343.6000000000004,62.811799999999998,11.7639,24.227499999999999
217874.0,162.09200000000001,-2774.2800000000002,-2648.8200000000002,-2691.0700000000002,65.668499999999995,13.3794,13.8409
217875.0,156.41999999999999,-1238.3299999999999,-1075.28,-1141.2,37.201300000000003,1.0260800000000001,6.6180500000000002
217876.0,147.66,450.53800000000001,590.83000000000004,530.18899999999996,-39.782499999999999,-26.296600000000002,6.5654399999999997
217877.0,131.172,558.46900000000005,634.33299999999997,600.77700000000004,-58.100900000000003,-29.826000000000001,4.9808599999999998
217878.0,98.275499999999994,300.29599999999999,309.93799999999999,301.01299999999998,-49.928400000000003,-25.537400000000002,6.7450200000000002
217879.0,68.102000000000004,-160.66399999999999,-155.74100000000001,-170.36799999999999,-33.798299999999998,-17.2867,7.0291300000000003
217880.0,48.518999999999998,-320.399,-283.46499999999997,-317.42899999999997,-14.799799999999999,-6.9516900000000001,9.8103300000000004
217881.0,148.59299999999999,1294.45,1420.8299999999999,1331.3,-10.8108,-22.284099999999999,-50.223599999999998
217882.0,126.389,406.90899999999999,504.73500000000001,405.48099999999999,10.187799999999999,2.3757100000000002,44.475700000000003
217883.0,402.06,2762.6100000000001,3112.3800000000001,2981.3200000000002,-129.40199999999999,-54.859900000000003,53.8949
217884.0,139.32499999999999,9576.5699999999997,9615.4599999999991,9596.2199999999993,-56.584699999999998,-34.940899999999999,40.862200000000001
217885.0,144.98699999999999,496.09800000000001,650.50900000000001,582.32399999999996,29.4054,11.726100000000001,4.1360099999999997
217886.0,124.05500000000001,-643.63300000000004,-587.52800000000002,-620.07600000000002,-62.206699999999998,-21.599799999999998,-0.13894200000000001
217887.0,86.9101,8020.8599999999997,8086.1899999999996,8052.5200000000004,-1.92719,-16.8003,34.126199999999997
217888.0,404.39100000000002,4908.0200000000004,5071.7700000000004,4980.1199999999999,-200.67500000000001,-73.244500000000002,46.265500000000003
217889.0,124.65000000000001,-130.65700000000001,-35.926000000000002,-108.309,22.467400000000001,16.7408,44.0685
217890.0,128.852,-154.727,-64.295400000000001,-156.732,13.183400000000001,12.7082,49.104399999999998
217891.0,128.935,924.81600000000003,1021.1,975.03700000000003,40.6967,15.425800000000001,36.441899999999997
217892.0,163.16499999999999,-797.65300000000002,-649.79899999999998,-703.19799999999998,38.287100000000002,10.5611,41.1235
217893.0,233.268,417.858,661.54899999999998,572.18700000000001,-4.1428000000000003,-7.4598399999999998,53.545699999999997
217894.0,320.85399999999998,184.14099999999999,509.94200000000001,389.04500000000002,-57.320300000000003,-30.069500000000001,54.784300000000002
217895.0,392.25299999999999,-1686.8599999999999,-1287.96,-1451.0,-81.784599999999998,-42.327800000000003,50.856699999999996
217896.0,447.85300000000001,3951.3000000000002,4233.4499999999998,4107.6499999999996,-198.51499999999999,-77.061700000000002,39.120600000000003
217897.0,334.36399999999998,7724.8900000000003,7804.1300000000001,7752.4399999999996,-170.803,-62.1554,51.098399999999998
217898.0,281.69999999999999,8661.7000000000007,8702.9200000000001,8675.2399999999998,-144.392,-53.861499999999999,47.539900000000003
217899.0,228.37200000000001,9318.8199999999997,9349.3999999999996,9328.6800000000003,-112.767,-47.242899999999999,46.826000000000001
217900.0,185.19800000000001,9631.9200000000001,9664.6800000000003,9646.5400000000009,-85.544600000000003,-42.107900000000001,45.525399999999998
217901.0,151.93100000000001,-9480.7000000000007,-9474.8099999999995,-9476.6900000000005,-70.031899999999993,-37.518599999999999,37.056899999999999
217902.0,103.179,9019.2000000000007,9068.8099999999995,9043.75,-28.789999999999999,-26.263000000000002,37.611899999999999
217903.0,101.351,6932.1000000000004,7020.5600000000004,6976.3199999999997,22.5137,-6.0083500000000001,30.408100000000001
217904.0,136.14400000000001,5439.25,5547.3800000000001,5496.2399999999998,49.481499999999997,9.3553800000000003,26.770199999999999
217905.0,174.643,3669.1300000000001,3791.6199999999999,3736.5799999999999,73.079499999999996,24.916499999999999,21.0153
217906.0,179.57499999999999,1942.77,2086.6700000000001,2025.6900000000001,68.950900000000004,24.499500000000001,13.332599999999999
217907.0,163.06700000000001,-1488.1099999999999,-1318.5899999999999,-1383.9100000000001,35.945700000000002,11.883800000000001,10.9716
217908.0,114.416,-433.31,-310.79899999999998,-366.75200000000001,-23.8504,-4.7970800000000002,3.1945000000000001
217909.0,118.31,-338.85599999999999,-319.00999999999999,-338.05399999999997,-61.264200000000002,-27.382200000000001,6.0387399999999998
217910.0,100.506,20.916,50.127899999999997,20.923300000000001,-49.516399999999997,-23.4116,9.1007700000000007
217911.0,77.494900000000001,84.224000000000004,143.64500000000001,94.428299999999993,-27.4314,-10.635,11.2555
217912.0,66.049000000000007,56.123899999999999,14.279400000000001,78.754199999999997,-8.3114299999999997,10.6008,14.236800000000001
217913.0,120.685,-198.124,-117.741,-184.58099999999999,7.0734899999999996,10.0192,53.408799999999999
217914.0,113.283,473.67000000000002,563.85599999999999,493.86099999999999,4.5335799999999997,12.832100000000001,43.039000000000001
217915.0,106.429,-573.75599999999997,-481.25599999999997,-534.31799999999998,18.672799999999999,11.0327,33.923200000000001
217916.0,151.999,-17.9649,130.928,64.976100000000002,26.056699999999999,8.1491900000000008,37.276800000000001
217917.0,240.91999999999999,385.04899999999998,645.73400000000004,530.78999999999996,7.7537399999999996,-2.7605900000000001,47.025399999999998
217918.0,328.54199999999997,-232.72900000000001,119.953,-30.847000000000001,-35.928899999999999,-24.4998,52.68
217919.0,396.03100000000001,-3833.5799999999999,-3482.1300000000001,-3625.5999999999999,-123.209,-59.929000000000002,47.775500000000001
217920.0,358.00999999999999,-3948.7800000000002,-3739.9200000000001,-3839.5900000000001,-158.05000000000001,-65.040999999999997,50.9953
217921.0,324.32999999999998,-5826.5200000000004,-5737.4499999999998,-5794.6099999999997,-165.44900000000001,-59.737699999999997,45.6601
217922.0,288.31,-8061.8699999999999,-8031.2700000000004,-8055.8000000000002,-151.053,-52.818199999999997,42.875900000000001
217923.0,243.66300000000001,-8705.5799999999999,-8701.5200000000004,-8707.9500000000007,-125.24299999999999,-47.551600000000001,42.811999999999998
217924.0,199.47900000000001,-9218.4300000000003,-9213.6800000000003,-9219.0,-98.674099999999996,-43.037599999999998,40.823500000000003
217925.0,107.121,-9292.0400000000009,-9278.5799999999999,-9282.2299999999996,-40.8095,-29.505099999999999,35.221899999999998
217926.0,74.882800000000003,-8541.4599999999991,-8515.1100000000006,-8525.0,-12.9968,-20.987300000000001,32.902200000000001
217927.0,71.175200000000004,-7614.6400000000003,-7569.8100000000004,-7587.8500000000004,11.5784,-11.6572,30.1662
217928.0,100.32599999999999,-6461.1300000000001,-6397.0799999999999,-6421.4799999999996,39.359299999999998,0.822075,27.575199999999999
217929.0,143.80799999999999,-4841.8500000000004,-4756.9499999999998,-4788.1899999999996,65.6845,16.217300000000002,21.736799999999999
217930.0,165.13399999999999,-3076.2399999999998,-2952.5300000000002,-2999.54,67.016099999999994,22.374400000000001,14.083399999999999
217931.0,161.61199999999999,-221.02099999999999,-39.368699999999997,-112.589,-12.1229,-1.4756899999999999,14.2943
217932.0,153.92400000000001,511.52100000000002,653.27499999999998,591.91600000000005,-49.328699999999998,-15.2995,13.2836
217933.0,121.38800000000001,630.72299999999996,691.45299999999997,659.851,-56.664400000000001,-25.736699999999999,10.7645
217934.0,100.06699999999999,323.435,343.012,323.59699999999998,-49.017899999999997,-27.4773,7.3012800000000002
217935.0,63.037100000000002,-18.747800000000002,3.6847599999999998,-21.547599999999999,-26.322900000000001,-19.1614,8.5567100000000007
217936.0,147.018,-1775.5599999999999,-1638.8699999999999,-1727.55,-30.0397,-16.058900000000001,-35.156700000000001
217937.0,146.27000000000001,-236.804,-121.178,-236.298,2.3966500000000002,4.1487299999999996,51.687600000000003
217938.0,356.16800000000001,1320.1199999999999,1651.3699999999999,1545.5,-89.951099999999997,-48.995600000000003,56.310699999999997
217939.0,174.995,9724.7199999999993,9757.6399999999994,9719.3400000000001,-79.316500000000005,-41.804400000000001,41.7044
217940.0,161.33099999999999,1709.97,1858.79,1774.4100000000001,49.253900000000002,24.659800000000001,8.4865200000000005
217941.0,111.358,-223.833,-130.38499999999999,-177.279,-33.456899999999997,-12.8203,25.819299999999998
217942.0,98.340699999999998,8877.25,8931.3600000000006,8868.9599999999991,-27.910499999999999,-26.111599999999999,24.7896
217943.0,405.00200000000001,5638.4499999999998,5838.2399999999998,5744.4899999999998,-188.06299999999999,-76.451599999999999,58.9178
217944.0,125.404,1117.0799999999999,1218.3699999999999,1137.6400000000001,14.2286,15.159000000000001,44.082500000000003
217945.0,135.601,830.69200000000001,927.38099999999997,828.86300000000006,8.5658200000000004,12.627599999999999,52.1539
217946.0,117.334,-68.110100000000003,33.8262,-20.9955,30.557600000000001,9.7695299999999996,30.9377
217947.0,152.75299999999999,1392.79,1540.6300000000001,1484.9300000000001,28.793700000000001,2.8395999999999999,36.9542
217948.0,221.75200000000001,479.63600000000002,707.16899999999998,628.57000000000005,0.93433999999999995,-8.9285399999999999,54.366300000000003
217949.0,289.35599999999999,1893.3199999999999,2191.2600000000002,2094.25,-33.960599999999999,-26.1539,54.589300000000001
217950.0,362.14600000000002,-1986.76,-1612.1600000000001,-1748.6800000000001,-52.0642,-41.485599999999998,57.815899999999999
217951.0,406.77600000000001,3013.8899999999999,3305.9699999999998,3195.1799999999998,-160.71299999999999,-71.692499999999995,49.446300000000001
217952.0,375.37099999999998,6277.5699999999997,6394.6199999999999,6328.1400000000003,-184.33799999999999,-73.0197,64.876400000000004
217953.0,329.07100000000003,8093.3199999999997,8155.9300000000003,8108.3400000000001,-165.88900000000001,-65.150999999999996,57.127899999999997
217954.0,262.98899999999998,9220.2000000000007,9254.3999999999996,9218.5599999999995,-129.61500000000001,-54.522199999999998,53.592700000000001
217955.0,216.93799999999999,9709.5,9738.6599999999999,9705.4899999999998,-103.27200000000001,-48.148800000000001,48.746600000000001
217956.0,186.10599999999999,-9519.4200000000001,-9516.1700000000001,-9533.4400000000005,-88.572100000000006,-44.18,40.7926
217957.0,133.048,9444.5200000000004,9485.0400000000009,9436.4799999999996,-54.240299999999998,-34.0154,33.529800000000002
217958.0,87.583299999999994,7794.0100000000002,7868.21,7792.1199999999999,-5.8667299999999996,-17.9267,17.8278
217959.0,97.372399999999999,6612.8900000000003,6710.25,6625.1800000000003,12.3932,-5.3539500000000002,12.919600000000001
217960.0,125.544,5222.1000000000004,5339.5600000000004,5250.1499999999996,35.323999999999998,13.7494,7.3474599999999999
217961.0,169.726,3447.3699999999999,3581.3400000000001,3492.5799999999999,64.311400000000006,28.611699999999999,1.47966
217962.0,151.726,-2848.29,-2714.4200000000001,-2788.0300000000002,48.798299999999998,27.9298,4.0880299999999998
217963.0,127.43000000000001,483.34399999999999,622.12199999999996,552.51099999999997,1.86951,6.90611,23.382999999999999
217964.0,107.988,-394.16000000000003,-345.33699999999999,-372.96300000000002,-45.682200000000002,-25.3918,23.582699999999999
217965.0,111.24299999999999,-229.56899999999999,-192.81299999999999,-218.602,-46.640500000000003,-32.982100000000003,22.490100000000002
217966.0,99.025800000000004,-30.1875,6.0120399999999998,-24.740300000000001,-39.281599999999997,-31.512899999999998,18.751899999999999
217967.0,67.749799999999993,70.501599999999996,26.744700000000002,92.066999999999993,-8.3970699999999994,16.599799999999998,8.7267100000000006
217968.0,126.553,-436.69999999999999,-351.14299999999997,-420.08100000000002,0.97382599999999997,10.1591,56.358199999999997
217969.0,115.77800000000001,-1495.1800000000001,-1400.72,-1473.21,-0.73702999999999996,12.451499999999999,43.232199999999999
217970.0,98.665999999999997,-587.25400000000002,-493.97399999999999,-551.31100000000004,11.2712,8.4934999999999992,28.8508
217971.0,137.98500000000001,-908.19600000000003,-764.16899999999998,-834.76999999999998,17.052700000000002,5.4883499999999996,28.9664
217972.0,221.00399999999999,-1428.21,-1187.5899999999999,-1298.1700000000001,2.7275299999999998,-4.5944099999999999,41.785600000000002
217973.0,299.15699999999998,-1785.0,-1463.8800000000001,-1594.8299999999999,-24.474299999999999,-24.691500000000001,50.5227
217974.0,382.85700000000003,-2032.8299999999999,-1671.8299999999999,-1800.1600000000001,-87.891800000000003,-58.0137,65.437100000000001
217975.0,363.714,-4617.3800000000001,-4357.7399999999998,-4465.0,-134.32300000000001,-66.703599999999994,67.683000000000007
217976.0,348.70999999999998,-5905.1899999999996,-5754.0299999999997,-5835.3999999999996,-163.369,-67.759799999999998,59.403100000000002
217977.0,323.37700000000001,-6737.0699999999997,-6670.7200000000003,-6718.0900000000001,-163.23099999999999,-63.762099999999997,54.5869
217978.0,276.935,-8403.8199999999997,-8392.5400000000009,-8414.3400000000001,-140.24299999999999,-56.2727,51.096699999999998
217979.0,229.93100000000001,-9274.3600000000006,-9271.1200000000008,-9289.2299999999996,-114.03,-49.571300000000001,45.490499999999997
217980.0,140.47,-9424.6800000000003,-9418.3500000000004,-9439.1800000000003,-61.9816,-37.486499999999999,34.8748
217981.0,95.369900000000001,-9159.3999999999996,-9144.8299999999999,-9174.0200000000004,-34.945399999999999,-30.0793,26.321300000000001
217982.0,66.611000000000004,-8421.5699999999997,-8389.2399999999998,-8430.9899999999998,-12.581899999999999,-22.5002,18.303599999999999
217983.0,60.070999999999998,-7342.4499999999998,-7290.8500000000004,-7341.3400000000001,4.5724200000000002,-12.4414,12.582700000000001
217984.0,77.459400000000002,-6172.5699999999997,-6105.9700000000003,-6159.0500000000002,26.6416,3.6175700000000002,6.1480800000000002
217985.0,130.66499999999999,-4655.04,-4568.3400000000001,-4627.3999999999996,56.784799999999997,22.232700000000001,-3.2950400000000002
217986.0,155.18100000000001,-1325.51,-1157.74,-1237.5899999999999,8.5161599999999993,16.611000000000001,25.224399999999999
217987.0,153.756,-300.62299999999999,-144.97499999999999,-215.27699999999999,-23.239699999999999,-1.79443,35.518000000000001
217988.0,130.36000000000001,308.84800000000001,412.19200000000001,364.84899999999999,-38.751600000000003,-18.939900000000002,33.584600000000002
217989.0,115.036,433.60300000000001,491.61599999999999,458.81099999999998,-44.5991,-30.389299999999999,25.5412
217990.0,103.395,239.00800000000001,279.44799999999998,247.316,-39.443199999999997,-33.858899999999998,20.1281
217991.0,150.19300000000001,1046.05,1187.75,1101.6900000000001,-45.530500000000004,-8.4858700000000002,-16.6738
217992.0,167.71000000000001,563.28300000000002,695.04899999999998,564.10400000000004,-4.2745100000000003,5.5612399999999997,59.789200000000001
217993.0,333.471,2738.8400000000001,3047.0900000000001,2969.6700000000001,-55.513800000000003,-43.6402,79.781800000000004
217994.0,210.93199999999999,9935.7099999999991,9972.3600000000006,9916.3999999999996,-86.087000000000003,-56.480200000000004,58.497399999999999
217995.0,139.399,2911.4699999999998,3034.3099999999999,2950.46,39.896799999999999,5.3786100000000001,30.275400000000001
217996.0,124.08499999999999,966.37699999999995,1072.5799999999999,1007.02,-13.271699999999999,-12.7864,43.830100000000002
217997.0,118.22499999999999,8943.4799999999996,9000.9599999999991,8927.5499999999993,-25.396699999999999,-42.9679,26.0166
217998.0,377.54199999999997,3693.5700000000002,3918.1300000000001,3841.3899999999999,-146.655,-70.974800000000002,89.1083
217999.0,117.55,190.66,289.03399999999999,213.69,9.5010899999999996,15.1577,40.479399999999998
218000.0,140.542,120.50700000000001,221.92099999999999,119.489,6.0465900000000001,12.737,54.058100000000003
218001.0,103.70699999999999,1310.5799999999999,1406.21,1356.75,20.1067,6.54251,29.164100000000001
218002.0,149.88999999999999,-242.31800000000001,-101.374,-155.04300000000001,15.140000000000001,-1.7977399999999999,46.863
218003.0,231.66,1163.8800000000001,1376.8399999999999,1315.4100000000001,1.5167600000000001,-12.377800000000001,75.620699999999999
218004.0,286.31,748.54300000000001,1024.3099999999999,956.09799999999996,-13.369300000000001,-26.952200000000001,76.088099999999997
218005.0,338.50299999999999,-2001.53,-1666.22,-1761.96,-29.173300000000001,-36.325400000000002,78.693600000000004
218006.0,368.78199999999998,3272.3499999999999,3561.0900000000001,3475.6399999999999,-114.85899999999999,-62.407400000000003,79.030000000000001
218007.0,388.50200000000001,6375.3800000000001,6536.8500000000004,6473.7600000000002,-166.82499999999999,-79.505600000000001,97.661699999999996
218008.0,374.44200000000001,7656.2200000000003,7763.8699999999999,7704.6899999999996,-169.126,-82.094399999999993,92.117599999999996
218009.0,316.54000000000002,8832.6100000000006,8896.5799999999999,8843.0300000000007,-141.09200000000001,-72.370400000000004,84.124200000000002
218010.0,263.82999999999998,9603.8199999999997,9646.4599999999991,9594.9599999999991,-114.068,-63.241,73.709100000000007
218011.0,218.541,-9620.8199999999997,-9615.1499999999996,-9642.4699999999993,-91.814300000000003,-58.9574,61.695700000000002
218012.0,156.559,9701.5,9743.9200000000001,9679.9799999999996,-54.8842,-50.471899999999998,39.396599999999999
218013.0,107.286,8060.0299999999997,8136.5200000000004,8055.9099999999999,-5.6110600000000002,-35.241999999999997,22.4146
218014.0,109.10899999999999,6877.4200000000001,6972.2299999999996,6888.6700000000001,5.4002400000000002,-27.730599999999999,22.070699999999999
218015.0,115.583,5603.6099999999997,5713.6599999999999,5630.2700000000004,16.270600000000002,-17.869199999999999,23.9391
218016.0,131.91800000000001,4293.1800000000003,4410.3900000000003,4325.75,40.145099999999999,-2.56365,22.848299999999998
218017.0,120.916,-3841.2199999999998,-3740.1999999999998,-3818.29,35.990699999999997,5.9028400000000003,27.179300000000001
218018.0,131.83699999999999,1734.28,1856.1199999999999,1781.03,10.0206,-1.34965,43.740299999999998
218019.0,112.81699999999999,483.94799999999998,572.23299999999995,511.66899999999998,-23.131599999999999,-20.578800000000001,35.292499999999997
218020.0,109.557,180.715,253.40899999999999,200.953,-30.695399999999999,-27.010400000000001,30.357199999999999
218021.0,114.79300000000001,34.976300000000002,99.457899999999995,47.065100000000001,-40.1235,-32.1877,23.9101
218022.0,57.740499999999997,72.5745,35.218899999999998,93.248800000000003,-2.8700800000000002,15.412100000000001,-0.70533800000000002
218023.0,133.06,-431.59199999999998,-340.46300000000002,-413.48099999999999,-4.5834900000000003,9.8425799999999999,58.7913
218024.0,116.815,185.702,283.54399999999998,207.44300000000001,-2.4275799999999998,11.1747,42.169800000000002
218025.0,91.8536,-893.61300000000006,-803.16999999999996,-861.673,8.5716300000000007,7.6740599999999999,24.005099999999999
218026.0,129.935,-415.21499999999997,-280.31200000000001,-347.91899999999998,8.3611799999999992,5.0845399999999996,31.340800000000002
218027.0,206.077,-212.90799999999999,-1.08877,-87.027799999999999,-7.4641500000000001,-5.0658899999999996,52.200000000000003
218028.0,276.346,-928.24099999999999,-651.39300000000003,-734.91999999999996,-18.985299999999999,-24.516999999999999,65.790599999999998
218029.0,371.971,-3566.6399999999999,-3221.1399999999999,-3324.3800000000001,-55.358400000000003,-50.652000000000001,95.0655
218030.0,367.38099999999997,-3226.0599999999999,-2940.3499999999999,-3033.9000000000001,-94.390600000000006,-63.397100000000002,104.13200000000001
218031.0,362.61399999999998,-4753.5299999999997,-4537.0500000000002,-4622.5699999999997,-131.40299999999999,-71.887900000000002,97.506600000000006
218032.0,354.00200000000001,-6977.3800000000001,-6840.6499999999996,-6905.3000000000002,-150.10499999999999,-77.863799999999998,92.1952
218033.0,319.363,-7994.4200000000001,-7936.7399999999998,-7978.5,-142.67500000000001,-74.763599999999997,84.641999999999996
218034.0,271.03800000000001,-8962.0699999999997,-8941.0599999999995,-8973.8999999999996,-120.711,-65.291399999999996,73.323599999999999
218035.0,162.821,-9769.5699999999997,-9766.7000000000007,-9791.5200000000004,-59.523800000000001,-54.6496,46.0747
218036.0,115.866,-9281.1900000000005,-9267.8500000000004,-9297.0900000000001,-30.183299999999999,-48.641599999999997,31.361799999999999
218037.0,91.473100000000002,-8540.3199999999997,-8504.0300000000007,-8547.4899999999998,-10.8148,-40.051299999999998,22.916499999999999
218038.0,87.493200000000002,-7588.1899999999996,-7527.8000000000002,-7584.3400000000001,0.226382,-31.497199999999999,20.412700000000001
218039.0,90.373900000000006,-6371.7200000000003,-6295.29,-6357.2600000000002,10.662699999999999,-21.887,21.935300000000002
218040.0,102.027,-5154.04,-5072.3900000000003,-5138.3800000000001,33.561799999999998,-7.9183199999999996,20.074300000000001
218041.0,136.167,-2505.9200000000001,-2379.71,-2466.0500000000002,10.3103,6.6405799999999999,43.219999999999999
218042.0,143.285,-1507.49,-1377.26,-1458.8900000000001,-9.4302200000000003,-4.0314500000000004,49.063200000000002
218043.0,132.04599999999999,-843.322,-729.60400000000004,-800.65899999999999,-18.7088,-16.051500000000001,43.636899999999997
218044.0,123.913,-386.54500000000002,-290.90800000000002,-356.25799999999998,-29.5166,-24.044,35.773000000000003
218045.0,124.148,-111.723,-30.186699999999998,-93.017300000000006,-40.580300000000001,-30.718900000000001,26.886199999999999
218046.0,155.92500000000001,-2004.3599999999999,-1862.47,-1943.1099999999999,-54.645299999999999,-0.69424600000000003,7.2870799999999996
218047.0,185.36000000000001,-77.062399999999997,64.286199999999994,-81.593500000000006,-10.1403,8.5826899999999995,66.303299999999993
218048.0,336.58800000000002,2241.8699999999999,2542.3699999999999,2467.9699999999998,-46.8797,-44.230600000000003,95.483000000000004
218049.0,235.02799999999999,9990.7099999999991,10047.5,9993.0200000000004,-78.641599999999997,-80.284599999999998,68.919899999999998
218050.0,133.58699999999999,4057.8000000000002,4163.7299999999996,4069.5799999999999,13.716100000000001,-20.1983,44.518500000000003
218051.0,131.517,2271.4000000000001,2382.3899999999999,2289.3099999999999,-5.1238900000000003,-13.366,44.8309
218052.0,140.22999999999999,9052.0400000000009,9113.8700000000008,9048.6599999999999,-9.8091299999999997,-61.596299999999999,36.286499999999997
218053.0,363.637,5682.3500000000004,5927.04,5846.8900000000003,-116.217,-63.7485,104.61799999999999
218054.0,115.736,1334.97,1432.6900000000001,1367.0899999999999,6.3615399999999998,13.503,41.967599999999997
218055.0,138.81899999999999,1083.53,1189.71,1087.3499999999999,2.4761500000000001,10.940200000000001,51.674500000000002
218056.0,107.568,210.18799999999999,297.56900000000002,252.12299999999999,12.261699999999999,6.9720899999999997,41.810400000000001
218057.0,155.964,1988.3,2112.9899999999998,2064.9000000000001,4.99519,-2.0681699999999998,64.221800000000002
218058.0,234.74000000000001,1404.8099999999999,1595.26,1545.6199999999999,-0.93484699999999998,-15.595499999999999,91.453500000000005
218059.0,289.20600000000002,2913.4699999999998,3173.8699999999999,3111.77,-10.8062,-31.071999999999999,91.105599999999995
218060.0,329.274,-2929.0,-2620.2199999999998,-2701.8899999999999,-29.826699999999999,-34.514699999999998,91.989199999999997
218061.0,358.81999999999999,3608.5900000000001,3899.9000000000001,3815.1399999999999,-90.194999999999993,-58.1205,94.618499999999997
218062.0,378.91699999999997,5813.0799999999999,6008.5600000000004,5941.8000000000002,-139.53100000000001,-74.918899999999994,113.599
218063.0,386.50200000000001,7458.9099999999999,7612.4200000000001,7551.3800000000001,-151.58500000000001,-88.193700000000007,114.30200000000001
218064.0,364.03100000000001,8828.0300000000007,8940.4300000000003,8882.5,-143.29499999999999,-90.569199999999995,110.803
218065.0,312.18799999999999,9725.9899999999998,9804.4400000000005,9748.75,-119.136,-86.473699999999994,95.850200000000001
218066.0,244.71600000000001,-9733.1900000000005,-9702.2399999999998,-9725.8099999999995,-80.951800000000006,-85.075800000000001,76.873000000000005
218067.0,167.88300000000001,9701.1299999999992,9753.8899999999994,9695.1499999999996,-35.610300000000002,-71.939300000000003,43.665300000000002
218068.0,132.88200000000001,8003.3999999999996,8077.0299999999997,8009.3100000000004,2.12399,-52.430199999999999,38.193100000000001
218069.0,131.51900000000001,7021.6400000000003,7107.1499999999996,7034.4499999999998,5.6292,-45.878999999999998,38.763500000000001
218070.0,133.05699999999999,6064.1499999999996,6159.7399999999998,6079.6199999999999,6.1702700000000004,-40.104300000000002,40.2804
218071.0,132.41499999999999,5040.3500000000004,5141.75,5052.96,11.649800000000001,-31.112500000000001,41.0732
218072.0,130.416,-4670.8400000000001,-4580.6199999999999,-4674.1800000000003,9.1837700000000009,-25.427,46.057600000000001
218073.0,135.30000000000001,3161.04,3270.48,3178.1999999999998,3.2642000000000002,-14.8299,49.059899999999999
218074.0,124.39400000000001,1432.8399999999999,1543.6300000000001,1447.9200000000001,-7.0496499999999997,-11.8649,36.836599999999997
218075.0,116.014,715.44500000000005,816.58500000000004,730.07799999999997,-16.473400000000002,-14.5421,31.871700000000001
218076.0,130.71199999999999,161.13,272.09100000000001,176.55799999999999,-30.1553,-14.939399999999999,30.819299999999998
218077.0,52.279600000000002,107.90900000000001,81.1126,121.191,7.5213700000000001,18.277100000000001,-10.1808
218078.0,135.21100000000001,-666.63999999999999,-572.04499999999996,-651.00699999999995,-9.6247699999999998,9.6878299999999999,57.760300000000001
218079.0,115.85599999999999,-1721.8099999999999,-1619.5799999999999,-1697.1800000000001,-5.5331400000000004,9.3485700000000005,38.853000000000002
218080.0,93.7346,-775.49300000000005,-691.34199999999998,-741.20699999999999,7.6550599999999998,9.6052599999999995,31.421600000000002
218081.0,130.12799999999999,-1257.8900000000001,-1140.6900000000001,-1196.8800000000001,4.1738099999999996,6.9588900000000002,46.289299999999997
218082.0,195.66300000000001,-2117.6999999999998,-1938.75,-2002.8800000000001,-11.3057,-5.8574200000000003,66.172899999999998
218083.0,266.24599999999998,-2709.0799999999999,-2460.9400000000001,-2528.9899999999998,-21.465199999999999,-26.001000000000001,77.797300000000007
218084.0,359.19099999999997,-2829.7800000000002,-2511.5,-2593.7600000000002,-47.507899999999999,-45.364600000000003,106.747
218085.0,363.40300000000002,-5105.0799999999999,-4820.8800000000001,-4902.3999999999996,-75.087599999999995,-55.473199999999999,117.852
218086.0,364.154,-5940.4499999999998,-5696.0,-5777.8199999999997,-103.57299999999999,-65.593100000000007,117.004
218087.0,367.98500000000001,-6371.0,-6175.2399999999998,-6247.2299999999996,-124.179,-80.6738,115.783
218088.0,356.74799999999999,-8008.7600000000002,-7874.46,-7930.4499999999998,-130.245,-89.603499999999997,113.491
218089.0,314.18599999999998,-9171.4599999999991,-9096.4200000000001,-9135.4500000000007,-116.059,-88.831100000000006,100.67400000000001
218090.0,179.679,-9723.0599999999995,-9707.3099999999995,-9727.7900000000009,-39.968800000000002,-79.046800000000005,52.921500000000002
218091.0,146.87200000000001,-9330.3400000000001,-9300.3999999999996,-9337.1100000000006,-14.766999999999999,-68.916399999999996,42.910899999999998
218092.0,135.13,-8494.7800000000007,-8443.8099999999995,-8501.2700000000004,-3.9807899999999998,-58.045900000000003,41.367400000000004
218093.0,132.857,-7489.8599999999997,-7420.0500000000002,-7492.29,0.39014599999999999,-49.887999999999998,41.3748
218094.0,134.90100000000001,-6606.6000000000004,-6523.1099999999997,-6606.0200000000004,1.97505,-43.471499999999999,43.185200000000002
218095.0,132.78,-5663.0799999999999,-5575.1099999999997,-5664.7200000000003,7.1809500000000002,-36.0443,43.560899999999997
218096.0,133.589,-3770.21,-3671.0700000000002,-3766.0500000000002,0.70183300000000004,-16.332799999999999,50.368699999999997
218097.0,131.94,-2893.1799999999998,-2787.0,-2880.7800000000002,-4.9761100000000003,-13.1183,47.279899999999998
218098.0,125.503,-2013.27,-1904.72,-1999.95,-6.26105,-12.0722,39.502299999999998
218099.0,125.654,-1226.3499999999999,-1115.6500000000001,-1211.6199999999999,-16.448799999999999,-12.086499999999999,35.113900000000001
218100.0,126.051,-559.75,-455.26400000000001,-545.226,-29.319700000000001,-16.5136,30.9909
218101.0,167.52199999999999,797.58100000000002,935.41499999999996,854.78899999999999,-60.1661,6.9629399999999997,29.8475
218102.0,195.65199999999999,700.59100000000001,849.82799999999997,695.81600000000003,-14.9513,9.7976100000000006,69.075100000000006
218103.0,315.149,3914.21,4203.5699999999997,4117.8400000000001,-51.056699999999999,-44.730899999999998,80.044799999999995
218104.0,248.26900000000001,9348.6800000000003,9440.9400000000005,9372.0599999999995,-81.845299999999995,-96.323400000000007,47.630800000000001
218105.0,145.57400000000001,4625.29,4736.5100000000002,4612.71,-10.022500000000001,-33.173200000000001,34.930199999999999
218106.0,137.351,2686.4400000000001,2805.3499999999999,2686.5799999999999,-7.7721099999999996,-16.420100000000001,35.369700000000002
218107.0,174.935,8452.2900000000009,8516.0599999999995,8425.1800000000003,-28.688700000000001,-78.510999999999996,32.203299999999999
218108.0,360.73099999999999,4473.1000000000004,4737.0600000000004,4635.5699999999997,-109.574,-62.623100000000001,98.587999999999994
218109.0,129.179,416.08199999999999,519.12900000000002,453.72899999999998,1.9923500000000001,11.3047,52.0745
218110.0,138.977,248.971,356.55099999999999,259.09300000000002,-0.75371999999999995,9.3058899999999998,53.122999999999998
218111.0,114.316,1754.52,1838.5899999999999,1795.8299999999999,4.2481299999999997,9.7035199999999993,49.767000000000003
218112.0,147.215,413.738,515.82000000000005,477.56599999999997,-5.03409,-1.8075600000000001,67.348200000000006
218113.0,216.333,2012.97,2174.3699999999999,2130.4899999999998,-13.1409,-17.222999999999999,90.366799999999998
218114.0,262.72699999999998,1810.8399999999999,2047.1700000000001,1983.8099999999999,-25.8354,-31.440000000000001,79.926199999999994
218115.0,298.04000000000002,-3039.6199999999999,-2764.6900000000001,-2831.4499999999998,-40.993000000000002,-34.135899999999999,78.748000000000005
218116.0,353.32900000000001,4351.6199999999999,4647.1700000000001,4541.9499999999998,-89.834699999999998,-57.3371,88.402500000000003
218117.0,364.64299999999997,6697.6300000000001,6922.4099999999999,6834.0500000000002,-125.3,-70.618399999999994,103.976
218118.0,361.05900000000003,7447.0500000000002,7636.0699999999997,7556.5799999999999,-133.36799999999999,-82.492000000000004,99.276899999999998
218119.0,353.548,8302.4599999999991,8461.8199999999997,8388.6900000000005,-136.43700000000001,-92.376400000000004,90.298000000000002
218120.0,314.69900000000001,9038.7600000000002,9164.0300000000007,9097.6399999999994,-119.77500000000001,-97.780600000000007,71.949100000000001
218121.0,260.54500000000002,-9133.9300000000003,-9035.4400000000005,-9100.3299999999999,-79.1785,-102.831,57.250599999999999
218122.0,198.14500000000001,9080.1599999999999,9150.9200000000001,9069.1499999999996,-46.893599999999999,-88.182299999999998,33.807499999999997
218123.0,162.00999999999999,7913.5799999999999,7983.25,7886.3000000000002,-20.100300000000001,-69.464399999999998,31.941199999999998
218124.0,156.94999999999999,7181.6899999999996,7264.1899999999996,7159.1099999999997,-17.3399,-61.2592,33.143099999999997
218125.0,154.11500000000001,6362.0600000000004,6456.3199999999997,6343.0799999999999,-15.027799999999999,-53.051600000000001,34.621899999999997
218126.0,149.95599999999999,5540.5200000000004,5644.3500000000004,5524.1400000000003,-11.760300000000001,-43.823900000000002,34.447499999999998
218127.0,145.63300000000001,-5213.0799999999999,-5116.1300000000001,-5231.5200000000004,-13.234,-41.210299999999997,36.795900000000003
218128.0,141.59,3635.7600000000002,3751.71,3629.3699999999999,-9.9939499999999999,-23.524799999999999,35.877000000000002
218129.0,131.54300000000001,1755.29,1873.4400000000001,1761.1099999999999,-4.80844,-11.5817,34.287199999999999
218130.0,124.119,900.22900000000004,1010.9299999999999,909.26300000000003,-9.0538299999999996,-11.5695,33.775399999999998
218131.0,147.05099999999999,203.69999999999999,333.459,219.69900000000001,-20.323799999999999,-6.1478999999999999,41.8491
218132.0,51.471499999999999,110.877,82.697199999999995,110.76900000000001,6.5892600000000003,17.718699999999998,-16.188099999999999
218133.0,133.13499999999999,-555.34799999999996,-458.858,-539.83399999999995,-13.8667,9.1648899999999998,54.289200000000001
218134.0,119.169,27.232500000000002,129.0,57.610500000000002,-9.3990899999999993,10.4633,42.503799999999998
218135.0,106.324,-1206.4100000000001,-1122.9000000000001,-1166.29,2.3025500000000001,10.709099999999999,43.635300000000001
218136.0,122.553,-895.41200000000003,-799.90499999999997,-843.99199999999996,2.4789099999999999,9.0608799999999992,51.315300000000001
218137.0,181.69800000000001,-798.70399999999995,-643.971,-705.78499999999997,-16.333100000000002,-7.5087599999999997,67.936099999999996
218138.0,244.84399999999999,-1730.51,-1511.4100000000001,-1572.3800000000001,-35.7211,-27.332000000000001,71.914400000000001
218139.0,337.91199999999998,-4663.7600000000002,-4361.3800000000001,-4444.0699999999997,-54.2605,-41.142499999999998,94.883899999999997
218140.0,348.01900000000001,-4214.4899999999998,-3936.8299999999999,-4024.5,-78.763800000000003,-50.623100000000001,107.04600000000001
218141.0,350.19499999999999,-5461.8100000000004,-5212.3000000000002,-5299.8500000000004,-97.9328,-60.063600000000001,107.959
218142.0,347.76100000000002,-7226.6499999999996,-7008.6599999999999,-7092.4799999999996,-110.681,-74.456699999999998,102.114
218143.0,346.61200000000002,-7783.4099999999999,-7594.1199999999999,-7674.0100000000002,-118.515,-88.467200000000005,95.626800000000003
218144.0,316.66899999999998,-8536.7700000000004,-8390.1700000000001,-8459.9200000000001,-108.97499999999999,-98.858900000000006,80.003600000000006
218145.0,216.73099999999999,-9166.2299999999996,-9096.2800000000007,-9176.2999999999993,-49.488599999999998,-97.489199999999997,42.477600000000002
218146.0,196.50200000000001,-8632.8600000000006,-8570.9200000000001,-8671.7299999999996,-34.137999999999998,-87.118099999999998,39.125500000000002
218147.0,183.358,-8087.29,-8023.9099999999999,-8132.3599999999997,-27.374600000000001,-78.024600000000007,37.436999999999998
218148.0,172.386,-7541.3000000000002,-7468.9399999999996,-7579.54,-24.275700000000001,-69.363500000000002,36.741799999999998
218149.0,163.32499999999999,-6789.2399999999998,-6706.7299999999996,-6819.71,-20.520099999999999,-60.603400000000001,37.158200000000001
218150.0,153.94,-6019.1000000000004,-5928.6899999999996,-6043.29,-15.8241,-51.493699999999997,36.714500000000001
218151.0,139.01599999999999,-4276.4499999999998,-4173.4300000000003,-4288.4399999999996,-12.2544,-30.170100000000001,37.201300000000003
218152.0,133.31100000000001,-3325.4699999999998,-3217.1300000000001,-3331.2600000000002,-9.4664999999999999,-20.816400000000002,35.608199999999997
218153.0,129.38800000000001,-2405.8899999999999,-2293.9099999999999,-2406.5599999999999,-6.5821199999999997,-13.867100000000001,33.7547
218154.0,128.172,-1495.25,-1381.5699999999999,-1489.1800000000001,-9.8350399999999993,-10.2539,34.402700000000003
218155.0,128.93700000000001,-704.14300000000003,-596.09199999999998,-692.66300000000001,-19.249099999999999,-11.6715,38.893999999999998
218156.0,178.785,-2259.8600000000001,-2131.4099999999999,-2215.8000000000002,-64.976100000000002,13.499000000000001,44.607399999999998
218157.0,204.65799999999999,3.60209,166.91499999999999,9.4320199999999996,-19.769200000000001,6.9611700000000001,70.271199999999993
218158.0,267.92500000000001,2818.9400000000001,3070.71,2984.3499999999999,-43.060400000000001,-36.728999999999999,66.009600000000006
218159.0,279.09199999999998,7759.0200000000004,7884.1999999999998,7785.8100000000004,-95.824100000000001,-99.139099999999999,51.0732
218160.0,165.26499999999999,4101.6999999999998,4227.5,4091.6100000000001,-17.8429,-42.596299999999999,35.205800000000004
218161.0,152.14099999999999,2380.6399999999999,2504.0,2376.1399999999999,-13.200100000000001,-28.013300000000001,38.6374
218162.0,210.19800000000001,7725.7700000000004,7805.3400000000001,7695.9099999999999,-42.122500000000002,-91.435000000000002,37.331299999999999
218163.0,335.70400000000001,5749.5100000000002,6017.1000000000004,5895.0900000000001,-101.07599999999999,-59.3386,76.689899999999994
218164.0,138.79499999999999,1625.1500000000001,1726.54,1658.47,1.9295100000000001,11.637600000000001,60.098999999999997
218165.0,151.077,1182.8299999999999,1293.96,1195.4300000000001,-2.2259799999999998,8.9291,61.812899999999999
218166.0,121.378,722.56799999999998,809.69600000000003,772.22699999999998,-2.8706900000000002,7.7554999999999996,54.149999999999999
218167.0,150.048,2597.75,2684.6999999999998,2655.27,-18.843399999999999,-0.37670500000000001,72.069299999999998
218168.0,193.72200000000001,2126.3499999999999,2245.4099999999999,2224.21,-14.612399999999999,-10.629,90.275499999999994
218169.0,218.858,3683.1399999999999,3872.3299999999999,3829.8000000000002,-19.2729,-24.238800000000001,71.804100000000005
218170.0,255.93199999999999,-3493.8099999999999,-3261.7399999999998,-3313.3800000000001,-31.0688,-27.626000000000001,72.521699999999996
218171.0,322.85599999999999,3935.4499999999998,4214.0200000000004,4100.9099999999999,-82.717500000000001,-51.414000000000001,75.044200000000004
218172.0,341.41000000000003,5482.6400000000003,5728.46,5609.8100000000004,-115.857,-65.939099999999996,77.264899999999997
218173.0,329.68400000000003,6535.6700000000001,6750.4200000000001,6645.0500000000002,-119.307,-75.361800000000002,69.178200000000004
218174.0,321.81200000000001,7222.9300000000003,7415.6300000000001,7317.9700000000003,-120.374,-85.621300000000005,58.4499
218175.0,307.983,7596.0600000000004,7759.04,7665.46,-114.81399999999999,-95.158100000000005,51.876100000000001
218176.0,290.88900000000001,-7631.4799999999996,-7475.1300000000001,-7600.1700000000001,-92.166399999999996,-100.765,52.099800000000002
218177.0,247.87100000000001,7833.3800000000001,7925.8599999999997,7821.8100000000004,-71.405199999999994,-97.713399999999993,50.803899999999999
218178.0,189.31800000000001,7154.0100000000002,7243.8100000000004,7125.1499999999996,-26.34,-81.407799999999995,28.2242
218179.0,182.809,6538.2600000000002,6644.1099999999997,6516.6400000000003,-24.212499999999999,-70.931299999999993,29.468499999999999
218180.0,177.577,5831.9799999999996,5947.29,5814.9799999999996,-23.368200000000002,-61.4788,31.6815
218181.0,170.154,4974.1599999999999,5095.8299999999999,4960.2399999999998,-19.259799999999998,-51.601799999999997,32.453800000000001
218182.0,163.55500000000001,-4663.8599999999997,-4549.2600000000002,-4675.5900000000001,-20.488499999999998,-48.981099999999998,35.020800000000001
218183.0,159.64099999999999,3258.0500000000002,3384.3699999999999,3250.6999999999998,-16.075299999999999,-34.715299999999999,37.213099999999997
218184.0,144.024,1552.73,1672.5,1551.8199999999999,-10.560499999999999,-23.075299999999999,38.103499999999997
218185.0,136.06100000000001,818.30799999999999,930.23400000000004,820.60400000000004,-11.5924,-21.769500000000001,38.348799999999997
218186.0,159.214,186.374,321.303,199.77000000000001,-19.116599999999998,-13.101900000000001,48.853299999999997
218187.0,43.846299999999999,58.192900000000002,23.126300000000001,57.135300000000001,-3.7699500000000001,5.7625299999999999,-13.9826
218188.0,136.214,-748.726,-648.54899999999998,-726.42600000000004,-19.583600000000001,9.4424799999999998,54.275399999999998
218189.0,127.31,-1899.8299999999999,-1801.3099999999999,-1868.4300000000001,-8.9549000000000003,11.0504,51.646700000000003
218190.0,113.669,-1164.8,-1078.3299999999999,-1123.0,-0.62962300000000004,10.462199999999999,48.240200000000002
218191.0,127.27200000000001,-1735.6600000000001,-1649.1400000000001,-1686.3599999999999,-3.7484700000000002,10.4933,58.235999999999997
218192.0,161.13300000000001,-2594.3499999999999,-2478.8099999999999,-2517.5799999999999,-23.4072,-5.6005399999999996,67.956299999999999
218193.0,207.363,-3309.8200000000002,-3141.73,-3166.21,-29.258500000000002,-22.217099999999999,68.827600000000004
218194.0,303.88799999999998,-3189.1599999999999,-2908.3600000000001,-3005.0900000000001,-49.4236,-34.696599999999997,82.390100000000004
218195.0,322.36099999999999,-5314.0,-5040.96,-5146.5600000000004,-73.227099999999993,-48.515999999999998,89.259399999999999
218196.0,329.61900000000003,-5905.2799999999997,-5645.2399999999998,-5761.3599999999997,-93.888199999999998,-57.356400000000001,84.509600000000006
218197.0,321.09899999999999,-5901.0200000000004,-5666.54,-5783.3500000000004,-103.628,-68.5685,71.994699999999995
218198.0,318.68799999999999,-6926.3900000000003,-6710.9200000000001,-6827.2299999999996,-108.964,-81.333399999999997,61.104599999999998
218199.0,310.911,-7463.6899999999996,-7269.1199999999999,-7389.5799999999999,-105.437,-92.6233,53.683399999999999
218200.0,266.90699999999998,-7701.9200000000001,-7586.1300000000001,-7715.0799999999999,-73.327100000000002,-102.97199999999999,52.265099999999997
218201.0,232.785,-7762.3900000000003,-7679.3599999999997,-7798.5900000000001,-48.172600000000003,-101.247,41.890099999999997
218202.0,205.255,-7426.7700000000004,-7347.7799999999997,-7457.8299999999999,-32.582700000000003,-93.093999999999994,33.099200000000003
218203.0,190.20699999999999,-6835.9700000000003,-6743.71,-6856.4399999999996,-29.049099999999999,-81.108999999999995,32.104999999999997
218204.0,180.345,-6260.4300000000003,-6156.71,-6276.4799999999996,-27.109100000000002,-69.468900000000005,32.457299999999996
218205.0,169.92500000000001,-5515.79,-5407.0200000000004,-5530.75,-22.871700000000001,-59.138100000000001,32.304699999999997
218206.0,157.84999999999999,-3850.3200000000002,-3732.5,-3859.1599999999999,-17.552399999999999,-39.7958,37.5961
218207.0,151.57499999999999,-3007.8600000000001,-2890.0,-3014.7800000000002,-14.410500000000001,-31.779900000000001,39.019199999999998
218208.0,144.41200000000001,-2142.4200000000001,-2026.1099999999999,-2146.9000000000001,-11.7105,-25.515499999999999,38.386899999999997
218209.0,139.78299999999999,-1356.0699999999999,-1241.23,-1354.9200000000001,-11.9498,-21.461200000000002,39.465499999999999
218210.0,139.34299999999999,-661.37599999999998,-552.90300000000002,-652.82100000000003,-18.081900000000001,-21.3828,45.285699999999999
218211.0,183.31999999999999,932.94399999999996,1047.1900000000001,972.43600000000004,-62.801299999999998,19.7698,59.165199999999999
218212.0,218.32900000000001,690.25199999999995,857.03300000000002,692.35199999999998,-20.572500000000002,5.7844300000000004,79.219499999999996
218213.0,227.30199999999999,3812.3600000000001,4034.3499999999999,3947.2399999999998,-34.993099999999998,-30.982800000000001,50.285200000000003
218214.0,314.96600000000001,6719.6999999999998,6870.1899999999996,6775.4300000000003,-97.825999999999993,-95.054900000000004,93.133099999999999
218215.0,184.49600000000001,3332.0599999999999,3467.1500000000001,3338.0999999999999,-17.099799999999998,-52.589300000000001,49.649700000000003
218216.0,169.85499999999999,1946.04,2076.0500000000002,1956.6199999999999,-12.583299999999999,-42.683700000000002,49.234699999999997
218217.0,202.14599999999999,6721.7799999999997,6828.8400000000001,6719.3999999999996,-29.747299999999999,-87.885400000000004,33.2438
218218.0,282.49700000000001,3337.4299999999998,3581.6999999999998,3460.4099999999999,-76.474800000000002,-48.516599999999997,59.010100000000001
218219.0,135.41300000000001,677.99400000000003,784.41999999999996,713.20899999999995,0.43906400000000001,8.5849600000000006,55.666600000000003
218220.0,161.405,489.31299999999999,609.21500000000003,503.089,-6.5492999999999997,8.1057699999999997,65.348799999999997
218221.0,134.67699999999999,2047.6099999999999,2144.5999999999999,2097.7399999999998,-10.9474,1.3028200000000001,59.764400000000002
218222.0,164.03999999999999,1076.23,1163.1800000000001,1134.3299999999999,-31.325199999999999,0.82721,77.628299999999996
218223.0,155.91300000000001,2747.0599999999999,2835.1300000000001,2827.54,-15.0823,-5.2012,73.935400000000001
218224.0,169.59200000000001,2117.4899999999998,2272.02,2231.9000000000001,-12.328900000000001,-22.136199999999999,50.156300000000002
218225.0,225.15299999999999,-2957.4699999999998,-2740.27,-2814.6999999999998,-24.619199999999999,-27.2149,58.035800000000002
218226.0,269.08499999999998,3786.7800000000002,4033.52,3922.71,-62.698599999999999,-41.196199999999997,56.881399999999999
218227.0,295.48899999999998,4977.2200000000003,5212.96,5093.5500000000002,-89.546000000000006,-55.155900000000003,64.418999999999997
218228.0,295.27600000000001,5149.3299999999999,5363.2399999999998,5257.4399999999996,-94.400700000000001,-66.543000000000006,65.446899999999999
218229.0,299.12299999999999,5526.0900000000001,5724.8199999999997,5624.6800000000003,-95.084100000000007,-78.283600000000007,69.151399999999995
218230.0,314.23000000000002,6081.6599999999999,6262.9799999999996,6164.9899999999998,-99.673299999999998,-89.081699999999998,82.501000000000005
218231.0,310.53500000000003,-6407.3299999999999,-6235.5900000000001,-6350.1199999999999,-93.984899999999996,-89.583600000000004,87.395600000000002
218232.0,266.31299999999999,7033.0799999999999,7151.0200000000004,7057.1199999999999,-72.209299999999999,-95.434799999999996,73.722999999999999
218233.0,186.80600000000001,6189.7200000000003,6306.3500000000004,6180.54,-14.7318,-77.369100000000003,22.5793
218234.0,187.69800000000001,5426.0500000000002,5553.5,5421.9200000000001,-17.479600000000001,-69.207700000000003,32.436700000000002
218235.0,188.791,4668.6000000000004,4800.5900000000001,4669.96,-19.7227,-63.478700000000003,41.408799999999999
218236.0,186.417,4012.4000000000001,4146.4499999999998,4015.9499999999998,-17.834399999999999,-57.729799999999997,45.8005
218237.0,186.99199999999999,-3863.8400000000001,-3732.0900000000001,-3858.8400000000001,-19.146599999999999,-56.773200000000003,49.902700000000003
218238.0,178.94200000000001,2611.48,2745.48,2619.3400000000001,-15.135300000000001,-47.530700000000003,50.304600000000001
218239.0,160.785,1291.1300000000001,1417.95,1304.3299999999999,-9.3917599999999997,-38.374299999999998,46.857300000000002
218240.0,153.31399999999999,668.50199999999995,787.803,683.66800000000001,-10.2888,-37.160299999999999,46.156700000000001
218241.0,174.18100000000001,138.327,282.05399999999997,160.00899999999999,-16.860600000000002,-26.370200000000001,55.941699999999997
218242.0,55.554200000000002,51.4694,12.048999999999999,53.538400000000003,-16.804300000000001,-3.9389099999999999,-13.574
218243.0,145.977,-698.96799999999996,-597.38999999999999,-674.99000000000001,-24.431699999999999,11.0236,59.712499999999999
218244.0,126.041,-249.46799999999999,-148.86099999999999,-219.04599999999999,-12.162000000000001,7.8276300000000001,49.2348
218245.0,117.464,-1378.22,-1281.8900000000001,-1335.3199999999999,-1.9595100000000001,8.2422500000000003,46.886600000000001
218246.0,145.249,-1248.99,-1155.5999999999999,-1195.99,-15.2844,8.7931500000000007,67.289599999999993
218247.0,138.68100000000001,-1457.27,-1380.4000000000001,-1388.3199999999999,-29.066500000000001,-4.1306799999999999,61.327800000000003
218248.0,158.25299999999999,-2100.8000000000002,-1969.22,-1988.3699999999999,-22.266400000000001,-20.441400000000002,48.792000000000002
218249.0,267.76900000000001,-4274.2799999999997,-4014.8499999999999,-4126.3800000000001,-36.1676,-32.923099999999998,67.615600000000001
218250.0,284.13600000000002,-3371.6199999999999,-3111.1199999999999,-3234.4200000000001,-52.2029,-43.195,73.066500000000005
218251.0,296.65800000000002,-4103.3199999999997,-3846.0700000000002,-3980.6300000000001,-69.937100000000001,-50.147599999999997,73.306700000000006
218252.0,295.166,-5331.2399999999998,-5090.2600000000002,-5225.2299999999996,-79.666399999999996,-60.2988,66.867599999999996
218253.0,297.11799999999999,-5373.4200000000001,-5153.21,-5281.21,-87.186199999999999,-72.318399999999997,66.071200000000005
218254.0,309.17000000000002,-5784.1999999999998,-5579.29,-5704.7200000000003,-93.254099999999994,-81.660499999999999,76.319800000000001
218255.0,267.58199999999999,-6937.9499999999998,-6817.2200000000003,-6911.0100000000002,-73.375299999999996,-96.251400000000004,72.125799999999998
218256.0,206.31800000000001,-6913.1800000000003,-6827.8999999999996,-6908.25,-35.5062,-96.927099999999996,35.234000000000002
218257.0,185.09,-6499.3299999999999,-6402.6099999999997,-6498.1199999999999,-19.216200000000001,-86.169799999999995,23.3446
218258.0,187.02000000000001,-5901.9099999999999,-5784.1599999999999,-5900.3400000000001,-21.159199999999998,-75.297300000000007,31.317
218259.0,191.054,-5150.1099999999997,-5021.6099999999997,-5147.29,-22.940899999999999,-68.061700000000002,40.280700000000003
218260.0,189.03800000000001,-4480.7200000000003,-4350.4099999999999,-4477.25,-20.717700000000001,-62.543599999999998,45.361199999999997
218261.0,181.79599999999999,-3166.4699999999998,-3034.96,-3159.4299999999998,-16.2654,-51.296999999999997,51.455399999999997
218262.0,173.42599999999999,-2475.4099999999999,-2346.3099999999999,-2465.6900000000001,-13.0709,-45.639200000000002,51.024900000000002
218263.0,162.988,-1821.72,-1696.4000000000001,-1809.23,-9.4423200000000005,-40.688299999999998,48.430100000000003
218264.0,158.06899999999999,-1167.1800000000001,-1043.78,-1150.8800000000001,-9.6792200000000008,-37.084600000000002,48.635599999999997
218265.0,156.626,-584.36699999999996,-468.18200000000002,-564.08600000000001,-15.2195,-36.678699999999999,52.430399999999999
218266.0,187.51400000000001,-2246.7600000000002,-2151.9699999999998,-2211.0,-53.895299999999999,26.723299999999998,76.225399999999993
218267.0,228.08699999999999,51.160200000000003,214.92500000000001,42.647300000000001,-19.445599999999999,4.9101600000000003,86.662899999999993
218268.0,199.655,2337.0900000000001,2537.8000000000002,2455.21,-25.404900000000001,-27.924499999999998,41.061
218269.0,318.18299999999999,6201.2399999999998,6366.6800000000003,6310.6000000000004,-73.1751,-82.977699999999999,120.116
218270.0,188.136,3006.23,3143.1199999999999,3038.8200000000002,-5.7318499999999997,-53.2483,61.780900000000003
218271.0,174.13200000000001,1760.74,1897.01,1790.76,-5.0972600000000003,-47.573500000000003,51.877400000000002
218272.0,189.637,6267.9899999999998,6393.5,6319.8500000000004,-2.7390500000000002,-74.711600000000004,49.201000000000001
218273.0,242.80099999999999,4262.4700000000003,4474.5,4375.2299999999996,-50.875599999999999,-39.178400000000003,65.369900000000001
218274.0,131.761,1760.4100000000001,1872.8099999999999,1795.9200000000001,-7.2610400000000004,4.6259600000000001,49.108400000000003
218275.0,160.61099999999999,1339.3499999999999,1462.3,1356.01,-10.7971,7.7298299999999998,63.033799999999999
218276.0,136.66,946.423,1052.73,992.077,-23.150099999999998,-1.9491099999999999,53.305999999999997
218277.0,150.83199999999999,3030.7800000000002,3123.1199999999999,3088.8800000000001,-42.150799999999997,-1.1545099999999999,60.220300000000002
218278.0,119.215,2424.1700000000001,2502.04,2491.73,-25.4528,-6.9055799999999996,47.465800000000002
218279.0,138.22399999999999,3563.6399999999999,3693.9099999999999,3655.1700000000001,-13.616899999999999,-22.028400000000001,34.9709
218280.0,200.60499999999999,-3036.77,-2837.5900000000001,-2924.98,-25.5945,-29.307700000000001,43.966299999999997
218281.0,232.649,2993.1300000000001,3214.4699999999998,3114.27,-42.103999999999999,-33.584600000000002,53.445599999999999
218282.0,260.495,3561.21,3764.5900000000001,3671.7800000000002,-56.727200000000003,-45.302300000000002,83.5535
218283.0,277.05700000000002,4371.6000000000004,4561.3199999999997,4480.5600000000004,-60.227499999999999,-56.842700000000001,98.305599999999998
218284.0,291.68299999999999,5047.9399999999996,5228.4099999999999,5153.8299999999999,-60.385399999999997,-68.047399999999996,108.899
218285.0,316.029,5645.9200000000001,5822.71,5754.2799999999997,-68.717299999999994,-77.201899999999995,121.09099999999999
218286.0,308.78699999999998,-5979.7200000000003,-5806.7799999999997,-5865.1300000000001,-66.314099999999996,-75.713200000000001,117.95
218287.0,253.369,6503.8500000000004,6646.1700000000001,6592.6199999999999,-44.555799999999998,-82.783299999999997,85.982699999999994
218288.0,179.797,5496.0500000000002,5616.8500000000004,5528.3199999999997,7.4149500000000002,-66.253200000000007,49.183599999999998
218289.0,185.12899999999999,4849.7799999999997,4973.3299999999999,4878.7399999999998,3.7084800000000002,-61.395400000000002,58.871499999999997
218290.0,190.12899999999999,4273.7700000000004,4403.5900000000001,4304.6099999999997,-1.6661699999999999,-58.895200000000003,63.067500000000003
218291.0,190.77199999999999,3631.3400000000001,3766.0500000000002,3663.0999999999999,-4.5644999999999998,-56.222499999999997,63.170699999999997
218292.0,191.64099999999999,-3504.6999999999998,-3369.3899999999999,-3473.0599999999999,-6.6924200000000003,-56.472799999999999,63.229199999999999
218293.0,181.69499999999999,2408.1399999999999,2546.1700000000001,2440.21,-5.1859900000000003,-50.1584,56.951799999999999
218294.0,167.62100000000001,1150.3099999999999,1283.6800000000001,1177.6800000000001,-4.5471000000000004,-44.815899999999999,48.732300000000002
218295.0,162.37200000000001,602.95899999999995,728.45600000000002,629.65200000000004,-6.8581099999999999,-44.491799999999998,48.897399999999998
218296.0,184.19300000000001,119.43300000000001,270.30599999999998,149.619,-13.766400000000001,-32.724800000000002,60.625
218297.0,70.164000000000001,34.409100000000002,-8.0668000000000006,40.397399999999998,-25.156300000000002,-9.9041399999999999,-14.557700000000001
218298.0,150.60599999999999,-871.50999999999999,-768.58100000000002,-850.35699999999997,-26.721599999999999,10.5601,61.484000000000002
218299.0,119.205,-2047.3399999999999,-1949.0799999999999,-2016.0699999999999,-17.0656,7.0602900000000002,43.307000000000002
218300.0,120.23399999999999,-1261.5599999999999,-1155.4300000000001,-1218.6900000000001,-11.022600000000001,5.6852499999999999,42.601199999999999
218301.0,137.727,-1987.96,-1886.9400000000001,-1934.3199999999999,-27.699200000000001,3.8855499999999998,54.6464
218302.0,116.741,-2902.8800000000001,-2830.0100000000002,-2842.6700000000001,-33.814799999999998,-7.9461000000000004,42.664499999999997
218303.0,129.12299999999999,-3206.8099999999999,-3091.4000000000001,-3127.1700000000001,-26.405799999999999,-22.750499999999999,29.188400000000001
218304.0,242.31999999999999,-2439.4299999999998,-2199.77,-2314.5100000000002,-25.013100000000001,-30.8062,60.254100000000001
218305.0,254.876,-4079.5300000000002,-3842.02,-3961.5500000000002,-31.607700000000001,-35.765500000000003,72.607500000000002
218306.0,267.65100000000001,-4197.6300000000001,-3969.2800000000002,-4085.6199999999999,-40.860999999999997,-40.5931,86.738500000000002
218307.0,276.08999999999997,-3885.73,-3669.5900000000001,-3776.6500000000001,-46.036000000000001,-48.866,96.029300000000006
218308.0,284.983,-4801.8100000000004,-4603.9499999999998,-4694.3400000000001,-50.933599999999998,-60.147199999999998,105.11
218309.0,305.23700000000002,-5461.8199999999997,-5272.21,-5349.9499999999998,-60.079599999999999,-68.217799999999997,117.08
218310.0,250.81800000000001,-6444.4799999999996,-6312.3599999999997,-6348.0799999999999,-45.080599999999997,-83.293999999999997,85.610299999999995
218311.0,188.44499999999999,-6562.8500000000004,-6461.6300000000001,-6502.0600000000004,-9.6228599999999993,-82.550399999999996,48.316000000000003
218312.0,176.06,-5985.7200000000003,-5879.6599999999999,-5951.1899999999996,1.8582799999999999,-71.958399999999997,47.168599999999998
218313.0,183.66999999999999,-5241.9700000000003,-5126.25,-5217.5500000000002,-0.34527600000000003,-64.991299999999995,57.451099999999997
218314.0,191.33799999999999,-4708.4499999999998,-4583.1099999999997,-4682.1800000000003,-4.3518999999999997,-62.0351,62.982700000000001
218315.0,193.37200000000001,-4133.75,-4002.0999999999999,-4104.2700000000004,-6.3661500000000002,-59.673299999999998,63.9529
218316.0,185.41,-2926.8899999999999,-2789.8699999999999,-2893.7800000000002,-4.9960000000000004,-53.094900000000003,59.191699999999997
218317.0,178.339,-2313.1700000000001,-2175.73,-2279.4400000000001,-3.6388099999999999,-49.500100000000003,54.8384
218318.0,170.977,-1663.5799999999999,-1529.1500000000001,-1631.8699999999999,-2.9699300000000002,-46.499400000000001,51.337499999999999
218319.0,167.75999999999999,-1079.54,-948.19000000000005,-1049.1600000000001,-5.6238799999999998,-44.0745,51.753399999999999
218320.0,167.232,-557.41300000000001,-434.44200000000001,-525.76199999999994,-12.3108,-44.3001,55.955100000000002
218321.0,193.38900000000001,844.07899999999995,914.88599999999997,865.16800000000001,-42.7027,31.834599999999998,91.146699999999996
218322.0,230.60900000000001,759.73599999999999,922.74599999999998,748.95500000000004,-17.860499999999998,3.4154200000000001,88.962199999999996
218323.0,181.65299999999999,3271.9400000000001,3442.3499999999999,3385.3400000000001,-12.910500000000001,-24.7883,51.894100000000002
218324.0,273.37400000000002,6023.3999999999996,6186.4700000000003,6147.3199999999997,-48.328299999999999,-68.962999999999994,102.824
218325.0,173.934,3289.2600000000002,3421.5999999999999,3334.9499999999998,3.4357199999999999,-46.532699999999998,58.213700000000003
218326.0,167.99600000000001,1877.4400000000001,2014.74,1916.1400000000001,3.0167799999999998,-43.9465,49.552599999999998
218327.0,206.26599999999999,5843.25,5977.3800000000001,5921.7399999999998,-12.1518,-70.365600000000001,67.395499999999998
218328.0,247.84100000000001,2668.5799999999999,2861.3099999999999,2783.1999999999998,-33.853700000000003,-35.816099999999999,93.001400000000004
218329.0,125.782,708.95000000000005,815.93799999999999,735.10799999999995,-7.8790899999999997,2.96679,45.740000000000002
218330.0,158.90299999999999,494.69600000000003,616.16999999999996,509.279,-8.3862199999999998,7.1706899999999996,62.417400000000001
218331.0,126.217,2103.8699999999999,2210.0,2150.1500000000001,-28.732700000000001,-1.3583499999999999,40.640999999999998
218332.0,133.78200000000001,959.29700000000003,1050.7,1019.8,-48.376100000000001,-2.0805799999999999,38.203800000000001
218333.0,104.501,2395.0100000000002,2464.2199999999998,2455.1399999999999,-35.451099999999997,-7.3470800000000001,30.242100000000001
218334.0,116.98099999999999,1662.6800000000001,1760.2,1741.8399999999999,-14.4343,-17.943899999999999,36.677399999999999
218335.0,172.44800000000001,-2358.3000000000002,-2196.04,-2262.1100000000001,-21.8505,-26.165099999999999,45.742899999999999
218336.0,230.16900000000001,3159.5500000000002,3363.6999999999998,3284.9899999999998,-24.510899999999999,-28.233000000000001,75.238100000000003
218337.0,265.75599999999997,4376.8900000000003,4559.3500000000004,4484.1800000000003,-37.823099999999997,-42.828800000000001,108.94
218338.0,282.62599999999998,4676.3100000000004,4850.0799999999999,4783.0,-41.701900000000002,-51.973399999999998,120.438
218339.0,281.13799999999998,5127.8999999999996,5293.8199999999997,5234.3800000000001,-40.960299999999997,-58.924500000000002,118.867
218340.0,281.39299999999997,5621.0699999999997,5785.0100000000002,5734.9399999999996,-46.428800000000003,-63.468299999999999,114.681
218341.0,275.92700000000002,-5917.1199999999999,-5742.5699999999997,-5787.4700000000003,-40.301600000000001,-65.219200000000001,106.23399999999999
218342.0,240.18600000000001,6103.9200000000001,6256.1599999999999,6215.0299999999997,-32.9437,-72.469499999999996,81.797399999999996
218343.0,193.881,5612.5100000000002,5733.1899999999996,5669.5699999999997,-3.1327600000000002,-65.011099999999999,68.182100000000005
218344.0,187.34800000000001,5132.1899999999996,5248.3699999999999,5180.54,3.1572399999999998,-58.570799999999998,69.661199999999994
218345.0,183.25,4529.7799999999997,4650.3500000000004,4577.04,5.6632199999999999,-53.282299999999999,68.056399999999996
218346.0,178.797,3943.23,4070.54,3990.4000000000001,4.8902700000000001,-49.381900000000002,63.6511
218347.0,173.392,-3810.0999999999999,-3683.7399999999998,-3764.1500000000001,3.4043100000000002,-49.236499999999999,59.119199999999999
218348.0,169.89099999999999,2562.77,2699.1399999999999,2605.04,3.5984699999999998,-44.570500000000003,52.4253
218349.0,165.50200000000001,1213.6900000000001,1349.98,1249.8599999999999,3.1721900000000001,-43.103999999999999,47.723599999999998
218350.0,162.22200000000001,609.66399999999999,739.63300000000004,647.81100000000004,-0.082265099999999994,-43.479500000000002,49.177900000000001
218351.0,186.25,116.508,272.52600000000001,158.56100000000001,-8.4517600000000002,-31.366599999999998,63.177799999999998
218352.0,82.325400000000002,22.9315,-20.299900000000001,35.0276,-29.853200000000001,-16.236799999999999,-16.069900000000001
218353.0,149.69499999999999,-724.16800000000001,-616.73099999999999,-701.49699999999996,-28.001000000000001,8.6429299999999998,58.342399999999998
218354.0,115.196,-224.215,-128.86799999999999,-197.40199999999999,-13.2043,5.9599399999999996,42.375300000000003
218355.0,119.152,-1401.52,-1289.1700000000001,-1361.74,-15.894500000000001,2.4986299999999999,35.052999999999997
218356.0,124.77,-1201.73,-1096.28,-1149.45,-33.809899999999999,-0.211669,35.577599999999997
218357.0,106.23699999999999,-1096.4300000000001,-1020.96,-1044.03,-37.929699999999997,-9.7051499999999997,27.082000000000001
218358.0,109.464,-1517.1600000000001,-1424.1600000000001,-1457.5,-28.332899999999999,-19.795999999999999,24.075900000000001
218359.0,230.90799999999999,-3626.7399999999998,-3414.3000000000002,-3504.8800000000001,-17.538,-25.4404,73.849500000000006
218360.0,248.33600000000001,-2670.7800000000002,-2462.6500000000001,-2552.1100000000001,-16.512899999999998,-27.411200000000001,92.912499999999994
218361.0,262.27999999999997,-3407.8800000000001,-3215.4099999999999,-3294.8800000000001,-22.856100000000001,-33.970300000000002,109.081
218362.0,275.93099999999998,-4759.9399999999996,-4573.7399999999998,-4647.4200000000001,-28.343,-42.2117,118.32299999999999
218363.0,279.16399999999999,-4938.8699999999999,-4762.8199999999997,-4824.4799999999996,-31.8018,-52.9101,119.108
218364.0,282.84899999999999,-5389.3000000000002,-5214.1899999999996,-5267.1899999999996,-37.463000000000001,-58.829900000000002,117.215
218365.0,247.43199999999999,-6220.4200000000001,-6060.6999999999998,-6100.4300000000003,-30.099,-73.231999999999999,84.992900000000006
218366.0,215.70400000000001,-6060.71,-5924.71,-5974.3999999999996,-15.154,-75.969399999999993,69.085300000000004
218367.0,200.607,-5806.6099999999997,-5687.1000000000004,-5751.1199999999999,-8.1588999999999992,-71.183599999999998,68.583600000000004
218368.0,190.38800000000001,-5493.8299999999999,-5383.8100000000004,-5451.6300000000001,-2.6612399999999998,-64.935100000000006,69.126800000000003
218369.0,183.536,-4941.21,-4829.1599999999999,-4900.3599999999997,0.87748000000000004,-58.940600000000003,67.364800000000002
218370.0,178.67500000000001,-4380.9399999999996,-4261.3199999999997,-4336.8400000000001,2.7049099999999999,-53.677599999999998,63.9803
218371.0,168.143,-3119.3000000000002,-2987.9299999999998,-3074.75,4.5641499999999997,-46.1126,53.046100000000003
218372.0,167.09200000000001,-2420.8499999999999,-2285.25,-2378.4299999999998,4.6950799999999999,-44.042000000000002,50.330399999999997
218373.0,165.75399999999999,-1760.53,-1624.5,-1720.7,4.8996199999999996,-43.051600000000001,48.883099999999999
218374.0,166.14500000000001,-1113.5599999999999,-978.82399999999996,-1073.05,1.0259499999999999,-42.327199999999998,51.280900000000003
218375.0,167.547,-562.99000000000001,-435.57299999999998,-518.50300000000004,-7.5954499999999996,-43.307499999999997,56.939999999999998
218376.0,201.232,-2252.9899999999998,-2209.0599999999999,-2250.23,-23.428799999999999,34.710299999999997,105.542
218377.0,227.92099999999999,118.59999999999999,275.339,102.074,-14.981299999999999,1.2118500000000001,89.1434
218378.0,170.965,2074.9299999999998,2206.46,2175.77,-4.1426100000000003,-21.043900000000001,67.4375
218379.0,234.41399999999999,5646.7799999999997,5792.75,5754.0500000000002,-38.7956,-59.0886,87.182599999999994
218380.0,159.92599999999999,3465.4499999999998,3592.5100000000002,3517.8699999999999,7.3853099999999996,-42.562800000000003,50.8142
218381.0,161.00399999999999,2012.24,2148.8499999999999,2062.1100000000001,11.1798,-37.665999999999997,48.1464
218382.0,209.98699999999999,5771.6300000000001,5896.9899999999998,5856.2700000000004,-24.916699999999999,-62.796199999999999,77.745699999999999
218383.0,258.93799999999999,4563.4700000000003,4752.8599999999997,4678.1599999999999,-31.708100000000002,-35.018999999999998,104.964
218384.0,118.419,1598.9300000000001,1711.3099999999999,1620.5,-9.7207899999999992,-2.16777,31.908899999999999
218385.0,155.77699999999999,1333.0799999999999,1463.51,1344.6600000000001,-10.5966,3.4794999999999998,52.469200000000001
218386.0,119.964,626.55200000000002,736.56500000000005,677.70000000000005,-29.878,-3.8507500000000001,29.307400000000001
218387.0,127.387,2540.6900000000001,2632.0799999999999,2606.1599999999999,-46.354100000000003,-2.0509300000000001,32.210700000000003
218388.0,104.024,1870.97,1931.8099999999999,1931.0,-34.644199999999998,-5.5956799999999998,34.025100000000002
218389.0,113.136,3109.5300000000002,3177.0900000000001,3181.1799999999998,-12.4808,-13.1767,48.146000000000001
218390.0,149.27500000000001,-2547.7600000000002,-2430.3699999999999,-2462.9200000000001,-16.083100000000002,-19.8291,55.703600000000002
218391.0,235.13399999999999,3039.8800000000001,3228.1399999999999,3160.0500000000002,-20.561800000000002,-25.697099999999999,90.881299999999996
218392.0,264.714,4018.4400000000001,4194.8699999999999,4120.5699999999997,-34.958799999999997,-42.339700000000001,111.788
218393.0,268.64800000000002,4844.6300000000001,5009.5299999999997,4947.25,-37.405700000000003,-48.822400000000002,115.502
218394.0,251.345,5354.0500000000002,5511.3699999999999,5460.25,-36.604799999999997,-52.940899999999999,102.34699999999999
218395.0,244.053,5585.4099999999999,5738.6999999999998,5695.8199999999997,-40.101700000000001,-55.000100000000003,94.687899999999999
218396.0,243.61699999999999,-5668.4200000000001,-5505.75,-5557.79,-35.290100000000002,-59.400700000000001,90.045500000000004
218397.0,223.86099999999999,5719.96,5856.3800000000001,5817.1999999999998,-33.642099999999999,-62.454999999999998,82.087299999999999
218398.0,196.60400000000001,5484.79,5601.5200000000004,5557.1099999999997,-16.504200000000001,-60.468600000000002,74.057500000000005
218399.0,183.03299999999999,5198.7700000000004,5311.5100000000002,5260.0799999999999,-8.0449999999999999,-55.798299999999998,69.306299999999993
218400.0,170.53399999999999,4790.1499999999996,4904.3199999999997,4844.5699999999997,-1.45712,-50.704099999999997,62.127200000000002
218401.0,162.125,4161.1999999999998,4281.1800000000003,4213.0200000000004,3.3511700000000002,-46.276200000000003,54.664200000000001
218402.0,157.10599999999999,-3957.6999999999998,-3838.3600000000001,-3905.98,6.1144800000000004,-45.707299999999996,50.194000000000003
218403.0,160.583,2765.3600000000001,2899.21,2817.3400000000001,10.5785,-39.380099999999999,48.782499999999999
218404.0,158.792,1293.0699999999999,1430.01,1338.73,12.419,-36.363999999999997,45.464100000000002
218405.0,156.16800000000001,662.01999999999998,793.24800000000005,708.50300000000004,7.76973,-37.036700000000003,47.646299999999997
218406.0,183.93299999999999,128.74600000000001,287.08999999999997,176.35300000000001,-2.54949,-25.219200000000001,63.516300000000001
218407.0,102.10599999999999,6.5926900000000002,-34.378300000000003,28.0899,-37.735300000000002,-24.1938,-21.418800000000001
218408.0,147.97499999999999,-922.28099999999995,-808.76199999999994,-899.40599999999995,-30.863700000000001,5.7359400000000003,52.048000000000002
218409.0,116.571,-1886.78,-1776.8299999999999,-1866.0,-11.893800000000001,-2.0404200000000001,31.1785
218410.0,124.27200000000001,-953.28700000000003,-824.83199999999999,-915.649,-17.978100000000001,-4.3118499999999997,21.1008
218411.0,125.85599999999999,-1582.8399999999999,-1467.24,-1527.9300000000001,-34.592399999999998,-3.6785399999999999,26.9406
218412.0,101.465,-2337.8299999999999,-2266.2399999999998,-2287.3099999999999,-34.582299999999996,-7.5039699999999998,28.739699999999999
218413.0,96.5672,-2589.2600000000002,-2522.79,-2536.9400000000001,-23.170300000000001,-13.800700000000001,33.9861
218414.0,223.56200000000001,-2247.2399999999998,-2066.5100000000002,-2128.7600000000002,-16.709299999999999,-19.661300000000001,86.979200000000006
218415.0,249.55199999999999,-4202.71,-4012.5500000000002,-4082.4699999999998,-15.1868,-23.181000000000001,103.631
218416.0,258.62700000000001,-4533.3199999999997,-4355.8900000000003,-4422.6000000000004,-20.066299999999998,-32.436599999999999,113.17700000000001
218417.0,264.37299999999999,-4316.8400000000001,-4143.5500000000002,-4212.9300000000003,-26.141500000000001,-41.457799999999999,115.277
218418.0,255.941,-5176.7700000000004,-5009.7399999999998,-5069.6800000000003,-30.455400000000001,-51.522500000000001,105.324
218419.0,252.102,-5579.8500000000004,-5412.9799999999996,-5467.5500000000002,-35.411099999999998,-55.150500000000001,98.236999999999995
218420.0,235.08000000000001,-5704.6499999999996,-5550.8800000000001,-5601.1400000000003,-32.027299999999997,-63.866399999999999,84.668300000000002
218421.0,221.73699999999999,-5834.9399999999996,-5696.0799999999999,-5743.54,-25.323899999999998,-65.8279,80.207700000000003
218422.0,206.41300000000001,-5708.2700000000004,-5584.4099999999999,-5629.5,-18.054099999999998,-64.469200000000001,76.092299999999994
218423.0,189.67599999999999,-5392.6999999999998,-5280.5200000000004,-5327.3400000000001,-11.126200000000001,-61.207099999999997,70.339299999999994
218424.0,173.21000000000001,-5103.79,-4995.1199999999999,-5048.8999999999996,-5.0370600000000003,-56.280000000000001,62.091700000000003
218425.0,161.19499999999999,-4613.4300000000003,-4501.2799999999997,-4562.46,0.84657899999999997,-50.7209,54.171599999999998
218426.0,157.67699999999999,-3306.9499999999998,-3179.8899999999999,-3254.2600000000002,10.1615,-42.101199999999999,48.338900000000002
218427.0,160.12299999999999,-2610.1399999999999,-2476.6399999999999,-2558.0999999999999,11.820600000000001,-39.110199999999999,48.468499999999999
218428.0,159.28200000000001,-1872.3499999999999,-1736.53,-1823.8099999999999,13.525600000000001,-37.294600000000003,46.328000000000003
218429.0,160.489,-1199.55,-1063.8299999999999,-1151.3099999999999,8.5285299999999999,-36.327399999999997,49.6023
218430.0,162.80199999999999,-614.57000000000005,-485.18799999999999,-562.58199999999999,-1.9267799999999999,-37.6967,56.315100000000001
218431.0,218.37100000000001,977.505,999.61000000000001,966.33299999999997,7.7760800000000003,34.3386,119.87
218432.0,213.12799999999999,777.54700000000003,912.79999999999995,744.053,-10.4925,-1.32267,83.9499
218433.0,142.404,3376.52,3461.8699999999999,3444.6599999999999,-3.0748500000000001,-14.444900000000001,67.113399999999999
218434.0,225.32900000000001,5729.1199999999999,5854.71,5844.71,-26.472799999999999,-45.104199999999999,96.520399999999995
218435.0,150.02199999999999,3620.1700000000001,3744.5300000000002,3683.4699999999998,13.3973,-36.907499999999999,45.758200000000002
218436.0,153.19300000000001,2149.9000000000001,2287.5300000000002,2200.6500000000001,10.018599999999999,-32.639699999999998,42.574199999999998
218437.0,203.62700000000001,5753.5299999999997,5858.29,5850.4200000000001,-14.471399999999999,-45.715299999999999,90.097899999999996
218438.0,247.904,2977.7199999999998,3160.4099999999999,3085.5100000000002,-33.111499999999999,-31.8245,99.710899999999995
218439.0,116.374,313.07100000000003,430.18400000000003,338.07999999999998,-23.598199999999999,-3.6855699999999998,11.823600000000001
218440.0,147.40600000000001,374.88099999999997,511.84100000000001,390.62299999999999,-25.963899999999999,1.1190599999999999,30.8369
218441.0,113.089,1541.47,1648.5599999999999,1588.1500000000001,-33.032600000000002,-5.6780200000000001,16.0245
218442.0,130.858,340.25099999999998,439.10500000000002,408.82799999999997,-47.308500000000002,-6.6542300000000001,29.331199999999999
218443.0,129.911,1909.6199999999999,1981.47,1978.3199999999999,-43.411700000000003,-9.4163700000000006,44.764099999999999
218444.0,121.616,1517.8299999999999,1572.72,1578.55,-21.2681,-10.993399999999999,56.872599999999998
218445.0,129.261,-2203.1300000000001,-2133.1900000000001,-2140.4000000000001,-17.452500000000001,-14.9602,59.677399999999999
218446.0,207.82300000000001,3387.1700000000001,3541.3099999999999,3486.1799999999998,-20.1433,-23.183900000000001,85.752499999999998
218447.0,251.59800000000001,4633.1300000000001,4803.0200000000004,4731.3100000000004,-36.094200000000001,-39.161900000000003,104.833
218448.0,241.095,4765.8500000000004,4912.96,4866.3100000000004,-34.3643,-43.677500000000002,103.129
218449.0,225.42500000000001,5006.0699999999997,5143.7399999999998,5113.7299999999996,-30.061199999999999,-46.753500000000003,92.782499999999999
218450.0,232.732,5363.0299999999997,5496.71,5480.1700000000001,-31.4589,-46.722000000000001,97.829800000000006
218451.0,230.01300000000001,-5564.8299999999999,-5431.46,-5450.0799999999999,-29.607500000000002,-47.970399999999998,96.129900000000006
218452.0,217.13900000000001,5864.5699999999997,5979.1199999999999,5972.1999999999998,-23.0564,-44.8249,95.130300000000005
218453.0,192.06100000000001,5714.0600000000004,5814.3000000000002,5802.3599999999997,-6.8976600000000001,-45.126600000000003,84.935500000000005
218454.0,173.136,5385.4200000000001,5485.0699999999997,5464.71,1.53586,-41.865600000000001,73.927800000000005
218455.0,156.87,4855.6999999999998,4960.1099999999997,4929.4099999999999,10.0565,-38.549500000000002,61.119399999999999
218456.0,150.297,4283.4700000000003,4397.4399999999996,4352.6800000000003,13.6723,-37.594700000000003,51.306100000000001
218457.0,152.63499999999999,-4126.25,-4004.6700000000001,-4055.5100000000002,15.0212,-39.329099999999997,47.593200000000003
218458.0,152.21700000000001,2877.0999999999999,3011.3099999999999,2933.6300000000001,12.218400000000001,-34.756999999999998,42.726700000000001
218459.0,150.37700000000001,1410.5,1544.8900000000001,1453.6700000000001,10.8484,-30.3687,42.309899999999999
218460.0,147.285,722.89599999999996,846.84900000000005,764.50699999999995,7.8808800000000003,-30.866599999999998,47.294899999999998
218461.0,177.18799999999999,153.214,301.56,194.82300000000001,2.39141,-19.662299999999998,64.944299999999998
218462.0,114.569,16.875,-16.618500000000001,48.281700000000001,-44.004600000000003,-29.845300000000002,-22.2456
218463.0,142.971,-684.78399999999999,-568.43100000000004,-669.31700000000001,-35.329599999999999,1.50335,39.630299999999998
218464.0,123.389,90.699200000000005,212.827,111.782,-25.220500000000001,-6.6741400000000004,11.519299999999999
218465.0,125.29300000000001,-875.16300000000001,-745.62400000000002,-840.67899999999997,-25.646899999999999,-7.3818000000000001,4.43424
218466.0,123.56,-654.27099999999996,-535.02999999999997,-600.75999999999999,-34.458300000000001,-4.9797000000000002,17.6004
218467.0,115.25700000000001,-579.36300000000006,-496.827,-523.30600000000004,-37.024900000000002,-7.0665100000000001,35.090200000000003
218468.0,115.265,-1166.51,-1112.1099999999999,-1114.24,-31.8063,-12.641400000000001,48.039499999999997
218469.0,189.48400000000001,-3658.1399999999999,-3518.7800000000002,-3564.8499999999999,-13.604100000000001,-14.112399999999999,80.888099999999994
218470.0,239.61099999999999,-2873.6999999999998,-2693.52,-2762.3699999999999,-19.0016,-22.226600000000001,100.078
218471.0,250.434,-3661.9899999999998,-3484.3600000000001,-3560.02,-22.678799999999999,-32.317700000000002,106.777
218472.0,241.98599999999999,-4894.2200000000003,-4732.1899999999996,-4800.0500000000002,-25.7943,-40.223199999999999,103.02800000000001
218473.0,227.45500000000001,-4868.2700000000004,-4720.5,-4766.6800000000003,-27.990500000000001,-46.687899999999999,92.559799999999996
218474.0,234.36000000000001,-5138.0299999999997,-4992.4899999999998,-5026.6700000000001,-32.141100000000002,-47.223700000000001,96.195400000000006
218475.0,221.60900000000001,-5854.9300000000003,-5731.8199999999997,-5743.9499999999998,-24.808199999999999,-46.304699999999997,94.904799999999994
218476.0,207.607,-5805.4399999999996,-5693.5600000000004,-5704.96,-16.4605,-47.297699999999999,89.821799999999996
218477.0,198.87299999999999,-5756.9399999999996,-5649.5699999999997,-5664.0299999999997,-9.3738600000000005,-48.436,85.761200000000002
218478.0,182.929,-5639.2700000000004,-5535.4899999999998,-5553.4200000000001,-0.69920499999999997,-47.344200000000001,76.390299999999996
218479.0,164.56399999999999,-5202.7399999999998,-5097.3299999999999,-5123.3500000000004,8.9314099999999996,-43.445500000000003,63.598799999999997
218480.0,155.50899999999999,-4683.0100000000002,-4569.5299999999997,-4607.3500000000004,14.557700000000001,-40.441400000000002,53.619599999999998
218481.0,151.072,-3441.4899999999998,-3313.0700000000002,-3377.5799999999999,13.3651,-37.840600000000002,43.289999999999999
218482.0,151.86099999999999,-2726.3200000000002,-2591.8800000000001,-2669.0,10.939299999999999,-34.670299999999997,42.590899999999998
218483.0,149.601,-2005.4200000000001,-1871.7,-1956.75,11.032,-31.7636,41.819800000000001
218484.0,150.37,-1271.2,-1142.0899999999999,-1227.0699999999999,7.74871,-29.652999999999999,47.862400000000001
218485.0,152.71100000000001,-637.60699999999997,-516.67600000000004,-590.84299999999996,1.82599,-30.7149,55.750500000000002
218486.0,225.98099999999999,-2231.8200000000002,-2209.4899999999998,-2249.2800000000002,32.104900000000001,26.587599999999998,122.012
218487.0,182.392,-12.3505,98.752499999999998,-55.7104,-7.9386599999999996,-1.92988,68.374700000000004
218488.0,121.822,2235.2600000000002,2294.5599999999999,2287.9000000000001,-13.684100000000001,-7.5160799999999997,60.395600000000002
218489.0,208.58799999999999,5566.5799999999999,5671.6800000000003,5680.1000000000004,-31.200199999999999,-35.342599999999997,90.995400000000004
218490.0,125.084,3678.48,3796.9499999999998,3716.2800000000002,11.569000000000001,-26.7941,26.4894
218491.0,134.06299999999999,1994.72,2119.3099999999999,2033.98,8.8142099999999992,-22.564800000000002,36.698500000000003
218492.0,210.58500000000001,6108.5900000000001,6201.9799999999996,6213.71,-28.060199999999998,-37.467700000000001,96.295299999999997
218493.0,220.67599999999999,4420.0900000000001,4570.21,4511.1999999999998,-21.237200000000001,-25.184200000000001,97.092399999999998
218494.0,98.636799999999994,1194.28,1289.5799999999999,1216.5999999999999,-26.327500000000001,4.1833099999999996,6.9591200000000004
218495.0,127.699,962.61199999999997,1078.1900000000001,976.577,-32.940800000000003,3.9733399999999999,18.84
218496.0,88.413600000000002,72.860500000000002,159.953,108.22199999999999,-24.457599999999999,-1.0653600000000001,9.3654899999999994
218497.0,118.756,1781.8499999999999,1874.4300000000001,1842.9400000000001,-39.417400000000001,-10.406700000000001,28.693300000000001
218498.0,150.38800000000001,1355.22,1434.6099999999999,1426.45,-50.360599999999998,-13.75,53.907499999999999
218499.0,139.31800000000001,3107.6399999999999,3164.02,3169.3000000000002,-37.986800000000002,-10.126899999999999,61.288899999999998
218500.0,128.78100000000001,-2566.0999999999999,-2521.3600000000001,-2514.0799999999999,-31.065300000000001,-13.2637,59.948900000000002
218501.0,166.892,3006.9400000000001,3111.25,3077.5,-11.8644,-15.922000000000001,77.825100000000006
218502.0,232.30199999999999,3757.6700000000001,3909.8899999999999,3857.0900000000001,-26.545300000000001,-30.478000000000002,101.883
218503.0,212.197,4474.8699999999999,4595.8599999999997,4573.0900000000001,-28.016500000000001,-34.190100000000001,94.451700000000002
218504.0,193.19999999999999,4945.2799999999997,5046.71,5042.1599999999999,-23.214700000000001,-35.799500000000002,85.668700000000001
218505.0,208.40899999999999,5285.7600000000002,5385.96,5394.9399999999996,-29.656700000000001,-36.1006,92.852000000000004
218506.0,209.71600000000001,-5362.0600000000004,-5256.1400000000003,-5249.8199999999997,-32.987099999999998,-36.8384,90.768500000000003
218507.0,214.465,5848.4700000000003,5952.4099999999999,5963.1599999999999,-33.1295,-35.311799999999998,94.735600000000005
218508.0,189.404,5976.3400000000001,6066.25,6071.4300000000003,-17.7667,-38.569600000000001,85.416700000000006
218509.0,162.697,5741.6199999999999,5835.8400000000001,5824.1599999999999,-9.3497500000000002,-37.561599999999999,68.465999999999994
218510.0,141.768,5293.5200000000004,5389.8000000000002,5355.04,-2.2181000000000002,-36.275799999999997,54.784700000000001
218511.0,125.26300000000001,4538.2299999999996,4644.96,4581.1999999999998,8.8167500000000008,-32.117899999999999,35.171399999999998
218512.0,121.95399999999999,-4256.0299999999997,-4142.4200000000001,-4203.8000000000002,12.7277,-29.287800000000001,26.536999999999999
218513.0,129.285,2837.8499999999999,2961.5799999999999,2875.5999999999999,10.105600000000001,-23.3096,30.089500000000001
218514.0,137.72999999999999,1259.79,1381.01,1299.0599999999999,7.50122,-23.467700000000001,43.485999999999997
218515.0,138.00299999999999,648.64300000000003,760.21900000000005,689.95699999999999,5.4753400000000001,-26.204799999999999,49.491700000000002
218516.0,164.113,132.59299999999999,263.42700000000002,173.09,4.23109,-17.181000000000001,64.638999999999996
218517.0,114.501,11.9504,-6.3372099999999998,55.0655,-46.1631,-29.588999999999999,-19.227799999999998
218518.0,131.46799999999999,-585.62099999999998,-473.22000000000003,-577.76400000000001,-34.879199999999997,-0.25279600000000002,24.640000000000001
218519.0,112.783,-1523.4300000000001,-1418.4200000000001,-1506.45,-32.088299999999997,-1.78095,5.4393099999999999
218520.0,99.650899999999993,-589.47699999999998,-489.59699999999998,-563.43399999999997,-24.8523,-2.1415199999999999,-1.87561
218521.0,100.354,-991.399,-887.89300000000003,-948.24900000000002,-23.2303,-2.1778,10.4674
218522.0,123.642,-1721.53,-1629.98,-1664.3099999999999,-35.814399999999999,-6.3521400000000003,40.419699999999999
218523.0,139.83799999999999,-2398.0700000000002,-2343.54,-2341.3800000000001,-44.726100000000002,-12.025,57.8035
218524.0,152.32499999999999,-2118.0,-2022.9200000000001,-2055.7600000000002,-12.215400000000001,-11.535399999999999,71.552400000000006
218525.0,215.20599999999999,-4005.3000000000002,-3853.1100000000001,-3917.29,-11.0488,-18.707899999999999,95.538399999999996
218526.0,236.78399999999999,-4290.1800000000003,-4122.9399999999996,-4191.0500000000002,-15.4254,-26.655200000000001,103.28700000000001
218527.0,216.143,-3930.48,-3788.75,-3834.21,-18.666699999999999,-30.994299999999999,95.010599999999997
218528.0,193.59200000000001,-4668.8599999999997,-4558.1800000000003,-4574.1800000000003,-20.886399999999998,-34.839300000000001,85.2286
218529.0,204.96199999999999,-5103.6599999999999,-4994.5799999999999,-5000.5799999999999,-28.128599999999999,-34.323799999999999,90.961600000000004
218530.0,214.75999999999999,-5641.21,-5533.8400000000001,-5528.46,-34.979100000000003,-36.1462,93.800399999999996
218531.0,211.08199999999999,-6000.0799999999999,-5901.2299999999996,-5895.9799999999996,-30.9663,-38.404600000000002,94.754400000000004
218532.0,191.78,-6084.54,-5994.0100000000002,-5993.54,-23.073599999999999,-43.067300000000003,84.418899999999994
218533.0,168.09899999999999,-5891.9399999999996,-5800.5100000000002,-5807.6000000000004,-13.6692,-43.572600000000001,68.896000000000001
218534.0,146.398,-5613.5100000000002,-5520.4700000000003,-5541.0100000000002,-3.7563900000000001,-40.675400000000003,55.555700000000002
218535.0,124.48999999999999,-5056.5500000000002,-4958.1899999999996,-5001.1400000000003,8.0453499999999991,-37.446899999999999,35.595999999999997
218536.0,125.97,-3435.3400000000001,-3312.6300000000001,-3383.75,11.640700000000001,-22.7882,28.9575
218537.0,131.67500000000001,-2611.3200000000002,-2485.73,-2563.3299999999999,9.84619,-20.588100000000001,35.246699999999997
218538.0,136.60599999999999,-1814.3499999999999,-1690.55,-1768.8399999999999,8.2942,-20.877500000000001,42.364100000000001
218539.0,140.267,-1139.0799999999999,-1021.34,-1095.3599999999999,6.2588200000000001,-22.0199,49.919699999999999
218540.0,141.61799999999999,-568.005,-459.72199999999998,-521.36099999999999,3.9115099999999998,-24.665099999999999,55.780999999999999
218541.0,213.518,1150.3499999999999,1186.9000000000001,1130.3199999999999,42.301400000000001,14.117900000000001,111.28700000000001
218542.0,149.959,576.66800000000001,671.95500000000004,536.73000000000002,-3.8490199999999999,-0.32330900000000001,51.519100000000002
218543.0,151.42400000000001,3234.0599999999999,3299.3200000000002,3299.04,-35.541400000000003,-10.9102,69.624799999999993
218544.0,174.04400000000001,5197.1999999999998,5275.1700000000001,5288.7799999999997,-32.553600000000003,-28.415900000000001,76.0779
218545.0,105.97199999999999,3697.4400000000001,3802.8400000000001,3715.0999999999999,17.32,-9.8068600000000004,12.678800000000001
218546.0,108.718,1823.3299999999999,1915.3900000000001,1847.98,14.0107,-8.3641900000000007,37.447200000000002
218547.0,215.50399999999999,5734.0699999999997,5814.6400000000003,5852.6000000000004,-42.810000000000002,-27.723099999999999,95.998500000000007
218548.0,185.08199999999999,2848.2399999999998,2955.6199999999999,2917.23,-6.1384999999999996,-14.039300000000001,90.680000000000007
218549.0,76.026600000000002,-55.143900000000002,19.0243,-39.251600000000003,-13.382300000000001,9.1586800000000004,11.780900000000001
218550.0,101.351,-63.532200000000003,25.970300000000002,-56.561300000000003,-23.2987,7.3729500000000003,18.664899999999999
218551.0,73.903000000000006,1092.9300000000001,1170.6900000000001,1122.02,-13.2164,1.9641999999999999,9.9128900000000009
218552.0,100.256,-348.60700000000003,-263.23000000000002,-300.65600000000001,-29.934699999999999,-10.6877,22.5517
218553.0,136.679,1168.6400000000001,1245.74,1230.4400000000001,-46.6038,-15.2646,46.4328
218554.0,154.59800000000001,994.45799999999997,1057.25,1061.4200000000001,-50.585500000000003,-14.927199999999999,61.462400000000002
218555.0,156.392,-1813.1700000000001,-1758.1500000000001,-1757.76,-46.621099999999998,-16.6419,68.457499999999996
218556.0,164.77600000000001,3426.1999999999998,3510.6199999999999,3486.9699999999998,-14.0944,-9.2851199999999992,82.878699999999995
218557.0,189.381,4305.21,4420.3699999999999,4391.3699999999999,-11.265599999999999,-17.990300000000001,88.973600000000005
218558.0,184.065,4331.8699999999999,4429.7200000000003,4424.7799999999997,-22.964400000000001,-22.379300000000001,85.006900000000002
218559.0,161.56800000000001,4554.6899999999996,4627.8900000000003,4633.5,-23.2332,-24.064699999999998,75.159499999999994
218560.0,164.017,4855.5900000000001,4923.2399999999998,4935.2200000000003,-27.836099999999998,-26.113299999999999,75.280199999999994
218561.0,170.96299999999999,-4888.21,-4806.3699999999999,-4799.6300000000001,-31.459499999999998,-26.622299999999999,74.918000000000006
218562.0,201.89699999999999,5480.29,5564.7200000000003,5589.46,-41.1098,-29.183,88.146000000000001
218563.0,188.82400000000001,6043.0900000000001,6120.0,6150.5100000000002,-30.184899999999999,-26.317,84.953199999999995
218564.0,155.29300000000001,5912.3100000000004,5994.8199999999997,5999.6700000000001,-17.682400000000001,-25.819700000000001,68.180800000000005
218565.0,126.413,5500.96,5591.6599999999999,5568.1199999999999,-5.61869,-21.872399999999999,51.003
218566.0,101.943,4769.0500000000002,4869.9200000000001,4804.0799999999999,12.231299999999999,-14.972300000000001,21.6158
218567.0,88.828500000000005,-4410.5100000000002,-4319.6999999999998,-4381.71,16.313800000000001,-11.763999999999999,8.5025999999999993
218568.0,104.628,2643.4000000000001,2742.48,2662.6999999999998,14.0709,-7.9743599999999999,25.0625
218569.0,116.79600000000001,1140.3699999999999,1231.01,1173.5999999999999,16.0352,-9.7682900000000004,45.735300000000002
218570.0,122.148,563.10400000000004,652.23000000000002,610.22900000000004,18.282299999999999,-12.3858,49.976500000000001
218571.0,147.017,123.462,232.119,175.495,17.074300000000001,-5.5961499999999997,62.678100000000001
218572.0,113.13200000000001,8.7621199999999995,-7.2400099999999998,55.891100000000002,-47.196399999999997,-25.784400000000002,-17.229099999999999
218573.0,118.741,-256.13900000000001,-147.905,-250.66800000000001,-27.502400000000002,1.1349100000000001,14.986700000000001
218574.0,90.794799999999995,475.03199999999998,560.846,484.90699999999998,-21.416799999999999,1.8199000000000001,9.0108899999999998
218575.0,74.624200000000002,-598.13499999999999,-519.96600000000001,-578.03099999999995,-14.057399999999999,2.87629,1.6441300000000001
218576.0,83.937299999999993,-169.41999999999999,-78.713300000000004,-135.035,-13.999700000000001,-1.0759399999999999,7.3695000000000004
218577.0,111.505,105.054,198.239,154.47999999999999,-29.400300000000001,-6.7051100000000003,32.582500000000003
218578.0,139.03,-546.32899999999995,-476.10399999999998,-489.94400000000002,-43.673299999999998,-12.085699999999999,54.826599999999999
218579.0,165.05699999999999,-3470.5700000000002,-3400.1700000000001,-3415.4299999999998,-29.2028,-15.5001,81.344099999999997
218580.0,181.78800000000001,-2718.21,-2610.7199999999998,-2652.6599999999999,-9.2670200000000005,-14.7179,88.193700000000007
218581.0,194.50800000000001,-3364.5300000000002,-3231.8699999999999,-3279.5700000000002,-4.0630499999999996,-15.6736,88.507599999999996
218582.0,190.238,-4424.5799999999999,-4299.8699999999999,-4329.4300000000003,-10.667199999999999,-17.323,86.041799999999995
218583.0,170.149,-4285.6599999999999,-4197.3500000000004,-4197.6199999999999,-17.819500000000001,-23.131900000000002,78.779600000000002
218584.0,163.62700000000001,-4486.3800000000001,-4410.8299999999999,-4405.71,-24.0642,-23.785299999999999,75.760499999999993
218585.0,196.89500000000001,-5268.3400000000001,-5177.4099999999999,-5166.3800000000001,-40.482100000000003,-26.897500000000001,86.193100000000001
218586.0,212.47499999999999,-5492.9300000000003,-5408.1199999999999,-5381.1199999999999,-44.829000000000001,-27.6724,94.174300000000002
218587.0,188.57400000000001,-5875.0600000000004,-5804.3599999999997,-5767.6800000000003,-36.753999999999998,-29.575800000000001,81.5381
218588.0,152.81800000000001,-6071.8900000000003,-6003.79,-5979.3000000000002,-24.459199999999999,-29.464099999999998,63.375900000000001
218589.0,119.185,-5802.9700000000003,-5731.0,-5727.71,-10.1273,-25.6907,46.512599999999999
218590.0,83.227800000000002,-5307.5200000000004,-5230.1999999999998,-5257.7200000000003,8.9947599999999994,-20.303799999999999,16.724599999999999
218591.0,100.809,-3282.8899999999999,-3184.6199999999999,-3258.7199999999998,14.074999999999999,-6.0229299999999997,23.0383
218592.0,110.367,-2342.02,-2245.1999999999998,-2315.27,13.3889,-5.9854599999999998,36.6783
218593.0,120.30500000000001,-1616.77,-1520.3299999999999,-1583.5999999999999,15.3916,-7.7333600000000002,46.120800000000003
218594.0,131.102,-991.78700000000003,-892.16999999999996,-947.66800000000001,17.921099999999999,-9.5032200000000007,53.160899999999998
218595.0,137.90000000000001,-483.50299999999999,-385.55000000000001,-424.81900000000002,16.298100000000002,-13.031700000000001,58.9345
218596.0,195.881,-1967.4100000000001,-1914.73,-1982.8800000000001,48.975900000000003,5.1951599999999996,95.329599999999999
218597.0,128.191,-220.85499999999999,-129.93799999999999,-253.15100000000001,-2.4779800000000001,-0.94088899999999998,37.267800000000001
218598.0,183.042,1594.1099999999999,1651.51,1663.51,-47.453800000000001,-15.984500000000001,85.352199999999996
218599.0,128.27000000000001,4591.3400000000001,4649.8199999999997,4641.1599999999999,-23.909800000000001,-21.504899999999999,58.772300000000001
218600.0,92.608099999999993,3038.9000000000001,3123.23,3031.1100000000001,10.5768,-7.4860100000000003,9.0113900000000005
218601.0,93.906800000000004,1505.0999999999999,1580.3800000000001,1514.5599999999999,0.56036600000000003,-10.678000000000001,33.817500000000003
218602.0,180.96000000000001,5101.7200000000003,5166.1599999999999,5188.5200000000004,-49.005899999999997,-25.296900000000001,76.436499999999995
218603.0,163.804,4644.04,4723.6599999999999,4705.5900000000001,-9.5935299999999994,-2.2880099999999999,84.286100000000005
218604.0,69.586500000000001,830.42899999999997,900.46199999999999,844.601,-5.3519100000000002,8.4972499999999993,11.927099999999999
218605.0,91.203400000000002,652.61199999999997,734.67399999999998,658.33699999999999,-17.090199999999999,9.1952200000000008,17.234100000000002
218606.0,66.244100000000003,-293.25,-222.89599999999999,-271.262,-8.3555700000000002,3.53593,9.2221299999999999
218607.0,73.5916,1286.9000000000001,1354.46,1319.28,-22.182600000000001,-5.11503,12.051500000000001
218608.0,102.864,474.86799999999999,536.05600000000004,524.59799999999996,-36.262999999999998,-10.8111,32.203299999999999
218609.0,151.279,2030.1099999999999,2085.1900000000001,2095.6500000000001,-48.228499999999997,-15.3437,61.865299999999998
218610.0,172.352,-1612.25,-1549.8699999999999,-1553.8299999999999,-44.411200000000001,-15.401300000000001,80.449100000000001
218611.0,181.875,3078.0,3147.5900000000001,3142.77,-28.437200000000001,-7.5701700000000001,93.006699999999995
218612.0,147.91300000000001,3653.6500000000001,3738.02,3717.2800000000002,-8.4791500000000006,-6.9279299999999999,72.390100000000004
218613.0,155.18100000000001,4109.5600000000004,4187.25,4184.5699999999997,-20.051400000000001,-13.684100000000001,74.114099999999993
218614.0,147.084,4504.4899999999998,4569.0100000000002,4570.6400000000003,-26.438400000000001,-17.359200000000001,69.193100000000001
218615.0,131.31100000000001,4647.5200000000004,4702.2600000000002,4698.3100000000004,-24.0959,-19.1921,62.183900000000001
218616.0,124.994,-4484.8999999999996,-4426.75,-4428.8199999999997,-22.6861,-17.483699999999999,57.434899999999999
218617.0,159.01400000000001,4716.8900000000003,4780.0200000000004,4785.3699999999999,-38.404000000000003,-24.711200000000002,69.944999999999993
218618.0,170.88399999999999,5284.4700000000003,5352.1700000000001,5371.8199999999997,-44.7973,-18.987200000000001,72.5715
218619.0,142.018,5301.9499999999998,5371.8500000000004,5370.5500000000002,-35.911000000000001,-14.2842,60.255000000000003
218620.0,97.006100000000004,4856.7799999999997,4930.5100000000002,4896.1899999999996,-16.6065,-10.494999999999999,37.280700000000003
218621.0,82.889700000000005,3991.4499999999998,4073.8800000000001,3998.1700000000001,3.0223599999999999,-7.6923899999999996,11.2623
218622.0,82.076400000000007,-3612.8899999999999,-3536.5100000000002,-3615.5799999999999,9.4996799999999997,-9.49221,7.0200100000000001
218623.0,92.582400000000007,2205.46,2287.0100000000002,2203.8899999999999,6.6963200000000001,-9.1696200000000001,21.638500000000001
218624.0,106.357,973.649,1035.72,991.68600000000004,-0.072420999999999999,-14.025700000000001,50.542000000000002
218625.0,114.328,539.39800000000002,592.15700000000004,560.30499999999995,7.3744500000000004,-19.139900000000001,56.836399999999998
218626.0,135.411,142.79900000000001,226.53,153.36699999999999,11.998100000000001,-12.237299999999999,61.148400000000002
218627.0,120.267,14.9191,-5.3207800000000001,62.777799999999999,-53.110799999999998,-21.870000000000001,-17.303999999999998
218628.0,114.896,-266.291,-157.626,-262.38900000000001,-22.1675,1.4941599999999999,10.3429
218629.0,81.741399999999999,-1163.02,-1081.0699999999999,-1153.74,-11.7317,2.1652100000000001,8.4347999999999992
218630.0,68.099699999999999,-242.583,-169.03,-224.15100000000001,-5.8720400000000001,4.7163899999999996,4.94672
218631.0,68.577500000000001,-669.11300000000006,-594.01099999999997,-643.95799999999997,-9.4122900000000005,0.46578199999999997,4.1867700000000001
218632.0,82.360399999999998,-1127.1500000000001,-1049.96,-1093.46,-19.371500000000001,-4.2750199999999996,19.242599999999999
218633.0,122.90300000000001,-1345.6500000000001,-1269.9400000000001,-1297.3299999999999,-32.214399999999998,-9.2563600000000008,49.417499999999997
218634.0,193.56200000000001,-1796.49,-1741.9400000000001,-1735.48,-42.483800000000002,-17.127600000000001,96.266000000000005
218635.0,169.166,-4125.0900000000001,-4060.4299999999998,-4065.1999999999998,-25.214700000000001,-12.0205,86.374799999999993
218636.0,147.17599999999999,-4287.3500000000004,-4201.5699999999997,-4224.7399999999998,-12.0198,-8.2784999999999993,70.979299999999995
218637.0,153.03,-3618.1599999999999,-3519.6100000000001,-3547.5999999999999,-13.1137,-8.3832199999999997,70.604299999999995
218638.0,151.92599999999999,-4198.8299999999999,-4120.4799999999996,-4121.6899999999996,-19.312799999999999,-12.977499999999999,71.674000000000007
218639.0,134.86600000000001,-4479.3699999999999,-4422.96,-4415.1000000000004,-20.370200000000001,-15.980600000000001,64.526899999999998
218640.0,149.136,-4499.8100000000004,-4428.2299999999996,-4433.9700000000003,-33.301200000000001,-15.8813,66.862700000000004
218641.0,170.24799999999999,-4812.21,-4744.2299999999996,-4729.7399999999998,-44.954700000000003,-17.396899999999999,73.479500000000002
218642.0,170.04499999999999,-5116.8699999999999,-5059.0100000000002,-5026.3800000000001,-48.700000000000003,-19.4361,69.202299999999994
218643.0,143.642,-5292.1300000000001,-5236.5600000000004,-5213.6700000000001,-41.9392,-17.743500000000001,56.357900000000001
218644.0,92.642099999999999,-5190.96,-5134.1499999999996,-5141.7600000000002,-23.075600000000001,-16.534400000000002,33.224299999999999
218645.0,65.656599999999997,-4546.5900000000001,-4480.1400000000003,-4527.8599999999997,-1.3355699999999999,-14.0509,7.9852999999999996
218646.0,94.941500000000005,-2707.6100000000001,-2626.1700000000001,-2713.4499999999998,7.2119099999999996,-8.8074100000000008,22.228200000000001
218647.0,101.977,-1930.98,-1851.6099999999999,-1929.03,0.095216899999999993,-11.1022,35.9617
218648.0,115.069,-1294.3599999999999,-1224.6099999999999,-1285.3499999999999,-3.7161499999999998,-15.169600000000001,52.2545
218649.0,125.52200000000001,-828.63699999999994,-765.976,-819.85699999999997,1.46482,-22.770600000000002,59.834600000000002
218650.0,122.941,-434.72800000000001,-368.23899999999998,-419.71100000000001,7.4141500000000002,-27.4176,54.9133
218651.0,176.02799999999999,1551.29,1624.9100000000001,1548.3199999999999,50.247399999999999,1.40734,76.936999999999998
218652.0,111.65600000000001,361.29599999999999,446.16300000000001,332.25799999999998,-4.7540699999999996,-2.3306900000000002,24.987300000000001
218653.0,186.84200000000001,2629.7199999999998,2662.5599999999999,2693.75,-29.8657,-9.4472299999999994,98.133899999999997
218654.0,83.974100000000007,4355.7299999999996,4407.6000000000004,4359.7200000000003,-10.714,-6.4624800000000002,36.887700000000002
218655.0,84.279200000000003,1923.72,1983.1400000000001,1891.98,-2.12642,-8.94069,11.896800000000001
218656.0,78.489099999999993,447.44600000000003,509.93099999999998,449.07999999999998,1.84338,-7.3290300000000004,26.982800000000001
218657.0,114.529,3357.75,3412.1700000000001,3375.5100000000002,-44.834800000000001,-17.250399999999999,35.978900000000003
218658.0,168.95099999999999,3085.9899999999998,3126.1599999999999,3146.3000000000002,-7.8088300000000004,3.3811800000000001,92.192999999999998
218659.0,67.011200000000002,-311.38499999999999,-244.43199999999999,-299.44,-0.43470799999999998,9.0039200000000008,11.848000000000001
218660.0,85.130200000000002,-266.464,-190.375,-260.04199999999997,-14.776300000000001,11.4255,16.914200000000001
218661.0,55.738799999999998,824.58199999999999,882.30700000000002,840.04700000000003,4.1222000000000003,7.6883900000000001,8.1610999999999994
218662.0,47.419600000000003,-752.33399999999995,-704.39400000000001,-725.60299999999995,-0.31051499999999999,3.25027,12.718999999999999
218663.0,77.705100000000002,462.08800000000002,501.69999999999999,506.053,-10.814399999999999,-2.2317900000000002,36.110100000000003
218664.0,142.08500000000001,180.90799999999999,214.46199999999999,241.21100000000001,-23.470500000000001,-6.3246500000000001,72.287700000000001
218665.0,173.25299999999999,-1104.5799999999999,-1058.1900000000001,-1047.8199999999999,-20.376899999999999,-5.5956200000000003,92.981899999999996
218666.0,188.90000000000001,3217.5999999999999,3252.8099999999999,3279.3099999999999,-24.240200000000002,-6.5167099999999998,101.52
218667.0,147.74700000000001,4707.0500000000002,4756.2600000000002,4766.0699999999997,3.9841500000000001,9.0219100000000001,78.605199999999996
218668.0,140.34399999999999,4511.71,4561.4200000000001,4574.7700000000004,1.7491699999999999,5.8707799999999999,73.646600000000007
218669.0,130.48599999999999,4474.1999999999998,4526.1499999999996,4531.71,-9.4042999999999992,-2.6394799999999998,67.631299999999996
218670.0,104.895,4528.7799999999997,4578.6400000000003,4561.6099999999997,-10.2912,-6.2149700000000001,53.671700000000001
218671.0,80.156599999999997,-4456.2200000000003,-4416.9799999999996,-4426.3000000000002,-9.5704700000000003,-3.9844900000000001,40.173999999999999
218672.0,92.773200000000003,3843.4200000000001,3899.6199999999999,3845.04,-27.321999999999999,-10.884600000000001,31.3141
218673.0,132.10400000000001,3331.9299999999998,3386.2399999999998,3367.5799999999999,-53.331499999999998,-16.773199999999999,43.933999999999997
218674.0,137.25899999999999,3316.1100000000001,3371.8099999999999,3361.48,-55.343699999999998,-12.817600000000001,46.633400000000002
218675.0,103.69499999999999,3194.1399999999999,3248.8899999999999,3219.4400000000001,-39.807499999999997,-8.7479899999999997,34.240299999999998
218676.0,78.431299999999993,2731.5900000000001,2791.8800000000001,2719.6300000000001,-17.516200000000001,-7.8591800000000003,13.4992
218677.0,79.776200000000003,-2384.9299999999998,-2328.4699999999998,-2410.3299999999999,-5.4762000000000004,-14.3696,11.372999999999999
218678.0,85.316699999999997,1064.1600000000001,1127.6700000000001,1036.6700000000001,7.2282000000000002,-7.7130000000000001,11.670299999999999
218679.0,131.36500000000001,265.11700000000002,301.79300000000001,305.87,-10.414199999999999,-10.9053,70.8596
218680.0,141.21600000000001,318.00999999999999,341.30599999999998,359.75599999999997,-5.2252599999999996,-14.865399999999999,77.209999999999994
218681.0,132.02799999999999,154.72300000000001,225.41499999999999,147.71299999999999,9.2302,-4.1216200000000001,62.136499999999998
218682.0,122.343,-1.68686,-34.342700000000001,45.269100000000002,-53.086100000000002,-17.3171,-16.421600000000002
218683.0,107.983,-23.831399999999999,76.3459,-26.755299999999998,-19.6464,1.80661,7.2023700000000002
218684.0,75.506600000000006,698.05499999999995,775.37800000000004,709.28599999999994,-7.4122399999999997,4.84368,8.7472200000000004
218685.0,64.157799999999995,-325.666,-256.48399999999998,-309.798,1.2297,5.2762599999999997,5.4154400000000003
218686.0,58.666200000000003,118.73399999999999,181.87,137.001,7.2882400000000001,3.9767899999999998,4.7744200000000001
218687.0,67.916399999999996,631.048,693.90200000000004,657.03099999999995,4.4111200000000004,0.94224600000000003,22.796700000000001
218688.0,115.051,258.95600000000002,317.93200000000002,299.69499999999999,-8.3279099999999993,-1.70906,58.551099999999998
218689.0,193.47499999999999,-3103.8800000000001,-3069.9099999999999,-3041.6900000000001,-27.301500000000001,-9.7475900000000006,103.283
218690.0,177.036,-2707.0900000000001,-2680.02,-2647.2399999999998,-22.531500000000001,-6.7671299999999999,94.844800000000006
218691.0,146.751,-3647.3699999999999,-3614.5300000000002,-3589.7199999999998,-10.2311,0.82333800000000001,78.975099999999998
218692.0,131.822,-4736.29,-4690.4300000000003,-4680.0600000000004,-1.6080000000000001,6.4827599999999999,69.658299999999997
218693.0,129.10599999999999,-4389.8500000000004,-4340.9399999999996,-4327.6199999999999,-3.7019199999999999,4.6202500000000004,66.689700000000002
218694.0,110.441,-4393.21,-4352.9499999999998,-4340.0500000000002,-6.4474600000000004,-1.70479,57.0319
218695.0,81.761099999999999,-4132.29,-4076.3000000000002,-4119.8800000000001,-19.302299999999999,-1.42248,31.447299999999998
218696.0,104.232,-3477.0700000000002,-3410.4699999999998,-3460.4899999999998,-34.345300000000002,-4.0364500000000003,34.9754
218697.0,131.232,-3182.3299999999999,-3116.98,-3150.8600000000001,-50.847000000000001,-12.595499999999999,43.915100000000002
218698.0,144.261,-3231.3099999999999,-3169.4400000000001,-3189.7399999999998,-58.113100000000003,-16.6479,47.833399999999997
218699.0,114.595,-3212.8899999999999,-3161.8800000000001,-3181.4400000000001,-46.667900000000003,-18.438199999999998,34.5976
218700.0,75.921999999999997,-2999.9699999999998,-2950.8400000000001,-3000.0599999999999,-24.863199999999999,-18.861899999999999,11.8917
218701.0,92.998199999999997,-1538.6500000000001,-1472.0899999999999,-1570.54,5.3191899999999999,-12.002000000000001,13.6968
218702.0,98.446600000000004,-786.92600000000004,-711.98199999999997,-796.553,0.83587599999999995,-8.0462500000000006,31.961400000000001
218703.0,144.84899999999999,-344.59800000000001,-287.76100000000002,-318.137,-13.8977,-9.0881799999999995,76.870800000000003
218704.0,147.38200000000001,-346.947,-315.46899999999999,-317.20800000000003,-12.2842,-20.715800000000002,79.6708
218705.0,91.972200000000001,-375.88299999999998,-344.70800000000003,-367.48000000000002,2.6516700000000002,-25.2729,43.745899999999999
