Label,S_Mises,S_S11,S_S22,S_S33,S_S12,S_S13,S_S23
1.0,1.5949499999999999e-28,1.14761e-24,1.14746e-24,1.1476199999999999e-24,1.2447599999999999e-30,4.7753900000000002e-30,-1.9065200000000001e-29
2.0,1.3043500000000001e-28,1.1475899999999999e-24,1.14747e-24,1.1475899999999999e-24,-2.3065399999999999e-30,4.5870599999999998e-30,-1.4464699999999999e-29
3.0,1.0461799999999999e-28,1.1475700000000001e-24,1.14747e-24,1.1475700000000001e-24,-5.4028499999999998e-30,4.0303900000000002e-30,-1.0677e-29
4.0,8.5413699999999996e-29,1.14755e-24,1.14747e-24,1.14755e-24,-9.6159900000000006e-30,3.66416e-30,-7.7291599999999994e-30
5.0,6.8932700000000005e-29,1.1475400000000001e-24,1.14747e-24,1.1475400000000001e-24,-1.20302e-29,3.2748400000000002e-30,-5.2926900000000001e-30
6.0,5.7535000000000004e-29,1.14752e-24,1.14747e-24,1.14752e-24,-1.5079500000000001e-29,2.8094099999999998e-30,-3.3423999999999998e-30
7.0,4.8158499999999999e-29,1.1475100000000001e-24,1.14747e-24,1.1475100000000001e-24,-1.6671200000000001e-29,2.4811899999999999e-30,-1.9713300000000001e-30
8.0,1.49302e-28,1.14761e-24,1.14746e-24,1.14761e-24,-4.5835700000000003e-30,3.6066000000000001e-30,-1.6800899999999999e-29
9.0,1.25e-28,1.1475899999999999e-24,1.14747e-24,1.1475899999999999e-24,-5.4677799999999998e-30,3.2106899999999998e-30,-1.32705e-29
10.0,1.02387e-28,1.1475700000000001e-24,1.14747e-24,1.1475700000000001e-24,-8.3187100000000003e-30,3.0472499999999998e-30,-9.96162e-30
11.0,8.2714599999999996e-29,1.1475599999999999e-24,1.14747e-24,1.14755e-24,-1.0281600000000001e-29,2.6306e-30,-7.3364100000000006e-30
12.0,6.7922400000000005e-29,1.1475400000000001e-24,1.14747e-24,1.1475400000000001e-24,-1.2836200000000001e-29,2.34041e-30,-5.1108200000000001e-30
13.0,5.5003399999999999e-29,1.14752e-24,1.14747e-24,1.14752e-24,-1.4318299999999999e-29,2.0247600000000001e-30,-3.48044e-30
14.0,4.6589199999999999e-29,1.1475100000000001e-24,1.14747e-24,1.1475100000000001e-24,-1.5920299999999999e-29,1.54031e-30,-1.7140699999999999e-30
15.0,1.50412e-28,1.14761e-24,1.14747e-24,1.14761e-24,-1.41086e-30,5.4166400000000003e-30,-2.3197300000000001e-29
16.0,1.2247699999999999e-28,1.1475899999999999e-24,1.14747e-24,1.1475899999999999e-24,-3.7739599999999998e-30,5.0474399999999999e-30,-1.7217600000000001e-29
17.0,9.9719099999999997e-29,1.1475700000000001e-24,1.14747e-24,1.1475700000000001e-24,-7.2213700000000003e-30,4.5517200000000002e-30,-1.2251e-29
18.0,8.06466e-29,1.14755e-24,1.1474799999999999e-24,1.14755e-24,-1.01377e-29,3.9873799999999998e-30,-8.2757599999999996e-30
19.0,6.62781e-29,1.1475400000000001e-24,1.14747e-24,1.14753e-24,-1.3179800000000001e-29,3.5457599999999998e-30,-5.1140499999999999e-30
20.0,5.4745900000000005e-29,1.14752e-24,1.14747e-24,1.14752e-24,-1.5278300000000001e-29,2.9950399999999999e-30,-2.5594900000000002e-30
21.0,4.7062900000000001e-29,1.1475100000000001e-24,1.14747e-24,1.1475e-24,-1.73511e-29,2.4129300000000002e-30,-2.7401799999999998e-31
22.0,1.38493e-28,1.1476000000000001e-24,1.14747e-24,1.1476000000000001e-24,-6.2325699999999997e-30,3.3555700000000001e-30,-1.9639899999999999e-29
23.0,1.1707199999999999e-28,1.1475899999999999e-24,1.14747e-24,1.14758e-24,-7.4446899999999997e-30,3.24957e-30,-1.5266600000000001e-29
24.0,9.6059199999999996e-29,1.1475700000000001e-24,1.1474799999999999e-24,1.1475700000000001e-24,-9.1769299999999997e-30,2.9404e-30,-1.1123499999999999e-29
25.0,7.8541200000000005e-29,1.14755e-24,1.1474799999999999e-24,1.14755e-24,-1.13503e-29,2.6621000000000001e-30,-7.6970499999999996e-30
26.0,6.3939400000000003e-29,1.1475400000000001e-24,1.1474799999999999e-24,1.14753e-24,-1.30891e-29,2.2543599999999998e-30,-4.9057700000000001e-30
27.0,5.32001e-29,1.14752e-24,1.14747e-24,1.14752e-24,-1.4944199999999999e-29,1.91347e-30,-2.6008299999999999e-30
28.0,4.4533800000000003e-29,1.1475100000000001e-24,1.14747e-24,1.1475100000000001e-24,-1.6142499999999999e-29,1.5183400000000001e-30,-1.10442e-30
29.0,1.3735199999999999e-28,1.1476000000000001e-24,1.14747e-24,1.1476000000000001e-24,-4.2114300000000003e-30,5.3304400000000001e-30,-2.5132100000000001e-29
30.0,1.1323e-28,1.1475899999999999e-24,1.1474799999999999e-24,1.14758e-24,-6.0683400000000003e-30,5.1125799999999997e-30,-1.8409100000000001e-29
31.0,9.2468300000000001e-29,1.1475700000000001e-24,1.1474799999999999e-24,1.1475599999999999e-24,-8.7212099999999997e-30,4.5953200000000003e-30,-1.2769800000000001e-29
32.0,7.5644799999999999e-29,1.14755e-24,1.1474799999999999e-24,1.14755e-24,-1.1509099999999999e-29,4.0981499999999997e-30,-8.1644800000000005e-30
33.0,6.2177699999999999e-29,1.14753e-24,1.1474799999999999e-24,1.14753e-24,-1.3809799999999999e-29,3.4953300000000002e-30,-4.4668300000000002e-30
34.0,5.2372100000000005e-29,1.14752e-24,1.14747e-24,1.14752e-24,-1.60845e-29,2.9808200000000001e-30,-1.4577e-30
35.0,4.5349600000000001e-29,1.1475100000000001e-24,1.14747e-24,1.1475e-24,-1.7685499999999999e-29,2.2719799999999998e-30,7.0675700000000003e-31
36.0,1.2641800000000001e-28,1.1476000000000001e-24,1.1474799999999999e-24,1.1475899999999999e-24,-8.3172999999999999e-30,2.9761200000000001e-30,-2.0750100000000001e-29
37.0,1.0752099999999999e-28,1.14758e-24,1.1474799999999999e-24,1.14758e-24,-9.0323499999999995e-30,2.95267e-30,-1.59172e-29
38.0,8.8998800000000001e-29,1.1475700000000001e-24,1.1474799999999999e-24,1.1475599999999999e-24,-1.05035e-29,2.7583400000000001e-30,-1.1325e-29
39.0,7.3047099999999999e-29,1.14755e-24,1.1474799999999999e-24,1.14755e-24,-1.2072199999999999e-29,2.41305e-30,-7.4224399999999994e-30
40.0,6.0240400000000004e-29,1.14753e-24,1.1474799999999999e-24,1.14753e-24,-1.3822500000000001e-29,2.12856e-30,-4.25512e-30
41.0,5.0203299999999997e-29,1.14752e-24,1.1474799999999999e-24,1.14752e-24,-1.5221600000000001e-29,1.6425300000000002e-30,-1.6358699999999999e-30
42.0,4.3226199999999998e-29,1.1475100000000001e-24,1.14747e-24,1.1475100000000001e-24,-1.6567299999999999e-29,1.24214e-30,7.7404399999999999e-31
43.0,1.2312100000000001e-28,1.1476000000000001e-24,1.1474799999999999e-24,1.1475899999999999e-24,-6.9555999999999996e-30,4.4769899999999998e-30,-2.4779e-29
44.0,1.02505e-28,1.14758e-24,1.1474799999999999e-24,1.1475700000000001e-24,-8.2875599999999994e-30,4.5302600000000001e-30,-1.80426e-29
45.0,8.4547499999999995e-29,1.1475599999999999e-24,1.1474799999999999e-24,1.1475599999999999e-24,-1.03979e-29,4.13968e-30,-1.21829e-29
46.0,6.9759900000000004e-29,1.14755e-24,1.1474799999999999e-24,1.1475400000000001e-24,-1.2625699999999999e-29,3.6970300000000001e-30,-7.3734800000000007e-30
47.0,5.8197000000000003e-29,1.14753e-24,1.1474799999999999e-24,1.14753e-24,-1.4756799999999999e-29,3.1728000000000003e-30,-3.4060099999999997e-30
48.0,4.9643000000000001e-29,1.14752e-24,1.1474799999999999e-24,1.14752e-24,-1.6540499999999999e-29,2.5074499999999999e-30,-1.97733e-31
49.0,4.4030899999999999e-29,1.1475e-24,1.14747e-24,1.1475e-24,-1.8119900000000001e-29,1.80852e-30,2.6116599999999999e-30
50.0,1.13479e-28,1.1475899999999999e-24,1.1474799999999999e-24,1.14758e-24,-1.0091599999999999e-29,2.2801099999999999e-30,-2.0224199999999999e-29
51.0,9.7453400000000001e-29,1.14758e-24,1.1474799999999999e-24,1.1475700000000001e-24,-1.0552699999999999e-29,2.32311e-30,-1.5373800000000001e-29
52.0,8.1391799999999999e-29,1.1475599999999999e-24,1.1474799999999999e-24,1.1475599999999999e-24,-1.1595699999999999e-29,2.2164199999999999e-30,-1.06573e-29
53.0,6.7418400000000002e-29,1.14755e-24,1.1474799999999999e-24,1.1475400000000001e-24,-1.2909e-29,1.9889300000000001e-30,-6.6241199999999993e-30
54.0,5.6105800000000003e-29,1.14753e-24,1.1474799999999999e-24,1.14753e-24,-1.42785e-29,1.63502e-30,-3.1892500000000003e-30
55.0,4.7578299999999998e-29,1.14752e-24,1.1474799999999999e-24,1.14752e-24,-1.56606e-29,1.28153e-30,-3.75365e-31
56.0,4.15649e-29,1.1475100000000001e-24,1.1474799999999999e-24,1.1475100000000001e-24,-1.6774099999999999e-29,7.9539600000000006e-31,1.6538299999999999e-30
57.0,1.08744e-28,1.1475899999999999e-24,1.1474799999999999e-24,1.14758e-24,-9.2815199999999995e-30,3.2557300000000002e-30,-2.2675e-29
58.0,9.17508e-29,1.1475700000000001e-24,1.1474799999999999e-24,1.1475700000000001e-24,-1.0138300000000001e-29,3.4252999999999997e-30,-1.6397799999999999e-29
59.0,7.6755799999999998e-29,1.1475599999999999e-24,1.1474799999999999e-24,1.14755e-24,-1.1817e-29,3.2845399999999997e-30,-1.0835e-29
60.0,6.3942199999999997e-29,1.1475400000000001e-24,1.1474799999999999e-24,1.1475400000000001e-24,-1.3638400000000001e-29,2.9196700000000001e-30,-6.0338300000000001e-30
61.0,5.4192400000000003e-29,1.14753e-24,1.1474799999999999e-24,1.14753e-24,-1.5391100000000001e-29,2.4097600000000001e-30,-2.0428900000000001e-30
62.0,4.7151099999999999e-29,1.14752e-24,1.1474799999999999e-24,1.1475100000000001e-24,-1.7026200000000001e-29,1.8071199999999998e-30,1.28438e-30
63.0,4.25672e-29,1.1475e-24,1.1474799999999999e-24,1.1475e-24,-1.82953e-29,1.07628e-30,3.6105900000000002e-30
64.0,1.01199e-28,1.14758e-24,1.14749e-24,1.14758e-24,-1.1427e-29,1.2857799999999999e-30,-1.8466900000000001e-29
65.0,8.7865900000000005e-29,1.1475700000000001e-24,1.14749e-24,1.1475599999999999e-24,-1.17837e-29,1.5061400000000001e-30,-1.3958999999999999e-29
66.0,7.4072999999999996e-29,1.1475599999999999e-24,1.14749e-24,1.14755e-24,-1.2479e-29,1.46781e-30,-9.3842899999999998e-30
67.0,6.1999199999999997e-29,1.1475400000000001e-24,1.1474799999999999e-24,1.1475400000000001e-24,-1.35292e-29,1.2911499999999999e-30,-5.3664099999999999e-30
68.0,5.2138899999999997e-29,1.14753e-24,1.1474799999999999e-24,1.14753e-24,-1.4705799999999999e-29,1.04696e-30,-1.9389799999999999e-30
69.0,4.5024400000000003e-29,1.14752e-24,1.1474799999999999e-24,1.14752e-24,-1.58298e-29,5.8407199999999998e-31,9.7479000000000008e-31
70.0,4.0339599999999998e-29,1.1475e-24,1.1474799999999999e-24,1.1475e-24,-1.68779e-29,2.1610799999999999e-31,3.6430799999999998e-30
71.0,9.6103900000000004e-29,1.14758e-24,1.14749e-24,1.1475700000000001e-24,-1.08683e-29,1.8028399999999999e-30,-1.9686300000000001e-29
72.0,8.2581000000000005e-29,1.1475700000000001e-24,1.14749e-24,1.1475599999999999e-24,-1.15506e-29,2.2493099999999999e-30,-1.4251099999999999e-29
73.0,6.9759200000000002e-29,1.14755e-24,1.14749e-24,1.14755e-24,-1.2808899999999999e-29,2.1303399999999999e-30,-9.0631400000000005e-30
74.0,5.8936800000000005e-29,1.1475400000000001e-24,1.14749e-24,1.1475400000000001e-24,-1.43224e-29,1.8726299999999999e-30,-4.4846000000000002e-30
75.0,5.0596000000000004e-29,1.14753e-24,1.1474799999999999e-24,1.14753e-24,-1.57708e-29,1.4005899999999999e-30,-5.6184999999999996e-31
76.0,4.4812400000000002e-29,1.1475100000000001e-24,1.1474799999999999e-24,1.1475100000000001e-24,-1.7102599999999999e-29,8.1908900000000002e-31,2.6467999999999999e-30
77.0,4.1431e-29,1.1475e-24,1.1474799999999999e-24,1.1475e-24,-1.81668e-29,8.6417499999999995e-32,5.5939e-30
78.0,9.0823400000000002e-29,1.14758e-24,1.14749e-24,1.1475700000000001e-24,-1.2399100000000001e-29,4.9144200000000003e-31,-1.63001e-29
79.0,7.9706800000000003e-29,1.1475599999999999e-24,1.14749e-24,1.1475599999999999e-24,-1.24921e-29,5.6995699999999998e-31,-1.22463e-29
80.0,6.7874999999999998e-29,1.14755e-24,1.14749e-24,1.14755e-24,-1.3092900000000001e-29,6.5979299999999999e-31,-7.9669299999999993e-30
81.0,5.7295900000000001e-29,1.1475400000000001e-24,1.14749e-24,1.1475400000000001e-24,-1.39076e-29,5.1684599999999997e-31,-4.0029100000000001e-30
82.0,4.8968599999999998e-29,1.14753e-24,1.1474799999999999e-24,1.14752e-24,-1.4875500000000001e-29,2.3495100000000001e-31,-5.4489399999999996e-31
83.0,4.2883899999999999e-29,1.1475100000000001e-24,1.1474799999999999e-24,1.1475100000000001e-24,-1.59133e-29,-7.7025900000000003e-32,2.3905899999999999e-30
84.0,3.9136000000000001e-29,1.1475e-24,1.1474799999999999e-24,1.1475e-24,-1.6898899999999999e-29,-6.4284999999999996e-31,4.5111500000000001e-30
85.0,8.6631800000000001e-29,1.1475700000000001e-24,1.14749e-24,1.1475700000000001e-24,-1.18948e-29,7.6609500000000003e-31,-1.6982900000000001e-29
86.0,7.5647299999999995e-29,1.1475599999999999e-24,1.14749e-24,1.1475599999999999e-24,-1.24194e-29,9.1851000000000003e-31,-1.22375e-29
87.0,6.4490300000000002e-29,1.14755e-24,1.14749e-24,1.14755e-24,-1.3391700000000001e-29,8.6986300000000008e-31,-7.4093500000000001e-30
88.0,5.5009600000000004e-29,1.1475400000000001e-24,1.14749e-24,1.1475400000000001e-24,-1.4513100000000001e-29,6.1852299999999997e-31,-2.99059e-30
89.0,4.7724500000000001e-29,1.14752e-24,1.1474799999999999e-24,1.14752e-24,-1.57318e-29,2.3971399999999998e-31,8.1999900000000007e-31
90.0,4.29375e-29,1.1475100000000001e-24,1.1474799999999999e-24,1.1475100000000001e-24,-1.68865e-29,-3.2133800000000001e-31,4.0917599999999997e-30
91.0,4.02168e-29,1.1475e-24,1.1474799999999999e-24,1.1475e-24,-1.79622e-29,-9.8999700000000006e-31,6.3392199999999993e-30
92.0,8.3772600000000001e-29,1.1475700000000001e-24,1.14749e-24,1.1475599999999999e-24,-1.2821400000000001e-29,-3.5525399999999999e-31,-1.43788e-29
93.0,7.3953000000000003e-29,1.1475599999999999e-24,1.14749e-24,1.1475599999999999e-24,-1.2926599999999999e-29,-1.34296e-31,-1.07979e-29
94.0,6.3320499999999997e-29,1.14755e-24,1.14749e-24,1.14755e-24,-1.3348499999999999e-29,-1.3489500000000001e-31,-6.6230999999999994e-30
95.0,5.39186e-29,1.1475400000000001e-24,1.14749e-24,1.14753e-24,-1.4071599999999999e-29,-2.4138400000000001e-31,-2.7248999999999999e-30
96.0,4.6384300000000001e-29,1.14752e-24,1.14749e-24,1.14752e-24,-1.49016e-29,-4.5762600000000002e-31,6.7718500000000004e-31
97.0,4.1297999999999998e-29,1.1475100000000001e-24,1.1474799999999999e-24,1.1475100000000001e-24,-1.5788699999999999e-29,-8.9423800000000007e-31,3.5970699999999999e-30
98.0,3.8276800000000002e-29,1.1475e-24,1.1474799999999999e-24,1.1475e-24,-1.6496000000000001e-29,-1.2181300000000001e-30,6.28066e-30
99.0,4.3376199999999999e-29,1.1475100000000001e-24,1.1474799999999999e-24,1.1475100000000001e-24,-1.48278e-29,1.0992799999999999e-30,-2.5100599999999999e-30
100.0,4.2302099999999999e-29,1.1475100000000001e-24,1.1474799999999999e-24,1.1475100000000001e-24,-1.4001799999999999e-29,4.2489400000000001e-31,-1.6109000000000002e-30
101.0,3.7767699999999999e-29,1.1475100000000001e-24,1.1474799999999999e-24,1.1475100000000001e-24,-1.25144e-29,1.89216e-31,-2.7105699999999999e-30
102.0,3.7156000000000002e-29,1.1475100000000001e-24,1.1474799999999999e-24,1.1475100000000001e-24,-1.18899e-29,-3.74e-31,-1.03018e-30
103.0,3.0713900000000002e-29,1.1475100000000001e-24,1.14749e-24,1.1475100000000001e-24,-9.4648299999999998e-30,-2.7520899999999999e-31,-3.02934e-30
104.0,3.2080300000000002e-29,1.1475100000000001e-24,1.1474799999999999e-24,1.1475100000000001e-24,-9.5232499999999997e-30,-8.3964099999999992e-31,3.7404499999999999e-31
105.0,2.0538400000000001e-29,1.1475100000000001e-24,1.1475e-24,1.1475100000000001e-24,-4.5267500000000001e-30,-2.78675e-31,-4.4153200000000002e-30
106.0,5.4262000000000003e-29,1.14752e-24,1.14747e-24,1.14752e-24,-1.41136e-29,1.2830499999999999e-30,-3.2769899999999997e-30
107.0,5.1137299999999998e-29,1.14753e-24,1.1474799999999999e-24,1.14753e-24,-1.32523e-29,7.23315e-31,-3.5265200000000003e-30
108.0,5.0591400000000004e-29,1.14753e-24,1.1474799999999999e-24,1.14752e-24,-1.31401e-29,2.5551900000000002e-31,-3.0142100000000001e-30
109.0,4.6349700000000002e-29,1.14753e-24,1.14749e-24,1.14753e-24,-1.15737e-29,-1.9506399999999999e-31,-3.4249499999999998e-30
110.0,4.5266099999999998e-29,1.14753e-24,1.14749e-24,1.14753e-24,-1.17868e-29,-4.84155e-31,-2.3684700000000001e-30
111.0,3.97729e-29,1.14753e-24,1.14749e-24,1.14753e-24,-8.7601200000000005e-30,-7.0815199999999998e-31,-3.1198899999999999e-30
112.0,3.5439399999999998e-29,1.14753e-24,1.14749e-24,1.14753e-24,-7.7817e-30,-2.00063e-30,-2.2463799999999999e-30
113.0,6.5761900000000001e-29,1.1475400000000001e-24,1.1474799999999999e-24,1.1475400000000001e-24,-1.2670999999999999e-29,1.5388600000000001e-30,-5.0971700000000003e-30
114.0,6.5575199999999997e-29,1.1475400000000001e-24,1.1474799999999999e-24,1.1475400000000001e-24,-1.3119900000000001e-29,9.7624599999999999e-31,-4.8690200000000002e-30
115.0,6.3571599999999995e-29,1.1475400000000001e-24,1.1474799999999999e-24,1.1475400000000001e-24,-1.27153e-29,2.6766100000000001e-31,-4.9175100000000002e-30
116.0,6.2092200000000004e-29,1.1475400000000001e-24,1.14749e-24,1.1475400000000001e-24,-1.3276999999999999e-29,-6.2123500000000003e-32,-4.5163100000000002e-30
117.0,5.8716600000000003e-29,1.1475400000000001e-24,1.14749e-24,1.1475400000000001e-24,-1.20707e-29,-6.1177300000000004e-31,-4.3714299999999999e-30
118.0,5.4066899999999996e-29,1.1475400000000001e-24,1.14749e-24,1.1475400000000001e-24,-1.15311e-29,-1.12598e-30,-4.0309100000000002e-30
119.0,4.9484999999999999e-29,1.1475400000000001e-24,1.1475e-24,1.1475400000000001e-24,-1.08002e-29,-2.0151299999999998e-31,-3.5910299999999999e-30
120.0,8.2245800000000003e-29,1.1475599999999999e-24,1.1474799999999999e-24,1.14755e-24,-1.15839e-29,1.88837e-30,-7.0420699999999994e-30
121.0,8.1841900000000004e-29,1.1475599999999999e-24,1.1474799999999999e-24,1.1475599999999999e-24,-1.2288000000000001e-29,1.0236099999999999e-30,-7.0328899999999999e-30
122.0,8.1345600000000004e-29,1.1475599999999999e-24,1.1474799999999999e-24,1.1475599999999999e-24,-1.3541099999999999e-29,5.01855e-31,-6.8807399999999997e-30
123.0,8.01566e-29,1.1475599999999999e-24,1.14749e-24,1.1475599999999999e-24,-1.4075200000000001e-29,-2.5718999999999999e-31,-6.6416699999999996e-30
124.0,7.63395e-29,1.1475599999999999e-24,1.14749e-24,1.1475599999999999e-24,-1.46985e-29,-7.4604500000000002e-31,-6.3909600000000004e-30
125.0,7.2317400000000001e-29,1.1475599999999999e-24,1.14749e-24,1.1475599999999999e-24,-1.4829300000000001e-29,-8.6340200000000005e-31,-5.6336100000000002e-30
126.0,6.68581e-29,1.1475599999999999e-24,1.1475e-24,1.1475599999999999e-24,-1.3741900000000001e-29,-2.1219799999999998e-30,-5.3289899999999999e-30
127.0,1.01717e-28,1.1475700000000001e-24,1.14747e-24,1.1475700000000001e-24,-9.9618000000000006e-30,1.95533e-30,-9.6839699999999998e-30
128.0,1.02474e-28,1.14758e-24,1.1474799999999999e-24,1.1475700000000001e-24,-1.2141999999999999e-29,1.29869e-30,-9.6478900000000005e-30
129.0,1.03811e-28,1.14758e-24,1.1474799999999999e-24,1.14758e-24,-1.42708e-29,3.2986199999999998e-31,-9.5551600000000003e-30
130.0,1.0213299999999999e-28,1.14758e-24,1.1474799999999999e-24,1.14758e-24,-1.6356999999999999e-29,-3.0525500000000002e-31,-9.4992300000000005e-30
131.0,1.00008e-28,1.14758e-24,1.14749e-24,1.14758e-24,-1.82175e-29,-9.5127100000000006e-31,-8.8791999999999993e-30
132.0,9.43206e-29,1.14758e-24,1.14749e-24,1.14758e-24,-1.8919900000000001e-29,-1.7580600000000001e-30,-8.4918900000000002e-30
133.0,8.7824000000000002e-29,1.1475700000000001e-24,1.1475e-24,1.14758e-24,-1.9395100000000001e-29,-1.33333e-30,-7.3976699999999998e-30
134.0,1.2443899999999999e-28,1.1475899999999999e-24,1.14747e-24,1.1475899999999999e-24,-8.9298399999999995e-30,2.4080399999999999e-30,-1.27996e-29
135.0,1.2798199999999999e-28,1.1476000000000001e-24,1.14747e-24,1.1476000000000001e-24,-1.2160799999999999e-29,1.2491599999999999e-30,-1.29324e-29
136.0,1.2977e-28,1.1476000000000001e-24,1.14747e-24,1.1476000000000001e-24,-1.5472399999999999e-29,4.6525500000000001e-31,-1.33677e-29
137.0,1.31923e-28,1.1476000000000001e-24,1.1474799999999999e-24,1.1476000000000001e-24,-1.96426e-29,-5.79219e-31,-1.3225e-29
138.0,1.28494e-28,1.1476000000000001e-24,1.1474799999999999e-24,1.1476000000000001e-24,-2.2956600000000001e-29,-1.6293299999999999e-30,-1.2985299999999999e-29
139.0,1.2329599999999999e-28,1.1476000000000001e-24,1.14749e-24,1.1476000000000001e-24,-2.5776899999999999e-29,-2.11179e-30,-1.1872900000000001e-29
140.0,1.1547499999999999e-28,1.1476000000000001e-24,1.1475e-24,1.1476000000000001e-24,-2.6640300000000001e-29,-3.4093599999999997e-30,-1.10223e-29
141.0,1.4891800000000001e-28,1.14761e-24,1.14746e-24,1.14761e-24,-7.8815899999999998e-30,2.32371e-30,-1.6184600000000001e-29
142.0,1.5567099999999999e-28,1.1476199999999999e-24,1.14746e-24,1.1476199999999999e-24,-1.11929e-29,1.6524999999999999e-30,-1.7383100000000001e-29
143.0,1.65331e-28,1.14763e-24,1.14747e-24,1.1476199999999999e-24,-1.72292e-29,4.1311000000000003e-31,-1.8256100000000001e-29
144.0,1.69042e-28,1.14763e-24,1.14747e-24,1.14763e-24,-2.3578500000000001e-29,-1.08123e-30,-1.9021399999999999e-29
145.0,1.69463e-28,1.14763e-24,1.14747e-24,1.14763e-24,-3.0683600000000001e-29,-2.31372e-30,-1.86534e-29
146.0,1.6242200000000001e-28,1.14763e-24,1.1474799999999999e-24,1.14763e-24,-3.5658299999999999e-29,-3.7962399999999999e-30,-1.77648e-29
147.0,1.5160799999999999e-28,1.1476199999999999e-24,1.14749e-24,1.14763e-24,-3.8510699999999999e-29,-4.1509899999999997e-30,-1.5933099999999999e-29
148.0,4.2742800000000001e-29,1.1475100000000001e-24,1.14747e-24,1.1475100000000001e-24,-1.51836e-29,7.4579899999999997e-31,-6.1438199999999997e-31
149.0,3.94133e-29,1.1475100000000001e-24,1.1474799999999999e-24,1.1475100000000001e-24,-1.3858700000000001e-29,2.1962199999999999e-31,-1.3415699999999999e-30
150.0,3.7758800000000001e-29,1.1475100000000001e-24,1.1474799999999999e-24,1.1475100000000001e-24,-1.30178e-29,-3.26275e-31,-3.30419e-31
151.0,3.3283100000000002e-29,1.1475100000000001e-24,1.1474799999999999e-24,1.1475100000000001e-24,-1.10555e-29,-6.0833999999999999e-31,-1.24495e-30
152.0,3.24766e-29,1.1475100000000001e-24,1.1474799999999999e-24,1.1475100000000001e-24,-1.05462e-29,-1.0761000000000001e-30,4.7078500000000004e-31
153.0,2.5264400000000002e-29,1.1475100000000001e-24,1.14749e-24,1.1475100000000001e-24,-7.3912399999999994e-30,-7.1509900000000003e-31,-1.12511e-30
154.0,2.8212699999999998e-29,1.1475100000000001e-24,1.14749e-24,1.1475100000000001e-24,-7.5239400000000001e-30,-1.96329e-30,1.34411e-30
155.0,5.0877099999999995e-29,1.14752e-24,1.1474799999999999e-24,1.14752e-24,-1.4153099999999999e-29,1.0504e-30,-2.6846299999999999e-30
156.0,4.9480600000000001e-29,1.14752e-24,1.1474799999999999e-24,1.14752e-24,-1.3688300000000001e-29,4.1600599999999997e-31,-2.50936e-30
157.0,4.6773299999999999e-29,1.14753e-24,1.1474799999999999e-24,1.14752e-24,-1.2622599999999999e-29,-1.78541e-31,-2.4759400000000001e-30
158.0,4.5001199999999999e-29,1.14752e-24,1.1474799999999999e-24,1.14752e-24,-1.2161e-29,-7.0017200000000002e-31,-2.0420300000000002e-30
159.0,4.1432599999999999e-29,1.14753e-24,1.14749e-24,1.14753e-24,-1.04983e-29,-8.7362500000000003e-31,-2.0586500000000001e-30
160.0,3.8906699999999999e-29,1.14752e-24,1.14749e-24,1.14753e-24,-9.6036500000000003e-30,-1.9176699999999999e-30,-1.0748699999999999e-30
161.0,3.46333e-29,1.14752e-24,1.14749e-24,1.14753e-24,-7.6780399999999999e-30,-1.33312e-30,-2.6610900000000002e-30
162.0,6.2663700000000004e-29,1.1475400000000001e-24,1.1474799999999999e-24,1.14753e-24,-1.32794e-29,1.3867899999999999e-30,-4.7393400000000001e-30
163.0,6.1155600000000006e-29,1.1475400000000001e-24,1.1474799999999999e-24,1.1475400000000001e-24,-1.3029699999999999e-29,5.6662900000000002e-31,-4.5795099999999998e-30
164.0,5.9816799999999996e-29,1.1475400000000001e-24,1.1474799999999999e-24,1.1475400000000001e-24,-1.3051899999999999e-29,-7.8493800000000003e-32,-4.4857900000000002e-30
165.0,5.7834400000000001e-29,1.1475400000000001e-24,1.14749e-24,1.1475400000000001e-24,-1.25282e-29,-6.5365200000000003e-31,-4.1902199999999999e-30
166.0,5.5081099999999995e-29,1.1475400000000001e-24,1.14749e-24,1.1475400000000001e-24,-1.2135299999999999e-29,-1.36605e-30,-3.7636400000000001e-30
167.0,5.1718400000000003e-29,1.1475400000000001e-24,1.14749e-24,1.1475400000000001e-24,-1.10381e-29,-1.48492e-30,-3.76887e-30
168.0,4.7124799999999998e-29,1.1475400000000001e-24,1.1475e-24,1.1475400000000001e-24,-9.7506199999999996e-30,-2.2995300000000001e-30,-2.7753500000000002e-30
169.0,7.6968499999999999e-29,1.14755e-24,1.1474799999999999e-24,1.14755e-24,-1.20371e-29,1.57369e-30,-7.3213900000000003e-30
170.0,7.63674e-29,1.14755e-24,1.1474799999999999e-24,1.14755e-24,-1.2773200000000001e-29,7.30513e-31,-7.2321500000000002e-30
171.0,7.5851900000000001e-29,1.1475599999999999e-24,1.14749e-24,1.1475599999999999e-24,-1.3358199999999999e-29,-7.6602699999999997e-32,-7.0146199999999998e-30
172.0,7.41168e-29,1.1475599999999999e-24,1.14749e-24,1.1475599999999999e-24,-1.3893499999999999e-29,-8.3873800000000008e-31,-6.8420699999999994e-30
173.0,7.1875600000000004e-29,1.1475599999999999e-24,1.14749e-24,1.1475599999999999e-24,-1.4029399999999999e-29,-1.4316000000000001e-30,-6.4825800000000004e-30
174.0,6.7561399999999996e-29,1.1475599999999999e-24,1.14749e-24,1.1475599999999999e-24,-1.3778699999999999e-29,-2.02823e-30,-5.8814400000000002e-30
175.0,6.3901699999999997e-29,1.1475599999999999e-24,1.1475e-24,1.1475599999999999e-24,-1.35435e-29,-2.01228e-30,-5.2802700000000002e-30
176.0,9.4674500000000001e-29,1.1475700000000001e-24,1.1474799999999999e-24,1.1475700000000001e-24,-1.10322e-29,1.8075199999999999e-30,-1.0587599999999999e-29
177.0,9.5140400000000005e-29,1.1475700000000001e-24,1.1474799999999999e-24,1.1475700000000001e-24,-1.2648199999999999e-29,7.9069400000000001e-31,-1.0431600000000001e-29
178.0,9.5118699999999999e-29,1.1475700000000001e-24,1.1474799999999999e-24,1.1475700000000001e-24,-1.4235300000000001e-29,-1.2594099999999999e-31,-1.05207e-29
179.0,9.4810899999999997e-29,1.14758e-24,1.14749e-24,1.14758e-24,-1.58161e-29,-1.07196e-30,-1.0378199999999999e-29
180.0,9.1918999999999996e-29,1.14758e-24,1.14749e-24,1.14758e-24,-1.7031099999999999e-29,-1.8756499999999999e-30,-1.0023e-29
181.0,8.8681799999999999e-29,1.1475700000000001e-24,1.14749e-24,1.14758e-24,-1.7952699999999999e-29,-2.5447199999999998e-30,-9.2691399999999993e-30
182.0,8.3054100000000001e-29,1.1475700000000001e-24,1.1475e-24,1.14758e-24,-1.7675499999999999e-29,-3.5641000000000003e-30,-8.5194199999999995e-30
183.0,1.1555599999999999e-28,1.1475899999999999e-24,1.1474799999999999e-24,1.14758e-24,-1.03005e-29,1.8908800000000001e-30,-1.4407700000000001e-29
184.0,1.1691400000000001e-28,1.1475899999999999e-24,1.1474799999999999e-24,1.1475899999999999e-24,-1.27449e-29,8.6731400000000008e-31,-1.4571200000000001e-29
185.0,1.1951200000000001e-28,1.1475899999999999e-24,1.1474799999999999e-24,1.1475899999999999e-24,-1.5698099999999999e-29,-2.8308600000000001e-31,-1.4928500000000001e-29
186.0,1.1983700000000001e-28,1.1476000000000001e-24,1.1474799999999999e-24,1.1476000000000001e-24,-1.85973e-29,-1.42331e-30,-1.5171299999999999e-29
187.0,1.18912e-28,1.1476000000000001e-24,1.14749e-24,1.1476000000000001e-24,-2.15443e-29,-2.6820000000000001e-30,-1.4821600000000001e-29
188.0,1.1410099999999999e-28,1.1476000000000001e-24,1.14749e-24,1.1476000000000001e-24,-2.34041e-29,-3.6773099999999998e-30,-1.4146400000000001e-29
189.0,1.0886600000000001e-28,1.1475899999999999e-24,1.1475e-24,1.1476000000000001e-24,-2.492e-29,-4.2836000000000002e-30,-1.2898699999999999e-29
190.0,1.3651999999999999e-28,1.1476000000000001e-24,1.14747e-24,1.1476000000000001e-24,-9.2898300000000005e-30,2.1078200000000001e-30,-1.8741099999999999e-29
191.0,1.43027e-28,1.14761e-24,1.14747e-24,1.14761e-24,-1.26922e-29,1.09961e-30,-1.9996800000000001e-29
192.0,1.4917199999999999e-28,1.1476199999999999e-24,1.14747e-24,1.14761e-24,-1.6865200000000001e-29,-3.3143199999999999e-31,-2.1565400000000001e-29
193.0,1.5395e-28,1.1476199999999999e-24,1.1474799999999999e-24,1.1476199999999999e-24,-2.24531e-29,-2.1851499999999998e-30,-2.24616e-29
194.0,1.5324099999999999e-28,1.1476199999999999e-24,1.1474799999999999e-24,1.1476199999999999e-24,-2.77405e-29,-3.9860800000000003e-30,-2.2509699999999999e-29
195.0,1.491e-28,1.1476199999999999e-24,1.14749e-24,1.1476199999999999e-24,-3.2276999999999998e-29,-5.5329099999999997e-30,-2.1418799999999999e-29
196.0,1.4122600000000001e-28,1.14761e-24,1.1475e-24,1.1476199999999999e-24,-3.47068e-29,-7.3287999999999995e-30,-1.98437e-29
197.0,4.0622299999999999e-29,1.1475100000000001e-24,1.1474799999999999e-24,1.1475100000000001e-24,-1.5257599999999999e-29,4.4140200000000002e-31,4.7676600000000001e-32
198.0,3.8583300000000001e-29,1.1475100000000001e-24,1.1474799999999999e-24,1.1475100000000001e-24,-1.4242400000000001e-29,-2.0379399999999999e-31,6.7929199999999998e-31
199.0,3.5049599999999998e-29,1.1475100000000001e-24,1.1474799999999999e-24,1.1475100000000001e-24,-1.25835e-29,-7.2586799999999996e-31,2.08784e-31
200.0,3.3379599999999998e-29,1.1475100000000001e-24,1.1474799999999999e-24,1.1475100000000001e-24,-1.17178e-29,-1.23044e-30,1.23274e-30
201.0,2.8431300000000002e-29,1.1475100000000001e-24,1.14749e-24,1.1475100000000001e-24,-9.3164100000000002e-30,-1.3053400000000001e-30,6.4671399999999999e-31
202.0,2.8237000000000002e-29,1.1475100000000001e-24,1.14749e-24,1.1475100000000001e-24,-8.6924700000000006e-30,-2.1428499999999999e-30,2.06883e-30
203.0,2.09998e-29,1.1475100000000001e-24,1.14749e-24,1.1475100000000001e-24,-5.5105399999999999e-30,-1.5148999999999999e-30,1.1433800000000001e-30
204.0,4.8378700000000002e-29,1.14752e-24,1.1474799999999999e-24,1.14752e-24,-1.4540700000000001e-29,7.7202700000000003e-31,-1.6234699999999999e-30
205.0,4.6197600000000003e-29,1.14752e-24,1.1474799999999999e-24,1.14752e-24,-1.35976e-29,9.7645300000000007e-34,-1.50002e-30
206.0,4.4215700000000001e-29,1.14752e-24,1.1474799999999999e-24,1.14752e-24,-1.28517e-29,-6.5786400000000002e-31,-1.3368299999999999e-30
207.0,4.1744699999999998e-29,1.14752e-24,1.14749e-24,1.14752e-24,-1.16084e-29,-1.08585e-30,-1.06667e-30
208.0,3.9373100000000002e-29,1.14752e-24,1.14749e-24,1.14752e-24,-1.0612800000000001e-29,-1.8469599999999999e-30,-4.97657e-31
209.0,3.5919699999999998e-29,1.14752e-24,1.14749e-24,1.14752e-24,-8.9838700000000001e-30,-1.78954e-30,-6.71822e-31
210.0,3.4376099999999998e-29,1.14752e-24,1.14749e-24,1.14752e-24,-7.6544400000000003e-30,-2.4749899999999999e-30,1.03999e-30
211.0,5.8416100000000001e-29,1.1475400000000001e-24,1.1474799999999999e-24,1.14753e-24,-1.35307e-29,9.9714900000000004e-31,-3.9929800000000002e-30
212.0,5.7043699999999997e-29,1.1475400000000001e-24,1.1474799999999999e-24,1.14753e-24,-1.33002e-29,1.7968399999999999e-31,-3.9428000000000003e-30
213.0,5.5549499999999996e-29,1.1475400000000001e-24,1.14749e-24,1.1475400000000001e-24,-1.2850799999999999e-29,-5.6191200000000003e-31,-3.6051199999999999e-30
214.0,5.3598199999999998e-29,1.1475400000000001e-24,1.14749e-24,1.1475400000000001e-24,-1.2382000000000001e-29,-1.31604e-30,-3.3907700000000003e-30
215.0,5.1370600000000001e-29,1.1475400000000001e-24,1.14749e-24,1.1475400000000001e-24,-1.15951e-29,-1.7846199999999999e-30,-3.0314599999999999e-30
216.0,4.83369e-29,1.1475400000000001e-24,1.14749e-24,1.1475400000000001e-24,-1.06657e-29,-2.4969699999999999e-30,-2.3064000000000001e-30
217.0,4.5298699999999999e-29,1.1475400000000001e-24,1.1475e-24,1.1475400000000001e-24,-9.5673900000000003e-30,-2.5199000000000001e-30,-2.5433000000000002e-30
218.0,7.1373000000000004e-29,1.14755e-24,1.1474799999999999e-24,1.14755e-24,-1.2649899999999999e-29,1.2602000000000001e-30,-7.0363600000000001e-30
219.0,7.0474100000000001e-29,1.14755e-24,1.1474799999999999e-24,1.14755e-24,-1.2986399999999999e-29,2.8385699999999998e-31,-6.7621699999999995e-30
220.0,6.9516299999999995e-29,1.14755e-24,1.14749e-24,1.14755e-24,-1.3270100000000001e-29,-6.3361999999999997e-31,-6.7248699999999997e-30
221.0,6.8401300000000002e-29,1.14755e-24,1.14749e-24,1.14755e-24,-1.3427399999999999e-29,-1.4351600000000001e-30,-6.4021299999999993e-30
222.0,6.5947299999999997e-29,1.14755e-24,1.14749e-24,1.14755e-24,-1.3360799999999999e-29,-2.2076299999999999e-30,-6.0316100000000002e-30
223.0,6.3368200000000001e-29,1.14755e-24,1.1475e-24,1.14755e-24,-1.3014599999999999e-29,-2.7775600000000001e-30,-5.5797800000000001e-30
224.0,5.9073200000000002e-29,1.14755e-24,1.1475e-24,1.14755e-24,-1.20866e-29,-3.43229e-30,-4.5803800000000003e-30
225.0,8.7166699999999999e-29,1.1475700000000001e-24,1.1474799999999999e-24,1.1475599999999999e-24,-1.18385e-29,1.3781e-30,-1.05859e-29
226.0,8.6873600000000003e-29,1.1475700000000001e-24,1.1474799999999999e-24,1.1475599999999999e-24,-1.3010800000000001e-29,2.70712e-31,-1.04414e-29
227.0,8.69115e-29,1.1475700000000001e-24,1.14749e-24,1.1475700000000001e-24,-1.4138400000000001e-29,-7.5931199999999996e-31,-1.03535e-29
228.0,8.6120700000000001e-29,1.1475700000000001e-24,1.14749e-24,1.1475700000000001e-24,-1.51757e-29,-1.73569e-30,-1.0322200000000001e-29
229.0,8.4608599999999996e-29,1.1475700000000001e-24,1.14749e-24,1.1475700000000001e-24,-1.59554e-29,-2.74124e-30,-9.9313600000000002e-30
230.0,8.0994299999999996e-29,1.1475700000000001e-24,1.1475e-24,1.1475700000000001e-24,-1.6354700000000001e-29,-3.5222799999999997e-30,-9.2751100000000003e-30
231.0,7.79378e-29,1.1475700000000001e-24,1.1475e-24,1.1475700000000001e-24,-1.6519000000000001e-29,-4.1479399999999998e-30,-8.4525399999999999e-30
232.0,1.05266e-28,1.14758e-24,1.1474799999999999e-24,1.14758e-24,-1.13351e-29,1.40612e-30,-1.48389e-29
233.0,1.0629899999999999e-28,1.14758e-24,1.1474799999999999e-24,1.14758e-24,-1.33381e-29,2.69358e-31,-1.4921699999999999e-29
234.0,1.0775700000000001e-28,1.1475899999999999e-24,1.1474799999999999e-24,1.14758e-24,-1.5394399999999999e-29,-9.3965799999999993e-31,-1.5424299999999999e-29
235.0,1.0854100000000001e-28,1.1475899999999999e-24,1.14749e-24,1.1475899999999999e-24,-1.7588599999999999e-29,-2.3519199999999999e-30,-1.5653500000000001e-29
236.0,1.0708600000000001e-28,1.1475899999999999e-24,1.14749e-24,1.1475899999999999e-24,-1.96454e-29,-3.5445599999999999e-30,-1.5504299999999999e-29
237.0,1.0439400000000001e-28,1.1475899999999999e-24,1.1475e-24,1.1475899999999999e-24,-2.1261200000000001e-29,-4.9167699999999997e-30,-1.46936e-29
238.0,9.9458799999999998e-29,1.1475899999999999e-24,1.1475e-24,1.1475899999999999e-24,-2.20408e-29,-6.0605499999999999e-30,-1.3747399999999999e-29
239.0,1.2399499999999999e-28,1.1476000000000001e-24,1.1474799999999999e-24,1.1475899999999999e-24,-1.0863500000000001e-29,1.5124700000000001e-30,-1.95317e-29
240.0,1.2848499999999999e-28,1.1476000000000001e-24,1.1474799999999999e-24,1.1476000000000001e-24,-1.3367800000000001e-29,3.6514699999999999e-31,-2.07434e-29
241.0,1.3366299999999999e-28,1.14761e-24,1.1474799999999999e-24,1.1476000000000001e-24,-1.6764900000000001e-29,-1.2313400000000001e-30,-2.2183199999999999e-29
242.0,1.3683199999999999e-28,1.14761e-24,1.1474799999999999e-24,1.14761e-24,-2.08554e-29,-3.1043200000000001e-30,-2.3222799999999999e-29
243.0,1.3699e-28,1.14761e-24,1.14749e-24,1.14761e-24,-2.4913899999999999e-29,-5.1713900000000001e-30,-2.3190800000000001e-29
244.0,1.3323699999999999e-28,1.14761e-24,1.14749e-24,1.14761e-24,-2.8164500000000001e-29,-6.8874500000000004e-30,-2.2496899999999999e-29
245.0,1.2835e-28,1.14761e-24,1.1475e-24,1.14761e-24,-3.0514400000000001e-29,-8.4353000000000004e-30,-2.092e-29
246.0,3.9404599999999998e-29,1.1475100000000001e-24,1.1474799999999999e-24,1.1475100000000001e-24,-1.5519699999999999e-29,1.33938e-32,1.99392e-30
247.0,3.6462799999999999e-29,1.1475100000000001e-24,1.1474799999999999e-24,1.1475100000000001e-24,-1.40868e-29,-6.8313199999999998e-31,1.5719399999999999e-30
248.0,3.4481300000000001e-29,1.1475100000000001e-24,1.1474799999999999e-24,1.1475100000000001e-24,-1.29583e-29,-1.2708100000000001e-30,2.2646200000000001e-30
249.0,3.0717999999999997e-29,1.1475100000000001e-24,1.14749e-24,1.1475100000000001e-24,-1.10163e-29,-1.6694299999999999e-30,2.1093099999999998e-30
250.0,2.9320999999999999e-29,1.1475100000000001e-24,1.14749e-24,1.1475100000000001e-24,-9.9928799999999997e-30,-2.29946e-30,3.0369199999999999e-30
251.0,2.4395099999999999e-29,1.1475100000000001e-24,1.14749e-24,1.1475100000000001e-24,-7.4085500000000006e-30,-2.1692400000000001e-30,2.7833799999999999e-30
252.0,2.48525e-29,1.1475100000000001e-24,1.14749e-24,1.1475100000000001e-24,-6.4298899999999997e-30,-2.9365799999999999e-30,3.9303499999999997e-30
253.0,4.5497900000000003e-29,1.14752e-24,1.1474799999999999e-24,1.14752e-24,-1.46651e-29,2.7986799999999999e-31,-3.59117e-31
254.0,4.34179e-29,1.14752e-24,1.1474799999999999e-24,1.14752e-24,-1.3742799999999999e-29,-5.0189999999999999e-31,-2.8852700000000001e-31
255.0,4.1365299999999998e-29,1.14752e-24,1.14749e-24,1.14752e-24,-1.2665500000000001e-29,-1.11207e-30,5.0243799999999997e-32
256.0,3.9076800000000002e-29,1.14752e-24,1.14749e-24,1.14752e-24,-1.1529e-29,-1.8489599999999999e-30,3.81107e-31
257.0,3.65564e-29,1.14752e-24,1.14749e-24,1.14752e-24,-1.01666e-29,-2.1318100000000001e-30,6.7069900000000003e-31
258.0,3.4421699999999998e-29,1.14752e-24,1.14749e-24,1.14752e-24,-8.7959300000000002e-30,-2.7695800000000001e-30,1.5503500000000001e-30
259.0,3.0504299999999997e-29,1.14752e-24,1.14749e-24,1.14752e-24,-7.0422300000000001e-30,-2.7226000000000001e-30,1.25595e-30
260.0,5.4253399999999997e-29,1.14753e-24,1.1474799999999999e-24,1.14753e-24,-1.38771e-29,5.7319499999999997e-31,-3.0417899999999999e-30
261.0,5.2745099999999997e-29,1.14753e-24,1.1474799999999999e-24,1.14753e-24,-1.3361299999999999e-29,-3.26932e-31,-2.71615e-30
262.0,5.0945499999999995e-29,1.14753e-24,1.14749e-24,1.14753e-24,-1.2722500000000001e-29,-1.1517199999999999e-30,-2.6087199999999999e-30
263.0,4.93813e-29,1.1475400000000001e-24,1.14749e-24,1.14753e-24,-1.2051100000000001e-29,-1.8293000000000001e-30,-2.1830299999999999e-30
264.0,4.7098400000000002e-29,1.14753e-24,1.14749e-24,1.14753e-24,-1.1117799999999999e-29,-2.5519999999999999e-30,-1.7326099999999999e-30
265.0,4.4820599999999999e-29,1.1475400000000001e-24,1.14749e-24,1.1475400000000001e-24,-1.01176e-29,-2.9104799999999999e-30,-1.3807600000000001e-30
266.0,4.2299500000000001e-29,1.14753e-24,1.1475e-24,1.1475400000000001e-24,-8.7328700000000001e-30,-3.4230300000000001e-30,-1.24408e-31
267.0,6.5616699999999996e-29,1.14755e-24,1.1474799999999999e-24,1.1475400000000001e-24,-1.3115700000000001e-29,7.4886499999999999e-31,-6.0773399999999998e-30
268.0,6.4372200000000001e-29,1.14755e-24,1.14749e-24,1.1475400000000001e-24,-1.3123699999999999e-29,-2.90583e-31,-5.9163600000000001e-30
269.0,6.3453100000000001e-29,1.14755e-24,1.14749e-24,1.14755e-24,-1.3131399999999999e-29,-1.1906399999999999e-30,-5.6007100000000003e-30
270.0,6.2011700000000003e-29,1.14755e-24,1.14749e-24,1.14755e-24,-1.2917e-29,-2.09233e-30,-5.3942499999999999e-30
271.0,6.0364799999999995e-29,1.14755e-24,1.14749e-24,1.14755e-24,-1.2660400000000001e-29,-2.8386699999999999e-30,-4.9211800000000002e-30
272.0,5.7646499999999997e-29,1.14755e-24,1.1475e-24,1.14755e-24,-1.2007500000000001e-29,-3.5419700000000002e-30,-4.2506499999999997e-30
273.0,5.5275599999999997e-29,1.14755e-24,1.1475e-24,1.14755e-24,-1.13035e-29,-4.0080600000000003e-30,-3.82708e-30
274.0,7.9335700000000002e-29,1.1475599999999999e-24,1.1474799999999999e-24,1.1475599999999999e-24,-1.25206e-29,8.28046e-31,-9.8701300000000001e-30
275.0,7.8679800000000001e-29,1.1475599999999999e-24,1.14749e-24,1.1475599999999999e-24,-1.3217499999999999e-29,-3.2708000000000001e-31,-9.5973600000000006e-30
276.0,7.8479400000000003e-29,1.1475599999999999e-24,1.14749e-24,1.1475599999999999e-24,-1.38492e-29,-1.3924099999999999e-30,-9.5961200000000002e-30
277.0,7.7757000000000004e-29,1.1475700000000001e-24,1.14749e-24,1.1475599999999999e-24,-1.4434499999999999e-29,-2.4700299999999999e-30,-9.4313899999999993e-30
278.0,7.6055600000000004e-29,1.1475700000000001e-24,1.14749e-24,1.1475599999999999e-24,-1.4740199999999999e-29,-3.4294999999999997e-30,-9.1095400000000002e-30
279.0,7.4005900000000003e-29,1.1475700000000001e-24,1.1475e-24,1.1475700000000001e-24,-1.49155e-29,-4.3799899999999998e-30,-8.4832199999999993e-30
280.0,7.0238199999999995e-29,1.1475599999999999e-24,1.1475e-24,1.1475700000000001e-24,-1.44825e-29,-5.1538800000000003e-30,-7.5924799999999998e-30
281.0,9.5180799999999998e-29,1.14758e-24,1.1474799999999999e-24,1.1475700000000001e-24,-1.22281e-29,8.0291200000000006e-31,-1.4172699999999999e-29
282.0,9.5537500000000004e-29,1.14758e-24,1.14749e-24,1.1475700000000001e-24,-1.36309e-29,-4.2400699999999996e-31,-1.41392e-29
283.0,9.6161700000000001e-29,1.14758e-24,1.14749e-24,1.14758e-24,-1.5049000000000001e-29,-1.6874699999999999e-30,-1.44571e-29
284.0,9.6515899999999999e-29,1.14758e-24,1.14749e-24,1.14758e-24,-1.64426e-29,-2.9903499999999999e-30,-1.4655800000000001e-29
285.0,9.5622299999999998e-29,1.14758e-24,1.1475e-24,1.14758e-24,-1.7838400000000001e-29,-4.4259899999999997e-30,-1.4384300000000001e-29
286.0,9.2786199999999995e-29,1.14758e-24,1.1475e-24,1.14758e-24,-1.8717900000000001e-29,-5.5504999999999998e-30,-1.3793199999999999e-29
287.0,9.0454400000000005e-29,1.14758e-24,1.1475e-24,1.14758e-24,-1.9464699999999999e-29,-6.6877000000000001e-30,-1.2801199999999999e-29
288.0,1.1114699999999999e-28,1.1475899999999999e-24,1.1474799999999999e-24,1.14758e-24,-1.201e-29,7.846e-31,-1.8790599999999999e-29
289.0,1.1423299999999999e-28,1.1475899999999999e-24,1.1474799999999999e-24,1.1475899999999999e-24,-1.37517e-29,-4.2791899999999999e-31,-1.99639e-29
290.0,1.18208e-28,1.1476000000000001e-24,1.14749e-24,1.1475899999999999e-24,-1.6244799999999999e-29,-2.0438800000000002e-30,-2.1246e-29
291.0,1.20283e-28,1.1476000000000001e-24,1.14749e-24,1.1476000000000001e-24,-1.9145899999999999e-29,-4.0260100000000003e-30,-2.2101099999999999e-29
292.0,1.19956e-28,1.1476000000000001e-24,1.14749e-24,1.1476000000000001e-24,-2.19004e-29,-5.8834099999999997e-30,-2.2200599999999999e-29
293.0,1.1763300000000001e-28,1.1476000000000001e-24,1.1475e-24,1.1476000000000001e-24,-2.43055e-29,-7.7963699999999997e-30,-2.1300899999999999e-29
294.0,1.12755e-28,1.1476000000000001e-24,1.1475e-24,1.1476000000000001e-24,-2.57029e-29,-9.4498200000000001e-30,-2.0169400000000001e-29
295.0,3.7756699999999998e-29,1.1475100000000001e-24,1.1474799999999999e-24,1.1475e-24,-1.5512500000000001e-29,-6.1461999999999996e-31,2.9894e-30
296.0,3.5781799999999998e-29,1.1475100000000001e-24,1.1474799999999999e-24,1.1475100000000001e-24,-1.4281700000000001e-29,-1.2211900000000001e-30,3.49353e-30
297.0,3.2543599999999997e-29,1.1475100000000001e-24,1.1474799999999999e-24,1.1475100000000001e-24,-1.25842e-29,-1.85045e-30,3.4942499999999998e-30
298.0,3.0866500000000001e-29,1.1475100000000001e-24,1.1474799999999999e-24,1.1475100000000001e-24,-1.13811e-29,-2.4226700000000001e-30,4.1671500000000002e-30
299.0,2.7101300000000001e-29,1.1475100000000001e-24,1.14749e-24,1.1475100000000001e-24,-9.1592000000000002e-30,-2.65281e-30,4.2814400000000001e-30
300.0,2.6275100000000001e-29,1.1475100000000001e-24,1.14749e-24,1.1475100000000001e-24,-8.0115900000000006e-30,-3.2425899999999997e-30,5.0764599999999999e-30
301.0,2.1690299999999999e-29,1.1475100000000001e-24,1.14749e-24,1.1475100000000001e-24,-5.4468700000000002e-30,-2.9761200000000001e-30,5.0634900000000001e-30
302.0,4.2904100000000002e-29,1.14752e-24,1.1474799999999999e-24,1.14752e-24,-1.4790000000000001e-29,-2.6693499999999998e-31,9.6463400000000007e-31
303.0,4.0963699999999999e-29,1.14752e-24,1.1474799999999999e-24,1.14752e-24,-1.37252e-29,-1.03757e-30,1.2433000000000001e-30
304.0,3.8740100000000003e-29,1.14752e-24,1.14749e-24,1.14752e-24,-1.2556099999999999e-29,-1.8005200000000001e-30,1.4661e-30
305.0,3.6698900000000001e-29,1.14752e-24,1.14749e-24,1.14752e-24,-1.12943e-29,-2.2985499999999999e-30,1.8841999999999999e-30
306.0,3.4545399999999998e-29,1.14752e-24,1.14749e-24,1.14752e-24,-9.9052700000000005e-30,-2.9566600000000001e-30,2.44913e-30
307.0,3.1896800000000002e-29,1.14752e-24,1.14749e-24,1.14752e-24,-8.3235899999999996e-30,-3.1934199999999997e-30,2.71138e-30
308.0,3.0988099999999998e-29,1.14752e-24,1.14749e-24,1.14752e-24,-6.7342899999999996e-30,-3.65444e-30,3.7853399999999999e-30
309.0,5.0420200000000001e-29,1.14753e-24,1.1474799999999999e-24,1.14753e-24,-1.4066600000000001e-29,-5.7301200000000001e-32,-1.6305099999999999e-30
310.0,4.8578000000000001e-29,1.14753e-24,1.14749e-24,1.14753e-24,-1.3351599999999999e-29,-9.1201799999999992e-31,-1.4685100000000001e-30
311.0,4.7097200000000002e-29,1.14753e-24,1.14749e-24,1.14753e-24,-1.2611799999999999e-29,-1.7205399999999999e-30,-1.0593899999999999e-30
312.0,4.5156699999999998e-29,1.14753e-24,1.14749e-24,1.14753e-24,-1.16587e-29,-2.47682e-30,-7.1529599999999998e-31
313.0,4.3459399999999999e-29,1.14753e-24,1.14749e-24,1.14753e-24,-1.06946e-29,-3.0589899999999998e-30,-2.3139499999999998e-31
314.0,4.1394200000000002e-29,1.14753e-24,1.14749e-24,1.14753e-24,-9.4645400000000003e-30,-3.6465100000000002e-30,5.01889e-31
315.0,3.86065e-29,1.14753e-24,1.1475e-24,1.14753e-24,-8.1401700000000004e-30,-3.9615599999999997e-30,7.7560199999999999e-31
316.0,6.0040199999999997e-29,1.1475400000000001e-24,1.14749e-24,1.1475400000000001e-24,-1.3402599999999999e-29,1.15599e-31,-4.8874800000000001e-30
317.0,5.8804200000000001e-29,1.1475400000000001e-24,1.14749e-24,1.1475400000000001e-24,-1.3203799999999999e-29,-8.6565100000000009e-31,-4.5281899999999997e-30
318.0,5.7534500000000005e-29,1.1475400000000001e-24,1.14749e-24,1.1475400000000001e-24,-1.2825399999999999e-29,-1.83871e-30,-4.3428500000000001e-30
319.0,5.6395200000000002e-29,1.14755e-24,1.14749e-24,1.1475400000000001e-24,-1.2457099999999999e-29,-2.67472e-30,-3.9539799999999998e-30
320.0,5.4688299999999999e-29,1.14755e-24,1.14749e-24,1.1475400000000001e-24,-1.1850100000000001e-29,-3.5034100000000001e-30,-3.5122099999999998e-30
321.0,5.2764400000000002e-29,1.14755e-24,1.1475e-24,1.14755e-24,-1.11322e-29,-4.1508900000000001e-30,-2.9299499999999999e-30
322.0,5.0329399999999999e-29,1.14755e-24,1.1475e-24,1.14755e-24,-1.0051699999999999e-29,-4.7075199999999998e-30,-1.9119300000000001e-30
323.0,7.2070299999999997e-29,1.1475599999999999e-24,1.14749e-24,1.14755e-24,-1.3000800000000001e-29,1.4147799999999999e-31,-8.5829499999999997e-30
324.0,7.1152599999999999e-29,1.1475599999999999e-24,1.14749e-24,1.14755e-24,-1.3258700000000001e-29,-9.5989499999999992e-31,-8.2710900000000002e-30
325.0,7.0530499999999995e-29,1.1475599999999999e-24,1.14749e-24,1.14755e-24,-1.3517999999999999e-29,-2.0399600000000001e-30,-8.0928500000000004e-30
326.0,6.9684000000000003e-29,1.1475599999999999e-24,1.14749e-24,1.1475599999999999e-24,-1.36506e-29,-3.0638700000000001e-30,-7.8896099999999999e-30
327.0,6.8504299999999995e-29,1.1475599999999999e-24,1.1475e-24,1.1475599999999999e-24,-1.3648799999999999e-29,-4.0552100000000003e-30,-7.4577299999999999e-30
328.0,6.6315999999999998e-29,1.1475599999999999e-24,1.1475e-24,1.1475599999999999e-24,-1.34238e-29,-4.9502100000000002e-30,-6.8414399999999999e-30
329.0,6.4073100000000001e-29,1.1475599999999999e-24,1.1475e-24,1.1475599999999999e-24,-1.29412e-29,-5.7353200000000001e-30,-6.0008699999999997e-30
330.0,8.5609600000000001e-29,1.1475700000000001e-24,1.14749e-24,1.1475599999999999e-24,-1.2767200000000001e-29,3.8936899999999999e-32,-1.2771899999999999e-29
331.0,8.5506799999999998e-29,1.1475700000000001e-24,1.14749e-24,1.1475700000000001e-24,-1.3680099999999999e-29,-1.1131299999999999e-30,-1.2698699999999999e-29
332.0,8.5863300000000002e-29,1.1475700000000001e-24,1.14749e-24,1.1475700000000001e-24,-1.4492899999999999e-29,-2.3808200000000001e-30,-1.285e-29
333.0,8.57651e-29,1.1475700000000001e-24,1.14749e-24,1.1475700000000001e-24,-1.5316800000000001e-29,-3.6734499999999998e-30,-1.2901199999999999e-29
334.0,8.4734199999999999e-29,1.14758e-24,1.1475e-24,1.1475700000000001e-24,-1.6083799999999999e-29,-4.9399800000000002e-30,-1.2662400000000001e-29
335.0,8.2967599999999996e-29,1.14758e-24,1.1475e-24,1.1475700000000001e-24,-1.6543300000000001e-29,-6.1858300000000001e-30,-1.1976199999999999e-29
336.0,7.9541799999999995e-29,1.1475700000000001e-24,1.1475e-24,1.1475700000000001e-24,-1.6561299999999999e-29,-7.2428500000000003e-30,-1.11646e-29
337.0,9.89792e-29,1.14758e-24,1.14749e-24,1.1475700000000001e-24,-1.2752e-29,2.5362499999999999e-32,-1.7180699999999999e-29
338.0,1.0117299999999999e-28,1.14758e-24,1.14749e-24,1.14758e-24,-1.3956799999999999e-29,-1.19004e-30,-1.7972600000000001e-29
339.0,1.03421e-28,1.1475899999999999e-24,1.14749e-24,1.14758e-24,-1.5521099999999999e-29,-2.7770199999999999e-30,-1.9003600000000001e-29
340.0,1.0452400000000001e-28,1.1475899999999999e-24,1.14749e-24,1.14758e-24,-1.7429099999999999e-29,-4.5288299999999998e-30,-1.9521600000000001e-29
341.0,1.0409399999999999e-28,1.1475899999999999e-24,1.1475e-24,1.1475899999999999e-24,-1.91252e-29,-6.3430200000000002e-30,-1.9383e-29
342.0,1.0161600000000001e-28,1.1475899999999999e-24,1.1475e-24,1.1475899999999999e-24,-2.0530400000000001e-29,-7.9996899999999999e-30,-1.8676600000000001e-29
343.0,9.8829900000000005e-29,1.1475899999999999e-24,1.1475100000000001e-24,1.1475899999999999e-24,-2.1463499999999999e-29,-9.4302499999999999e-30,-1.7146100000000001e-29
344.0,3.7069400000000002e-29,1.1475e-24,1.1474799999999999e-24,1.1475e-24,-1.5513699999999999e-29,-1.1606200000000001e-30,4.8009999999999997e-30
345.0,3.4404599999999998e-29,1.1475e-24,1.1474799999999999e-24,1.1475e-24,-1.4105199999999999e-29,-1.8857299999999998e-30,4.7743099999999998e-30
346.0,3.2708100000000001e-29,1.1475e-24,1.1474799999999999e-24,1.1475e-24,-1.2849399999999999e-29,-2.4758e-30,5.2709499999999998e-30
347.0,2.9595699999999999e-29,1.1475100000000001e-24,1.14749e-24,1.1475100000000001e-24,-1.0854100000000001e-29,-2.9745099999999998e-30,5.6334300000000003e-30
348.0,2.8314199999999999e-29,1.1475100000000001e-24,1.14749e-24,1.1475100000000001e-24,-9.5804599999999997e-30,-3.5240100000000002e-30,6.2567299999999997e-30
349.0,2.4973499999999999e-29,1.1475100000000001e-24,1.14749e-24,1.1475100000000001e-24,-7.1940499999999995e-30,-3.6006900000000002e-30,6.5335800000000004e-30
350.0,2.48878e-29,1.1475100000000001e-24,1.14749e-24,1.1475100000000001e-24,-5.8064400000000002e-30,-4.1283800000000002e-30,7.2372699999999998e-30
351.0,4.1012699999999999e-29,1.1475100000000001e-24,1.1474799999999999e-24,1.1475100000000001e-24,-1.4821699999999999e-29,-9.4423399999999995e-31,2.4449499999999999e-30
352.0,3.8851299999999998e-29,1.1475100000000001e-24,1.1474799999999999e-24,1.1475100000000001e-24,-1.3675200000000001e-29,-1.6591999999999999e-30,2.6166500000000001e-30
353.0,3.7089200000000001e-29,1.14752e-24,1.14749e-24,1.14752e-24,-1.2525600000000001e-29,-2.3130899999999998e-30,3.0611800000000002e-30
354.0,3.4915699999999998e-29,1.14752e-24,1.14749e-24,1.14752e-24,-1.1101100000000001e-29,-3.0280299999999999e-30,3.5366599999999999e-30
355.0,3.2948799999999998e-29,1.14752e-24,1.14749e-24,1.14752e-24,-9.6634600000000007e-30,-3.4480200000000001e-30,3.99051e-30
356.0,3.1384699999999998e-29,1.14752e-24,1.14749e-24,1.14752e-24,-8.0925100000000004e-30,-3.9580500000000003e-30,4.70478e-30
357.0,2.8478100000000003e-29,1.14752e-24,1.14749e-24,1.14752e-24,-6.3788200000000007e-30,-4.1360900000000003e-30,5.00664e-30
358.0,4.7073900000000002e-29,1.14753e-24,1.14749e-24,1.14752e-24,-1.41241e-29,-6.4214999999999999e-31,-3.5099000000000001e-31
359.0,4.5583999999999998e-29,1.14753e-24,1.14749e-24,1.14753e-24,-1.3380099999999999e-29,-1.515e-30,3.7229100000000001e-32
360.0,4.3775200000000001e-29,1.14753e-24,1.14749e-24,1.14753e-24,-1.24046e-29,-2.2992500000000002e-30,3.5541800000000002e-31
361.0,4.2288700000000002e-29,1.14753e-24,1.14749e-24,1.14753e-24,-1.14579e-29,-3.0594400000000001e-30,8.3545299999999996e-31
362.0,4.05375e-29,1.14753e-24,1.14749e-24,1.14753e-24,-1.02378e-29,-3.7100700000000003e-30,1.3957199999999999e-30
363.0,3.8626399999999999e-29,1.14753e-24,1.1475e-24,1.14753e-24,-8.9899699999999999e-30,-4.2461299999999997e-30,1.9155400000000001e-30
364.0,3.7294900000000001e-29,1.14753e-24,1.1475e-24,1.14753e-24,-7.4661600000000004e-30,-4.7142499999999997e-30,2.9623299999999999e-30
365.0,5.5628799999999996e-29,1.1475400000000001e-24,1.14749e-24,1.1475400000000001e-24,-1.3580900000000001e-29,-5.40456e-31,-3.5003800000000001e-30
366.0,5.4186499999999995e-29,1.1475400000000001e-24,1.14749e-24,1.1475400000000001e-24,-1.31403e-29,-1.4719100000000001e-30,-3.1697299999999999e-30
367.0,5.2977499999999996e-29,1.1475400000000001e-24,1.14749e-24,1.1475400000000001e-24,-1.2658700000000001e-29,-2.3649600000000001e-30,-2.7932099999999999e-30
368.0,5.1592599999999999e-29,1.1475400000000001e-24,1.14749e-24,1.1475400000000001e-24,-1.19667e-29,-3.2762799999999998e-30,-2.4036400000000001e-30
369.0,5.0221699999999999e-29,1.1475400000000001e-24,1.1475e-24,1.1475400000000001e-24,-1.1275e-29,-4.0346100000000001e-30,-1.8667000000000001e-30
370.0,4.8407399999999998e-29,1.1475400000000001e-24,1.1475e-24,1.1475400000000001e-24,-1.0310800000000001e-29,-4.75781e-30,-1.17753e-30
371.0,4.6051399999999999e-29,1.1475400000000001e-24,1.1475e-24,1.1475400000000001e-24,-9.1823600000000002e-30,-5.3477200000000002e-30,-4.2499499999999997e-31
372.0,6.6107000000000004e-29,1.14755e-24,1.14749e-24,1.14755e-24,-1.3199400000000001e-29,-5.2636899999999998e-31,-7.1661099999999999e-30
373.0,6.5022099999999999e-29,1.14755e-24,1.14749e-24,1.14755e-24,-1.3211199999999999e-29,-1.55451e-30,-6.8631400000000004e-30
374.0,6.4327800000000001e-29,1.14755e-24,1.14749e-24,1.14755e-24,-1.31244e-29,-2.6040199999999999e-30,-6.6657699999999999e-30
375.0,6.3475499999999997e-29,1.14755e-24,1.1475e-24,1.14755e-24,-1.29837e-29,-3.6507699999999999e-30,-6.3556399999999994e-30
376.0,6.2140899999999996e-29,1.1475599999999999e-24,1.1475e-24,1.14755e-24,-1.26928e-29,-4.6316699999999999e-30,-5.9228199999999998e-30
377.0,6.0573899999999995e-29,1.1475599999999999e-24,1.1475e-24,1.14755e-24,-1.22322e-29,-5.53954e-30,-5.2216099999999999e-30
378.0,5.7894300000000002e-29,1.14755e-24,1.1475e-24,1.14755e-24,-1.13716e-29,-6.2219200000000001e-30,-4.1926700000000001e-30
379.0,7.7695999999999998e-29,1.1475599999999999e-24,1.14749e-24,1.1475599999999999e-24,-1.3094300000000001e-29,-5.9344399999999998e-31,-1.1224900000000001e-29
380.0,7.7475799999999995e-29,1.1475599999999999e-24,1.14749e-24,1.1475599999999999e-24,-1.3515e-29,-1.7595299999999999e-30,-1.10463e-29
381.0,7.7309099999999998e-29,1.1475700000000001e-24,1.14749e-24,1.1475599999999999e-24,-1.3953099999999999e-29,-2.90099e-30,-1.10422e-29
382.0,7.7029199999999997e-29,1.1475700000000001e-24,1.1475e-24,1.1475599999999999e-24,-1.4352700000000001e-29,-4.1864600000000001e-30,-1.09498e-29
383.0,7.6025699999999996e-29,1.1475700000000001e-24,1.1475e-24,1.1475700000000001e-24,-1.46597e-29,-5.3955000000000003e-30,-1.05223e-29
384.0,7.4073600000000002e-29,1.1475700000000001e-24,1.1475e-24,1.1475700000000001e-24,-1.4744499999999999e-29,-6.5547800000000002e-30,-9.8883899999999996e-30
385.0,7.1678099999999995e-29,1.1475700000000001e-24,1.1475e-24,1.1475700000000001e-24,-1.4411900000000001e-29,-7.6292099999999999e-30,-8.6199000000000003e-30
386.0,8.9261399999999995e-29,1.1475700000000001e-24,1.14749e-24,1.1475700000000001e-24,-1.31557e-29,-7.8297500000000004e-31,-1.5198800000000001e-29
387.0,9.01474e-29,1.14758e-24,1.14749e-24,1.1475700000000001e-24,-1.37797e-29,-1.9132399999999999e-30,-1.58007e-29
388.0,9.1619899999999996e-29,1.14758e-24,1.14749e-24,1.1475700000000001e-24,-1.4841899999999999e-29,-3.30628e-30,-1.6276399999999999e-29
389.0,9.1958299999999995e-29,1.14758e-24,1.1475e-24,1.14758e-24,-1.5941399999999999e-29,-4.91352e-30,-1.65586e-29
390.0,9.1150900000000001e-29,1.14758e-24,1.1475e-24,1.14758e-24,-1.6925600000000001e-29,-6.5736399999999999e-30,-1.6302800000000001e-29
391.0,8.9384500000000001e-29,1.14758e-24,1.1475e-24,1.14758e-24,-1.7638199999999999e-29,-8.0702600000000001e-30,-1.53796e-29
392.0,8.5532900000000003e-29,1.14758e-24,1.1475100000000001e-24,1.14758e-24,-1.7813300000000001e-29,-9.3907200000000003e-30,-1.4327300000000001e-29
393.0,3.6195999999999997e-29,1.1475e-24,1.1474799999999999e-24,1.1475e-24,-1.5432799999999999e-29,-1.8090499999999998e-30,5.8381500000000002e-30
394.0,3.4877099999999999e-29,1.1475e-24,1.1474799999999999e-24,1.1475e-24,-1.4432200000000001e-29,-2.4241900000000001e-30,6.21641e-30
395.0,3.2156299999999999e-29,1.1475e-24,1.1474799999999999e-24,1.1475e-24,-1.2587299999999999e-29,-3.0420500000000002e-30,6.7820599999999998e-30
396.0,3.07325e-29,1.1475e-24,1.1474799999999999e-24,1.1475e-24,-1.1329e-29,-3.6997999999999997e-30,7.2989599999999993e-30
397.0,2.8013799999999998e-29,1.1475e-24,1.14749e-24,1.1475e-24,-9.0321900000000002e-30,-4.06836e-30,7.82449e-30
398.0,2.7265799999999999e-29,1.1475e-24,1.14749e-24,1.1475e-24,-7.6636199999999998e-30,-4.5625699999999997e-30,8.4406800000000004e-30
399.0,2.44907e-29,1.1475e-24,1.14749e-24,1.1475e-24,-5.28149e-30,-4.4932e-30,8.7707700000000002e-30
400.0,3.94982e-29,1.1475100000000001e-24,1.1474799999999999e-24,1.1475100000000001e-24,-1.4773599999999999e-29,-1.43431e-30,3.5850399999999997e-30
401.0,3.8083700000000003e-29,1.1475100000000001e-24,1.1474799999999999e-24,1.1475100000000001e-24,-1.3845000000000001e-29,-2.1614200000000001e-30,4.0479799999999997e-30
402.0,3.6016599999999998e-29,1.1475100000000001e-24,1.14749e-24,1.1475100000000001e-24,-1.2518199999999999e-29,-2.8934499999999999e-30,4.5180699999999999e-30
403.0,3.4303899999999999e-29,1.1475100000000001e-24,1.14749e-24,1.1475100000000001e-24,-1.1136000000000001e-29,-3.5565600000000002e-30,5.03952e-30
404.0,3.2698500000000002e-29,1.1475100000000001e-24,1.14749e-24,1.1475100000000001e-24,-9.5505500000000006e-30,-4.236e-30,5.68586e-30
405.0,3.07148e-29,1.14752e-24,1.14749e-24,1.14752e-24,-7.8834100000000006e-30,-4.5711500000000003e-30,6.2013699999999997e-30
406.0,3.00522e-29,1.1475100000000001e-24,1.14749e-24,1.14752e-24,-6.0604400000000003e-30,-5.0098899999999998e-30,7.0799099999999997e-30
407.0,4.5058599999999997e-29,1.14752e-24,1.14749e-24,1.14752e-24,-1.4226599999999999e-29,-1.2292000000000001e-30,9.1291900000000004e-31
408.0,4.3328199999999998e-29,1.14752e-24,1.14749e-24,1.14752e-24,-1.3370699999999999e-29,-1.9470800000000001e-30,1.2851499999999999e-30
409.0,4.1994899999999998e-29,1.14753e-24,1.14749e-24,1.14752e-24,-1.24624e-29,-2.81676e-30,1.7872700000000001e-30
410.0,4.0300100000000002e-29,1.14753e-24,1.14749e-24,1.14752e-24,-1.1259800000000001e-29,-3.6079799999999999e-30,2.3367e-30
411.0,3.8818299999999998e-29,1.14753e-24,1.14749e-24,1.14753e-24,-1.00435e-29,-4.3834899999999999e-30,2.9162899999999998e-30
412.0,3.7395499999999998e-29,1.14753e-24,1.14749e-24,1.14753e-24,-8.6432199999999996e-30,-4.8846999999999998e-30,3.6717699999999998e-30
413.0,3.49855e-29,1.14753e-24,1.1475e-24,1.14753e-24,-7.1345199999999994e-30,-5.31101e-30,4.2842700000000002e-30
414.0,5.2340299999999994e-29,1.1475400000000001e-24,1.14749e-24,1.14753e-24,-1.3600300000000001e-29,-1.0256e-30,-2.35156e-30
415.0,5.1153400000000005e-29,1.1475400000000001e-24,1.14749e-24,1.14753e-24,-1.3166900000000001e-29,-1.9287000000000001e-30,-1.9380200000000001e-30
416.0,4.98765e-29,1.1475400000000001e-24,1.14749e-24,1.1475400000000001e-24,-1.2473600000000001e-29,-2.8575800000000001e-30,-1.5203e-30
417.0,4.8689800000000002e-29,1.1475400000000001e-24,1.14749e-24,1.1475400000000001e-24,-1.17348e-29,-3.8181300000000003e-30,-1.0426200000000001e-30
418.0,4.7342900000000003e-29,1.1475400000000001e-24,1.1475e-24,1.1475400000000001e-24,-1.07805e-29,-4.7149199999999997e-30,-4.4640199999999998e-31
419.0,4.5674199999999999e-29,1.1475400000000001e-24,1.1475e-24,1.1475400000000001e-24,-9.76328e-30,-5.3896300000000003e-30,2.8674600000000001e-31
420.0,4.4032599999999999e-29,1.1475400000000001e-24,1.1475e-24,1.1475400000000001e-24,-8.3848700000000001e-30,-5.9707999999999998e-30,1.4144000000000001e-30
421.0,6.1912399999999995e-29,1.14755e-24,1.14749e-24,1.1475400000000001e-24,-1.3295400000000001e-29,-1.0692499999999999e-30,-6.0448299999999997e-30
422.0,6.08377e-29,1.14755e-24,1.14749e-24,1.14755e-24,-1.31378e-29,-1.9824100000000001e-30,-5.6881400000000003e-30
423.0,5.9932600000000003e-29,1.14755e-24,1.14749e-24,1.14755e-24,-1.28563e-29,-3.0500899999999999e-30,-5.3605299999999999e-30
424.0,5.9037399999999997e-29,1.14755e-24,1.1475e-24,1.14755e-24,-1.24892e-29,-4.1529699999999999e-30,-4.9992300000000001e-30
425.0,5.7893199999999997e-29,1.14755e-24,1.1475e-24,1.14755e-24,-1.19943e-29,-5.2352800000000002e-30,-4.41736e-30
426.0,5.6176400000000002e-29,1.14755e-24,1.1475e-24,1.14755e-24,-1.1351399999999999e-29,-6.0671800000000002e-30,-3.62372e-30
427.0,5.3740599999999997e-29,1.14755e-24,1.1475e-24,1.14755e-24,-1.04254e-29,-6.9012199999999997e-30,-2.5511799999999998e-30
428.0,7.2500700000000005e-29,1.1475599999999999e-24,1.14749e-24,1.1475599999999999e-24,-1.3210200000000001e-29,-1.13619e-30,-9.8925199999999998e-30
429.0,7.1982699999999998e-29,1.1475599999999999e-24,1.14749e-24,1.1475599999999999e-24,-1.3331000000000001e-29,-2.1326400000000002e-30,-9.8666599999999999e-30
430.0,7.1762999999999995e-29,1.1475599999999999e-24,1.14749e-24,1.1475599999999999e-24,-1.3496899999999999e-29,-3.3970100000000002e-30,-9.8205400000000005e-30
431.0,7.1218500000000003e-29,1.1475599999999999e-24,1.1475e-24,1.1475599999999999e-24,-1.36187e-29,-4.6611000000000003e-30,-9.5707999999999994e-30
432.0,7.0244199999999998e-29,1.1475700000000001e-24,1.1475e-24,1.1475599999999999e-24,-1.3643699999999999e-29,-5.99174e-30,-9.1390499999999995e-30
433.0,6.85709e-29,1.1475700000000001e-24,1.1475e-24,1.1475599999999999e-24,-1.3470999999999999e-29,-7.0956600000000005e-30,-8.23153e-30
434.0,6.5449999999999998e-29,1.1475599999999999e-24,1.1475e-24,1.1475599999999999e-24,-1.2783599999999999e-29,-7.8740199999999998e-30,-6.9772000000000005e-30
435.0,8.1637599999999996e-29,1.1475700000000001e-24,1.14749e-24,1.1475599999999999e-24,-1.30076e-29,-1.2742100000000001e-30,-1.3701100000000001e-29
436.0,8.2852000000000003e-29,1.1475700000000001e-24,1.14749e-24,1.1475700000000001e-24,-1.3611199999999999e-29,-2.3207300000000002e-30,-1.3865800000000001e-29
437.0,8.3259300000000002e-29,1.1475700000000001e-24,1.1475e-24,1.1475700000000001e-24,-1.4258e-29,-3.7124100000000003e-30,-1.42326e-29
438.0,8.3327099999999996e-29,1.14758e-24,1.1475e-24,1.1475700000000001e-24,-1.4885799999999999e-29,-5.2809899999999999e-30,-1.4262999999999999e-29
439.0,8.23269e-29,1.14758e-24,1.1475e-24,1.1475700000000001e-24,-1.5372999999999999e-29,-6.8438900000000002e-30,-1.3707799999999999e-29
440.0,8.0200400000000005e-29,1.14758e-24,1.1475e-24,1.1475700000000001e-24,-1.56976e-29,-8.1523800000000005e-30,-1.2862700000000001e-29
441.0,7.7550699999999998e-29,1.14758e-24,1.1475100000000001e-24,1.1475700000000001e-24,-1.5519399999999999e-29,-9.4807599999999999e-30,-1.11594e-29
442.0,2.0412299999999998e-28,1.1476499999999999e-24,1.1474799999999999e-24,1.14766e-24,-5.7370100000000002e-29,-8.2921399999999999e-30,-2.46619e-29
443.0,2.8218799999999998e-28,1.1476799999999999e-24,1.14747e-24,1.1477100000000001e-24,-8.9584600000000002e-29,-1.4824599999999999e-29,-3.9383200000000001e-29
444.0,2.1934099999999998e-28,1.14766e-24,1.14747e-24,1.14767e-24,-5.1807700000000002e-29,-6.2969899999999998e-30,-2.7393799999999997e-29
445.0,3.1172099999999998e-28,1.1477e-24,1.14744e-24,1.14772e-24,-8.0666599999999995e-29,-1.2225600000000001e-29,-4.6159599999999999e-29
446.0,2.26068e-28,1.14766e-24,1.14746e-24,1.14767e-24,-4.15034e-29,-4.28548e-30,-2.9140899999999998e-29
447.0,3.2130300000000001e-28,1.1477100000000001e-24,1.1474199999999999e-24,1.14772e-24,-6.0361700000000004e-29,-7.24997e-30,-4.8336000000000002e-29
448.0,2.2355900000000002e-28,1.14766e-24,1.1474499999999999e-24,1.14766e-24,-2.9331699999999998e-29,-1.4204699999999999e-30,-2.8654899999999999e-29
449.0,3.0662600000000001e-28,1.1477100000000001e-24,1.1474199999999999e-24,1.1477100000000001e-24,-3.4475700000000002e-29,-2.0764300000000002e-30,-4.5588500000000003e-29
450.0,2.09531e-28,1.1476499999999999e-24,1.1474499999999999e-24,1.1476499999999999e-24,-1.6955800000000001e-29,7.5790699999999996e-31,-2.6648699999999999e-29
451.0,2.7462299999999999e-28,1.14769e-24,1.14743e-24,1.14769e-24,-1.3829999999999999e-29,2.0570299999999999e-30,-3.8977199999999998e-29
452.0,1.91471e-28,1.14764e-24,1.1474499999999999e-24,1.14764e-24,-9.1848500000000003e-30,2.4971000000000001e-30,-2.3320100000000001e-29
453.0,2.3455899999999998e-28,1.14767e-24,1.14744e-24,1.14766e-24,-1.73955e-30,4.12458e-30,-3.1870600000000002e-29
454.0,1.7121699999999999e-28,1.14763e-24,1.14746e-24,1.1476199999999999e-24,-4.17173e-30,3.32104e-30,-2.0362000000000001e-29
455.0,1.9616399999999999e-28,1.14764e-24,1.1474499999999999e-24,1.14764e-24,1.7977899999999999e-30,4.9400100000000001e-30,-2.4892299999999999e-29
456.0,1.86212e-28,1.14764e-24,1.14749e-24,1.1476499999999999e-24,-5.0427799999999997e-29,-1.11406e-29,-3.03496e-29
457.0,2.51103e-28,1.14767e-24,1.1474799999999999e-24,1.1476799999999999e-24,-7.5462100000000001e-29,-2.10548e-29,-4.9300700000000003e-29
458.0,1.9719199999999999e-28,1.1476499999999999e-24,1.1474799999999999e-24,1.1476499999999999e-24,-4.4909e-29,-9.1486399999999994e-30,-3.3359500000000002e-29
459.0,2.7508900000000002e-28,1.14769e-24,1.14746e-24,1.14769e-24,-6.8569600000000004e-29,-1.7039899999999999e-29,-5.6923399999999997e-29
460.0,2.02722e-28,1.1476499999999999e-24,1.14747e-24,1.1476499999999999e-24,-3.70772e-29,-6.2698700000000002e-30,-3.4685900000000002e-29
461.0,2.8315999999999999e-28,1.1477e-24,1.1474499999999999e-24,1.14769e-24,-5.1885399999999998e-29,-1.09928e-29,-5.9663199999999999e-29
462.0,1.9934899999999999e-28,1.1476499999999999e-24,1.14746e-24,1.1476499999999999e-24,-2.7103199999999997e-29,-3.0882100000000001e-30,-3.3909900000000002e-29
463.0,2.72847e-28,1.14769e-24,1.14744e-24,1.1476799999999999e-24,-3.1802700000000001e-29,-4.3080099999999998e-30,-5.6338e-29
464.0,1.8928999999999999e-28,1.14764e-24,1.14746e-24,1.14764e-24,-1.7874900000000001e-29,-3.0916799999999999e-31,-3.1199900000000002e-29
465.0,2.47473e-28,1.1476799999999999e-24,1.14744e-24,1.14767e-24,-1.4708299999999999e-29,9.7960300000000006e-31,-4.8660100000000001e-29
466.0,1.7372100000000001e-28,1.14763e-24,1.14746e-24,1.14763e-24,-1.0613500000000001e-29,1.8851e-30,-2.7613600000000002e-29
467.0,2.1504199999999999e-28,1.14766e-24,1.1474499999999999e-24,1.1476499999999999e-24,-4.6149800000000002e-30,3.8613399999999999e-30,-3.9471100000000002e-29
468.0,1.5805699999999999e-28,1.1476199999999999e-24,1.14747e-24,1.1476199999999999e-24,-7.1481500000000006e-30,2.9915600000000001e-30,-2.3915000000000001e-29
469.0,1.81562e-28,1.14763e-24,1.14746e-24,1.14763e-24,-8.6888100000000009e-31,5.0914800000000003e-30,-3.0766900000000002e-29
470.0,1.64535e-28,1.14763e-24,1.1475e-24,1.14763e-24,-4.2304999999999999e-29,-1.3315999999999999e-29,-3.2131299999999999e-29
471.0,2.1302199999999998e-28,1.1476499999999999e-24,1.1475e-24,1.14766e-24,-5.9746500000000006e-29,-2.24953e-29,-4.9635000000000001e-29
472.0,1.73411e-28,1.14764e-24,1.14749e-24,1.14763e-24,-3.8320299999999998e-29,-1.08191e-29,-3.4825199999999999e-29
473.0,2.3104599999999998e-28,1.14767e-24,1.1474799999999999e-24,1.14766e-24,-5.4165599999999997e-29,-1.8779400000000001e-29,-5.7359999999999998e-29
474.0,1.77499e-28,1.14764e-24,1.1474799999999999e-24,1.14763e-24,-3.2231700000000001e-29,-7.7138899999999994e-30,-3.63211e-29
475.0,2.38118e-28,1.1476799999999999e-24,1.14747e-24,1.14766e-24,-4.27956e-29,-1.2545e-29,-6.0185100000000004e-29
476.0,1.75655e-28,1.14764e-24,1.1474799999999999e-24,1.14763e-24,-2.48687e-29,-4.4736599999999997e-30,-3.5348799999999998e-29
477.0,2.3194400000000001e-28,1.14767e-24,1.14746e-24,1.14766e-24,-2.8515799999999998e-29,-5.8706699999999997e-30,-5.7842999999999996e-29
478.0,1.6754e-28,1.14763e-24,1.14747e-24,1.1476199999999999e-24,-1.7634199999999999e-29,-1.36428e-30,-3.2751699999999998e-29
479.0,2.1467000000000001e-28,1.14766e-24,1.14746e-24,1.1476499999999999e-24,-1.5839899999999999e-29,-2.9312400000000002e-31,-5.0996899999999996e-29
480.0,1.55631e-28,1.1476199999999999e-24,1.14747e-24,1.14761e-24,-1.21485e-29,1.00106e-30,-2.90784e-29
481.0,1.9017399999999999e-28,1.14764e-24,1.14746e-24,1.14763e-24,-7.5806900000000007e-30,3.3066299999999999e-30,-4.20811e-29
482.0,1.4262699999999999e-28,1.14761e-24,1.14747e-24,1.1476000000000001e-24,-9.0110100000000003e-30,2.4415899999999999e-30,-2.5227500000000001e-29
483.0,1.6390500000000001e-28,1.1476199999999999e-24,1.14747e-24,1.1476199999999999e-24,-4.1747100000000002e-30,4.7888999999999998e-30,-3.32316e-29
484.0,1.41661e-28,1.1476199999999999e-24,1.1475e-24,1.1476199999999999e-24,-3.43439e-29,-1.34153e-29,-2.9810999999999999e-29
485.0,1.7498699999999999e-28,1.14764e-24,1.1475e-24,1.14763e-24,-4.5058699999999998e-29,-2.09155e-29,-4.3741600000000001e-29
486.0,1.4747599999999999e-28,1.1476199999999999e-24,1.1475e-24,1.1476199999999999e-24,-3.1350900000000002e-29,-1.1182599999999999e-29,-3.24237e-29
487.0,1.8811399999999999e-28,1.1476499999999999e-24,1.1475e-24,1.14764e-24,-4.1590200000000002e-29,-1.76298e-29,-4.9909899999999998e-29
488.0,1.51341e-28,1.14763e-24,1.14749e-24,1.1476199999999999e-24,-2.7379099999999998e-29,-8.4787300000000005e-30,-3.3643899999999997e-29
489.0,1.9400799999999999e-28,1.1476499999999999e-24,1.14749e-24,1.14763e-24,-3.4361299999999998e-29,-1.23549e-29,-5.2853499999999998e-29
490.0,1.50422e-28,1.1476199999999999e-24,1.14749e-24,1.14761e-24,-2.2249500000000001e-29,-5.1822800000000002e-30,-3.3219800000000001e-29
491.0,1.91323e-28,1.1476499999999999e-24,1.1474799999999999e-24,1.14763e-24,-2.5088200000000001e-29,-6.8220500000000003e-30,-5.1602299999999999e-29
492.0,1.4500100000000001e-28,1.1476199999999999e-24,1.1474799999999999e-24,1.14761e-24,-1.7143899999999999e-29,-2.37252e-30,-3.1088900000000003e-29
493.0,1.8059500000000001e-28,1.14764e-24,1.1474799999999999e-24,1.14763e-24,-1.63745e-29,-1.6761000000000001e-30,-4.6913e-29
494.0,1.36501e-28,1.14761e-24,1.1474799999999999e-24,1.1476000000000001e-24,-1.31905e-29,1.3619299999999999e-31,-2.7934500000000003e-29
495.0,1.64059e-28,1.14763e-24,1.1474799999999999e-24,1.1476199999999999e-24,-1.02147e-29,1.8483300000000001e-30,-4.0034600000000002e-29
496.0,1.26799e-28,1.1476000000000001e-24,1.1474799999999999e-24,1.1475899999999999e-24,-1.0675199999999999e-29,1.6279999999999999e-30,-2.4570899999999999e-29
497.0,1.44353e-28,1.14761e-24,1.1474799999999999e-24,1.1476000000000001e-24,-7.2568299999999994e-30,3.6888200000000001e-30,-3.2359099999999998e-29
498.0,1.18835e-28,1.14761e-24,1.1475100000000001e-24,1.1476000000000001e-24,-2.71211e-29,-1.2961899999999999e-29,-2.5397799999999997e-29
499.0,1.4226699999999999e-28,1.1476199999999999e-24,1.1475100000000001e-24,1.14761e-24,-3.37439e-29,-1.7813099999999999e-29,-3.5315799999999999e-29
500.0,1.24285e-28,1.14761e-24,1.1475e-24,1.1476000000000001e-24,-2.5506600000000003e-29,-1.0836599999999999e-29,-2.7320299999999997e-29
501.0,1.51274e-28,1.14763e-24,1.1475e-24,1.14761e-24,-3.16721e-29,-1.5470699999999999e-29,-4.0076200000000002e-29
502.0,1.27239e-28,1.14761e-24,1.1475e-24,1.1476000000000001e-24,-2.3028199999999999e-29,-8.4032999999999995e-30,-2.86716e-29
503.0,1.56307e-28,1.14763e-24,1.1475e-24,1.14761e-24,-2.73502e-29,-1.1480300000000001e-29,-4.2640399999999997e-29
504.0,1.2737899999999999e-28,1.14761e-24,1.14749e-24,1.1476000000000001e-24,-1.97414e-29,-5.6993399999999997e-30,-2.86208e-29
505.0,1.5553200000000001e-28,1.14763e-24,1.14749e-24,1.14761e-24,-2.1728e-29,-7.1054600000000002e-30,-4.2426899999999999e-29
506.0,1.2406299999999999e-28,1.14761e-24,1.14749e-24,1.1475899999999999e-24,-1.6408599999999999e-29,-3.06173e-30,-2.7167599999999997e-29
507.0,1.49738e-28,1.14763e-24,1.14749e-24,1.14761e-24,-1.6238100000000001e-29,-2.9405299999999999e-30,-3.97769e-29
508.0,1.1851099999999999e-28,1.1476000000000001e-24,1.14749e-24,1.1475899999999999e-24,-1.36244e-29,-8.8803200000000002e-31,-2.49824e-29
509.0,1.39146e-28,1.1476199999999999e-24,1.14749e-24,1.1476000000000001e-24,-1.19782e-29,3.2743799999999998e-31,-3.4985000000000001e-29
510.0,1.1157500000000001e-28,1.1475899999999999e-24,1.14749e-24,1.14758e-24,-1.19425e-29,6.8342300000000002e-31,-2.2281499999999999e-29
511.0,1.2523599999999999e-28,1.1476000000000001e-24,1.1474799999999999e-24,1.1475899999999999e-24,-9.6007499999999998e-30,2.2277800000000001e-30,-2.9136799999999997e-29
512.0,1.00847e-28,1.1476000000000001e-24,1.1475100000000001e-24,1.1475899999999999e-24,-2.1628499999999999e-29,-1.16777e-29,-1.96195e-29
513.0,1.1469199999999999e-28,1.14761e-24,1.1475100000000001e-24,1.1476000000000001e-24,-2.5229800000000001e-29,-1.52913e-29,-2.6545399999999998e-29
514.0,1.04643e-28,1.1476000000000001e-24,1.1475e-24,1.1475899999999999e-24,-2.08346e-29,-1.0248700000000001e-29,-2.1985799999999999e-29
515.0,1.21724e-28,1.14761e-24,1.1475100000000001e-24,1.1476000000000001e-24,-2.43348e-29,-1.3121699999999999e-29,-3.0141300000000002e-29
516.0,1.07548e-28,1.1476000000000001e-24,1.1475e-24,1.1475899999999999e-24,-1.9449599999999999e-29,-8.1645499999999995e-30,-2.3263499999999999e-29
517.0,1.2544999999999999e-28,1.14761e-24,1.1475e-24,1.1476000000000001e-24,-2.19454e-29,-1.02848e-29,-3.2241699999999998e-29
518.0,1.0812499999999999e-28,1.1476000000000001e-24,1.1475e-24,1.1475899999999999e-24,-1.7552900000000001e-29,-5.7952999999999998e-30,-2.3478800000000001e-29
519.0,1.2609200000000001e-28,1.14761e-24,1.1475e-24,1.1476000000000001e-24,-1.8723600000000001e-29,-6.9707599999999994e-30,-3.2819399999999997e-29
520.0,1.0654e-28,1.1475899999999999e-24,1.14749e-24,1.14758e-24,-1.54378e-29,-3.56686e-30,-2.2821099999999999e-29
521.0,1.23321e-28,1.14761e-24,1.14749e-24,1.1475899999999999e-24,-1.5513400000000001e-29,-3.6776800000000003e-30,-3.1476200000000001e-29
522.0,1.0318400000000001e-28,1.1475899999999999e-24,1.14749e-24,1.14758e-24,-1.37908e-29,-1.57121e-30,-2.1231099999999999e-29
523.0,1.1740700000000001e-28,1.1476000000000001e-24,1.14749e-24,1.1475899999999999e-24,-1.2698899999999999e-29,-9.3530100000000001e-31,-2.8797399999999999e-29
524.0,9.8566800000000001e-29,1.14758e-24,1.14749e-24,1.14758e-24,-1.25668e-29,-2.0036399999999999e-31,-1.9325000000000001e-29
525.0,1.0838899999999999e-28,1.1475899999999999e-24,1.14749e-24,1.14758e-24,-1.1180600000000001e-29,9.1804699999999993e-31,-2.48616e-29
526.0,8.6472799999999995e-29,1.1475899999999999e-24,1.1475100000000001e-24,1.14758e-24,-1.77286e-29,-1.09689e-29,-1.55415e-29
527.0,9.4395000000000004e-29,1.1475899999999999e-24,1.1475100000000001e-24,1.14758e-24,-1.9269200000000001e-29,-1.25648e-29,-1.8602299999999999e-29
528.0,9.0614699999999995e-29,1.1475899999999999e-24,1.1475100000000001e-24,1.14758e-24,-1.7563299999999999e-29,-9.5671499999999999e-30,-1.70226e-29
529.0,9.8625399999999995e-29,1.1476000000000001e-24,1.1475100000000001e-24,1.14758e-24,-1.90454e-29,-1.12936e-29,-2.1348e-29
530.0,9.2622100000000001e-29,1.1475899999999999e-24,1.1475e-24,1.14758e-24,-1.6919999999999999e-29,-7.79159e-30,-1.83674e-29
531.0,1.0197800000000001e-28,1.1476000000000001e-24,1.1475e-24,1.14758e-24,-1.79742e-29,-9.1300000000000002e-30,-2.3256399999999999e-29
532.0,9.3678799999999998e-29,1.1475899999999999e-24,1.1475e-24,1.14758e-24,-1.58939e-29,-5.8484799999999998e-30,-1.8822799999999999e-29
533.0,1.0292100000000001e-28,1.1476000000000001e-24,1.1475e-24,1.14758e-24,-1.6331099999999999e-29,-6.4951300000000006e-30,-2.3972899999999999e-29
534.0,9.3074700000000003e-29,1.14758e-24,1.1475e-24,1.1475700000000001e-24,-1.4677299999999999e-29,-3.7843399999999998e-30,-1.8522499999999999e-29
535.0,1.0210399999999999e-28,1.1475899999999999e-24,1.1475e-24,1.14758e-24,-1.4548799999999999e-29,-4.0633899999999998e-30,-2.3635800000000001e-29
536.0,9.1436999999999996e-29,1.14758e-24,1.14749e-24,1.1475700000000001e-24,-1.36463e-29,-2.10718e-30,-1.77973e-29
537.0,9.9247e-29,1.1475899999999999e-24,1.14749e-24,1.14758e-24,-1.2870900000000001e-29,-1.6875100000000001e-30,-2.23554e-29
538.0,8.9342099999999998e-29,1.14758e-24,1.14749e-24,1.1475700000000001e-24,-1.3104300000000001e-29,-9.4890800000000001e-31,-1.6579499999999999e-29
539.0,9.4580499999999995e-29,1.14758e-24,1.14749e-24,1.1475700000000001e-24,-1.17847e-29,1.2881699999999999e-31,-2.0486000000000001e-29
540.0,3.8561600000000001e-29,1.1475e-24,1.1474799999999999e-24,1.1475e-24,-1.66625e-29,-2.0281900000000002e-30,7.9563399999999994e-30
541.0,3.73758e-29,1.1475e-24,1.1474799999999999e-24,1.1475e-24,-1.5862400000000001e-29,-3.3349500000000001e-30,8.6072099999999993e-30
542.0,3.4958499999999998e-29,1.1475e-24,1.1474799999999999e-24,1.1475e-24,-1.36873e-29,-4.0133599999999999e-30,9.53929e-30
543.0,3.3878099999999998e-29,1.1475e-24,1.1474799999999999e-24,1.1475e-24,-1.22822e-29,-5.1444199999999999e-30,1.02723e-29
544.0,3.1752100000000002e-29,1.1475e-24,1.1474799999999999e-24,1.1475e-24,-9.7940899999999996e-30,-5.4606999999999999e-30,1.0901400000000001e-29
545.0,3.1175099999999999e-29,1.1475e-24,1.14749e-24,1.1475e-24,-8.0213500000000005e-30,-6.3245200000000004e-30,1.1559500000000001e-29
546.0,2.9360299999999999e-29,1.1475e-24,1.14749e-24,1.1475e-24,-5.4059300000000002e-30,-6.2642000000000001e-30,1.19295e-29
547.0,3.74168e-29,1.1475e-24,1.1474799999999999e-24,1.1475e-24,-1.6196599999999999e-29,-2.1716500000000002e-30,6.7458900000000002e-30
548.0,3.5098599999999998e-29,1.1475e-24,1.1474799999999999e-24,1.1475e-24,-1.4466699999999999e-29,-2.7753500000000002e-30,7.6501400000000001e-30
549.0,3.3840499999999998e-29,1.1475e-24,1.1474799999999999e-24,1.1475e-24,-1.3432299999999999e-29,-3.73934e-30,8.1505700000000004e-30
550.0,3.1356000000000001e-29,1.1475e-24,1.1474799999999999e-24,1.1475e-24,-1.11783e-29,-4.2309400000000001e-30,8.8573399999999995e-30
551.0,3.0225799999999998e-29,1.1475e-24,1.14749e-24,1.1475e-24,-9.7269099999999998e-30,-4.9634600000000003e-30,9.4467899999999995e-30
552.0,2.8117599999999999e-29,1.1475e-24,1.14749e-24,1.1475e-24,-7.2261199999999994e-30,-5.18365e-30,1.00139e-29
553.0,2.7769499999999999e-29,1.1475e-24,1.14749e-24,1.1475e-24,-5.5458600000000002e-30,-5.6554000000000003e-30,1.06699e-29
554.0,4.1129499999999999e-29,1.1475100000000001e-24,1.1474799999999999e-24,1.1475100000000001e-24,-1.6201999999999999e-29,-1.5125600000000001e-30,5.2271499999999999e-30
555.0,3.9254199999999998e-29,1.1475100000000001e-24,1.1474799999999999e-24,1.1475100000000001e-24,-1.50033e-29,-2.6889099999999999e-30,6.1333699999999999e-30
556.0,3.77991e-29,1.1475100000000001e-24,1.14749e-24,1.1475100000000001e-24,-1.3667800000000001e-29,-3.7685100000000001e-30,6.9427400000000001e-30
557.0,3.6161399999999999e-29,1.1475100000000001e-24,1.14749e-24,1.1475100000000001e-24,-1.1944699999999999e-29,-4.7156500000000002e-30,7.6362600000000006e-30
558.0,3.5080999999999998e-29,1.1475100000000001e-24,1.14749e-24,1.1475100000000001e-24,-1.02737e-29,-5.4753499999999997e-30,8.3359699999999997e-30
559.0,3.37211e-29,1.1475100000000001e-24,1.14749e-24,1.14752e-24,-8.2864199999999999e-30,-6.2224899999999998e-30,8.8618600000000003e-30
560.0,3.2737700000000001e-29,1.1475100000000001e-24,1.14749e-24,1.1475100000000001e-24,-5.9777099999999997e-30,-6.7691400000000005e-30,1.0236599999999999e-29
561.0,3.9785500000000001e-29,1.1475100000000001e-24,1.1474799999999999e-24,1.1475100000000001e-24,-1.52204e-29,-1.6696999999999999e-30,4.5373999999999997e-30
562.0,3.80436e-29,1.1475100000000001e-24,1.1474799999999999e-24,1.1475100000000001e-24,-1.4234700000000001e-29,-2.4898800000000001e-30,5.1676500000000003e-30
563.0,3.6429199999999999e-29,1.1475100000000001e-24,1.14749e-24,1.1475100000000001e-24,-1.2893499999999999e-29,-3.3782400000000001e-30,5.7975099999999997e-30
564.0,3.4848999999999997e-29,1.1475100000000001e-24,1.14749e-24,1.1475100000000001e-24,-1.14354e-29,-4.11853e-30,6.4928199999999997e-30
565.0,3.3169999999999999e-29,1.1475100000000001e-24,1.14749e-24,1.1475100000000001e-24,-9.7254900000000002e-30,-4.82846e-30,7.0333900000000006e-30
566.0,3.20145e-29,1.1475100000000001e-24,1.14749e-24,1.1475100000000001e-24,-7.92415e-30,-5.4450100000000003e-30,7.8066500000000002e-30
567.0,2.9926900000000001e-29,1.1475100000000001e-24,1.14749e-24,1.1475100000000001e-24,-6.0328799999999998e-30,-5.6299200000000002e-30,8.4090199999999995e-30
568.0,4.5436200000000001e-29,1.14752e-24,1.14749e-24,1.14752e-24,-1.5234700000000001e-29,-1.0421200000000001e-30,2.0049700000000001e-30
569.0,4.3668200000000002e-29,1.14752e-24,1.14749e-24,1.14752e-24,-1.4359899999999999e-29,-2.3292599999999999e-30,2.9320499999999999e-30
570.0,4.2127699999999999e-29,1.14752e-24,1.14749e-24,1.14752e-24,-1.3198600000000001e-29,-3.5261900000000002e-30,3.6811699999999998e-30
571.0,4.0990999999999999e-29,1.14753e-24,1.14749e-24,1.14752e-24,-1.1880899999999999e-29,-4.6251599999999997e-30,4.4191500000000003e-30
572.0,3.9763599999999998e-29,1.14753e-24,1.14749e-24,1.14753e-24,-1.042e-29,-5.56991e-30,5.0831999999999998e-30
573.0,3.87831e-29,1.14753e-24,1.14749e-24,1.14753e-24,-8.7174199999999994e-30,-6.51086e-30,6.0339700000000002e-30
574.0,3.6365399999999999e-29,1.14753e-24,1.1475e-24,1.14753e-24,-6.7908100000000004e-30,-6.9743300000000006e-30,7.0320399999999999e-30
575.0,4.4443000000000001e-29,1.14752e-24,1.14749e-24,1.14752e-24,-1.44956e-29,-1.32917e-30,1.6232899999999999e-30
576.0,4.2935099999999999e-29,1.14752e-24,1.14749e-24,1.14752e-24,-1.37002e-29,-2.2919499999999998e-30,2.2013199999999999e-30
577.0,4.1351699999999999e-29,1.14752e-24,1.14749e-24,1.14752e-24,-1.2643399999999999e-29,-3.2116699999999999e-30,2.8826299999999999e-30
578.0,3.9978800000000002e-29,1.14753e-24,1.14749e-24,1.14752e-24,-1.14533e-29,-4.1135799999999997e-30,3.4790400000000002e-30
579.0,3.8745399999999999e-29,1.14753e-24,1.14749e-24,1.14753e-24,-1.0071e-29,-4.9501199999999999e-30,4.1449299999999998e-30
580.0,3.7083799999999998e-29,1.14753e-24,1.14749e-24,1.14753e-24,-8.5231100000000002e-30,-5.6897599999999998e-30,4.8450500000000001e-30
581.0,3.5973299999999998e-29,1.14753e-24,1.14749e-24,1.14752e-24,-6.6946400000000005e-30,-6.2099900000000001e-30,6.1240099999999997e-30
582.0,5.2210999999999995e-29,1.1475400000000001e-24,1.14749e-24,1.14753e-24,-1.4302599999999999e-29,-7.0629200000000004e-31,-1.8469100000000001e-30
583.0,5.0302499999999998e-29,1.1475400000000001e-24,1.14749e-24,1.14753e-24,-1.3668699999999999e-29,-2.09307e-30,-9.6651700000000002e-31
584.0,4.90913e-29,1.1475400000000001e-24,1.14749e-24,1.1475400000000001e-24,-1.2880600000000001e-29,-3.4267599999999999e-30,-2.3514400000000001e-31
585.0,4.7984300000000001e-29,1.1475400000000001e-24,1.14749e-24,1.1475400000000001e-24,-1.1903800000000001e-29,-4.7260700000000001e-30,4.5121100000000001e-31
586.0,4.6929600000000001e-29,1.1475400000000001e-24,1.1475e-24,1.1475400000000001e-24,-1.08314e-29,-5.8373300000000001e-30,1.27351e-30
587.0,4.52458e-29,1.1475400000000001e-24,1.1475e-24,1.1475400000000001e-24,-9.5187199999999997e-30,-6.9090100000000001e-30,2.1833200000000001e-30
588.0,4.3263600000000001e-29,1.1475400000000001e-24,1.1475e-24,1.1475400000000001e-24,-7.6771800000000006e-30,-7.6959399999999994e-30,4.17844e-30
589.0,5.1549100000000002e-29,1.1475400000000001e-24,1.14749e-24,1.14753e-24,-1.38329e-29,-1.16529e-30,-1.8101199999999999e-30
590.0,5.00081e-29,1.1475400000000001e-24,1.14749e-24,1.14753e-24,-1.3310200000000001e-29,-2.1646599999999999e-30,-1.2735699999999999e-30
591.0,4.8677300000000002e-29,1.1475400000000001e-24,1.14749e-24,1.14753e-24,-1.25404e-29,-3.25728e-30,-7.1324899999999996e-31
592.0,4.7449300000000001e-29,1.1475400000000001e-24,1.14749e-24,1.1475400000000001e-24,-1.1675199999999999e-29,-4.2400799999999997e-30,-5.6177700000000005e-32
593.0,4.6305200000000002e-29,1.1475400000000001e-24,1.1475e-24,1.1475400000000001e-24,-1.06824e-29,-5.2676299999999997e-30,5.7828999999999997e-31
594.0,4.4893200000000001e-29,1.1475400000000001e-24,1.1475e-24,1.1475400000000001e-24,-9.4401500000000006e-30,-6.1257800000000001e-30,1.5334000000000001e-30
595.0,4.2395599999999999e-29,1.1475400000000001e-24,1.1475e-24,1.1475400000000001e-24,-8.0816899999999994e-30,-6.7278899999999997e-30,2.51692e-30
596.0,6.1345800000000004e-29,1.14755e-24,1.14749e-24,1.14755e-24,-1.34193e-29,-5.2689399999999998e-31,-6.2604600000000003e-30
597.0,5.9523400000000003e-29,1.14755e-24,1.14749e-24,1.14755e-24,-1.3164900000000001e-29,-1.9736600000000002e-30,-5.5943700000000002e-30
598.0,5.8440300000000003e-29,1.14755e-24,1.1475e-24,1.14755e-24,-1.2743600000000001e-29,-3.4753800000000001e-30,-4.9589700000000001e-30
599.0,5.7545000000000002e-29,1.14755e-24,1.1475e-24,1.14755e-24,-1.22909e-29,-4.9968600000000002e-30,-4.3116200000000002e-30
600.0,5.6341100000000003e-29,1.14755e-24,1.1475e-24,1.14755e-24,-1.1646999999999999e-29,-6.3277300000000003e-30,-3.52071e-30
601.0,5.4642800000000005e-29,1.14755e-24,1.1475e-24,1.14755e-24,-1.06929e-29,-7.5403899999999994e-30,-2.20013e-30
602.0,5.1201899999999995e-29,1.14755e-24,1.1475e-24,1.14755e-24,-9.5215000000000007e-30,-8.3384000000000001e-30,-8.0500100000000006e-31
603.0,6.05687e-29,1.14755e-24,1.14749e-24,1.1475400000000001e-24,-1.3354400000000001e-29,-1.0527700000000001e-30,-5.71907e-30
604.0,5.9341399999999995e-29,1.14755e-24,1.14749e-24,1.1475400000000001e-24,-1.30911e-29,-2.1943699999999999e-30,-5.3119299999999997e-30
605.0,5.8300199999999998e-29,1.14755e-24,1.14749e-24,1.14755e-24,-1.2749099999999999e-29,-3.4148499999999999e-30,-4.9081899999999998e-30
606.0,5.7290399999999997e-29,1.14755e-24,1.1475e-24,1.14755e-24,-1.2257e-29,-4.6008199999999998e-30,-4.35731e-30
607.0,5.6176600000000004e-29,1.14755e-24,1.1475e-24,1.14755e-24,-1.1664799999999999e-29,-5.7559400000000002e-30,-3.6416500000000001e-30
608.0,5.4398499999999995e-29,1.14755e-24,1.1475e-24,1.14755e-24,-1.08744e-29,-6.7989599999999993e-30,-2.7133800000000001e-30
609.0,5.2158400000000004e-29,1.14755e-24,1.1475e-24,1.14755e-24,-9.6309600000000004e-30,-7.5538200000000001e-30,-1.08257e-30
610.0,7.1979200000000003e-29,1.1475599999999999e-24,1.14749e-24,1.1475599999999999e-24,-1.2788600000000001e-29,-4.2388700000000002e-31,-1.1120900000000001e-29
611.0,7.0928100000000005e-29,1.1475599999999999e-24,1.1475e-24,1.1475599999999999e-24,-1.28529e-29,-1.92746e-30,-1.07938e-29
612.0,7.0442300000000002e-29,1.1475599999999999e-24,1.1475e-24,1.1475599999999999e-24,-1.30307e-29,-3.6473400000000002e-30,-1.0533300000000001e-29
613.0,6.9679900000000001e-29,1.1475700000000001e-24,1.1475e-24,1.1475599999999999e-24,-1.3047699999999999e-29,-5.3787300000000003e-30,-9.9613700000000003e-30
614.0,6.8673099999999996e-29,1.1475700000000001e-24,1.1475e-24,1.1475599999999999e-24,-1.3031600000000001e-29,-7.0091000000000004e-30,-9.0922399999999995e-30
615.0,6.6238899999999996e-29,1.1475700000000001e-24,1.1475e-24,1.1475599999999999e-24,-1.26785e-29,-8.4658499999999997e-30,-7.7940400000000003e-30
616.0,6.3117699999999997e-29,1.1475599999999999e-24,1.1475100000000001e-24,1.1475599999999999e-24,-1.15525e-29,-9.4691100000000002e-30,-5.3625699999999998e-30
617.0,7.09464e-29,1.1475599999999999e-24,1.14749e-24,1.14755e-24,-1.30671e-29,-1.1085099999999999e-30,-9.9844900000000004e-30
618.0,7.0220899999999998e-29,1.1475599999999999e-24,1.14749e-24,1.1475599999999999e-24,-1.3198800000000001e-29,-2.3036099999999998e-30,-9.7749000000000005e-30
619.0,6.9700599999999998e-29,1.1475599999999999e-24,1.1475e-24,1.1475599999999999e-24,-1.32087e-29,-3.6375199999999999e-30,-9.5804799999999996e-30
620.0,6.8994499999999996e-29,1.1475599999999999e-24,1.1475e-24,1.1475599999999999e-24,-1.3256499999999999e-29,-5.0786999999999997e-30,-9.2718199999999993e-30
621.0,6.77367e-29,1.1475599999999999e-24,1.1475e-24,1.1475599999999999e-24,-1.3102899999999999e-29,-6.4628699999999993e-30,-8.5974999999999999e-30
622.0,6.5826400000000002e-29,1.1475599999999999e-24,1.1475e-24,1.1475599999999999e-24,-1.2698399999999999e-29,-7.67615e-30,-7.3957000000000004e-30
623.0,6.2704500000000002e-29,1.1475599999999999e-24,1.1475100000000001e-24,1.1475599999999999e-24,-1.20986e-29,-8.6925700000000002e-30,-6.02026e-30
624.0,8.2977299999999997e-29,1.1475700000000001e-24,1.14749e-24,1.1475599999999999e-24,-1.2276899999999999e-29,-3.5266399999999999e-31,-1.58247e-29
625.0,8.4209400000000004e-29,1.14758e-24,1.1475e-24,1.1475700000000001e-24,-1.29087e-29,-1.9962500000000001e-30,-1.6431999999999999e-29
626.0,8.4737599999999999e-29,1.14758e-24,1.1475e-24,1.1475700000000001e-24,-1.3641000000000001e-29,-3.8710100000000002e-30,-1.6706899999999999e-29
627.0,8.45702e-29,1.14758e-24,1.1475e-24,1.1475700000000001e-24,-1.4416500000000001e-29,-5.93283e-30,-1.6481799999999999e-29
628.0,8.3251300000000002e-29,1.14758e-24,1.1475e-24,1.1475700000000001e-24,-1.5078900000000001e-29,-7.9110599999999993e-30,-1.5549299999999999e-29
629.0,8.0853099999999997e-29,1.14758e-24,1.1475100000000001e-24,1.1475700000000001e-24,-1.5257800000000001e-29,-9.6379300000000001e-30,-1.3940799999999999e-29
630.0,7.6078999999999999e-29,1.14758e-24,1.1475100000000001e-24,1.1475700000000001e-24,-1.4986600000000001e-29,-1.0939599999999999e-29,-1.17858e-29
631.0,8.1025299999999998e-29,1.1475700000000001e-24,1.14749e-24,1.1475599999999999e-24,-1.3219699999999999e-29,-1.2035e-30,-1.38438e-29
632.0,8.0942900000000006e-29,1.1475700000000001e-24,1.14749e-24,1.1475599999999999e-24,-1.3396600000000001e-29,-2.2968699999999999e-30,-1.4020800000000001e-29
633.0,8.1535199999999997e-29,1.1475700000000001e-24,1.1475e-24,1.1475700000000001e-24,-1.39611e-29,-3.8928100000000002e-30,-1.4278999999999999e-29
634.0,8.1184199999999997e-29,1.14758e-24,1.1475e-24,1.1475700000000001e-24,-1.45238e-29,-5.5423100000000003e-30,-1.4152400000000001e-29
635.0,8.0136700000000001e-29,1.14758e-24,1.1475e-24,1.1475700000000001e-24,-1.4860100000000001e-29,-7.2656900000000002e-30,-1.3637600000000001e-29
636.0,7.7848900000000005e-29,1.14758e-24,1.1475e-24,1.1475700000000001e-24,-1.49634e-29,-8.7546599999999995e-30,-1.2447e-29
637.0,7.4655700000000005e-29,1.14758e-24,1.1475100000000001e-24,1.1475700000000001e-24,-1.4523999999999999e-29,-9.7419899999999999e-30,-1.03303e-29
638.0,2.69371e-29,1.14744e-24,1.14747e-24,1.1474499999999999e-24,9.0605999999999999e-30,-2.42272e-31,-1.6950399999999998e-30
639.0,2.6612199999999999e-29,1.1474499999999999e-24,1.14747e-24,1.14746e-24,1.07127e-29,-2.04626e-31,-1.8027900000000001e-30
640.0,2.3692500000000001e-29,1.14746e-24,1.14747e-24,1.14746e-24,1.1066200000000001e-29,8.3331699999999998e-32,-2.0254999999999998e-30
641.0,2.40212e-29,1.14747e-24,1.1474799999999999e-24,1.14747e-24,1.26013e-29,2.4216e-31,-2.1600900000000001e-30
642.0,2.25733e-29,1.1474799999999999e-24,1.1474799999999999e-24,1.1474799999999999e-24,1.25993e-29,4.4073800000000002e-31,-2.3336399999999998e-30
643.0,2.4032199999999999e-29,1.14749e-24,1.14749e-24,1.14749e-24,1.3503799999999999e-29,6.7075900000000004e-31,-2.43461e-30
644.0,2.4386200000000001e-29,1.14749e-24,1.14749e-24,1.1475e-24,1.3069800000000001e-29,6.7128499999999998e-31,-2.30928e-30
645.0,2.7909499999999998e-29,1.14744e-24,1.14747e-24,1.1474499999999999e-24,9.1738100000000001e-30,-2.7965900000000002e-31,-3.8530700000000001e-30
646.0,2.6007900000000001e-29,1.1474499999999999e-24,1.14747e-24,1.14746e-24,1.01899e-29,-9.47636e-32,-4.02039e-30
647.0,2.51354e-29,1.14746e-24,1.14747e-24,1.14746e-24,1.13946e-29,4.6969299999999998e-32,-4.2286199999999999e-30
648.0,2.38619e-29,1.14747e-24,1.1474799999999999e-24,1.14747e-24,1.2002800000000001e-29,3.1145399999999998e-31,-4.44355e-30
649.0,2.42123e-29,1.1474799999999999e-24,1.1474799999999999e-24,1.1474799999999999e-24,1.2899700000000001e-29,4.8347200000000003e-31,-4.6115399999999998e-30
650.0,2.4299300000000001e-29,1.1474799999999999e-24,1.1474799999999999e-24,1.14749e-24,1.29819e-29,7.5901399999999996e-31,-4.7260099999999997e-30
651.0,2.5712700000000001e-29,1.14749e-24,1.14749e-24,1.1475e-24,1.3103199999999999e-29,9.7334899999999993e-31,-5.0012500000000001e-30
652.0,2.8094000000000002e-29,1.14744e-24,1.14747e-24,1.1474499999999999e-24,8.9169099999999995e-30,-2.7167099999999999e-31,-6.02998e-30
653.0,2.6940899999999998e-29,1.1474499999999999e-24,1.14747e-24,1.14746e-24,1.00775e-29,-1.14043e-31,-6.22059e-30
654.0,2.56972e-29,1.14746e-24,1.14747e-24,1.14746e-24,1.10137e-29,6.7323499999999998e-32,-6.44946e-30
655.0,2.5311100000000002e-29,1.14747e-24,1.1474799999999999e-24,1.14747e-24,1.19419e-29,2.64445e-31,-6.7138000000000004e-30
656.0,2.5113800000000001e-29,1.1474799999999999e-24,1.1474799999999999e-24,1.1474799999999999e-24,1.24183e-29,5.6554200000000003e-31,-6.9106100000000004e-30
657.0,2.5916200000000002e-29,1.14749e-24,1.1474799999999999e-24,1.14749e-24,1.2887799999999999e-29,7.8709999999999998e-31,-7.0593300000000002e-30
658.0,2.6477900000000001e-29,1.14749e-24,1.14749e-24,1.1475e-24,1.2675899999999999e-29,1.1087199999999999e-30,-6.8447799999999999e-30
659.0,2.8813000000000001e-29,1.14744e-24,1.14747e-24,1.1474499999999999e-24,8.6264900000000001e-30,-2.42983e-31,-8.1548799999999999e-30
660.0,2.77781e-29,1.1474499999999999e-24,1.14747e-24,1.14746e-24,9.7574899999999997e-30,-1.5489600000000001e-31,-8.3334199999999999e-30
661.0,2.6969299999999997e-29,1.14746e-24,1.14747e-24,1.14747e-24,1.0718499999999999e-29,4.8138299999999997e-32,-8.6372199999999994e-30
662.0,2.6594200000000001e-29,1.14747e-24,1.1474799999999999e-24,1.14747e-24,1.15103e-29,2.6198799999999999e-31,-8.8957499999999996e-30
663.0,2.6796600000000002e-29,1.1474799999999999e-24,1.1474799999999999e-24,1.1474799999999999e-24,1.2118900000000001e-29,5.2443500000000004e-31,-9.13004e-30
664.0,2.7226399999999999e-29,1.1474799999999999e-24,1.1474799999999999e-24,1.14749e-24,1.2333300000000001e-29,9.0798999999999999e-31,-9.2219000000000004e-30
665.0,2.83998e-29,1.14749e-24,1.14749e-24,1.1475e-24,1.22801e-29,1.26744e-30,-9.49414e-30
666.0,2.96727e-29,1.1474499999999999e-24,1.14747e-24,1.1474499999999999e-24,8.3169900000000005e-30,-2.9449e-31,-1.01285e-29
667.0,2.8845000000000002e-29,1.1474499999999999e-24,1.14747e-24,1.14746e-24,9.3378399999999997e-30,-1.34928e-31,-1.03874e-29
668.0,2.8293400000000002e-29,1.14746e-24,1.14747e-24,1.14747e-24,1.0276199999999999e-29,6.7329700000000004e-33,-1.06526e-29
669.0,2.8107700000000002e-29,1.14747e-24,1.1474799999999999e-24,1.14747e-24,1.1010800000000001e-29,2.6373799999999999e-31,-1.09697e-29
670.0,2.83211e-29,1.1474799999999999e-24,1.1474799999999999e-24,1.1474799999999999e-24,1.15221e-29,5.7660000000000002e-31,-1.1177e-29
671.0,2.8975900000000001e-29,1.1474799999999999e-24,1.1474799999999999e-24,1.14749e-24,1.1811099999999999e-29,9.5766499999999995e-31,-1.1336000000000001e-29
672.0,2.9446000000000001e-29,1.14749e-24,1.14749e-24,1.1475e-24,1.1669499999999999e-29,1.40939e-30,-1.10196e-29
673.0,3.0626800000000003e-29,1.1474499999999999e-24,1.14747e-24,1.1474499999999999e-24,7.9067600000000005e-30,-2.5439399999999999e-31,-1.19284e-29
674.0,3.00299e-29,1.1474499999999999e-24,1.14747e-24,1.14746e-24,8.8848199999999997e-30,-1.6250900000000001e-31,-1.2156e-29
675.0,2.9638999999999999e-29,1.14746e-24,1.14747e-24,1.14747e-24,9.6628099999999999e-30,5.2484899999999998e-32,-1.2507800000000001e-29
676.0,2.9582800000000001e-29,1.14747e-24,1.1474799999999999e-24,1.14747e-24,1.03703e-29,2.8979600000000002e-31,-1.2795400000000001e-29
677.0,2.9843800000000002e-29,1.1474799999999999e-24,1.1474799999999999e-24,1.1474799999999999e-24,1.08284e-29,6.6073799999999999e-31,-1.3027600000000001e-29
678.0,3.0323699999999997e-29,1.1474799999999999e-24,1.1474799999999999e-24,1.14749e-24,1.1012799999999999e-29,1.08279e-30,-1.3073800000000001e-29
679.0,3.1465400000000001e-29,1.14749e-24,1.14749e-24,1.1475e-24,1.0833300000000001e-29,1.6139799999999999e-30,-1.3358700000000001e-29
680.0,3.1397199999999997e-29,1.1474499999999999e-24,1.14747e-24,1.1474499999999999e-24,7.5155900000000007e-30,-2.44713e-31,-1.3257099999999999e-29
681.0,3.1099000000000001e-29,1.1474499999999999e-24,1.14747e-24,1.14746e-24,8.1968599999999998e-30,-7.6272500000000002e-32,-1.3684600000000001e-29
682.0,3.0839499999999999e-29,1.14746e-24,1.14747e-24,1.14747e-24,8.9386200000000006e-30,1.0454499999999999e-31,-1.4023600000000001e-29
683.0,3.0807499999999998e-29,1.14747e-24,1.1474799999999999e-24,1.14747e-24,9.4942999999999994e-30,4.0813499999999996e-31,-1.4362999999999999e-29
684.0,3.1055800000000002e-29,1.1474799999999999e-24,1.1474799999999999e-24,1.1474799999999999e-24,9.9254500000000003e-30,7.5317099999999999e-31,-1.45645e-29
685.0,3.1637099999999998e-29,1.1474799999999999e-24,1.1474799999999999e-24,1.14749e-24,1.0108e-29,1.25102e-30,-1.4692600000000001e-29
686.0,3.2172000000000002e-29,1.14749e-24,1.14749e-24,1.1475e-24,1.00978e-29,1.83938e-30,-1.4280699999999999e-29
687.0,2.6272800000000001e-29,1.1474499999999999e-24,1.14747e-24,1.1474499999999999e-24,9.0028099999999995e-30,-4.5560000000000004e-31,-1.58946e-30
688.0,2.37676e-29,1.1474499999999999e-24,1.14747e-24,1.14746e-24,9.1721800000000006e-30,-2.1676099999999999e-31,-1.6604200000000001e-30
689.0,2.2848699999999999e-29,1.14746e-24,1.1474799999999999e-24,1.14746e-24,1.04518e-29,-1.8543000000000001e-31,-1.8302599999999999e-30
690.0,2.05696e-29,1.14747e-24,1.1474799999999999e-24,1.14747e-24,1.0646700000000001e-29,4.0242299999999998e-32,-1.9237e-30
691.0,2.08203e-29,1.1474799999999999e-24,1.1474799999999999e-24,1.1474799999999999e-24,1.1505399999999999e-29,1.80689e-31,-2.12161e-30
692.0,2.0191799999999999e-29,1.14749e-24,1.1474799999999999e-24,1.14749e-24,1.12812e-29,2.8923800000000001e-31,-2.1362700000000001e-30
693.0,2.15286e-29,1.1475e-24,1.14749e-24,1.1475e-24,1.1341700000000001e-29,5.3926200000000003e-31,-2.62244e-30
694.0,2.5510600000000003e-29,1.1474499999999999e-24,1.14747e-24,1.1474499999999999e-24,8.2804300000000004e-30,-2.7551600000000001e-31,-3.5844000000000003e-30
695.0,2.4170599999999999e-29,1.1474499999999999e-24,1.14747e-24,1.14746e-24,9.2807700000000005e-30,-2.3105599999999999e-31,-3.6680499999999999e-30
696.0,2.24807e-29,1.14746e-24,1.14747e-24,1.14746e-24,9.8963800000000005e-30,-4.0921800000000001e-32,-3.86166e-30
697.0,2.1660600000000001e-29,1.14747e-24,1.1474799999999999e-24,1.14747e-24,1.07307e-29,6.4350399999999995e-32,-4.0383699999999999e-30
698.0,2.0841800000000001e-29,1.1474799999999999e-24,1.1474799999999999e-24,1.1474799999999999e-24,1.0978199999999999e-29,3.14523e-31,-4.2122500000000003e-30
699.0,2.1405099999999999e-29,1.14749e-24,1.14749e-24,1.14749e-24,1.13159e-29,4.4677599999999996e-31,-4.3909600000000003e-30
700.0,2.2125099999999999e-29,1.14749e-24,1.14749e-24,1.1475e-24,1.1070200000000001e-29,6.4285299999999996e-31,-4.1731499999999997e-30
701.0,2.5834399999999999e-29,1.1474499999999999e-24,1.14747e-24,1.1474499999999999e-24,8.1119700000000004e-30,-2.4547599999999999e-31,-5.5756499999999999e-30
702.0,2.43796e-29,1.1474499999999999e-24,1.14747e-24,1.14746e-24,8.88406e-30,-1.52677e-31,-5.6951700000000003e-30
703.0,2.3264699999999999e-29,1.14746e-24,1.1474799999999999e-24,1.14747e-24,9.7311500000000004e-30,-2.6075899999999998e-32,-5.88637e-30
704.0,2.2348399999999999e-29,1.14747e-24,1.1474799999999999e-24,1.14747e-24,1.0293700000000001e-29,1.88222e-31,-6.1331000000000003e-30
705.0,2.21668e-29,1.1474799999999999e-24,1.1474799999999999e-24,1.1474799999999999e-24,1.0820900000000001e-29,3.3848799999999999e-31,-6.3019899999999999e-30
706.0,2.24217e-29,1.14749e-24,1.1474799999999999e-24,1.14749e-24,1.0877600000000001e-29,6.4353300000000001e-31,-6.4631000000000005e-30
707.0,2.3886899999999999e-29,1.1475e-24,1.14749e-24,1.1475e-24,1.08948e-29,8.8778499999999993e-31,-6.8372899999999997e-30
708.0,2.6274000000000001e-29,1.1474499999999999e-24,1.14747e-24,1.1474499999999999e-24,7.8144699999999998e-30,-2.2935800000000001e-31,-7.5092599999999998e-30
709.0,2.5123899999999999e-29,1.1474499999999999e-24,1.14747e-24,1.14746e-24,8.5600300000000002e-30,-1.02525e-31,-7.6619399999999998e-30
710.0,2.41727e-29,1.14746e-24,1.14747e-24,1.14747e-24,9.3232400000000004e-30,4.1171099999999999e-32,-7.8955599999999996e-30
711.0,2.35405e-29,1.14747e-24,1.1474799999999999e-24,1.14747e-24,9.9400200000000005e-30,2.2358099999999998e-31,-8.1250300000000006e-30
712.0,2.34975e-29,1.1474799999999999e-24,1.1474799999999999e-24,1.1474799999999999e-24,1.03132e-29,5.0584e-31,-8.3845100000000002e-30
713.0,2.4099900000000001e-29,1.14749e-24,1.14749e-24,1.14749e-24,1.05476e-29,7.1609899999999997e-31,-8.54312e-30
714.0,2.4972899999999999e-29,1.14749e-24,1.14749e-24,1.1475e-24,1.0461800000000001e-29,1.11358e-30,-8.3586500000000003e-30
715.0,2.6972899999999999e-29,1.1474499999999999e-24,1.14747e-24,1.14746e-24,7.4110300000000001e-30,-1.4669699999999999e-31,-9.3588699999999995e-30
716.0,2.60499e-29,1.14746e-24,1.14747e-24,1.14746e-24,8.1974099999999996e-30,-7.23762e-32,-9.4944699999999994e-30
717.0,2.5320499999999999e-29,1.14746e-24,1.14747e-24,1.14747e-24,8.8502900000000002e-30,1.1488999999999999e-31,-9.7663799999999997e-30
718.0,2.4973199999999999e-29,1.14747e-24,1.1474799999999999e-24,1.1474799999999999e-24,9.4248899999999998e-30,3.2469300000000001e-31,-1.0044000000000001e-29
719.0,2.50679e-29,1.1474799999999999e-24,1.1474799999999999e-24,1.1474799999999999e-24,9.8266400000000003e-30,5.5082899999999996e-31,-1.02636e-29
720.0,2.5716300000000003e-29,1.14749e-24,1.1474799999999999e-24,1.14749e-24,9.96313e-30,9.4732600000000007e-31,-1.0443700000000001e-29
721.0,2.7170400000000003e-29,1.14749e-24,1.14749e-24,1.1475e-24,9.9452199999999998e-30,1.2803699999999999e-30,-1.07995e-29
722.0,2.7898000000000002e-29,1.1474499999999999e-24,1.14747e-24,1.14746e-24,7.1220700000000002e-30,-1.14539e-31,-1.09298e-29
723.0,2.7136600000000001e-29,1.14746e-24,1.14747e-24,1.14746e-24,7.6979100000000003e-30,4.2322900000000001e-32,-1.11513e-29
724.0,2.6652099999999999e-29,1.14746e-24,1.14747e-24,1.14747e-24,8.3606300000000004e-30,1.7418399999999999e-31,-1.14308e-29
725.0,2.6440300000000001e-29,1.14747e-24,1.1474799999999999e-24,1.1474799999999999e-24,8.8556300000000003e-30,4.0198499999999998e-31,-1.17404e-29
726.0,2.6720899999999998e-29,1.1474799999999999e-24,1.1474799999999999e-24,1.1474799999999999e-24,9.2078299999999996e-30,7.2482600000000003e-31,-1.2012799999999999e-29
727.0,2.7401799999999998e-29,1.14749e-24,1.1474799999999999e-24,1.14749e-24,9.39833e-30,1.02141e-30,-1.21804e-29
728.0,2.8352700000000002e-29,1.14749e-24,1.14749e-24,1.1475e-24,9.4096100000000006e-30,1.6096199999999999e-30,-1.19562e-29
729.0,2.8689400000000002e-29,1.1474499999999999e-24,1.14747e-24,1.14746e-24,6.6654600000000005e-30,1.5881799999999999e-32,-1.21516e-29
730.0,2.8148299999999998e-29,1.14746e-24,1.14747e-24,1.14746e-24,7.2660199999999996e-30,5.1876500000000005e-32,-1.2394699999999999e-29
731.0,2.7820699999999999e-29,1.14746e-24,1.14747e-24,1.14747e-24,7.8044800000000002e-30,2.4569899999999999e-31,-1.27965e-29
732.0,2.7815800000000001e-29,1.14747e-24,1.1474799999999999e-24,1.1474799999999999e-24,8.3188499999999998e-30,4.8393899999999999e-31,-1.31244e-29
733.0,2.8055800000000002e-29,1.1474799999999999e-24,1.1474799999999999e-24,1.1474799999999999e-24,8.64346e-30,7.8686699999999998e-31,-1.33723e-29
734.0,2.8767900000000001e-29,1.1474799999999999e-24,1.1474799999999999e-24,1.14749e-24,8.7773299999999994e-30,1.25409e-30,-1.3523600000000001e-29
735.0,3.0130900000000001e-29,1.14749e-24,1.14749e-24,1.1475e-24,8.5949100000000003e-30,1.62486e-30,-1.3845099999999999e-29
736.0,3.2945800000000002e-29,1.14749e-24,1.14749e-24,1.1475e-24,8.3961500000000007e-30,1.93226e-30,-1.5872999999999999e-29
737.0,3.3105400000000003e-29,1.14749e-24,1.14749e-24,1.1475e-24,7.2791199999999995e-30,2.32831e-30,-1.63207e-29
738.0,3.2766599999999999e-29,1.14749e-24,1.1474799999999999e-24,1.1475e-24,4.8486099999999999e-30,2.22899e-30,-1.6980099999999999e-29
739.0,3.2954499999999998e-29,1.14749e-24,1.1474799999999999e-24,1.1475e-24,3.3034000000000001e-30,2.68176e-30,-1.72882e-29
740.0,3.2786800000000002e-29,1.14749e-24,1.1474799999999999e-24,1.1475e-24,6.8802299999999999e-31,2.5361700000000002e-30,-1.7431600000000001e-29
741.0,3.3376699999999998e-29,1.14749e-24,1.1474799999999999e-24,1.14749e-24,-1.0329e-30,3.0263599999999998e-30,-1.7560100000000001e-29
742.0,3.3522699999999999e-29,1.14749e-24,1.1474799999999999e-24,1.14749e-24,-3.6187499999999998e-30,2.7160299999999998e-30,-1.70634e-29
743.0,3.2292200000000002e-29,1.1474799999999999e-24,1.1474799999999999e-24,1.14749e-24,8.8817300000000007e-30,1.4067999999999999e-30,-1.58497e-29
744.0,3.2344000000000001e-29,1.1474799999999999e-24,1.1474799999999999e-24,1.14749e-24,7.2576799999999994e-30,1.56472e-30,-1.6686699999999999e-29
745.0,3.23952e-29,1.1474799999999999e-24,1.1474799999999999e-24,1.14749e-24,5.6005900000000001e-30,1.7166699999999999e-30,-1.7343500000000001e-29
746.0,3.2280800000000002e-29,1.1474799999999999e-24,1.1474799999999999e-24,1.14749e-24,3.6093e-30,1.8762700000000001e-30,-1.77933e-29
747.0,3.23804e-29,1.1474799999999999e-24,1.1474799999999999e-24,1.1474799999999999e-24,1.7005100000000001e-30,1.9763e-30,-1.81594e-29
748.0,3.2365600000000001e-29,1.1474799999999999e-24,1.1474799999999999e-24,1.1474799999999999e-24,-4.5097499999999999e-31,2.2249300000000001e-30,-1.81922e-29
749.0,3.3296200000000002e-29,1.1474799999999999e-24,1.1474799999999999e-24,1.1474799999999999e-24,-2.89653e-30,2.49535e-30,-1.84112e-29
750.0,3.17644e-29,1.14747e-24,1.1474799999999999e-24,1.1474799999999999e-24,8.7210500000000004e-30,9.2025300000000004e-31,-1.5795e-29
751.0,3.2096100000000001e-29,1.14747e-24,1.1474799999999999e-24,1.1474799999999999e-24,7.2833000000000003e-30,1.0575899999999999e-30,-1.6699499999999999e-29
752.0,3.21832e-29,1.14747e-24,1.1474799999999999e-24,1.1474799999999999e-24,5.5980300000000003e-30,1.17737e-30,-1.74038e-29
753.0,3.2326599999999998e-29,1.14747e-24,1.1474799999999999e-24,1.1474799999999999e-24,3.7984900000000003e-30,1.3794600000000001e-30,-1.79628e-29
754.0,3.23524e-29,1.14747e-24,1.14747e-24,1.14747e-24,1.84333e-30,1.5135600000000001e-30,-1.8299100000000001e-29
755.0,3.2756600000000002e-29,1.14747e-24,1.14747e-24,1.14747e-24,-2.3840500000000001e-31,1.80508e-30,-1.8652600000000001e-29
756.0,3.2462899999999999e-29,1.14747e-24,1.14747e-24,1.14747e-24,-2.42261e-30,1.88729e-30,-1.8360699999999999e-29
757.0,3.1600000000000003e-29,1.14747e-24,1.1474799999999999e-24,1.14747e-24,8.3908500000000004e-30,5.2000900000000001e-31,-1.5558100000000001e-29
758.0,3.2009100000000003e-29,1.14747e-24,1.14747e-24,1.14747e-24,6.9634200000000006e-30,6.5153800000000004e-31,-1.6492000000000001e-29
759.0,3.2310199999999999e-29,1.14746e-24,1.14747e-24,1.14747e-24,5.3906099999999997e-30,7.7332100000000002e-31,-1.7210800000000001e-29
760.0,3.2560100000000003e-29,1.14746e-24,1.14747e-24,1.14747e-24,3.6160699999999998e-30,9.6326799999999996e-31,-1.77825e-29
761.0,3.2897900000000002e-29,1.14746e-24,1.14747e-24,1.14747e-24,1.7723699999999999e-30,1.1431e-30,-1.82323e-29
762.0,3.2884800000000002e-29,1.14746e-24,1.14747e-24,1.14746e-24,-2.1700499999999999e-31,1.43376e-30,-1.8365799999999999e-29
763.0,3.3944500000000001e-29,1.14746e-24,1.14747e-24,1.14746e-24,-2.50912e-30,1.7250800000000002e-30,-1.89223e-29
764.0,3.1669500000000002e-29,1.14746e-24,1.14747e-24,1.14747e-24,7.8490499999999997e-30,2.3415399999999999e-31,-1.52175e-29
765.0,3.2178999999999998e-29,1.14746e-24,1.14747e-24,1.14746e-24,6.53806e-30,3.46532e-31,-1.6060100000000001e-29
766.0,3.26647e-29,1.14746e-24,1.14747e-24,1.14746e-24,4.9632699999999997e-30,4.7003699999999999e-31,-1.6798299999999999e-29
767.0,3.3085699999999999e-29,1.1474499999999999e-24,1.14747e-24,1.14746e-24,3.3223200000000003e-30,6.4109599999999996e-31,-1.7348999999999999e-29
768.0,3.3433500000000002e-29,1.1474499999999999e-24,1.14747e-24,1.14746e-24,1.5281499999999999e-30,8.3559100000000002e-31,-1.7752499999999999e-29
769.0,3.40151e-29,1.1474499999999999e-24,1.14747e-24,1.14746e-24,-4.08426e-31,1.1110000000000001e-30,-1.8142799999999999e-29
770.0,3.3402800000000002e-29,1.1474499999999999e-24,1.14746e-24,1.1474499999999999e-24,-2.2546099999999999e-30,1.3045400000000001e-30,-1.7923399999999999e-29
771.0,3.1863399999999999e-29,1.1474499999999999e-24,1.14747e-24,1.14746e-24,7.2964200000000001e-30,1.7147200000000001e-33,-1.4706599999999999e-29
772.0,3.2473599999999998e-29,1.1474499999999999e-24,1.14747e-24,1.14746e-24,5.9773599999999998e-30,1.0364099999999999e-31,-1.55019e-29
773.0,3.3034000000000001e-29,1.1474499999999999e-24,1.14747e-24,1.1474499999999999e-24,4.5679800000000003e-30,2.2995899999999999e-31,-1.6111600000000001e-29
774.0,3.3574999999999998e-29,1.1474499999999999e-24,1.14746e-24,1.1474499999999999e-24,2.9203899999999999e-30,3.8519200000000002e-31,-1.6656e-29
775.0,3.4254199999999998e-29,1.14744e-24,1.14746e-24,1.1474499999999999e-24,1.21667e-30,5.6277500000000004e-31,-1.70754e-29
776.0,3.43877e-29,1.14744e-24,1.14746e-24,1.1474499999999999e-24,-5.4876700000000001e-31,8.1926500000000002e-31,-1.7289799999999999e-29
777.0,3.5656300000000002e-29,1.14744e-24,1.14746e-24,1.1474499999999999e-24,-2.6003299999999999e-30,1.08567e-30,-1.7857899999999999e-29
778.0,3.2042700000000002e-29,1.1474499999999999e-24,1.14747e-24,1.1474499999999999e-24,6.7118999999999999e-30,-1.3883699999999999e-31,-1.41589e-29
779.0,3.2637799999999999e-29,1.1474499999999999e-24,1.14747e-24,1.1474499999999999e-24,5.58401e-30,-4.0437900000000001e-32,-1.46688e-29
780.0,3.3402399999999998e-29,1.14744e-24,1.14746e-24,1.1474499999999999e-24,4.1439499999999997e-30,-3.8256699999999997e-33,-1.5252799999999999e-29
781.0,3.4076700000000001e-29,1.14744e-24,1.14746e-24,1.1474499999999999e-24,2.6186999999999999e-30,1.9144799999999999e-31,-1.5684000000000001e-29
782.0,3.4758499999999998e-29,1.14744e-24,1.14746e-24,1.14744e-24,9.1432399999999996e-31,3.2338600000000001e-31,-1.6096300000000001e-29
783.0,3.55524e-29,1.14744e-24,1.14746e-24,1.14744e-24,-8.0953600000000004e-31,5.4509899999999998e-31,-1.6371799999999999e-29
784.0,3.5103199999999998e-29,1.14744e-24,1.14746e-24,1.14744e-24,-2.4033599999999998e-30,8.7133100000000001e-31,-1.6360900000000001e-29
785.0,3.03923e-29,1.14749e-24,1.14749e-24,1.1475e-24,7.96292e-30,2.00114e-30,-1.42506e-29
786.0,3.0108100000000001e-29,1.14749e-24,1.14749e-24,1.1475e-24,5.9428200000000004e-30,1.9630699999999999e-30,-1.4938700000000001e-29
787.0,2.98943e-29,1.14749e-24,1.14749e-24,1.1475e-24,4.6433600000000001e-30,2.2754999999999999e-30,-1.5125000000000001e-29
788.0,2.96493e-29,1.14749e-24,1.1474799999999999e-24,1.1475e-24,2.1676899999999999e-30,2.2296899999999999e-30,-1.5384099999999999e-29
789.0,2.9796000000000002e-29,1.14749e-24,1.1474799999999999e-24,1.1475e-24,5.7592200000000003e-31,2.55584e-30,-1.54184e-29
790.0,3.0214100000000001e-29,1.14749e-24,1.1474799999999999e-24,1.1475e-24,-2.0014500000000001e-30,2.4976700000000001e-30,-1.52802e-29
791.0,3.0869699999999999e-29,1.14749e-24,1.1474799999999999e-24,1.1475e-24,-3.6813399999999998e-30,2.7879600000000001e-30,-1.5180600000000001e-29
792.0,2.9277900000000001e-29,1.1474799999999999e-24,1.1474799999999999e-24,1.14749e-24,7.7674899999999998e-30,1.35997e-30,-1.4435000000000001e-29
793.0,2.9058600000000002e-29,1.1474799999999999e-24,1.1474799999999999e-24,1.14749e-24,6.4167800000000005e-30,1.46375e-30,-1.4902899999999999e-29
794.0,2.86847e-29,1.1474799999999999e-24,1.1474799999999999e-24,1.14749e-24,4.7183100000000003e-30,1.6362500000000001e-30,-1.52868e-29
795.0,2.8619900000000002e-29,1.1474799999999999e-24,1.1474799999999999e-24,1.14749e-24,2.9196399999999999e-30,1.7158299999999999e-30,-1.5661599999999999e-29
796.0,2.8413799999999998e-29,1.1474799999999999e-24,1.1474799999999999e-24,1.14749e-24,9.7310800000000003e-31,1.8719699999999998e-30,-1.57728e-29
797.0,2.87542e-29,1.1474799999999999e-24,1.1474799999999999e-24,1.14749e-24,-1.04699e-30,2.1179299999999999e-30,-1.5924599999999999e-29
798.0,2.93206e-29,1.1474799999999999e-24,1.1474799999999999e-24,1.14749e-24,-3.1073999999999998e-30,2.05055e-30,-1.5754e-29
799.0,2.8615499999999998e-29,1.1474799999999999e-24,1.1474799999999999e-24,1.1474799999999999e-24,7.6825699999999999e-30,9.2738699999999999e-31,-1.4293499999999999e-29
800.0,2.8387099999999999e-29,1.1474799999999999e-24,1.1474799999999999e-24,1.1474799999999999e-24,6.3624499999999997e-30,1.0575100000000001e-30,-1.4792000000000001e-29
801.0,2.8280800000000001e-29,1.1474799999999999e-24,1.1474799999999999e-24,1.1474799999999999e-24,4.7921600000000002e-30,1.1628000000000001e-30,-1.53084e-29
802.0,2.8154900000000002e-29,1.14747e-24,1.1474799999999999e-24,1.1474799999999999e-24,3.0774600000000001e-30,1.29193e-30,-1.5674000000000001e-29
803.0,2.8263100000000001e-29,1.14747e-24,1.1474799999999999e-24,1.1474799999999999e-24,1.22423e-30,1.43068e-30,-1.6025600000000001e-29
804.0,2.8386399999999998e-29,1.14747e-24,1.14747e-24,1.1474799999999999e-24,-7.1631900000000002e-31,1.6904400000000001e-30,-1.6127000000000001e-29
805.0,2.9391400000000002e-29,1.14747e-24,1.14747e-24,1.1474799999999999e-24,-2.8291400000000001e-30,1.8451400000000001e-30,-1.65212e-29
806.0,2.83149e-29,1.14747e-24,1.1474799999999999e-24,1.1474799999999999e-24,7.3923600000000003e-30,6.1339999999999997e-31,-1.4026800000000001e-29
807.0,2.8277699999999999e-29,1.14747e-24,1.1474799999999999e-24,1.14747e-24,6.1454000000000001e-30,6.8890400000000003e-31,-1.45677e-29
808.0,2.8279700000000002e-29,1.14747e-24,1.14747e-24,1.14747e-24,4.64054e-30,8.2594499999999998e-31,-1.5098899999999999e-29
809.0,2.8427399999999997e-29,1.14747e-24,1.14747e-24,1.14747e-24,3.0035700000000001e-30,9.1302800000000008e-31,-1.5578999999999999e-29
810.0,2.85604e-29,1.14746e-24,1.14747e-24,1.14747e-24,1.2569e-30,1.13118e-30,-1.5888099999999999e-29
811.0,2.90904e-29,1.14746e-24,1.14747e-24,1.14747e-24,-6.3522399999999998e-31,1.3289500000000001e-30,-1.62566e-29
812.0,2.92613e-29,1.14746e-24,1.14747e-24,1.14747e-24,-2.4507399999999999e-30,1.4525199999999999e-30,-1.6303100000000001e-29
813.0,2.8404699999999998e-29,1.14746e-24,1.14747e-24,1.14747e-24,6.9750599999999996e-30,3.1863200000000002e-31,-1.36714e-29
814.0,2.8479800000000003e-29,1.14746e-24,1.14747e-24,1.14747e-24,5.7641500000000002e-30,4.2933600000000001e-31,-1.4210599999999999e-29
815.0,2.8677900000000001e-29,1.14746e-24,1.14747e-24,1.14747e-24,4.3707499999999999e-30,5.3434099999999996e-31,-1.4739699999999999e-29
816.0,2.9063899999999998e-29,1.14746e-24,1.14747e-24,1.14746e-24,2.7982299999999999e-30,6.46771e-31,-1.52483e-29
817.0,2.9478099999999997e-29,1.14746e-24,1.14747e-24,1.14746e-24,1.1282800000000001e-30,8.1129700000000008e-31,-1.5637600000000001e-29
818.0,2.9817899999999999e-29,1.1474499999999999e-24,1.14747e-24,1.14746e-24,-6.52124e-31,1.0593899999999999e-30,-1.58962e-29
819.0,3.1046799999999998e-29,1.1474499999999999e-24,1.14747e-24,1.14746e-24,-2.57414e-30,1.1848200000000001e-30,-1.6467500000000001e-29
820.0,2.8679e-29,1.14746e-24,1.14747e-24,1.14746e-24,6.4516699999999999e-30,1.40431e-31,-1.32486e-29
821.0,2.8995300000000001e-29,1.1474499999999999e-24,1.14747e-24,1.14746e-24,5.4203099999999997e-30,2.3254199999999999e-31,-1.3746100000000001e-29
822.0,2.9399699999999999e-29,1.1474499999999999e-24,1.14747e-24,1.14746e-24,4.04153e-30,3.2365300000000002e-31,-1.42922e-29
823.0,2.9964899999999999e-29,1.1474499999999999e-24,1.14747e-24,1.14746e-24,2.5596800000000001e-30,4.2281100000000002e-31,-1.47492e-29
824.0,3.04527e-29,1.1474499999999999e-24,1.14747e-24,1.1474499999999999e-24,9.3848200000000008e-31,5.7128700000000003e-31,-1.51455e-29
825.0,3.1252800000000001e-29,1.1474499999999999e-24,1.14746e-24,1.1474499999999999e-24,-8.0114700000000008e-31,7.9329600000000007e-31,-1.55512e-29
826.0,3.1484900000000003e-29,1.14744e-24,1.14746e-24,1.1474499999999999e-24,-2.40593e-30,1.0433800000000001e-30,-1.5684399999999999e-29
827.0,2.9134099999999999e-29,1.1474499999999999e-24,1.14747e-24,1.14746e-24,6.1187200000000001e-30,3.7753299999999999e-32,-1.2782900000000001e-29
828.0,2.9559599999999997e-29,1.1474499999999999e-24,1.14747e-24,1.14746e-24,5.0789300000000001e-30,5.5037499999999999e-32,-1.3297199999999999e-29
829.0,3.0092300000000002e-29,1.1474499999999999e-24,1.14747e-24,1.1474499999999999e-24,3.8134400000000002e-30,1.85463e-31,-1.3706800000000001e-29
830.0,3.0805899999999999e-29,1.14744e-24,1.14746e-24,1.1474499999999999e-24,2.3166200000000002e-30,2.1131900000000001e-31,-1.4214599999999999e-29
831.0,3.1436499999999997e-29,1.14744e-24,1.14746e-24,1.1474499999999999e-24,7.2311499999999996e-31,4.08809e-31,-1.4545399999999999e-29
832.0,3.21165e-29,1.14744e-24,1.14746e-24,1.1474499999999999e-24,-9.1846699999999993e-31,6.2259500000000002e-31,-1.4881700000000001e-29
833.0,3.3577999999999999e-29,1.14744e-24,1.14746e-24,1.14744e-24,-2.6447400000000001e-30,6.4715200000000002e-31,-1.54927e-29
834.0,3.6866299999999999e-29,1.14743e-24,1.14746e-24,1.14743e-24,-2.7658900000000001e-30,3.5745199999999999e-31,-1.5222500000000001e-29
835.0,3.62783e-29,1.1474199999999999e-24,1.1474499999999999e-24,1.14743e-24,-2.94393e-30,4.2770299999999998e-31,-1.34646e-29
836.0,3.6839899999999998e-29,1.1474199999999999e-24,1.1474499999999999e-24,1.14743e-24,-3.0136300000000001e-30,-2.6273999999999998e-31,-1.1389299999999999e-29
837.0,3.6695000000000002e-29,1.1474199999999999e-24,1.1474499999999999e-24,1.1474199999999999e-24,-3.3801e-30,-2.7942900000000002e-31,-9.0715299999999998e-30
838.0,3.6856399999999997e-29,1.14741e-24,1.1474499999999999e-24,1.1474199999999999e-24,-3.4126999999999998e-30,-8.6998800000000009e-31,-6.7427299999999994e-30
839.0,3.68869e-29,1.14741e-24,1.1474499999999999e-24,1.1474199999999999e-24,-3.8667399999999998e-30,-9.5325800000000007e-31,-3.9359700000000001e-30
840.0,3.6907199999999998e-29,1.14741e-24,1.1474499999999999e-24,1.1474199999999999e-24,-3.67809e-30,-1.5342299999999999e-30,-1.52628e-30
841.0,3.5609199999999998e-29,1.14743e-24,1.14746e-24,1.14744e-24,-1.01739e-30,3.21765e-31,-1.4984399999999999e-29
842.0,3.6079899999999999e-29,1.14743e-24,1.14746e-24,1.14743e-24,-1.20829e-30,3.86029e-32,-1.3274600000000001e-29
843.0,3.5866000000000002e-29,1.1474199999999999e-24,1.1474499999999999e-24,1.14743e-24,-1.4222400000000001e-30,-2.03502e-31,-1.1298699999999999e-29
844.0,3.5902400000000001e-29,1.1474199999999999e-24,1.1474499999999999e-24,1.14743e-24,-1.553e-30,-4.8045899999999998e-31,-9.08055e-30
845.0,3.5558300000000002e-29,1.1474199999999999e-24,1.1474499999999999e-24,1.1474199999999999e-24,-1.7949900000000001e-30,-7.2400500000000001e-31,-6.58721e-30
846.0,3.5572500000000001e-29,1.1474199999999999e-24,1.1474499999999999e-24,1.1474199999999999e-24,-1.73888e-30,-1.0028e-30,-4.1894400000000003e-30
847.0,3.5790899999999998e-29,1.14741e-24,1.1474499999999999e-24,1.1474199999999999e-24,-2.2057899999999998e-30,-1.22053e-30,-1.4067200000000001e-30
848.0,3.5142300000000001e-29,1.14743e-24,1.14746e-24,1.14744e-24,6.5557499999999998e-31,1.4840699999999999e-31,-1.4705400000000001e-29
849.0,3.5100100000000001e-29,1.14743e-24,1.14746e-24,1.14743e-24,4.9910099999999998e-31,-1.30078e-31,-1.31022e-29
850.0,3.5022399999999999e-29,1.1474199999999999e-24,1.14746e-24,1.14743e-24,3.6850599999999999e-31,-3.0400199999999998e-31,-1.11164e-29
851.0,3.4612900000000001e-29,1.1474199999999999e-24,1.14746e-24,1.14743e-24,2.7138100000000002e-31,-5.2285199999999997e-31,-8.9232299999999997e-30
852.0,3.4413600000000002e-29,1.1474199999999999e-24,1.1474499999999999e-24,1.14743e-24,2.18765e-31,-6.8757500000000001e-31,-6.5887999999999997e-30
853.0,3.4139000000000003e-29,1.1474199999999999e-24,1.1474499999999999e-24,1.1474199999999999e-24,2.6228199999999997e-32,-8.7929100000000006e-31,-4.02356e-30
854.0,3.4128899999999998e-29,1.1474199999999999e-24,1.1474499999999999e-24,1.1474199999999999e-24,2.7202399999999998e-31,-1.13743e-30,-1.62805e-30
855.0,3.4245599999999997e-29,1.14744e-24,1.14746e-24,1.14744e-24,2.3502000000000001e-30,-6.6118300000000001e-32,-1.4385700000000001e-29
856.0,3.4141700000000001e-29,1.14743e-24,1.14746e-24,1.14744e-24,2.1695399999999999e-30,-1.93155e-31,-1.2746100000000001e-29
857.0,3.3825199999999998e-29,1.14743e-24,1.14746e-24,1.14743e-24,2.1696600000000001e-30,-3.9696399999999998e-31,-1.08801e-29
858.0,3.3485400000000002e-29,1.1474199999999999e-24,1.14746e-24,1.14743e-24,2.1395099999999998e-30,-4.8920999999999999e-31,-8.6970899999999996e-30
859.0,3.2972299999999999e-29,1.1474199999999999e-24,1.14746e-24,1.14743e-24,2.1543000000000001e-30,-6.48863e-31,-6.4237500000000001e-30
860.0,3.2781299999999998e-29,1.1474199999999999e-24,1.14746e-24,1.14743e-24,2.2481700000000001e-30,-7.6798599999999996e-31,-4.0230300000000002e-30
861.0,3.2620099999999999e-29,1.1474199999999999e-24,1.14746e-24,1.14743e-24,2.0308900000000001e-30,-9.0094e-31,-1.44832e-30
862.0,3.34168e-29,1.14744e-24,1.14746e-24,1.14744e-24,3.9104300000000002e-30,-1.32798e-31,-1.3968199999999999e-29
863.0,3.3111299999999999e-29,1.14743e-24,1.14746e-24,1.14744e-24,3.8865099999999999e-30,-3.4140299999999999e-31,-1.24037e-29
864.0,3.2598100000000001e-29,1.14743e-24,1.14746e-24,1.14744e-24,3.8953200000000002e-30,-3.84645e-31,-1.05231e-29
865.0,3.2072499999999998e-29,1.14743e-24,1.14746e-24,1.14744e-24,4.0097300000000003e-30,-4.9933899999999996e-31,-8.4841199999999998e-30
866.0,3.17154e-29,1.14743e-24,1.14746e-24,1.14743e-24,4.1092900000000001e-30,-5.3798500000000003e-31,-6.22008e-30
867.0,3.1340299999999998e-29,1.14743e-24,1.14746e-24,1.14743e-24,4.1535500000000002e-30,-6.3779299999999999e-31,-3.8937299999999999e-30
868.0,3.1630799999999997e-29,1.14743e-24,1.14746e-24,1.14743e-24,4.37474e-30,-8.5694200000000005e-31,-1.63417e-30
869.0,3.2554999999999997e-29,1.14744e-24,1.14746e-24,1.1474499999999999e-24,5.3227799999999999e-30,-2.51305e-31,-1.35526e-29
870.0,3.2068399999999997e-29,1.14744e-24,1.14746e-24,1.14744e-24,5.36856e-30,-3.2300300000000002e-31,-1.20295e-29
871.0,3.1487000000000001e-29,1.14744e-24,1.14746e-24,1.14744e-24,5.5712000000000002e-30,-4.3126100000000003e-31,-1.0261099999999999e-29
872.0,3.0933999999999998e-29,1.14743e-24,1.14746e-24,1.14744e-24,5.7295499999999997e-30,-4.0557599999999999e-31,-8.2021600000000001e-30
873.0,3.03496e-29,1.14743e-24,1.14746e-24,1.14744e-24,5.9066100000000002e-30,-4.9169899999999999e-31,-6.0932300000000001e-30
874.0,3.0251700000000001e-29,1.14743e-24,1.14746e-24,1.14744e-24,6.0738299999999998e-30,-5.2285700000000004e-31,-3.8210000000000002e-30
875.0,2.9870600000000002e-29,1.14743e-24,1.14746e-24,1.14744e-24,6.0719699999999998e-30,-5.6090599999999999e-31,-1.4566699999999999e-30
876.0,3.1802999999999999e-29,1.14744e-24,1.14747e-24,1.1474499999999999e-24,6.5192499999999993e-30,-2.8883800000000002e-31,-1.3220299999999999e-29
877.0,3.1225799999999999e-29,1.14744e-24,1.14747e-24,1.1474499999999999e-24,6.7525500000000004e-30,-3.6929499999999999e-31,-1.18322e-29
878.0,3.0538699999999999e-29,1.14744e-24,1.14746e-24,1.1474499999999999e-24,6.9998799999999997e-30,-3.18014e-31,-1.0071200000000001e-29
879.0,2.9830700000000002e-29,1.14744e-24,1.14746e-24,1.1474499999999999e-24,7.2747300000000003e-30,-3.7232000000000001e-31,-8.1062900000000003e-30
880.0,2.94317e-29,1.14744e-24,1.14746e-24,1.14744e-24,7.4992100000000004e-30,-3.3057000000000002e-31,-5.9640200000000001e-30
881.0,2.8833099999999997e-29,1.14744e-24,1.14746e-24,1.14744e-24,7.6599300000000005e-30,-3.9181200000000001e-31,-3.7939499999999997e-30
882.0,2.9590900000000003e-29,1.14744e-24,1.14746e-24,1.14744e-24,7.9463899999999996e-30,-5.8130300000000002e-31,-1.6625499999999999e-30
883.0,3.2652800000000001e-29,1.14743e-24,1.14746e-24,1.14744e-24,-2.6416899999999999e-30,6.1243499999999997e-31,-1.3821100000000001e-29
884.0,3.3721300000000002e-29,1.14743e-24,1.14746e-24,1.14744e-24,-2.7090699999999998e-30,1.75338e-31,-1.2912299999999999e-29
885.0,3.2001100000000002e-29,1.14743e-24,1.14746e-24,1.14743e-24,-2.8757699999999998e-30,1.92976e-31,-1.0526e-29
886.0,3.2521399999999997e-29,1.14743e-24,1.14746e-24,1.14743e-24,-2.8504899999999999e-30,-4.2205900000000002e-31,-8.6259499999999996e-30
887.0,3.16527e-29,1.1474199999999999e-24,1.14746e-24,1.14743e-24,-3.1317999999999999e-30,-4.0122600000000003e-31,-6.1189000000000001e-30
888.0,3.1884499999999999e-29,1.1474199999999999e-24,1.14746e-24,1.14743e-24,-3.0242499999999999e-30,-1.0840599999999999e-30,-3.8739199999999999e-30
889.0,3.20453e-29,1.1474199999999999e-24,1.14746e-24,1.14743e-24,-3.3725300000000001e-30,-9.2104999999999993e-31,-1.27109e-30
890.0,3.2830600000000001e-29,1.14744e-24,1.14746e-24,1.14744e-24,-1.0772700000000001e-30,3.9562199999999999e-31,-1.39634e-29
891.0,3.1838299999999998e-29,1.14743e-24,1.14746e-24,1.14744e-24,-1.1431599999999999e-30,1.73784e-31,-1.23069e-29
892.0,3.17861e-29,1.14743e-24,1.14746e-24,1.14744e-24,-1.15148e-30,-4.8666199999999998e-32,-1.0560399999999999e-29
893.0,3.09758e-29,1.14743e-24,1.14746e-24,1.14743e-24,-1.2483300000000001e-30,-3.3409099999999998e-31,-8.3420000000000005e-30
894.0,3.1083299999999998e-29,1.14743e-24,1.14746e-24,1.14743e-24,-1.19822e-30,-5.7232099999999997e-31,-6.22428e-30
895.0,3.0700300000000003e-29,1.14743e-24,1.14746e-24,1.14743e-24,-1.39429e-30,-8.3437700000000004e-31,-3.7373399999999999e-30
896.0,3.0960199999999998e-29,1.1474199999999999e-24,1.14746e-24,1.14743e-24,-1.21845e-30,-1.23829e-30,-1.4792100000000001e-30
897.0,3.1586999999999998e-29,1.14744e-24,1.14746e-24,1.14744e-24,5.9158700000000004e-31,2.2050700000000002e-31,-1.3527099999999999e-29
898.0,3.1160899999999999e-29,1.14744e-24,1.14746e-24,1.14744e-24,5.2833400000000001e-31,5.4824900000000003e-32,-1.20744e-29
899.0,3.0582800000000002e-29,1.14743e-24,1.14746e-24,1.14744e-24,5.3134300000000002e-31,-2.0120900000000001e-31,-1.02473e-29
900.0,3.0321200000000001e-29,1.14743e-24,1.14746e-24,1.14744e-24,5.5216800000000003e-31,-3.3427699999999998e-31,-8.2431599999999998e-30
901.0,2.9839399999999998e-29,1.14743e-24,1.14746e-24,1.14743e-24,5.2808200000000003e-31,-6.2130900000000002e-31,-6.0178700000000001e-30
902.0,2.98966e-29,1.14743e-24,1.14746e-24,1.14743e-24,6.7644100000000003e-31,-7.7614200000000001e-31,-3.8260400000000002e-30
903.0,2.9837199999999998e-29,1.14743e-24,1.14746e-24,1.14743e-24,3.8718600000000002e-31,-9.2929799999999993e-31,-1.35443e-30
904.0,3.0847899999999997e-29,1.14744e-24,1.14746e-24,1.1474499999999999e-24,2.1527000000000001e-30,9.3388400000000001e-32,-1.3169299999999999e-29
905.0,3.0260200000000001e-29,1.14744e-24,1.14746e-24,1.14744e-24,2.16775e-30,-1.0946500000000001e-31,-1.17604e-29
906.0,2.9776100000000003e-29,1.14744e-24,1.14746e-24,1.14744e-24,2.1867299999999999e-30,-1.9909099999999999e-31,-9.97168e-30
907.0,2.92693e-29,1.14743e-24,1.14746e-24,1.14744e-24,2.29175e-30,-4.2593199999999998e-31,-8.0306200000000003e-30
908.0,2.9024699999999999e-29,1.14743e-24,1.14746e-24,1.14744e-24,2.3920199999999999e-30,-5.0112000000000001e-31,-5.9173600000000002e-30
909.0,2.8591599999999998e-29,1.14743e-24,1.14746e-24,1.14744e-24,2.3741700000000002e-30,-7.1113799999999998e-31,-3.6768099999999998e-30
910.0,2.9476499999999998e-29,1.14743e-24,1.14746e-24,1.14743e-24,2.67431e-30,-9.6645699999999992e-31,-1.54333e-30
911.0,3.0169999999999999e-29,1.14744e-24,1.14747e-24,1.1474499999999999e-24,3.66282e-30,-2.5710700000000002e-32,-1.2815400000000001e-29
912.0,2.9425799999999998e-29,1.14744e-24,1.14746e-24,1.1474499999999999e-24,3.6501499999999997e-30,-1.07329e-31,-1.13741e-29
913.0,2.89285e-29,1.14744e-24,1.14746e-24,1.1474499999999999e-24,3.8206099999999997e-30,-2.7444399999999999e-31,-9.7134199999999994e-30
914.0,2.8321499999999998e-29,1.14744e-24,1.14746e-24,1.14744e-24,3.9396899999999999e-30,-3.3313899999999999e-31,-7.7752499999999996e-30
915.0,2.7895299999999998e-29,1.14744e-24,1.14746e-24,1.14744e-24,4.0994399999999999e-30,-5.1192199999999999e-31,-5.7604199999999997e-30
916.0,2.8103100000000002e-29,1.14743e-24,1.14746e-24,1.14744e-24,4.3535400000000003e-30,-5.8579600000000002e-31,-3.6437e-30
917.0,2.7591699999999999e-29,1.14743e-24,1.14746e-24,1.14744e-24,4.1314999999999998e-30,-7.1017700000000002e-31,-1.3737899999999999e-30
918.0,2.9512999999999999e-29,1.1474499999999999e-24,1.14747e-24,1.1474499999999999e-24,4.9700200000000002e-30,-1.2497400000000001e-32,-1.23935e-29
919.0,2.8903299999999998e-29,1.14744e-24,1.14747e-24,1.1474499999999999e-24,5.1335e-30,-1.76283e-31,-1.11435e-29
920.0,2.8108200000000002e-29,1.14744e-24,1.14747e-24,1.1474499999999999e-24,5.2690100000000002e-30,-2.2309999999999998e-31,-9.4473699999999999e-30
921.0,2.7650000000000001e-29,1.14744e-24,1.14747e-24,1.1474499999999999e-24,5.5399299999999998e-30,-3.6739400000000001e-31,-7.6414099999999994e-30
922.0,2.7253000000000002e-29,1.14744e-24,1.14746e-24,1.14744e-24,5.7563799999999998e-30,-3.97118e-31,-5.6260600000000002e-30
923.0,2.69741e-29,1.14744e-24,1.14746e-24,1.14744e-24,5.84761e-30,-5.1507e-31,-3.56887e-30
924.0,2.8241199999999998e-29,1.14744e-24,1.14746e-24,1.14744e-24,6.4239499999999993e-30,-6.8917999999999996e-31,-1.5542500000000001e-30
925.0,2.92015e-29,1.1474499999999999e-24,1.14747e-24,1.1474499999999999e-24,6.03384e-30,-4.9405400000000001e-32,-1.2169499999999999e-29
926.0,2.8390300000000002e-29,1.1474499999999999e-24,1.14747e-24,1.1474499999999999e-24,6.1971299999999999e-30,-1.0848599999999999e-31,-1.0925600000000001e-29
927.0,2.7697400000000002e-29,1.1474499999999999e-24,1.14747e-24,1.1474499999999999e-24,6.5431399999999998e-30,-2.56858e-31,-9.3488299999999994e-30
928.0,2.70117e-29,1.14744e-24,1.14747e-24,1.1474499999999999e-24,6.7791199999999995e-30,-2.7209200000000002e-31,-7.4950800000000002e-30
929.0,2.6613899999999999e-29,1.14744e-24,1.14747e-24,1.1474499999999999e-24,7.0545999999999996e-30,-3.4754899999999998e-31,-5.5665999999999998e-30
930.0,2.6836400000000002e-29,1.14744e-24,1.14747e-24,1.1474499999999999e-24,7.4268600000000006e-30,-4.1110999999999997e-31,-3.5453400000000001e-30
931.0,2.5847200000000001e-29,1.14744e-24,1.14747e-24,1.1474499999999999e-24,7.00954e-30,-5.2008600000000002e-31,-1.4636399999999999e-30
932.0,1.8252100000000001e-29,1.14749e-24,1.14749e-24,1.1475e-24,9.1953800000000004e-30,1.0436100000000001e-31,-1.8190199999999999e-30
933.0,1.5366600000000001e-29,1.1475e-24,1.14749e-24,1.1475e-24,7.3318800000000006e-30,7.9587300000000004e-32,-2.69938e-30
934.0,1.2769200000000001e-29,1.1475e-24,1.14749e-24,1.1475e-24,4.8495400000000002e-30,-2.6327200000000002e-31,-1.51018e-30
935.0,1.10904e-29,1.1475e-24,1.14749e-24,1.1475e-24,3.3148899999999998e-30,-1.4608800000000001e-31,-3.1023700000000002e-30
936.0,1.16725e-29,1.1475e-24,1.14749e-24,1.1475e-24,1.5091800000000001e-31,-5.7652300000000001e-31,-9.7231199999999999e-31
937.0,1.12847e-29,1.1475e-24,1.14749e-24,1.1475e-24,-3.7035799999999999e-31,-2.3337499999999999e-31,-4.2395499999999999e-30
938.0,2.0209099999999999e-29,1.1475e-24,1.1474799999999999e-24,1.1475e-24,-5.6603200000000001e-30,-9.0888599999999996e-31,7.0027599999999999e-31
939.0,1.9440499999999999e-29,1.1475e-24,1.14749e-24,1.1475e-24,9.16326e-30,4.9778900000000004e-31,-4.5858899999999997e-30
940.0,1.62095e-29,1.1475e-24,1.14749e-24,1.1475e-24,6.9228299999999998e-30,2.7437400000000002e-31,-3.7674600000000003e-30
941.0,1.4657899999999999e-29,1.1475e-24,1.14749e-24,1.1475e-24,5.1672000000000001e-30,2.2179899999999999e-31,-4.6517999999999999e-30
942.0,1.2516e-29,1.1475e-24,1.14749e-24,1.1475e-24,2.3968799999999999e-30,2.9357399999999999e-32,-3.5401999999999999e-30
943.0,1.2875500000000001e-29,1.1475e-24,1.14749e-24,1.1475e-24,1.1928e-30,1.40242e-31,-5.0206700000000003e-30
944.0,1.51455e-29,1.1475e-24,1.14749e-24,1.1475e-24,-2.4496699999999998e-30,-4.5204000000000001e-31,-3.1417300000000001e-30
945.0,1.43093e-29,1.1475e-24,1.14749e-24,1.1475e-24,-2.60996e-30,6.6864799999999997e-31,-5.3300499999999997e-30
946.0,2.0482300000000001e-29,1.14749e-24,1.14749e-24,1.1475e-24,8.8049900000000002e-30,7.2903500000000003e-31,-5.9879399999999997e-30
947.0,1.86377e-29,1.1475e-24,1.14749e-24,1.1475e-24,6.9675499999999995e-30,6.3115699999999999e-31,-6.4661499999999997e-30
948.0,1.5976399999999999e-29,1.1475e-24,1.14749e-24,1.1475e-24,4.5304100000000002e-30,5.2355800000000004e-31,-5.7726699999999997e-30
949.0,1.5669200000000001e-29,1.1475e-24,1.14749e-24,1.1475e-24,2.9366900000000001e-30,5.4761500000000002e-31,-6.5324999999999994e-30
950.0,1.5103400000000001e-29,1.1475e-24,1.14749e-24,1.1475e-24,-5.1835499999999998e-32,2.5863100000000001e-31,-5.5901400000000003e-30
951.0,1.6099e-29,1.1475e-24,1.14749e-24,1.1475e-24,-1.10857e-30,8.6336999999999994e-31,-6.6320799999999997e-30
952.0,1.95665e-29,1.1475e-24,1.1474799999999999e-24,1.1475e-24,-4.5122199999999998e-30,1.1657800000000001e-31,-5.2755300000000003e-30
953.0,2.27827e-29,1.1475e-24,1.14749e-24,1.1475e-24,8.5821500000000003e-30,9.9466499999999994e-31,-8.4832100000000001e-30
954.0,2.0129899999999999e-29,1.14749e-24,1.14749e-24,1.1475e-24,6.4706500000000005e-30,9.4147300000000006e-31,-7.8553199999999995e-30
955.0,1.9103100000000001e-29,1.1475e-24,1.14749e-24,1.1475e-24,4.6815800000000002e-30,9.1521800000000004e-31,-8.2812899999999996e-30
956.0,1.77528e-29,1.1475e-24,1.14749e-24,1.1475e-24,2.13234e-30,8.1946799999999998e-31,-7.7657100000000002e-30
957.0,1.8208800000000001e-29,1.1475e-24,1.14749e-24,1.1475e-24,6.1950299999999999e-31,1.0968200000000001e-30,-8.2682699999999994e-30
958.0,1.91035e-29,1.1475e-24,1.14749e-24,1.1475e-24,-2.3196400000000002e-30,7.3224299999999996e-31,-7.5070400000000007e-30
959.0,1.9974900000000001e-29,1.1475e-24,1.14749e-24,1.1475e-24,-3.4709299999999998e-30,1.3839000000000001e-30,-8.1524099999999997e-30
960.0,2.4376800000000001e-29,1.14749e-24,1.14749e-24,1.1475e-24,8.1112999999999997e-30,1.30742e-30,-9.8924099999999996e-30
961.0,2.28952e-29,1.1475e-24,1.14749e-24,1.1475e-24,6.3225899999999994e-30,1.2254199999999999e-30,-1.01052e-29
962.0,2.1321099999999999e-29,1.14749e-24,1.14749e-24,1.1475e-24,4.1050800000000001e-30,1.25325e-30,-9.7707399999999997e-30
963.0,2.0986000000000001e-29,1.1475e-24,1.14749e-24,1.1475e-24,2.4152699999999998e-30,1.36345e-30,-1.0026900000000001e-29
964.0,2.07981e-29,1.1475e-24,1.14749e-24,1.1475e-24,-1.98383e-31,1.25032e-30,-9.63057e-30
965.0,2.1539800000000001e-29,1.1475e-24,1.14749e-24,1.1475e-24,-1.6125599999999999e-30,1.61093e-30,-9.8755100000000001e-30
966.0,2.3643599999999999e-29,1.1475e-24,1.1474799999999999e-24,1.1475e-24,-4.3126100000000003e-30,1.2412800000000001e-30,-9.2477600000000003e-30
967.0,2.6601299999999998e-29,1.14749e-24,1.14749e-24,1.1475e-24,7.7134699999999997e-30,1.46941e-30,-1.19186e-29
968.0,2.5083400000000001e-29,1.14749e-24,1.14749e-24,1.1475e-24,5.8837199999999998e-30,1.56731e-30,-1.16029e-29
969.0,2.4258399999999999e-29,1.14749e-24,1.14749e-24,1.1475e-24,4.2229299999999999e-30,1.6092899999999999e-30,-1.1729e-29
970.0,2.36952e-29,1.14749e-24,1.14749e-24,1.1475e-24,1.85449e-30,1.64432e-30,-1.16284e-29
971.0,2.3852399999999999e-29,1.14749e-24,1.14749e-24,1.1475e-24,2.7570200000000001e-31,1.85919e-30,-1.1712e-29
972.0,2.4523099999999999e-29,1.14749e-24,1.1474799999999999e-24,1.1475e-24,-2.3160999999999999e-30,1.72293e-30,-1.1365200000000001e-29
973.0,2.5268300000000001e-29,1.1475e-24,1.1474799999999999e-24,1.1475e-24,-3.7842099999999997e-30,2.12218e-30,-1.14415e-29
974.0,2.83496e-29,1.14749e-24,1.14749e-24,1.1475e-24,7.3382899999999998e-30,1.76907e-30,-1.31272e-29
975.0,2.7449099999999998e-29,1.14749e-24,1.14749e-24,1.1475e-24,6.0130699999999999e-30,1.82722e-30,-1.3223399999999999e-29
976.0,2.6880300000000002e-29,1.14749e-24,1.14749e-24,1.1475e-24,3.8587300000000003e-30,1.8958699999999999e-30,-1.3409100000000001e-29
977.0,2.6587599999999998e-29,1.14749e-24,1.14749e-24,1.1475e-24,2.3076500000000001e-30,2.0851800000000001e-30,-1.3462100000000001e-29
978.0,2.6711100000000002e-29,1.14749e-24,1.1474799999999999e-24,1.1475e-24,-2.0582299999999998e-31,2.0803399999999999e-30,-1.3408000000000001e-29
979.0,2.7124299999999997e-29,1.14749e-24,1.1474799999999999e-24,1.1475e-24,-1.7190899999999999e-30,2.32984e-30,-1.3395499999999999e-29
980.0,2.8486000000000002e-29,1.14749e-24,1.1474799999999999e-24,1.1475e-24,-4.1334400000000001e-30,2.1622399999999999e-30,-1.3001e-29
981.0,1.7664300000000001e-29,1.14749e-24,1.14749e-24,1.14749e-24,9.7768199999999995e-30,1.01788e-31,-2.2201099999999999e-30
982.0,1.3754799999999999e-29,1.14749e-24,1.1474799999999999e-24,1.14749e-24,7.4831399999999996e-30,-9.6278200000000005e-32,-1.8542000000000001e-30
983.0,1.15613e-29,1.14749e-24,1.14749e-24,1.14749e-24,6.0103400000000001e-30,-2.55612e-31,-2.2570700000000001e-30
984.0,7.0286200000000002e-30,1.14749e-24,1.1474799999999999e-24,1.14749e-24,3.1422099999999999e-30,-3.18014e-31,-1.6803499999999999e-30
985.0,6.5703500000000003e-30,1.14749e-24,1.14749e-24,1.14749e-24,2.2122600000000001e-30,-4.1901300000000001e-31,-2.5105100000000001e-30
986.0,5.8083699999999999e-30,1.1474799999999999e-24,1.1474799999999999e-24,1.14749e-24,-1.6692100000000001e-30,-4.7723699999999996e-31,-1.51563e-30
987.0,9.0468799999999998e-30,1.14749e-24,1.1474799999999999e-24,1.14749e-24,-3.2710699999999999e-30,6.5744900000000001e-31,-2.1238799999999999e-30
988.0,1.8068099999999999e-29,1.14749e-24,1.14749e-24,1.14749e-24,9.3165299999999997e-30,3.04214e-31,-4.1001299999999998e-30
989.0,1.5370399999999999e-29,1.14749e-24,1.14749e-24,1.14749e-24,7.5806499999999995e-30,1.25551e-31,-4.1166700000000001e-30
990.0,1.2085599999999999e-29,1.14749e-24,1.14749e-24,1.14749e-24,5.2862199999999998e-30,5.5650499999999997e-32,-3.9843699999999997e-30
991.0,1.03095e-29,1.14749e-24,1.14749e-24,1.14749e-24,3.6729699999999997e-30,2.63823e-32,-4.2010600000000001e-30
992.0,8.2080100000000002e-30,1.14749e-24,1.1474799999999999e-24,1.14749e-24,1.0107299999999999e-30,-2.19063e-31,-3.8979099999999999e-30
993.0,8.9686000000000001e-30,1.14749e-24,1.1474799999999999e-24,1.14749e-24,-6.6856599999999998e-31,5.2348600000000001e-31,-4.5176500000000002e-30
994.0,8.9302200000000007e-30,1.14749e-24,1.1474799999999999e-24,1.14749e-24,-3.1298100000000001e-30,-2.3458099999999998e-31,-2.54056e-30
995.0,1.96431e-29,1.14749e-24,1.14749e-24,1.14749e-24,9.1551299999999997e-30,4.6347000000000002e-31,-6.1731e-30
996.0,1.6843899999999999e-29,1.14749e-24,1.14749e-24,1.14749e-24,7.10552e-30,3.92358e-31,-6.0814300000000003e-30
997.0,1.4627099999999999e-29,1.14749e-24,1.14749e-24,1.14749e-24,5.2962699999999999e-30,3.5761399999999999e-31,-6.0670300000000002e-30
998.0,1.2651600000000001e-29,1.14749e-24,1.1474799999999999e-24,1.14749e-24,3.0682500000000001e-30,2.0603700000000001e-31,-6.0740099999999997e-30
999.0,1.2048e-29,1.14749e-24,1.1474799999999999e-24,1.14749e-24,1.2117399999999999e-30,5.2762299999999997e-31,-6.2862499999999998e-30
1000.0,1.12761e-29,1.14749e-24,1.1474799999999999e-24,1.14749e-24,-1.0890499999999999e-30,1.4105499999999999e-31,-5.6684399999999998e-30
1001.0,1.3830200000000001e-29,1.14749e-24,1.1474799999999999e-24,1.14749e-24,-2.87255e-30,6.4772300000000003e-31,-6.8891599999999996e-30
1002.0,2.1341500000000001e-29,1.14749e-24,1.14749e-24,1.14749e-24,8.6850000000000003e-30,7.00336e-31,-8.1760799999999997e-30
1003.0,1.8930199999999999e-29,1.14749e-24,1.14749e-24,1.14749e-24,6.8401300000000004e-30,6.4650299999999996e-31,-7.9803200000000002e-30
1004.0,1.7149800000000001e-29,1.14749e-24,1.1474799999999999e-24,1.14749e-24,4.86839e-30,5.6709200000000003e-31,-8.0699999999999998e-30
1005.0,1.5842799999999999e-29,1.14749e-24,1.1474799999999999e-24,1.14749e-24,2.93076e-30,7.2550700000000003e-31,-8.0982199999999997e-30
1006.0,1.4956700000000001e-29,1.14749e-24,1.1474799999999999e-24,1.14749e-24,8.54187e-31,5.5655300000000002e-31,-7.9810799999999998e-30
1007.0,1.5706899999999999e-29,1.14749e-24,1.1474799999999999e-24,1.14749e-24,-1.0513500000000001e-30,8.9103699999999991e-31,-8.3693500000000005e-30
1008.0,1.59637e-29,1.1474799999999999e-24,1.1474799999999999e-24,1.14749e-24,-3.1937699999999997e-30,6.3946300000000002e-31,-7.5360999999999998e-30
1009.0,2.31947e-29,1.14749e-24,1.14749e-24,1.14749e-24,8.2423499999999997e-30,8.6771399999999998e-31,-9.9757599999999998e-30
1010.0,2.1366300000000001e-29,1.14749e-24,1.1474799999999999e-24,1.14749e-24,6.4404199999999999e-30,8.6442499999999992e-31,-9.9408399999999998e-30
1011.0,1.9837299999999999e-29,1.14749e-24,1.1474799999999999e-24,1.14749e-24,4.5582800000000001e-30,9.4786900000000001e-31,-9.8945599999999997e-30
1012.0,1.8909099999999999e-29,1.14749e-24,1.1474799999999999e-24,1.14749e-24,2.6602399999999999e-30,8.8765800000000004e-31,-9.9806400000000004e-30
1013.0,1.86733e-29,1.14749e-24,1.1474799999999999e-24,1.14749e-24,7.11462e-31,1.11075e-30,-1.01045e-29
1014.0,1.8596299999999999e-29,1.1474799999999999e-24,1.1474799999999999e-24,1.14749e-24,-1.3114499999999999e-30,1.0273100000000001e-30,-9.8451999999999998e-30
1015.0,1.9880600000000001e-29,1.14749e-24,1.1474799999999999e-24,1.14749e-24,-3.1727299999999999e-30,1.30754e-30,-1.0338300000000001e-29
1016.0,2.53063e-29,1.14749e-24,1.1474799999999999e-24,1.14749e-24,7.8048299999999994e-30,1.1026399999999999e-30,-1.17527e-29
1017.0,2.3665400000000001e-29,1.14749e-24,1.1474799999999999e-24,1.14749e-24,6.0840899999999997e-30,1.1241700000000001e-30,-1.15956e-29
1018.0,2.27081e-29,1.14749e-24,1.1474799999999999e-24,1.14749e-24,4.3939199999999998e-30,1.1477699999999999e-30,-1.17401e-29
1019.0,2.2082200000000001e-29,1.14749e-24,1.1474799999999999e-24,1.14749e-24,2.4605900000000001e-30,1.3219100000000001e-30,-1.18419e-29
1020.0,2.17545e-29,1.1474799999999999e-24,1.1474799999999999e-24,1.14749e-24,5.92491e-31,1.3035300000000001e-30,-1.18505e-29
1021.0,2.2166399999999999e-29,1.14749e-24,1.1474799999999999e-24,1.14749e-24,-1.3052100000000001e-30,1.5078200000000001e-30,-1.20104e-29
1022.0,2.28878e-29,1.1474799999999999e-24,1.1474799999999999e-24,1.14749e-24,-3.2590299999999997e-30,1.4692e-30,-1.17073e-29
1023.0,2.69656e-29,1.14749e-24,1.1474799999999999e-24,1.14749e-24,7.4176900000000003e-30,1.2246e-30,-1.3074900000000001e-29
1024.0,2.6275399999999998e-29,1.14749e-24,1.1474799999999999e-24,1.14749e-24,6.0649800000000003e-30,1.33107e-30,-1.3296399999999999e-29
1025.0,2.5645799999999999e-29,1.14749e-24,1.1474799999999999e-24,1.14749e-24,4.3169199999999998e-30,1.43238e-30,-1.3505e-29
1026.0,2.5181100000000001e-29,1.1474799999999999e-24,1.1474799999999999e-24,1.14749e-24,2.5606900000000001e-30,1.5178800000000001e-30,-1.3671200000000001e-29
1027.0,2.5197999999999999e-29,1.1474799999999999e-24,1.1474799999999999e-24,1.14749e-24,6.2267400000000001e-31,1.7382500000000002e-30,-1.3843000000000001e-29
1028.0,2.5424699999999998e-29,1.1474799999999999e-24,1.1474799999999999e-24,1.14749e-24,-1.3166e-30,1.7324299999999999e-30,-1.3821999999999999e-29
1029.0,2.6203400000000002e-29,1.1474799999999999e-24,1.1474799999999999e-24,1.14749e-24,-3.2802400000000001e-30,1.9704800000000001e-30,-1.39996e-29
1030.0,1.7175700000000001e-29,1.1474799999999999e-24,1.1474799999999999e-24,1.1474799999999999e-24,9.4440200000000005e-30,-1.3049099999999999e-32,-1.89559e-30
1031.0,1.5188000000000001e-29,1.1474799999999999e-24,1.1474799999999999e-24,1.1474799999999999e-24,8.0212499999999995e-30,-2.4274200000000001e-31,-1.98318e-30
1032.0,1.12728e-29,1.1474799999999999e-24,1.1474799999999999e-24,1.1474799999999999e-24,5.6400899999999998e-30,-2.52226e-31,-1.75825e-30
1033.0,9.6637100000000003e-30,1.1474799999999999e-24,1.1474799999999999e-24,1.1474799999999999e-24,4.2799799999999999e-30,-5.0008400000000001e-31,-1.9518299999999999e-30
1034.0,6.6499599999999993e-30,1.14747e-24,1.1474799999999999e-24,1.1474799999999999e-24,1.40083e-30,-4.2510899999999998e-31,-1.8001000000000001e-30
1035.0,4.9647399999999998e-30,1.14747e-24,1.1474799999999999e-24,1.1474799999999999e-24,-5.30204e-31,-2.4272699999999998e-31,-1.7658299999999999e-30
1036.0,5.9323100000000001e-30,1.1474799999999999e-24,1.1474799999999999e-24,1.1474799999999999e-24,-2.1580000000000001e-30,-1.3875899999999999e-30,-1.7925999999999999e-30
1037.0,1.8272900000000001e-29,1.1474799999999999e-24,1.1474799999999999e-24,1.1474799999999999e-24,9.4280599999999999e-30,7.4755300000000001e-32,-3.9725200000000002e-30
1038.0,1.53118e-29,1.1474799999999999e-24,1.1474799999999999e-24,1.1474799999999999e-24,7.4564200000000004e-30,2.5126799999999998e-32,-3.9385499999999998e-30
1039.0,1.28822e-29,1.1474799999999999e-24,1.1474799999999999e-24,1.1474799999999999e-24,5.7524000000000003e-30,-9.9070100000000002e-32,-3.8929299999999997e-30
1040.0,1.04409e-29,1.1474799999999999e-24,1.1474799999999999e-24,1.1474799999999999e-24,3.5580700000000002e-30,-1.64597e-31,-3.9705300000000001e-30
1041.0,8.7449199999999995e-30,1.1474799999999999e-24,1.1474799999999999e-24,1.1474799999999999e-24,1.6806099999999998e-30,1.5912000000000001e-32,-4.0534499999999999e-30
1042.0,7.4460600000000003e-30,1.14747e-24,1.1474799999999999e-24,1.1474799999999999e-24,-6.2885600000000001e-31,-2.5647299999999998e-31,-3.6054799999999998e-30
1043.0,9.2054400000000005e-30,1.14747e-24,1.1474799999999999e-24,1.1474799999999999e-24,-2.7826500000000002e-30,2.7813300000000001e-31,-4.0828599999999997e-30
1044.0,1.9293799999999999e-29,1.1474799999999999e-24,1.1474799999999999e-24,1.1474799999999999e-24,8.9892500000000001e-30,2.8895499999999999e-31,-6.0515299999999997e-30
1045.0,1.66905e-29,1.1474799999999999e-24,1.1474799999999999e-24,1.1474799999999999e-24,7.2538700000000006e-30,1.8409800000000001e-31,-5.8557500000000003e-30
1046.0,1.4615699999999999e-29,1.1474799999999999e-24,1.1474799999999999e-24,1.1474799999999999e-24,5.3226e-30,1.27041e-31,-6.0117499999999998e-30
1047.0,1.27136e-29,1.1474799999999999e-24,1.1474799999999999e-24,1.1474799999999999e-24,3.4322400000000002e-30,2.0125499999999999e-31,-6.0005500000000003e-30
1048.0,1.1434300000000001e-29,1.1474799999999999e-24,1.1474799999999999e-24,1.1474799999999999e-24,1.39801e-30,1.0491800000000001e-31,-5.9937000000000002e-30
1049.0,1.1437599999999999e-29,1.1474799999999999e-24,1.1474799999999999e-24,1.1474799999999999e-24,-5.8518399999999996e-31,4.01137e-31,-6.2368999999999999e-30
1050.0,1.06392e-29,1.14747e-24,1.1474799999999999e-24,1.1474799999999999e-24,-2.4268700000000001e-30,1.20247e-31,-5.44475e-30
1051.0,2.07138e-29,1.1474799999999999e-24,1.1474799999999999e-24,1.1474799999999999e-24,8.6264599999999995e-30,3.97362e-31,-7.9039700000000002e-30
1052.0,1.8674300000000001e-29,1.1474799999999999e-24,1.1474799999999999e-24,1.1474799999999999e-24,6.8443400000000004e-30,3.8463199999999999e-31,-7.93019e-30
1053.0,1.6652100000000001e-29,1.1474799999999999e-24,1.1474799999999999e-24,1.1474799999999999e-24,4.9889199999999997e-30,4.0060200000000004e-31,-7.86728e-30
1054.0,1.55509e-29,1.1474799999999999e-24,1.1474799999999999e-24,1.1474799999999999e-24,3.15031e-30,3.8563600000000001e-31,-8.0510499999999998e-30
1055.0,1.4774300000000001e-29,1.1474799999999999e-24,1.1474799999999999e-24,1.1474799999999999e-24,1.2009e-30,5.3637099999999998e-31,-8.14495e-30
1056.0,1.4267500000000001e-29,1.14747e-24,1.1474799999999999e-24,1.1474799999999999e-24,-6.7774e-31,4.5199299999999997e-31,-7.9852499999999999e-30
1057.0,1.60426e-29,1.14747e-24,1.1474799999999999e-24,1.1474799999999999e-24,-2.6834799999999998e-30,6.6973199999999997e-31,-8.6672299999999995e-30
1058.0,2.264e-29,1.1474799999999999e-24,1.1474799999999999e-24,1.1474799999999999e-24,8.1434900000000005e-30,5.9445099999999996e-31,-9.8666599999999999e-30
1059.0,2.05548e-29,1.1474799999999999e-24,1.1474799999999999e-24,1.1474799999999999e-24,6.4103199999999995e-30,5.79923e-31,-9.6745199999999993e-30
1060.0,1.9407600000000001e-29,1.1474799999999999e-24,1.1474799999999999e-24,1.1474799999999999e-24,4.6922899999999997e-30,6.1759799999999998e-31,-9.8604199999999993e-30
1061.0,1.8372300000000001e-29,1.1474799999999999e-24,1.1474799999999999e-24,1.1474799999999999e-24,2.82363e-30,6.9309900000000003e-31,-9.9420899999999995e-30
1062.0,1.7915399999999999e-29,1.1474799999999999e-24,1.1474799999999999e-24,1.1474799999999999e-24,1.0467199999999999e-30,7.2990400000000004e-31,-1.00489e-29
1063.0,1.82736e-29,1.1474799999999999e-24,1.1474799999999999e-24,1.1474799999999999e-24,-8.7140299999999996e-31,8.7827000000000008e-31,-1.03009e-29
1064.0,1.82195e-29,1.14747e-24,1.1474799999999999e-24,1.1474799999999999e-24,-2.69384e-30,8.8981600000000007e-31,-9.9966899999999999e-30
1065.0,2.43539e-29,1.1474799999999999e-24,1.1474799999999999e-24,1.1474799999999999e-24,7.6661400000000005e-30,7.0334500000000002e-31,-1.14713e-29
1066.0,2.3116100000000001e-29,1.1474799999999999e-24,1.1474799999999999e-24,1.1474799999999999e-24,6.1383300000000002e-30,7.85111e-31,-1.1530600000000001e-29
1067.0,2.2010499999999999e-29,1.1474799999999999e-24,1.1474799999999999e-24,1.1474799999999999e-24,4.4005300000000003e-30,8.2753800000000009e-31,-1.1623e-29
1068.0,2.1491100000000001e-29,1.1474799999999999e-24,1.1474799999999999e-24,1.1474799999999999e-24,2.7335399999999999e-30,9.4632999999999999e-31,-1.1839700000000001e-29
1069.0,2.1342400000000001e-29,1.1474799999999999e-24,1.1474799999999999e-24,1.1474799999999999e-24,8.5715499999999997e-31,1.0301e-30,-1.2045999999999999e-29
1070.0,2.1316400000000001e-29,1.14747e-24,1.1474799999999999e-24,1.1474799999999999e-24,-9.3037699999999994e-31,1.13639e-30,-1.20583e-29
1071.0,2.2472899999999999e-29,1.14747e-24,1.1474799999999999e-24,1.1474799999999999e-24,-2.83604e-30,1.29839e-30,-1.2482000000000001e-29
1072.0,2.63462e-29,1.1474799999999999e-24,1.1474799999999999e-24,1.1474799999999999e-24,7.3946800000000004e-30,8.8682400000000006e-31,-1.2961800000000001e-29
1073.0,2.5452599999999998e-29,1.1474799999999999e-24,1.1474799999999999e-24,1.1474799999999999e-24,5.9634800000000003e-30,9.11243e-31,-1.31116e-29
1074.0,2.4981e-29,1.1474799999999999e-24,1.1474799999999999e-24,1.1474799999999999e-24,4.4456399999999997e-30,1.0475199999999999e-30,-1.3428599999999999e-29
1075.0,2.46935e-29,1.1474799999999999e-24,1.1474799999999999e-24,1.1474799999999999e-24,2.6773499999999999e-30,1.13273e-30,-1.3728800000000001e-29
1076.0,2.4593399999999999e-29,1.14747e-24,1.1474799999999999e-24,1.1474799999999999e-24,9.3861200000000006e-31,1.3407400000000001e-30,-1.39124e-29
1077.0,2.4989300000000001e-29,1.14747e-24,1.1474799999999999e-24,1.1474799999999999e-24,-9.3091599999999993e-31,1.39618e-30,-1.4164e-29
1078.0,2.53018e-29,1.14747e-24,1.14747e-24,1.1474799999999999e-24,-2.73428e-30,1.48996e-30,-1.41059e-29
1079.0,1.9081e-29,1.14747e-24,1.1474799999999999e-24,1.14747e-24,9.4698499999999999e-30,-2.0120900000000001e-31,-1.8709800000000001e-30
1080.0,1.6321300000000001e-29,1.14747e-24,1.1474799999999999e-24,1.14747e-24,7.5042900000000002e-30,-2.3850099999999999e-31,-1.7028e-30
1081.0,1.4626799999999999e-29,1.14747e-24,1.1474799999999999e-24,1.14747e-24,5.9841400000000002e-30,-5.0488199999999996e-31,-1.7441899999999999e-30
1082.0,1.2912200000000001e-29,1.14746e-24,1.1474799999999999e-24,1.14747e-24,3.74319e-30,-4.4183e-31,-1.7308499999999999e-30
1083.0,1.0747999999999999e-29,1.14747e-24,1.1474799999999999e-24,1.14747e-24,1.8112600000000001e-30,-5.3837499999999998e-31,-1.59199e-30
1084.0,1.0737599999999999e-29,1.14746e-24,1.1474799999999999e-24,1.14747e-24,-2.7984200000000002e-32,-8.6146600000000005e-31,-1.8361499999999998e-30
1085.0,1.0955100000000001e-29,1.14746e-24,1.14747e-24,1.14747e-24,-2.5582600000000001e-30,9.1827400000000004e-32,-1.56942e-30
1086.0,1.8976900000000001e-29,1.14747e-24,1.1474799999999999e-24,1.14747e-24,8.9897400000000002e-30,-1.33128e-32,-3.83531e-30
1087.0,1.6745000000000001e-29,1.14747e-24,1.1474799999999999e-24,1.14747e-24,7.3728699999999997e-30,-1.64214e-31,-3.7115299999999998e-30
1088.0,1.49939e-29,1.14747e-24,1.1474799999999999e-24,1.14747e-24,5.5018299999999998e-30,-2.07504e-31,-3.8056000000000001e-30
1089.0,1.3125100000000001e-29,1.14747e-24,1.1474799999999999e-24,1.14747e-24,3.6716600000000002e-30,-2.30026e-31,-3.7901600000000001e-30
1090.0,1.2216200000000001e-29,1.14746e-24,1.1474799999999999e-24,1.14747e-24,1.60918e-30,-2.8566399999999999e-31,-3.7939299999999997e-30
1091.0,1.12589e-29,1.14746e-24,1.14747e-24,1.14747e-24,-4.1739999999999998e-31,-2.2232499999999998e-31,-3.8574200000000002e-30
1092.0,1.17731e-29,1.14746e-24,1.14747e-24,1.14747e-24,-1.99265e-30,-6.20667e-31,-3.8206500000000003e-30
1093.0,1.9774000000000001e-29,1.14747e-24,1.1474799999999999e-24,1.14747e-24,8.7301399999999996e-30,7.5210799999999999e-32,-5.7507300000000002e-30
1094.0,1.7780900000000001e-29,1.14747e-24,1.1474799999999999e-24,1.14747e-24,7.0061699999999993e-30,9.8853400000000001e-33,-5.7732100000000002e-30
1095.0,1.5906800000000001e-29,1.14747e-24,1.1474799999999999e-24,1.14747e-24,5.2316100000000002e-30,2.9124400000000001e-33,-5.73702e-30
1096.0,1.4866699999999999e-29,1.14747e-24,1.1474799999999999e-24,1.14747e-24,3.3943899999999999e-30,-2.5070600000000001e-32,-5.9028399999999998e-30
1097.0,1.3761200000000001e-29,1.14747e-24,1.1474799999999999e-24,1.14747e-24,1.47126e-30,3.6180500000000002e-32,-5.9564200000000003e-30
1098.0,1.35822e-29,1.14746e-24,1.14747e-24,1.14747e-24,-4.0564299999999996e-31,2.3347900000000001e-33,-5.8676199999999998e-30
1099.0,1.42785e-29,1.14746e-24,1.14747e-24,1.14747e-24,-2.53796e-30,2.2277499999999998e-31,-6.2061799999999999e-30
1100.0,2.10653e-29,1.14747e-24,1.1474799999999999e-24,1.14747e-24,8.3141800000000003e-30,2.0146199999999998e-31,-7.7622000000000001e-30
1101.0,1.8962600000000001e-29,1.14747e-24,1.1474799999999999e-24,1.14747e-24,6.6057899999999995e-30,1.94806e-31,-7.6012900000000002e-30
1102.0,1.77856e-29,1.14747e-24,1.1474799999999999e-24,1.14747e-24,4.9152599999999997e-30,1.81038e-31,-7.7886099999999999e-30
1103.0,1.66654e-29,1.14747e-24,1.1474799999999999e-24,1.14747e-24,3.0982000000000001e-30,2.3854300000000002e-31,-7.8613399999999995e-30
1104.0,1.6256999999999999e-29,1.14747e-24,1.1474799999999999e-24,1.14747e-24,1.3131000000000001e-30,2.5754899999999999e-31,-8.0083500000000001e-30
1105.0,1.6319699999999999e-29,1.14747e-24,1.14747e-24,1.14747e-24,-5.7777800000000003e-31,3.6984999999999999e-31,-8.2102299999999993e-30
1106.0,1.6483499999999999e-29,1.14746e-24,1.14747e-24,1.14747e-24,-2.2926799999999999e-30,3.6958700000000002e-31,-8.0342400000000006e-30
1107.0,2.2438499999999999e-29,1.14747e-24,1.1474799999999999e-24,1.1474799999999999e-24,7.8291700000000001e-30,3.35484e-31,-9.5299499999999997e-30
1108.0,2.0906200000000001e-29,1.14747e-24,1.1474799999999999e-24,1.1474799999999999e-24,6.2411900000000002e-30,3.4062199999999998e-31,-9.5289600000000004e-30
1109.0,1.9694299999999999e-29,1.14747e-24,1.1474799999999999e-24,1.14747e-24,4.5347800000000002e-30,4.0350500000000002e-31,-9.5968200000000001e-30
1110.0,1.9223900000000001e-29,1.14747e-24,1.1474799999999999e-24,1.14747e-24,2.8808100000000002e-30,4.3557300000000004e-31,-9.8552999999999997e-30
1111.0,1.89374e-29,1.14747e-24,1.1474799999999999e-24,1.14747e-24,1.0771799999999999e-30,5.3998999999999998e-31,-1.0025900000000001e-29
1112.0,1.90813e-29,1.14747e-24,1.14747e-24,1.14747e-24,-6.6534900000000003e-31,6.04233e-31,-1.01438e-29
1113.0,2.0161599999999999e-29,1.14746e-24,1.14747e-24,1.14747e-24,-2.5279500000000002e-30,6.9386300000000004e-31,-1.05708e-29
1114.0,2.42667e-29,1.14747e-24,1.1474799999999999e-24,1.1474799999999999e-24,7.4215099999999998e-30,4.60736e-31,-1.1258399999999999e-29
1115.0,2.2880000000000001e-29,1.14747e-24,1.1474799999999999e-24,1.1474799999999999e-24,5.8810599999999997e-30,5.0211499999999997e-31,-1.12217e-29
1116.0,2.22357e-29,1.14747e-24,1.1474799999999999e-24,1.14747e-24,4.3625399999999998e-30,5.5698100000000001e-31,-1.1461500000000001e-29
1117.0,2.1824100000000001e-29,1.14747e-24,1.1474799999999999e-24,1.14747e-24,2.6509500000000001e-30,6.7572300000000003e-31,-1.1689000000000001e-29
1118.0,2.1845599999999999e-29,1.14747e-24,1.14747e-24,1.14747e-24,9.9269400000000008e-31,7.5001199999999999e-31,-1.1943999999999999e-29
1119.0,2.22246e-29,1.14747e-24,1.14747e-24,1.14747e-24,-7.8185999999999997e-31,8.7396299999999995e-31,-1.2200399999999999e-29
1120.0,2.2636999999999999e-29,1.14746e-24,1.14747e-24,1.14747e-24,-2.5012900000000001e-30,1.03252e-30,-1.22975e-29
1121.0,2.5899700000000002e-29,1.14747e-24,1.1474799999999999e-24,1.1474799999999999e-24,7.0474200000000002e-30,5.35404e-31,-1.26449e-29
1122.0,2.5326099999999998e-29,1.14747e-24,1.1474799999999999e-24,1.1474799999999999e-24,5.8143999999999999e-30,6.32446e-31,-1.2893199999999999e-29
1123.0,2.49548e-29,1.14747e-24,1.1474799999999999e-24,1.14747e-24,4.2824000000000003e-30,7.2069199999999999e-31,-1.32244e-29
1124.0,2.4903000000000001e-29,1.14747e-24,1.14747e-24,1.14747e-24,2.7007399999999999e-30,8.4540899999999994e-31,-1.35842e-29
1125.0,2.5072599999999999e-29,1.14747e-24,1.14747e-24,1.14747e-24,9.5943099999999997e-31,1.00368e-30,-1.3901499999999999e-29
1126.0,2.5394900000000002e-29,1.14746e-24,1.14747e-24,1.14747e-24,-7.6423300000000003e-31,1.1079199999999999e-30,-1.4131000000000001e-29
1127.0,2.6339299999999999e-29,1.14746e-24,1.14747e-24,1.14747e-24,-2.6245200000000001e-30,1.24373e-30,-1.4510800000000001e-29
1128.0,2.0477400000000001e-29,1.14746e-24,1.14747e-24,1.14746e-24,8.7145499999999995e-30,-2.0340499999999999e-31,-1.6734699999999999e-30
1129.0,1.89115e-29,1.14746e-24,1.14747e-24,1.14746e-24,7.2951700000000005e-30,-5.0092299999999997e-31,-1.6266100000000001e-30
1130.0,1.82611e-29,1.14746e-24,1.14747e-24,1.14746e-24,5.5276599999999999e-30,-4.4698200000000001e-31,-1.61572e-30
1131.0,1.62605e-29,1.14746e-24,1.14747e-24,1.14746e-24,3.6019000000000001e-30,-6.4645799999999997e-31,-1.48862e-30
1132.0,1.6689799999999999e-29,1.1474499999999999e-24,1.14747e-24,1.14746e-24,1.82671e-30,-7.3165299999999997e-31,-1.6891800000000001e-30
1133.0,1.57306e-29,1.1474499999999999e-24,1.14747e-24,1.14746e-24,-4.9485600000000001e-31,-4.9724199999999998e-31,-1.3909799999999999e-30
1134.0,1.5909100000000001e-29,1.1474499999999999e-24,1.14747e-24,1.14746e-24,-1.9764999999999999e-30,-1.33053e-30,-1.6669e-30
1135.0,2.05349e-29,1.14746e-24,1.1474799999999999e-24,1.14747e-24,8.5641099999999999e-30,-2.13595e-31,-3.6121000000000002e-30
1136.0,1.91742e-29,1.14746e-24,1.14747e-24,1.14746e-24,6.9448700000000003e-30,-2.5229199999999998e-31,-3.61601e-30
1137.0,1.7639599999999999e-29,1.14746e-24,1.14747e-24,1.14746e-24,5.2440799999999999e-30,-3.5279100000000001e-31,-3.5899300000000003e-30
1138.0,1.7195e-29,1.14746e-24,1.14747e-24,1.14746e-24,3.41952e-30,-3.6063e-31,-3.6705200000000001e-30
1139.0,1.61195e-29,1.14746e-24,1.14747e-24,1.14746e-24,1.4929200000000001e-30,-4.4480999999999999e-31,-3.6786299999999999e-30
1140.0,1.6682699999999999e-29,1.1474499999999999e-24,1.14747e-24,1.14746e-24,-2.46162e-31,-4.8654399999999997e-31,-3.8012300000000001e-30
1141.0,1.66415e-29,1.1474499999999999e-24,1.14747e-24,1.14746e-24,-2.5061400000000001e-30,-8.9138100000000002e-32,-3.7129400000000002e-30
1142.0,2.1040400000000001e-29,1.14746e-24,1.1474799999999999e-24,1.14747e-24,8.2177799999999993e-30,-7.2499600000000005e-32,-5.6054500000000001e-30
1143.0,1.9395900000000001e-29,1.14746e-24,1.1474799999999999e-24,1.14747e-24,6.6143399999999995e-30,-1.20591e-31,-5.5007000000000003e-30
1144.0,1.8518700000000001e-29,1.14746e-24,1.14747e-24,1.14746e-24,4.9774000000000002e-30,-1.57888e-31,-5.6307500000000003e-30
1145.0,1.76192e-29,1.14746e-24,1.14747e-24,1.14746e-24,3.1783099999999998e-30,-1.8818e-31,-5.6879500000000003e-30
1146.0,1.75286e-29,1.14746e-24,1.14747e-24,1.14746e-24,1.37359e-30,-1.4219800000000001e-31,-5.80851e-30
1147.0,1.7232400000000001e-29,1.1474499999999999e-24,1.14747e-24,1.14746e-24,-5.27343e-31,-1.5983e-31,-5.93486e-30
1148.0,1.82913e-29,1.1474499999999999e-24,1.14747e-24,1.14746e-24,-2.1065999999999999e-30,-2.3711500000000001e-31,-6.0307399999999997e-30
1149.0,2.18611e-29,1.14746e-24,1.1474799999999999e-24,1.14747e-24,7.8236999999999998e-30,3.3670000000000002e-32,-7.4563300000000001e-30
1150.0,2.0476300000000001e-29,1.14746e-24,1.14747e-24,1.14747e-24,6.2754799999999999e-30,1.94528e-32,-7.4537899999999995e-30
1151.0,1.94719e-29,1.14746e-24,1.14747e-24,1.14747e-24,4.63918e-30,1.76499e-32,-7.5301100000000003e-30
1152.0,1.9111099999999999e-29,1.14746e-24,1.14747e-24,1.14746e-24,2.9500200000000002e-30,4.9176400000000001e-32,-7.7399600000000005e-30
1153.0,1.8941299999999999e-29,1.14746e-24,1.14747e-24,1.14746e-24,1.17397e-30,6.1457899999999998e-32,-7.9034299999999996e-30
1154.0,1.9364600000000001e-29,1.14746e-24,1.14747e-24,1.14746e-24,-5.6056300000000001e-31,1.61822e-31,-8.0418700000000003e-30
1155.0,1.9859200000000001e-29,1.1474499999999999e-24,1.14747e-24,1.14746e-24,-2.4646699999999999e-30,2.5422200000000002e-31,-8.2662400000000001e-30
1156.0,2.31004e-29,1.14746e-24,1.1474799999999999e-24,1.14747e-24,7.4167100000000002e-30,1.3346e-31,-9.2955399999999998e-30
1157.0,2.1788500000000001e-29,1.14746e-24,1.1474799999999999e-24,1.14747e-24,5.8737899999999999e-30,1.74524e-31,-9.2360099999999996e-30
1158.0,2.1175499999999999e-29,1.14746e-24,1.14747e-24,1.14747e-24,4.3507999999999998e-30,2.0058600000000001e-31,-9.44265e-30
1159.0,2.0850399999999999e-29,1.14746e-24,1.14747e-24,1.14746e-24,2.6906799999999999e-30,2.4055999999999998e-31,-9.6497800000000003e-30
1160.0,2.1032e-29,1.14746e-24,1.14747e-24,1.14746e-24,1.0266400000000001e-30,3.2690100000000001e-31,-9.9190100000000006e-30
1161.0,2.13853e-29,1.14746e-24,1.14747e-24,1.14746e-24,-6.88727e-31,3.9166300000000001e-31,-1.0147999999999999e-29
1162.0,2.2274899999999999e-29,1.1474499999999999e-24,1.14747e-24,1.14746e-24,-2.3395400000000001e-30,5.3678400000000002e-31,-1.0370499999999999e-29
1163.0,2.45371e-29,1.14746e-24,1.1474799999999999e-24,1.14747e-24,6.9752800000000001e-30,2.5231899999999998e-31,-1.09446e-29
1164.0,2.35887e-29,1.14746e-24,1.14747e-24,1.14747e-24,5.6089600000000002e-30,2.8924999999999999e-31,-1.09781e-29
1165.0,2.31163e-29,1.14746e-24,1.14747e-24,1.14747e-24,4.1112400000000003e-30,3.55443e-31,-1.11868e-29
1166.0,2.3120400000000001e-29,1.14746e-24,1.14747e-24,1.14746e-24,2.5546199999999998e-30,4.4298199999999999e-31,-1.15196e-29
1167.0,2.3323000000000001e-29,1.14746e-24,1.14747e-24,1.14746e-24,9.0685200000000008e-31,5.3122700000000004e-31,-1.1799100000000001e-29
1168.0,2.39724e-29,1.14746e-24,1.14747e-24,1.14746e-24,-7.5710399999999997e-31,6.6669199999999996e-31,-1.20896e-29
1169.0,2.47257e-29,1.14746e-24,1.14747e-24,1.14746e-24,-2.50006e-30,7.0659699999999999e-31,-1.24069e-29
1170.0,2.6088999999999998e-29,1.14746e-24,1.14747e-24,1.14747e-24,6.6911100000000005e-30,3.3916899999999999e-31,-1.23084e-29
1171.0,2.56761e-29,1.14746e-24,1.14747e-24,1.14747e-24,5.4881500000000002e-30,3.8607499999999998e-31,-1.2565e-29
1172.0,2.5570499999999998e-29,1.14746e-24,1.14747e-24,1.14747e-24,4.0722499999999999e-30,4.7542099999999998e-31,-1.2951000000000001e-29
1173.0,2.5718799999999999e-29,1.14746e-24,1.14747e-24,1.14746e-24,2.5275999999999999e-30,5.9758799999999998e-31,-1.33104e-29
1174.0,2.6123799999999998e-29,1.14746e-24,1.14747e-24,1.14746e-24,8.9193599999999998e-31,7.49314e-31,-1.3691700000000001e-29
1175.0,2.6686099999999997e-29,1.14746e-24,1.14747e-24,1.14746e-24,-7.7932499999999996e-31,8.3129199999999996e-31,-1.40158e-29
1176.0,2.7279e-29,1.1474499999999999e-24,1.14747e-24,1.14746e-24,-2.4091e-30,1.0780999999999999e-30,-1.4268999999999999e-29
1177.0,2.2543599999999999e-29,1.1474499999999999e-24,1.14747e-24,1.14746e-24,8.2682299999999995e-30,-5.2126100000000002e-31,-1.5692e-30
1178.0,2.2388800000000001e-29,1.1474499999999999e-24,1.14747e-24,1.1474499999999999e-24,6.8724199999999994e-30,-4.1834100000000003e-31,-1.55133e-30
1179.0,2.0651200000000001e-29,1.1474499999999999e-24,1.14747e-24,1.1474499999999999e-24,4.9832700000000002e-30,-6.7899800000000002e-31,-1.41677e-30
1180.0,2.1632700000000001e-29,1.1474499999999999e-24,1.14747e-24,1.1474499999999999e-24,3.4136300000000001e-30,-7.2621499999999998e-31,-1.56258e-30
1181.0,2.0564000000000001e-29,1.1474499999999999e-24,1.14747e-24,1.1474499999999999e-24,1.2198799999999999e-30,-7.0341999999999997e-31,-1.33233e-30
1182.0,2.1329800000000001e-29,1.14744e-24,1.14747e-24,1.1474499999999999e-24,-3.2668299999999998e-31,-1.0578399999999999e-30,-1.57024e-30
1183.0,2.18377e-29,1.14744e-24,1.14746e-24,1.1474499999999999e-24,-2.62162e-30,-3.7817299999999998e-31,-1.3220300000000001e-30
1184.0,2.26884e-29,1.1474499999999999e-24,1.14747e-24,1.14746e-24,7.9610199999999995e-30,-2.74592e-31,-3.5278500000000003e-30
1185.0,2.1387100000000001e-29,1.1474499999999999e-24,1.14747e-24,1.14746e-24,6.4699999999999997e-30,-4.0024199999999997e-31,-3.4746299999999997e-30
1186.0,2.1342499999999999e-29,1.1474499999999999e-24,1.14747e-24,1.1474499999999999e-24,4.9040500000000003e-30,-4.3475800000000003e-31,-3.5132099999999998e-30
1187.0,2.05896e-29,1.1474499999999999e-24,1.14747e-24,1.1474499999999999e-24,3.0452500000000001e-30,-5.51219e-31,-3.5329200000000002e-30
1188.0,2.1142499999999999e-29,1.1474499999999999e-24,1.14747e-24,1.1474499999999999e-24,1.3348e-30,-5.1374999999999999e-31,-3.6635e-30
1189.0,2.0959599999999999e-29,1.14744e-24,1.14747e-24,1.1474499999999999e-24,-6.91696e-31,-5.6333100000000003e-31,-3.5976700000000002e-30
1190.0,2.19779e-29,1.14744e-24,1.14747e-24,1.1474499999999999e-24,-2.2467500000000001e-30,-8.5070400000000007e-31,-3.7921300000000002e-30
1191.0,2.2686500000000001e-29,1.1474499999999999e-24,1.14747e-24,1.14746e-24,7.6312699999999997e-30,-1.7412499999999999e-31,-5.41723e-30
1192.0,2.1925899999999999e-29,1.1474499999999999e-24,1.14747e-24,1.14746e-24,6.2501599999999999e-30,-2.6087600000000001e-31,-5.4222000000000002e-30
1193.0,2.1217000000000001e-29,1.1474499999999999e-24,1.14747e-24,1.14746e-24,4.6010600000000002e-30,-3.18539e-31,-5.4744799999999998e-30
1194.0,2.1273100000000001e-29,1.1474499999999999e-24,1.14747e-24,1.1474499999999999e-24,2.90208e-30,-2.7721500000000001e-31,-5.6088999999999997e-30
1195.0,2.1173700000000001e-29,1.1474499999999999e-24,1.14747e-24,1.1474499999999999e-24,1.1077599999999999e-30,-3.82986e-31,-5.7315800000000003e-30
1196.0,2.2079799999999999e-29,1.1474499999999999e-24,1.14747e-24,1.1474499999999999e-24,-5.7656099999999996e-31,-2.5915e-31,-5.9136800000000001e-30
1197.0,2.2231500000000001e-29,1.14744e-24,1.14746e-24,1.1474499999999999e-24,-2.57757e-30,-8.5211500000000004e-32,-5.8940999999999999e-30
1198.0,2.3324499999999999e-29,1.14746e-24,1.14747e-24,1.14746e-24,7.3131099999999998e-30,-1.2207799999999999e-31,-7.3035999999999996e-30
1199.0,2.2430700000000001e-29,1.1474499999999999e-24,1.14747e-24,1.14746e-24,5.8975700000000001e-30,-1.13354e-31,-7.2926600000000004e-30
1200.0,2.1925599999999999e-29,1.1474499999999999e-24,1.14747e-24,1.14746e-24,4.3422199999999999e-30,-1.2102200000000001e-31,-7.4068999999999998e-30
1201.0,2.1991199999999999e-29,1.1474499999999999e-24,1.14747e-24,1.14746e-24,2.6722500000000001e-30,-1.46282e-31,-7.5985300000000005e-30
1202.0,2.2368000000000001e-29,1.1474499999999999e-24,1.14747e-24,1.1474499999999999e-24,9.8539800000000003e-31,-4.3417099999999999e-32,-7.8136300000000005e-30
1203.0,2.2652099999999999e-29,1.1474499999999999e-24,1.14747e-24,1.1474499999999999e-24,-7.47662e-31,-7.64753e-32,-7.9914099999999994e-30
1204.0,2.4078500000000001e-29,1.14744e-24,1.14746e-24,1.1474499999999999e-24,-2.33016e-30,-4.2877800000000002e-32,-8.2739200000000003e-30
1205.0,2.41972e-29,1.14746e-24,1.14747e-24,1.14746e-24,6.8922399999999993e-30,3.3048699999999998e-32,-9.0854500000000006e-30
1206.0,2.3439800000000001e-29,1.14746e-24,1.14747e-24,1.14746e-24,5.58317e-30,8.3948499999999998e-33,-9.0980299999999999e-30
1207.0,2.31636e-29,1.1474499999999999e-24,1.14747e-24,1.14746e-24,4.0717499999999999e-30,3.0609900000000002e-32,-9.2820400000000001e-30
1208.0,2.3299900000000001e-29,1.1474499999999999e-24,1.14747e-24,1.14746e-24,2.4787599999999999e-30,8.2005800000000001e-32,-9.5572599999999999e-30
1209.0,2.3679199999999999e-29,1.1474499999999999e-24,1.14747e-24,1.1474499999999999e-24,8.5750699999999997e-31,9.9175899999999995e-32,-9.8106700000000004e-30
1210.0,2.4539599999999999e-29,1.1474499999999999e-24,1.14747e-24,1.1474499999999999e-24,-7.9671800000000004e-31,2.49277e-31,-1.01203e-29
1211.0,2.4884899999999999e-29,1.1474499999999999e-24,1.14746e-24,1.1474499999999999e-24,-2.51986e-30,3.1490999999999999e-31,-1.02193e-29
1212.0,2.5379099999999998e-29,1.14746e-24,1.14747e-24,1.14746e-24,6.5557000000000006e-30,8.39364e-32,-1.06891e-29
1213.0,2.4859499999999999e-29,1.14746e-24,1.14747e-24,1.14746e-24,5.30027e-30,1.4911799999999999e-31,-1.07785e-29
1214.0,2.47254e-29,1.1474499999999999e-24,1.14747e-24,1.14746e-24,3.8923000000000002e-30,1.7052800000000001e-31,-1.10404e-29
1215.0,2.5030100000000001e-29,1.1474499999999999e-24,1.14747e-24,1.14746e-24,2.3664500000000002e-30,2.5309399999999998e-31,-1.13555e-29
1216.0,2.5633699999999997e-29,1.1474499999999999e-24,1.14747e-24,1.1474499999999999e-24,7.8174899999999996e-31,3.37719e-31,-1.17284e-29
1217.0,2.6116999999999998e-29,1.1474499999999999e-24,1.14747e-24,1.1474499999999999e-24,-8.2135099999999993e-31,4.2362699999999997e-31,-1.19674e-29
1218.0,2.7385700000000002e-29,1.1474499999999999e-24,1.14746e-24,1.1474499999999999e-24,-2.4347600000000001e-30,6.5728899999999997e-31,-1.24237e-29
1219.0,2.6816099999999998e-29,1.14746e-24,1.14747e-24,1.14746e-24,6.2842399999999998e-30,1.7562999999999999e-31,-1.20552e-29
1220.0,2.6475200000000002e-29,1.14746e-24,1.14747e-24,1.14746e-24,5.1572900000000001e-30,2.09498e-31,-1.2261500000000001e-29
1221.0,2.6675499999999999e-29,1.1474499999999999e-24,1.14747e-24,1.14746e-24,3.8391200000000002e-30,3.0699499999999998e-31,-1.2635300000000001e-29
1222.0,2.7091299999999998e-29,1.1474499999999999e-24,1.14747e-24,1.14746e-24,2.34015e-30,3.7548600000000001e-31,-1.3058799999999999e-29
1223.0,2.7634200000000002e-29,1.1474499999999999e-24,1.14747e-24,1.14746e-24,7.6969100000000002e-31,5.5577500000000002e-31,-1.3386399999999999e-29
1224.0,2.8498400000000001e-29,1.1474499999999999e-24,1.14747e-24,1.1474499999999999e-24,-8.5017199999999995e-31,6.7001299999999997e-31,-1.38022e-29
1225.0,2.9149999999999998e-29,1.1474499999999999e-24,1.14746e-24,1.1474499999999999e-24,-2.5484200000000002e-30,6.6983900000000003e-31,-1.4069899999999999e-29
1226.0,2.5486000000000002e-29,1.1474499999999999e-24,1.14747e-24,1.1474499999999999e-24,7.7945599999999995e-30,-3.4372800000000001e-31,-1.56601e-30
1227.0,2.3824499999999999e-29,1.14744e-24,1.14747e-24,1.1474499999999999e-24,6.07361e-30,-6.4898000000000002e-31,-1.3908599999999999e-30
1228.0,2.5457799999999999e-29,1.14744e-24,1.14747e-24,1.1474499999999999e-24,4.8549899999999999e-30,-7.0973700000000002e-31,-1.5131000000000001e-30
1229.0,2.4551200000000001e-29,1.14744e-24,1.14746e-24,1.14744e-24,2.6559900000000001e-30,-7.6054600000000003e-31,-1.31614e-30
1230.0,2.5943699999999998e-29,1.14744e-24,1.14746e-24,1.14744e-24,1.13451e-30,-9.8382999999999999e-31,-1.5075999999999999e-30
1231.0,2.6083299999999998e-29,1.14743e-24,1.14746e-24,1.14744e-24,-1.0314099999999999e-30,-8.0547600000000001e-31,-1.29469e-30
1232.0,2.6653799999999999e-29,1.14743e-24,1.14746e-24,1.14744e-24,-2.6056500000000001e-30,-1.4243400000000001e-30,-1.41241e-30
1233.0,2.4309699999999999e-29,1.1474499999999999e-24,1.14747e-24,1.1474499999999999e-24,7.3444500000000007e-30,-3.7649100000000001e-31,-3.4524699999999998e-30
1234.0,2.4593999999999999e-29,1.14744e-24,1.14747e-24,1.1474499999999999e-24,6.1757400000000002e-30,-4.4907100000000001e-31,-3.4603e-30
1235.0,2.41679e-29,1.14744e-24,1.14747e-24,1.1474499999999999e-24,4.39891e-30,-5.7316300000000003e-31,-3.4728400000000002e-30
1236.0,2.50539e-29,1.14744e-24,1.14746e-24,1.14744e-24,2.7929800000000001e-30,-5.7601000000000003e-31,-3.59286e-30
1237.0,2.5168899999999999e-29,1.14744e-24,1.14746e-24,1.14744e-24,8.4720000000000003e-31,-7.02388e-31,-3.5844899999999999e-30
1238.0,2.6225199999999998e-29,1.14743e-24,1.14746e-24,1.14744e-24,-7.8572200000000003e-31,-7.6025400000000004e-31,-3.7743900000000001e-30
1239.0,2.67086e-29,1.14743e-24,1.14746e-24,1.14744e-24,-2.80643e-30,-4.7419400000000004e-31,-3.6298800000000002e-30
1240.0,2.4610100000000001e-29,1.1474499999999999e-24,1.14747e-24,1.1474499999999999e-24,7.1665000000000004e-30,-2.8728700000000002e-31,-5.3666299999999997e-30
1241.0,2.43223e-29,1.1474499999999999e-24,1.14747e-24,1.1474499999999999e-24,5.8235600000000002e-30,-3.5525600000000001e-31,-5.3963400000000003e-30
1242.0,2.4590899999999999e-29,1.14744e-24,1.14747e-24,1.1474499999999999e-24,4.2749699999999998e-30,-3.6457300000000002e-31,-5.4805900000000002e-30
1243.0,2.4862399999999999e-29,1.14744e-24,1.14747e-24,1.1474499999999999e-24,2.55332e-30,-4.7273299999999998e-31,-5.6181399999999997e-30
1244.0,2.5736700000000002e-29,1.14744e-24,1.14746e-24,1.14744e-24,8.6545600000000002e-31,-3.9522300000000003e-31,-5.8109400000000003e-30
1245.0,2.6050999999999999e-29,1.14744e-24,1.14746e-24,1.14744e-24,-9.7087999999999994e-31,-4.7045699999999999e-31,-5.858e-30
1246.0,2.7451300000000002e-29,1.14743e-24,1.14746e-24,1.14744e-24,-2.5282100000000001e-30,-5.9063300000000003e-31,-6.0812500000000003e-30
1247.0,2.5029599999999999e-29,1.1474499999999999e-24,1.14747e-24,1.1474499999999999e-24,6.8339800000000002e-30,-1.7862599999999999e-31,-7.2750700000000003e-30
1248.0,2.4758600000000001e-29,1.1474499999999999e-24,1.14747e-24,1.1474499999999999e-24,5.5604500000000003e-30,-2.2354699999999998e-31,-7.2755000000000006e-30
1249.0,2.49539e-29,1.14744e-24,1.14747e-24,1.1474499999999999e-24,4.0439499999999997e-30,-2.6948799999999998e-31,-7.4372699999999998e-30
1250.0,2.5498699999999998e-29,1.14744e-24,1.14747e-24,1.1474499999999999e-24,2.39618e-30,-2.0873099999999998e-31,-7.6329299999999998e-30
1251.0,2.6046799999999997e-29,1.14744e-24,1.14746e-24,1.14744e-24,7.2513399999999999e-31,-2.7524500000000001e-31,-7.8507800000000002e-30
1252.0,2.7136700000000002e-29,1.14744e-24,1.14746e-24,1.14744e-24,-9.1568400000000006e-31,-1.3887599999999999e-31,-8.1275200000000007e-30
1253.0,2.7297400000000002e-29,1.14744e-24,1.14746e-24,1.14744e-24,-2.69703e-30,3.49174e-33,-8.0968300000000006e-30
1254.0,2.5651399999999998e-29,1.1474499999999999e-24,1.14747e-24,1.14746e-24,6.5203700000000003e-30,-1.10104e-31,-9.0110500000000001e-30
1255.0,2.5500300000000002e-29,1.1474499999999999e-24,1.14747e-24,1.1474499999999999e-24,5.3057900000000001e-30,-1.1180199999999999e-31,-9.0853400000000003e-30
1256.0,2.5581999999999999e-29,1.1474499999999999e-24,1.14747e-24,1.1474499999999999e-24,3.8130800000000003e-30,-7.4966200000000001e-32,-9.2511699999999994e-30
1257.0,2.6171500000000002e-29,1.14744e-24,1.14747e-24,1.1474499999999999e-24,2.2643199999999999e-30,-9.4805199999999996e-32,-9.5300099999999995e-30
1258.0,2.7008199999999999e-29,1.14744e-24,1.14746e-24,1.1474499999999999e-24,6.2959299999999998e-31,2.6520799999999999e-32,-9.8425999999999995e-30
1259.0,2.75006e-29,1.14744e-24,1.14746e-24,1.14744e-24,-9.9157299999999999e-31,3.5316699999999998e-32,-1.0036599999999999e-29
1260.0,2.9271299999999998e-29,1.14744e-24,1.14746e-24,1.14744e-24,-2.5375899999999998e-30,8.2446800000000001e-32,-1.0525499999999999e-29
1261.0,2.6686000000000002e-29,1.1474499999999999e-24,1.14747e-24,1.14746e-24,6.2219999999999997e-30,5.3993200000000002e-33,-1.06123e-29
1262.0,2.6393799999999997e-29,1.1474499999999999e-24,1.14747e-24,1.14746e-24,5.0508600000000003e-30,1.21314e-32,-1.06778e-29
1263.0,2.6777399999999999e-29,1.1474499999999999e-24,1.14747e-24,1.1474499999999999e-24,3.6905e-30,3.1000300000000002e-32,-1.09758e-29
1264.0,2.7288800000000001e-29,1.1474499999999999e-24,1.14747e-24,1.1474499999999999e-24,2.1623400000000001e-30,9.8480299999999995e-32,-1.13097e-29
1265.0,2.79536e-29,1.14744e-24,1.14746e-24,1.1474499999999999e-24,5.9024499999999997e-31,1.70676e-31,-1.16149e-29
1266.0,2.9198e-29,1.14744e-24,1.14746e-24,1.1474499999999999e-24,-1.00778e-30,3.21698e-31,-1.205e-29
1267.0,2.9221500000000001e-29,1.14744e-24,1.14746e-24,1.14744e-24,-2.6125099999999998e-30,4.2098300000000001e-31,-1.20366e-29
1268.0,2.7255200000000002e-29,1.1474499999999999e-24,1.14747e-24,1.14746e-24,5.9164299999999998e-30,7.1627299999999995e-32,-1.17141e-29
1269.0,2.7662100000000002e-29,1.1474499999999999e-24,1.14747e-24,1.14746e-24,4.9665300000000001e-30,1.27577e-31,-1.2046400000000001e-29
1270.0,2.7940200000000003e-29,1.1474499999999999e-24,1.14747e-24,1.1474499999999999e-24,3.6144400000000003e-30,1.38496e-31,-1.23854e-29
1271.0,2.8566400000000003e-29,1.1474499999999999e-24,1.14747e-24,1.1474499999999999e-24,2.17294e-30,2.7595200000000001e-31,-1.2760100000000001e-29
1272.0,2.94795e-29,1.14744e-24,1.14746e-24,1.1474499999999999e-24,5.7791799999999997e-31,3.7549200000000002e-31,-1.3239000000000001e-29
1273.0,2.9949800000000002e-29,1.14744e-24,1.14746e-24,1.1474499999999999e-24,-9.5641300000000003e-31,4.7146300000000003e-31,-1.3448199999999999e-29
1274.0,3.14277e-29,1.14744e-24,1.14746e-24,1.14744e-24,-2.5328899999999998e-30,7.6683999999999998e-31,-1.40432e-29
1275.0,2.5016e-29,1.14749e-24,1.14749e-24,1.14749e-24,-2.7152200000000001e-30,-5.4834600000000002e-30,1.2451800000000001e-29
1276.0,2.7476900000000002e-29,1.14749e-24,1.1474799999999999e-24,1.14749e-24,-2.6195600000000002e-30,-6.0374800000000002e-30,1.39207e-29
1277.0,2.4687e-29,1.1474799999999999e-24,1.1474799999999999e-24,1.1474799999999999e-24,-2.56683e-30,-4.85093e-30,1.31204e-29
1278.0,2.8585100000000002e-29,1.1474799999999999e-24,1.1474799999999999e-24,1.1474799999999999e-24,-2.4012599999999998e-30,-5.9473600000000003e-30,1.5203e-29
1279.0,2.66904e-29,1.14747e-24,1.1474799999999999e-24,1.14747e-24,-2.6836700000000001e-30,-4.7949599999999997e-30,1.4066600000000001e-29
1280.0,2.9124399999999999e-29,1.14747e-24,1.1474799999999999e-24,1.14747e-24,-2.3375900000000002e-30,-5.3951099999999999e-30,1.53759e-29
1281.0,2.7855399999999998e-29,1.14746e-24,1.14747e-24,1.14746e-24,-2.5872499999999999e-30,-4.4902900000000003e-30,1.4119600000000001e-29
1282.0,3.2416900000000001e-29,1.14746e-24,1.14747e-24,1.14746e-24,-2.71013e-30,-5.2805199999999998e-30,1.6309699999999999e-29
1283.0,3.1053400000000001e-29,1.14746e-24,1.14747e-24,1.14746e-24,-2.9266699999999999e-30,-4.2848899999999997e-30,1.4574600000000001e-29
1284.0,3.3093400000000002e-29,1.1474499999999999e-24,1.14747e-24,1.1474499999999999e-24,-2.6560800000000001e-30,-4.83198e-30,1.57266e-29
1285.0,3.2387699999999999e-29,1.1474499999999999e-24,1.14747e-24,1.1474499999999999e-24,-2.9131599999999999e-30,-4.2141600000000001e-30,1.41702e-29
1286.0,3.6788500000000002e-29,1.1474499999999999e-24,1.14747e-24,1.14744e-24,-3.2044899999999997e-30,-4.5791899999999997e-30,1.6134700000000001e-29
1287.0,3.5117200000000001e-29,1.14744e-24,1.14747e-24,1.14744e-24,-3.25896e-30,-3.8261399999999998e-30,1.4219100000000001e-29
1288.0,3.6675000000000001e-29,1.14744e-24,1.14746e-24,1.14744e-24,-3.1003700000000001e-30,-4.3444900000000002e-30,1.50893e-29
1289.0,2.45989e-29,1.14749e-24,1.14749e-24,1.14749e-24,-9.3633600000000007e-31,-5.13466e-30,1.25371e-29
1290.0,2.78921e-29,1.14749e-24,1.14749e-24,1.14749e-24,3.48236e-34,-6.4268600000000005e-30,1.4356e-29
1291.0,2.4504200000000001e-29,1.1474799999999999e-24,1.1474799999999999e-24,1.1474799999999999e-24,-4.4627800000000001e-31,-4.8943500000000002e-30,1.32606e-29
1292.0,2.7896300000000002e-29,1.1474799999999999e-24,1.1474799999999999e-24,1.1474799999999999e-24,1.0358499999999999e-31,-5.6751899999999997e-30,1.5055800000000001e-29
1293.0,2.5420599999999997e-29,1.14747e-24,1.1474799999999999e-24,1.14747e-24,-4.7600299999999999e-31,-4.5366000000000003e-30,1.3671500000000001e-29
1294.0,2.9635300000000002e-29,1.14747e-24,1.1474799999999999e-24,1.14747e-24,-2.28508e-32,-5.2656700000000002e-30,1.57546e-29
1295.0,2.7494199999999998e-29,1.14747e-24,1.1474799999999999e-24,1.14747e-24,-6.3526999999999999e-31,-4.2531799999999997e-30,1.4059299999999999e-29
1296.0,3.1095100000000002e-29,1.14746e-24,1.14747e-24,1.14746e-24,-2.7666799999999999e-31,-4.8567800000000001e-30,1.5812800000000001e-29
1297.0,2.9382200000000001e-29,1.14746e-24,1.14747e-24,1.14746e-24,-8.7005099999999993e-31,-4.0175499999999999e-30,1.4015e-29
1298.0,3.3585100000000002e-29,1.1474499999999999e-24,1.14747e-24,1.1474499999999999e-24,-6.6414800000000002e-31,-4.51149e-30,1.6018299999999999e-29
1299.0,3.1707100000000002e-29,1.1474499999999999e-24,1.14747e-24,1.1474499999999999e-24,-1.1550699999999999e-30,-3.7966600000000003e-30,1.3957599999999999e-29
1300.0,3.48709e-29,1.1474499999999999e-24,1.14747e-24,1.1474499999999999e-24,-9.6619000000000009e-31,-4.1908999999999998e-30,1.5545000000000001e-29
1301.0,3.3133700000000001e-29,1.14744e-24,1.14747e-24,1.14744e-24,-1.34353e-30,-3.6438899999999999e-30,1.35862e-29
1302.0,3.6871799999999998e-29,1.14744e-24,1.14746e-24,1.14744e-24,-1.34219e-30,-3.8774399999999999e-30,1.5043000000000001e-29
1303.0,2.4594500000000001e-29,1.14749e-24,1.14749e-24,1.14749e-24,1.52335e-30,-5.1326200000000001e-30,1.2573e-29
1304.0,2.7515700000000003e-29,1.14749e-24,1.14749e-24,1.14749e-24,1.65925e-30,-5.8256899999999997e-30,1.42665e-29
1305.0,2.4164899999999999e-29,1.1474799999999999e-24,1.1474799999999999e-24,1.1474799999999999e-24,1.5219500000000001e-30,-4.5263399999999997e-30,1.30925e-29
1306.0,2.7980000000000002e-29,1.1474799999999999e-24,1.1474799999999999e-24,1.1474799999999999e-24,2.2267900000000001e-30,-5.3106300000000002e-30,1.5065500000000001e-29
1307.0,2.51525e-29,1.1474799999999999e-24,1.1474799999999999e-24,1.1474799999999999e-24,1.51022e-30,-4.16989e-30,1.3534700000000001e-29
1308.0,2.9072999999999997e-29,1.14747e-24,1.1474799999999999e-24,1.14747e-24,2.0805e-30,-4.8250700000000001e-30,1.5458499999999999e-29
1309.0,2.6618299999999997e-29,1.14747e-24,1.1474799999999999e-24,1.14747e-24,1.29575e-30,-3.9115099999999999e-30,1.36717e-29
1310.0,3.0886000000000002e-29,1.14746e-24,1.1474799999999999e-24,1.14746e-24,1.7856299999999999e-30,-4.4209299999999998e-30,1.5721699999999999e-29
1311.0,2.86015e-29,1.14746e-24,1.14747e-24,1.14746e-24,1.0091900000000001e-30,-3.6394600000000002e-30,1.3703400000000001e-29
1312.0,3.2557999999999999e-29,1.14746e-24,1.14747e-24,1.1474499999999999e-24,1.3646500000000001e-30,-4.0970300000000001e-30,1.55996e-29
1313.0,3.0456400000000002e-29,1.1474499999999999e-24,1.14747e-24,1.1474499999999999e-24,6.8082399999999996e-31,-3.4360099999999999e-30,1.3503100000000001e-29
1314.0,3.4328899999999998e-29,1.1474499999999999e-24,1.14747e-24,1.1474499999999999e-24,9.59943e-31,-3.7783099999999998e-30,1.5311699999999999e-29
1315.0,3.2067999999999999e-29,1.1474499999999999e-24,1.14747e-24,1.1474499999999999e-24,4.1984599999999996e-31,-3.2957399999999998e-30,1.3169899999999999e-29
1316.0,3.5484200000000002e-29,1.14744e-24,1.14747e-24,1.14744e-24,5.6610100000000002e-31,-3.4739399999999998e-30,1.46933e-29
1317.0,2.44214e-29,1.14749e-24,1.14749e-24,1.14749e-24,2.9136300000000001e-30,-4.5284100000000002e-30,1.2452399999999999e-29
1318.0,2.7895399999999999e-29,1.14749e-24,1.14749e-24,1.14749e-24,3.9538399999999997e-30,-5.64156e-30,1.41064e-29
1319.0,2.4219300000000001e-29,1.14749e-24,1.1474799999999999e-24,1.14749e-24,3.3694199999999998e-30,-4.1639400000000003e-30,1.2893700000000001e-29
1320.0,2.7814700000000001e-29,1.1474799999999999e-24,1.1474799999999999e-24,1.1474799999999999e-24,3.9642499999999997e-30,-4.8875799999999997e-30,1.47335e-29
1321.0,2.4769100000000001e-29,1.1474799999999999e-24,1.1474799999999999e-24,1.1474799999999999e-24,3.2965899999999998e-30,-3.8095900000000002e-30,1.3137900000000001e-29
1322.0,2.8826700000000002e-29,1.1474799999999999e-24,1.1474799999999999e-24,1.14747e-24,3.9260999999999999e-30,-4.4224900000000003e-30,1.51323e-29
1323.0,2.6116399999999998e-29,1.14747e-24,1.1474799999999999e-24,1.14747e-24,3.0692600000000001e-30,-3.5031800000000003e-30,1.3286099999999999e-29
1324.0,3.0198899999999997e-29,1.14747e-24,1.1474799999999999e-24,1.14746e-24,3.5806299999999999e-30,-4.0456500000000003e-30,1.5243000000000001e-29
1325.0,2.7685300000000001e-29,1.14746e-24,1.14747e-24,1.14746e-24,2.7219799999999999e-30,-3.2917900000000002e-30,1.3227099999999999e-29
1326.0,3.1843899999999997e-29,1.14746e-24,1.14747e-24,1.14746e-24,3.1963999999999999e-30,-3.7211800000000001e-30,1.5167200000000001e-29
1327.0,2.93941e-29,1.1474499999999999e-24,1.14747e-24,1.1474499999999999e-24,2.4066199999999999e-30,-3.1134399999999998e-30,1.30087e-29
1328.0,3.32664e-29,1.1474499999999999e-24,1.14747e-24,1.1474499999999999e-24,2.7104400000000001e-30,-3.4261499999999997e-30,1.4832299999999999e-29
1329.0,3.0830000000000001e-29,1.1474499999999999e-24,1.14747e-24,1.1474499999999999e-24,2.1045899999999999e-30,-2.9361800000000002e-30,1.2709100000000001e-29
1330.0,3.4446600000000002e-29,1.14744e-24,1.14747e-24,1.14744e-24,2.3733300000000002e-30,-3.1737599999999998e-30,1.41973e-29
1331.0,2.4719800000000001e-29,1.1475e-24,1.14749e-24,1.14749e-24,5.1059999999999999e-30,-4.2371400000000001e-30,1.2026199999999999e-29
1332.0,2.74077e-29,1.1475e-24,1.14749e-24,1.14749e-24,5.1353499999999999e-30,-4.6640899999999997e-30,1.3711999999999999e-29
1333.0,2.4152099999999999e-29,1.14749e-24,1.1474799999999999e-24,1.14749e-24,4.9769100000000001e-30,-3.7270200000000003e-30,1.24308e-29
1334.0,2.7646999999999999e-29,1.14749e-24,1.1474799999999999e-24,1.1474799999999999e-24,5.6515900000000001e-30,-4.2921700000000001e-30,1.4234799999999999e-29
1335.0,2.4609099999999999e-29,1.1474799999999999e-24,1.1474799999999999e-24,1.1474799999999999e-24,4.9106400000000001e-30,-3.3889700000000001e-30,1.2690699999999999e-29
1336.0,2.82926e-29,1.1474799999999999e-24,1.1474799999999999e-24,1.14747e-24,5.5010800000000002e-30,-3.8914099999999998e-30,1.4522899999999999e-29
1337.0,2.5591500000000003e-29,1.14747e-24,1.1474799999999999e-24,1.14747e-24,4.6478099999999997e-30,-3.1593599999999997e-30,1.2735000000000001e-29
1338.0,2.9470199999999998e-29,1.14747e-24,1.1474799999999999e-24,1.14747e-24,5.2334400000000002e-30,-3.5661500000000001e-30,1.4621699999999999e-29
1339.0,2.6951099999999998e-29,1.14746e-24,1.1474799999999999e-24,1.14746e-24,4.3240400000000002e-30,-2.9353999999999999e-30,1.26623e-29
1340.0,3.0905900000000002e-29,1.14746e-24,1.14747e-24,1.14746e-24,4.7696399999999997e-30,-3.3153499999999999e-30,1.45344e-29
1341.0,2.8497400000000002e-29,1.14746e-24,1.14747e-24,1.14746e-24,3.9299599999999999e-30,-2.7782200000000001e-30,1.24697e-29
1342.0,3.22482e-29,1.1474499999999999e-24,1.14747e-24,1.1474499999999999e-24,4.37642e-30,-3.0790199999999999e-30,1.41925e-29
1343.0,2.9771599999999998e-29,1.1474499999999999e-24,1.14747e-24,1.1474499999999999e-24,3.6835299999999997e-30,-2.66372e-30,1.21005e-29
1344.0,3.3236300000000001e-29,1.1474499999999999e-24,1.14747e-24,1.1474499999999999e-24,3.94269e-30,-2.8124299999999998e-30,1.3627999999999999e-29
1345.0,2.4658699999999999e-29,1.1475e-24,1.14749e-24,1.14749e-24,6.1352800000000003e-30,-3.4066899999999997e-30,1.17302e-29
1346.0,2.7387300000000001e-29,1.1475e-24,1.14749e-24,1.14749e-24,7.1553899999999998e-30,-4.13582e-30,1.28962e-29
1347.0,2.42645e-29,1.14749e-24,1.14749e-24,1.14749e-24,6.4851300000000003e-30,-3.1656100000000002e-30,1.19354e-29
1348.0,2.7161499999999999e-29,1.14749e-24,1.1474799999999999e-24,1.1474799999999999e-24,7.0222499999999995e-30,-3.5953200000000002e-30,1.3457599999999999e-29
1349.0,2.4436e-29,1.1474799999999999e-24,1.1474799999999999e-24,1.1474799999999999e-24,6.3388199999999996e-30,-2.9396200000000002e-30,1.20844e-29
1350.0,2.7733399999999997e-29,1.1474799999999999e-24,1.1474799999999999e-24,1.1474799999999999e-24,6.96792e-30,-3.29688e-30,1.3748499999999999e-29
1351.0,2.5248500000000003e-29,1.14747e-24,1.1474799999999999e-24,1.14747e-24,6.06087e-30,-2.7173699999999999e-30,1.2149e-29
1352.0,2.86721e-29,1.14747e-24,1.1474799999999999e-24,1.14747e-24,6.6229499999999993e-30,-3.0634500000000001e-30,1.38338e-29
1353.0,2.6436900000000001e-29,1.14746e-24,1.1474799999999999e-24,1.14746e-24,5.6656400000000003e-30,-2.5839100000000001e-30,1.20747e-29
1354.0,2.9925499999999998e-29,1.14746e-24,1.1474799999999999e-24,1.14746e-24,6.2358899999999999e-30,-2.8637900000000001e-30,1.37232e-29
1355.0,2.7760500000000001e-29,1.14746e-24,1.14747e-24,1.14746e-24,5.3165300000000001e-30,-2.45601e-30,1.1859e-29
1356.0,3.1234600000000001e-29,1.14746e-24,1.14747e-24,1.1474499999999999e-24,5.7331400000000001e-30,-2.69561e-30,1.3475800000000001e-29
1357.0,2.8884800000000001e-29,1.1474499999999999e-24,1.14747e-24,1.1474499999999999e-24,4.9650599999999999e-30,-2.3365699999999999e-30,1.1578e-29
1358.0,3.2111199999999998e-29,1.1474499999999999e-24,1.14747e-24,1.1474499999999999e-24,5.4010299999999997e-30,-2.5149399999999998e-30,1.29084e-29
1359.0,2.4917099999999999e-29,1.1475e-24,1.14749e-24,1.14749e-24,7.8758699999999998e-30,-3.1133399999999999e-30,1.0896700000000001e-29
1360.0,2.6884499999999998e-29,1.1475e-24,1.14749e-24,1.14749e-24,7.9951099999999994e-30,-3.04143e-30,1.22829e-29
1361.0,2.43226e-29,1.14749e-24,1.14749e-24,1.14749e-24,7.6611699999999995e-30,-2.6828899999999999e-30,1.1365e-29
1362.0,2.6749300000000002e-29,1.14749e-24,1.14749e-24,1.14749e-24,8.4349000000000007e-30,-2.8491599999999999e-30,1.25177e-29
1363.0,2.4424499999999999e-29,1.1474799999999999e-24,1.1474799999999999e-24,1.1474799999999999e-24,7.5191699999999997e-30,-2.4687099999999998e-30,1.1527e-29
1364.0,2.7017600000000002e-29,1.1474799999999999e-24,1.1474799999999999e-24,1.1474799999999999e-24,8.2212299999999996e-30,-2.6404199999999999e-30,1.2744700000000001e-29
1365.0,2.5037599999999999e-29,1.14747e-24,1.1474799999999999e-24,1.14747e-24,7.1821599999999994e-30,-2.3600599999999999e-30,1.1542299999999999e-29
1366.0,2.7833600000000002e-29,1.14747e-24,1.1474799999999999e-24,1.14747e-24,7.9110599999999993e-30,-2.4919000000000001e-30,1.28184e-29
1367.0,2.6107399999999999e-29,1.14747e-24,1.1474799999999999e-24,1.14747e-24,6.8027400000000003e-30,-2.2409399999999998e-30,1.14649e-29
1368.0,2.9011900000000002e-29,1.14746e-24,1.1474799999999999e-24,1.14746e-24,7.4205499999999996e-30,-2.3907699999999999e-30,1.27939e-29
1369.0,2.72767e-29,1.14746e-24,1.14747e-24,1.14746e-24,6.3019100000000003e-30,-2.1776799999999999e-30,1.1299e-29
1370.0,3.0199400000000002e-29,1.14746e-24,1.14747e-24,1.14746e-24,6.9790700000000004e-30,-2.27403e-30,1.25458e-29
1371.0,2.8171199999999999e-29,1.1474499999999999e-24,1.14747e-24,1.1474499999999999e-24,5.9725900000000001e-30,-2.1288000000000001e-30,1.10019e-29
1372.0,3.1082000000000002e-29,1.1474499999999999e-24,1.14747e-24,1.1474499999999999e-24,6.4779200000000003e-30,-2.15717e-30,1.22318e-29
1373.0,2.69069e-29,1.14743e-24,1.14746e-24,1.14744e-24,-2.65526e-30,-1.0147700000000001e-30,1.05129e-30
1374.0,2.2063400000000001e-29,1.14744e-24,1.14747e-24,1.1474499999999999e-24,-2.6701e-30,-1.68326e-30,7.2671900000000003e-31
1375.0,1.5996000000000001e-29,1.1474499999999999e-24,1.14747e-24,1.14746e-24,-1.9723300000000001e-30,-5.9594999999999997e-31,7.67942e-31
1376.0,1.11396e-29,1.14746e-24,1.14747e-24,1.14747e-24,-2.5658000000000001e-30,-1.6422699999999998e-30,3.5836599999999999e-31
1377.0,4.5805399999999997e-30,1.1474799999999999e-24,1.1474799999999999e-24,1.1474799999999999e-24,-2.10499e-30,-2.0377200000000001e-31,5.3880100000000001e-32
1378.0,8.5856200000000005e-30,1.14749e-24,1.1474799999999999e-24,1.14749e-24,-3.1972499999999998e-30,-1.7478899999999998e-30,3.4809e-32
1379.0,2.07397e-29,1.1475e-24,1.1474799999999999e-24,1.1475e-24,-5.72142e-30,-7.5426899999999998e-31,-4.04924e-30
1380.0,2.73969e-29,1.14743e-24,1.14746e-24,1.14744e-24,-3.0002900000000001e-30,-1.96329e-30,3.2161100000000003e-30
1381.0,2.26468e-29,1.14744e-24,1.14747e-24,1.1474499999999999e-24,-2.34468e-30,-1.31869e-30,3.15023e-30
1382.0,1.70771e-29,1.1474499999999999e-24,1.14747e-24,1.14746e-24,-2.56145e-30,-1.78561e-30,2.8191999999999999e-30
1383.0,1.16341e-29,1.14746e-24,1.14747e-24,1.14747e-24,-1.9692899999999998e-30,-1.0992900000000001e-30,2.4958400000000001e-30
1384.0,7.7884399999999999e-30,1.14747e-24,1.1474799999999999e-24,1.1474799999999999e-24,-2.6873e-30,-1.7149500000000001e-30,2.47765e-30
1385.0,6.7903600000000002e-30,1.14749e-24,1.1474799999999999e-24,1.14749e-24,-2.9529399999999999e-30,-1.19994e-30,1.19809e-31
1386.0,1.02915e-29,1.1475e-24,1.14749e-24,1.1475e-24,-2.27631e-30,-1.9046300000000001e-30,2.47229e-30
1387.0,2.8678000000000002e-29,1.14743e-24,1.14746e-24,1.14744e-24,-2.8172699999999999e-30,-1.92387e-30,5.5891800000000001e-30
1388.0,2.3225000000000001e-29,1.14744e-24,1.14747e-24,1.1474499999999999e-24,-2.75551e-30,-2.1352e-30,5.2081300000000001e-30
1389.0,1.8944100000000001e-29,1.1474499999999999e-24,1.14747e-24,1.1474499999999999e-24,-2.2079800000000001e-30,-1.7557799999999998e-30,5.0203400000000003e-30
1390.0,1.4031999999999999e-29,1.14746e-24,1.14747e-24,1.14747e-24,-2.5195399999999999e-30,-1.9788700000000001e-30,4.9303499999999998e-30
1391.0,8.9137199999999995e-30,1.14747e-24,1.1474799999999999e-24,1.14747e-24,-2.28537e-30,-1.7177100000000001e-30,3.6322999999999999e-30
1392.0,1.01367e-29,1.14749e-24,1.14749e-24,1.14749e-24,-2.5541400000000001e-30,-2.0685999999999999e-30,4.7075700000000003e-30
1393.0,1.5005100000000001e-29,1.1475e-24,1.14749e-24,1.1475e-24,-3.9180699999999998e-30,-1.42747e-30,2.4904299999999999e-30
1394.0,2.8701499999999998e-29,1.14744e-24,1.14746e-24,1.14744e-24,-3.0842500000000002e-30,-2.5994899999999999e-30,7.5268699999999998e-30
1395.0,2.53462e-29,1.1474499999999999e-24,1.14747e-24,1.1474499999999999e-24,-2.5956299999999999e-30,-2.2912000000000002e-30,7.4501000000000002e-30
1396.0,2.04434e-29,1.14746e-24,1.14747e-24,1.14746e-24,-2.59669e-30,-2.3620599999999999e-30,7.2037600000000003e-30
1397.0,1.62184e-29,1.14746e-24,1.14747e-24,1.14746e-24,-2.2887800000000001e-30,-2.26749e-30,6.5947299999999994e-30
1398.0,1.4096099999999999e-29,1.1474799999999999e-24,1.1474799999999999e-24,1.1474799999999999e-24,-2.4913499999999999e-30,-2.38335e-30,6.9087800000000003e-30
1399.0,1.1613799999999999e-29,1.14749e-24,1.1474799999999999e-24,1.14749e-24,-2.7519199999999999e-30,-2.17965e-30,5.3249100000000001e-30
1400.0,1.4317900000000001e-29,1.1475e-24,1.14749e-24,1.1475e-24,-2.7801600000000001e-30,-2.81473e-30,5.4458500000000003e-30
1401.0,3.0922300000000001e-29,1.14744e-24,1.14746e-24,1.14744e-24,-2.9938300000000001e-30,-2.7720800000000002e-30,9.7986599999999994e-30
1402.0,2.6058000000000001e-29,1.1474499999999999e-24,1.14747e-24,1.1474499999999999e-24,-2.84602e-30,-2.8050700000000001e-30,9.2707500000000003e-30
1403.0,2.2892599999999999e-29,1.14746e-24,1.14747e-24,1.14746e-24,-2.52422e-30,-2.7915e-30,9.1444099999999996e-30
1404.0,1.9663799999999999e-29,1.14747e-24,1.1474799999999999e-24,1.14747e-24,-2.5348799999999999e-30,-2.78102e-30,9.0483800000000005e-30
1405.0,1.5857599999999999e-29,1.14747e-24,1.1474799999999999e-24,1.1474799999999999e-24,-2.4658800000000001e-30,-2.78085e-30,8.1346800000000002e-30
1406.0,1.5802599999999999e-29,1.14749e-24,1.1474799999999999e-24,1.14749e-24,-2.6945299999999999e-30,-3.0505500000000001e-30,8.1222299999999996e-30
1407.0,1.7317999999999999e-29,1.1475e-24,1.14749e-24,1.1475e-24,-3.3968200000000003e-30,-2.7796899999999999e-30,6.6944900000000004e-30
1408.0,3.0821100000000003e-29,1.14744e-24,1.14746e-24,1.14744e-24,-3.1133499999999999e-30,-3.2526800000000003e-30,1.11247e-29
1409.0,2.8654600000000001e-29,1.1474499999999999e-24,1.14747e-24,1.1474499999999999e-24,-2.8322999999999999e-30,-3.28833e-30,1.13042e-29
1410.0,2.5135599999999999e-29,1.14746e-24,1.14747e-24,1.14746e-24,-2.7276300000000001e-30,-3.1934299999999997e-30,1.09985e-29
1411.0,2.17907e-29,1.14747e-24,1.14747e-24,1.14747e-24,-2.5345699999999998e-30,-3.3439700000000002e-30,1.06263e-29
1412.0,2.01853e-29,1.1474799999999999e-24,1.1474799999999999e-24,1.1474799999999999e-24,-2.6230599999999999e-30,-3.4535600000000001e-30,1.05022e-29
1413.0,1.8321399999999999e-29,1.1474799999999999e-24,1.1474799999999999e-24,1.1474799999999999e-24,-2.6913100000000001e-30,-3.4350600000000003e-30,9.4717900000000002e-30
1414.0,1.91873e-29,1.1475e-24,1.14749e-24,1.1475e-24,-2.87623e-30,-3.9681600000000002e-30,8.8848399999999996e-30
1415.0,3.3117200000000001e-29,1.14744e-24,1.14747e-24,1.14744e-24,-3.0855300000000001e-30,-3.7421100000000003e-30,1.2975200000000001e-29
1416.0,3.0153899999999997e-29,1.1474499999999999e-24,1.14747e-24,1.1474499999999999e-24,-2.9923799999999998e-30,-3.5263600000000002e-30,1.2711799999999999e-29
1417.0,2.74795e-29,1.14746e-24,1.14747e-24,1.14746e-24,-2.6997599999999998e-30,-3.8438200000000002e-30,1.27082e-29
1418.0,2.5385299999999998e-29,1.14747e-24,1.1474799999999999e-24,1.14747e-24,-2.7068899999999998e-30,-3.8736900000000002e-30,1.26119e-29
1419.0,2.25539e-29,1.14747e-24,1.1474799999999999e-24,1.14747e-24,-2.5351700000000001e-30,-3.9841899999999998e-30,1.1969900000000001e-29
1420.0,2.2026199999999999e-29,1.1474799999999999e-24,1.1474799999999999e-24,1.1474799999999999e-24,-2.73882e-30,-4.32139e-30,1.16237e-29
1421.0,2.22343e-29,1.14749e-24,1.1474799999999999e-24,1.14749e-24,-3.1133399999999999e-30,-4.2923200000000002e-30,1.0493000000000001e-29
1422.0,2.6354599999999998e-29,1.14743e-24,1.14746e-24,1.14744e-24,-1.0847699999999999e-30,-1.42721e-30,7.8158900000000002e-31
1423.0,2.14454e-29,1.14744e-24,1.14747e-24,1.1474499999999999e-24,-3.3617199999999999e-31,-9.87452e-31,8.6707799999999998e-31
1424.0,1.58896e-29,1.1474499999999999e-24,1.14747e-24,1.14746e-24,-4.8956000000000002e-31,-1.2398899999999999e-30,4.5771799999999997e-31
1425.0,1.04925e-29,1.14746e-24,1.1474799999999999e-24,1.14747e-24,-3.5659700000000001e-33,-7.9049000000000002e-31,5.35469e-31
1426.0,4.2874500000000002e-30,1.1474799999999999e-24,1.1474799999999999e-24,1.1474799999999999e-24,-4.7442100000000004e-31,-1.07864e-30,1.8092499999999999e-31
1427.0,4.9820399999999997e-30,1.1474799999999999e-24,1.1474799999999999e-24,1.14749e-24,-1.64736e-30,-9.4436800000000006e-31,-7.3617799999999999e-31
1428.0,8.8034000000000005e-30,1.1475e-24,1.14749e-24,1.1475e-24,-2.3502799999999998e-31,-8.3522099999999999e-31,1.7222300000000001e-30
1429.0,2.6777100000000001e-29,1.14744e-24,1.14746e-24,1.14744e-24,-9.0226500000000008e-31,-1.5197999999999999e-30,3.1949700000000003e-30
1430.0,2.14283e-29,1.14744e-24,1.14747e-24,1.1474499999999999e-24,-7.42766e-31,-1.46921e-30,2.86626e-30
1431.0,1.6866399999999999e-29,1.1474499999999999e-24,1.14747e-24,1.14746e-24,-2.3952900000000001e-31,-1.32938e-30,2.7945800000000001e-30
1432.0,1.0949699999999999e-29,1.14747e-24,1.1474799999999999e-24,1.14747e-24,-3.58162e-31,-1.3804e-30,2.5839599999999999e-30
1433.0,5.8845899999999997e-30,1.14747e-24,1.1474799999999999e-24,1.1474799999999999e-24,-4.9584100000000002e-31,-1.2200499999999999e-30,1.8771800000000002e-30
1434.0,5.9326899999999999e-30,1.14749e-24,1.14749e-24,1.14749e-24,-4.9538400000000001e-31,-1.8106700000000001e-30,2.41507e-30
1435.0,1.24379e-29,1.1475e-24,1.14749e-24,1.1475e-24,-2.1338200000000001e-30,-9.8407600000000005e-31,3.5751400000000002e-31
1436.0,2.6826999999999999e-29,1.14744e-24,1.14746e-24,1.14744e-24,-1.1569700000000001e-30,-1.87194e-30,5.22694e-30
1437.0,2.2784500000000001e-29,1.1474499999999999e-24,1.14747e-24,1.1474499999999999e-24,-6.8540299999999999e-31,-1.8327400000000001e-30,5.0881400000000002e-30
1438.0,1.75859e-29,1.14746e-24,1.14747e-24,1.14746e-24,-5.4147999999999998e-31,-1.73058e-30,4.89321e-30
1439.0,1.3166199999999999e-29,1.14747e-24,1.1474799999999999e-24,1.14747e-24,-3.1779799999999999e-31,-1.7037800000000001e-30,4.4921800000000001e-30
1440.0,9.5197700000000002e-30,1.1474799999999999e-24,1.1474799999999999e-24,1.1474799999999999e-24,-4.0212600000000004e-31,-1.9287699999999998e-30,4.5236700000000003e-30
1441.0,7.2321300000000003e-30,1.14749e-24,1.1474799999999999e-24,1.14749e-24,-7.3161099999999999e-31,-1.58845e-30,3.4604100000000003e-30
1442.0,1.13862e-29,1.1475e-24,1.14749e-24,1.1475e-24,-5.3886700000000001e-31,-2.1532100000000001e-30,3.9600099999999999e-30
1443.0,2.81901e-29,1.14744e-24,1.14746e-24,1.14744e-24,-1.17364e-30,-2.2931099999999999e-30,7.3968300000000005e-30
1444.0,2.34505e-29,1.1474499999999999e-24,1.14747e-24,1.1474499999999999e-24,-9.0589e-31,-2.13218e-30,7.0772499999999996e-30
1445.0,1.9694200000000001e-29,1.14746e-24,1.14747e-24,1.14746e-24,-5.9428600000000004e-31,-2.1686899999999999e-30,6.8884900000000003e-30
1446.0,1.5654499999999999e-29,1.14747e-24,1.1474799999999999e-24,1.14747e-24,-4.8652399999999996e-31,-2.1918100000000001e-30,6.7676300000000005e-30
1447.0,1.20362e-29,1.1474799999999999e-24,1.1474799999999999e-24,1.1474799999999999e-24,-4.1699600000000004e-31,-2.12697e-30,6.1707899999999999e-30
1448.0,1.17254e-29,1.14749e-24,1.14749e-24,1.14749e-24,-5.9203899999999998e-31,-2.4098500000000001e-30,6.1938700000000002e-30
1449.0,1.36757e-29,1.1475e-24,1.14749e-24,1.1475e-24,-1.5495100000000001e-30,-2.14257e-30,4.9239000000000001e-30
1450.0,2.8592199999999999e-29,1.14744e-24,1.14747e-24,1.14744e-24,-1.3087300000000001e-30,-2.5755200000000001e-30,9.1947400000000003e-30
1451.0,2.5354900000000001e-29,1.1474499999999999e-24,1.14747e-24,1.1474499999999999e-24,-1.00707e-30,-2.5970800000000001e-30,9.0752600000000004e-30
1452.0,2.1526799999999999e-29,1.14746e-24,1.14747e-24,1.14746e-24,-7.6305899999999997e-31,-2.5519299999999999e-30,8.8634100000000001e-30
1453.0,1.8190599999999999e-29,1.14747e-24,1.1474799999999999e-24,1.14747e-24,-5.66651e-31,-2.60643e-30,8.5735400000000005e-30
1454.0,1.5872900000000001e-29,1.1474799999999999e-24,1.1474799999999999e-24,1.1474799999999999e-24,-5.8267799999999997e-31,-2.7236599999999999e-30,8.4233099999999994e-30
1455.0,1.4307700000000001e-29,1.14749e-24,1.1474799999999999e-24,1.14749e-24,-7.4797200000000002e-31,-2.72018e-30,7.6297399999999998e-30
1456.0,1.5966100000000001e-29,1.1475e-24,1.14749e-24,1.1475e-24,-7.5136299999999999e-31,-3.2055200000000003e-30,7.2807999999999995e-30
1457.0,3.0329399999999997e-29,1.14744e-24,1.14747e-24,1.14744e-24,-1.36437e-30,-3.0082e-30,1.10728e-29
1458.0,2.6681500000000002e-29,1.1474499999999999e-24,1.14747e-24,1.1474499999999999e-24,-1.09286e-30,-2.9419499999999999e-30,1.07347e-29
1459.0,2.3925299999999999e-29,1.14746e-24,1.14747e-24,1.14746e-24,-8.7166899999999993e-31,-3.04485e-30,1.0655e-29
1460.0,2.1096899999999999e-29,1.14747e-24,1.1474799999999999e-24,1.14747e-24,-7.0911099999999997e-31,-3.1071800000000001e-30,1.04807e-29
1461.0,1.8685799999999999e-29,1.1474799999999999e-24,1.1474799999999999e-24,1.1474799999999999e-24,-6.3116799999999997e-31,-3.2218999999999999e-30,1.00579e-29
1462.0,1.8001900000000001e-29,1.14749e-24,1.1474799999999999e-24,1.14749e-24,-7.1293000000000002e-31,-3.4696400000000003e-30,9.7247799999999996e-30
1463.0,1.8689499999999999e-29,1.1475e-24,1.14749e-24,1.1475e-24,-1.32234e-30,-3.5120900000000003e-30,8.8525700000000005e-30
1464.0,3.0933999999999998e-29,1.1474499999999999e-24,1.14747e-24,1.1474499999999999e-24,-1.36195e-30,-3.3037100000000002e-30,1.2246699999999999e-29
1465.0,2.9026899999999998e-29,1.1474499999999999e-24,1.14747e-24,1.1474499999999999e-24,-1.16848e-30,-3.4110600000000003e-30,1.2429899999999999e-29
1466.0,2.6364700000000002e-29,1.14746e-24,1.14747e-24,1.14746e-24,-9.4490700000000005e-31,-3.4772899999999998e-30,1.23465e-29
1467.0,2.39451e-29,1.14747e-24,1.1474799999999999e-24,1.14747e-24,-7.5228300000000001e-31,-3.6460699999999999e-30,1.2216e-29
1468.0,2.2215900000000001e-29,1.1474799999999999e-24,1.1474799999999999e-24,1.1474799999999999e-24,-6.4629099999999999e-31,-3.8267899999999999e-30,1.19775e-29
1469.0,2.1103999999999999e-29,1.1474799999999999e-24,1.1474799999999999e-24,1.1474799999999999e-24,-7.1575899999999999e-31,-4.02039e-30,1.14312e-29
1470.0,2.1539200000000001e-29,1.14749e-24,1.14749e-24,1.14749e-24,-7.1888899999999997e-31,-4.5236900000000002e-30,1.07775e-29
1471.0,2.6110199999999999e-29,1.14744e-24,1.14746e-24,1.14744e-24,1.12411e-30,-1.09267e-30,8.7023100000000005e-31
1472.0,2.0660099999999999e-29,1.1474499999999999e-24,1.14747e-24,1.1474499999999999e-24,1.2248400000000001e-30,-1.12107e-30,5.5894000000000002e-31
1473.0,1.66728e-29,1.1474499999999999e-24,1.14747e-24,1.14746e-24,1.8520300000000001e-30,-9.4494000000000001e-31,6.4434399999999999e-31
1474.0,1.06649e-29,1.14747e-24,1.1474799999999999e-24,1.14747e-24,1.8518500000000001e-30,-8.8259599999999992e-31,3.1174499999999998e-31
1475.0,6.0829400000000003e-30,1.14747e-24,1.1474799999999999e-24,1.1474799999999999e-24,1.4315e-30,-9.3651299999999993e-31,1.08148e-31
1476.0,5.03064e-30,1.14749e-24,1.14749e-24,1.14749e-24,2.30072e-30,-6.9139099999999996e-31,5.4922599999999998e-31
1477.0,1.14976e-29,1.1475e-24,1.14749e-24,1.1475e-24,2.6662800000000001e-31,-6.0206099999999997e-31,-1.74416e-30
1478.0,2.5549300000000002e-29,1.14744e-24,1.14746e-24,1.14744e-24,7.9085400000000004e-31,-1.3839399999999999e-30,2.8917699999999999e-30
1479.0,2.15257e-29,1.1474499999999999e-24,1.14747e-24,1.1474499999999999e-24,1.33141e-30,-1.35834e-30,2.80894e-30
1480.0,1.6100500000000001e-29,1.14746e-24,1.14747e-24,1.14746e-24,1.54293e-30,-1.23399e-30,2.6129500000000001e-30
1481.0,1.17869e-29,1.14747e-24,1.1474799999999999e-24,1.14747e-24,1.71001e-30,-1.21856e-30,2.42798e-30
1482.0,7.2886600000000003e-30,1.1474799999999999e-24,1.1474799999999999e-24,1.1474799999999999e-24,1.8047000000000001e-30,-1.34609e-30,2.3820299999999999e-30
1483.0,4.9987300000000001e-30,1.14749e-24,1.1474799999999999e-24,1.14749e-24,1.2157299999999999e-30,-1.0446800000000001e-30,1.7759099999999999e-30
1484.0,9.6495599999999998e-30,1.1475e-24,1.14749e-24,1.1475e-24,1.52953e-30,-1.1908499999999999e-30,2.49712e-30
1485.0,2.6325599999999999e-29,1.14744e-24,1.14746e-24,1.14744e-24,7.6579700000000003e-31,-1.7576899999999999e-30,5.0413400000000001e-30
1486.0,2.1521699999999999e-29,1.1474499999999999e-24,1.14747e-24,1.1474499999999999e-24,1.06915e-30,-1.58031e-30,4.8002999999999998e-30
1487.0,1.755e-29,1.14746e-24,1.14747e-24,1.14746e-24,1.42691e-30,-1.61522e-30,4.6656200000000003e-30
1488.0,1.3031600000000001e-29,1.14747e-24,1.1474799999999999e-24,1.14747e-24,1.58401e-30,-1.62838e-30,4.5345699999999997e-30
1489.0,9.4001600000000001e-30,1.1474799999999999e-24,1.1474799999999999e-24,1.1474799999999999e-24,1.61378e-30,-1.5494e-30,4.22306e-30
1490.0,8.5898199999999998e-30,1.14749e-24,1.14749e-24,1.14749e-24,1.5273600000000001e-30,-1.8265300000000001e-30,4.1556899999999997e-30
1491.0,1.10572e-29,1.1475e-24,1.14749e-24,1.1475e-24,4.6948700000000001e-31,-1.5520199999999999e-30,3.0145e-30
1492.0,2.6624500000000002e-29,1.14744e-24,1.14747e-24,1.14744e-24,5.7629100000000003e-31,-1.9781100000000001e-30,6.9867000000000001e-30
1493.0,2.2780000000000001e-29,1.1474499999999999e-24,1.14747e-24,1.1474499999999999e-24,9.1460699999999993e-31,-2.0154199999999999e-30,6.7837599999999997e-30
1494.0,1.87161e-29,1.14746e-24,1.14747e-24,1.14746e-24,1.2055400000000001e-30,-1.9459599999999999e-30,6.6509199999999995e-30
1495.0,1.5326799999999999e-29,1.14747e-24,1.1474799999999999e-24,1.14747e-24,1.4622499999999999e-30,-1.97672e-30,6.4836299999999995e-30
1496.0,1.2448699999999999e-29,1.1474799999999999e-24,1.1474799999999999e-24,1.1474799999999999e-24,1.46425e-30,-2.1078799999999999e-30,6.3022600000000002e-30
1497.0,1.10295e-29,1.14749e-24,1.1474799999999999e-24,1.14749e-24,1.3079699999999999e-30,-2.0075500000000002e-30,5.7679399999999998e-30
1498.0,1.3365500000000001e-29,1.1475e-24,1.14749e-24,1.1475e-24,1.3156100000000001e-30,-2.40425e-30,5.6809400000000002e-30
1499.0,2.7635200000000001e-29,1.14744e-24,1.14747e-24,1.14744e-24,4.36897e-31,-2.4061099999999999e-30,8.8776699999999994e-30
1500.0,2.3941899999999999e-29,1.1474499999999999e-24,1.14747e-24,1.1474499999999999e-24,7.3587699999999999e-31,-2.3050099999999999e-30,8.6300200000000001e-30
1501.0,2.0771199999999999e-29,1.14746e-24,1.14747e-24,1.14746e-24,1.0440900000000001e-30,-2.3690199999999999e-30,8.5401599999999998e-30
1502.0,1.76301e-29,1.14747e-24,1.1474799999999999e-24,1.14747e-24,1.2234e-30,-2.43335e-30,8.3730100000000006e-30
1503.0,1.5325600000000001e-29,1.1474799999999999e-24,1.1474799999999999e-24,1.1474799999999999e-24,1.36533e-30,-2.47538e-30,8.0951500000000006e-30
1504.0,1.4671599999999999e-29,1.14749e-24,1.14749e-24,1.14749e-24,1.23623e-30,-2.7185800000000001e-30,7.8447299999999995e-30
1505.0,1.5586699999999999e-29,1.1475e-24,1.14749e-24,1.1475e-24,6.2944100000000002e-31,-2.73278e-30,7.0823900000000006e-30
1506.0,2.8586900000000002e-29,1.1474499999999999e-24,1.14747e-24,1.1474499999999999e-24,3.6104200000000001e-31,-2.6865900000000002e-30,1.0493700000000001e-29
1507.0,2.5727700000000003e-29,1.1474499999999999e-24,1.14747e-24,1.1474499999999999e-24,6.2113699999999996e-31,-2.7141200000000001e-30,1.0408399999999999e-29
1508.0,2.2760099999999999e-29,1.14746e-24,1.14747e-24,1.14746e-24,8.8324700000000004e-31,-2.7740799999999999e-30,1.02513e-29
1509.0,2.03332e-29,1.14747e-24,1.1474799999999999e-24,1.14747e-24,1.1233999999999999e-30,-2.86498e-30,1.0145700000000001e-29
1510.0,1.8499999999999999e-29,1.1474799999999999e-24,1.1474799999999999e-24,1.1474799999999999e-24,1.18815e-30,-3.01969e-30,9.9670999999999995e-30
1511.0,1.7582399999999999e-29,1.14749e-24,1.1474799999999999e-24,1.14749e-24,1.1738300000000001e-30,-3.1538699999999999e-30,9.50875e-30
1512.0,1.8583799999999999e-29,1.1475e-24,1.14749e-24,1.1475e-24,1.16316e-30,-3.6104400000000001e-30,9.0950699999999996e-30
1513.0,2.9961899999999998e-29,1.1474499999999999e-24,1.14747e-24,1.1474499999999999e-24,3.2400900000000001e-31,-3.0413800000000002e-30,1.1949699999999999e-29
1514.0,2.7583500000000003e-29,1.1474499999999999e-24,1.14747e-24,1.1474499999999999e-24,5.7566300000000001e-31,-3.12069e-30,1.18923e-29
1515.0,2.5375400000000001e-29,1.14746e-24,1.14747e-24,1.14746e-24,8.2189400000000004e-31,-3.2301599999999997e-30,1.19639e-29
1516.0,2.32525e-29,1.14747e-24,1.1474799999999999e-24,1.14747e-24,1.07205e-30,-3.3933000000000002e-30,1.18995e-29
1517.0,2.1603600000000001e-29,1.1474799999999999e-24,1.1474799999999999e-24,1.1474799999999999e-24,1.2406500000000001e-30,-3.6200699999999999e-30,1.16721e-29
1518.0,2.10038e-29,1.14749e-24,1.1474799999999999e-24,1.14749e-24,1.2227299999999999e-30,-3.9226199999999998e-30,1.13768e-29
1519.0,2.1286200000000001e-29,1.1475e-24,1.14749e-24,1.14749e-24,7.4078699999999998e-31,-4.1318399999999998e-30,1.0753e-29
1520.0,2.4682299999999999e-29,1.14744e-24,1.14746e-24,1.14744e-24,2.6596700000000001e-30,-1.05186e-30,5.9584100000000002e-31
1521.0,2.1692800000000001e-29,1.1474499999999999e-24,1.14747e-24,1.1474499999999999e-24,3.4376000000000002e-30,-9.3432199999999993e-31,6.5827000000000003e-31
1522.0,1.62409e-29,1.14746e-24,1.14747e-24,1.14746e-24,3.6415000000000001e-30,-8.0462500000000002e-31,3.90018e-31
1523.0,1.27611e-29,1.14747e-24,1.1474799999999999e-24,1.14747e-24,3.7822600000000001e-30,-8.7073899999999996e-31,3.4671599999999998e-31
1524.0,9.1710599999999997e-30,1.1474799999999999e-24,1.1474799999999999e-24,1.1474799999999999e-24,4.3352700000000002e-30,-5.9438599999999997e-31,3.2863899999999999e-31
1525.0,6.4089500000000003e-30,1.14749e-24,1.1474799999999999e-24,1.14749e-24,3.1819000000000002e-30,-7.2851800000000001e-31,-4.1753899999999998e-31
1526.0,9.6089700000000005e-30,1.1475e-24,1.14749e-24,1.1475e-24,3.38882e-30,-7.3887000000000003e-31,7.1146999999999998e-31
1527.0,2.5330199999999999e-29,1.14744e-24,1.14747e-24,1.14744e-24,2.7899199999999999e-30,-1.2844799999999999e-30,2.77565e-30
1528.0,2.0588000000000001e-29,1.1474499999999999e-24,1.14747e-24,1.1474499999999999e-24,3.08321e-30,-1.1342300000000001e-30,2.5702999999999999e-30
1529.0,1.7056400000000001e-29,1.14746e-24,1.14747e-24,1.14746e-24,3.5055900000000001e-30,-1.13984e-30,2.4971000000000001e-30
1530.0,1.2497400000000001e-29,1.14747e-24,1.1474799999999999e-24,1.14747e-24,3.7662499999999997e-30,-1.09427e-30,2.37329e-30
1531.0,9.0496500000000001e-30,1.1474799999999999e-24,1.1474799999999999e-24,1.1474799999999999e-24,3.6813099999999999e-30,-1.0209800000000001e-30,2.2360800000000002e-30
1532.0,8.1436699999999998e-30,1.14749e-24,1.14749e-24,1.14749e-24,3.8467799999999998e-30,-1.05116e-30,2.13251e-30
1533.0,1.04351e-29,1.1475e-24,1.14749e-24,1.1475e-24,2.6714900000000002e-30,-1.04524e-30,1.01316e-30
1534.0,2.51485e-29,1.14744e-24,1.14747e-24,1.14744e-24,2.5153000000000001e-30,-1.47525e-30,4.7231599999999997e-30
1535.0,2.13864e-29,1.1474499999999999e-24,1.14747e-24,1.1474499999999999e-24,2.9228e-30,-1.4881400000000001e-30,4.5629700000000002e-30
1536.0,1.72007e-29,1.14746e-24,1.14747e-24,1.14746e-24,3.2521099999999999e-30,-1.41475e-30,4.4403200000000002e-30
1537.0,1.38768e-29,1.14747e-24,1.1474799999999999e-24,1.14747e-24,3.5303099999999998e-30,-1.4027299999999999e-30,4.3954800000000003e-30
1538.0,1.0726900000000001e-29,1.1474799999999999e-24,1.1474799999999999e-24,1.1474799999999999e-24,3.6090700000000003e-30,-1.4804700000000001e-30,4.1874300000000003e-30
1539.0,9.5026199999999997e-30,1.14749e-24,1.14749e-24,1.14749e-24,3.3530999999999999e-30,-1.3601e-30,3.9130199999999999e-30
1540.0,1.20395e-29,1.1475e-24,1.14749e-24,1.1475e-24,3.3739699999999997e-30,-1.5257599999999999e-30,4.0085700000000003e-30
1541.0,2.57132e-29,1.14744e-24,1.14747e-24,1.1474499999999999e-24,2.33084e-30,-1.8487400000000002e-30,6.6474999999999998e-30
1542.0,2.1879799999999999e-29,1.1474499999999999e-24,1.14747e-24,1.1474499999999999e-24,2.6566099999999999e-30,-1.7429399999999998e-30,6.4289699999999994e-30
1543.0,1.86363e-29,1.14746e-24,1.14747e-24,1.14746e-24,3.0291500000000001e-30,-1.7677200000000001e-30,6.3835699999999998e-30
1544.0,1.53127e-29,1.14747e-24,1.1474799999999999e-24,1.14747e-24,3.24335e-30,-1.8038299999999999e-30,6.2399599999999997e-30
1545.0,1.3150199999999999e-29,1.1474799999999999e-24,1.1474799999999999e-24,1.1474799999999999e-24,3.3998099999999997e-30,-1.79559e-30,6.1302299999999997e-30
1546.0,1.23176e-29,1.14749e-24,1.14749e-24,1.14749e-24,3.2997599999999999e-30,-1.99475e-30,5.8560900000000003e-30
1547.0,1.3454400000000001e-29,1.1475e-24,1.14749e-24,1.1475e-24,2.69904e-30,-1.9990100000000001e-30,5.2076799999999999e-30
1548.0,2.64539e-29,1.1474499999999999e-24,1.14747e-24,1.1474499999999999e-24,2.1557200000000001e-30,-2.08906e-30,8.4269299999999996e-30
1549.0,2.31702e-29,1.1474499999999999e-24,1.14747e-24,1.14746e-24,2.43529e-30,-2.1117299999999999e-30,8.26577e-30
1550.0,2.0082399999999999e-29,1.14746e-24,1.1474799999999999e-24,1.14746e-24,2.7509999999999999e-30,-2.1212300000000002e-30,8.1548900000000006e-30
1551.0,1.76013e-29,1.14747e-24,1.1474799999999999e-24,1.14747e-24,3.0486100000000001e-30,-2.1711299999999999e-30,8.1047899999999996e-30
1552.0,1.5585199999999999e-29,1.1474799999999999e-24,1.1474799999999999e-24,1.1474799999999999e-24,3.10584e-30,-2.2950000000000001e-30,7.9016100000000002e-30
1553.0,1.49791e-29,1.14749e-24,1.14749e-24,1.14749e-24,3.1274399999999999e-30,-2.3418000000000001e-30,7.6333999999999999e-30
1554.0,1.6292599999999999e-29,1.1475e-24,1.14749e-24,1.1475e-24,3.0885899999999999e-30,-2.6825800000000001e-30,7.3780999999999996e-30
1555.0,2.74186e-29,1.1474499999999999e-24,1.14747e-24,1.1474499999999999e-24,2.0270200000000001e-30,-2.44167e-30,1.00697e-29
1556.0,2.4655400000000001e-29,1.14746e-24,1.14747e-24,1.14746e-24,2.2839900000000001e-30,-2.45508e-30,9.9069399999999999e-30
1557.0,2.21585e-29,1.14746e-24,1.1474799999999999e-24,1.14746e-24,2.5915500000000001e-30,-2.5208099999999998e-30,9.8718699999999999e-30
1558.0,1.9905999999999999e-29,1.14747e-24,1.1474799999999999e-24,1.14747e-24,2.8109500000000001e-30,-2.6259600000000001e-30,9.7844700000000005e-30
1559.0,1.84867e-29,1.1474799999999999e-24,1.1474799999999999e-24,1.1474799999999999e-24,3.0429599999999999e-30,-2.7530999999999999e-30,9.6664300000000002e-30
1560.0,1.7963800000000001e-29,1.14749e-24,1.14749e-24,1.14749e-24,2.97178e-30,-2.99931e-30,9.4076599999999996e-30
1561.0,1.8635599999999999e-29,1.1475e-24,1.14749e-24,1.1475e-24,2.5777900000000001e-30,-3.18126e-30,8.9596799999999996e-30
1562.0,2.86282e-29,1.1474499999999999e-24,1.14747e-24,1.1474499999999999e-24,2.0203100000000001e-30,-2.7524600000000001e-30,1.1368499999999999e-29
1563.0,2.6604500000000002e-29,1.14746e-24,1.14747e-24,1.14746e-24,2.22672e-30,-2.7858e-30,1.1477199999999999e-29
1564.0,2.44924e-29,1.14746e-24,1.1474799999999999e-24,1.14746e-24,2.5237e-30,-2.9138399999999999e-30,1.1489000000000001e-29
1565.0,2.2731000000000001e-29,1.14747e-24,1.1474799999999999e-24,1.14747e-24,2.8191600000000001e-30,-3.0693300000000001e-30,1.15107e-29
1566.0,2.14286e-29,1.1474799999999999e-24,1.1474799999999999e-24,1.1474799999999999e-24,2.9734500000000001e-30,-3.2628000000000001e-30,1.13925e-29
1567.0,2.0943500000000001e-29,1.14749e-24,1.1474799999999999e-24,1.14749e-24,3.0463999999999999e-30,-3.5059599999999999e-30,1.1118200000000001e-29
1568.0,2.1595100000000001e-29,1.1475e-24,1.14749e-24,1.1475e-24,3.0797300000000001e-30,-3.9861999999999998e-30,1.0682e-29
1569.0,2.5537300000000002e-29,1.14744e-24,1.14747e-24,1.14744e-24,4.8766299999999999e-30,-8.7089799999999997e-31,6.7240599999999998e-31
1570.0,2.0589400000000001e-29,1.1474499999999999e-24,1.14747e-24,1.1474499999999999e-24,5.0208800000000001e-30,-7.3871799999999998e-31,4.1332800000000001e-31
1571.0,1.8159200000000001e-29,1.14746e-24,1.14747e-24,1.14746e-24,5.57596e-30,-7.9440800000000005e-31,4.0328999999999996e-31
1572.0,1.4325e-29,1.14747e-24,1.1474799999999999e-24,1.14747e-24,6.0211099999999999e-30,-5.2868999999999996e-31,3.0414800000000002e-31
1573.0,1.08959e-29,1.1474799999999999e-24,1.1474799999999999e-24,1.1474799999999999e-24,5.6605000000000001e-30,-6.63696e-31,4.3938299999999999e-33
1574.0,1.087e-29,1.14749e-24,1.14749e-24,1.14749e-24,6.04659e-30,-4.8365300000000001e-31,2.68674e-31
1575.0,1.253e-29,1.1475e-24,1.14749e-24,1.1475e-24,4.9358000000000002e-30,-4.1684899999999997e-31,-9.7878099999999992e-31
1576.0,2.4162399999999999e-29,1.14744e-24,1.14747e-24,1.1474499999999999e-24,4.4287600000000001e-30,-1.03811e-30,2.5405999999999999e-30
1577.0,2.1243500000000001e-29,1.1474499999999999e-24,1.14747e-24,1.1474499999999999e-24,4.9733800000000002e-30,-1.0290700000000001e-30,2.4308800000000002e-30
1578.0,1.7252199999999999e-29,1.14746e-24,1.1474799999999999e-24,1.14746e-24,5.32694e-30,-9.3458899999999994e-31,2.3172599999999999e-30
1579.0,1.42401e-29,1.14747e-24,1.1474799999999999e-24,1.14747e-24,5.5888999999999999e-30,-9.0757300000000009e-31,2.2916200000000002e-30
1580.0,1.1669900000000001e-29,1.1474799999999999e-24,1.1474799999999999e-24,1.1474799999999999e-24,5.83787e-30,-8.4653200000000008e-31,2.1072099999999998e-30
1581.0,1.0299699999999999e-29,1.14749e-24,1.14749e-24,1.14749e-24,5.3861200000000003e-30,-8.8329900000000007e-31,1.87251e-30
1582.0,1.25037e-29,1.1475e-24,1.14749e-24,1.1475e-24,5.3564700000000001e-30,-8.9104499999999998e-31,2.2113099999999999e-30
1583.0,2.46912e-29,1.14744e-24,1.14747e-24,1.1474499999999999e-24,4.2905699999999998e-30,-1.34705e-30,4.46201e-30
1584.0,2.0981400000000001e-29,1.1474499999999999e-24,1.14747e-24,1.14746e-24,4.63347e-30,-1.24717e-30,4.2971900000000002e-30
1585.0,1.7951200000000001e-29,1.14746e-24,1.1474799999999999e-24,1.14746e-24,5.0624700000000002e-30,-1.22813e-30,4.2742000000000002e-30
1586.0,1.4711999999999999e-29,1.14747e-24,1.1474799999999999e-24,1.14747e-24,5.3198700000000001e-30,-1.22397e-30,4.1265700000000001e-30
1587.0,1.26939e-29,1.1474799999999999e-24,1.1474799999999999e-24,1.1474799999999999e-24,5.4587500000000003e-30,-1.17901e-30,4.1299200000000001e-30
1588.0,1.19919e-29,1.14749e-24,1.14749e-24,1.14749e-24,5.4836400000000001e-30,-1.25245e-30,3.8579100000000002e-30
1589.0,1.3047899999999999e-29,1.1475e-24,1.14749e-24,1.1475e-24,4.8642900000000003e-30,-1.32788e-30,3.2364200000000002e-30
1590.0,2.49303e-29,1.1474499999999999e-24,1.14747e-24,1.1474499999999999e-24,4.0122399999999997e-30,-1.5668299999999999e-30,6.30951e-30
1591.0,2.1662699999999999e-29,1.1474499999999999e-24,1.14747e-24,1.14746e-24,4.3671300000000003e-30,-1.56026e-30,6.13151e-30
1592.0,1.8635000000000001e-29,1.14746e-24,1.1474799999999999e-24,1.14746e-24,4.7068900000000003e-30,-1.5425399999999999e-30,6.0548699999999998e-30
1593.0,1.62201e-29,1.14747e-24,1.1474799999999999e-24,1.14747e-24,5.0405000000000002e-30,-1.53669e-30,6.0762300000000003e-30
1594.0,1.4181500000000001e-29,1.1474799999999999e-24,1.1474799999999999e-24,1.1474799999999999e-24,5.15664e-30,-1.6058599999999998e-30,5.8571500000000001e-30
1595.0,1.3815999999999999e-29,1.14749e-24,1.14749e-24,1.14749e-24,5.1430799999999999e-30,-1.60892e-30,5.7605899999999997e-30
1596.0,1.5301400000000001e-29,1.1475e-24,1.14749e-24,1.1475e-24,5.1042600000000002e-30,-1.7798000000000001e-30,5.6449799999999997e-30
1597.0,2.5467999999999998e-29,1.1474499999999999e-24,1.14747e-24,1.1474499999999999e-24,3.7531800000000003e-30,-1.9096399999999998e-30,8.0178699999999996e-30
1598.0,2.26443e-29,1.14746e-24,1.14747e-24,1.14746e-24,4.0613399999999999e-30,-1.86674e-30,7.8584699999999996e-30
1599.0,2.01013e-29,1.14746e-24,1.1474799999999999e-24,1.14746e-24,4.4225200000000002e-30,-1.88486e-30,7.8420400000000003e-30
1600.0,1.77528e-29,1.14747e-24,1.1474799999999999e-24,1.14747e-24,4.6666300000000003e-30,-1.9439499999999999e-30,7.7402600000000007e-30
1601.0,1.65343e-29,1.1474799999999999e-24,1.1474799999999999e-24,1.1474799999999999e-24,4.92241e-30,-1.9932300000000001e-30,7.728e-30
1602.0,1.60509e-29,1.14749e-24,1.14749e-24,1.14749e-24,4.8878999999999998e-30,-2.1716700000000001e-30,7.4606500000000003e-30
1603.0,1.69124e-29,1.1475e-24,1.14749e-24,1.1475e-24,4.5896400000000002e-30,-2.3206e-30,7.0770700000000004e-30
1604.0,2.65417e-29,1.1474499999999999e-24,1.14747e-24,1.1474499999999999e-24,3.6068199999999998e-30,-2.1710299999999999e-30,9.6095200000000003e-30
1605.0,2.3956999999999999e-29,1.14746e-24,1.14747e-24,1.14746e-24,3.86031e-30,-2.1834599999999999e-30,9.4920600000000003e-30
1606.0,2.1761499999999999e-29,1.14746e-24,1.1474799999999999e-24,1.14747e-24,4.1663999999999998e-30,-2.2423000000000001e-30,9.4404799999999999e-30
1607.0,2.0022499999999999e-29,1.14747e-24,1.1474799999999999e-24,1.14747e-24,4.5025400000000003e-30,-2.3124999999999998e-30,9.4623199999999998e-30
1608.0,1.8770600000000001e-29,1.1474799999999999e-24,1.1474799999999999e-24,1.1474799999999999e-24,4.6386700000000001e-30,-2.44519e-30,9.3492100000000006e-30
1609.0,1.8602599999999999e-29,1.14749e-24,1.14749e-24,1.14749e-24,4.7857900000000002e-30,-2.5962600000000001e-30,9.1909399999999994e-30
1610.0,1.9479799999999999e-29,1.1475e-24,1.14749e-24,1.1475e-24,4.7710999999999999e-30,-2.9200700000000002e-30,8.8897099999999996e-30
1611.0,2.7639200000000001e-29,1.1474499999999999e-24,1.14747e-24,1.1474499999999999e-24,3.5250000000000003e-30,-2.4531699999999999e-30,1.08865e-29
1612.0,2.5833799999999998e-29,1.14746e-24,1.14747e-24,1.14746e-24,3.7835299999999997e-30,-2.5207500000000001e-30,1.09473e-29
1613.0,2.4015399999999999e-29,1.14746e-24,1.1474799999999999e-24,1.14746e-24,4.0868000000000001e-30,-2.59812e-30,1.10331e-29
1614.0,2.2448999999999999e-29,1.14747e-24,1.1474799999999999e-24,1.14747e-24,4.3899400000000003e-30,-2.7255099999999998e-30,1.1058800000000001e-29
1615.0,2.15109e-29,1.1474799999999999e-24,1.1474799999999999e-24,1.1474799999999999e-24,4.6609500000000002e-30,-2.9175600000000001e-30,1.1e-29
1616.0,2.1252900000000001e-29,1.14749e-24,1.14749e-24,1.14749e-24,4.6914900000000002e-30,-3.1673799999999999e-30,1.08256e-29
1617.0,2.1794800000000001e-29,1.1475e-24,1.14749e-24,1.1475e-24,4.3801699999999998e-30,-3.4428799999999999e-30,1.05134e-29
1618.0,2.38146e-29,1.14744e-24,1.14747e-24,1.1474499999999999e-24,6.1133999999999999e-30,-6.4933299999999997e-31,4.2765699999999996e-31
1619.0,2.2328499999999999e-29,1.1474499999999999e-24,1.14747e-24,1.1474499999999999e-24,6.9158899999999994e-30,-7.3436699999999999e-31,4.3584500000000003e-31
1620.0,1.8693700000000001e-29,1.14746e-24,1.1474799999999999e-24,1.14746e-24,7.3323099999999995e-30,-4.40513e-31,3.0129999999999998e-31
1621.0,1.6060400000000001e-29,1.14747e-24,1.1474799999999999e-24,1.14747e-24,7.5253000000000001e-30,-5.5275200000000001e-31,1.2591899999999999e-31
1622.0,1.4787400000000001e-29,1.1474799999999999e-24,1.1474799999999999e-24,1.1474799999999999e-24,8.0352400000000006e-30,-3.2253600000000002e-31,1.9858999999999999e-31
1623.0,1.3309700000000001e-29,1.14749e-24,1.1474799999999999e-24,1.14749e-24,7.4926699999999997e-30,-3.3917899999999999e-31,-2.8482199999999998e-31
1624.0,1.4578399999999999e-29,1.1475e-24,1.14749e-24,1.1475e-24,7.3507400000000003e-30,-3.9236300000000002e-31,3.2146700000000001e-31
1625.0,2.4565199999999999e-29,1.1474499999999999e-24,1.14747e-24,1.1474499999999999e-24,6.2162799999999998e-30,-9.3033299999999998e-31,2.4226600000000002e-30
1626.0,2.11266e-29,1.1474499999999999e-24,1.14747e-24,1.14746e-24,6.5259499999999994e-30,-8.2431200000000003e-31,2.27898e-30
1627.0,1.8666000000000001e-29,1.14746e-24,1.1474799999999999e-24,1.14746e-24,6.9973400000000005e-30,-7.8906700000000007e-31,2.2364899999999998e-30
1628.0,1.5944400000000001e-29,1.14747e-24,1.1474799999999999e-24,1.14747e-24,7.4084699999999996e-30,-6.8418400000000003e-31,2.0996599999999998e-30
1629.0,1.4071899999999999e-29,1.1474799999999999e-24,1.1474799999999999e-24,1.1474799999999999e-24,7.4574699999999996e-30,-6.9610800000000004e-31,2.07228e-30
1630.0,1.3867899999999999e-29,1.14749e-24,1.14749e-24,1.14749e-24,7.6276900000000006e-30,-6.1261600000000004e-31,1.9615499999999999e-30
1631.0,1.4755800000000001e-29,1.1475e-24,1.14749e-24,1.1475e-24,7.0750399999999997e-30,-6.4936199999999999e-31,1.2620500000000001e-30
1632.0,2.4222799999999999e-29,1.1474499999999999e-24,1.14747e-24,1.1474499999999999e-24,5.8281200000000001e-30,-1.12263e-30,4.2688000000000003e-30
1633.0,2.1512499999999999e-29,1.1474499999999999e-24,1.14747e-24,1.14746e-24,6.2781699999999999e-30,-1.0633400000000001e-30,4.1591200000000001e-30
1634.0,1.8634499999999999e-29,1.14746e-24,1.1474799999999999e-24,1.14746e-24,6.6526199999999994e-30,-1.03585e-30,4.04254e-30
1635.0,1.64899e-29,1.14747e-24,1.1474799999999999e-24,1.14747e-24,7.0364900000000002e-30,-9.72914e-31,4.0871000000000003e-30
1636.0,1.4815699999999999e-29,1.1474799999999999e-24,1.1474799999999999e-24,1.1474799999999999e-24,7.2801800000000007e-30,-9.5935900000000002e-31,3.8810199999999997e-30
1637.0,1.4381299999999999e-29,1.14749e-24,1.14749e-24,1.14749e-24,7.1849000000000006e-30,-9.99407e-31,3.8291900000000003e-30
1638.0,1.5856700000000001e-29,1.1475e-24,1.14749e-24,1.1475e-24,7.1557400000000004e-30,-1.03294e-30,3.8963600000000001e-30
1639.0,2.4501000000000001e-29,1.1474499999999999e-24,1.14747e-24,1.1474499999999999e-24,5.5465200000000003e-30,-1.38884e-30,6.0485600000000002e-30
1640.0,2.1838199999999999e-29,1.14746e-24,1.14747e-24,1.14746e-24,5.8951399999999998e-30,-1.3609600000000001e-30,5.9028e-30
1641.0,1.9376300000000001e-29,1.14746e-24,1.1474799999999999e-24,1.14747e-24,6.3096400000000002e-30,-1.31396e-30,5.8945200000000003e-30
1642.0,1.7240499999999999e-29,1.14747e-24,1.1474799999999999e-24,1.14747e-24,6.6383099999999996e-30,-1.3163700000000001e-30,5.7893899999999999e-30
1643.0,1.6157899999999999e-29,1.1474799999999999e-24,1.1474799999999999e-24,1.1474799999999999e-24,6.9059999999999993e-30,-1.31698e-30,5.8556999999999998e-30
1644.0,1.58002e-29,1.14749e-24,1.14749e-24,1.14749e-24,6.9735499999999996e-30,-1.3896100000000001e-30,5.5832600000000003e-30
1645.0,1.6608899999999999e-29,1.1475e-24,1.14749e-24,1.1475e-24,6.7270900000000002e-30,-1.5202700000000001e-30,5.1375999999999997e-30
1646.0,2.51533e-29,1.1474499999999999e-24,1.14747e-24,1.1474499999999999e-24,5.2558299999999999e-30,-1.66933e-30,7.73523e-30
1647.0,2.2588500000000001e-29,1.14746e-24,1.14747e-24,1.14746e-24,5.5637499999999998e-30,-1.6400699999999999e-30,7.5929499999999999e-30
1648.0,2.04394e-29,1.14747e-24,1.1474799999999999e-24,1.14747e-24,5.9034200000000002e-30,-1.65339e-30,7.5539100000000004e-30
1649.0,1.8806599999999999e-29,1.14747e-24,1.1474799999999999e-24,1.14747e-24,6.3023699999999997e-30,-1.6483300000000001e-30,7.6046100000000003e-30
1650.0,1.75973e-29,1.1474799999999999e-24,1.1474799999999999e-24,1.1474799999999999e-24,6.5060600000000005e-30,-1.72345e-30,7.4582100000000007e-30
1651.0,1.7639800000000001e-29,1.14749e-24,1.14749e-24,1.14749e-24,6.6305400000000005e-30,-1.8120499999999999e-30,7.4221800000000005e-30
1652.0,1.8687499999999999e-29,1.1475e-24,1.14749e-24,1.1475e-24,6.6235200000000004e-30,-1.9550400000000001e-30,7.2679299999999993e-30
1653.0,2.5875499999999999e-29,1.1474499999999999e-24,1.14747e-24,1.1474499999999999e-24,4.9749999999999997e-30,-1.96557e-30,9.1972900000000002e-30
1654.0,2.3854399999999999e-29,1.14746e-24,1.14747e-24,1.14746e-24,5.2688400000000002e-30,-1.96171e-30,9.1409800000000006e-30
1655.0,2.20274e-29,1.14747e-24,1.1474799999999999e-24,1.14747e-24,5.6456700000000003e-30,-1.96624e-30,9.1561299999999997e-30
1656.0,2.04406e-29,1.14747e-24,1.1474799999999999e-24,1.14747e-24,5.9524100000000002e-30,-2.0351500000000002e-30,9.1426400000000007e-30
1657.0,1.9801e-29,1.1474799999999999e-24,1.1474799999999999e-24,1.1474799999999999e-24,6.2840399999999999e-30,-2.14334e-30,9.1736900000000006e-30
1658.0,1.9504500000000001e-29,1.14749e-24,1.14749e-24,1.14749e-24,6.3077599999999997e-30,-2.3027499999999999e-30,8.9451999999999998e-30
1659.0,2.0258600000000001e-29,1.1475e-24,1.14749e-24,1.1475e-24,6.1633100000000003e-30,-2.5283700000000002e-30,8.6541000000000004e-30
1660.0,2.70157e-29,1.1474499999999999e-24,1.14747e-24,1.1474499999999999e-24,4.8698200000000003e-30,-2.2135100000000002e-30,1.04408e-29
1661.0,2.5379500000000002e-29,1.14746e-24,1.14747e-24,1.14746e-24,5.1269899999999998e-30,-2.2283299999999999e-30,1.0512800000000001e-29
1662.0,2.3815899999999999e-29,1.14747e-24,1.1474799999999999e-24,1.14747e-24,5.4860599999999998e-30,-2.29116e-30,1.05813e-29
1663.0,2.26106e-29,1.14747e-24,1.1474799999999999e-24,1.14747e-24,5.8664499999999998e-30,-2.4058499999999999e-30,1.06573e-29
1664.0,2.17568e-29,1.1474799999999999e-24,1.1474799999999999e-24,1.1474799999999999e-24,6.0746399999999999e-30,-2.5315800000000001e-30,1.05948e-29
1665.0,2.1828499999999999e-29,1.14749e-24,1.14749e-24,1.14749e-24,6.27194e-30,-2.74713e-30,1.05018e-29
1666.0,2.2456099999999999e-29,1.1475e-24,1.14749e-24,1.1475e-24,6.3388799999999993e-30,-3.09066e-30,1.01511e-29
1667.0,2.5561499999999999e-29,1.1474499999999999e-24,1.14747e-24,1.1474499999999999e-24,7.8166300000000006e-30,-7.4099300000000003e-31,5.0855799999999997e-31
1668.0,2.2415099999999999e-29,1.1474499999999999e-24,1.14747e-24,1.14746e-24,8.2820099999999994e-30,-3.42743e-31,3.3530899999999999e-31
1669.0,2.0279499999999999e-29,1.14746e-24,1.14747e-24,1.14746e-24,8.7214300000000002e-30,-4.8697899999999999e-31,2.0637600000000001e-31
1670.0,1.8752699999999999e-29,1.14747e-24,1.1474799999999999e-24,1.14747e-24,9.4626500000000005e-30,-2.1648699999999999e-31,2.1009300000000001e-31
1671.0,1.67722e-29,1.1474799999999999e-24,1.1474799999999999e-24,1.1474799999999999e-24,9.4221800000000007e-30,-2.1128299999999999e-31,-6.4495700000000003e-32
1672.0,1.7132100000000001e-29,1.14749e-24,1.14749e-24,1.14749e-24,9.7586799999999996e-30,-1.3978499999999999e-31,7.2175200000000005e-32
1673.0,1.7947800000000001e-29,1.1475e-24,1.14749e-24,1.1475e-24,9.2377099999999995e-30,2.06381e-32,-6.9427299999999999e-31
1674.0,2.4138999999999999e-29,1.1474499999999999e-24,1.14747e-24,1.1474499999999999e-24,7.3489300000000002e-30,-7.6362399999999998e-31,2.3228400000000001e-30
1675.0,2.2397600000000001e-29,1.1474499999999999e-24,1.14747e-24,1.14746e-24,7.9797599999999997e-30,-6.9909100000000004e-31,2.25299e-30
1676.0,1.9940499999999999e-29,1.14746e-24,1.1474799999999999e-24,1.14746e-24,8.5597100000000001e-30,-5.5942500000000001e-31,2.1207999999999998e-30
1677.0,1.8085799999999999e-29,1.14747e-24,1.1474799999999999e-24,1.14747e-24,8.9536500000000002e-30,-5.21482e-31,2.1152900000000001e-30
1678.0,1.7086899999999999e-29,1.1474799999999999e-24,1.1474799999999999e-24,1.1474799999999999e-24,9.3930800000000003e-30,-3.8429099999999998e-31,2.0033600000000001e-30
1679.0,1.6601199999999999e-29,1.14749e-24,1.14749e-24,1.14749e-24,9.2805199999999994e-30,-4.2033000000000001e-31,1.8578000000000002e-30
1680.0,1.7807999999999999e-29,1.1475e-24,1.14749e-24,1.1475e-24,9.1958300000000007e-30,-4.0667999999999999e-31,2.0620699999999999e-30
1681.0,2.4448399999999999e-29,1.1474499999999999e-24,1.14747e-24,1.1474499999999999e-24,7.1467299999999995e-30,-9.7976299999999992e-31,4.1776799999999997e-30
1682.0,2.2209399999999999e-29,1.14746e-24,1.14747e-24,1.14746e-24,7.6133900000000001e-30,-9.3315899999999995e-31,4.0446600000000002e-30
1683.0,2.0107399999999999e-29,1.14746e-24,1.1474799999999999e-24,1.14747e-24,8.1742299999999997e-30,-8.1326199999999993e-31,4.0345599999999997e-30
1684.0,1.8334400000000001e-29,1.14747e-24,1.1474799999999999e-24,1.14747e-24,8.6699099999999996e-30,-7.3711300000000003e-31,3.93564e-30
1685.0,1.73127e-29,1.1474799999999999e-24,1.1474799999999999e-24,1.1474799999999999e-24,8.9298599999999994e-30,-7.3267499999999998e-31,3.9834400000000001e-30
1686.0,1.72976e-29,1.14749e-24,1.14749e-24,1.14749e-24,9.1239000000000004e-30,-6.8501699999999999e-31,3.8080600000000003e-30
1687.0,1.8046400000000001e-29,1.1475e-24,1.14749e-24,1.1475e-24,8.8890499999999995e-30,-7.6144800000000001e-31,3.2960100000000001e-30
1688.0,2.4629800000000001e-29,1.1474499999999999e-24,1.14747e-24,1.1474499999999999e-24,6.7667699999999999e-30,-1.26097e-30,5.9509200000000002e-30
1689.0,2.2538100000000001e-29,1.14746e-24,1.14747e-24,1.14746e-24,7.2644699999999997e-30,-1.13887e-30,5.8287400000000003e-30
1690.0,2.0528400000000001e-29,1.14746e-24,1.1474799999999999e-24,1.14747e-24,7.7570800000000005e-30,-1.1018399999999999e-30,5.7861200000000003e-30
1691.0,1.9136799999999999e-29,1.14747e-24,1.1474799999999999e-24,1.14747e-24,8.2485500000000004e-30,-1.0502499999999999e-30,5.8447999999999998e-30
1692.0,1.81167e-29,1.1474799999999999e-24,1.1474799999999999e-24,1.1474799999999999e-24,8.5583100000000003e-30,-1.0283600000000001e-30,5.6985800000000001e-30
1693.0,1.8171499999999999e-29,1.14749e-24,1.14749e-24,1.14749e-24,8.6545599999999999e-30,-1.10242e-30,5.6891199999999997e-30
1694.0,1.93246e-29,1.1475e-24,1.14749e-24,1.1475e-24,8.6363899999999994e-30,-1.1321400000000001e-30,5.6957100000000002e-30
1695.0,2.4977199999999999e-29,1.1474499999999999e-24,1.14747e-24,1.1474499999999999e-24,6.3961399999999998e-30,-1.51438e-30,7.5344399999999997e-30
1696.0,2.32172e-29,1.14746e-24,1.14747e-24,1.14746e-24,6.8273000000000001e-30,-1.47158e-30,7.4899400000000006e-30
1697.0,2.1506500000000001e-29,1.14747e-24,1.1474799999999999e-24,1.14747e-24,7.3524400000000002e-30,-1.40287e-30,7.4966800000000005e-30
1698.0,2.0072399999999999e-29,1.14747e-24,1.1474799999999999e-24,1.14747e-24,7.7554099999999998e-30,-1.4113800000000001e-30,7.4688800000000003e-30
1699.0,1.94876e-29,1.1474799999999999e-24,1.1474799999999999e-24,1.1474799999999999e-24,8.0891300000000005e-30,-1.4416099999999999e-30,7.5351599999999995e-30
1700.0,1.94067e-29,1.14749e-24,1.14749e-24,1.14749e-24,8.2469399999999995e-30,-1.48903e-30,7.3245099999999999e-30
1701.0,2.00867e-29,1.1475e-24,1.14749e-24,1.1475e-24,8.1771599999999994e-30,-1.7031200000000001e-30,6.9055700000000004e-30
1702.0,2.59268e-29,1.1474499999999999e-24,1.14747e-24,1.14746e-24,6.07344e-30,-1.7918600000000002e-30,9.0309699999999996e-30
1703.0,2.4186200000000001e-29,1.14746e-24,1.14747e-24,1.14746e-24,6.4837199999999999e-30,-1.7403500000000002e-30,8.9578099999999997e-30
1704.0,2.26952e-29,1.14747e-24,1.1474799999999999e-24,1.14747e-24,6.8994400000000001e-30,-1.74853e-30,9.0240599999999998e-30
1705.0,2.15898e-29,1.14747e-24,1.1474799999999999e-24,1.14747e-24,7.3624000000000007e-30,-1.7746800000000001e-30,9.0877400000000001e-30
1706.0,2.07876e-29,1.1474799999999999e-24,1.1474799999999999e-24,1.1474799999999999e-24,7.6141000000000006e-30,-1.82704e-30,8.9959500000000001e-30
1707.0,2.1048e-29,1.14749e-24,1.14749e-24,1.14749e-24,7.8401599999999997e-30,-1.9927000000000002e-30,8.9842400000000007e-30
1708.0,2.1809099999999999e-29,1.1475e-24,1.14749e-24,1.1475e-24,7.7866299999999997e-30,-2.10559e-30,8.8305300000000001e-30
1709.0,2.6459899999999997e-29,1.14746e-24,1.14747e-24,1.14746e-24,5.8026499999999999e-30,-2.0458100000000002e-30,1.0006399999999999e-29
1710.0,2.5423900000000002e-29,1.14746e-24,1.1474799999999999e-24,1.14746e-24,6.1941399999999998e-30,-1.9968699999999999e-30,1.0220799999999999e-29
1711.0,2.4042999999999999e-29,1.14747e-24,1.1474799999999999e-24,1.14747e-24,6.6288699999999998e-30,-2.0256000000000001e-30,1.02672e-29
1712.0,2.2923000000000001e-29,1.14747e-24,1.1474799999999999e-24,1.14747e-24,6.9984700000000007e-30,-2.0775999999999998e-30,1.03337e-29
1713.0,2.25175e-29,1.1474799999999999e-24,1.1474799999999999e-24,1.1474799999999999e-24,7.3676900000000003e-30,-2.2403000000000001e-30,1.0357399999999999e-29
1714.0,2.23557e-29,1.14749e-24,1.14749e-24,1.14749e-24,7.4423899999999995e-30,-2.36968e-30,1.0168e-29
1715.0,2.3046399999999999e-29,1.1475e-24,1.14749e-24,1.1475e-24,7.3544499999999995e-30,-2.6314499999999999e-30,9.9290200000000002e-30
1716.0,3.9032400000000002e-29,1.14743e-24,1.14746e-24,1.14743e-24,-3.5348599999999998e-30,-3.72172e-30,1.42551e-29
1717.0,3.84527e-29,1.14743e-24,1.14746e-24,1.14743e-24,-3.7056799999999997e-30,-3.7777899999999999e-30,1.28751e-29
1718.0,3.8782200000000002e-29,1.1474199999999999e-24,1.14746e-24,1.1474199999999999e-24,-3.71082e-30,-3.0218299999999998e-30,1.0973199999999999e-29
1719.0,3.8177799999999998e-29,1.1474199999999999e-24,1.1474499999999999e-24,1.1474199999999999e-24,-3.9859700000000001e-30,-2.9659299999999999e-30,8.9205699999999996e-30
1720.0,3.78424e-29,1.1474199999999999e-24,1.1474499999999999e-24,1.1474199999999999e-24,-3.8422699999999997e-30,-2.3344799999999998e-30,6.6197500000000001e-30
1721.0,3.7414100000000002e-29,1.14741e-24,1.1474499999999999e-24,1.1474199999999999e-24,-4.1481900000000002e-30,-2.20616e-30,3.8899099999999997e-30
1722.0,3.6960299999999999e-29,1.14741e-24,1.1474499999999999e-24,1.1474199999999999e-24,-3.7555700000000002e-30,-1.6367899999999999e-30,1.4290000000000001e-30
1723.0,3.4381199999999997e-29,1.14744e-24,1.14746e-24,1.14744e-24,-3.3067600000000001e-30,-3.7974699999999997e-30,1.28486e-29
1724.0,3.5671899999999998e-29,1.14743e-24,1.14746e-24,1.14743e-24,-3.3432499999999997e-30,-3.2133899999999997e-30,1.21483e-29
1725.0,3.3802399999999998e-29,1.14743e-24,1.14746e-24,1.14743e-24,-3.43211e-30,-3.1640900000000003e-30,1.00076e-29
1726.0,3.4131199999999999e-29,1.14743e-24,1.14746e-24,1.14743e-24,-3.3092300000000003e-30,-2.4566999999999999e-30,8.2315100000000001e-30
1727.0,3.2767599999999998e-29,1.14743e-24,1.14746e-24,1.14743e-24,-3.4839100000000002e-30,-2.4213099999999998e-30,5.8676299999999997e-30
1728.0,3.252e-29,1.1474199999999999e-24,1.14746e-24,1.14743e-24,-3.22759e-30,-1.6949499999999999e-30,3.6433400000000001e-30
1729.0,3.2374900000000002e-29,1.1474199999999999e-24,1.14746e-24,1.14743e-24,-3.4700200000000001e-30,-1.8164600000000001e-30,1.06533e-30
1730.0,3.7130099999999999e-29,1.14743e-24,1.14746e-24,1.14743e-24,-1.5959399999999999e-30,-3.5830500000000003e-30,1.3979799999999999e-29
1731.0,3.7684299999999997e-29,1.14743e-24,1.14746e-24,1.14743e-24,-1.7831400000000001e-30,-3.2154600000000002e-30,1.24948e-29
1732.0,3.7324299999999998e-29,1.14743e-24,1.14746e-24,1.14743e-24,-1.90667e-30,-2.9015899999999999e-30,1.0780899999999999e-29
1733.0,3.70641e-29,1.1474199999999999e-24,1.14746e-24,1.1474199999999999e-24,-1.9315999999999999e-30,-2.52598e-30,8.6795499999999999e-30
1734.0,3.63957e-29,1.1474199999999999e-24,1.1474499999999999e-24,1.1474199999999999e-24,-2.07051e-30,-2.2006499999999999e-30,6.2913500000000002e-30
1735.0,3.5987400000000002e-29,1.1474199999999999e-24,1.1474499999999999e-24,1.1474199999999999e-24,-1.8836500000000001e-30,-1.8549399999999998e-30,3.90276e-30
1736.0,3.5837699999999998e-29,1.14741e-24,1.1474499999999999e-24,1.1474199999999999e-24,-2.2529600000000001e-30,-1.57318e-30,1.13266e-30
1737.0,3.4162300000000002e-29,1.14744e-24,1.14746e-24,1.14744e-24,-1.53661e-30,-3.3804799999999998e-30,1.2919999999999999e-29
1738.0,3.3213699999999997e-29,1.14744e-24,1.14746e-24,1.14744e-24,-1.5752199999999999e-30,-3.06726e-30,1.14582e-29
1739.0,3.3162800000000001e-29,1.14743e-24,1.14746e-24,1.14743e-24,-1.55666e-30,-2.73873e-30,9.8640300000000004e-30
1740.0,3.2092100000000001e-29,1.14743e-24,1.14746e-24,1.14743e-24,-1.5765999999999999e-30,-2.3623500000000001e-30,7.8109599999999997e-30
1741.0,3.1948600000000002e-29,1.14743e-24,1.14746e-24,1.14743e-24,-1.44269e-30,-2.0370599999999999e-30,5.7550599999999997e-30
1742.0,3.1206200000000002e-29,1.14743e-24,1.14746e-24,1.14743e-24,-1.53871e-30,-1.7151699999999999e-30,3.3347099999999997e-30
1743.0,3.1176099999999997e-29,1.1474199999999999e-24,1.14746e-24,1.14743e-24,-1.2569300000000001e-30,-1.31333e-30,1.12264e-30
1744.0,3.62487e-29,1.14744e-24,1.14746e-24,1.14744e-24,2.8425299999999998e-31,-3.2246600000000003e-30,1.3603100000000001e-29
1745.0,3.6165600000000001e-29,1.14743e-24,1.14746e-24,1.14743e-24,1.60116e-31,-2.84235e-30,1.2218e-29
1746.0,3.6063100000000002e-29,1.14743e-24,1.14746e-24,1.14743e-24,5.37739e-32,-2.5632100000000001e-30,1.04133e-29
1747.0,3.5482099999999998e-29,1.1474199999999999e-24,1.14746e-24,1.14743e-24,4.4588800000000003e-32,-2.22237e-30,8.3776499999999994e-30
1748.0,3.4997199999999998e-29,1.1474199999999999e-24,1.14746e-24,1.1474199999999999e-24,8.55033e-32,-1.9260699999999999e-30,6.1075599999999998e-30
1749.0,3.4498599999999998e-29,1.1474199999999999e-24,1.14746e-24,1.1474199999999999e-24,-4.0260499999999999e-32,-1.62763e-30,3.5941200000000003e-30
1750.0,3.4284100000000001e-29,1.1474199999999999e-24,1.1474499999999999e-24,1.1474199999999999e-24,2.5436500000000001e-31,-1.3519699999999999e-30,1.2249700000000001e-30
1751.0,3.24311e-29,1.14744e-24,1.14747e-24,1.14744e-24,2.8379499999999999e-31,-3.0459699999999999e-30,1.2397699999999999e-29
1752.0,3.21553e-29,1.14744e-24,1.14746e-24,1.14744e-24,2.2780100000000001e-31,-2.7741100000000001e-30,1.11072e-29
1753.0,3.1459100000000001e-29,1.14744e-24,1.14746e-24,1.14744e-24,2.7659600000000001e-31,-2.3998299999999999e-30,9.4199099999999996e-30
1754.0,3.10675e-29,1.14743e-24,1.14746e-24,1.14744e-24,3.41575e-31,-2.15079e-30,7.5368199999999996e-30
1755.0,3.0373700000000002e-29,1.14743e-24,1.14746e-24,1.14743e-24,3.8473200000000001e-31,-1.7648399999999998e-30,5.4025800000000002e-30
1756.0,3.0290000000000002e-29,1.14743e-24,1.14746e-24,1.14743e-24,5.89176e-31,-1.52248e-30,3.26667e-30
1757.0,2.9950800000000001e-29,1.14743e-24,1.14746e-24,1.14743e-24,3.5248499999999999e-31,-1.3167500000000001e-30,8.6505400000000006e-31
1758.0,3.4901499999999998e-29,1.14744e-24,1.14746e-24,1.14744e-24,2.0980000000000001e-30,-2.83973e-30,1.31745e-29
1759.0,3.4965800000000003e-29,1.14743e-24,1.14746e-24,1.14744e-24,1.9741700000000001e-30,-2.58344e-30,1.17426e-29
1760.0,3.4548899999999999e-29,1.14743e-24,1.14746e-24,1.14743e-24,2.0386900000000001e-30,-2.20617e-30,1.0045700000000001e-29
1761.0,3.4102199999999999e-29,1.14743e-24,1.14746e-24,1.14743e-24,2.0530899999999999e-30,-1.95784e-30,7.9955700000000002e-30
1762.0,3.3472999999999998e-29,1.14743e-24,1.14746e-24,1.14743e-24,2.11582e-30,-1.6405899999999998e-30,5.8160000000000002e-30
1763.0,3.3026700000000002e-29,1.1474199999999999e-24,1.14746e-24,1.14743e-24,2.2320299999999999e-30,-1.41027e-30,3.4717299999999999e-30
1764.0,3.2805600000000002e-29,1.1474199999999999e-24,1.14746e-24,1.14743e-24,2.0263500000000001e-30,-1.19029e-30,9.3279099999999998e-31
1765.0,3.1284900000000003e-29,1.14744e-24,1.14747e-24,1.14744e-24,1.94945e-30,-2.7627399999999999e-30,1.1907e-29
1766.0,3.0794499999999999e-29,1.14744e-24,1.14747e-24,1.14744e-24,1.9960000000000001e-30,-2.4174499999999998e-30,1.0667799999999999e-29
1767.0,3.0246299999999998e-29,1.14744e-24,1.14746e-24,1.14744e-24,2.0342500000000001e-30,-2.19467e-30,9.0071099999999998e-30
1768.0,2.9742900000000001e-29,1.14744e-24,1.14746e-24,1.14744e-24,2.1904999999999999e-30,-1.8175099999999999e-30,7.1830999999999997e-30
1769.0,2.9430200000000002e-29,1.14743e-24,1.14746e-24,1.14744e-24,2.3258600000000001e-30,-1.6165799999999999e-30,5.1624800000000002e-30
1770.0,2.8854100000000002e-29,1.14743e-24,1.14746e-24,1.14744e-24,2.35189e-30,-1.3093099999999999e-30,3.0025099999999999e-30
1771.0,2.9549899999999997e-29,1.14743e-24,1.14746e-24,1.14743e-24,2.6768299999999999e-30,-1.0353e-30,9.3424000000000003e-31
1772.0,3.36744e-29,1.14744e-24,1.14747e-24,1.14744e-24,3.7514599999999998e-30,-2.5861100000000001e-30,1.2594699999999999e-29
1773.0,3.3509400000000003e-29,1.14744e-24,1.14746e-24,1.14744e-24,3.7611799999999999e-30,-2.1958300000000001e-30,1.1244700000000001e-29
1774.0,3.3197600000000002e-29,1.14743e-24,1.14746e-24,1.14744e-24,3.8340600000000003e-30,-1.9738300000000001e-30,9.5318799999999994e-30
1775.0,3.2578200000000001e-29,1.14743e-24,1.14746e-24,1.14743e-24,4.0049300000000001e-30,-1.6386800000000001e-30,7.6421799999999997e-30
1776.0,3.2133300000000002e-29,1.14743e-24,1.14746e-24,1.14743e-24,4.1088899999999997e-30,-1.4239499999999999e-30,5.4826300000000001e-30
1777.0,3.1651700000000001e-29,1.14743e-24,1.14746e-24,1.14743e-24,4.1773500000000003e-30,-1.20434e-30,3.2195599999999999e-30
1778.0,3.16824e-29,1.14743e-24,1.14746e-24,1.14743e-24,4.4032999999999999e-30,-9.1844300000000006e-31,1.02964e-30
1779.0,3.0067700000000001e-29,1.1474499999999999e-24,1.14747e-24,1.1474499999999999e-24,3.5477699999999998e-30,-2.40583e-30,1.14136e-29
1780.0,2.9609299999999999e-29,1.14744e-24,1.14747e-24,1.1474499999999999e-24,3.5586499999999999e-30,-2.2135899999999998e-30,1.0142299999999999e-29
1781.0,2.9152299999999998e-29,1.14744e-24,1.14747e-24,1.14744e-24,3.7544999999999997e-30,-1.8752199999999999e-30,8.6136700000000004e-30
1782.0,2.8634899999999998e-29,1.14744e-24,1.14747e-24,1.14744e-24,3.9011299999999998e-30,-1.6588699999999999e-30,6.8001000000000001e-30
1783.0,2.8142699999999999e-29,1.14744e-24,1.14746e-24,1.14744e-24,4.0875099999999999e-30,-1.3377099999999999e-30,4.8903100000000002e-30
1784.0,2.8295999999999999e-29,1.14743e-24,1.14746e-24,1.14744e-24,4.3612399999999997e-30,-1.1597800000000001e-30,2.84604e-30
1785.0,2.7750099999999999e-29,1.14743e-24,1.14746e-24,1.14744e-24,4.1432399999999998e-30,-9.6701800000000006e-31,6.5599999999999996e-31
1786.0,3.2371400000000002e-29,1.1474499999999999e-24,1.14747e-24,1.1474499999999999e-24,5.1860599999999998e-30,-2.2150799999999999e-30,1.19891e-29
1787.0,3.2157499999999999e-29,1.14744e-24,1.14747e-24,1.14744e-24,5.27258e-30,-1.9850800000000001e-30,1.06775e-29
1788.0,3.1698799999999999e-29,1.14744e-24,1.14747e-24,1.14744e-24,5.5138100000000002e-30,-1.63124e-30,9.0853499999999996e-30
1789.0,3.1260900000000002e-29,1.14744e-24,1.14746e-24,1.14744e-24,5.7186800000000002e-30,-1.44877e-30,7.1934599999999999e-30
1790.0,3.07365e-29,1.14743e-24,1.14746e-24,1.14744e-24,5.93402e-30,-1.16723e-30,5.2166700000000002e-30
1791.0,3.0450000000000001e-29,1.14743e-24,1.14746e-24,1.14744e-24,6.09593e-30,-9.8442999999999994e-31,3.0298699999999999e-30
1792.0,2.9981100000000002e-29,1.14743e-24,1.14746e-24,1.14744e-24,6.08653e-30,-8.5334800000000003e-31,7.1385399999999998e-31
1793.0,2.91171e-29,1.1474499999999999e-24,1.14747e-24,1.1474499999999999e-24,4.8790099999999998e-30,-2.2206400000000002e-30,1.0872e-29
1794.0,2.8773899999999998e-29,1.1474499999999999e-24,1.14747e-24,1.1474499999999999e-24,5.0550600000000003e-30,-1.9143399999999998e-30,9.7565900000000006e-30
1795.0,2.8120899999999998e-29,1.1474499999999999e-24,1.14747e-24,1.1474499999999999e-24,5.2021799999999997e-30,-1.70263e-30,8.2037200000000006e-30
1796.0,2.7727000000000002e-29,1.14744e-24,1.14747e-24,1.1474499999999999e-24,5.5119700000000002e-30,-1.38228e-30,6.5340999999999997e-30
1797.0,2.7377700000000002e-29,1.14744e-24,1.14747e-24,1.14744e-24,5.7522800000000001e-30,-1.1905599999999999e-30,4.6329600000000001e-30
1798.0,2.7038999999999999e-29,1.14744e-24,1.14747e-24,1.14744e-24,5.8737100000000003e-30,-9.4099000000000004e-31,2.6585000000000001e-30
1799.0,2.8251700000000001e-29,1.14744e-24,1.14746e-24,1.14744e-24,6.44257e-30,-7.2219899999999999e-31,7.2583399999999996e-31
1800.0,3.1135000000000002e-29,1.1474499999999999e-24,1.14747e-24,1.1474499999999999e-24,6.3435599999999994e-30,-1.9629799999999999e-30,1.1455800000000001e-29
1801.0,3.0849099999999998e-29,1.1474499999999999e-24,1.14747e-24,1.1474499999999999e-24,6.6006699999999999e-30,-1.6898399999999998e-30,1.02422e-29
1802.0,3.0398399999999998e-29,1.14744e-24,1.14747e-24,1.1474499999999999e-24,6.9083199999999995e-30,-1.47755e-30,8.7149599999999999e-30
1803.0,2.9866100000000003e-29,1.14744e-24,1.14747e-24,1.14744e-24,7.2144699999999997e-30,-1.16797e-30,6.9364300000000005e-30
1804.0,2.95183e-29,1.14744e-24,1.14747e-24,1.14744e-24,7.4891700000000003e-30,-1.0285300000000001e-30,4.93165e-30
1805.0,2.8982599999999999e-29,1.14744e-24,1.14747e-24,1.14744e-24,7.6744100000000003e-30,-7.8858900000000004e-31,2.8825000000000001e-30
1806.0,2.95941e-29,1.14744e-24,1.14746e-24,1.14744e-24,7.9469399999999994e-30,-5.3310699999999998e-31,7.8689100000000002e-31
1807.0,2.8462199999999998e-29,1.1474499999999999e-24,1.14747e-24,1.1474499999999999e-24,5.9062500000000003e-30,-1.9870599999999999e-30,1.0475e-29
1808.0,2.7961200000000002e-29,1.1474499999999999e-24,1.14747e-24,1.1474499999999999e-24,6.1088000000000002e-30,-1.80255e-30,9.3888599999999997e-30
1809.0,2.74311e-29,1.1474499999999999e-24,1.14747e-24,1.1474499999999999e-24,6.4713900000000002e-30,-1.4550500000000001e-30,7.99176e-30
1810.0,2.6931699999999997e-29,1.1474499999999999e-24,1.14747e-24,1.1474499999999999e-24,6.7326900000000007e-30,-1.25593e-30,6.2796000000000002e-30
1811.0,2.6645199999999998e-29,1.14744e-24,1.14747e-24,1.1474499999999999e-24,7.0595799999999998e-30,-9.9517499999999991e-31,4.4874400000000003e-30
1812.0,2.6890500000000001e-29,1.14744e-24,1.14747e-24,1.1474499999999999e-24,7.4493600000000005e-30,-8.0906799999999997e-31,2.5582500000000001e-30
1813.0,2.5863399999999998e-29,1.14744e-24,1.14747e-24,1.1474499999999999e-24,7.0433699999999995e-30,-5.9777100000000002e-31,4.7814700000000002e-31
1814.0,2.08719e-29,1.1475e-24,1.14749e-24,1.1475e-24,1.13231e-29,1.1526100000000001e-31,7.4016300000000002e-32
1815.0,2.40029e-29,1.14749e-24,1.14749e-24,1.1475e-24,1.30683e-29,6.3565799999999997e-31,-4.1204300000000003e-31
1816.0,2.0749899999999999e-29,1.1475e-24,1.14749e-24,1.1475e-24,1.10619e-29,-7.5047e-32,1.51505e-30
1817.0,2.4095399999999999e-29,1.1475e-24,1.14749e-24,1.1475e-24,1.3022500000000001e-29,2.7828299999999999e-31,2.20123e-30
1818.0,2.12445e-29,1.1475e-24,1.14749e-24,1.1475e-24,1.08065e-29,-3.8783300000000002e-31,4.0579999999999999e-30
1819.0,2.3915699999999999e-29,1.1475e-24,1.14749e-24,1.1475e-24,1.2550800000000001e-29,-4.4638000000000002e-32,3.8483200000000003e-30
1820.0,2.14616e-29,1.1475e-24,1.14749e-24,1.1475e-24,1.03439e-29,-8.3986600000000003e-31,5.3641800000000001e-30
1821.0,2.4591399999999999e-29,1.1475e-24,1.14749e-24,1.1475e-24,1.2038299999999999e-29,-3.5425599999999998e-31,6.2451399999999998e-30
1822.0,2.2704599999999999e-29,1.1475e-24,1.14749e-24,1.1475e-24,9.7326600000000004e-30,-1.23611e-30,7.6565099999999994e-30
1823.0,2.47266e-29,1.1475e-24,1.14749e-24,1.14749e-24,1.13211e-29,-9.1729500000000002e-31,7.5611800000000002e-30
1824.0,2.32588e-29,1.1475e-24,1.14749e-24,1.1475e-24,9.2077600000000006e-30,-1.9527700000000002e-30,8.6625400000000002e-30
1825.0,2.5838399999999999e-29,1.1475e-24,1.14749e-24,1.14749e-24,1.0394700000000001e-29,-1.4937499999999999e-30,9.7398300000000005e-30
1826.0,2.45539e-29,1.1475e-24,1.14749e-24,1.14749e-24,8.3774599999999995e-30,-2.2330000000000001e-30,1.0465e-29
1827.0,2.6113800000000001e-29,1.1475e-24,1.14749e-24,1.14749e-24,9.6132200000000002e-30,-2.3424000000000001e-30,1.06033e-29
1828.0,1.9738799999999999e-29,1.14749e-24,1.1474799999999999e-24,1.14749e-24,1.1266499999999999e-29,1.9042699999999999e-31,-2.0233499999999999e-31
1829.0,2.3465199999999999e-29,1.14749e-24,1.14749e-24,1.14749e-24,1.3445300000000001e-29,4.3748500000000001e-31,-3.8054599999999999e-32
1830.0,1.9942700000000001e-29,1.14749e-24,1.14749e-24,1.14749e-24,1.12547e-29,-7.2067800000000002e-32,2.0149500000000001e-30
1831.0,2.2745800000000001e-29,1.14749e-24,1.1474799999999999e-24,1.14749e-24,1.2870699999999999e-29,2.4828299999999998e-31,2.1670899999999999e-30
1832.0,2.0024700000000001e-29,1.14749e-24,1.14749e-24,1.14749e-24,1.07757e-29,-4.1195899999999998e-31,3.9630499999999998e-30
1833.0,2.3307099999999999e-29,1.14749e-24,1.14749e-24,1.14749e-24,1.26888e-29,6.5111200000000001e-32,4.3108999999999997e-30
1834.0,2.0840100000000001e-29,1.14749e-24,1.14749e-24,1.14749e-24,1.04105e-29,-6.9011099999999996e-31,5.8715800000000001e-30
1835.0,2.35505e-29,1.14749e-24,1.1474799999999999e-24,1.14749e-24,1.2007800000000001e-29,-3.5389500000000001e-31,6.2592900000000003e-30
1836.0,2.16482e-29,1.14749e-24,1.14749e-24,1.14749e-24,9.7626599999999998e-30,-1.23668e-30,7.6097299999999999e-30
1837.0,2.4402299999999999e-29,1.14749e-24,1.14749e-24,1.14749e-24,1.13884e-29,-7.5011299999999996e-31,8.1599700000000004e-30
1838.0,2.2810499999999999e-29,1.14749e-24,1.14749e-24,1.14749e-24,9.1818199999999996e-30,-1.6241499999999998e-30,9.1971400000000001e-30
1839.0,2.5029599999999999e-29,1.14749e-24,1.14749e-24,1.14749e-24,1.0482899999999999e-29,-1.3798800000000001e-30,9.7411299999999993e-30
1840.0,2.38505e-29,1.14749e-24,1.14749e-24,1.14749e-24,8.5619599999999998e-30,-2.2240699999999999e-30,1.04545e-29
1841.0,2.6057099999999998e-29,1.14749e-24,1.14749e-24,1.14749e-24,9.5573300000000003e-30,-2.0842899999999999e-30,1.13046e-29
1842.0,2.03716e-29,1.1474799999999999e-24,1.1474799999999999e-24,1.1474799999999999e-24,1.1477e-29,5.5050399999999999e-32,8.0443e-32
1843.0,2.2038900000000001e-29,1.1474799999999999e-24,1.1474799999999999e-24,1.1474799999999999e-24,1.2539299999999999e-29,3.66054e-31,4.0701199999999999e-32
1844.0,1.9517399999999999e-29,1.1474799999999999e-24,1.1474799999999999e-24,1.1474799999999999e-24,1.08774e-29,-1.9428900000000001e-31,2.0810500000000001e-30
1845.0,2.2765499999999999e-29,1.1474799999999999e-24,1.1474799999999999e-24,1.1474799999999999e-24,1.2749600000000001e-29,2.1921999999999998e-31,2.27858e-30
1846.0,2.00756e-29,1.1474799999999999e-24,1.1474799999999999e-24,1.1474799999999999e-24,1.06767e-29,-3.59899e-31,4.06837e-30
1847.0,2.26696e-29,1.1474799999999999e-24,1.1474799999999999e-24,1.1474799999999999e-24,1.2169900000000001e-29,-5.9372399999999997e-32,4.4243299999999997e-30
1848.0,2.0629399999999999e-29,1.1474799999999999e-24,1.1474799999999999e-24,1.1474799999999999e-24,1.01226e-29,-7.60704e-31,5.9998299999999998e-30
1849.0,2.3486200000000001e-29,1.1474799999999999e-24,1.1474799999999999e-24,1.1474799999999999e-24,1.17694e-29,-2.9520000000000001e-31,6.4679900000000004e-30
1850.0,2.1600299999999999e-29,1.1474799999999999e-24,1.1474799999999999e-24,1.1474799999999999e-24,9.6016700000000001e-30,-1.10257e-30,7.7342299999999999e-30
1851.0,2.4198500000000001e-29,1.1474799999999999e-24,1.1474799999999999e-24,1.1474799999999999e-24,1.10619e-29,-7.5961099999999999e-31,8.2965900000000002e-30
1852.0,2.2749299999999999e-29,1.1474799999999999e-24,1.1474799999999999e-24,1.1474799999999999e-24,8.9637899999999999e-30,-1.6182699999999999e-30,9.3286499999999995e-30
1853.0,2.5197900000000001e-29,1.1474799999999999e-24,1.1474799999999999e-24,1.1474799999999999e-24,1.02757e-29,-1.31097e-30,1.00115e-29
1854.0,2.3846300000000001e-29,1.1474799999999999e-24,1.1474799999999999e-24,1.1474799999999999e-24,8.3805199999999994e-30,-2.0201099999999999e-30,1.06025e-29
1855.0,2.6166300000000001e-29,1.1474799999999999e-24,1.1474799999999999e-24,1.1474799999999999e-24,9.3655200000000004e-30,-1.9458100000000001e-30,1.14805e-29
1856.0,2.0256999999999999e-29,1.14747e-24,1.1474799999999999e-24,1.14747e-24,1.06144e-29,-8.3715600000000005e-32,6.7530800000000004e-32
1857.0,2.3642e-29,1.14747e-24,1.1474799999999999e-24,1.14747e-24,1.25371e-29,1.86282e-31,1.9358099999999999e-31
1858.0,2.0601399999999999e-29,1.14747e-24,1.1474799999999999e-24,1.14747e-24,1.0631300000000001e-29,-2.2304499999999999e-31,2.16096e-30
1859.0,2.2682899999999999e-29,1.14747e-24,1.1474799999999999e-24,1.14747e-24,1.18449e-29,-3.4259699999999997e-33,2.3803000000000001e-30
1860.0,2.06471e-29,1.14747e-24,1.1474799999999999e-24,1.14747e-24,1.0133e-29,-5.0560399999999999e-31,4.15696e-30
1861.0,2.3293699999999999e-29,1.14747e-24,1.1474799999999999e-24,1.14747e-24,1.16778e-29,-1.4664500000000001e-31,4.4980899999999999e-30
1862.0,2.1267700000000001e-29,1.14747e-24,1.1474799999999999e-24,1.14747e-24,9.7214300000000003e-30,-7.6325799999999998e-31,6.0016000000000001e-30
1863.0,2.38508e-29,1.14747e-24,1.1474799999999999e-24,1.14747e-24,1.11337e-29,-4.2251100000000004e-31,6.5212099999999996e-30
1864.0,2.2164600000000001e-29,1.14747e-24,1.1474799999999999e-24,1.14747e-24,9.1658899999999996e-30,-1.14247e-30,7.7896699999999996e-30
1865.0,2.4761700000000001e-29,1.14747e-24,1.1474799999999999e-24,1.14747e-24,1.05466e-29,-8.10159e-31,8.4059900000000002e-30
1866.0,2.3281100000000001e-29,1.14747e-24,1.1474799999999999e-24,1.14747e-24,8.5858700000000002e-30,-1.5466899999999999e-30,9.3522199999999999e-30
1867.0,2.5743099999999997e-29,1.14747e-24,1.1474799999999999e-24,1.14747e-24,9.8186099999999995e-30,-1.2919100000000001e-30,1.00763e-29
1868.0,2.44058e-29,1.14747e-24,1.1474799999999999e-24,1.14747e-24,8.0337099999999993e-30,-1.9556099999999999e-30,1.06277e-29
1869.0,2.6870299999999999e-29,1.14747e-24,1.1474799999999999e-24,1.14747e-24,8.9437299999999996e-30,-1.9007600000000001e-30,1.1589000000000001e-29
1870.0,2.25665e-29,1.14746e-24,1.1474799999999999e-24,1.14746e-24,1.0418799999999999e-29,-1.5124800000000001e-31,2.8684800000000001e-31
1871.0,2.3374800000000001e-29,1.14746e-24,1.14747e-24,1.14746e-24,1.1013500000000001e-29,-4.5173099999999998e-32,2.93979e-31
1872.0,2.1750900000000001e-29,1.14746e-24,1.1474799999999999e-24,1.14746e-24,9.8026999999999994e-30,-4.1230100000000002e-31,2.2445299999999999e-30
1873.0,2.4336400000000001e-29,1.14746e-24,1.14747e-24,1.14746e-24,1.1259800000000001e-29,-1.31835e-31,2.4721000000000001e-30
1874.0,2.2141299999999999e-29,1.14746e-24,1.1474799999999999e-24,1.14746e-24,9.59886e-30,-5.8456100000000001e-31,4.1807600000000001e-30
1875.0,2.4299000000000001e-29,1.14746e-24,1.14747e-24,1.14746e-24,1.07827e-29,-3.4962799999999998e-31,4.5518199999999998e-30
1876.0,2.2558099999999999e-29,1.14746e-24,1.1474799999999999e-24,1.14747e-24,9.1260300000000007e-30,-8.7462799999999998e-31,6.0322499999999997e-30
1877.0,2.50089e-29,1.14746e-24,1.1474799999999999e-24,1.14746e-24,1.03931e-29,-6.0728399999999999e-31,6.5781899999999998e-30
1878.0,2.3302299999999999e-29,1.14747e-24,1.1474799999999999e-24,1.14747e-24,8.59397e-30,-1.20568e-30,7.7763300000000007e-30
1879.0,2.5816699999999998e-29,1.14746e-24,1.1474799999999999e-24,1.14746e-24,9.8580700000000001e-30,-9.1609399999999992e-31,8.4026799999999993e-30
1880.0,2.4313399999999999e-29,1.14747e-24,1.1474799999999999e-24,1.14747e-24,8.0981999999999998e-30,-1.54684e-30,9.3047699999999998e-30
1881.0,2.6846000000000001e-29,1.14746e-24,1.1474799999999999e-24,1.14746e-24,9.1652499999999994e-30,-1.37385e-30,1.01203e-29
1882.0,2.54129e-29,1.14747e-24,1.1474799999999999e-24,1.14747e-24,7.5347000000000001e-30,-1.9278199999999999e-30,1.05939e-29
1883.0,2.7982599999999999e-29,1.14746e-24,1.1474799999999999e-24,1.14746e-24,8.4495599999999997e-30,-1.8675099999999999e-30,1.1542999999999999e-29
1884.0,2.3630499999999999e-29,1.1474499999999999e-24,1.14747e-24,1.14746e-24,9.1562700000000005e-30,-4.3097200000000004e-31,3.0255700000000001e-31
1885.0,2.6529300000000002e-29,1.1474499999999999e-24,1.14747e-24,1.14746e-24,1.06697e-29,-1.79279e-31,4.3767500000000001e-31
1886.0,2.3842900000000001e-29,1.1474499999999999e-24,1.14747e-24,1.14746e-24,9.2118800000000002e-30,-5.0517600000000001e-31,2.2996800000000001e-30
1887.0,2.5543799999999999e-29,1.1474499999999999e-24,1.14747e-24,1.1474499999999999e-24,1.0071200000000001e-29,-3.9627300000000002e-31,2.56423e-30
1888.0,2.37796e-29,1.1474499999999999e-24,1.14747e-24,1.14746e-24,8.7871599999999997e-30,-7.2222000000000002e-31,4.2481299999999998e-30
1889.0,2.6158699999999999e-29,1.1474499999999999e-24,1.14747e-24,1.14746e-24,9.8955799999999997e-30,-5.4119500000000003e-31,4.6678300000000002e-30
1890.0,2.42021e-29,1.14746e-24,1.14747e-24,1.14746e-24,8.4141000000000007e-30,-9.9704800000000008e-31,6.0820799999999997e-30
1891.0,2.6633299999999999e-29,1.1474499999999999e-24,1.14747e-24,1.14746e-24,9.5088899999999994e-30,-7.6804800000000004e-31,6.6021099999999994e-30
1892.0,2.48462e-29,1.14746e-24,1.14747e-24,1.14746e-24,7.9912100000000002e-30,-1.27537e-30,7.7492399999999996e-30
1893.0,2.7280999999999998e-29,1.14746e-24,1.14747e-24,1.14746e-24,9.0043100000000003e-30,-1.10971e-30,8.4772299999999998e-30
1894.0,2.56853e-29,1.14746e-24,1.14747e-24,1.14746e-24,7.4607200000000007e-30,-1.6171100000000002e-30,9.2841599999999997e-30
1895.0,2.8209199999999998e-29,1.14746e-24,1.14747e-24,1.14746e-24,8.4930400000000003e-30,-1.4309599999999999e-30,1.0059800000000001e-29
1896.0,2.6577800000000002e-29,1.14746e-24,1.14747e-24,1.14746e-24,7.0531200000000002e-30,-1.8839699999999998e-30,1.04283e-29
1897.0,2.9261400000000001e-29,1.14746e-24,1.14747e-24,1.14746e-24,7.8169099999999994e-30,-1.8667699999999998e-30,1.14901e-29
1898.0,2.6224199999999999e-29,1.1474499999999999e-24,1.14747e-24,1.1474499999999999e-24,9.00841e-30,-4.2253300000000002e-31,5.1511e-31
1899.0,2.6879999999999999e-29,1.14744e-24,1.14747e-24,1.1474499999999999e-24,9.0578800000000001e-30,-4.8778900000000002e-31,5.5919000000000003e-31
1900.0,2.5401200000000003e-29,1.1474499999999999e-24,1.14747e-24,1.1474499999999999e-24,8.2709000000000003e-30,-6.9863e-31,2.4442899999999999e-30
1901.0,2.78214e-29,1.14744e-24,1.14747e-24,1.1474499999999999e-24,9.1321500000000003e-30,-5.7851999999999998e-31,2.7136100000000001e-30
1902.0,2.5617000000000001e-29,1.1474499999999999e-24,1.14747e-24,1.1474499999999999e-24,8.0457800000000001e-30,-8.5762800000000003e-31,4.3397399999999998e-30
1903.0,2.7846200000000003e-29,1.1474499999999999e-24,1.14747e-24,1.1474499999999999e-24,8.8174399999999994e-30,-7.3761699999999999e-31,4.7741699999999997e-30
1904.0,2.5837000000000002e-29,1.1474499999999999e-24,1.14747e-24,1.1474499999999999e-24,7.7223799999999997e-30,-1.07415e-30,6.1504999999999998e-30
1905.0,2.8356399999999999e-29,1.1474499999999999e-24,1.14747e-24,1.1474499999999999e-24,8.4660700000000002e-30,-9.9669099999999992e-31,6.7474700000000006e-30
1906.0,2.6312899999999997e-29,1.1474499999999999e-24,1.14747e-24,1.1474499999999999e-24,7.2805299999999999e-30,-1.38413e-30,7.8341700000000002e-30
1907.0,2.8934500000000003e-29,1.1474499999999999e-24,1.14747e-24,1.1474499999999999e-24,8.0948500000000005e-30,-1.2293300000000001e-30,8.5163100000000006e-30
1908.0,2.6955099999999998e-29,1.1474499999999999e-24,1.14747e-24,1.1474499999999999e-24,6.9397599999999999e-30,-1.62e-30,9.2185499999999997e-30
1909.0,2.9563699999999999e-29,1.1474499999999999e-24,1.14747e-24,1.1474499999999999e-24,7.6337300000000006e-30,-1.5742099999999999e-30,1.01033e-29
1910.0,2.75861e-29,1.14746e-24,1.14747e-24,1.14746e-24,6.4717599999999994e-30,-1.9414e-30,1.03451e-29
1911.0,3.0247700000000001e-29,1.1474499999999999e-24,1.14747e-24,1.1474499999999999e-24,7.2317700000000004e-30,-1.82235e-30,1.12854e-29
1912.0,3.8316999999999999e-29,1.1475e-24,1.14747e-24,1.1475e-24,-1.5320800000000001e-29,1.14796e-30,-2.2976399999999999e-30
1913.0,3.3951099999999998e-29,1.1475e-24,1.1474799999999999e-24,1.1475e-24,-1.3933000000000001e-29,3.3722199999999999e-31,-2.8146899999999998e-30
1914.0,3.2206999999999999e-29,1.1475e-24,1.14747e-24,1.1475e-24,-1.25154e-29,5.5322799999999998e-31,-2.2093400000000001e-30
1915.0,2.7358599999999999e-29,1.1475e-24,1.1474799999999999e-24,1.1475e-24,-1.12455e-29,-2.7756299999999998e-31,-3.1946099999999997e-30
1916.0,2.51437e-29,1.1475e-24,1.1474799999999999e-24,1.1475e-24,-8.7653100000000006e-30,6.3181800000000004e-32,-1.5166700000000001e-30
1917.0,2.1114200000000001e-29,1.1475e-24,1.14749e-24,1.1475e-24,-8.7057800000000004e-30,-3.4617900000000001e-31,-4.3533199999999998e-30
1918.0,1.8894200000000001e-29,1.14749e-24,1.1474799999999999e-24,1.14749e-24,-3.0911099999999999e-32,-3.3147299999999997e-30,1.92907e-30
1919.0,3.1753e-29,1.14749e-24,1.14747e-24,1.14749e-24,-1.5592399999999999e-29,5.15842e-31,-1.94937e-30
1920.0,2.9273699999999999e-29,1.14749e-24,1.14747e-24,1.1474799999999999e-24,-1.3945899999999999e-29,4.7451100000000001e-31,-1.9700600000000001e-30
1921.0,2.51274e-29,1.14749e-24,1.1474799999999999e-24,1.14749e-24,-1.2621999999999999e-29,-5.78029e-32,-2.2560399999999998e-30
1922.0,2.1347500000000001e-29,1.14749e-24,1.14747e-24,1.14749e-24,-1.01102e-29,-2.2275000000000001e-32,-1.8446799999999999e-30
1923.0,1.89431e-29,1.14749e-24,1.1474799999999999e-24,1.14749e-24,-9.6556500000000003e-30,-3.0816100000000001e-31,-2.6227399999999998e-30
1924.0,1.1116200000000001e-29,1.1474799999999999e-24,1.1474799999999999e-24,1.14749e-24,-4.2424299999999997e-30,-1.02335e-30,-1.23593e-30
1925.0,1.3769299999999999e-29,1.14749e-24,1.1474799999999999e-24,1.14749e-24,-5.4407799999999997e-30,2.8657600000000002e-31,-2.1094699999999999e-30
1926.0,2.8764899999999999e-29,1.14747e-24,1.14746e-24,1.14747e-24,-1.5510800000000001e-29,4.1017899999999997e-31,-1.4719399999999999e-30
1927.0,2.5256699999999999e-29,1.1474799999999999e-24,1.14747e-24,1.1474799999999999e-24,-1.4052700000000001e-29,4.6240000000000001e-32,-1.6945299999999999e-30
1928.0,2.1535299999999999e-29,1.14747e-24,1.14747e-24,1.14747e-24,-1.1917e-29,-1.03019e-31,-1.6061799999999999e-30
1929.0,1.9206200000000001e-29,1.1474799999999999e-24,1.14747e-24,1.1474799999999999e-24,-1.0835e-29,-2.6833400000000002e-31,-1.9282599999999999e-30
1930.0,1.30817e-29,1.14747e-24,1.14747e-24,1.14747e-24,-7.2816900000000007e-30,-5.9067300000000004e-31,-1.6360000000000001e-30
1931.0,1.24681e-29,1.1474799999999999e-24,1.1474799999999999e-24,1.1474799999999999e-24,-6.9272699999999995e-30,-2.84797e-31,-1.7838699999999999e-30
1932.0,8.6768699999999999e-30,1.14747e-24,1.1474799999999999e-24,1.14747e-24,-4.1093399999999999e-30,-7.5400600000000001e-31,-1.9510300000000001e-30
1933.0,2.6679899999999998e-29,1.14747e-24,1.14746e-24,1.14747e-24,-1.5348499999999999e-29,-5.29458e-33,-1.15649e-30
1934.0,2.37146e-29,1.14746e-24,1.14746e-24,1.14746e-24,-1.36369e-29,-1.8187999999999999e-31,-1.1999599999999999e-30
1935.0,2.13292e-29,1.14747e-24,1.14747e-24,1.14747e-24,-1.21076e-29,-2.8439199999999998e-31,-1.4783300000000001e-30
1936.0,1.7588899999999999e-29,1.14746e-24,1.14747e-24,1.14746e-24,-9.6679600000000001e-30,-5.6555900000000002e-31,-1.41403e-30
1937.0,1.59118e-29,1.14746e-24,1.14747e-24,1.14747e-24,-8.4846699999999996e-30,-4.6672000000000002e-31,-1.50552e-30
1938.0,1.3638400000000001e-29,1.14746e-24,1.14747e-24,1.14746e-24,-5.8594700000000002e-30,-6.8943599999999998e-31,-1.75389e-30
1939.0,1.05988e-29,1.14746e-24,1.14747e-24,1.14747e-24,-4.1191400000000003e-30,-6.5151599999999998e-31,-1.3569199999999999e-30
1940.0,2.6325900000000002e-29,1.1474499999999999e-24,1.14746e-24,1.1474499999999999e-24,-1.49745e-29,-3.4062099999999999e-31,-8.2136600000000004e-31
1941.0,2.41286e-29,1.14746e-24,1.14746e-24,1.14746e-24,-1.32742e-29,-3.57881e-31,-1.0727400000000001e-30
1942.0,2.21901e-29,1.1474499999999999e-24,1.14746e-24,1.1474499999999999e-24,-1.16298e-29,-6.6065100000000002e-31,-1.0621300000000001e-30
1943.0,2.02189e-29,1.1474499999999999e-24,1.14747e-24,1.14746e-24,-9.9518400000000002e-30,-5.63506e-31,-1.2267e-30
1944.0,1.9241000000000001e-29,1.1474499999999999e-24,1.14747e-24,1.1474499999999999e-24,-7.84159e-30,-7.9265099999999996e-31,-1.4149799999999999e-30
1945.0,1.6760999999999999e-29,1.1474499999999999e-24,1.14747e-24,1.14746e-24,-6.1094600000000002e-30,-7.9114400000000005e-31,-1.21302e-30
1946.0,1.7604500000000001e-29,1.1474499999999999e-24,1.14747e-24,1.1474499999999999e-24,-4.30595e-30,-6.9752700000000003e-31,-1.79274e-30
1947.0,2.6945900000000003e-29,1.1474499999999999e-24,1.14746e-24,1.1474499999999999e-24,-1.42287e-29,-4.7910100000000003e-31,-6.9446599999999999e-31
1948.0,2.6139099999999997e-29,1.14744e-24,1.14746e-24,1.1474499999999999e-24,-1.3180900000000001e-29,-7.9082299999999996e-31,-7.0024699999999997e-31
1949.0,2.4129899999999999e-29,1.1474499999999999e-24,1.14746e-24,1.1474499999999999e-24,-1.1265799999999999e-29,-6.8206900000000002e-31,-9.3249800000000005e-31
1950.0,2.4371700000000001e-29,1.14744e-24,1.14746e-24,1.14744e-24,-9.7172699999999995e-30,-9.1550700000000003e-31,-1.0630100000000001e-30
1951.0,2.2329099999999999e-29,1.14744e-24,1.14746e-24,1.1474499999999999e-24,-7.9030699999999997e-30,-9.0998799999999999e-31,-1.03111e-30
1952.0,2.32685e-29,1.14744e-24,1.14746e-24,1.14744e-24,-6.1757300000000003e-30,-8.60034e-31,-1.43993e-30
1953.0,2.1225899999999999e-29,1.14744e-24,1.14746e-24,1.1474499999999999e-24,-4.1263099999999998e-30,-1.07519e-30,-1.1071e-30
1954.0,2.89559e-29,1.14744e-24,1.1474499999999999e-24,1.14744e-24,-1.42856e-29,-9.6086300000000001e-31,-4.3504299999999998e-31
1955.0,2.7163099999999998e-29,1.14744e-24,1.14746e-24,1.14744e-24,-1.24203e-29,-8.1730499999999997e-31,-6.7726100000000002e-31
1956.0,2.8484599999999999e-29,1.14743e-24,1.14746e-24,1.14744e-24,-1.1422499999999999e-29,-1.0151500000000001e-30,-7.458e-31
1957.0,2.6844300000000001e-29,1.14744e-24,1.14746e-24,1.14744e-24,-9.5278199999999995e-30,-1.06479e-30,-8.0494300000000002e-31
1958.0,2.8384099999999997e-29,1.14743e-24,1.14746e-24,1.14743e-24,-8.0528299999999994e-30,-1.06751e-30,-1.14671e-30
1959.0,2.66989e-29,1.14743e-24,1.14746e-24,1.14744e-24,-6.2524600000000001e-30,-1.19902e-30,-9.9283699999999994e-31
1960.0,2.7846299999999998e-29,1.14743e-24,1.14746e-24,1.14743e-24,-4.7005300000000003e-30,-9.8533199999999992e-31,-1.4783300000000001e-30
1961.0,3.8162800000000002e-29,1.1475e-24,1.14747e-24,1.1475e-24,-1.4955899999999999e-29,9.92663e-31,-4.0357600000000002e-30
1962.0,3.59165e-29,1.1475e-24,1.14747e-24,1.1475e-24,-1.3764900000000001e-29,9.8762599999999994e-31,-3.6098599999999998e-30
1963.0,3.2412900000000001e-29,1.1475e-24,1.1474799999999999e-24,1.1475e-24,-1.2557099999999999e-29,5.0129199999999997e-31,-4.3905699999999998e-30
1964.0,2.9326699999999999e-29,1.1475e-24,1.1474799999999999e-24,1.1475e-24,-1.0736300000000001e-29,4.3499999999999997e-31,-3.4911100000000003e-30
1965.0,2.6108e-29,1.1475e-24,1.1474799999999999e-24,1.1475e-24,-9.9671100000000001e-30,3.5453999999999999e-31,-4.9549000000000003e-30
1966.0,2.1485400000000001e-29,1.1475e-24,1.1474799999999999e-24,1.1475e-24,-6.07495e-30,-9.1015000000000008e-31,-2.76456e-30
1967.0,2.1045800000000001e-29,1.1475e-24,1.14749e-24,1.1475e-24,-8.6304900000000002e-30,5.9678399999999996e-31,-5.2735500000000002e-30
1968.0,3.2816300000000001e-29,1.14749e-24,1.14747e-24,1.1474799999999999e-24,-1.51828e-29,9.49231e-31,-3.5176400000000002e-30
1969.0,2.9395499999999997e-29,1.14749e-24,1.14747e-24,1.14749e-24,-1.3818299999999999e-29,5.8684e-31,-3.7091499999999999e-30
1970.0,2.6097900000000001e-29,1.14749e-24,1.14747e-24,1.14749e-24,-1.20582e-29,4.5099300000000002e-31,-3.7056399999999999e-30
1971.0,2.2950099999999999e-29,1.14749e-24,1.1474799999999999e-24,1.14749e-24,-1.08106e-29,2.0505800000000002e-31,-3.9838199999999999e-30
1972.0,1.833e-29,1.1474799999999999e-24,1.1474799999999999e-24,1.14749e-24,-8.0979300000000002e-30,-6.3184199999999997e-32,-3.7305900000000001e-30
1973.0,1.6327000000000001e-29,1.14749e-24,1.1474799999999999e-24,1.14749e-24,-7.2614099999999999e-30,-2.80033e-31,-4.04437e-30
1974.0,9.7315199999999995e-30,1.1474799999999999e-24,1.1474799999999999e-24,1.1474799999999999e-24,-3.5967599999999998e-30,-8.6832599999999995e-31,-2.1540500000000001e-30
1975.0,2.8567599999999998e-29,1.1474799999999999e-24,1.14747e-24,1.1474799999999999e-24,-1.5157500000000001e-29,6.4636199999999999e-31,-3.2636200000000001e-30
1976.0,2.5529400000000003e-29,1.1474799999999999e-24,1.14747e-24,1.1474799999999999e-24,-1.35258e-29,4.2245900000000001e-31,-3.3919099999999997e-30
1977.0,2.2422199999999999e-29,1.1474799999999999e-24,1.14747e-24,1.1474799999999999e-24,-1.2030899999999999e-29,2.2009100000000001e-31,-3.5194900000000002e-30
1978.0,1.8675700000000001e-29,1.14747e-24,1.14747e-24,1.1474799999999999e-24,-9.9014299999999998e-30,6.8933300000000004e-32,-3.6793199999999998e-30
1979.0,1.60611e-29,1.1474799999999999e-24,1.1474799999999999e-24,1.1474799999999999e-24,-8.4139000000000001e-30,-1.8714000000000001e-31,-3.6920899999999997e-30
1980.0,1.17347e-29,1.14747e-24,1.14747e-24,1.14747e-24,-5.7566899999999999e-30,-1.85571e-31,-3.4422299999999998e-30
1981.0,1.0832899999999999e-29,1.1474799999999999e-24,1.1474799999999999e-24,1.1474799999999999e-24,-4.6326999999999998e-30,2.33212e-31,-4.0762400000000001e-30
1982.0,2.6431999999999997e-29,1.14747e-24,1.14746e-24,1.14746e-24,-1.4864900000000001e-29,3.7158500000000002e-31,-2.98941e-30
1983.0,2.3645200000000001e-29,1.14747e-24,1.14747e-24,1.14747e-24,-1.3280900000000001e-29,1.9366399999999999e-31,-3.1284399999999999e-30
1984.0,2.0884899999999999e-29,1.14746e-24,1.14747e-24,1.14747e-24,-1.15547e-29,4.0950700000000001e-32,-3.3302999999999999e-30
1985.0,1.8450999999999999e-29,1.14747e-24,1.14747e-24,1.14747e-24,-9.8802400000000007e-30,-1.40331e-31,-3.4018900000000001e-30
1986.0,1.5763299999999999e-29,1.14746e-24,1.14747e-24,1.14746e-24,-7.7461999999999997e-30,-1.55564e-31,-3.5441600000000002e-30
1987.0,1.3913499999999999e-29,1.14747e-24,1.14747e-24,1.14747e-24,-6.2122599999999998e-30,-1.8544499999999999e-31,-3.6810099999999997e-30
1988.0,1.3296399999999999e-29,1.14746e-24,1.14747e-24,1.14746e-24,-4.1611300000000001e-30,-4.6613699999999999e-31,-3.7849000000000003e-30
1989.0,2.5668499999999998e-29,1.14746e-24,1.14746e-24,1.14746e-24,-1.43853e-29,1.2991300000000001e-31,-2.7481599999999999e-30
1990.0,2.37226e-29,1.14746e-24,1.14746e-24,1.14746e-24,-1.2968999999999999e-29,-4.4618299999999999e-32,-2.9116800000000002e-30
1991.0,2.1664999999999999e-29,1.14746e-24,1.14746e-24,1.14746e-24,-1.12726e-29,-1.6059199999999999e-31,-3.04814e-30
1992.0,2.0105100000000001e-29,1.1474499999999999e-24,1.14746e-24,1.14746e-24,-9.5353099999999998e-30,-2.5005800000000002e-31,-3.2488300000000003e-30
1993.0,1.8497400000000001e-29,1.1474499999999999e-24,1.14747e-24,1.14746e-24,-7.8346000000000005e-30,-3.1825300000000002e-31,-3.3758600000000002e-30
1994.0,1.8111999999999999e-29,1.1474499999999999e-24,1.14747e-24,1.1474499999999999e-24,-5.9291300000000001e-30,-3.8557999999999999e-31,-3.6078900000000003e-30
1995.0,1.6397199999999999e-29,1.1474499999999999e-24,1.14747e-24,1.14746e-24,-3.9919900000000002e-30,-3.32627e-31,-3.5913699999999999e-30
1996.0,2.6478000000000002e-29,1.1474499999999999e-24,1.14746e-24,1.1474499999999999e-24,-1.4062700000000001e-29,-1.54487e-31,-2.5830499999999999e-30
1997.0,2.48425e-29,1.1474499999999999e-24,1.14746e-24,1.1474499999999999e-24,-1.2488299999999999e-29,-2.3853000000000001e-31,-2.7205100000000001e-30
1998.0,2.40542e-29,1.1474499999999999e-24,1.14746e-24,1.1474499999999999e-24,-1.1115200000000001e-29,-3.3516999999999999e-31,-2.87874e-30
1999.0,2.2901000000000001e-29,1.1474499999999999e-24,1.14746e-24,1.1474499999999999e-24,-9.3752800000000003e-30,-4.1164300000000004e-31,-3.0514999999999999e-30
2000.0,2.2868699999999999e-29,1.14744e-24,1.14746e-24,1.1474499999999999e-24,-7.7062799999999996e-30,-5.09754e-31,-3.2849200000000002e-30
2001.0,2.1686899999999999e-29,1.14744e-24,1.14746e-24,1.1474499999999999e-24,-5.9335599999999998e-30,-5.0048899999999998e-31,-3.3646999999999999e-30
2002.0,2.29121e-29,1.14744e-24,1.14746e-24,1.14744e-24,-4.34842e-30,-6.0368300000000001e-31,-3.7876300000000001e-30
2003.0,2.72647e-29,1.14744e-24,1.14746e-24,1.14744e-24,-1.3365200000000001e-29,-3.3942599999999999e-31,-2.4835800000000001e-30
2004.0,2.7372899999999999e-29,1.14744e-24,1.14746e-24,1.14744e-24,-1.2478899999999999e-29,-4.1886600000000002e-31,-2.5627800000000001e-30
2005.0,2.6554499999999997e-29,1.14744e-24,1.14746e-24,1.14744e-24,-1.0808800000000001e-29,-5.1879500000000003e-31,-2.7431199999999999e-30
2006.0,2.7105900000000001e-29,1.14743e-24,1.14746e-24,1.14744e-24,-9.3960800000000003e-30,-6.4182299999999997e-31,-2.9817099999999999e-30
2007.0,2.6667299999999997e-29,1.14743e-24,1.14746e-24,1.14744e-24,-7.7503899999999997e-30,-6.3733700000000002e-31,-3.16231e-30
2008.0,2.7527799999999998e-29,1.14743e-24,1.14746e-24,1.14744e-24,-6.2203199999999997e-30,-6.7670200000000003e-31,-3.4919900000000001e-30
2009.0,2.6540600000000001e-29,1.14743e-24,1.14746e-24,1.14744e-24,-4.3319300000000001e-30,-7.23823e-31,-3.4467299999999999e-30
2010.0,3.9289400000000003e-29,1.1475e-24,1.14747e-24,1.1475e-24,-1.4780999999999999e-29,1.41512e-30,-4.8198200000000003e-30
2011.0,3.6443800000000002e-29,1.1475e-24,1.14747e-24,1.1475e-24,-1.3605e-29,1.04578e-30,-5.4546699999999999e-30
2012.0,3.35444e-29,1.1475e-24,1.14747e-24,1.1475e-24,-1.22425e-29,9.6675200000000009e-31,-4.9763399999999997e-30
2013.0,3.0687600000000001e-29,1.1475e-24,1.1474799999999999e-24,1.1475e-24,-1.1232300000000001e-29,9.1981500000000001e-31,-5.9529200000000002e-30
2014.0,2.6716499999999999e-29,1.1475e-24,1.1474799999999999e-24,1.1475e-24,-8.81377e-30,2.8309200000000002e-31,-5.0122399999999998e-30
2015.0,2.4802799999999999e-29,1.1475e-24,1.14749e-24,1.1475e-24,-8.7673199999999999e-30,1.0866999999999999e-30,-6.3883099999999996e-30
2016.0,2.0998599999999999e-29,1.14749e-24,1.1474799999999999e-24,1.1475e-24,-4.0216199999999997e-30,5.6243499999999997e-31,-5.3549999999999999e-30
2017.0,3.3300299999999997e-29,1.14749e-24,1.14747e-24,1.14749e-24,-1.48814e-29,1.1305000000000001e-30,-5.0920999999999998e-30
2018.0,3.0397899999999999e-29,1.14749e-24,1.14747e-24,1.14749e-24,-1.3469599999999999e-29,9.7136399999999999e-31,-5.1790600000000003e-30
2019.0,2.7344799999999997e-29,1.14749e-24,1.14747e-24,1.14749e-24,-1.20966e-29,7.5107500000000004e-31,-5.3775700000000002e-30
2020.0,2.3890899999999999e-29,1.14749e-24,1.14747e-24,1.14749e-24,-1.0313099999999999e-29,5.9765500000000003e-31,-5.5092099999999998e-30
2021.0,2.0989199999999999e-29,1.14749e-24,1.1474799999999999e-24,1.14749e-24,-8.8359499999999999e-30,4.0197399999999999e-31,-5.7278499999999998e-30
2022.0,1.7123300000000001e-29,1.1474799999999999e-24,1.1474799999999999e-24,1.14749e-24,-6.6009800000000007e-30,2.55781e-31,-5.3798900000000003e-30
2023.0,1.6703e-29,1.14749e-24,1.1474799999999999e-24,1.14749e-24,-5.8734000000000002e-30,7.27405e-31,-6.8324199999999997e-30
2024.0,2.9181800000000003e-29,1.1474799999999999e-24,1.14746e-24,1.1474799999999999e-24,-1.47187e-29,9.4919999999999992e-31,-4.97746e-30
2025.0,2.6221299999999999e-29,1.1474799999999999e-24,1.14747e-24,1.1474799999999999e-24,-1.32799e-29,7.5221600000000004e-31,-5.0709399999999999e-30
2026.0,2.3283400000000001e-29,1.1474799999999999e-24,1.14747e-24,1.1474799999999999e-24,-1.16694e-29,6.06115e-31,-5.3566899999999998e-30
2027.0,2.02426e-29,1.1474799999999999e-24,1.14747e-24,1.1474799999999999e-24,-9.9837299999999994e-30,3.6515099999999999e-31,-5.4200200000000002e-30
2028.0,1.7362900000000001e-29,1.14747e-24,1.14747e-24,1.1474799999999999e-24,-8.1322600000000005e-30,3.49393e-31,-5.6184e-30
2029.0,1.5181499999999999e-29,1.1474799999999999e-24,1.1474799999999999e-24,1.1474799999999999e-24,-6.4367399999999999e-30,1.86137e-31,-5.8471599999999997e-30
2030.0,1.17053e-29,1.14747e-24,1.14747e-24,1.14747e-24,-4.0765600000000001e-30,-1.11446e-31,-5.2342500000000003e-30
2031.0,2.6620500000000002e-29,1.14747e-24,1.14746e-24,1.14747e-24,-1.4423999999999999e-29,7.3429400000000001e-31,-4.7891700000000001e-30
2032.0,2.4104299999999999e-29,1.14747e-24,1.14746e-24,1.14747e-24,-1.29392e-29,5.72637e-31,-4.9713099999999997e-30
2033.0,2.1469e-29,1.14747e-24,1.14747e-24,1.14747e-24,-1.12881e-29,3.6495900000000002e-31,-5.0893899999999999e-30
2034.0,1.9337500000000001e-29,1.14746e-24,1.14747e-24,1.14747e-24,-9.6321100000000005e-30,3.2715999999999998e-31,-5.4091999999999999e-30
2035.0,1.71597e-29,1.14747e-24,1.14747e-24,1.14747e-24,-7.8299800000000002e-30,1.23328e-31,-5.5066699999999999e-30
2036.0,1.5545599999999999e-29,1.14746e-24,1.14747e-24,1.14746e-24,-5.94056e-30,1.4019200000000001e-31,-5.6492899999999999e-30
2037.0,1.4752100000000001e-29,1.14746e-24,1.14747e-24,1.14747e-24,-4.2343599999999998e-30,3.3955300000000001e-31,-6.1677100000000001e-30
2038.0,2.5745599999999999e-29,1.14746e-24,1.14746e-24,1.14746e-24,-1.4035300000000001e-29,4.9422199999999998e-31,-4.6230600000000001e-30
2039.0,2.3586200000000001e-29,1.14746e-24,1.14746e-24,1.14746e-24,-1.2491700000000001e-29,3.3571300000000002e-31,-4.7301100000000001e-30
2040.0,2.2045200000000001e-29,1.14746e-24,1.14746e-24,1.14746e-24,-1.10381e-29,2.58029e-31,-5.0064899999999999e-30
2041.0,2.0356399999999999e-29,1.14746e-24,1.14747e-24,1.14746e-24,-9.3018000000000003e-30,1.0189899999999999e-31,-5.1613899999999998e-30
2042.0,1.9433300000000001e-29,1.1474499999999999e-24,1.14747e-24,1.14746e-24,-7.6049500000000003e-30,9.1235300000000001e-32,-5.4549100000000003e-30
2043.0,1.8424799999999999e-29,1.1474499999999999e-24,1.14747e-24,1.14746e-24,-5.8792099999999997e-30,1.08522e-32,-5.6849199999999997e-30
2044.0,1.89742e-29,1.1474499999999999e-24,1.14747e-24,1.1474499999999999e-24,-4.1198500000000001e-30,-2.3364800000000001e-31,-5.9490400000000003e-30
2045.0,2.5946400000000002e-29,1.1474499999999999e-24,1.14746e-24,1.1474499999999999e-24,-1.3478300000000001e-29,2.5639499999999999e-31,-4.4717499999999999e-30
2046.0,2.4878500000000001e-29,1.1474499999999999e-24,1.14746e-24,1.1474499999999999e-24,-1.22936e-29,2.0884700000000002e-31,-4.6315499999999997e-30
2047.0,2.36422e-29,1.1474499999999999e-24,1.14746e-24,1.1474499999999999e-24,-1.0691700000000001e-29,6.9626599999999996e-32,-4.7929900000000002e-30
2048.0,2.31163e-29,1.1474499999999999e-24,1.14746e-24,1.1474499999999999e-24,-9.1524899999999995e-30,-1.24506e-32,-5.0739100000000001e-30
2049.0,2.2629599999999999e-29,1.1474499999999999e-24,1.14746e-24,1.1474499999999999e-24,-7.5066599999999994e-30,-8.4068199999999997e-32,-5.3312400000000003e-30
2050.0,2.2933599999999999e-29,1.14744e-24,1.14746e-24,1.1474499999999999e-24,-5.8535800000000003e-30,-1.86299e-31,-5.6489100000000001e-30
2051.0,2.2160999999999999e-29,1.14744e-24,1.14746e-24,1.1474499999999999e-24,-4.0520300000000003e-30,-1.21556e-31,-5.7655999999999998e-30
2052.0,2.7272999999999997e-29,1.14744e-24,1.14746e-24,1.14744e-24,-1.32475e-29,1.2984700000000001e-31,-4.40026e-30
2053.0,2.6512499999999999e-29,1.14744e-24,1.14746e-24,1.14744e-24,-1.19237e-29,1.7415699999999999e-32,-4.4902699999999997e-30
2054.0,2.6411499999999998e-29,1.14744e-24,1.14746e-24,1.14744e-24,-1.05884e-29,-1.0313999999999999e-31,-4.7365299999999999e-30
2055.0,2.6436400000000002e-29,1.14744e-24,1.14746e-24,1.14744e-24,-9.0672499999999995e-30,-1.53517e-31,-5.02896e-30
2056.0,2.6906600000000003e-29,1.14743e-24,1.14746e-24,1.14744e-24,-7.5668099999999998e-30,-2.6843399999999999e-31,-5.3442100000000001e-30
2057.0,2.6726900000000001e-29,1.14743e-24,1.14746e-24,1.14744e-24,-5.9667100000000001e-30,-2.8192100000000002e-31,-5.5659800000000003e-30
2058.0,2.8114199999999999e-29,1.14743e-24,1.14746e-24,1.14744e-24,-4.4682299999999999e-30,-4.5600200000000001e-31,-6.0180300000000002e-30
2059.0,3.9644200000000001e-29,1.1475e-24,1.14747e-24,1.1475e-24,-1.44509e-29,1.42914e-30,-6.4861700000000001e-30
2060.0,3.7175599999999998e-29,1.1475e-24,1.14747e-24,1.1475e-24,-1.3366699999999999e-29,1.47083e-30,-6.14877e-30
2061.0,3.4650299999999999e-29,1.1475e-24,1.1474799999999999e-24,1.1475e-24,-1.23671e-29,1.32205e-30,-6.9118499999999994e-30
2062.0,3.1279999999999999e-29,1.1475e-24,1.1474799999999999e-24,1.1475e-24,-1.06011e-29,1.08019e-30,-6.5281399999999993e-30
2063.0,2.91251e-29,1.1475e-24,1.1474799999999999e-24,1.1475e-24,-9.8742499999999998e-30,1.43979e-30,-7.4807700000000004e-30
2064.0,2.5287600000000001e-29,1.1475e-24,1.1474799999999999e-24,1.1475e-24,-6.9343400000000001e-30,9.4084900000000007e-31,-6.9955900000000001e-30
2065.0,2.30505e-29,1.1475e-24,1.14749e-24,1.1475e-24,-7.0112599999999998e-30,1.01421e-30,-7.7817999999999996e-30
2066.0,3.4059399999999999e-29,1.14749e-24,1.14747e-24,1.14749e-24,-1.45181e-29,1.4490900000000001e-30,-6.5101699999999994e-30
2067.0,3.13707e-29,1.14749e-24,1.14747e-24,1.14749e-24,-1.3246e-29,1.2140099999999999e-30,-6.6570400000000006e-30
2068.0,2.84909e-29,1.14749e-24,1.14747e-24,1.14749e-24,-1.1851e-29,1.1609499999999999e-30,-6.9188899999999995e-30
2069.0,2.56454e-29,1.14749e-24,1.1474799999999999e-24,1.14749e-24,-1.03378e-29,9.7678399999999995e-31,-7.1625000000000002e-30
2070.0,2.2668600000000001e-29,1.14749e-24,1.1474799999999999e-24,1.14749e-24,-8.66913e-30,9.1439400000000001e-31,-7.3186500000000005e-30
2071.0,2.0635299999999999e-29,1.14749e-24,1.1474799999999999e-24,1.14749e-24,-7.0994099999999996e-30,1.00861e-30,-7.9408300000000004e-30
2072.0,1.7333399999999999e-29,1.1474799999999999e-24,1.1474799999999999e-24,1.14749e-24,-4.40226e-30,7.3996099999999998e-31,-7.4218299999999998e-30
2073.0,2.9872800000000001e-29,1.1474799999999999e-24,1.14747e-24,1.1474799999999999e-24,-1.43412e-29,1.2509300000000001e-30,-6.5609199999999998e-30
2074.0,2.7321900000000002e-29,1.1474799999999999e-24,1.14747e-24,1.1474799999999999e-24,-1.2972600000000001e-29,1.10795e-30,-6.7763799999999997e-30
2075.0,2.44759e-29,1.1474799999999999e-24,1.14747e-24,1.1474799999999999e-24,-1.1412500000000001e-29,9.0937200000000007e-31,-6.9128900000000007e-30
2076.0,2.21072e-29,1.1474799999999999e-24,1.14747e-24,1.1474799999999999e-24,-9.9159099999999995e-30,8.6586299999999997e-31,-7.3093599999999994e-30
2077.0,1.955e-29,1.1474799999999999e-24,1.14747e-24,1.1474799999999999e-24,-8.1061200000000003e-30,6.8502499999999997e-31,-7.5099700000000003e-30
2078.0,1.74534e-29,1.14747e-24,1.14747e-24,1.1474799999999999e-24,-6.3760700000000003e-30,6.6098699999999996e-31,-7.66088e-30
2079.0,1.72124e-29,1.1474799999999999e-24,1.1474799999999999e-24,1.1474799999999999e-24,-4.8211299999999997e-30,8.5748899999999994e-31,-8.5892800000000006e-30
2080.0,2.7281099999999999e-29,1.14747e-24,1.14746e-24,1.14747e-24,-1.4024299999999999e-29,1.07414e-30,-6.5408599999999995e-30
2081.0,2.47895e-29,1.14747e-24,1.14747e-24,1.14747e-24,-1.25371e-29,8.7491199999999998e-31,-6.6226399999999999e-30
2082.0,2.2801300000000001e-29,1.14747e-24,1.14747e-24,1.14747e-24,-1.11095e-29,8.0489599999999998e-31,-6.9842800000000004e-30
2083.0,2.0554399999999999e-29,1.14747e-24,1.14747e-24,1.14747e-24,-9.3888799999999996e-30,6.0033100000000002e-31,-7.1674699999999998e-30
2084.0,1.9198599999999999e-29,1.14746e-24,1.14747e-24,1.14747e-24,-7.8146799999999996e-30,6.2288599999999998e-31,-7.5556300000000002e-30
2085.0,1.7901999999999999e-29,1.14747e-24,1.14747e-24,1.14747e-24,-5.9864900000000002e-30,4.8634799999999996e-31,-7.8491500000000007e-30
2086.0,1.69717e-29,1.14746e-24,1.14747e-24,1.14746e-24,-4.04773e-30,2.4062e-31,-7.8830900000000005e-30
2087.0,2.6042100000000002e-29,1.14746e-24,1.14746e-24,1.14746e-24,-1.3551599999999999e-29,8.6514400000000003e-31,-6.3954700000000005e-30
2088.0,2.4285e-29,1.14746e-24,1.14746e-24,1.14746e-24,-1.2214200000000001e-29,7.3044300000000003e-31,-6.5646399999999997e-30
2089.0,2.2554099999999999e-29,1.14746e-24,1.14746e-24,1.14746e-24,-1.0665500000000001e-29,5.73741e-31,-6.76709e-30
2090.0,2.1532799999999999e-29,1.14746e-24,1.14746e-24,1.14746e-24,-9.1680900000000002e-30,5.40209e-31,-7.1653199999999997e-30
2091.0,2.0448699999999999e-29,1.14746e-24,1.14747e-24,1.14746e-24,-7.4373800000000001e-30,3.8500300000000001e-31,-7.4220700000000002e-30
2092.0,2.0305300000000001e-29,1.1474499999999999e-24,1.14747e-24,1.14746e-24,-5.7958500000000003e-30,3.5737799999999998e-31,-7.7901399999999998e-30
2093.0,1.9938100000000001e-29,1.1474499999999999e-24,1.14747e-24,1.14746e-24,-4.0843699999999997e-30,4.7228499999999999e-31,-8.17902e-30
2094.0,2.63006e-29,1.1474499999999999e-24,1.14746e-24,1.1474499999999999e-24,-1.31711e-29,7.0982299999999996e-31,-6.3169199999999999e-30
2095.0,2.4974299999999999e-29,1.1474499999999999e-24,1.14746e-24,1.1474499999999999e-24,-1.1848100000000001e-29,5.4383899999999999e-31,-6.4264199999999995e-30
2096.0,2.4072800000000001e-29,1.1474499999999999e-24,1.14746e-24,1.1474499999999999e-24,-1.04666e-29,4.7454899999999996e-31,-6.7126199999999997e-30
2097.0,2.35089e-29,1.1474499999999999e-24,1.14746e-24,1.1474499999999999e-24,-8.8753999999999998e-30,3.4438999999999998e-31,-7.0111699999999995e-30
2098.0,2.34206e-29,1.1474499999999999e-24,1.14746e-24,1.1474499999999999e-24,-7.3442800000000007e-30,2.9722699999999998e-31,-7.4129199999999999e-30
2099.0,2.3313699999999999e-29,1.1474499999999999e-24,1.14746e-24,1.1474499999999999e-24,-5.7319200000000003e-30,2.1941999999999998e-31,-7.7038500000000007e-30
2100.0,2.4521300000000001e-29,1.14744e-24,1.14746e-24,1.1474499999999999e-24,-4.1490500000000001e-30,-1.96032e-32,-8.1894300000000007e-30
2101.0,2.7081400000000001e-29,1.1474499999999999e-24,1.14746e-24,1.1474499999999999e-24,-1.2746e-29,5.2861099999999998e-31,-6.2667899999999998e-30
2102.0,2.6552899999999999e-29,1.14744e-24,1.14746e-24,1.1474499999999999e-24,-1.16478e-29,4.3709799999999998e-31,-6.4174400000000006e-30
2103.0,2.6424900000000001e-29,1.14744e-24,1.14746e-24,1.14744e-24,-1.02521e-29,3.4429000000000001e-31,-6.6776700000000006e-30
2104.0,2.6607400000000002e-29,1.14744e-24,1.14746e-24,1.14744e-24,-8.8381999999999996e-30,2.1101599999999999e-31,-7.0324599999999996e-30
2105.0,2.6922500000000002e-29,1.14744e-24,1.14746e-24,1.14744e-24,-7.3563699999999999e-30,1.5327399999999999e-31,-7.3939699999999999e-30
2106.0,2.7632099999999999e-29,1.14744e-24,1.14746e-24,1.14744e-24,-5.8451900000000003e-30,3.4088799999999998e-32,-7.8347599999999998e-30
2107.0,2.71969e-29,1.14744e-24,1.14746e-24,1.14744e-24,-4.1709199999999999e-30,6.9697200000000001e-32,-7.9578699999999993e-30
2108.0,4.0063199999999997e-29,1.1475e-24,1.14747e-24,1.1475e-24,-1.4249300000000001e-29,1.88862e-30,-7.2062300000000005e-30
2109.0,3.7794200000000002e-29,1.1475e-24,1.14747e-24,1.1475e-24,-1.3266199999999999e-29,1.6062599999999999e-30,-7.8258600000000006e-30
2110.0,3.5121300000000002e-29,1.1475e-24,1.14747e-24,1.1475e-24,-1.1936599999999999e-29,1.6696099999999999e-30,-7.6938900000000002e-30
2111.0,3.2950200000000001e-29,1.1475e-24,1.1474799999999999e-24,1.1475e-24,-1.10619e-29,1.75145e-30,-8.4637899999999999e-30
2112.0,2.9691600000000001e-29,1.1475e-24,1.1474799999999999e-24,1.1475e-24,-8.9244900000000001e-30,1.50951e-30,-8.3866099999999999e-30
2113.0,2.76755e-29,1.1475e-24,1.1474799999999999e-24,1.1475e-24,-8.23606e-30,1.6945999999999999e-30,-9.1006599999999994e-30
2114.0,2.5362800000000001e-29,1.14749e-24,1.1474799999999999e-24,1.1475e-24,-5.0775099999999998e-30,1.7294400000000002e-30,-9.1847000000000002e-30
2115.0,3.4713900000000002e-29,1.14749e-24,1.14747e-24,1.14749e-24,-1.4161800000000001e-29,1.6291100000000001e-30,-7.8754500000000002e-30
2116.0,3.2342499999999998e-29,1.14749e-24,1.14747e-24,1.14749e-24,-1.3017999999999999e-29,1.6276900000000001e-30,-8.0959100000000002e-30
2117.0,2.9846299999999998e-29,1.14749e-24,1.14747e-24,1.14749e-24,-1.16425e-29,1.4425500000000001e-30,-8.3655099999999997e-30
2118.0,2.7347699999999998e-29,1.14749e-24,1.14747e-24,1.14749e-24,-1.0288599999999999e-29,1.4623000000000001e-30,-8.7344599999999998e-30
2119.0,2.4998299999999999e-29,1.14749e-24,1.1474799999999999e-24,1.14749e-24,-8.6344900000000003e-30,1.41638e-30,-9.1975799999999997e-30
2120.0,2.25482e-29,1.1474799999999999e-24,1.1474799999999999e-24,1.14749e-24,-6.81373e-30,1.24861e-30,-9.2934000000000003e-30
2121.0,2.1273100000000001e-29,1.14749e-24,1.1474799999999999e-24,1.14749e-24,-5.4941700000000003e-30,1.3075899999999999e-30,-1.00837e-29
2122.0,3.0753100000000001e-29,1.1474799999999999e-24,1.14747e-24,1.1474799999999999e-24,-1.3958e-29,1.5465199999999999e-30,-8.1305699999999998e-30
2123.0,2.8370900000000002e-29,1.1474799999999999e-24,1.14747e-24,1.1474799999999999e-24,-1.2625399999999999e-29,1.3968099999999999e-30,-8.2300900000000005e-30
2124.0,2.6251700000000001e-29,1.1474799999999999e-24,1.14747e-24,1.1474799999999999e-24,-1.13251e-29,1.3410699999999999e-30,-8.6478700000000005e-30
2125.0,2.3867199999999999e-29,1.1474799999999999e-24,1.14747e-24,1.1474799999999999e-24,-9.6558499999999995e-30,1.2060900000000001e-30,-8.9361100000000006e-30
2126.0,2.2130400000000001e-29,1.1474799999999999e-24,1.14747e-24,1.1474799999999999e-24,-8.2074800000000003e-30,1.16622e-30,-9.3575700000000007e-30
2127.0,2.0646e-29,1.1474799999999999e-24,1.1474799999999999e-24,1.1474799999999999e-24,-6.3524299999999995e-30,1.14206e-30,-9.8505900000000005e-30
2128.0,1.8927399999999999e-29,1.14747e-24,1.14747e-24,1.1474799999999999e-24,-4.2754699999999998e-30,9.4110800000000001e-31,-9.8552299999999993e-30
2129.0,2.8122400000000001e-29,1.14747e-24,1.14746e-24,1.14747e-24,-1.3595400000000001e-29,1.37994e-30,-8.1343000000000004e-30
2130.0,2.6110500000000002e-29,1.14747e-24,1.14747e-24,1.14747e-24,-1.22869e-29,1.2661600000000001e-30,-8.3249499999999995e-30
2131.0,2.40283e-29,1.14747e-24,1.14747e-24,1.14747e-24,-1.07748e-29,1.09567e-30,-8.5800099999999994e-30
2132.0,2.2725300000000001e-29,1.14747e-24,1.14747e-24,1.14747e-24,-9.3885599999999995e-30,1.08174e-30,-9.0733200000000001e-30
2133.0,2.1187e-29,1.14747e-24,1.14747e-24,1.14747e-24,-7.6112799999999998e-30,9.1711900000000002e-31,-9.4033300000000002e-30
2134.0,2.0529300000000001e-29,1.14746e-24,1.14747e-24,1.14747e-24,-6.0388600000000001e-30,8.7944500000000008e-31,-9.8180799999999996e-30
2135.0,2.06252e-29,1.14747e-24,1.14747e-24,1.14747e-24,-4.39489e-30,9.9072300000000004e-31,-1.0461e-29
2136.0,2.68562e-29,1.14746e-24,1.14746e-24,1.14746e-24,-1.3178999999999999e-29,1.21067e-30,-8.0683399999999998e-30
2137.0,2.5111600000000001e-29,1.14746e-24,1.14746e-24,1.14746e-24,-1.1831300000000001e-29,1.04629e-30,-8.2113799999999994e-30
2138.0,2.39565e-29,1.14746e-24,1.14746e-24,1.14746e-24,-1.0501400000000001e-29,9.7167800000000005e-31,-8.5995599999999998e-30
2139.0,2.28169e-29,1.14746e-24,1.14747e-24,1.14746e-24,-8.9111299999999998e-30,8.3664900000000009e-31,-8.9441200000000001e-30
2140.0,2.2463799999999999e-29,1.14746e-24,1.14747e-24,1.14746e-24,-7.4407900000000005e-30,8.1634700000000001e-31,-9.4448999999999997e-30
2141.0,2.2046e-29,1.14746e-24,1.14747e-24,1.14746e-24,-5.7288900000000003e-30,6.99646e-31,-9.7987699999999996e-30
2142.0,2.2525300000000001e-29,1.1474499999999999e-24,1.14747e-24,1.14746e-24,-4.0009899999999997e-30,4.5608599999999997e-31,-1.02613e-29
2143.0,2.6806800000000002e-29,1.1474499999999999e-24,1.14746e-24,1.1474499999999999e-24,-1.2746100000000001e-29,1.01356e-30,-8.0257399999999997e-30
2144.0,2.5707899999999999e-29,1.1474499999999999e-24,1.14746e-24,1.1474499999999999e-24,-1.15747e-29,9.2280900000000008e-31,-8.1814700000000003e-30
2145.0,2.49006e-29,1.1474499999999999e-24,1.14746e-24,1.1474499999999999e-24,-1.0170799999999999e-29,7.9613900000000004e-31,-8.4948700000000004e-30
2146.0,2.4588299999999999e-29,1.1474499999999999e-24,1.14746e-24,1.1474499999999999e-24,-8.7470699999999997e-30,7.4706199999999996e-31,-8.9551600000000002e-30
2147.0,2.45374e-29,1.1474499999999999e-24,1.14746e-24,1.1474499999999999e-24,-7.1977899999999993e-30,6.1754900000000004e-31,-9.3406100000000001e-30
2148.0,2.4991699999999999e-29,1.1474499999999999e-24,1.14746e-24,1.1474499999999999e-24,-5.6806999999999998e-30,5.58891e-31,-9.8616300000000006e-30
2149.0,2.4895999999999999e-29,1.1474499999999999e-24,1.14746e-24,1.1474499999999999e-24,-4.0772999999999998e-30,6.2503199999999999e-31,-1.0099999999999999e-29
2150.0,2.7589200000000003e-29,1.1474499999999999e-24,1.14746e-24,1.1474499999999999e-24,-1.24546e-29,9.2196999999999994e-31,-8.0195899999999994e-30
2151.0,2.7073599999999998e-29,1.1474499999999999e-24,1.14746e-24,1.1474499999999999e-24,-1.13465e-29,8.3025100000000007e-31,-8.1825100000000001e-30
2152.0,2.6836099999999999e-29,1.14744e-24,1.14746e-24,1.1474499999999999e-24,-1.00283e-29,6.7329600000000003e-31,-8.5219699999999994e-30
2153.0,2.7137999999999998e-29,1.14744e-24,1.14746e-24,1.14744e-24,-8.6374799999999998e-30,6.1407400000000001e-31,-8.9487200000000005e-30
2154.0,2.7558599999999999e-29,1.14744e-24,1.14746e-24,1.14744e-24,-7.1946499999999998e-30,5.1418399999999998e-31,-9.4348799999999995e-30
2155.0,2.7869199999999999e-29,1.14744e-24,1.14746e-24,1.14744e-24,-5.7116700000000001e-30,4.3176199999999998e-31,-9.7762899999999996e-30
2156.0,2.9520899999999998e-29,1.14744e-24,1.14746e-24,1.14744e-24,-4.25227e-30,1.8346300000000001e-31,-1.0472e-29
2157.0,4.0060399999999998e-29,1.1475e-24,1.14747e-24,1.1475e-24,-1.39711e-29,1.8097999999999999e-30,-8.7551699999999995e-30
2158.0,3.8097300000000002e-29,1.1475e-24,1.14747e-24,1.1475e-24,-1.2970999999999999e-29,2.0963799999999999e-30,-8.6331799999999995e-30
2159.0,3.62202e-29,1.1475e-24,1.14747e-24,1.1475e-24,-1.2169e-29,2.0054800000000001e-30,-9.30756e-30
2160.0,3.3558499999999998e-29,1.1475e-24,1.14747e-24,1.1475e-24,-1.04399e-29,2.0171799999999999e-30,-9.5246499999999995e-30
2161.0,3.1707199999999998e-29,1.1475e-24,1.1474799999999999e-24,1.1475e-24,-9.6092299999999994e-30,2.1231000000000001e-30,-1.01945e-29
2162.0,2.9153899999999997e-29,1.14749e-24,1.1474799999999999e-24,1.1475e-24,-7.2400299999999995e-30,2.0514099999999999e-30,-1.0485599999999999e-29
2163.0,2.6980699999999997e-29,1.1475e-24,1.1474799999999999e-24,1.1475e-24,-6.4579599999999995e-30,1.8485700000000002e-30,-1.09563e-29
2164.0,3.5285800000000001e-29,1.14749e-24,1.14747e-24,1.14749e-24,-1.3900300000000001e-29,1.9996900000000001e-30,-9.1984499999999995e-30
2165.0,3.3289599999999999e-29,1.14749e-24,1.14747e-24,1.14749e-24,-1.27515e-29,1.8278600000000001e-30,-9.3951200000000001e-30
2166.0,3.1234600000000001e-29,1.14749e-24,1.14747e-24,1.14749e-24,-1.16342e-29,1.8992e-30,-9.8175099999999999e-30
2167.0,2.9102500000000002e-29,1.14749e-24,1.14747e-24,1.14749e-24,-1.01201e-29,1.8047599999999999e-30,-1.0317500000000001e-29
2168.0,2.7039499999999998e-29,1.14749e-24,1.14747e-24,1.14749e-24,-8.6384799999999998e-30,1.7626599999999998e-30,-1.07106e-29
2169.0,2.5403699999999999e-29,1.14749e-24,1.1474799999999999e-24,1.14749e-24,-7.0146599999999996e-30,1.7840299999999999e-30,-1.13234e-29
2170.0,2.4009999999999999e-29,1.1474799999999999e-24,1.1474799999999999e-24,1.14749e-24,-4.8256299999999999e-30,1.73897e-30,-1.15576e-29
2171.0,3.1611499999999998e-29,1.1474799999999999e-24,1.14747e-24,1.1474799999999999e-24,-1.3589799999999999e-29,1.8187900000000002e-30,-9.4548900000000007e-30
2172.0,2.9800099999999998e-29,1.1474799999999999e-24,1.14747e-24,1.1474799999999999e-24,-1.25009e-29,1.76505e-30,-9.7777099999999993e-30
2173.0,2.7775699999999999e-29,1.1474799999999999e-24,1.14747e-24,1.1474799999999999e-24,-1.1071200000000001e-29,1.6695199999999999e-30,-1.0122499999999999e-29
2174.0,2.62021e-29,1.1474799999999999e-24,1.14747e-24,1.1474799999999999e-24,-9.7719400000000003e-30,1.60456e-30,-1.06515e-29
2175.0,2.45927e-29,1.1474799999999999e-24,1.14747e-24,1.1474799999999999e-24,-8.0111299999999997e-30,1.57848e-30,-1.11703e-29
2176.0,2.3345500000000001e-29,1.14747e-24,1.14747e-24,1.1474799999999999e-24,-6.4183300000000004e-30,1.42645e-30,-1.15354e-29
2177.0,2.30858e-29,1.1474799999999999e-24,1.1474799999999999e-24,1.1474799999999999e-24,-4.8178300000000002e-30,1.44642e-30,-1.22701e-29
2178.0,2.9193199999999997e-29,1.14747e-24,1.14746e-24,1.14747e-24,-1.3276e-29,1.6774999999999999e-30,-9.6308500000000002e-30
2179.0,2.7393700000000002e-29,1.14747e-24,1.14747e-24,1.14747e-24,-1.20026e-29,1.5650599999999999e-30,-9.8108600000000003e-30
2180.0,2.6060499999999998e-29,1.14747e-24,1.14747e-24,1.14747e-24,-1.07603e-29,1.51623e-30,-1.02808e-29
2181.0,2.4601900000000001e-29,1.14747e-24,1.14747e-24,1.14747e-24,-9.1661600000000005e-30,1.37856e-30,-1.0723900000000001e-29
2182.0,2.3899900000000001e-29,1.14747e-24,1.14747e-24,1.14747e-24,-7.7545900000000004e-30,1.33903e-30,-1.1263500000000001e-29
2183.0,2.3286299999999999e-29,1.14747e-24,1.14747e-24,1.14747e-24,-5.9689899999999997e-30,1.26803e-30,-1.17697e-29
2184.0,2.2921399999999999e-29,1.14746e-24,1.14747e-24,1.14747e-24,-4.1086899999999998e-30,1.0779000000000001e-30,-1.21772e-29
2185.0,2.7862600000000002e-29,1.14746e-24,1.14746e-24,1.14746e-24,-1.2816200000000001e-29,1.51556e-30,-9.5980699999999998e-30
2186.0,2.6540899999999998e-29,1.14746e-24,1.14746e-24,1.14746e-24,-1.1643999999999999e-29,1.4074299999999999e-30,-9.8205099999999999e-30
2187.0,2.5429799999999998e-29,1.14746e-24,1.14746e-24,1.14746e-24,-1.0292700000000001e-29,1.28886e-30,-1.01975e-29
2188.0,2.4908199999999999e-29,1.14746e-24,1.14746e-24,1.14746e-24,-8.9343899999999994e-30,1.22653e-30,-1.07549e-29
2189.0,2.44334e-29,1.14746e-24,1.14747e-24,1.14746e-24,-7.3048700000000006e-30,1.1027199999999999e-30,-1.12238e-29
2190.0,2.4608199999999999e-29,1.14746e-24,1.14747e-24,1.14746e-24,-5.81857e-30,1.02398e-30,-1.1780899999999999e-29
2191.0,2.48873e-29,1.14746e-24,1.14747e-24,1.14746e-24,-4.2340499999999997e-30,1.0945900000000001e-30,-1.22733e-29
2192.0,2.7676400000000003e-29,1.1474499999999999e-24,1.14746e-24,1.14746e-24,-1.24344e-29,1.3461500000000001e-30,-9.5273900000000006e-30
2193.0,2.6806800000000002e-29,1.1474499999999999e-24,1.14746e-24,1.14746e-24,-1.13325e-29,1.22645e-30,-9.7690599999999997e-30
2194.0,2.6289599999999998e-29,1.1474499999999999e-24,1.14746e-24,1.1474499999999999e-24,-1.0073900000000001e-29,1.1668199999999999e-30,-1.02095e-29
2195.0,2.6045000000000002e-29,1.1474499999999999e-24,1.14746e-24,1.1474499999999999e-24,-8.6300799999999998e-30,1.0220700000000001e-30,-1.06834e-29
2196.0,2.6332600000000001e-29,1.1474499999999999e-24,1.14746e-24,1.1474499999999999e-24,-7.2410000000000004e-30,1.0087700000000001e-30,-1.1258099999999999e-29
2197.0,2.6456099999999999e-29,1.1474499999999999e-24,1.14746e-24,1.1474499999999999e-24,-5.6458099999999998e-30,8.6582100000000008e-31,-1.16419e-29
2198.0,2.7594499999999999e-29,1.1474499999999999e-24,1.14746e-24,1.1474499999999999e-24,-4.03027e-30,5.8443700000000004e-31,-1.23483e-29
2199.0,2.8322599999999998e-29,1.1474499999999999e-24,1.14746e-24,1.1474499999999999e-24,-1.21822e-29,1.2250100000000001e-30,-9.5491900000000007e-30
2200.0,2.7754599999999999e-29,1.1474499999999999e-24,1.14746e-24,1.1474499999999999e-24,-1.11156e-29,1.0985299999999999e-30,-9.7623500000000004e-30
2201.0,2.7869699999999999e-29,1.1474499999999999e-24,1.14746e-24,1.1474499999999999e-24,-9.8911799999999998e-30,1.0507600000000001e-30,-1.0228900000000001e-29
2202.0,2.8099199999999997e-29,1.14744e-24,1.14746e-24,1.1474499999999999e-24,-8.5766099999999996e-30,9.6620600000000005e-31,-1.07321e-29
2203.0,2.8515899999999999e-29,1.14744e-24,1.14746e-24,1.1474499999999999e-24,-7.1089100000000005e-30,8.2047899999999999e-31,-1.1205100000000001e-29
2204.0,2.9447200000000002e-29,1.14744e-24,1.14746e-24,1.14744e-24,-5.6858899999999998e-30,7.4321000000000004e-31,-1.18365e-29
2205.0,2.9140399999999999e-29,1.14744e-24,1.14746e-24,1.14744e-24,-4.1327600000000002e-30,7.7657499999999997e-31,-1.1915799999999999e-29
2206.0,4.0347599999999998e-29,1.1475e-24,1.14747e-24,1.1475e-24,-1.37668e-29,2.3934399999999999e-30,-9.3726400000000001e-30
2207.0,3.8894699999999999e-29,1.1475e-24,1.14747e-24,1.1475e-24,-1.3173899999999999e-29,2.1968200000000002e-30,-9.98744e-30
2208.0,3.6714300000000001e-29,1.1475e-24,1.14747e-24,1.1475e-24,-1.17368e-29,2.3754899999999999e-30,-1.04003e-29
2209.0,3.5102900000000001e-29,1.1475e-24,1.1474799999999999e-24,1.1475e-24,-1.0963500000000001e-29,2.42043e-30,-1.10478e-29
2210.0,3.2782800000000002e-29,1.14749e-24,1.1474799999999999e-24,1.1475e-24,-8.9539399999999997e-30,2.4244200000000002e-30,-1.16271e-29
2211.0,3.1171699999999999e-29,1.1475e-24,1.1474799999999999e-24,1.1475e-24,-7.9803700000000007e-30,2.4518700000000001e-30,-1.2221e-29
2212.0,2.9968899999999999e-29,1.14749e-24,1.1474799999999999e-24,1.1475e-24,-5.46052e-30,2.6363e-30,-1.2790000000000001e-29
2213.0,3.5812300000000001e-29,1.14749e-24,1.14747e-24,1.14749e-24,-1.3614200000000001e-29,2.1038600000000002e-30,-1.02288e-29
2214.0,3.4353299999999997e-29,1.14749e-24,1.14747e-24,1.14749e-24,-1.2798099999999999e-29,2.2056500000000001e-30,-1.0663500000000001e-29
2215.0,3.2717599999999999e-29,1.14749e-24,1.14747e-24,1.14749e-24,-1.15218e-29,2.1877700000000001e-30,-1.1255800000000001e-29
2216.0,3.0926699999999999e-29,1.14749e-24,1.14747e-24,1.14749e-24,-1.0230199999999999e-29,2.1752600000000001e-30,-1.18216e-29
2217.0,2.9388199999999998e-29,1.14749e-24,1.14747e-24,1.14749e-24,-8.65958e-30,2.14182e-30,-1.25052e-29
2218.0,2.80288e-29,1.1474799999999999e-24,1.14747e-24,1.14749e-24,-6.9238400000000005e-30,2.1246000000000001e-30,-1.30002e-29
2219.0,2.6969499999999999e-29,1.14749e-24,1.1474799999999999e-24,1.14749e-24,-5.3758399999999997e-30,2.0227e-30,-1.3642400000000001e-29
2220.0,3.2544000000000001e-29,1.1474799999999999e-24,1.14747e-24,1.1474799999999999e-24,-1.34358e-29,2.0888500000000001e-30,-1.07243e-29
2221.0,3.1109200000000001e-29,1.1474799999999999e-24,1.14747e-24,1.1474799999999999e-24,-1.23443e-29,2.0436400000000001e-30,-1.1064500000000001e-29
2222.0,2.9761200000000002e-29,1.1474799999999999e-24,1.14747e-24,1.1474799999999999e-24,-1.11945e-29,2.0160799999999999e-30,-1.1672199999999999e-29
2223.0,2.8365e-29,1.1474799999999999e-24,1.14747e-24,1.1474799999999999e-24,-9.6718800000000005e-30,1.99182e-30,-1.23129e-29
2224.0,2.7194999999999998e-29,1.14747e-24,1.14747e-24,1.1474799999999999e-24,-8.2134499999999999e-30,1.8197699999999999e-30,-1.2854799999999999e-29
2225.0,2.6485300000000001e-29,1.1474799999999999e-24,1.14747e-24,1.1474799999999999e-24,-6.4639599999999997e-30,1.8891800000000001e-30,-1.3522899999999999e-29
2226.0,2.5890199999999998e-29,1.14747e-24,1.14747e-24,1.1474799999999999e-24,-4.4987200000000001e-30,1.8180299999999998e-30,-1.39355e-29
2227.0,3.0141700000000001e-29,1.14747e-24,1.14746e-24,1.14747e-24,-1.2998399999999999e-29,1.94174e-30,-1.0818499999999999e-29
2228.0,2.9139799999999999e-29,1.14747e-24,1.14746e-24,1.14747e-24,-1.19976e-29,1.9013400000000002e-30,-1.12908e-29
2229.0,2.7991400000000002e-29,1.14747e-24,1.14747e-24,1.14747e-24,-1.06841e-29,1.8293600000000002e-30,-1.18392e-29
2230.0,2.7211900000000002e-29,1.14747e-24,1.14747e-24,1.14747e-24,-9.3387600000000001e-30,1.74862e-30,-1.24762e-29
2231.0,2.65399e-29,1.14747e-24,1.14747e-24,1.14747e-24,-7.6806200000000003e-30,1.6556799999999999e-30,-1.3097199999999999e-29
2232.0,2.6259100000000001e-29,1.14746e-24,1.14747e-24,1.14747e-24,-6.1143200000000003e-30,1.55163e-30,-1.36366e-29
2233.0,2.6597299999999998e-29,1.14747e-24,1.14747e-24,1.14747e-24,-4.5039999999999998e-30,1.5279500000000001e-30,-1.43081e-29
2234.0,2.89741e-29,1.14746e-24,1.14746e-24,1.14746e-24,-1.25898e-29,1.7598899999999998e-30,-1.0863500000000001e-29
2235.0,2.8148600000000001e-29,1.14746e-24,1.14746e-24,1.14746e-24,-1.1591299999999999e-29,1.7157900000000001e-30,-1.12411e-29
2236.0,2.75194e-29,1.14746e-24,1.14746e-24,1.14746e-24,-1.03243e-29,1.6429299999999999e-30,-1.18452e-29
2237.0,2.7081400000000001e-29,1.14746e-24,1.14746e-24,1.14746e-24,-8.9022300000000005e-30,1.53123e-30,-1.2429300000000001e-29
2238.0,2.7047800000000002e-29,1.14746e-24,1.14746e-24,1.14746e-24,-7.4617400000000006e-30,1.4178699999999999e-30,-1.3050700000000001e-29
2239.0,2.71553e-29,1.14746e-24,1.14747e-24,1.14746e-24,-5.7983900000000002e-30,1.36933e-30,-1.3619400000000001e-29
2240.0,2.7434399999999999e-29,1.1474499999999999e-24,1.14746e-24,1.14746e-24,-4.0447899999999997e-30,1.16618e-30,-1.41779e-29
2241.0,2.8825699999999997e-29,1.1474499999999999e-24,1.14746e-24,1.14746e-24,-1.2274199999999999e-29,1.63032e-30,-1.08143e-29
2242.0,2.8169700000000001e-29,1.1474499999999999e-24,1.14746e-24,1.14746e-24,-1.1221200000000001e-29,1.5390200000000001e-30,-1.11619e-29
2243.0,2.7970999999999997e-29,1.1474499999999999e-24,1.14746e-24,1.1474499999999999e-24,-1.00511e-29,1.41932e-30,-1.17073e-29
2244.0,2.8036699999999999e-29,1.1474499999999999e-24,1.14746e-24,1.1474499999999999e-24,-8.7128200000000004e-30,1.39256e-30,-1.23317e-29
2245.0,2.8180500000000001e-29,1.1474499999999999e-24,1.14746e-24,1.1474499999999999e-24,-7.1988700000000004e-30,1.1843899999999999e-30,-1.2871899999999999e-29
2246.0,2.8853099999999998e-29,1.1474499999999999e-24,1.14746e-24,1.1474499999999999e-24,-5.7679900000000003e-30,1.13534e-30,-1.35104e-29
2247.0,2.9210399999999998e-29,1.1474499999999999e-24,1.14746e-24,1.1474499999999999e-24,-4.2385e-30,1.17977e-30,-1.3917100000000001e-29
2248.0,2.8761399999999998e-29,1.1474499999999999e-24,1.14746e-24,1.1474499999999999e-24,-1.18425e-29,1.4121300000000001e-30,-1.06137e-29
2249.0,2.9006899999999997e-29,1.1474499999999999e-24,1.14746e-24,1.1474499999999999e-24,-1.1116799999999999e-29,1.41877e-30,-1.11169e-29
2250.0,2.8879399999999999e-29,1.1474499999999999e-24,1.14746e-24,1.1474499999999999e-24,-9.88812e-30,1.32444e-30,-1.15738e-29
2251.0,2.9270699999999997e-29,1.14744e-24,1.14746e-24,1.1474499999999999e-24,-8.5615600000000001e-30,1.16462e-30,-1.21369e-29
2252.0,2.9784000000000002e-29,1.14744e-24,1.14746e-24,1.1474499999999999e-24,-7.1699000000000002e-30,1.1213899999999999e-30,-1.27543e-29
2253.0,3.01866e-29,1.14744e-24,1.14746e-24,1.1474499999999999e-24,-5.6369099999999998e-30,9.5802799999999994e-31,-1.31432e-29
2254.0,3.1695299999999998e-29,1.14744e-24,1.14746e-24,1.14744e-24,-4.1035400000000003e-30,6.3762299999999999e-31,-1.40258e-29
2255.0,3.0035399999999998e-29,1.14744e-24,1.1474499999999999e-24,1.14744e-24,-1.545e-29,-9.4844599999999995e-31,-3.4540899999999998e-31
2256.0,3.1305400000000002e-29,1.14744e-24,1.1474499999999999e-24,1.14744e-24,-1.7103400000000001e-29,-5.75444e-31,-1.28351e-31
2257.0,3.0219800000000001e-29,1.1474499999999999e-24,1.1474499999999999e-24,1.1474499999999999e-24,-1.7386600000000001e-29,-6.7879400000000003e-32,-4.9333599999999997e-31
2258.0,3.2672499999999998e-29,1.14746e-24,1.14746e-24,1.14746e-24,-1.8728100000000001e-29,2.7306800000000001e-31,-5.77269e-31
2259.0,3.4297599999999999e-29,1.14747e-24,1.14746e-24,1.14747e-24,-1.8510500000000001e-29,1.01207e-30,-1.0713600000000001e-30
2260.0,3.7834000000000001e-29,1.1474799999999999e-24,1.14746e-24,1.1474799999999999e-24,-1.8565299999999999e-29,1.2221899999999999e-30,-1.5041599999999999e-30
2261.0,4.2945799999999997e-29,1.14749e-24,1.14746e-24,1.14749e-24,-1.7741899999999999e-29,2.1267900000000001e-30,-2.0101700000000001e-30
2262.0,2.9940299999999998e-29,1.14744e-24,1.1474499999999999e-24,1.14744e-24,-1.4971200000000001e-29,-7.7175899999999999e-31,-4.1851700000000003e-31
2263.0,2.8464599999999999e-29,1.1474499999999999e-24,1.1474499999999999e-24,1.1474499999999999e-24,-1.56417e-29,-5.8127899999999998e-31,-4.8962600000000004e-31
2264.0,2.8819599999999999e-29,1.1474499999999999e-24,1.14746e-24,1.1474499999999999e-24,-1.6444100000000001e-29,-2.0882700000000001e-31,-6.0983499999999997e-31
2265.0,2.93217e-29,1.14746e-24,1.14746e-24,1.14746e-24,-1.6745599999999999e-29,2.7795899999999998e-31,-9.3812499999999992e-31
2266.0,3.1546900000000002e-29,1.14747e-24,1.14746e-24,1.14747e-24,-1.72386e-29,5.2891600000000002e-31,-1.27796e-30
2267.0,3.5385600000000001e-29,1.1474799999999999e-24,1.14746e-24,1.1474799999999999e-24,-1.6956999999999999e-29,1.13567e-30,-1.7761499999999999e-30
2268.0,3.9898500000000003e-29,1.1475e-24,1.14747e-24,1.1475e-24,-1.6457599999999999e-29,1.14607e-30,-2.4892000000000001e-30
2269.0,3.0568299999999999e-29,1.14744e-24,1.1474499999999999e-24,1.14744e-24,-1.5313900000000001e-29,-2.5163399999999999e-31,-2.45893e-30
2270.0,2.94368e-29,1.14744e-24,1.1474499999999999e-24,1.14744e-24,-1.6163500000000001e-29,1.2467400000000001e-33,-2.54166e-30
2271.0,3.0531600000000002e-29,1.1474499999999999e-24,1.1474499999999999e-24,1.1474499999999999e-24,-1.7372099999999999e-29,4.08985e-31,-2.6555500000000002e-30
2272.0,3.15997e-29,1.14746e-24,1.14746e-24,1.14746e-24,-1.77543e-29,7.8554000000000002e-31,-2.88807e-30
2273.0,3.4499899999999999e-29,1.14747e-24,1.14746e-24,1.14747e-24,-1.82924e-29,1.1437600000000001e-30,-3.1163900000000001e-30
2274.0,3.7990200000000002e-29,1.1474799999999999e-24,1.14746e-24,1.1474799999999999e-24,-1.79138e-29,1.6015900000000002e-30,-3.3778700000000002e-30
2275.0,4.3234500000000001e-29,1.1475e-24,1.14746e-24,1.14749e-24,-1.7192000000000001e-29,1.6920400000000001e-30,-3.8712899999999997e-30
2276.0,2.8544899999999998e-29,1.14744e-24,1.1474499999999999e-24,1.14744e-24,-1.45087e-29,-3.0839599999999999e-31,-2.47061e-30
2277.0,2.8107799999999998e-29,1.1474499999999999e-24,1.14746e-24,1.1474499999999999e-24,-1.5226799999999999e-29,-2.5861900000000001e-32,-2.5264600000000001e-30
2278.0,2.7822e-29,1.1474499999999999e-24,1.14746e-24,1.1474499999999999e-24,-1.57757e-29,2.3136799999999998e-31,-2.6737800000000001e-30
2279.0,2.9143400000000001e-29,1.14747e-24,1.14746e-24,1.14746e-24,-1.6406299999999999e-29,6.0178899999999999e-31,-2.9267800000000002e-30
2280.0,3.1513400000000003e-29,1.14747e-24,1.14746e-24,1.14747e-24,-1.65657e-29,9.0003099999999998e-31,-3.1697599999999997e-30
2281.0,3.5295899999999999e-29,1.14749e-24,1.14747e-24,1.1474799999999999e-24,-1.6592099999999999e-29,1.1324199999999999e-30,-3.4801799999999997e-30
2282.0,4.1180900000000001e-29,1.1475e-24,1.14747e-24,1.14749e-24,-1.61794e-29,1.58989e-30,-3.5146300000000002e-30
2283.0,2.9963500000000002e-29,1.14744e-24,1.1474499999999999e-24,1.14744e-24,-1.48742e-29,3.3662700000000002e-31,-4.6733900000000001e-30
2284.0,2.98237e-29,1.14744e-24,1.1474499999999999e-24,1.1474499999999999e-24,-1.59084e-29,6.4002200000000001e-31,-4.8202799999999998e-30
2285.0,3.0161899999999998e-29,1.1474499999999999e-24,1.1474499999999999e-24,1.1474499999999999e-24,-1.66697e-29,8.8592200000000008e-31,-4.9098599999999999e-30
2286.0,3.19872e-29,1.14746e-24,1.14746e-24,1.14746e-24,-1.74144e-29,1.2348599999999999e-30,-5.0629400000000003e-30
2287.0,3.4454100000000003e-29,1.14747e-24,1.14746e-24,1.14747e-24,-1.7558199999999999e-29,1.4393499999999999e-30,-5.1148200000000002e-30
2288.0,3.8392199999999999e-29,1.1474799999999999e-24,1.14746e-24,1.1474799999999999e-24,-1.7478600000000001e-29,1.6779999999999999e-30,-5.1714e-30
2289.0,4.3809799999999999e-29,1.1475e-24,1.14746e-24,1.14749e-24,-1.69135e-29,1.92973e-30,-4.9131200000000003e-30
2290.0,2.8386599999999999e-29,1.14744e-24,1.1474499999999999e-24,1.14744e-24,-1.4125600000000001e-29,2.3604100000000002e-31,-4.4704099999999999e-30
2291.0,2.7687700000000002e-29,1.1474499999999999e-24,1.14746e-24,1.1474499999999999e-24,-1.4725900000000001e-29,4.2960100000000004e-31,-4.5283800000000003e-30
2292.0,2.7934900000000001e-29,1.14746e-24,1.14746e-24,1.14746e-24,-1.5383700000000001e-29,7.26034e-31,-4.6955799999999999e-30
2293.0,2.9161999999999999e-29,1.14747e-24,1.14746e-24,1.14746e-24,-1.5838799999999999e-29,9.1860299999999992e-31,-4.8348899999999997e-30
2294.0,3.1890099999999998e-29,1.1474799999999999e-24,1.14746e-24,1.1474799999999999e-24,-1.6207900000000001e-29,1.2035e-30,-5.0002999999999999e-30
2295.0,3.5890699999999998e-29,1.14749e-24,1.14746e-24,1.1474799999999999e-24,-1.6111600000000001e-29,1.39566e-30,-5.0297200000000003e-30
2296.0,4.14714e-29,1.1475e-24,1.14747e-24,1.1475e-24,-1.5715900000000001e-29,1.4870100000000001e-30,-5.2454399999999999e-30
2297.0,3.0435399999999998e-29,1.14744e-24,1.1474499999999999e-24,1.14744e-24,-1.4509400000000001e-29,8.8307200000000007e-31,-6.9467200000000003e-30
2298.0,3.01012e-29,1.1474499999999999e-24,1.1474499999999999e-24,1.1474499999999999e-24,-1.5454e-29,1.15313e-30,-6.9114699999999996e-30
2299.0,3.0842199999999997e-29,1.1474499999999999e-24,1.14746e-24,1.1474499999999999e-24,-1.62662e-29,1.38871e-30,-7.1025100000000006e-30
2300.0,3.2254299999999999e-29,1.14746e-24,1.14746e-24,1.14746e-24,-1.6764e-29,1.5660299999999999e-30,-7.0552799999999996e-30
2301.0,3.5009500000000001e-29,1.14747e-24,1.14746e-24,1.14747e-24,-1.71081e-29,1.79248e-30,-7.0554899999999994e-30
2302.0,3.8725300000000003e-29,1.1474799999999999e-24,1.14746e-24,1.1474799999999999e-24,-1.69152e-29,1.8383500000000001e-30,-6.7901900000000002e-30
2303.0,4.39563e-29,1.1475e-24,1.14746e-24,1.14749e-24,-1.63788e-29,1.86958e-30,-6.6174699999999998e-30
2304.0,2.8396699999999998e-29,1.14744e-24,1.1474499999999999e-24,1.14744e-24,-1.3724800000000001e-29,7.1980200000000003e-31,-6.3853700000000007e-30
2305.0,2.80414e-29,1.1474499999999999e-24,1.14746e-24,1.1474499999999999e-24,-1.43292e-29,8.9299500000000007e-31,-6.5165299999999995e-30
2306.0,2.8268400000000003e-29,1.14746e-24,1.14746e-24,1.14746e-24,-1.4899100000000001e-29,1.0772700000000001e-30,-6.5637899999999997e-30
2307.0,2.9796699999999998e-29,1.14747e-24,1.14746e-24,1.14747e-24,-1.54269e-29,1.3176199999999999e-30,-6.6972300000000002e-30
2308.0,3.2354400000000003e-29,1.1474799999999999e-24,1.14746e-24,1.14747e-24,-1.56534e-29,1.44689e-30,-6.6709200000000001e-30
2309.0,3.6420300000000001e-29,1.14749e-24,1.14747e-24,1.14749e-24,-1.5736199999999999e-29,1.6209399999999999e-30,-6.5914799999999997e-30
2310.0,4.1952699999999998e-29,1.1475e-24,1.14747e-24,1.14749e-24,-1.5520500000000001e-29,1.77696e-30,-6.0315599999999997e-30
2311.0,3.1083000000000001e-29,1.14744e-24,1.1474499999999999e-24,1.14744e-24,-1.4182300000000001e-29,1.43886e-30,-8.8790500000000006e-30
2312.0,3.1023200000000001e-29,1.1474499999999999e-24,1.1474499999999999e-24,1.1474499999999999e-24,-1.5025099999999999e-29,1.5889699999999999e-30,-9.0344900000000004e-30
2313.0,3.1512399999999998e-29,1.14746e-24,1.14746e-24,1.14746e-24,-1.5734700000000001e-29,1.7672900000000001e-30,-8.9608499999999996e-30
2314.0,3.3102799999999999e-29,1.14746e-24,1.14746e-24,1.14746e-24,-1.6272999999999999e-29,1.9412100000000001e-30,-9.0155099999999997e-30
2315.0,3.5434299999999998e-29,1.14747e-24,1.14746e-24,1.14747e-24,-1.6488899999999999e-29,1.9937699999999999e-30,-8.7479599999999994e-30
2316.0,3.9039499999999999e-29,1.14749e-24,1.14746e-24,1.1474799999999999e-24,-1.6479400000000001e-29,2.0800199999999999e-30,-8.3896800000000004e-30
2317.0,4.3936000000000002e-29,1.1475e-24,1.14746e-24,1.14749e-24,-1.6147000000000001e-29,1.96397e-30,-7.4803000000000002e-30
2318.0,2.8917900000000002e-29,1.1474499999999999e-24,1.14746e-24,1.1474499999999999e-24,-1.3320899999999999e-29,1.1119499999999999e-30,-8.3034800000000002e-30
2319.0,2.8588299999999999e-29,1.1474499999999999e-24,1.14746e-24,1.1474499999999999e-24,-1.3912899999999999e-29,1.27037e-30,-8.2401e-30
2320.0,2.9072900000000002e-29,1.14746e-24,1.14746e-24,1.14746e-24,-1.4470399999999999e-29,1.44575e-30,-8.3814100000000006e-30
2321.0,3.0359099999999998e-29,1.14747e-24,1.14746e-24,1.14747e-24,-1.48828e-29,1.57462e-30,-8.3235200000000006e-30
2322.0,3.3072900000000002e-29,1.1474799999999999e-24,1.14746e-24,1.1474799999999999e-24,-1.5230200000000001e-29,1.77436e-30,-8.2652000000000003e-30
2323.0,3.6790100000000001e-29,1.14749e-24,1.14746e-24,1.1474799999999999e-24,-1.5271299999999999e-29,1.8469800000000002e-30,-7.9466100000000001e-30
2324.0,4.19125e-29,1.1475e-24,1.14747e-24,1.1475e-24,-1.50366e-29,1.7913499999999998e-30,-7.6783000000000002e-30
2325.0,3.1997100000000002e-29,1.14744e-24,1.1474499999999999e-24,1.14744e-24,-1.3810299999999999e-29,1.7500699999999999e-30,-1.0758e-29
2326.0,3.1884399999999998e-29,1.1474499999999999e-24,1.1474499999999999e-24,1.1474499999999999e-24,-1.4595400000000001e-29,1.9488799999999999e-30,-1.06673e-29
2327.0,3.2488899999999997e-29,1.14746e-24,1.14746e-24,1.14746e-24,-1.5189400000000001e-29,2.07805e-30,-1.08039e-29
2328.0,3.3665099999999999e-29,1.14747e-24,1.14746e-24,1.14746e-24,-1.5658699999999999e-29,2.17991e-30,-1.05821e-29
2329.0,3.5951099999999998e-29,1.1474799999999999e-24,1.14746e-24,1.14747e-24,-1.5967599999999999e-29,2.25139e-30,-1.0352400000000001e-29
2330.0,3.9026600000000001e-29,1.1474799999999999e-24,1.14746e-24,1.1474799999999999e-24,-1.5903100000000001e-29,2.1958899999999998e-30,-9.6918999999999996e-30
2331.0,4.3542800000000001e-29,1.1475e-24,1.14747e-24,1.14749e-24,-1.5526700000000001e-29,2.20583e-30,-9.0817000000000001e-30
2332.0,2.9565399999999998e-29,1.1474499999999999e-24,1.14746e-24,1.1474499999999999e-24,-1.30358e-29,1.4728700000000001e-30,-9.7483399999999993e-30
2333.0,2.9475600000000001e-29,1.1474499999999999e-24,1.14746e-24,1.1474499999999999e-24,-1.3511700000000001e-29,1.5798499999999998e-30,-9.8957299999999997e-30
2334.0,2.9809299999999999e-29,1.14746e-24,1.14746e-24,1.14746e-24,-1.4002300000000001e-29,1.7128899999999999e-30,-9.8488999999999998e-30
2335.0,3.1239800000000002e-29,1.14747e-24,1.14746e-24,1.14747e-24,-1.4438799999999999e-29,1.8959499999999999e-30,-9.89969e-30
2336.0,3.3535000000000002e-29,1.1474799999999999e-24,1.14746e-24,1.1474799999999999e-24,-1.4705400000000001e-29,1.9526000000000002e-30,-9.6813099999999997e-30
2337.0,3.7160799999999999e-29,1.14749e-24,1.14747e-24,1.14749e-24,-1.4883200000000001e-29,2.0549399999999999e-30,-9.28927e-30
2338.0,4.1921399999999998e-29,1.1475e-24,1.14747e-24,1.14749e-24,-1.4907100000000001e-29,2.1882600000000002e-30,-8.3100399999999994e-30
2339.0,3.2761399999999999e-29,1.14744e-24,1.1474499999999999e-24,1.1474499999999999e-24,-1.3522299999999999e-29,2.0712199999999998e-30,-1.19741e-29
2340.0,3.2788199999999999e-29,1.1474499999999999e-24,1.14746e-24,1.1474499999999999e-24,-1.3998399999999999e-29,2.1433699999999998e-30,-1.22421e-29
2341.0,3.3126400000000002e-29,1.14746e-24,1.14746e-24,1.14746e-24,-1.4582399999999999e-29,2.2835800000000001e-30,-1.2160799999999999e-29
2342.0,3.4185000000000001e-29,1.14747e-24,1.14746e-24,1.14747e-24,-1.49677e-29,2.3592899999999999e-30,-1.21238e-29
2343.0,3.5974499999999999e-29,1.14747e-24,1.14746e-24,1.14747e-24,-1.52392e-29,2.3971600000000001e-30,-1.1644700000000001e-29
2344.0,3.8887899999999999e-29,1.1474799999999999e-24,1.14746e-24,1.1474799999999999e-24,-1.53198e-29,2.40802e-30,-1.1044999999999999e-29
2345.0,4.3082900000000001e-29,1.1475e-24,1.14747e-24,1.14749e-24,-1.53429e-29,2.3077300000000001e-30,-9.7643199999999999e-30
2346.0,3.0187599999999998e-29,1.1474499999999999e-24,1.14746e-24,1.1474499999999999e-24,-1.2626500000000001e-29,1.5982199999999999e-30,-1.10093e-29
2347.0,3.0084200000000001e-29,1.1474499999999999e-24,1.14746e-24,1.1474499999999999e-24,-1.31184e-29,1.7989699999999999e-30,-1.09848e-29
2348.0,3.0681699999999999e-29,1.14746e-24,1.14746e-24,1.14746e-24,-1.3576600000000001e-29,1.9745000000000002e-30,-1.11942e-29
2349.0,3.1847300000000003e-29,1.14747e-24,1.14746e-24,1.14747e-24,-1.4007100000000001e-29,2.07663e-30,-1.10808e-29
2350.0,3.4085900000000001e-29,1.1474799999999999e-24,1.14746e-24,1.1474799999999999e-24,-1.4346700000000001e-29,2.20684e-30,-1.08734e-29
2351.0,3.7244900000000002e-29,1.14749e-24,1.14747e-24,1.14749e-24,-1.4502599999999999e-29,2.2502700000000001e-30,-1.03683e-29
2352.0,4.1500600000000001e-29,1.1475e-24,1.14747e-24,1.1475e-24,-1.4295199999999999e-29,2.0301899999999999e-30,-9.8647500000000002e-30
2353.0,3.2037500000000002e-29,1.1474199999999999e-24,1.14746e-24,1.14743e-24,-4.8836899999999999e-30,-1.36073e-30,-1.01932e-30
2354.0,3.7958499999999998e-29,1.14741e-24,1.1474499999999999e-24,1.1474199999999999e-24,-5.83786e-30,-1.54135e-30,-1.54223e-30
2355.0,3.3066100000000003e-29,1.1474199999999999e-24,1.1474499999999999e-24,1.14743e-24,-6.7467999999999999e-30,-1.2430000000000001e-30,-1.24524e-30
2356.0,3.7700800000000003e-29,1.14741e-24,1.1474499999999999e-24,1.1474199999999999e-24,-7.2087800000000004e-30,-1.6164199999999999e-30,-8.9962000000000009e-31
2357.0,3.1740199999999997e-29,1.1474199999999999e-24,1.1474499999999999e-24,1.14743e-24,-8.2683900000000003e-30,-1.3780700000000001e-30,-7.8651e-31
2358.0,3.76327e-29,1.14741e-24,1.1474499999999999e-24,1.1474199999999999e-24,-8.7503800000000005e-30,-1.5525599999999999e-30,-1.0384599999999999e-30
2359.0,3.2597799999999998e-29,1.1474199999999999e-24,1.1474499999999999e-24,1.14743e-24,-9.8576900000000002e-30,-1.22733e-30,-8.6430400000000004e-31
2360.0,3.6139500000000002e-29,1.1474199999999999e-24,1.1474499999999999e-24,1.1474199999999999e-24,-1.0318e-29,-1.6298299999999999e-30,-5.3350900000000003e-31
2361.0,3.0323199999999998e-29,1.14743e-24,1.1474499999999999e-24,1.14743e-24,-1.1200400000000001e-29,-1.28211e-30,-5.3948600000000002e-31
2362.0,3.5149200000000002e-29,1.1474199999999999e-24,1.1474499999999999e-24,1.1474199999999999e-24,-1.1401100000000001e-29,-1.37965e-30,-5.7059100000000001e-31
2363.0,3.1505300000000002e-29,1.14743e-24,1.1474499999999999e-24,1.14743e-24,-1.2988600000000001e-29,-1.0756699999999999e-30,-4.5762799999999999e-31
2364.0,3.2856200000000001e-29,1.1474199999999999e-24,1.1474499999999999e-24,1.14743e-24,-1.3174699999999999e-29,-1.5045799999999999e-30,-2.2317900000000001e-31
2365.0,2.9047700000000001e-29,1.14743e-24,1.1474499999999999e-24,1.14744e-24,-1.36178e-29,-9.5786200000000007e-31,-3.5753699999999998e-31
2366.0,3.28254e-29,1.14743e-24,1.1474499999999999e-24,1.14743e-24,-1.4304599999999999e-29,-1.0011400000000001e-30,-2.20346e-31
2367.0,3.2624300000000001e-29,1.1474199999999999e-24,1.1474499999999999e-24,1.14743e-24,-5.00345e-30,-9.3467599999999999e-31,-3.8169199999999997e-30
2368.0,3.7353299999999998e-29,1.14741e-24,1.1474499999999999e-24,1.1474199999999999e-24,-5.3450000000000003e-30,-1.04654e-30,-3.7217799999999997e-30
2369.0,3.1692899999999997e-29,1.1474199999999999e-24,1.1474499999999999e-24,1.14743e-24,-6.4203700000000003e-30,-8.7664199999999994e-31,-3.3653799999999998e-30
2370.0,3.7506500000000003e-29,1.14741e-24,1.1474499999999999e-24,1.1474199999999999e-24,-7.0704399999999993e-30,-1.11634e-30,-3.7615299999999998e-30
2371.0,3.1882500000000001e-29,1.1474199999999999e-24,1.1474499999999999e-24,1.14743e-24,-8.0705000000000005e-30,-8.6453499999999998e-31,-3.2395800000000003e-30
2372.0,3.6575499999999997e-29,1.14741e-24,1.1474499999999999e-24,1.1474199999999999e-24,-8.5081899999999994e-30,-1.0796099999999999e-30,-3.3138799999999998e-30
2373.0,3.0769e-29,1.14743e-24,1.1474499999999999e-24,1.14743e-24,-9.5571699999999996e-30,-7.6345500000000002e-31,-2.9568899999999999e-30
2374.0,3.56692e-29,1.1474199999999999e-24,1.1474499999999999e-24,1.1474199999999999e-24,-9.8400800000000002e-30,-9.8360599999999991e-31,-3.0835200000000001e-30
2375.0,3.0529300000000002e-29,1.14743e-24,1.1474499999999999e-24,1.14743e-24,-1.10189e-29,-7.1958300000000001e-31,-2.7451500000000002e-30
2376.0,3.39068e-29,1.1474199999999999e-24,1.1474499999999999e-24,1.1474199999999999e-24,-1.1372900000000001e-29,-8.7907799999999996e-31,-2.8175299999999999e-30
2377.0,2.9305099999999999e-29,1.14743e-24,1.1474499999999999e-24,1.14744e-24,-1.23275e-29,-5.8747600000000001e-31,-2.55382e-30
2378.0,3.2603499999999998e-29,1.1474199999999999e-24,1.1474499999999999e-24,1.14743e-24,-1.25532e-29,-7.2742099999999997e-31,-2.5707e-30
2379.0,2.9554900000000002e-29,1.14743e-24,1.1474499999999999e-24,1.14744e-24,-1.36489e-29,-4.2056900000000002e-31,-2.4168000000000001e-30
2380.0,3.0908399999999998e-29,1.14743e-24,1.1474499999999999e-24,1.14743e-24,-1.3996099999999999e-29,-5.6350499999999997e-31,-2.45693e-30
2381.0,3.1780799999999999e-29,1.1474199999999999e-24,1.14746e-24,1.14743e-24,-4.6084100000000003e-30,-4.71868e-31,-5.9617599999999997e-30
2382.0,3.7440599999999999e-29,1.14741e-24,1.1474499999999999e-24,1.1474199999999999e-24,-5.3675699999999999e-30,-7.7127200000000002e-31,-6.5992799999999994e-30
2383.0,3.2024099999999999e-29,1.1474199999999999e-24,1.1474499999999999e-24,1.14743e-24,-6.2914499999999998e-30,-4.8652000000000002e-31,-5.8582199999999998e-30
2384.0,3.68624e-29,1.14741e-24,1.1474499999999999e-24,1.1474199999999999e-24,-6.7229999999999998e-30,-6.0746499999999997e-31,-6.1516699999999998e-30
2385.0,3.1099899999999999e-29,1.14743e-24,1.1474499999999999e-24,1.14743e-24,-7.8021099999999995e-30,-3.5142499999999999e-31,-5.4916299999999997e-30
2386.0,3.61758e-29,1.14741e-24,1.1474499999999999e-24,1.1474199999999999e-24,-8.1817999999999996e-30,-5.2583799999999998e-31,-5.8639199999999998e-30
2387.0,3.0594899999999997e-29,1.14743e-24,1.1474499999999999e-24,1.14743e-24,-9.2883099999999998e-30,-3.29932e-31,-5.1567299999999997e-30
2388.0,3.4933700000000001e-29,1.1474199999999999e-24,1.1474499999999999e-24,1.1474199999999999e-24,-9.6486399999999995e-30,-3.63169e-31,-5.5346899999999999e-30
2389.0,2.9741900000000003e-29,1.14743e-24,1.1474499999999999e-24,1.14743e-24,-1.07164e-29,-1.4815799999999999e-31,-4.9013399999999997e-30
2390.0,3.3552600000000002e-29,1.1474199999999999e-24,1.1474499999999999e-24,1.14743e-24,-1.09753e-29,-2.5626899999999999e-31,-5.1456099999999998e-30
2391.0,2.91109e-29,1.14743e-24,1.1474499999999999e-24,1.14744e-24,-1.20267e-29,-7.8538899999999998e-32,-4.62291e-30
2392.0,3.2009799999999998e-29,1.14743e-24,1.1474499999999999e-24,1.14743e-24,-1.23827e-29,-2.3676100000000001e-32,-4.94205e-30
2393.0,2.8668499999999998e-29,1.14744e-24,1.1474499999999999e-24,1.14744e-24,-1.3181299999999999e-29,7.0498300000000005e-32,-4.4895499999999999e-30
2394.0,3.0888800000000002e-29,1.14743e-24,1.1474499999999999e-24,1.14743e-24,-1.3636299999999999e-29,5.7620500000000003e-32,-4.7475200000000002e-30
2395.0,3.2917399999999997e-29,1.1474199999999999e-24,1.1474499999999999e-24,1.14743e-24,-4.6863799999999998e-30,-2.2905899999999998e-31,-8.5343099999999997e-30
2396.0,3.6797100000000003e-29,1.1474199999999999e-24,1.1474499999999999e-24,1.1474199999999999e-24,-4.8690200000000002e-30,-2.1943800000000001e-31,-8.9153300000000005e-30
2397.0,3.1586499999999999e-29,1.14743e-24,1.14746e-24,1.14743e-24,-6.0696599999999997e-30,-2.4644499999999999e-32,-8.0529799999999994e-30
2398.0,3.6658099999999997e-29,1.1474199999999999e-24,1.1474499999999999e-24,1.1474199999999999e-24,-6.5049399999999995e-30,-1.42959e-31,-8.6323299999999995e-30
2399.0,3.1174200000000001e-29,1.14743e-24,1.1474499999999999e-24,1.14743e-24,-7.5557600000000004e-30,3.2381399999999997e-32,-7.7184800000000005e-30
2400.0,3.5870600000000002e-29,1.1474199999999999e-24,1.1474499999999999e-24,1.1474199999999999e-24,-7.9872600000000006e-30,6.0270799999999995e-32,-8.3037899999999996e-30
2401.0,3.0394700000000001e-29,1.14743e-24,1.1474499999999999e-24,1.14743e-24,-9.0663500000000004e-30,2.2324499999999999e-31,-7.3654499999999999e-30
2402.0,3.4719600000000002e-29,1.1474199999999999e-24,1.1474499999999999e-24,1.1474199999999999e-24,-9.3273099999999995e-30,1.77364e-31,-7.8619900000000003e-30
2403.0,2.9596199999999999e-29,1.14743e-24,1.1474499999999999e-24,1.14744e-24,-1.0404e-29,2.5481500000000001e-31,-6.9364199999999998e-30
2404.0,3.33097e-29,1.1474199999999999e-24,1.1474499999999999e-24,1.14743e-24,-1.0788299999999999e-29,4.2886099999999998e-31,-7.5234899999999999e-30
2405.0,2.9032300000000001e-29,1.14744e-24,1.1474499999999999e-24,1.14744e-24,-1.17502e-29,4.8529199999999996e-31,-6.6661299999999998e-30
2406.0,3.2030299999999998e-29,1.14743e-24,1.1474499999999999e-24,1.14743e-24,-1.20827e-29,4.7801199999999997e-31,-7.14376e-30
2407.0,2.8782200000000001e-29,1.14744e-24,1.1474499999999999e-24,1.14744e-24,-1.28381e-29,5.2446300000000003e-31,-6.45952e-30
2408.0,3.0994800000000002e-29,1.14743e-24,1.1474499999999999e-24,1.14744e-24,-1.3350700000000001e-29,7.52124e-31,-6.9307900000000002e-30
2409.0,3.1911199999999998e-29,1.14743e-24,1.14746e-24,1.14743e-24,-4.31335e-30,2.74606e-31,-1.04114e-29
2410.0,3.7096700000000001e-29,1.1474199999999999e-24,1.1474499999999999e-24,1.1474199999999999e-24,-4.8959e-30,8.4922799999999998e-32,-1.12395e-29
2411.0,3.21445e-29,1.14743e-24,1.14746e-24,1.14743e-24,-5.9150799999999999e-30,3.08121e-31,-1.02397e-29
2412.0,3.6333e-29,1.1474199999999999e-24,1.1474499999999999e-24,1.14743e-24,-6.28368e-30,3.21305e-31,-1.09653e-29
2413.0,3.1261599999999998e-29,1.14743e-24,1.14746e-24,1.14744e-24,-7.4299400000000003e-30,5.0399900000000004e-31,-9.8003300000000001e-30
2414.0,3.5602999999999999e-29,1.1474199999999999e-24,1.1474499999999999e-24,1.14743e-24,-7.7137100000000001e-30,5.0357099999999997e-31,-1.0509099999999999e-29
2415.0,3.0455700000000001e-29,1.14743e-24,1.1474499999999999e-24,1.14744e-24,-8.8086500000000003e-30,5.7935199999999999e-31,-9.3288399999999995e-30
2416.0,3.4678099999999998e-29,1.1474199999999999e-24,1.1474499999999999e-24,1.14743e-24,-9.2036199999999997e-30,7.8484099999999999e-31,-1.0145299999999999e-29
2417.0,2.9887000000000001e-29,1.14744e-24,1.14746e-24,1.14744e-24,-1.0217e-29,7.8648099999999998e-31,-8.94833e-30
2418.0,3.3461699999999999e-29,1.14743e-24,1.1474499999999999e-24,1.14743e-24,-1.0536599999999999e-29,8.7752400000000001e-31,-9.6677799999999994e-30
2419.0,2.9276900000000002e-29,1.14744e-24,1.1474499999999999e-24,1.14744e-24,-1.1436000000000001e-29,8.0635800000000007e-31,-8.52902e-30
2420.0,3.2378900000000003e-29,1.14743e-24,1.1474499999999999e-24,1.14743e-24,-1.18651e-29,1.1659500000000001e-30,-9.2883499999999997e-30
2421.0,2.9070899999999999e-29,1.14744e-24,1.1474499999999999e-24,1.14744e-24,-1.25079e-29,1.04394e-30,-8.2909899999999998e-30
2422.0,3.1583900000000001e-29,1.14743e-24,1.1474499999999999e-24,1.14744e-24,-1.3091400000000001e-29,1.1709000000000001e-30,-9.0137599999999993e-30
2423.0,3.3870799999999999e-29,1.14743e-24,1.14746e-24,1.14743e-24,-4.4350099999999999e-30,4.3322399999999999e-31,-1.28406e-29
2424.0,3.61894e-29,1.1474199999999999e-24,1.1474499999999999e-24,1.14743e-24,-4.4227999999999997e-30,5.18848e-31,-1.3365800000000001e-29
2425.0,3.2137900000000003e-29,1.14743e-24,1.14746e-24,1.14744e-24,-5.8256799999999997e-30,7.0179300000000003e-31,-1.20998e-29
2426.0,3.6153200000000002e-29,1.1474199999999999e-24,1.1474499999999999e-24,1.14743e-24,-6.0727400000000001e-30,6.9541200000000002e-31,-1.2897700000000001e-29
2427.0,3.1611800000000001e-29,1.14743e-24,1.14746e-24,1.14744e-24,-7.2689900000000005e-30,8.2785099999999993e-31,-1.16389e-29
2428.0,3.5493599999999999e-29,1.14743e-24,1.1474499999999999e-24,1.14743e-24,-7.6442399999999995e-30,9.9350099999999993e-31,-1.25778e-29
2429.0,3.0972100000000003e-29,1.14744e-24,1.14746e-24,1.14744e-24,-8.7425199999999997e-30,1.0410700000000001e-30,-1.11945e-29
2430.0,3.4637199999999999e-29,1.14743e-24,1.1474499999999999e-24,1.14743e-24,-9.0130300000000003e-30,1.1091399999999999e-30,-1.20669e-29
2431.0,3.02841e-29,1.14744e-24,1.14746e-24,1.14744e-24,-1.0041299999999999e-29,1.07696e-30,-1.0643999999999999e-29
2432.0,3.3784099999999998e-29,1.14743e-24,1.1474499999999999e-24,1.14743e-24,-1.04247e-29,1.4393200000000001e-30,-1.15891e-29
2433.0,2.9949200000000002e-29,1.14744e-24,1.14746e-24,1.14744e-24,-1.12875e-29,1.2891000000000001e-30,-1.02464e-29
2434.0,3.2928700000000002e-29,1.14743e-24,1.1474499999999999e-24,1.14744e-24,-1.1723600000000001e-29,1.47355e-30,-1.1142299999999999e-29
2435.0,2.9681900000000001e-29,1.14744e-24,1.14746e-24,1.1474499999999999e-24,-1.22413e-29,1.2653600000000001e-30,-9.9048400000000002e-30
2436.0,3.2257199999999999e-29,1.14744e-24,1.1474499999999999e-24,1.14744e-24,-1.28432e-29,1.72259e-30,-1.07764e-29
2437.0,3.2423999999999998e-29,1.14743e-24,1.14746e-24,1.14744e-24,-4.1071100000000001e-30,9.5568700000000005e-31,-1.3697400000000001e-29
2438.0,3.6979599999999999e-29,1.14743e-24,1.14746e-24,1.14743e-24,-4.5670899999999998e-30,7.9000999999999992e-31,-1.50885e-29
2439.0,3.3001299999999999e-29,1.14743e-24,1.14746e-24,1.14744e-24,-5.7640999999999998e-30,9.5002600000000001e-31,-1.3709100000000001e-29
2440.0,3.5838899999999999e-29,1.14743e-24,1.1474499999999999e-24,1.14743e-24,-6.0584800000000001e-30,1.0749200000000001e-30,-1.4703499999999999e-29
2441.0,3.2037600000000003e-29,1.14744e-24,1.14746e-24,1.14744e-24,-7.2957499999999994e-30,1.1198900000000001e-30,-1.3145300000000001e-29
2442.0,3.5440800000000001e-29,1.14743e-24,1.1474499999999999e-24,1.14743e-24,-7.57917e-30,1.24638e-30,-1.4222299999999999e-29
2443.0,3.1385299999999998e-29,1.14744e-24,1.14746e-24,1.14744e-24,-8.6751500000000001e-30,1.24004e-30,-1.25532e-29
2444.0,3.4656800000000001e-29,1.14743e-24,1.1474499999999999e-24,1.14744e-24,-9.0521000000000004e-30,1.5655699999999999e-30,-1.3722599999999999e-29
2445.0,3.0907299999999999e-29,1.14744e-24,1.14746e-24,1.14744e-24,-1.00224e-29,1.4642700000000001e-30,-1.20347e-29
2446.0,3.3967500000000003e-29,1.14743e-24,1.1474499999999999e-24,1.14744e-24,-1.0462099999999999e-29,1.63452e-30,-1.3152100000000001e-29
2447.0,3.0477400000000002e-29,1.14744e-24,1.14746e-24,1.1474499999999999e-24,-1.1203699999999999e-29,1.4271399999999999e-30,-1.1460500000000001e-29
2448.0,3.3315100000000003e-29,1.14744e-24,1.1474499999999999e-24,1.14744e-24,-1.16468e-29,1.9009799999999999e-30,-1.25821e-29
2449.0,3.0369800000000003e-29,1.14744e-24,1.14746e-24,1.1474499999999999e-24,-1.2084299999999999e-29,1.5915999999999998e-30,-1.10614e-29
2450.0,3.2863399999999999e-29,1.14744e-24,1.1474499999999999e-24,1.14744e-24,-1.2707e-29,1.9218799999999999e-30,-1.21324e-29
2451.0,4.1917100000000001e-29,1.14749e-24,1.14747e-24,1.14749e-24,-1.4262499999999999e-29,2.5055199999999999e-30,-1.12614e-29
2452.0,4.0979900000000002e-29,1.1475e-24,1.14747e-24,1.14749e-24,-1.3782699999999999e-29,2.8691600000000001e-30,-1.19486e-29
2453.0,3.9288700000000001e-29,1.14749e-24,1.14747e-24,1.14749e-24,-1.22355e-29,2.7674599999999998e-30,-1.32298e-29
2454.0,3.8267199999999997e-29,1.14749e-24,1.14747e-24,1.14749e-24,-1.1399400000000001e-29,3.1953899999999999e-30,-1.4073299999999999e-29
2455.0,3.6638899999999999e-29,1.14749e-24,1.14747e-24,1.14749e-24,-9.3941200000000001e-30,3.0332999999999999e-30,-1.51754e-29
2456.0,3.5734499999999998e-29,1.14749e-24,1.1474799999999999e-24,1.14749e-24,-8.1125600000000001e-30,3.0823400000000001e-30,-1.6021000000000001e-29
2457.0,3.4654500000000001e-29,1.14749e-24,1.1474799999999999e-24,1.14749e-24,-5.6268199999999999e-30,3.3354999999999999e-30,-1.6676699999999999e-29
2458.0,4.1056700000000001e-29,1.1475e-24,1.14747e-24,1.14749e-24,-1.4245000000000001e-29,2.4487600000000001e-30,-1.01926e-29
2459.0,3.94316e-29,1.1475e-24,1.14747e-24,1.14749e-24,-1.2894300000000001e-29,2.4987500000000002e-30,-1.10966e-29
2460.0,3.8272300000000003e-29,1.1475e-24,1.14747e-24,1.1475e-24,-1.23825e-29,2.6893700000000001e-30,-1.1731899999999999e-29
2461.0,3.6228900000000001e-29,1.14749e-24,1.14747e-24,1.14749e-24,-1.05891e-29,2.6953699999999999e-30,-1.25814e-29
2462.0,3.4891500000000001e-29,1.1475e-24,1.1474799999999999e-24,1.1475e-24,-9.6190300000000005e-30,2.8262100000000001e-30,-1.3249800000000001e-29
2463.0,3.3258600000000002e-29,1.14749e-24,1.1474799999999999e-24,1.14749e-24,-7.4020099999999999e-30,2.8367800000000001e-30,-1.40475e-29
2464.0,3.1853799999999999e-29,1.14749e-24,1.1474799999999999e-24,1.1475e-24,-6.1974200000000001e-30,2.69024e-30,-1.4556999999999999e-29
2465.0,3.8340700000000003e-29,1.1474799999999999e-24,1.14746e-24,1.1474799999999999e-24,-1.45418e-29,2.5734300000000001e-30,-1.22126e-29
2466.0,3.73894e-29,1.1474799999999999e-24,1.14747e-24,1.1474799999999999e-24,-1.3453500000000001e-29,2.64904e-30,-1.3296899999999999e-29
2467.0,3.6592500000000002e-29,1.1474799999999999e-24,1.14747e-24,1.1474799999999999e-24,-1.2323e-29,2.9079200000000001e-30,-1.43896e-29
2468.0,3.5435999999999998e-29,1.1474799999999999e-24,1.14747e-24,1.1474799999999999e-24,-1.08375e-29,2.75023e-30,-1.5353500000000001e-29
2469.0,3.4687399999999999e-29,1.1474799999999999e-24,1.14747e-24,1.1474799999999999e-24,-9.2855399999999995e-30,2.9768499999999999e-30,-1.6325699999999999e-29
2470.0,3.3768699999999998e-29,1.1474799999999999e-24,1.14747e-24,1.1474799999999999e-24,-7.3979100000000002e-30,2.6824800000000002e-30,-1.70343e-29
2471.0,3.3690799999999999e-29,1.1474799999999999e-24,1.14747e-24,1.1474799999999999e-24,-5.5092199999999998e-30,2.6947099999999999e-30,-1.7891799999999999e-29
2472.0,3.67513e-29,1.14749e-24,1.14747e-24,1.14749e-24,-1.38774e-29,2.31078e-30,-1.12062e-29
2473.0,3.5773299999999998e-29,1.14749e-24,1.14747e-24,1.14749e-24,-1.29668e-29,2.52974e-30,-1.19492e-29
2474.0,3.4284399999999998e-29,1.1474799999999999e-24,1.14747e-24,1.1474799999999999e-24,-1.17767e-29,2.42412e-30,-1.2672600000000001e-29
2475.0,3.3112999999999999e-29,1.1474799999999999e-24,1.14747e-24,1.14749e-24,-1.0452400000000001e-29,2.6216499999999998e-30,-1.3527699999999999e-29
2476.0,3.1650600000000002e-29,1.1474799999999999e-24,1.14747e-24,1.1474799999999999e-24,-8.8497499999999997e-30,2.4545e-30,-1.4167299999999999e-29
2477.0,3.06601e-29,1.1474799999999999e-24,1.14747e-24,1.14749e-24,-7.1522500000000003e-30,2.4311500000000001e-30,-1.4929699999999999e-29
2478.0,3.0107899999999999e-29,1.1474799999999999e-24,1.14747e-24,1.1474799999999999e-24,-5.0288800000000003e-30,2.58746e-30,-1.54594e-29
2479.0,3.5774399999999998e-29,1.14747e-24,1.14746e-24,1.14747e-24,-1.4350400000000001e-29,2.5424600000000002e-30,-1.2963800000000001e-29
2480.0,3.5340199999999998e-29,1.14747e-24,1.14746e-24,1.14747e-24,-1.33255e-29,2.65416e-30,-1.4068999999999999e-29
2481.0,3.4612300000000001e-29,1.14747e-24,1.14746e-24,1.14747e-24,-1.19567e-29,2.6620200000000001e-30,-1.51002e-29
2482.0,3.41598e-29,1.14747e-24,1.14747e-24,1.14747e-24,-1.05324e-29,2.6946299999999999e-30,-1.6108500000000001e-29
2483.0,3.3532700000000002e-29,1.14747e-24,1.14747e-24,1.14747e-24,-8.8286000000000004e-30,2.5497800000000001e-30,-1.6878999999999999e-29
2484.0,3.3515100000000003e-29,1.14747e-24,1.14747e-24,1.14747e-24,-6.9986400000000007e-30,2.4078699999999999e-30,-1.78147e-29
2485.0,3.2821799999999999e-29,1.14747e-24,1.14747e-24,1.14747e-24,-4.76871e-30,2.5051300000000002e-30,-1.8064300000000001e-29
2486.0,3.3836599999999999e-29,1.1474799999999999e-24,1.14746e-24,1.1474799999999999e-24,-1.3654e-29,2.2897900000000001e-30,-1.1765200000000001e-29
2487.0,3.2823200000000001e-29,1.1474799999999999e-24,1.14747e-24,1.1474799999999999e-24,-1.2632200000000001e-29,2.29635e-30,-1.24517e-29
2488.0,3.1934900000000001e-29,1.1474799999999999e-24,1.14747e-24,1.1474799999999999e-24,-1.1413099999999999e-29,2.3770099999999999e-30,-1.3298099999999999e-29
2489.0,3.0881500000000003e-29,1.14747e-24,1.14747e-24,1.14747e-24,-9.9923800000000004e-30,2.2966299999999999e-30,-1.4013e-29
2490.0,3.0250299999999998e-29,1.14747e-24,1.14747e-24,1.1474799999999999e-24,-8.3892800000000006e-30,2.30777e-30,-1.4852499999999999e-29
2491.0,2.9460499999999998e-29,1.14747e-24,1.14747e-24,1.14747e-24,-6.6202700000000007e-30,2.0702099999999999e-30,-1.5355299999999999e-29
2492.0,2.9659200000000002e-29,1.14747e-24,1.14747e-24,1.1474799999999999e-24,-4.8677599999999998e-30,2.0423499999999999e-30,-1.6202899999999999e-29
2493.0,3.4257199999999999e-29,1.14747e-24,1.14746e-24,1.14746e-24,-1.41361e-29,2.4661200000000002e-30,-1.3291199999999999e-29
2494.0,3.4003499999999998e-29,1.14746e-24,1.14746e-24,1.14746e-24,-1.2907499999999999e-29,2.5341800000000001e-30,-1.4444100000000001e-29
2495.0,3.3831800000000002e-29,1.14746e-24,1.14746e-24,1.14746e-24,-1.16768e-29,2.5394400000000002e-30,-1.5428200000000001e-29
2496.0,3.3550999999999997e-29,1.14746e-24,1.14746e-24,1.14746e-24,-1.0090299999999999e-29,2.4444000000000001e-30,-1.63295e-29
2497.0,3.3621000000000002e-29,1.14746e-24,1.14746e-24,1.14746e-24,-8.4870200000000003e-30,2.3748e-30,-1.7192899999999999e-29
2498.0,3.3228099999999999e-29,1.14746e-24,1.14746e-24,1.14746e-24,-6.6242699999999994e-30,2.11505e-30,-1.7664300000000001e-29
2499.0,3.4024499999999997e-29,1.14746e-24,1.14747e-24,1.14746e-24,-4.6946199999999997e-30,1.91212e-30,-1.86622e-29
2500.0,3.1818600000000001e-29,1.14747e-24,1.14746e-24,1.14747e-24,-1.32677e-29,2.1980699999999998e-30,-1.20472e-29
2501.0,3.1228300000000001e-29,1.14747e-24,1.14746e-24,1.14747e-24,-1.22916e-29,2.1848799999999999e-30,-1.2740200000000001e-29
2502.0,3.0503199999999998e-29,1.14747e-24,1.14746e-24,1.14747e-24,-1.09944e-29,2.1373099999999999e-30,-1.3505499999999999e-29
2503.0,3.0113300000000002e-29,1.14747e-24,1.14747e-24,1.14747e-24,-9.5847200000000001e-30,2.1463699999999999e-30,-1.4323099999999999e-29
2504.0,2.9635399999999998e-29,1.14746e-24,1.14747e-24,1.14747e-24,-8.0098899999999993e-30,1.9363799999999999e-30,-1.49392e-29
2505.0,2.9749300000000003e-29,1.14746e-24,1.14747e-24,1.14747e-24,-6.2689399999999999e-30,1.8779999999999999e-30,-1.5714800000000001e-29
2506.0,2.9487899999999998e-29,1.14746e-24,1.14747e-24,1.14746e-24,-4.2838499999999998e-30,1.8378500000000001e-30,-1.6127600000000001e-29
2507.0,3.3455899999999998e-29,1.14746e-24,1.14746e-24,1.14746e-24,-1.3637300000000001e-29,2.38101e-30,-1.3462400000000001e-29
2508.0,3.3553800000000002e-29,1.14746e-24,1.14746e-24,1.14746e-24,-1.26203e-29,2.37715e-30,-1.4424200000000001e-29
2509.0,3.3569899999999998e-29,1.1474499999999999e-24,1.14746e-24,1.1474499999999999e-24,-1.12057e-29,2.3704599999999999e-30,-1.5405799999999999e-29
2510.0,3.3742800000000001e-29,1.1474499999999999e-24,1.14746e-24,1.1474499999999999e-24,-9.8143199999999999e-30,2.2372800000000001e-30,-1.6211e-29
2511.0,3.3789600000000001e-29,1.1474499999999999e-24,1.14746e-24,1.1474499999999999e-24,-8.1214199999999995e-30,2.0865000000000001e-30,-1.68924e-29
2512.0,3.4283299999999998e-29,1.1474499999999999e-24,1.14746e-24,1.1474499999999999e-24,-6.3658299999999996e-30,1.90097e-30,-1.7661200000000001e-29
2513.0,3.3465400000000002e-29,1.1474499999999999e-24,1.14746e-24,1.1474499999999999e-24,-4.3447999999999997e-30,1.84408e-30,-1.7735899999999999e-29
2514.0,3.0785000000000001e-29,1.14746e-24,1.14746e-24,1.14746e-24,-1.2908800000000001e-29,2.0228999999999998e-30,-1.2044699999999999e-29
2515.0,3.0379400000000002e-29,1.14746e-24,1.14746e-24,1.14746e-24,-1.18207e-29,2.0292699999999999e-30,-1.2767200000000001e-29
2516.0,3.0169700000000002e-29,1.14746e-24,1.14746e-24,1.14746e-24,-1.06632e-29,1.9655200000000002e-30,-1.34922e-29
2517.0,3.0021799999999998e-29,1.14746e-24,1.14746e-24,1.14746e-24,-9.21445e-30,1.8803700000000002e-30,-1.4219100000000001e-29
2518.0,3.0152899999999999e-29,1.14746e-24,1.14746e-24,1.14746e-24,-7.6807300000000005e-30,1.7868300000000001e-30,-1.4926200000000001e-29
2519.0,3.01029e-29,1.1474499999999999e-24,1.14746e-24,1.14746e-24,-6.0061400000000001e-30,1.55725e-30,-1.54161e-29
2520.0,3.1121999999999998e-29,1.1474499999999999e-24,1.14747e-24,1.14746e-24,-4.3981299999999998e-30,1.4884699999999999e-30,-1.6276699999999999e-29
2521.0,3.3289900000000002e-29,1.1474499999999999e-24,1.14746e-24,1.1474499999999999e-24,-1.3318599999999999e-29,2.2312400000000001e-30,-1.3253500000000001e-29
2522.0,3.3472499999999999e-29,1.1474499999999999e-24,1.14746e-24,1.1474499999999999e-24,-1.21334e-29,2.2641200000000001e-30,-1.42036e-29
2523.0,3.3745899999999998e-29,1.1474499999999999e-24,1.14746e-24,1.1474499999999999e-24,-1.0965500000000001e-29,2.1331199999999999e-30,-1.4965299999999999e-29
2524.0,3.4064599999999999e-29,1.14744e-24,1.14746e-24,1.1474499999999999e-24,-9.4185000000000006e-30,2.0545099999999999e-30,-1.57435e-29
2525.0,3.4527699999999998e-29,1.14744e-24,1.14746e-24,1.1474499999999999e-24,-7.9276699999999993e-30,1.8798599999999998e-30,-1.6388000000000001e-29
2526.0,3.4525700000000001e-29,1.14744e-24,1.14746e-24,1.1474499999999999e-24,-6.1736299999999999e-30,1.6053000000000001e-30,-1.6834199999999999e-29
2527.0,3.5819700000000001e-29,1.14744e-24,1.14746e-24,1.1474499999999999e-24,-4.4432299999999999e-30,1.32575e-30,-1.7711900000000001e-29
2528.0,3.0343400000000001e-29,1.1474499999999999e-24,1.14746e-24,1.1474499999999999e-24,-1.23819e-29,1.9076299999999998e-30,-1.19396e-29
2529.0,3.0366200000000001e-29,1.1474499999999999e-24,1.14746e-24,1.1474499999999999e-24,-1.15636e-29,1.8280200000000002e-30,-1.2550100000000001e-29
2530.0,3.0379900000000001e-29,1.1474499999999999e-24,1.14746e-24,1.1474499999999999e-24,-1.02889e-29,1.7978200000000001e-30,-1.3272e-29
2531.0,3.0638799999999997e-29,1.1474499999999999e-24,1.14746e-24,1.1474499999999999e-24,-8.9829600000000004e-30,1.6746600000000002e-30,-1.39227e-29
2532.0,3.08812e-29,1.1474499999999999e-24,1.14746e-24,1.1474499999999999e-24,-7.4663900000000001e-30,1.52175e-30,-1.4515999999999999e-29
2533.0,3.15496e-29,1.1474499999999999e-24,1.14746e-24,1.1474499999999999e-24,-5.8577800000000002e-30,1.3829000000000001e-30,-1.5217900000000001e-29
2534.0,3.1507799999999998e-29,1.14744e-24,1.14746e-24,1.1474499999999999e-24,-4.0514999999999997e-30,1.24592e-30,-1.5592600000000001e-29
2535.0,3.3151799999999999e-29,1.14744e-24,1.1474499999999999e-24,1.1474499999999999e-24,-1.28019e-29,2.1419700000000001e-30,-1.2943000000000001e-29
2536.0,3.35148e-29,1.14744e-24,1.1474499999999999e-24,1.14744e-24,-1.1937299999999999e-29,2.00826e-30,-1.35663e-29
2537.0,3.3966300000000002e-29,1.14744e-24,1.1474499999999999e-24,1.14744e-24,-1.0571900000000001e-29,1.99232e-30,-1.42913e-29
2538.0,3.4546900000000002e-29,1.14744e-24,1.14746e-24,1.14744e-24,-9.2750300000000006e-30,1.75942e-30,-1.4906500000000001e-29
2539.0,3.5031899999999997e-29,1.14744e-24,1.14746e-24,1.14744e-24,-7.6942799999999993e-30,1.6256399999999999e-30,-1.5499499999999999e-29
2540.0,3.5715000000000002e-29,1.14744e-24,1.14746e-24,1.14744e-24,-6.0943400000000003e-30,1.35376e-30,-1.6016800000000001e-29
2541.0,3.5084999999999998e-29,1.14743e-24,1.14746e-24,1.14744e-24,-4.3244799999999997e-30,1.24712e-30,-1.6270600000000001e-29
2542.0,3.0515100000000003e-29,1.1474499999999999e-24,1.14746e-24,1.1474499999999999e-24,-1.2225e-29,1.66128e-30,-1.16218e-29
2543.0,3.0603900000000002e-29,1.1474499999999999e-24,1.14746e-24,1.1474499999999999e-24,-1.1222199999999999e-29,1.72772e-30,-1.22506e-29
2544.0,3.0876900000000002e-29,1.14744e-24,1.14746e-24,1.1474499999999999e-24,-1.01637e-29,1.5715699999999999e-30,-1.28044e-29
2545.0,3.12898e-29,1.14744e-24,1.14746e-24,1.1474499999999999e-24,-8.7519999999999994e-30,1.52477e-30,-1.3490600000000001e-29
2546.0,3.1825699999999998e-29,1.14744e-24,1.14746e-24,1.14744e-24,-7.3204800000000006e-30,1.3356200000000001e-30,-1.4053599999999999e-29
2547.0,3.2296200000000002e-29,1.14744e-24,1.14746e-24,1.14744e-24,-5.8184399999999999e-30,1.13282e-30,-1.4560700000000001e-29
2548.0,3.3651800000000002e-29,1.14744e-24,1.14746e-24,1.14744e-24,-4.4050099999999998e-30,1.0005799999999999e-30,-1.53417e-29
2549.0,1.6473499999999999e-28,1.1476199999999999e-24,1.1474499999999999e-24,1.1476199999999999e-24,2.2793800000000001e-30,3.6127299999999997e-30,-1.2796300000000001e-29
2550.0,1.34604e-28,1.1475899999999999e-24,1.14746e-24,1.1476000000000001e-24,-1.47028e-30,3.34034e-30,-1.02775e-29
2551.0,1.0799599999999999e-28,1.1475700000000001e-24,1.14747e-24,1.1475700000000001e-24,-4.7488099999999998e-30,3.2247999999999997e-30,-8.2030200000000007e-30
2552.0,8.8297399999999996e-29,1.1475599999999999e-24,1.14747e-24,1.14755e-24,-9.0609900000000004e-30,2.9731699999999998e-30,-6.5366400000000003e-30
2553.0,7.1236500000000001e-29,1.1475400000000001e-24,1.14747e-24,1.1475400000000001e-24,-1.1563e-29,2.7566399999999998e-30,-5.1108799999999998e-30
2554.0,5.9388199999999995e-29,1.14752e-24,1.14747e-24,1.14752e-24,-1.4640700000000001e-29,2.5842600000000001e-30,-3.98749e-30
2555.0,4.9425400000000002e-29,1.1475100000000001e-24,1.14747e-24,1.1475100000000001e-24,-1.6250100000000001e-29,2.1537900000000001e-30,-2.7701199999999999e-30
2556.0,1.6500100000000001e-28,1.1476199999999999e-24,1.1474499999999999e-24,1.1476199999999999e-24,1.2704e-30,2.0690199999999999e-30,-5.8397599999999998e-30
2557.0,1.34342e-28,1.1475899999999999e-24,1.14746e-24,1.1476000000000001e-24,-1.5008100000000001e-30,2.1680400000000002e-30,-5.5937499999999999e-30
2558.0,1.0946699999999999e-28,1.1475700000000001e-24,1.14747e-24,1.1475700000000001e-24,-5.3551100000000001e-30,2.1728300000000001e-30,-5.33231e-30
2559.0,8.8693199999999999e-29,1.1475599999999999e-24,1.14747e-24,1.14755e-24,-8.5702400000000003e-30,2.2807799999999999e-30,-4.9699900000000003e-30
2560.0,7.2821999999999998e-29,1.1475400000000001e-24,1.14747e-24,1.1475400000000001e-24,-1.18509e-29,2.2015099999999998e-30,-4.6450799999999999e-30
2561.0,5.9972100000000005e-29,1.14752e-24,1.14747e-24,1.14752e-24,-1.40198e-29,2.19308e-30,-4.3274599999999999e-30
2562.0,5.0758899999999998e-29,1.1475100000000001e-24,1.14747e-24,1.1475100000000001e-24,-1.6036100000000001e-29,2.0455700000000001e-30,-4.2184800000000003e-30
2563.0,1.6000600000000001e-28,1.14761e-24,1.1474499999999999e-24,1.14761e-24,-6.1154500000000001e-31,8.2178399999999998e-31,6.1615800000000003e-31
2564.0,1.31766e-28,1.1475899999999999e-24,1.14746e-24,1.1475899999999999e-24,-2.9102700000000001e-30,1.02183e-30,-1.1950499999999999e-30
2565.0,1.0785300000000001e-28,1.1475700000000001e-24,1.14746e-24,1.1475700000000001e-24,-6.0032600000000002e-30,1.41501e-30,-2.48101e-30
2566.0,8.8278300000000004e-29,1.14755e-24,1.14747e-24,1.14755e-24,-9.1743000000000002e-30,1.6185600000000001e-30,-3.4241700000000002e-30
2567.0,7.2658700000000001e-29,1.1475400000000001e-24,1.14747e-24,1.1475400000000001e-24,-1.17674e-29,1.8376000000000001e-30,-4.13482e-30
2568.0,6.0602999999999995e-29,1.14752e-24,1.14747e-24,1.14752e-24,-1.4099e-29,1.8393199999999999e-30,-4.6402699999999997e-30
2569.0,5.0947399999999997e-29,1.1475100000000001e-24,1.14747e-24,1.1475100000000001e-24,-1.5639000000000001e-29,1.9313900000000001e-30,-4.7145399999999999e-30
2570.0,1.51894e-28,1.14761e-24,1.14746e-24,1.14761e-24,-3.3319200000000001e-30,2.6804799999999999e-31,5.6647499999999998e-30
2571.0,1.2638400000000001e-28,1.1475899999999999e-24,1.14746e-24,1.1475899999999999e-24,-4.9172399999999999e-30,5.0389600000000001e-31,2.4092099999999999e-30
2572.0,1.0448800000000001e-28,1.1475700000000001e-24,1.14747e-24,1.1475700000000001e-24,-7.3514000000000004e-30,9.1969299999999992e-31,-2.1297299999999999e-31
2573.0,8.6348400000000004e-29,1.14755e-24,1.14747e-24,1.14755e-24,-9.8742400000000005e-30,1.20237e-30,-2.1831999999999999e-30
2574.0,7.1805699999999995e-29,1.1475400000000001e-24,1.14747e-24,1.14753e-24,-1.21912e-29,1.4567700000000001e-30,-3.7362400000000003e-30
2575.0,6.0013499999999998e-29,1.14752e-24,1.14747e-24,1.14752e-24,-1.3959800000000001e-29,1.7380000000000002e-30,-4.85446e-30
2576.0,5.1099299999999995e-29,1.1475100000000001e-24,1.14747e-24,1.1475100000000001e-24,-1.5465200000000001e-29,1.8089100000000001e-30,-6.0020600000000003e-30
2577.0,1.41135e-28,1.1476000000000001e-24,1.14746e-24,1.1476000000000001e-24,-6.3185999999999999e-30,1.4890099999999999e-31,8.8558200000000003e-30
2578.0,1.19192e-28,1.14758e-24,1.14746e-24,1.14758e-24,-7.1271199999999994e-30,4.1702400000000003e-31,4.7243299999999997e-30
2579.0,9.9888000000000005e-29,1.1475700000000001e-24,1.14747e-24,1.1475599999999999e-24,-8.9436600000000006e-30,6.8554999999999997e-31,1.32931e-30
2580.0,8.3456899999999995e-29,1.14755e-24,1.14747e-24,1.14755e-24,-1.0872499999999999e-29,1.07116e-30,-1.4120500000000001e-30
2581.0,6.99196e-29,1.1475400000000001e-24,1.14747e-24,1.14753e-24,-1.25593e-29,1.4103599999999999e-30,-3.5236900000000002e-30
2582.0,5.89796e-29,1.14752e-24,1.14747e-24,1.14752e-24,-1.4090300000000001e-29,1.6354100000000001e-30,-5.3040700000000003e-30
2583.0,5.0476899999999998e-29,1.1475100000000001e-24,1.14747e-24,1.1475100000000001e-24,-1.52418e-29,1.9154600000000001e-30,-6.3726300000000006e-30
2584.0,1.30095e-28,1.1475899999999999e-24,1.14746e-24,1.1475899999999999e-24,-8.84648e-30,4.8658800000000001e-31,1.0072499999999999e-29
2585.0,1.1211700000000001e-28,1.14758e-24,1.14747e-24,1.1475700000000001e-24,-9.3023100000000002e-30,4.9712200000000004e-31,5.9052900000000001e-30
2586.0,9.4982300000000002e-29,1.1475599999999999e-24,1.14747e-24,1.1475599999999999e-24,-1.0431899999999999e-29,8.19497e-31,2.16791e-30
2587.0,8.0174599999999998e-29,1.14755e-24,1.14747e-24,1.1475400000000001e-24,-1.1794999999999999e-29,1.18119e-30,-9.8532600000000009e-31
2588.0,6.7704600000000003e-29,1.14753e-24,1.14747e-24,1.14753e-24,-1.30104e-29,1.5355000000000001e-30,-3.6251299999999998e-30
2589.0,5.7513299999999998e-29,1.14752e-24,1.14747e-24,1.14752e-24,-1.4098000000000001e-29,1.7889899999999999e-30,-5.74575e-30
2590.0,4.9778299999999998e-29,1.1475100000000001e-24,1.14747e-24,1.1475e-24,-1.4980300000000001e-29,1.9830700000000001e-30,-7.8210599999999996e-30
2591.0,1.2130199999999999e-28,1.1475899999999999e-24,1.14747e-24,1.14758e-24,-1.0846999999999999e-29,7.8086699999999998e-31,1.0459399999999999e-29
2592.0,1.06311e-28,1.14758e-24,1.14747e-24,1.1475700000000001e-24,-1.1045400000000001e-29,9.6368500000000004e-31,6.4221800000000004e-30
2593.0,9.0993900000000004e-29,1.1475599999999999e-24,1.14747e-24,1.1475599999999999e-24,-1.17013e-29,1.2095e-30,2.5748399999999998e-30
2594.0,7.7162899999999995e-29,1.14755e-24,1.14747e-24,1.1475400000000001e-24,-1.24805e-29,1.5228e-30,-9.8997300000000002e-31
2595.0,6.5639499999999996e-29,1.14753e-24,1.14747e-24,1.14753e-24,-1.33278e-29,1.7854000000000002e-30,-3.92525e-30
2596.0,5.6071600000000003e-29,1.14752e-24,1.14747e-24,1.14752e-24,-1.41047e-29,2.01941e-30,-6.4484299999999994e-30
2597.0,4.8718900000000002e-29,1.1475100000000001e-24,1.14747e-24,1.1475e-24,-1.48814e-29,2.28084e-30,-8.1560199999999994e-30
2598.0,1.5366399999999999e-28,1.14761e-24,1.14746e-24,1.14761e-24,-4.0331699999999999e-30,2.6363400000000002e-30,-1.1873199999999999e-29
2599.0,1.28594e-28,1.1475899999999999e-24,1.14747e-24,1.1475899999999999e-24,-4.9617499999999997e-30,2.7506599999999999e-30,-9.7313000000000004e-30
2600.0,1.0531699999999999e-28,1.1475700000000001e-24,1.14747e-24,1.1475700000000001e-24,-7.8667800000000006e-30,2.4430999999999999e-30,-7.9112000000000001e-30
2601.0,8.51053e-29,1.1475599999999999e-24,1.14747e-24,1.14755e-24,-9.9395900000000002e-30,2.3439900000000001e-30,-6.23603e-30
2602.0,7.0062799999999996e-29,1.1475400000000001e-24,1.14747e-24,1.1475400000000001e-24,-1.2507099999999999e-29,2.13897e-30,-5.0527500000000001e-30
2603.0,5.6559600000000005e-29,1.14752e-24,1.14747e-24,1.14752e-24,-1.3994099999999999e-29,1.8714499999999999e-30,-3.8224699999999997e-30
2604.0,4.7987999999999998e-29,1.1475100000000001e-24,1.14747e-24,1.1475100000000001e-24,-1.5588300000000001e-29,1.7483099999999998e-30,-3.3753500000000002e-30
2605.0,1.5092700000000001e-28,1.14761e-24,1.14746e-24,1.14761e-24,-4.72156e-30,2.05927e-30,-6.2113200000000002e-30
2606.0,1.2734e-28,1.1475899999999999e-24,1.14746e-24,1.1475899999999999e-24,-6.10516e-30,1.9599799999999998e-30,-5.7396099999999997e-30
2607.0,1.04743e-28,1.1475700000000001e-24,1.14747e-24,1.1475700000000001e-24,-8.0139900000000004e-30,1.9740599999999999e-30,-5.3786599999999999e-30
2608.0,8.57993e-29,1.14755e-24,1.14747e-24,1.14755e-24,-1.03914e-29,1.8975700000000001e-30,-4.9708099999999997e-30
2609.0,7.0064100000000003e-29,1.1475400000000001e-24,1.14747e-24,1.1475400000000001e-24,-1.21277e-29,1.9056899999999999e-30,-4.58097e-30
2610.0,5.8001599999999998e-29,1.14752e-24,1.14747e-24,1.14752e-24,-1.40113e-29,1.7318800000000001e-30,-4.3229399999999999e-30
2611.0,4.8126499999999998e-29,1.1475100000000001e-24,1.14747e-24,1.1475100000000001e-24,-1.5224299999999999e-29,1.62998e-30,-3.72139e-30
2612.0,1.4561900000000001e-28,1.1476000000000001e-24,1.14746e-24,1.1476000000000001e-24,-6.44846e-30,1.46664e-30,-1.20916e-30
2613.0,1.23648e-28,1.1475899999999999e-24,1.14746e-24,1.1475899999999999e-24,-7.2698499999999997e-30,1.50791e-30,-2.2023399999999999e-30
2614.0,1.0257900000000001e-28,1.1475700000000001e-24,1.14747e-24,1.1475700000000001e-24,-8.9599900000000004e-30,1.50111e-30,-3.05863e-30
2615.0,8.4681700000000004e-29,1.14755e-24,1.14747e-24,1.14755e-24,-1.06388e-29,1.6394500000000001e-30,-3.7228100000000003e-30
2616.0,6.9760200000000001e-29,1.1475400000000001e-24,1.14747e-24,1.1475400000000001e-24,-1.23647e-29,1.57999e-30,-4.1543800000000003e-30
2617.0,5.7858400000000002e-29,1.14752e-24,1.14747e-24,1.14752e-24,-1.3801499999999999e-29,1.6734699999999999e-30,-4.5846999999999998e-30
2618.0,4.9025400000000002e-29,1.1475100000000001e-24,1.14747e-24,1.1475100000000001e-24,-1.5060100000000001e-29,1.6390200000000001e-30,-5.16135e-30
2619.0,1.3769499999999999e-28,1.1476000000000001e-24,1.14746e-24,1.1476000000000001e-24,-8.4372800000000006e-30,1.0864499999999999e-30,2.56625e-30
2620.0,1.1832100000000001e-28,1.14758e-24,1.14747e-24,1.14758e-24,-8.8033199999999995e-30,1.2477299999999999e-30,5.46076e-31
2621.0,9.9143699999999998e-29,1.1475700000000001e-24,1.14747e-24,1.1475700000000001e-24,-9.9321900000000002e-30,1.3414500000000001e-30,-1.2354899999999999e-30
2622.0,8.2399499999999996e-29,1.14755e-24,1.14747e-24,1.14755e-24,-1.1238599999999999e-29,1.43157e-30,-2.6781899999999999e-30
2623.0,6.8567400000000005e-29,1.1475400000000001e-24,1.14747e-24,1.14753e-24,-1.25418e-29,1.54408e-30,-3.9429199999999998e-30
2624.0,5.7580999999999997e-29,1.14752e-24,1.14747e-24,1.14752e-24,-1.3909999999999999e-29,1.5828599999999999e-30,-4.96318e-30
2625.0,4.8797000000000003e-29,1.1475100000000001e-24,1.14747e-24,1.1475100000000001e-24,-1.48258e-29,1.7651000000000001e-30,-5.44223e-30
2626.0,1.28952e-28,1.1475899999999999e-24,1.14746e-24,1.1475899999999999e-24,-1.03988e-29,1.2234e-30,4.9467999999999998e-30
2627.0,1.11891e-28,1.14758e-24,1.14747e-24,1.14758e-24,-1.0421499999999999e-29,1.26122e-30,2.41304e-30
2628.0,9.4668299999999996e-29,1.1475599999999999e-24,1.14747e-24,1.1475599999999999e-24,-1.09412e-29,1.36493e-30,1.55012e-32
2629.0,7.9472399999999996e-29,1.14755e-24,1.14747e-24,1.14755e-24,-1.18448e-29,1.4273099999999999e-30,-2.06555e-30
2630.0,6.6691299999999996e-29,1.14753e-24,1.14747e-24,1.14753e-24,-1.2932299999999999e-29,1.51052e-30,-3.8583799999999997e-30
2631.0,5.6639599999999996e-29,1.14752e-24,1.14747e-24,1.14752e-24,-1.38859e-29,1.759e-30,-5.3637099999999999e-30
2632.0,4.8648399999999998e-29,1.1475100000000001e-24,1.14747e-24,1.1475100000000001e-24,-1.46224e-29,1.7925500000000001e-30,-6.8321300000000002e-30
2633.0,1.2049200000000001e-28,1.1475899999999999e-24,1.14747e-24,1.14758e-24,-1.1964200000000001e-29,1.56707e-30,6.4072199999999998e-30
2634.0,1.05834e-28,1.14758e-24,1.14747e-24,1.1475700000000001e-24,-1.1585300000000001e-29,1.55448e-30,3.5359999999999999e-30
2635.0,9.0527500000000001e-29,1.1475599999999999e-24,1.14747e-24,1.1475599999999999e-24,-1.18784e-29,1.51509e-30,7.3878299999999998e-31
2636.0,7.6473999999999994e-29,1.14755e-24,1.14747e-24,1.1475400000000001e-24,-1.24302e-29,1.5620899999999999e-30,-1.80877e-30
2637.0,6.4881500000000006e-29,1.14753e-24,1.14747e-24,1.14753e-24,-1.3187700000000001e-29,1.7142700000000001e-30,-4.0365399999999998e-30
2638.0,5.53665e-29,1.14752e-24,1.14747e-24,1.14752e-24,-1.3937999999999999e-29,1.8136700000000002e-30,-5.9041699999999999e-30
2639.0,4.78127e-29,1.1475100000000001e-24,1.14747e-24,1.1475100000000001e-24,-1.45096e-29,2.12991e-30,-7.1371399999999996e-30
2640.0,1.13851e-28,1.14758e-24,1.14747e-24,1.14758e-24,-1.2798099999999999e-29,1.9723799999999999e-30,6.6603599999999993e-30
2641.0,1.0110900000000001e-28,1.1475700000000001e-24,1.14747e-24,1.1475700000000001e-24,-1.25627e-29,1.7052900000000001e-30,4.0773299999999997e-30
2642.0,8.70728e-29,1.1475599999999999e-24,1.14747e-24,1.14755e-24,-1.2571900000000001e-29,1.7417499999999999e-30,9.9600399999999992e-31
2643.0,7.42495e-29,1.14755e-24,1.14747e-24,1.1475400000000001e-24,-1.2903199999999999e-29,1.80716e-30,-1.7762800000000001e-30
2644.0,6.3062700000000005e-29,1.14753e-24,1.14747e-24,1.14753e-24,-1.33774e-29,1.8647399999999999e-30,-4.2839500000000001e-30
2645.0,5.4420600000000005e-29,1.14752e-24,1.14747e-24,1.14752e-24,-1.3917600000000001e-29,2.07572e-30,-6.4762899999999994e-30
2646.0,4.7465599999999999e-29,1.1475100000000001e-24,1.14747e-24,1.1475100000000001e-24,-1.4151899999999999e-29,2.0448799999999998e-30,-8.4955199999999998e-30
2647.0,4.73785e-29,1.1475100000000001e-24,1.14747e-24,1.1475e-24,-1.40389e-29,2.3995900000000002e-30,-9.5640799999999995e-30
2648.0,4.6088999999999999e-29,1.1475100000000001e-24,1.14747e-24,1.1475e-24,-1.38631e-29,2.9290999999999999e-30,-1.01388e-29
2649.0,4.4051799999999998e-29,1.1475100000000001e-24,1.14747e-24,1.1475e-24,-1.24663e-29,2.9362700000000001e-30,-1.1222499999999999e-29
2650.0,4.2798399999999999e-29,1.1475100000000001e-24,1.14747e-24,1.1475e-24,-1.18622e-29,3.5035600000000001e-30,-1.21167e-29
2651.0,4.0694500000000003e-29,1.1475100000000001e-24,1.1474799999999999e-24,1.1475100000000001e-24,-1.00931e-29,3.3771599999999997e-30,-1.29987e-29
2652.0,3.9721800000000002e-29,1.1475e-24,1.1474799999999999e-24,1.1475100000000001e-24,-8.96141e-30,3.9205799999999999e-30,-1.3977800000000001e-29
2653.0,3.74413e-29,1.1475e-24,1.1474799999999999e-24,1.1475100000000001e-24,-6.8431700000000004e-30,3.4825800000000002e-30,-1.4627399999999999e-29
2654.0,5.4622500000000002e-29,1.14752e-24,1.14747e-24,1.14752e-24,-1.3967800000000001e-29,2.3363e-30,-7.0907999999999998e-30
2655.0,5.2776099999999999e-29,1.14752e-24,1.14747e-24,1.14752e-24,-1.3517400000000001e-29,2.7330399999999999e-30,-7.7768899999999998e-30
2656.0,5.1157800000000004e-29,1.14752e-24,1.14747e-24,1.14752e-24,-1.30711e-29,3.1405600000000001e-30,-8.5053500000000001e-30
2657.0,4.9245800000000001e-29,1.14752e-24,1.1474799999999999e-24,1.14752e-24,-1.22587e-29,3.5573499999999997e-30,-9.2207999999999994e-30
2658.0,4.75779e-29,1.14752e-24,1.1474799999999999e-24,1.14752e-24,-1.14224e-29,3.9123499999999999e-30,-1.00134e-29
2659.0,4.5173899999999999e-29,1.14752e-24,1.1474799999999999e-24,1.14752e-24,-1.0123900000000001e-29,4.3157399999999998e-30,-1.07416e-29
2660.0,4.2746900000000002e-29,1.14752e-24,1.1474799999999999e-24,1.14752e-24,-8.2703999999999996e-30,4.4435599999999999e-30,-1.24916e-29
2661.0,6.3764399999999997e-29,1.14753e-24,1.14747e-24,1.14753e-24,-1.3496300000000001e-29,2.2096299999999999e-30,-4.3196700000000002e-30
2662.0,6.19989e-29,1.14753e-24,1.14747e-24,1.14753e-24,-1.3540799999999999e-29,2.71072e-30,-4.7045399999999997e-30
2663.0,6.0363999999999998e-29,1.14753e-24,1.1474799999999999e-24,1.14753e-24,-1.3403e-29,3.2734099999999999e-30,-5.1317099999999997e-30
2664.0,5.8529300000000004e-29,1.14753e-24,1.1474799999999999e-24,1.14753e-24,-1.3153599999999999e-29,3.90864e-30,-5.6754699999999999e-30
2665.0,5.6283999999999996e-29,1.14753e-24,1.1474799999999999e-24,1.14753e-24,-1.2657800000000001e-29,4.4942499999999999e-30,-6.3001799999999998e-30
2666.0,5.3651399999999994e-29,1.14753e-24,1.14749e-24,1.14753e-24,-1.17354e-29,5.1215400000000002e-30,-7.4129900000000003e-30
2667.0,4.88497e-29,1.14753e-24,1.14749e-24,1.14753e-24,-1.01807e-29,5.1347499999999997e-30,-8.8429199999999995e-30
2668.0,7.5141600000000004e-29,1.14755e-24,1.14747e-24,1.1475400000000001e-24,-1.3114899999999999e-29,2.01866e-30,-1.00002e-30
2669.0,7.3541600000000003e-29,1.14755e-24,1.1474799999999999e-24,1.1475400000000001e-24,-1.3571800000000001e-29,2.6697099999999999e-30,-1.0294399999999999e-30
2670.0,7.2048800000000004e-29,1.14755e-24,1.1474799999999999e-24,1.1475400000000001e-24,-1.4046499999999999e-29,3.4254599999999998e-30,-1.1366199999999999e-30
2671.0,7.0090300000000003e-29,1.14755e-24,1.1474799999999999e-24,1.1475400000000001e-24,-1.4298800000000001e-29,4.3386300000000002e-30,-1.4118400000000001e-30
2672.0,6.7770199999999998e-29,1.14755e-24,1.1474799999999999e-24,1.14755e-24,-1.4368999999999999e-29,5.2084100000000003e-30,-2.0852999999999999e-30
2673.0,6.3900300000000005e-29,1.14755e-24,1.14749e-24,1.14755e-24,-1.3923699999999999e-29,6.0477899999999999e-30,-3.0670399999999999e-30
2674.0,5.8985100000000004e-29,1.1475400000000001e-24,1.14749e-24,1.1475400000000001e-24,-1.24027e-29,6.4846099999999996e-30,-5.5376300000000003e-30
2675.0,8.8682000000000001e-29,1.1475599999999999e-24,1.14747e-24,1.1475599999999999e-24,-1.27372e-29,1.86523e-30,2.8580100000000001e-30
2676.0,8.7567699999999998e-29,1.1475599999999999e-24,1.1474799999999999e-24,1.1475599999999999e-24,-1.3840700000000001e-29,2.6715100000000001e-30,3.3387099999999998e-30
2677.0,8.6373900000000003e-29,1.1475599999999999e-24,1.1474799999999999e-24,1.1475599999999999e-24,-1.4913400000000001e-29,3.7052999999999999e-30,3.6422199999999999e-30
2678.0,8.4659999999999998e-29,1.1475599999999999e-24,1.1474799999999999e-24,1.1475599999999999e-24,-1.5935900000000001e-29,4.9105299999999999e-30,3.5965100000000002e-30
2679.0,8.1923700000000002e-29,1.1475599999999999e-24,1.14749e-24,1.1475599999999999e-24,-1.6667200000000001e-29,6.1638400000000002e-30,3.08109e-30
2680.0,7.7795600000000002e-29,1.1475599999999999e-24,1.14749e-24,1.1475599999999999e-24,-1.6743500000000001e-29,7.2516399999999994e-30,1.6847300000000001e-30
2681.0,7.0628600000000001e-29,1.1475599999999999e-24,1.14749e-24,1.1475599999999999e-24,-1.5940499999999999e-29,7.7622500000000006e-30,-2.0087899999999999e-31
2682.0,1.0384899999999999e-28,1.14758e-24,1.14747e-24,1.1475700000000001e-24,-1.26523e-29,1.6639400000000001e-30,7.1402100000000001e-30
2683.0,1.03794e-28,1.14758e-24,1.14747e-24,1.1475700000000001e-24,-1.42563e-29,2.7409499999999998e-30,8.15571e-30
2684.0,1.0352299999999999e-28,1.14758e-24,1.1474799999999999e-24,1.1475700000000001e-24,-1.6173500000000001e-29,4.0576499999999999e-30,9.0989799999999994e-30
2685.0,1.0223399999999999e-28,1.14758e-24,1.1474799999999999e-24,1.1475700000000001e-24,-1.8032700000000001e-29,5.6242200000000002e-30,9.4105099999999996e-30
2686.0,9.9617899999999999e-29,1.14758e-24,1.14749e-24,1.1475700000000001e-24,-1.97386e-29,7.2784799999999994e-30,8.9478799999999998e-30
2687.0,9.4378699999999995e-29,1.14758e-24,1.14749e-24,1.1475700000000001e-24,-2.0668399999999999e-29,8.7899199999999994e-30,7.6431300000000006e-30
2688.0,8.75953e-29,1.1475700000000001e-24,1.14749e-24,1.1475700000000001e-24,-2.0059599999999999e-29,9.7332699999999999e-30,4.7237200000000001e-30
2689.0,1.1871200000000001e-28,1.1475899999999999e-24,1.14747e-24,1.14758e-24,-1.2504800000000001e-29,1.54035e-30,1.11788e-29
2690.0,1.2146799999999999e-28,1.1475899999999999e-24,1.14747e-24,1.14758e-24,-1.4679200000000001e-29,2.78444e-30,1.2937300000000001e-29
2691.0,1.23505e-28,1.1476000000000001e-24,1.14747e-24,1.1475899999999999e-24,-1.75799e-29,4.3743099999999997e-30,1.4635399999999999e-29
2692.0,1.2360800000000001e-28,1.1476000000000001e-24,1.1474799999999999e-24,1.1475899999999999e-24,-2.08289e-29,6.4317399999999997e-30,1.56007e-29
2693.0,1.20925e-28,1.1476000000000001e-24,1.1474799999999999e-24,1.1475899999999999e-24,-2.3752699999999999e-29,8.5325199999999994e-30,1.53956e-29
2694.0,1.1590300000000001e-28,1.1475899999999999e-24,1.14749e-24,1.1475899999999999e-24,-2.5710600000000003e-29,1.05152e-29,1.3884099999999999e-29
2695.0,1.0652e-28,1.1475899999999999e-24,1.1475e-24,1.1475899999999999e-24,-2.6253099999999998e-29,1.18654e-29,1.1158099999999999e-29
2696.0,4.6477200000000001e-29,1.1475100000000001e-24,1.14747e-24,1.1475100000000001e-24,-1.4166699999999999e-29,2.60752e-30,-8.7124199999999993e-30
2697.0,4.45808e-29,1.1475100000000001e-24,1.14747e-24,1.1475100000000001e-24,-1.3024899999999999e-29,2.4811e-30,-9.5997200000000006e-30
2698.0,4.3197199999999998e-29,1.1475100000000001e-24,1.14747e-24,1.1475100000000001e-24,-1.2650100000000001e-29,2.9273000000000001e-30,-1.01109e-29
2699.0,4.0939900000000001e-29,1.1475100000000001e-24,1.1474799999999999e-24,1.1475100000000001e-24,-1.1106100000000001e-29,2.88605e-30,-1.0932e-29
2700.0,3.9539599999999998e-29,1.1475100000000001e-24,1.1474799999999999e-24,1.1475100000000001e-24,-1.02714e-29,3.2956900000000001e-30,-1.1655100000000001e-29
2701.0,3.70994e-29,1.1475100000000001e-24,1.1474799999999999e-24,1.1475100000000001e-24,-8.3254300000000003e-30,3.2109899999999999e-30,-1.23926e-29
2702.0,3.6029099999999998e-29,1.1475e-24,1.1474799999999999e-24,1.1475100000000001e-24,-6.9688099999999998e-30,3.42825e-30,-1.3178399999999999e-29
2703.0,5.3029000000000004e-29,1.14752e-24,1.14747e-24,1.14752e-24,-1.3705e-29,2.2730000000000001e-30,-7.0206e-30
2704.0,5.1399299999999997e-29,1.14752e-24,1.14747e-24,1.14752e-24,-1.3348499999999999e-29,2.5592199999999999e-30,-7.4530899999999996e-30
2705.0,4.96281e-29,1.14752e-24,1.1474799999999999e-24,1.14752e-24,-1.27161e-29,2.9015099999999999e-30,-7.9593700000000001e-30
2706.0,4.7805400000000001e-29,1.14752e-24,1.1474799999999999e-24,1.14752e-24,-1.2018499999999999e-29,3.1943100000000002e-30,-8.5965100000000006e-30
2707.0,4.56566e-29,1.14752e-24,1.1474799999999999e-24,1.14752e-24,-1.1005e-29,3.5232399999999999e-30,-9.19967e-30
2708.0,4.3592500000000003e-29,1.14752e-24,1.1474799999999999e-24,1.14752e-24,-9.7772400000000006e-30,3.8566799999999998e-30,-1.00724e-29
2709.0,4.0381000000000001e-29,1.14752e-24,1.14749e-24,1.14752e-24,-8.2452100000000004e-30,3.7079200000000002e-30,-1.0875900000000001e-29
2710.0,6.1428699999999996e-29,1.14753e-24,1.14747e-24,1.14753e-24,-1.3414899999999999e-29,2.1799800000000001e-30,-4.6116500000000001e-30
2711.0,5.9955099999999995e-29,1.14753e-24,1.1474799999999999e-24,1.14753e-24,-1.3347899999999999e-29,2.5892000000000001e-30,-4.8821599999999999e-30
2712.0,5.8360000000000004e-29,1.14753e-24,1.1474799999999999e-24,1.14753e-24,-1.3152400000000001e-29,3.0147799999999998e-30,-5.2523099999999999e-30
2713.0,5.6581399999999996e-29,1.14753e-24,1.1474799999999999e-24,1.14753e-24,-1.2809199999999999e-29,3.4933799999999999e-30,-5.6748800000000003e-30
2714.0,5.4452e-29,1.14753e-24,1.1474799999999999e-24,1.14753e-24,-1.22553e-29,4.0040199999999997e-30,-6.2515800000000002e-30
2715.0,5.1603599999999995e-29,1.14753e-24,1.14749e-24,1.14753e-24,-1.13224e-29,4.4765700000000001e-30,-7.0027200000000004e-30
2716.0,4.8884200000000003e-29,1.14753e-24,1.14749e-24,1.14753e-24,-9.9078299999999997e-30,4.72611e-30,-8.4295800000000005e-30
2717.0,7.2224900000000004e-29,1.1475400000000001e-24,1.14747e-24,1.1475400000000001e-24,-1.32384e-29,2.1886000000000001e-30,-1.8818699999999998e-30
2718.0,7.0935900000000003e-29,1.14755e-24,1.1474799999999999e-24,1.1475400000000001e-24,-1.3588099999999999e-29,2.6582999999999999e-30,-1.9183599999999999e-30
2719.0,6.9569300000000001e-29,1.14755e-24,1.1474799999999999e-24,1.1475400000000001e-24,-1.3811900000000001e-29,3.2984599999999997e-30,-1.9682799999999998e-30
2720.0,6.7908600000000003e-29,1.14755e-24,1.1474799999999999e-24,1.1475400000000001e-24,-1.4002500000000001e-29,3.9267999999999998e-30,-2.2379899999999999e-30
2721.0,6.5674899999999997e-29,1.14755e-24,1.14749e-24,1.14755e-24,-1.39409e-29,4.6890999999999997e-30,-2.6627599999999998e-30
2722.0,6.2799300000000004e-29,1.1475400000000001e-24,1.14749e-24,1.14755e-24,-1.3452700000000001e-29,5.3207000000000002e-30,-3.6158799999999998e-30
2723.0,5.8039899999999999e-29,1.1475400000000001e-24,1.14749e-24,1.14755e-24,-1.25288e-29,5.6665999999999998e-30,-4.7680699999999999e-30
2724.0,8.4971300000000005e-29,1.1475599999999999e-24,1.14747e-24,1.14755e-24,-1.3295199999999999e-29,2.1504400000000001e-30,1.1944999999999999e-30
2725.0,8.4114999999999995e-29,1.1475599999999999e-24,1.1474799999999999e-24,1.14755e-24,-1.40298e-29,2.8254999999999999e-30,1.4703600000000001e-30
2726.0,8.3258100000000001e-29,1.1475599999999999e-24,1.1474799999999999e-24,1.1475599999999999e-24,-1.48984e-29,3.6062600000000001e-30,1.7334399999999999e-30
2727.0,8.1858400000000004e-29,1.1475599999999999e-24,1.1474799999999999e-24,1.1475599999999999e-24,-1.5680000000000001e-29,4.5303900000000003e-30,1.7900799999999999e-30
2728.0,7.9612099999999997e-29,1.1475599999999999e-24,1.14749e-24,1.1475599999999999e-24,-1.6235300000000001e-29,5.4930200000000002e-30,1.48233e-30
2729.0,7.61469e-29,1.1475599999999999e-24,1.14749e-24,1.1475599999999999e-24,-1.6322500000000001e-29,6.4198499999999996e-30,6.5522500000000004e-31
2730.0,7.1477600000000001e-29,1.1475599999999999e-24,1.14749e-24,1.1475599999999999e-24,-1.56361e-29,6.9903899999999994e-30,-1.0570100000000001e-30
2731.0,9.8977900000000004e-29,1.1475700000000001e-24,1.14747e-24,1.1475700000000001e-24,-1.34919e-29,2.23141e-30,4.4661200000000003e-30
2732.0,9.8868599999999999e-29,1.1475700000000001e-24,1.1474799999999999e-24,1.1475700000000001e-24,-1.4754700000000001e-29,3.00392e-30,5.1478099999999998e-30
2733.0,9.8863599999999995e-29,1.1475700000000001e-24,1.1474799999999999e-24,1.1475700000000001e-24,-1.6218299999999999e-29,3.99371e-30,5.7913500000000002e-30
2734.0,9.8218299999999998e-29,1.14758e-24,1.1474799999999999e-24,1.1475700000000001e-24,-1.7839000000000001e-29,5.1994699999999998e-30,6.2766799999999998e-30
2735.0,9.6089100000000004e-29,1.14758e-24,1.14749e-24,1.1475700000000001e-24,-1.9163200000000001e-29,6.4921799999999996e-30,6.2095599999999998e-30
2736.0,9.2461399999999995e-29,1.1475700000000001e-24,1.14749e-24,1.1475700000000001e-24,-1.9943200000000001e-29,7.7317900000000003e-30,5.3179e-30
2737.0,8.6529600000000004e-29,1.1475700000000001e-24,1.1475e-24,1.1475700000000001e-24,-2.0033800000000001e-29,8.6282000000000007e-30,3.8113799999999997e-30
2738.0,1.11973e-28,1.14758e-24,1.14747e-24,1.14758e-24,-1.3997799999999999e-29,2.3211700000000001e-30,7.2414500000000006e-30
2739.0,1.1335199999999999e-28,1.14758e-24,1.14747e-24,1.14758e-24,-1.5532200000000001e-29,3.0841599999999998e-30,8.4472300000000004e-30
2740.0,1.14784e-28,1.1475899999999999e-24,1.1474799999999999e-24,1.14758e-24,-1.7732400000000001e-29,4.3506399999999998e-30,9.6850800000000001e-30
2741.0,1.1489300000000001e-28,1.1475899999999999e-24,1.1474799999999999e-24,1.14758e-24,-2.0183400000000001e-29,5.7868100000000002e-30,1.05072e-29
2742.0,1.13328e-28,1.1475899999999999e-24,1.1474799999999999e-24,1.1475899999999999e-24,-2.2449599999999999e-29,7.4686700000000004e-30,1.07204e-29
2743.0,1.0924300000000001e-28,1.1475899999999999e-24,1.14749e-24,1.1475899999999999e-24,-2.40383e-29,9.0576300000000004e-30,9.9669600000000001e-30
2744.0,1.0334099999999999e-28,1.14758e-24,1.14749e-24,1.1475899999999999e-24,-2.46138e-29,1.00848e-29,7.9326200000000004e-30
2745.0,1.3183499999999999e-28,1.1476000000000001e-24,1.14749e-24,1.14761e-24,-3.3548799999999998e-29,1.3922299999999999e-29,1.7167299999999999e-29
2746.0,1.5933199999999999e-28,1.1476199999999999e-24,1.14749e-24,1.1476199999999999e-24,-4.3075100000000002e-29,1.65452e-29,2.2791100000000001e-29
2747.0,1.94164e-28,1.14764e-24,1.1474799999999999e-24,1.1476499999999999e-24,-5.52981e-29,1.7672600000000001e-29,2.6518000000000003e-29
2748.0,2.3078500000000001e-28,1.1476499999999999e-24,1.14747e-24,1.14767e-24,-6.9309500000000001e-29,1.7609199999999999e-29,2.5429699999999997e-29
2749.0,2.6591999999999999e-28,1.14767e-24,1.14746e-24,1.1477e-24,-8.3815599999999998e-29,1.3603499999999999e-29,1.69132e-29
2750.0,2.9003099999999999e-28,1.14767e-24,1.14746e-24,1.1477100000000001e-24,-9.4118799999999999e-29,5.60564e-30,1.59701e-31
2751.0,2.9726599999999999e-28,1.1476799999999999e-24,1.14746e-24,1.14772e-24,-9.6866199999999998e-29,-5.4864700000000002e-30,-2.14406e-29
2752.0,1.4091199999999999e-28,1.14761e-24,1.14749e-24,1.14761e-24,-3.23023e-29,1.24641e-29,2.0581799999999999e-29
2753.0,1.7216700000000001e-28,1.14763e-24,1.1474799999999999e-24,1.14763e-24,-4.04914e-29,1.4239000000000001e-29,2.68288e-29
2754.0,2.0901899999999999e-28,1.1476499999999999e-24,1.14747e-24,1.1476499999999999e-24,-5.0820400000000003e-29,1.54862e-29,3.10271e-29
2755.0,2.5039499999999998e-28,1.14767e-24,1.14746e-24,1.1476799999999999e-24,-6.2945499999999996e-29,1.50398e-29,3.0094799999999999e-29
2756.0,2.8969599999999998e-28,1.14769e-24,1.14744e-24,1.1477e-24,-7.5029699999999996e-29,1.1832300000000001e-29,2.05275e-29
2757.0,3.1838299999999998e-28,1.1477e-24,1.14743e-24,1.14772e-24,-8.4376699999999996e-29,4.8821000000000002e-30,6.7116400000000001e-31
2758.0,3.28199e-28,1.1477e-24,1.14743e-24,1.14773e-24,-8.6737399999999997e-29,-4.0848499999999998e-30,-2.43522e-29
2759.0,1.47422e-28,1.1476199999999999e-24,1.1474799999999999e-24,1.14761e-24,-2.8801600000000001e-29,9.8908399999999998e-30,2.22158e-29
2760.0,1.7871500000000001e-28,1.14763e-24,1.14747e-24,1.14763e-24,-3.4719099999999997e-29,1.08837e-29,2.8398399999999998e-29
2761.0,2.1669000000000001e-28,1.14766e-24,1.14746e-24,1.1476499999999999e-24,-4.1709700000000001e-29,1.13871e-29,3.2584699999999998e-29
2762.0,2.58283e-28,1.1476799999999999e-24,1.14744e-24,1.1476799999999999e-24,-4.9478599999999998e-29,1.07365e-29,3.1192500000000002e-29
2763.0,2.97833e-28,1.1477e-24,1.1474199999999999e-24,1.1477e-24,-5.6931800000000001e-29,8.4007400000000004e-30,2.08955e-29
2764.0,3.2659100000000001e-28,1.1477100000000001e-24,1.14741e-24,1.14772e-24,-6.2141200000000004e-29,3.8733700000000001e-30,3.6757600000000002e-31
2765.0,3.3798900000000001e-28,1.14772e-24,1.14741e-24,1.14773e-24,-6.4183900000000004e-29,-1.8226600000000001e-30,-2.5923299999999999e-29
2766.0,1.48924e-28,1.1476199999999999e-24,1.14747e-24,1.14761e-24,-2.3920400000000001e-29,7.0552300000000005e-30,2.1870000000000001e-29
2767.0,1.79045e-28,1.14764e-24,1.14746e-24,1.1476199999999999e-24,-2.7005600000000001e-29,7.3031900000000006e-30,2.7398999999999998e-29
2768.0,2.1392999999999999e-28,1.14766e-24,1.1474499999999999e-24,1.1476499999999999e-24,-3.0094600000000003e-29,6.95986e-30,3.04157e-29
2769.0,2.5144700000000002e-28,1.1476799999999999e-24,1.14743e-24,1.14767e-24,-3.2740600000000001e-29,6.21471e-30,2.8184199999999998e-29
2770.0,2.8643899999999999e-28,1.1477e-24,1.1474199999999999e-24,1.14769e-24,-3.4758999999999998e-29,4.7778800000000003e-30,1.8014200000000001e-29
2771.0,3.1178200000000001e-28,1.1477100000000001e-24,1.1474000000000001e-24,1.1477100000000001e-24,-3.5843200000000002e-29,2.8815499999999999e-30,-1.1754300000000001e-30
2772.0,3.2130100000000001e-28,1.14772e-24,1.1474000000000001e-24,1.14772e-24,-3.5887700000000003e-29,5.6019599999999998e-31,-2.4787199999999999e-29
2773.0,1.4661500000000001e-28,1.14761e-24,1.14747e-24,1.1476000000000001e-24,-1.8851800000000001e-29,4.5167499999999998e-30,1.9936e-29
2774.0,1.7284999999999999e-28,1.14763e-24,1.14746e-24,1.1476199999999999e-24,-1.9463299999999999e-29,4.0059799999999999e-30,2.4064399999999999e-29
2775.0,2.0233799999999999e-28,1.1476499999999999e-24,1.1474499999999999e-24,1.14764e-24,-1.9174900000000001e-29,3.4792200000000002e-30,2.5596600000000002e-29
2776.0,2.3268600000000002e-28,1.14767e-24,1.14744e-24,1.14766e-24,-1.7997799999999999e-29,2.74519e-30,2.24055e-29
2777.0,2.60215e-28,1.1476799999999999e-24,1.1474199999999999e-24,1.1476799999999999e-24,-1.59765e-29,2.23075e-30,1.3057599999999999e-29
2778.0,2.7913000000000001e-28,1.14769e-24,1.14741e-24,1.14769e-24,-1.41486e-29,2.2671099999999999e-30,-3.0274600000000001e-30
2779.0,2.8632799999999999e-28,1.1477e-24,1.14741e-24,1.1477e-24,-1.3625300000000001e-29,2.1139199999999999e-30,-2.2282299999999999e-29
2780.0,1.4098300000000001e-28,1.14761e-24,1.14747e-24,1.1476000000000001e-24,-1.4505199999999999e-29,2.4629099999999999e-30,1.7065599999999999e-29
2781.0,1.6217099999999999e-28,1.1476199999999999e-24,1.14746e-24,1.14761e-24,-1.35056e-29,1.9563499999999999e-30,1.96762e-29
2782.0,1.8467099999999999e-28,1.14764e-24,1.1474499999999999e-24,1.14763e-24,-1.1352399999999999e-29,1.22699e-30,1.97144e-29
2783.0,2.0728299999999999e-28,1.1476499999999999e-24,1.14744e-24,1.14764e-24,-8.2231399999999993e-30,8.5308100000000003e-31,1.6135300000000001e-29
2784.0,2.2642000000000001e-28,1.14766e-24,1.14743e-24,1.14766e-24,-4.6951399999999997e-30,9.4689599999999994e-31,7.8262200000000005e-30
2785.0,2.3940100000000001e-28,1.14767e-24,1.14743e-24,1.14767e-24,-1.95289e-30,1.9753099999999999e-30,-4.5407299999999999e-30
2786.0,2.4353699999999998e-28,1.14767e-24,1.14743e-24,1.14767e-24,-6.9421500000000004e-31,3.2688000000000002e-30,-1.8740400000000001e-29
2787.0,1.3323999999999999e-28,1.1476000000000001e-24,1.14747e-24,1.1475899999999999e-24,-1.1688000000000001e-29,1.2506400000000001e-30,1.4009999999999999e-29
2788.0,1.47679e-28,1.14761e-24,1.14746e-24,1.1476000000000001e-24,-1.001e-29,7.9038099999999998e-31,1.4922200000000001e-29
2789.0,1.6367099999999999e-28,1.1476199999999999e-24,1.1474499999999999e-24,1.14761e-24,-7.2409899999999997e-30,2.7185500000000002e-31,1.3978600000000001e-29
2790.0,1.79455e-28,1.14763e-24,1.1474499999999999e-24,1.14763e-24,-3.8268900000000001e-30,2.139e-31,1.0294299999999999e-29
2791.0,1.9224399999999999e-28,1.14764e-24,1.14744e-24,1.14764e-24,-5.1087399999999997e-31,8.7951700000000002e-31,3.5410699999999998e-30
2792.0,2.0013199999999999e-28,1.14764e-24,1.14744e-24,1.14764e-24,2.15483e-30,1.96766e-30,-5.5385999999999997e-30
2793.0,2.0297899999999998e-28,1.14764e-24,1.14744e-24,1.14764e-24,3.0729799999999999e-30,3.5792000000000003e-30,-1.5752700000000001e-29
2794.0,1.19273e-28,1.1476000000000001e-24,1.14749e-24,1.1476000000000001e-24,-2.9817199999999998e-29,1.13978e-29,1.21861e-29
2795.0,1.37299e-28,1.14761e-24,1.14749e-24,1.14761e-24,-3.5254500000000001e-29,1.16782e-29,1.3933699999999999e-29
2796.0,1.57086e-28,1.1476199999999999e-24,1.14749e-24,1.14763e-24,-4.2039e-29,1.1748400000000001e-29,1.5059200000000001e-29
2797.0,1.7926399999999999e-28,1.14763e-24,1.1474799999999999e-24,1.14764e-24,-4.9479000000000002e-29,1.0024e-29,1.25932e-29
2798.0,1.96452e-28,1.14764e-24,1.1474799999999999e-24,1.14766e-24,-5.5630400000000001e-29,7.2521799999999999e-30,6.5228099999999999e-30
2799.0,2.0832600000000002e-28,1.14764e-24,1.1474799999999999e-24,1.14767e-24,-5.9672699999999997e-29,2.4720599999999999e-30,-3.2590500000000003e-30
2800.0,2.1187799999999998e-28,1.1476499999999999e-24,1.1474799999999999e-24,1.14767e-24,-6.0624099999999995e-29,-2.3268700000000001e-30,-1.4615600000000001e-29
2801.0,1.26114e-28,1.1476000000000001e-24,1.14749e-24,1.1476000000000001e-24,-2.8223800000000001e-29,9.9086399999999998e-30,1.34067e-29
2802.0,1.43142e-28,1.14761e-24,1.1474799999999999e-24,1.14761e-24,-3.2639200000000002e-29,1.01768e-29,1.5689100000000001e-29
2803.0,1.6493600000000001e-28,1.1476199999999999e-24,1.1474799999999999e-24,1.14763e-24,-3.8144500000000001e-29,9.8381900000000004e-30,1.6066100000000001e-29
2804.0,1.8681099999999999e-28,1.14764e-24,1.14747e-24,1.14764e-24,-4.3928899999999999e-29,8.5903000000000006e-30,1.36822e-29
2805.0,2.0704599999999998e-28,1.1476499999999999e-24,1.14747e-24,1.14766e-24,-4.9300299999999999e-29,6.13301e-30,7.0612999999999996e-30
2806.0,2.2064600000000001e-28,1.14766e-24,1.14746e-24,1.14767e-24,-5.2738900000000003e-29,2.4765899999999999e-30,-3.2031800000000003e-30
2807.0,2.28162e-28,1.14766e-24,1.14746e-24,1.14767e-24,-5.4746900000000003e-29,-2.0246900000000001e-30,-1.6360699999999999e-29
2808.0,1.2963300000000001e-28,1.1476000000000001e-24,1.1474799999999999e-24,1.1476000000000001e-24,-2.5768899999999999e-29,8.0268699999999999e-30,1.41278e-29
2809.0,1.4722999999999999e-28,1.14761e-24,1.1474799999999999e-24,1.14761e-24,-2.8978900000000002e-29,8.1102000000000001e-30,1.6061599999999999e-29
2810.0,1.68256e-28,1.14763e-24,1.14747e-24,1.14763e-24,-3.2837199999999999e-29,7.6691200000000007e-30,1.6267200000000001e-29
2811.0,1.90722e-28,1.14764e-24,1.14746e-24,1.14764e-24,-3.6822399999999999e-29,6.7570699999999998e-30,1.3595e-29
2812.0,2.1106800000000002e-28,1.1476499999999999e-24,1.14746e-24,1.14766e-24,-4.0292800000000003e-29,4.7802099999999997e-30,6.9709599999999999e-30
2813.0,2.2646799999999999e-28,1.14766e-24,1.1474499999999999e-24,1.14767e-24,-4.27734e-29,2.1964800000000002e-30,-3.7456800000000001e-30
2814.0,2.3492799999999999e-28,1.14767e-24,1.1474499999999999e-24,1.14767e-24,-4.3682599999999998e-29,-9.8985699999999994e-31,-1.7143300000000001e-29
2815.0,1.30915e-28,1.1476000000000001e-24,1.1474799999999999e-24,1.1476000000000001e-24,-2.2381e-29,6.0938800000000001e-30,1.36073e-29
2816.0,1.4731399999999999e-28,1.14761e-24,1.14747e-24,1.14761e-24,-2.4303399999999999e-29,5.8885200000000001e-30,1.5133900000000001e-29
2817.0,1.67344e-28,1.14763e-24,1.14747e-24,1.1476199999999999e-24,-2.6365899999999997e-29,5.5578100000000001e-30,1.5047099999999999e-29
2818.0,1.8821499999999999e-28,1.14764e-24,1.14746e-24,1.14764e-24,-2.8278600000000002e-29,4.65361e-30,1.2261500000000001e-29
2819.0,2.0751400000000001e-28,1.1476499999999999e-24,1.1474499999999999e-24,1.1476499999999999e-24,-2.9555199999999999e-29,3.52021e-30,5.6552600000000002e-30
2820.0,2.2154300000000001e-28,1.14766e-24,1.1474499999999999e-24,1.14766e-24,-3.0079800000000003e-29,1.8373999999999999e-30,-4.3696600000000002e-30
2821.0,2.3196399999999998e-28,1.14767e-24,1.14744e-24,1.14767e-24,-3.0425099999999997e-29,-6.9109700000000002e-32,-1.73494e-29
2822.0,1.29247e-28,1.1476000000000001e-24,1.14747e-24,1.1475899999999999e-24,-1.88468e-29,4.2890499999999998e-30,1.22792e-29
2823.0,1.4403400000000001e-28,1.14761e-24,1.14747e-24,1.1476000000000001e-24,-1.9440799999999999e-29,4.1163000000000002e-30,1.33902e-29
2824.0,1.6156699999999999e-28,1.1476199999999999e-24,1.14746e-24,1.1476199999999999e-24,-1.99366e-29,3.6449700000000003e-30,1.2849399999999999e-29
2825.0,1.7982199999999999e-28,1.14763e-24,1.14746e-24,1.14763e-24,-1.9857899999999999e-29,3.0438099999999998e-30,9.9450800000000004e-30
2826.0,1.96107e-28,1.14764e-24,1.1474499999999999e-24,1.14764e-24,-1.9333099999999999e-29,2.3294399999999999e-30,3.7707899999999997e-30
2827.0,2.08698e-28,1.1476499999999999e-24,1.1474499999999999e-24,1.1476499999999999e-24,-1.8574600000000001e-29,1.65969e-30,-5.1375599999999998e-30
2828.0,2.1657799999999999e-28,1.14766e-24,1.14744e-24,1.14766e-24,-1.7103199999999999e-29,1.11503e-30,-1.6389e-29
2829.0,1.2597800000000001e-28,1.1476000000000001e-24,1.14747e-24,1.1475899999999999e-24,-1.5856499999999999e-29,2.9668800000000002e-30,1.0498999999999999e-29
2830.0,1.3828399999999999e-28,1.1476000000000001e-24,1.14747e-24,1.1476000000000001e-24,-1.5472999999999999e-29,2.5606900000000001e-30,1.10508e-29
2831.0,1.5275500000000001e-28,1.14761e-24,1.14746e-24,1.14761e-24,-1.4607499999999999e-29,2.2349900000000002e-30,1.03318e-29
2832.0,1.6773799999999999e-28,1.1476199999999999e-24,1.14746e-24,1.1476199999999999e-24,-1.3355800000000001e-29,1.77394e-30,7.2970499999999996e-30
2833.0,1.8091399999999999e-28,1.14763e-24,1.1474499999999999e-24,1.14763e-24,-1.17307e-29,1.7117e-30,1.9128400000000001e-30
2834.0,1.90394e-28,1.14764e-24,1.1474499999999999e-24,1.14764e-24,-9.9664100000000003e-30,1.69056e-30,-5.7412599999999998e-30
2835.0,1.9743799999999999e-28,1.14764e-24,1.1474499999999999e-24,1.14764e-24,-8.8267799999999996e-30,1.8807300000000001e-30,-1.52116e-29
2836.0,1.2195799999999999e-28,1.1475899999999999e-24,1.14747e-24,1.1475899999999999e-24,-1.3824200000000001e-29,2.2402100000000001e-30,8.6556500000000002e-30
2837.0,1.3126600000000001e-28,1.1476000000000001e-24,1.14747e-24,1.1475899999999999e-24,-1.28913e-29,1.8660200000000002e-30,8.8512599999999997e-30
2838.0,1.42751e-28,1.1476000000000001e-24,1.14746e-24,1.1476000000000001e-24,-1.15181e-29,1.41988e-30,7.6913200000000005e-30
2839.0,1.5448500000000001e-28,1.14761e-24,1.14746e-24,1.14761e-24,-9.5328300000000003e-30,1.26098e-30,4.9340399999999998e-30
2840.0,1.65003e-28,1.1476199999999999e-24,1.1474499999999999e-24,1.1476199999999999e-24,-7.4398599999999995e-30,1.4417500000000001e-30,2.6531700000000002e-31
2841.0,1.7283600000000001e-28,1.1476199999999999e-24,1.1474499999999999e-24,1.1476199999999999e-24,-5.8179599999999998e-30,2.0096e-30,-6.22864e-30
2842.0,1.7623300000000001e-28,1.14763e-24,1.1474499999999999e-24,1.14763e-24,-3.6852099999999997e-30,2.4618600000000001e-30,-1.3583799999999999e-29
2843.0,4.4411899999999997e-29,1.1475100000000001e-24,1.1474799999999999e-24,1.1475100000000001e-24,-1.4607499999999999e-29,1.0721899999999999e-30,-2.6783700000000002e-30
2844.0,4.3796099999999999e-29,1.1475100000000001e-24,1.14747e-24,1.1475100000000001e-24,-1.38691e-29,8.2691800000000005e-31,-3.7065800000000002e-30
2845.0,3.8797000000000002e-29,1.1475100000000001e-24,1.1474799999999999e-24,1.1475100000000001e-24,-1.2471e-29,3.3594000000000002e-31,-2.41716e-30
2846.0,3.8839800000000002e-29,1.1475100000000001e-24,1.1474799999999999e-24,1.1475100000000001e-24,-1.18972e-29,2.5275000000000001e-31,-4.07727e-30
2847.0,3.1411900000000002e-29,1.1475100000000001e-24,1.14749e-24,1.14752e-24,-9.5683700000000005e-30,-2.09915e-31,-1.60323e-30
2848.0,3.4188799999999999e-29,1.1475100000000001e-24,1.1474799999999999e-24,1.1475100000000001e-24,-9.6510100000000001e-30,-1.6602099999999999e-31,-5.0706600000000003e-30
2849.0,2.0291499999999999e-29,1.1475100000000001e-24,1.1475e-24,1.14752e-24,-4.5361400000000001e-30,-3.7549900000000001e-31,7.12217e-31
2850.0,4.6419899999999998e-29,1.1475100000000001e-24,1.14747e-24,1.1475100000000001e-24,-1.4488699999999999e-29,1.30733e-30,-4.3678999999999999e-30
2851.0,4.3101999999999998e-29,1.1475100000000001e-24,1.1474799999999999e-24,1.1475100000000001e-24,-1.3494000000000001e-29,9.8213799999999998e-31,-3.6844000000000003e-30
2852.0,4.17905e-29,1.1475100000000001e-24,1.1474799999999999e-24,1.1475100000000001e-24,-1.2841099999999999e-29,7.5103800000000004e-31,-4.6718700000000001e-30
2853.0,3.7005000000000002e-29,1.1475100000000001e-24,1.1474799999999999e-24,1.1475100000000001e-24,-1.11385e-29,5.4280400000000002e-31,-3.5276800000000003e-30
2854.0,3.6593100000000002e-29,1.1475100000000001e-24,1.1474799999999999e-24,1.1475100000000001e-24,-1.07865e-29,4.0959499999999999e-31,-5.11771e-30
2855.0,2.8789899999999998e-29,1.1475100000000001e-24,1.14749e-24,1.1475100000000001e-24,-7.7629799999999997e-30,2.6189199999999998e-32,-3.0939200000000001e-30
2856.0,3.2206e-29,1.1475100000000001e-24,1.1474799999999999e-24,1.1475100000000001e-24,-8.0005399999999998e-30,8.44622e-31,-5.3746299999999999e-30
2857.0,4.6197099999999998e-29,1.1475100000000001e-24,1.14747e-24,1.1475100000000001e-24,-1.4211100000000001e-29,1.4340599999999999e-30,-4.6007500000000001e-30
2858.0,4.4617799999999999e-29,1.1475100000000001e-24,1.14747e-24,1.1475100000000001e-24,-1.36101e-29,1.22359e-30,-5.29944e-30
2859.0,4.1090900000000001e-29,1.1475100000000001e-24,1.1474799999999999e-24,1.1475100000000001e-24,-1.23356e-29,1.11022e-30,-4.7397399999999998e-30
2860.0,3.9714599999999998e-29,1.1475100000000001e-24,1.1474799999999999e-24,1.1475100000000001e-24,-1.1821199999999999e-29,9.7685400000000001e-31,-5.6615999999999997e-30
2861.0,3.45348e-29,1.1475100000000001e-24,1.1474799999999999e-24,1.1475100000000001e-24,-9.7019100000000005e-30,7.6954999999999996e-31,-4.8408999999999999e-30
2862.0,3.43798e-29,1.1475100000000001e-24,1.1474799999999999e-24,1.1475100000000001e-24,-9.3284500000000004e-30,1.18879e-30,-6.06456e-30
2863.0,2.6680300000000002e-29,1.1475100000000001e-24,1.14749e-24,1.1475100000000001e-24,-6.33032e-30,3.7961799999999999e-31,-4.8951199999999998e-30
2864.0,4.6801000000000003e-29,1.1475100000000001e-24,1.14747e-24,1.1475100000000001e-24,-1.41677e-29,1.55784e-30,-5.9902699999999998e-30
2865.0,4.3975599999999999e-29,1.1475100000000001e-24,1.14747e-24,1.1475100000000001e-24,-1.3264700000000001e-29,1.5257999999999999e-30,-5.6292500000000002e-30
2866.0,4.2410299999999998e-29,1.1475100000000001e-24,1.1474799999999999e-24,1.1475100000000001e-24,-1.2637999999999999e-29,1.4247e-30,-6.29257e-30
2867.0,3.8582e-29,1.1475100000000001e-24,1.1474799999999999e-24,1.1475100000000001e-24,-1.11397e-29,1.37122e-30,-6.0195500000000001e-30
2868.0,3.7242000000000001e-29,1.1475100000000001e-24,1.1474799999999999e-24,1.1475100000000001e-24,-1.0526e-29,1.5573499999999999e-30,-6.8050200000000006e-30
2869.0,3.2170499999999998e-29,1.1475100000000001e-24,1.14749e-24,1.1475100000000001e-24,-8.2502300000000004e-30,1.15992e-30,-6.4053400000000007e-30
2870.0,3.2170599999999999e-29,1.1475100000000001e-24,1.1474799999999999e-24,1.1475100000000001e-24,-7.4411199999999999e-30,1.7540300000000001e-30,-7.3686599999999998e-30
2871.0,4.6144099999999998e-29,1.1475100000000001e-24,1.14747e-24,1.1475100000000001e-24,-1.39634e-29,1.8401000000000002e-30,-6.4084899999999994e-30
2872.0,4.4533399999999999e-29,1.1475100000000001e-24,1.14747e-24,1.1475100000000001e-24,-1.3333399999999999e-29,1.73955e-30,-6.9443600000000003e-30
2873.0,4.1564000000000002e-29,1.1475100000000001e-24,1.1474799999999999e-24,1.1475100000000001e-24,-1.22019e-29,1.8097999999999999e-30,-6.9133700000000001e-30
2874.0,3.9999300000000002e-29,1.1475100000000001e-24,1.1474799999999999e-24,1.1475100000000001e-24,-1.1545400000000001e-29,1.9087300000000001e-30,-7.4894799999999997e-30
2875.0,3.6207900000000002e-29,1.1475100000000001e-24,1.1474799999999999e-24,1.1475100000000001e-24,-9.7814399999999998e-30,1.7754899999999999e-30,-7.53489e-30
2876.0,3.49393e-29,1.1475100000000001e-24,1.1474799999999999e-24,1.1475100000000001e-24,-8.9904999999999998e-30,2.1017499999999999e-30,-8.2215899999999995e-30
2877.0,2.9994499999999999e-29,1.1475100000000001e-24,1.14749e-24,1.1475100000000001e-24,-6.7054099999999997e-30,1.6240399999999999e-30,-8.1726000000000002e-30
2878.0,4.62321e-29,1.1475100000000001e-24,1.14747e-24,1.1475100000000001e-24,-1.3883700000000001e-29,1.9524099999999999e-30,-7.6285200000000007e-30
2879.0,4.3778999999999999e-29,1.1475100000000001e-24,1.14747e-24,1.1475100000000001e-24,-1.3044499999999999e-29,2.0867999999999999e-30,-7.6672000000000003e-30
2880.0,4.2311199999999999e-29,1.1475100000000001e-24,1.14747e-24,1.1475100000000001e-24,-1.24384e-29,2.1831999999999999e-30,-8.1133100000000004e-30
2881.0,3.92709e-29,1.1475100000000001e-24,1.1474799999999999e-24,1.1475100000000001e-24,-1.10107e-29,2.2070299999999999e-30,-8.4522599999999997e-30
2882.0,3.7754200000000001e-29,1.1475100000000001e-24,1.1474799999999999e-24,1.1475100000000001e-24,-1.02567e-29,2.44241e-30,-9.0363499999999996e-30
2883.0,3.4260200000000001e-29,1.1475100000000001e-24,1.1474799999999999e-24,1.1475100000000001e-24,-8.2933099999999999e-30,2.2384400000000001e-30,-9.3359499999999999e-30
2884.0,3.35262e-29,1.1475100000000001e-24,1.1474799999999999e-24,1.1475100000000001e-24,-7.1375899999999999e-30,2.6270799999999999e-30,-1.0027900000000001e-29
2885.0,4.5431299999999998e-29,1.1475100000000001e-24,1.14747e-24,1.1475100000000001e-24,-1.36893e-29,2.206e-30,-8.2790399999999999e-30
2886.0,4.44008e-29,1.1475100000000001e-24,1.14747e-24,1.1475100000000001e-24,-1.3283500000000001e-29,2.3908900000000001e-30,-8.6089300000000006e-30
2887.0,4.1940000000000002e-29,1.1475100000000001e-24,1.1474799999999999e-24,1.1475100000000001e-24,-1.20663e-29,2.4204499999999999e-30,-9.1541400000000003e-30
2888.0,4.04259e-29,1.1475100000000001e-24,1.1474799999999999e-24,1.1475100000000001e-24,-1.14335e-29,2.7094799999999999e-30,-9.6539599999999997e-30
2889.0,3.7719500000000002e-29,1.1475100000000001e-24,1.1474799999999999e-24,1.1475100000000001e-24,-9.7081400000000004e-30,2.6942400000000001e-30,-1.02298e-29
2890.0,3.6350200000000001e-29,1.1475100000000001e-24,1.1474799999999999e-24,1.1475100000000001e-24,-8.7621499999999997e-30,2.94376e-30,-1.09039e-29
2891.0,3.3104399999999998e-29,1.1475100000000001e-24,1.1474799999999999e-24,1.1475100000000001e-24,-6.71826e-30,2.6589799999999999e-30,-1.1363799999999999e-29
2892.0,5.5994799999999998e-29,1.14752e-24,1.14747e-24,1.14752e-24,-1.3917699999999999e-29,1.3993400000000001e-30,-4.0865499999999998e-30
2893.0,5.2713299999999998e-29,1.14753e-24,1.1474799999999999e-24,1.14753e-24,-1.3135699999999999e-29,9.3591699999999993e-31,-3.6887399999999997e-30
2894.0,5.2412799999999996e-29,1.14753e-24,1.1474799999999999e-24,1.14753e-24,-1.31389e-29,5.3253099999999998e-31,-4.1589899999999999e-30
2895.0,4.7801799999999999e-29,1.14753e-24,1.14749e-24,1.14753e-24,-1.16438e-29,3.2479100000000002e-31,-3.34754e-30
2896.0,4.7135699999999999e-29,1.14753e-24,1.14749e-24,1.14753e-24,-1.19553e-29,-3.5130299999999998e-32,-4.20528e-30
2897.0,4.1104999999999999e-29,1.14753e-24,1.14749e-24,1.14753e-24,-8.9255899999999997e-30,-2.2687299999999999e-32,-2.7606800000000001e-30
2898.0,3.6496899999999998e-29,1.14753e-24,1.14749e-24,1.14753e-24,-8.0293700000000006e-30,6.4342300000000004e-31,-3.42171e-30
2899.0,5.5569399999999995e-29,1.14753e-24,1.14747e-24,1.14752e-24,-1.35543e-29,1.4418199999999999e-30,-4.2282400000000001e-30
2900.0,5.4193999999999996e-29,1.14752e-24,1.1474799999999999e-24,1.14752e-24,-1.3373500000000001e-29,1.0743800000000001e-30,-4.3345900000000003e-30
2901.0,5.1580900000000001e-29,1.14753e-24,1.1474799999999999e-24,1.14753e-24,-1.25911e-29,8.9537800000000004e-31,-4.1890399999999999e-30
2902.0,4.9840700000000001e-29,1.14753e-24,1.1474799999999999e-24,1.14753e-24,-1.2376899999999999e-29,7.1089399999999999e-31,-4.4092500000000003e-30
2903.0,4.6011499999999999e-29,1.14753e-24,1.14749e-24,1.14753e-24,-1.09622e-29,4.4086199999999999e-31,-4.0182900000000003e-30
2904.0,4.3523900000000001e-29,1.14753e-24,1.14749e-24,1.14753e-24,-1.01728e-29,1.0159000000000001e-30,-4.6692499999999999e-30
2905.0,3.8043899999999998e-29,1.14753e-24,1.14749e-24,1.14753e-24,-8.4018700000000006e-30,2.9969199999999998e-31,-2.4258399999999998e-30
2906.0,5.59579e-29,1.14752e-24,1.14747e-24,1.14752e-24,-1.3608299999999999e-29,1.4465199999999999e-30,-4.5828699999999997e-30
2907.0,5.3849100000000005e-29,1.14753e-24,1.1474799999999999e-24,1.14752e-24,-1.31335e-29,1.3105299999999999e-30,-4.6559899999999999e-30
2908.0,5.1938900000000003e-29,1.14752e-24,1.1474799999999999e-24,1.14752e-24,-1.2815e-29,1.2067600000000001e-30,-4.7015700000000001e-30
2909.0,4.9403100000000001e-29,1.14753e-24,1.1474799999999999e-24,1.14753e-24,-1.19894e-29,1.0508799999999999e-30,-4.7475000000000003e-30
2910.0,4.6898300000000001e-29,1.14753e-24,1.1474799999999999e-24,1.14753e-24,-1.1328600000000001e-29,1.3114899999999999e-30,-5.0544300000000001e-30
2911.0,4.2830199999999998e-29,1.14753e-24,1.14749e-24,1.14753e-24,-9.9930600000000004e-30,9.4976899999999996e-31,-4.4980400000000002e-30
2912.0,4.1360600000000003e-29,1.14752e-24,1.14749e-24,1.14753e-24,-8.8706099999999995e-30,1.35591e-30,-5.9347800000000003e-30
2913.0,5.5264800000000003e-29,1.14752e-24,1.14747e-24,1.14752e-24,-1.3508500000000001e-29,1.58526e-30,-5.0048799999999997e-30
2914.0,5.3213799999999994e-29,1.14752e-24,1.1474799999999999e-24,1.14752e-24,-1.3185200000000001e-29,1.54194e-30,-5.0278599999999997e-30
2915.0,5.1295800000000005e-29,1.14752e-24,1.1474799999999999e-24,1.14752e-24,-1.26574e-29,1.48236e-30,-5.2193600000000002e-30
2916.0,4.8942e-29,1.14752e-24,1.1474799999999999e-24,1.14752e-24,-1.20357e-29,1.6757e-30,-5.3792800000000001e-30
2917.0,4.6169000000000002e-29,1.14753e-24,1.1474799999999999e-24,1.14753e-24,-1.1139299999999999e-29,1.5463e-30,-5.4382399999999998e-30
2918.0,4.37238e-29,1.14752e-24,1.14749e-24,1.14753e-24,-1.01244e-29,1.8525099999999998e-30,-6.0963800000000002e-30
2919.0,3.9052399999999997e-29,1.14752e-24,1.14749e-24,1.14753e-24,-8.63742e-30,1.57432e-30,-5.5468600000000003e-30
2920.0,5.4180599999999999e-29,1.14752e-24,1.14747e-24,1.14752e-24,-1.3531999999999999e-29,1.7155099999999998e-30,-5.4097600000000003e-30
2921.0,5.2349499999999995e-29,1.14752e-24,1.1474799999999999e-24,1.14752e-24,-1.3137099999999999e-29,1.7636800000000001e-30,-5.6482899999999999e-30
2922.0,5.0248299999999997e-29,1.14752e-24,1.1474799999999999e-24,1.14752e-24,-1.25785e-29,1.9400300000000001e-30,-5.78132e-30
2923.0,4.81403e-29,1.14752e-24,1.1474799999999999e-24,1.14752e-24,-1.19342e-29,1.9607e-30,-6.0539000000000003e-30
2924.0,4.5727500000000002e-29,1.14752e-24,1.1474799999999999e-24,1.14752e-24,-1.10572e-29,2.2384199999999998e-30,-6.4602799999999996e-30
2925.0,4.2527500000000002e-29,1.14752e-24,1.14749e-24,1.14752e-24,-9.9001299999999996e-30,2.1839200000000001e-30,-6.5819499999999996e-30
2926.0,4.1038899999999999e-29,1.14752e-24,1.14749e-24,1.14752e-24,-8.6018999999999998e-30,2.4940600000000001e-30,-7.4822600000000004e-30
2927.0,5.3375e-29,1.14752e-24,1.14747e-24,1.14752e-24,-1.3562999999999999e-29,1.9477899999999999e-30,-6.0817900000000002e-30
2928.0,5.1182699999999997e-29,1.14752e-24,1.1474799999999999e-24,1.14752e-24,-1.3059000000000001e-29,2.08107e-30,-6.2148600000000001e-30
2929.0,4.9588900000000001e-29,1.14752e-24,1.1474799999999999e-24,1.14752e-24,-1.25962e-29,2.21742e-30,-6.5300900000000003e-30
2930.0,4.7382899999999998e-29,1.14752e-24,1.1474799999999999e-24,1.14752e-24,-1.1795999999999999e-29,2.51214e-30,-6.8850099999999994e-30
2931.0,4.4987300000000002e-29,1.14752e-24,1.1474799999999999e-24,1.14752e-24,-1.0936300000000001e-29,2.5786400000000001e-30,-7.2596300000000003e-30
2932.0,4.2870199999999999e-29,1.14752e-24,1.1474799999999999e-24,1.14752e-24,-9.8274199999999998e-30,2.84385e-30,-7.8841999999999994e-30
2933.0,3.9116199999999997e-29,1.14752e-24,1.14749e-24,1.14752e-24,-8.4433899999999996e-30,2.78814e-30,-8.1569700000000003e-30
2934.0,5.2356199999999999e-29,1.14752e-24,1.14747e-24,1.14752e-24,-1.34922e-29,2.14501e-30,-6.5619599999999996e-30
2935.0,5.0994300000000004e-29,1.14752e-24,1.14747e-24,1.14752e-24,-1.3180300000000001e-29,2.3418700000000002e-30,-6.9185099999999997e-30
2936.0,4.8986799999999998e-29,1.14752e-24,1.1474799999999999e-24,1.14752e-24,-1.2531599999999999e-29,2.5880799999999999e-30,-7.2891999999999995e-30
2937.0,4.70965e-29,1.14752e-24,1.1474799999999999e-24,1.14752e-24,-1.1824600000000001e-29,2.8199200000000001e-30,-7.7425500000000002e-30
2938.0,4.5064800000000002e-29,1.14752e-24,1.1474799999999999e-24,1.14752e-24,-1.0864e-29,3.1872500000000003e-30,-8.3382199999999994e-30
2939.0,4.2372199999999999e-29,1.14752e-24,1.1474799999999999e-24,1.14752e-24,-9.6957000000000005e-30,3.22977e-30,-8.9018200000000001e-30
2940.0,4.0827299999999997e-29,1.14752e-24,1.14749e-24,1.14752e-24,-8.2172600000000001e-30,3.4925599999999998e-30,-9.7762899999999996e-30
2941.0,6.7714500000000005e-29,1.1475400000000001e-24,1.1474799999999999e-24,1.1475400000000001e-24,-1.24752e-29,1.5917000000000001e-30,-4.8365900000000003e-30
2942.0,6.7621999999999998e-29,1.1475400000000001e-24,1.1474799999999999e-24,1.1475400000000001e-24,-1.3040200000000001e-29,1.02933e-30,-4.9941900000000002e-30
2943.0,6.5415700000000003e-29,1.1475400000000001e-24,1.1474799999999999e-24,1.1475400000000001e-24,-1.2739000000000001e-29,7.78035e-31,-4.6418899999999999e-30
2944.0,6.4154199999999998e-29,1.1475400000000001e-24,1.1474799999999999e-24,1.1475400000000001e-24,-1.3424899999999999e-29,2.3307600000000001e-31,-4.7827500000000003e-30
2945.0,6.0562699999999997e-29,1.1475400000000001e-24,1.14749e-24,1.14755e-24,-1.2288299999999999e-29,1.9997300000000002e-31,-4.2931500000000002e-30
2946.0,5.5765700000000004e-29,1.1475400000000001e-24,1.14749e-24,1.1475400000000001e-24,-1.1854399999999999e-29,5.9991100000000004e-32,-4.13565e-30
2947.0,5.1330000000000005e-29,1.1475400000000001e-24,1.1475e-24,1.1475400000000001e-24,-1.1197699999999999e-29,-9.7616900000000007e-31,-3.7462699999999998e-30
2948.0,6.8436900000000004e-29,1.1475400000000001e-24,1.14747e-24,1.1475400000000001e-24,-1.27238e-29,1.45792e-30,-4.5568199999999999e-30
2949.0,6.6977499999999997e-29,1.1475400000000001e-24,1.1474799999999999e-24,1.1475400000000001e-24,-1.27928e-29,1.23505e-30,-4.5566200000000001e-30
2950.0,6.5723399999999997e-29,1.1475400000000001e-24,1.1474799999999999e-24,1.1475400000000001e-24,-1.3158700000000001e-29,9.5230699999999997e-31,-4.4560500000000003e-30
2951.0,6.3761499999999997e-29,1.1475400000000001e-24,1.1474799999999999e-24,1.1475400000000001e-24,-1.29708e-29,7.8713599999999996e-31,-4.4160899999999997e-30
2952.0,6.0719199999999995e-29,1.1475400000000001e-24,1.14749e-24,1.1475400000000001e-24,-1.2824200000000001e-29,8.6627699999999996e-31,-4.4141300000000002e-30
2953.0,5.6992999999999998e-29,1.1475400000000001e-24,1.14749e-24,1.14755e-24,-1.1995699999999999e-29,5.5531600000000004e-31,-3.8086599999999999e-30
2954.0,5.1972100000000005e-29,1.1475400000000001e-24,1.14749e-24,1.1475400000000001e-24,-1.08589e-29,9.6012000000000003e-31,-4.35058e-30
2955.0,6.7611900000000005e-29,1.1475400000000001e-24,1.14747e-24,1.1475400000000001e-24,-1.27312e-29,1.5209799999999999e-30,-4.3071899999999998e-30
2956.0,6.6044799999999998e-29,1.1475400000000001e-24,1.1474799999999999e-24,1.1475400000000001e-24,-1.2981500000000001e-29,1.35044e-30,-4.1602299999999997e-30
2957.0,6.4828999999999999e-29,1.1475400000000001e-24,1.1474799999999999e-24,1.1475400000000001e-24,-1.3070600000000001e-29,1.2838e-30,-4.2852299999999997e-30
2958.0,6.2716400000000001e-29,1.1475400000000001e-24,1.1474799999999999e-24,1.1475400000000001e-24,-1.3075500000000001e-29,1.35725e-30,-4.2016800000000003e-30
2959.0,6.0271000000000003e-29,1.1475400000000001e-24,1.14749e-24,1.1475400000000001e-24,-1.27355e-29,1.28825e-30,-4.1749799999999997e-30
2960.0,5.6801300000000001e-29,1.1475400000000001e-24,1.14749e-24,1.1475400000000001e-24,-1.2157800000000001e-29,1.5739999999999999e-30,-4.4934900000000002e-30
2961.0,5.2904800000000004e-29,1.1475400000000001e-24,1.14749e-24,1.1475400000000001e-24,-1.13284e-29,1.33061e-30,-3.6874100000000003e-30
2962.0,6.6144299999999996e-29,1.1475400000000001e-24,1.14747e-24,1.14753e-24,-1.2931699999999999e-29,1.5386799999999999e-30,-3.9871999999999998e-30
2963.0,6.4549200000000005e-29,1.1475400000000001e-24,1.1474799999999999e-24,1.1475400000000001e-24,-1.3051599999999999e-29,1.5650199999999999e-30,-4.1785700000000002e-30
2964.0,6.2847999999999995e-29,1.1475400000000001e-24,1.1474799999999999e-24,1.1475400000000001e-24,-1.3063500000000001e-29,1.6719499999999999e-30,-4.09623e-30
2965.0,6.1259500000000002e-29,1.1475400000000001e-24,1.1474799999999999e-24,1.1475400000000001e-24,-1.3008000000000001e-29,1.7506700000000002e-30,-4.2627199999999998e-30
2966.0,5.8587800000000003e-29,1.1475400000000001e-24,1.14749e-24,1.1475400000000001e-24,-1.2623999999999999e-29,2.0164999999999999e-30,-4.4038599999999997e-30
2967.0,5.5696499999999995e-29,1.1475400000000001e-24,1.14749e-24,1.1475400000000001e-24,-1.20834e-29,2.0135200000000001e-30,-4.3990999999999999e-30
2968.0,5.2811099999999996e-29,1.1475400000000001e-24,1.14749e-24,1.1475400000000001e-24,-1.10599e-29,2.30383e-30,-5.33216e-30
2969.0,6.4410599999999998e-29,1.14753e-24,1.14747e-24,1.14753e-24,-1.3088999999999999e-29,1.7133999999999999e-30,-4.1479199999999999e-30
2970.0,6.2363900000000003e-29,1.14753e-24,1.1474799999999999e-24,1.14753e-24,-1.31059e-29,1.8262e-30,-4.16922e-30
2971.0,6.0998900000000005e-29,1.1475400000000001e-24,1.1474799999999999e-24,1.1475400000000001e-24,-1.3087799999999999e-29,2.01455e-30,-4.3715500000000001e-30
2972.0,5.9016499999999999e-29,1.1475400000000001e-24,1.1474799999999999e-24,1.1475400000000001e-24,-1.28193e-29,2.2821099999999999e-30,-4.4588000000000001e-30
2973.0,5.6862999999999997e-29,1.1475400000000001e-24,1.14749e-24,1.1475400000000001e-24,-1.2482300000000001e-29,2.4726000000000001e-30,-4.7100800000000003e-30
2974.0,5.4226600000000003e-29,1.1475400000000001e-24,1.14749e-24,1.1475400000000001e-24,-1.178e-29,2.7507800000000001e-30,-5.2077299999999997e-30
2975.0,5.0483500000000002e-29,1.1475400000000001e-24,1.14749e-24,1.1475400000000001e-24,-1.08599e-29,2.8629999999999999e-30,-5.2070599999999997e-30
2976.0,6.23271e-29,1.14753e-24,1.14747e-24,1.14753e-24,-1.3200600000000001e-29,1.8706600000000001e-30,-4.25427e-30
2977.0,6.0782199999999998e-29,1.14753e-24,1.1474799999999999e-24,1.14753e-24,-1.3218200000000001e-29,2.12177e-30,-4.5257200000000002e-30
2978.0,5.8955399999999998e-29,1.14753e-24,1.1474799999999999e-24,1.14753e-24,-1.2975200000000001e-29,2.3902000000000001e-30,-4.64389e-30
2979.0,5.7312600000000003e-29,1.14753e-24,1.1474799999999999e-24,1.14753e-24,-1.2771299999999999e-29,2.7205900000000001e-30,-4.9226099999999999e-30
2980.0,5.5086300000000002e-29,1.14753e-24,1.1474799999999999e-24,1.14753e-24,-1.22215e-29,3.0268499999999999e-30,-5.2835e-30
2981.0,5.2457500000000004e-29,1.14753e-24,1.14749e-24,1.1475400000000001e-24,-1.15339e-29,3.2969099999999999e-30,-5.6424599999999997e-30
2982.0,5.03192e-29,1.14753e-24,1.14749e-24,1.1475400000000001e-24,-1.04344e-29,3.6140399999999998e-30,-6.5074699999999995e-30
2983.0,6.1240800000000003e-29,1.14753e-24,1.14747e-24,1.14753e-24,-1.3421999999999999e-29,2.1002e-30,-4.6848599999999999e-30
2984.0,5.9442699999999999e-29,1.14753e-24,1.1474799999999999e-24,1.14753e-24,-1.32193e-29,2.3506499999999999e-30,-4.8200000000000003e-30
2985.0,5.8010799999999999e-29,1.14753e-24,1.1474799999999999e-24,1.14753e-24,-1.3063500000000001e-29,2.7363600000000001e-30,-5.0802600000000002e-30
2986.0,5.6187199999999996e-29,1.14753e-24,1.1474799999999999e-24,1.14753e-24,-1.2656199999999999e-29,3.1346100000000001e-30,-5.4039300000000002e-30
2987.0,5.4109099999999996e-29,1.14753e-24,1.1474799999999999e-24,1.14753e-24,-1.21351e-29,3.59437e-30,-5.8616800000000001e-30
2988.0,5.1820800000000002e-29,1.14753e-24,1.14749e-24,1.14753e-24,-1.1343999999999999e-29,3.8444800000000002e-30,-6.5484000000000002e-30
2989.0,4.8072999999999999e-29,1.14753e-24,1.14749e-24,1.14753e-24,-1.02374e-29,4.0359100000000003e-30,-7.1482500000000002e-30
2990.0,8.4607000000000003e-29,1.1475599999999999e-24,1.14747e-24,1.14755e-24,-1.13744e-29,1.6762399999999999e-30,-6.2599299999999997e-30
2991.0,8.4186299999999996e-29,1.1475599999999999e-24,1.1474799999999999e-24,1.1475599999999999e-24,-1.22245e-29,1.28995e-30,-6.0684699999999997e-30
2992.0,8.3916499999999998e-29,1.1475599999999999e-24,1.1474799999999999e-24,1.1475599999999999e-24,-1.36361e-29,6.4629800000000003e-31,-6.0787600000000002e-30
2993.0,8.2550500000000002e-29,1.1475599999999999e-24,1.1474799999999999e-24,1.1475599999999999e-24,-1.4297400000000001e-29,4.7165099999999996e-31,-5.8157599999999998e-30
2994.0,7.8682900000000004e-29,1.1475599999999999e-24,1.14749e-24,1.1475599999999999e-24,-1.5065500000000001e-29,6.0266399999999995e-32,-5.4749899999999998e-30
2995.0,7.4722200000000003e-29,1.1475599999999999e-24,1.14749e-24,1.1475599999999999e-24,-1.5295100000000001e-29,-3.3470999999999999e-31,-5.2842500000000003e-30
2996.0,6.8687700000000005e-29,1.1475599999999999e-24,1.1475e-24,1.1475599999999999e-24,-1.4256100000000001e-29,3.3820099999999998e-31,-4.6843399999999999e-30
2997.0,8.3845600000000002e-29,1.1475599999999999e-24,1.14747e-24,1.14755e-24,-1.1446699999999999e-29,1.6111700000000001e-30,-4.9444699999999997e-30
2998.0,8.32768e-29,1.1475599999999999e-24,1.1474799999999999e-24,1.1475599999999999e-24,-1.2651399999999999e-29,1.2619499999999999e-30,-4.8231900000000003e-30
2999.0,8.28227e-29,1.1475599999999999e-24,1.1474799999999999e-24,1.1475599999999999e-24,-1.3624599999999999e-29,1.06773e-30,-4.7658100000000002e-30
3000.0,8.1068299999999995e-29,1.1475599999999999e-24,1.1474799999999999e-24,1.1475599999999999e-24,-1.45614e-29,9.4265099999999997e-31,-4.5715999999999999e-30
3001.0,7.8831299999999995e-29,1.1475599999999999e-24,1.14749e-24,1.1475599999999999e-24,-1.51007e-29,8.1350199999999998e-31,-4.3581100000000001e-30
3002.0,7.39492e-29,1.1475599999999999e-24,1.14749e-24,1.1475599999999999e-24,-1.51346e-29,8.11794e-31,-4.2958200000000003e-30
3003.0,7.0167900000000004e-29,1.1475599999999999e-24,1.14749e-24,1.1475599999999999e-24,-1.5162e-29,4.5003600000000001e-31,-4.0436099999999997e-30
3004.0,8.21634e-29,1.14755e-24,1.14747e-24,1.14755e-24,-1.18731e-29,1.4798800000000001e-30,-3.7470899999999999e-30
3005.0,8.1341000000000004e-29,1.1475599999999999e-24,1.1474799999999999e-24,1.14755e-24,-1.28742e-29,1.42662e-30,-3.81014e-30
3006.0,8.0478599999999995e-29,1.1475599999999999e-24,1.1474799999999999e-24,1.1475599999999999e-24,-1.3770100000000001e-29,1.4170800000000001e-30,-3.6090700000000003e-30
3007.0,7.9394299999999995e-29,1.1475599999999999e-24,1.1474799999999999e-24,1.1475599999999999e-24,-1.45477e-29,1.4643499999999999e-30,-3.5712699999999998e-30
3008.0,7.6680099999999998e-29,1.1475599999999999e-24,1.14749e-24,1.1475599999999999e-24,-1.5053800000000001e-29,1.6096099999999999e-30,-3.4910399999999999e-30
3009.0,7.3509400000000001e-29,1.1475599999999999e-24,1.14749e-24,1.1475599999999999e-24,-1.5173599999999999e-29,1.6830399999999998e-30,-3.3435799999999998e-30
3010.0,6.8747400000000004e-29,1.1475599999999999e-24,1.14749e-24,1.1475599999999999e-24,-1.46506e-29,1.97184e-30,-3.7959199999999998e-30
3011.0,7.9717099999999998e-29,1.14755e-24,1.14747e-24,1.14755e-24,-1.23151e-29,1.53506e-30,-3.0193300000000001e-30
3012.0,7.83441e-29,1.14755e-24,1.1474799999999999e-24,1.14755e-24,-1.3111199999999999e-29,1.6529300000000002e-30,-2.94921e-30
3013.0,7.7482999999999999e-29,1.14755e-24,1.1474799999999999e-24,1.14755e-24,-1.38797e-29,1.7826400000000001e-30,-2.9587199999999999e-30
3014.0,7.6063600000000004e-29,1.14755e-24,1.1474799999999999e-24,1.14755e-24,-1.4419999999999999e-29,2.05683e-30,-2.8318100000000002e-30
3015.0,7.4138300000000005e-29,1.14755e-24,1.14749e-24,1.1475599999999999e-24,-1.48569e-29,2.2760799999999999e-30,-2.89451e-30
3016.0,7.0899599999999999e-29,1.14755e-24,1.14749e-24,1.1475599999999999e-24,-1.4804899999999999e-29,2.58444e-30,-3.14579e-30
3017.0,6.7681800000000003e-29,1.14755e-24,1.14749e-24,1.1475599999999999e-24,-1.4609100000000001e-29,2.7798200000000001e-30,-3.0345699999999999e-30
3018.0,7.66478e-29,1.14755e-24,1.14747e-24,1.14755e-24,-1.2705400000000001e-29,1.7010100000000001e-30,-2.4563000000000002e-30
3019.0,7.5166300000000005e-29,1.14755e-24,1.1474799999999999e-24,1.14755e-24,-1.3342700000000001e-29,1.89937e-30,-2.6119799999999999e-30
3020.0,7.3850400000000003e-29,1.14755e-24,1.1474799999999999e-24,1.14755e-24,-1.3818200000000001e-29,2.22169e-30,-2.53311e-30
3021.0,7.2667299999999995e-29,1.14755e-24,1.1474799999999999e-24,1.14755e-24,-1.4275800000000001e-29,2.5468500000000001e-30,-2.6015899999999999e-30
3022.0,7.0487400000000002e-29,1.14755e-24,1.14749e-24,1.14755e-24,-1.4444e-29,2.9522599999999999e-30,-2.6904600000000001e-30
3023.0,6.7998299999999995e-29,1.14755e-24,1.14749e-24,1.14755e-24,-1.4388699999999999e-29,3.2991299999999997e-30,-2.9102e-30
3024.0,6.4939199999999996e-29,1.14755e-24,1.14749e-24,1.14755e-24,-1.3894300000000001e-29,3.6488500000000002e-30,-3.5522899999999998e-30
3025.0,7.3884699999999999e-29,1.14755e-24,1.14747e-24,1.1475400000000001e-24,-1.3054499999999999e-29,1.9108099999999999e-30,-2.3371000000000001e-30
3026.0,7.2158099999999997e-29,1.14755e-24,1.1474799999999999e-24,1.1475400000000001e-24,-1.3439900000000001e-29,2.1981499999999999e-30,-2.4593300000000001e-30
3027.0,7.1028300000000004e-29,1.14755e-24,1.1474799999999999e-24,1.14755e-24,-1.3840700000000001e-29,2.6013399999999999e-30,-2.4981499999999999e-30
3028.0,6.9530799999999998e-29,1.14755e-24,1.1474799999999999e-24,1.14755e-24,-1.4015199999999999e-29,3.07288e-30,-2.5616499999999999e-30
3029.0,6.7735099999999995e-29,1.14755e-24,1.14749e-24,1.14755e-24,-1.41472e-29,3.5109300000000002e-30,-2.79042e-30
3030.0,6.51356e-29,1.14755e-24,1.14749e-24,1.14755e-24,-1.3889199999999999e-29,3.9650399999999999e-30,-3.22657e-30
3031.0,6.17003e-29,1.14755e-24,1.14749e-24,1.14755e-24,-1.3355599999999999e-29,4.4159299999999997e-30,-3.6369100000000003e-30
3032.0,7.1701000000000002e-29,1.1475400000000001e-24,1.1474799999999999e-24,1.1475400000000001e-24,-1.32207e-29,2.0428399999999999e-30,-2.27445e-30
3033.0,7.0484500000000002e-29,1.1475400000000001e-24,1.1474799999999999e-24,1.1475400000000001e-24,-1.35458e-29,2.4938699999999999e-30,-2.3687899999999999e-30
3034.0,6.9235399999999995e-29,1.14755e-24,1.1474799999999999e-24,1.1475400000000001e-24,-1.37703e-29,2.9473999999999999e-30,-2.45031e-30
3035.0,6.7725200000000004e-29,1.14755e-24,1.1474799999999999e-24,1.1475400000000001e-24,-1.3939099999999999e-29,3.5419500000000003e-30,-2.5790500000000001e-30
3036.0,6.5764500000000004e-29,1.14755e-24,1.14749e-24,1.14755e-24,-1.3864199999999999e-29,4.1408100000000002e-30,-2.8980200000000001e-30
3037.0,6.2939000000000005e-29,1.14755e-24,1.14749e-24,1.14755e-24,-1.3540799999999999e-29,4.6239599999999998e-30,-3.4475699999999999e-30
3038.0,5.9977200000000005e-29,1.1475400000000001e-24,1.14749e-24,1.14755e-24,-1.26891e-29,5.0196099999999998e-30,-4.4175999999999997e-30
3039.0,1.0463e-28,1.14758e-24,1.14747e-24,1.1475700000000001e-24,-9.7734199999999997e-30,1.9733200000000002e-30,-7.7727799999999994e-30
3040.0,1.05265e-28,1.14758e-24,1.14747e-24,1.14758e-24,-1.2096400000000001e-29,1.20498e-30,-7.74814e-30
3041.0,1.0667499999999999e-28,1.14758e-24,1.1474799999999999e-24,1.14758e-24,-1.44076e-29,8.9010000000000008e-31,-7.6534499999999995e-30
3042.0,1.0489900000000001e-28,1.14758e-24,1.1474799999999999e-24,1.14758e-24,-1.6669800000000001e-29,2.9687200000000002e-31,-7.3477400000000002e-30
3043.0,1.0291799999999999e-28,1.14758e-24,1.14749e-24,1.14758e-24,-1.8720700000000001e-29,-3.4794200000000001e-32,-7.1316099999999996e-30
3044.0,9.6847799999999996e-29,1.14758e-24,1.14749e-24,1.14758e-24,-1.9567200000000001e-29,-1.3518e-31,-6.4140199999999994e-30
3045.0,9.0531199999999998e-29,1.1475700000000001e-24,1.1475e-24,1.14758e-24,-2.0196599999999999e-29,-1.0332700000000001e-30,-6.1293000000000001e-30
3046.0,1.02862e-28,1.1475700000000001e-24,1.14747e-24,1.1475700000000001e-24,-1.04887e-29,1.6405300000000001e-30,-5.3345e-30
3047.0,1.0326199999999999e-28,1.14758e-24,1.14747e-24,1.1475700000000001e-24,-1.25835e-29,1.3532800000000001e-30,-5.3203800000000001e-30
3048.0,1.03481e-28,1.14758e-24,1.1474799999999999e-24,1.14758e-24,-1.4709700000000001e-29,1.11172e-30,-5.0848200000000001e-30
3049.0,1.0342700000000001e-28,1.14758e-24,1.1474799999999999e-24,1.14758e-24,-1.6843000000000001e-29,1.0048300000000001e-30,-4.8521599999999998e-30
3050.0,1.00272e-28,1.14758e-24,1.14749e-24,1.14758e-24,-1.8551299999999999e-29,9.1447500000000006e-31,-4.5855299999999999e-30
3051.0,9.69137e-29,1.14758e-24,1.14749e-24,1.14758e-24,-1.9952699999999999e-29,8.5644999999999994e-31,-4.4219699999999997e-30
3052.0,9.0354200000000005e-29,1.1475700000000001e-24,1.14749e-24,1.14758e-24,-1.9969799999999999e-29,1.2851200000000001e-30,-4.1535400000000003e-30
3053.0,1.0011e-28,1.1475700000000001e-24,1.14747e-24,1.1475700000000001e-24,-1.11479e-29,1.5535000000000001e-30,-3.3130599999999997e-30
3054.0,9.9590600000000006e-29,1.1475700000000001e-24,1.14747e-24,1.1475700000000001e-24,-1.3088999999999999e-29,1.48959e-30,-3.1655399999999998e-30
3055.0,1.00045e-28,1.1475700000000001e-24,1.1474799999999999e-24,1.1475700000000001e-24,-1.4996300000000001e-29,1.5492200000000001e-30,-2.9826e-30
3056.0,9.9293099999999999e-29,1.14758e-24,1.1474799999999999e-24,1.14758e-24,-1.6821000000000001e-29,1.6620900000000001e-30,-2.6731700000000002e-30
3057.0,9.7708800000000002e-29,1.14758e-24,1.14749e-24,1.14758e-24,-1.8372600000000001e-29,1.90097e-30,-2.5046999999999999e-30
3058.0,9.3554899999999996e-29,1.1475700000000001e-24,1.14749e-24,1.14758e-24,-1.9459200000000001e-29,2.0841299999999999e-30,-2.4879099999999999e-30
3059.0,8.9938500000000002e-29,1.1475700000000001e-24,1.14749e-24,1.14758e-24,-2.0137899999999999e-29,2.2514099999999999e-30,-2.4887000000000001e-30
3060.0,9.59587e-29,1.1475700000000001e-24,1.14747e-24,1.1475599999999999e-24,-1.18844e-29,1.56526e-30,-1.65254e-30
3061.0,9.5140700000000002e-29,1.1475700000000001e-24,1.1474799999999999e-24,1.1475700000000001e-24,-1.35486e-29,1.73786e-30,-1.6586899999999999e-30
3062.0,9.5021199999999998e-29,1.1475700000000001e-24,1.1474799999999999e-24,1.1475700000000001e-24,-1.5082699999999999e-29,1.9958100000000001e-30,-1.3907400000000001e-30
3063.0,9.4493099999999999e-29,1.1475700000000001e-24,1.1474799999999999e-24,1.1475700000000001e-24,-1.6627999999999999e-29,2.3397599999999999e-30,-1.1735299999999999e-30
3064.0,9.2662300000000004e-29,1.1475700000000001e-24,1.14749e-24,1.1475700000000001e-24,-1.7882000000000001e-29,2.7403100000000001e-30,-1.0157e-30
3065.0,8.9966499999999997e-29,1.1475700000000001e-24,1.14749e-24,1.14758e-24,-1.8840799999999999e-29,3.19672e-30,-1.05627e-30
3066.0,8.5636899999999995e-29,1.1475700000000001e-24,1.14749e-24,1.1475700000000001e-24,-1.9122499999999999e-29,3.6691500000000002e-30,-1.35725e-30
3067.0,9.1371999999999996e-29,1.1475599999999999e-24,1.14747e-24,1.1475599999999999e-24,-1.25923e-29,1.7355599999999998e-30,-6.8254399999999996e-31
3068.0,9.0264399999999996e-29,1.1475599999999999e-24,1.1474799999999999e-24,1.1475599999999999e-24,-1.3856199999999999e-29,2.0494400000000001e-30,-6.91259e-31
3069.0,8.9843799999999996e-29,1.1475700000000001e-24,1.1474799999999999e-24,1.1475599999999999e-24,-1.51016e-29,2.46237e-30,-5.1906899999999999e-31
3070.0,8.9091499999999999e-29,1.1475700000000001e-24,1.1474799999999999e-24,1.1475700000000001e-24,-1.6274300000000001e-29,2.9494300000000002e-30,-2.7971899999999999e-31
3071.0,8.7507599999999995e-29,1.1475700000000001e-24,1.14749e-24,1.1475700000000001e-24,-1.72819e-29,3.5111200000000001e-30,-2.7879300000000001e-31
3072.0,8.4800199999999998e-29,1.1475700000000001e-24,1.14749e-24,1.1475700000000001e-24,-1.79432e-29,4.0405299999999999e-30,-4.2177399999999998e-31
3073.0,8.1824500000000001e-29,1.1475700000000001e-24,1.14749e-24,1.1475700000000001e-24,-1.8238e-29,4.6536000000000001e-30,-6.9851799999999996e-31
3074.0,8.7337100000000005e-29,1.1475599999999999e-24,1.14747e-24,1.1475599999999999e-24,-1.3043000000000001e-29,1.9576299999999998e-30,-3.5963899999999998e-32
3075.0,8.6168200000000003e-29,1.1475599999999999e-24,1.1474799999999999e-24,1.1475599999999999e-24,-1.40509e-29,2.3918800000000001e-30,-9.1229799999999995e-32
3076.0,8.54061e-29,1.1475599999999999e-24,1.1474799999999999e-24,1.1475599999999999e-24,-1.49819e-29,2.8973899999999999e-30,8.0965799999999998e-32
3077.0,8.4589800000000002e-29,1.1475599999999999e-24,1.1474799999999999e-24,1.1475599999999999e-24,-1.59363e-29,3.5243200000000003e-30,2.1115900000000002e-31
3078.0,8.2933899999999996e-29,1.1475599999999999e-24,1.14749e-24,1.1475599999999999e-24,-1.66654e-29,4.1782000000000003e-30,2.1752299999999999e-31
3079.0,8.0556399999999998e-29,1.1475599999999999e-24,1.14749e-24,1.1475700000000001e-24,-1.71229e-29,4.8510600000000002e-30,-8.8556900000000002e-32
3080.0,7.7066999999999998e-29,1.1475599999999999e-24,1.14749e-24,1.1475700000000001e-24,-1.70722e-29,5.4040800000000002e-30,-6.1827200000000002e-31
3081.0,8.4436700000000004e-29,1.1475599999999999e-24,1.14747e-24,1.14755e-24,-1.33819e-29,2.2055099999999999e-30,3.0576899999999998e-31
3082.0,8.3563000000000002e-29,1.1475599999999999e-24,1.1474799999999999e-24,1.1475599999999999e-24,-1.41346e-29,2.6419600000000002e-30,3.6141599999999999e-31
3083.0,8.2758999999999996e-29,1.1475599999999999e-24,1.1474799999999999e-24,1.1475599999999999e-24,-1.4904899999999999e-29,3.2964700000000003e-30,5.7333399999999996e-31
3084.0,8.17418e-29,1.1475599999999999e-24,1.1474799999999999e-24,1.1475599999999999e-24,-1.56668e-29,4.0504399999999999e-30,7.0687900000000002e-31
3085.0,7.9947900000000004e-29,1.1475599999999999e-24,1.14749e-24,1.1475599999999999e-24,-1.62449e-29,4.8708500000000002e-30,5.2721000000000001e-31
3086.0,7.7295900000000003e-29,1.1475599999999999e-24,1.14749e-24,1.1475599999999999e-24,-1.65264e-29,5.5596899999999999e-30,6.67784e-32
3087.0,7.3122099999999996e-29,1.1475599999999999e-24,1.14749e-24,1.1475599999999999e-24,-1.6285199999999999e-29,6.2897999999999997e-30,-7.81512e-31
3088.0,1.2767600000000001e-28,1.1475899999999999e-24,1.14747e-24,1.1475899999999999e-24,-8.6789000000000006e-30,1.8266499999999999e-30,-9.6993600000000007e-30
3089.0,1.3137699999999999e-28,1.1476000000000001e-24,1.14747e-24,1.1476000000000001e-24,-1.21244e-29,1.4616300000000001e-30,-9.8171100000000001e-30
3090.0,1.3330800000000001e-28,1.1476000000000001e-24,1.14747e-24,1.1476000000000001e-24,-1.56546e-29,7.0807799999999998e-31,-9.7302800000000005e-30
3091.0,1.35793e-28,1.14761e-24,1.1474799999999999e-24,1.14761e-24,-2.01183e-29,2.66744e-31,-9.7119599999999999e-30
3092.0,1.32254e-28,1.1476000000000001e-24,1.1474799999999999e-24,1.14761e-24,-2.37089e-29,-1.5248999999999999e-31,-9.1354799999999997e-30
3093.0,1.27139e-28,1.1476000000000001e-24,1.14749e-24,1.14761e-24,-2.6784899999999999e-29,-7.5121999999999996e-31,-8.7337299999999993e-30
3094.0,1.18525e-28,1.1476000000000001e-24,1.14749e-24,1.1476000000000001e-24,-2.77536e-29,-3.6638399999999998e-31,-7.69982e-30
3095.0,1.2525499999999999e-28,1.1475899999999999e-24,1.14747e-24,1.1475899999999999e-24,-9.6997200000000006e-30,1.7745200000000001e-30,-5.9376500000000002e-30
3096.0,1.26716e-28,1.1475899999999999e-24,1.14747e-24,1.1475899999999999e-24,-1.27757e-29,1.3760200000000001e-30,-5.7646900000000001e-30
3097.0,1.2971299999999999e-28,1.1476000000000001e-24,1.14747e-24,1.1476000000000001e-24,-1.63309e-29,1.22901e-30,-5.4721499999999997e-30
3098.0,1.30538e-28,1.1476000000000001e-24,1.1474799999999999e-24,1.1476000000000001e-24,-1.9992899999999999e-29,1.0929200000000001e-30,-5.1238500000000003e-30
3099.0,1.29769e-28,1.1476000000000001e-24,1.1474799999999999e-24,1.1476000000000001e-24,-2.3790500000000001e-29,1.12071e-30,-4.82376e-30
3100.0,1.2442800000000001e-28,1.1476000000000001e-24,1.14749e-24,1.1476000000000001e-24,-2.6283700000000002e-29,1.1132899999999999e-30,-4.3663799999999999e-30
3101.0,1.1873000000000001e-28,1.1475899999999999e-24,1.14749e-24,1.1476000000000001e-24,-2.8290699999999998e-29,9.4142800000000007e-31,-4.2782999999999999e-30
3102.0,1.20527e-28,1.1475899999999999e-24,1.14747e-24,1.1475899999999999e-24,-1.06955e-29,1.5949399999999999e-30,-2.6041099999999999e-30
3103.0,1.2173400000000001e-28,1.1475899999999999e-24,1.14747e-24,1.1475899999999999e-24,-1.3628599999999999e-29,1.57238e-30,-2.42639e-30
3104.0,1.23581e-28,1.1475899999999999e-24,1.14747e-24,1.1475899999999999e-24,-1.66115e-29,1.6640699999999999e-30,-1.9350700000000001e-30
3105.0,1.25102e-28,1.1476000000000001e-24,1.1474799999999999e-24,1.1476000000000001e-24,-1.99517e-29,2.0039999999999999e-30,-1.43645e-30
3106.0,1.2361200000000001e-28,1.1476000000000001e-24,1.1474799999999999e-24,1.1476000000000001e-24,-2.3172800000000001e-29,2.26782e-30,-1.02641e-30
3107.0,1.2049300000000001e-28,1.1475899999999999e-24,1.14749e-24,1.1476000000000001e-24,-2.5716899999999997e-29,2.8129899999999999e-30,-9.2838399999999992e-31
3108.0,1.1449e-28,1.1475899999999999e-24,1.14749e-24,1.1476000000000001e-24,-2.7265500000000002e-29,3.3396100000000002e-30,-8.9088499999999995e-31
3109.0,1.1460899999999999e-28,1.14758e-24,1.14747e-24,1.14758e-24,-1.18508e-29,1.59769e-30,-1.4076e-31
3110.0,1.15041e-28,1.14758e-24,1.14747e-24,1.14758e-24,-1.42341e-29,1.88636e-30,7.6607e-32
3111.0,1.16399e-28,1.1475899999999999e-24,1.14747e-24,1.1475899999999999e-24,-1.68463e-29,2.2293700000000002e-30,6.3621000000000001e-31
3112.0,1.1724400000000001e-28,1.1475899999999999e-24,1.1474799999999999e-24,1.1475899999999999e-24,-1.9562399999999999e-29,2.7764400000000002e-30,1.2004599999999999e-30
3113.0,1.1643699999999999e-28,1.1475899999999999e-24,1.1474799999999999e-24,1.1475899999999999e-24,-2.2260099999999999e-29,3.4598599999999998e-30,1.5087699999999999e-30
3114.0,1.1301400000000001e-28,1.1475899999999999e-24,1.14749e-24,1.1475899999999999e-24,-2.4309099999999999e-29,4.0642099999999999e-30,1.61338e-30
3115.0,1.0979099999999999e-28,1.1475899999999999e-24,1.14749e-24,1.1476000000000001e-24,-2.5980799999999998e-29,4.70698e-30,1.36529e-30
3116.0,1.0807799999999999e-28,1.14758e-24,1.14747e-24,1.1475700000000001e-24,-1.2692000000000001e-29,1.8823100000000001e-30,1.55155e-30
3117.0,1.0783900000000001e-28,1.14758e-24,1.14747e-24,1.14758e-24,-1.46859e-29,2.2221399999999999e-30,1.6964900000000001e-30
3118.0,1.0870400000000001e-28,1.14758e-24,1.1474799999999999e-24,1.14758e-24,-1.6747800000000001e-29,2.8270099999999999e-30,2.20794e-30
3119.0,1.0916999999999999e-28,1.14758e-24,1.1474799999999999e-24,1.14758e-24,-1.89585e-29,3.5005500000000001e-30,2.6790999999999999e-30
3120.0,1.08152e-28,1.14758e-24,1.1474799999999999e-24,1.1475899999999999e-24,-2.1107699999999999e-29,4.2720300000000001e-30,3.0617000000000001e-30
3121.0,1.05753e-28,1.14758e-24,1.14749e-24,1.1475899999999999e-24,-2.2769700000000001e-29,5.1845599999999997e-30,2.9743e-30
3122.0,1.0135700000000001e-28,1.14758e-24,1.14749e-24,1.1475899999999999e-24,-2.38608e-29,5.9904199999999999e-30,2.7860900000000002e-30
3123.0,1.02256e-28,1.1475700000000001e-24,1.14747e-24,1.1475700000000001e-24,-1.3393100000000001e-29,2.0873899999999999e-30,2.4429700000000001e-30
3124.0,1.0198899999999999e-28,1.1475700000000001e-24,1.14747e-24,1.1475700000000001e-24,-1.48435e-29,2.63855e-30,2.59871e-30
3125.0,1.02391e-28,1.14758e-24,1.1474799999999999e-24,1.1475700000000001e-24,-1.65702e-29,3.2611100000000001e-30,3.0643399999999999e-30
3126.0,1.0235100000000001e-28,1.14758e-24,1.1474799999999999e-24,1.14758e-24,-1.8349800000000001e-29,4.1097800000000001e-30,3.5527899999999999e-30
3127.0,1.01328e-28,1.14758e-24,1.1474799999999999e-24,1.14758e-24,-2.0065499999999999e-29,5.0094300000000003e-30,3.7200699999999999e-30
3128.0,9.8401300000000004e-29,1.14758e-24,1.14749e-24,1.14758e-24,-2.13297e-29,5.9474100000000001e-30,3.6437399999999998e-30
3129.0,9.4997600000000001e-29,1.14758e-24,1.14749e-24,1.14758e-24,-2.20514e-29,6.9173999999999994e-30,2.93588e-30
3130.0,9.8265700000000004e-29,1.1475700000000001e-24,1.14747e-24,1.1475700000000001e-24,-1.37178e-29,2.3761100000000001e-30,3.0646799999999999e-30
3131.0,9.8183500000000003e-29,1.1475700000000001e-24,1.1474799999999999e-24,1.1475700000000001e-24,-1.4905799999999999e-29,2.8759099999999999e-30,3.4617800000000001e-30
3132.0,9.8503599999999996e-29,1.1475700000000001e-24,1.1474799999999999e-24,1.1475700000000001e-24,-1.63662e-29,3.7407499999999997e-30,4.0393799999999998e-30
3133.0,9.8094799999999999e-29,1.1475700000000001e-24,1.1474799999999999e-24,1.1475700000000001e-24,-1.78791e-29,4.6803900000000003e-30,4.42056e-30
3134.0,9.6646899999999999e-29,1.14758e-24,1.14749e-24,1.1475700000000001e-24,-1.9288500000000001e-29,5.7956900000000003e-30,4.5711700000000003e-30
3135.0,9.3805800000000003e-29,1.14758e-24,1.14749e-24,1.14758e-24,-2.0282899999999999e-29,6.7862299999999999e-30,4.0624700000000001e-30
3136.0,8.9256999999999996e-29,1.1475700000000001e-24,1.14749e-24,1.14758e-24,-2.05465e-29,7.5155699999999994e-30,3.2739399999999998e-30
3137.0,1.5301600000000001e-28,1.14761e-24,1.14746e-24,1.14761e-24,-7.5736099999999994e-30,2.3123099999999999e-30,-1.18023e-29
3138.0,1.59636e-28,1.1476199999999999e-24,1.14746e-24,1.1476199999999999e-24,-1.10597e-29,1.50338e-30,-1.2039000000000001e-29
3139.0,1.6966900000000001e-28,1.14763e-24,1.14746e-24,1.14763e-24,-1.74155e-29,9.2146200000000003e-31,-1.26446e-29
3140.0,1.7373199999999999e-28,1.14763e-24,1.14746e-24,1.14763e-24,-2.41827e-29,2.2166399999999999e-31,-1.25761e-29
3141.0,1.74506e-28,1.14763e-24,1.14747e-24,1.14764e-24,-3.17581e-29,-5.7343599999999996e-31,-1.23616e-29
3142.0,1.6734799999999999e-28,1.14763e-24,1.1474799999999999e-24,1.14764e-24,-3.71809e-29,-9.9613099999999998e-31,-1.14623e-29
3143.0,1.56287e-28,1.1476199999999999e-24,1.14749e-24,1.14763e-24,-4.03558e-29,-1.95146e-30,-1.05778e-29
3144.0,1.47959e-28,1.14761e-24,1.14746e-24,1.14761e-24,-8.6042500000000005e-30,1.78879e-30,-6.2215500000000002e-30
3145.0,1.55128e-28,1.1476199999999999e-24,1.14746e-24,1.14761e-24,-1.2470900000000001e-29,1.4990900000000001e-30,-6.0479899999999998e-30
3146.0,1.62494e-28,1.1476199999999999e-24,1.14746e-24,1.1476199999999999e-24,-1.7701100000000001e-29,1.3054999999999999e-30,-5.7188800000000001e-30
3147.0,1.6827899999999999e-28,1.14763e-24,1.14747e-24,1.14763e-24,-2.4513300000000001e-29,1.33349e-30,-5.2627e-30
3148.0,1.6807999999999999e-28,1.14763e-24,1.14747e-24,1.14763e-24,-3.1050100000000002e-29,1.3748400000000001e-30,-4.75061e-30
3149.0,1.64025e-28,1.1476199999999999e-24,1.1474799999999999e-24,1.14763e-24,-3.68527e-29,1.4287900000000001e-30,-4.4598499999999999e-30
3150.0,1.54429e-28,1.1476199999999999e-24,1.14749e-24,1.14763e-24,-3.9941999999999999e-29,1.9527700000000002e-30,-4.0005000000000003e-30
3151.0,1.4192700000000001e-28,1.1476000000000001e-24,1.14746e-24,1.1476000000000001e-24,-1.0178e-29,1.6404999999999999e-30,-1.7164600000000001e-30
3152.0,1.4750899999999999e-28,1.14761e-24,1.14746e-24,1.14761e-24,-1.3543000000000001e-29,1.61555e-30,-9.7803100000000007e-31
3153.0,1.5433499999999999e-28,1.1476199999999999e-24,1.14746e-24,1.1476199999999999e-24,-1.84013e-29,1.9918599999999998e-30,-3.5557899999999999e-32
3154.0,1.58652e-28,1.1476199999999999e-24,1.14747e-24,1.1476199999999999e-24,-2.4200299999999999e-29,2.4750899999999998e-30,8.1092999999999997e-31
3155.0,1.59715e-28,1.1476199999999999e-24,1.14747e-24,1.14763e-24,-3.0060499999999998e-29,3.2071399999999999e-30,1.3581100000000001e-30
3156.0,1.5560799999999999e-28,1.1476199999999999e-24,1.1474799999999999e-24,1.14763e-24,-3.5042899999999999e-29,3.79404e-30,1.7566500000000001e-30
3157.0,1.49022e-28,1.14761e-24,1.14749e-24,1.14763e-24,-3.8342200000000001e-29,4.39556e-30,1.5535299999999999e-30
3158.0,1.33969e-28,1.1476000000000001e-24,1.14746e-24,1.1476000000000001e-24,-1.15738e-29,1.7014400000000001e-30,1.76363e-30
3159.0,1.3807800000000001e-28,1.1476000000000001e-24,1.14747e-24,1.1476000000000001e-24,-1.4514599999999999e-29,1.9753899999999999e-30,2.7615799999999999e-30
3160.0,1.4352699999999999e-28,1.14761e-24,1.14747e-24,1.14761e-24,-1.85953e-29,2.60885e-30,3.9015100000000003e-30
3161.0,1.4716499999999999e-28,1.14761e-24,1.14747e-24,1.14761e-24,-2.3416100000000001e-29,3.5804699999999999e-30,5.0431400000000003e-30
3162.0,1.47485e-28,1.14761e-24,1.1474799999999999e-24,1.1476199999999999e-24,-2.8289400000000002e-29,4.5517000000000003e-30,5.8053499999999999e-30
3163.0,1.44824e-28,1.14761e-24,1.1474799999999999e-24,1.1476199999999999e-24,-3.2531000000000002e-29,5.71102e-30,5.9406700000000002e-30
3164.0,1.37966e-28,1.14761e-24,1.14749e-24,1.1476199999999999e-24,-3.5156799999999998e-29,6.8687199999999995e-30,5.7628100000000002e-30
3165.0,1.24904e-28,1.1475899999999999e-24,1.14747e-24,1.1475899999999999e-24,-1.27344e-29,1.93914e-30,4.0168300000000001e-30
3166.0,1.2816400000000001e-28,1.1476000000000001e-24,1.14747e-24,1.1475899999999999e-24,-1.5270699999999999e-29,2.3521900000000002e-30,4.9009200000000001e-30
3167.0,1.3188900000000001e-28,1.1476000000000001e-24,1.14747e-24,1.1476000000000001e-24,-1.8495999999999999e-29,3.2359400000000001e-30,6.21875e-30
3168.0,1.34261e-28,1.1476000000000001e-24,1.14747e-24,1.1476000000000001e-24,-2.23676e-29,4.2939299999999998e-30,7.3724500000000001e-30
3169.0,1.3431699999999999e-28,1.1476000000000001e-24,1.1474799999999999e-24,1.14761e-24,-2.6112300000000003e-29,5.64727e-30,7.9730799999999996e-30
3170.0,1.3119699999999999e-28,1.1476000000000001e-24,1.1474799999999999e-24,1.14761e-24,-2.9384799999999999e-29,6.8413099999999997e-30,8.1249499999999995e-30
3171.0,1.26878e-28,1.1476000000000001e-24,1.14749e-24,1.14761e-24,-3.1590999999999998e-29,8.0962399999999996e-30,7.4177599999999993e-30
3172.0,1.17054e-28,1.1475899999999999e-24,1.14747e-24,1.14758e-24,-1.36475e-29,2.1359300000000001e-30,5.1608000000000002e-30
3173.0,1.1904899999999999e-28,1.1475899999999999e-24,1.14747e-24,1.1475899999999999e-24,-1.55494e-29,2.9406899999999999e-30,6.1727899999999999e-30
3174.0,1.2143800000000001e-28,1.1475899999999999e-24,1.14747e-24,1.1475899999999999e-24,-1.82306e-29,3.6900599999999998e-30,7.1344999999999995e-30
3175.0,1.2270799999999999e-28,1.1475899999999999e-24,1.1474799999999999e-24,1.1475899999999999e-24,-2.1189999999999999e-29,4.9167799999999997e-30,8.1586799999999995e-30
3176.0,1.22017e-28,1.1476000000000001e-24,1.1474799999999999e-24,1.1476000000000001e-24,-2.4021500000000001e-29,6.2571999999999999e-30,8.6582700000000005e-30
3177.0,1.1961100000000001e-28,1.1475899999999999e-24,1.14749e-24,1.1476000000000001e-24,-2.6501300000000001e-29,7.6058999999999998e-30,8.4429699999999999e-30
3178.0,1.1397099999999999e-28,1.1475899999999999e-24,1.14749e-24,1.1476000000000001e-24,-2.79542e-29,8.87266e-30,8.0574699999999996e-30
3179.0,1.1036700000000001e-28,1.14758e-24,1.14747e-24,1.14758e-24,-1.4096899999999999e-29,2.58545e-30,5.9526200000000001e-30
3180.0,1.1250600000000001e-28,1.14758e-24,1.14747e-24,1.14758e-24,-1.5651899999999999e-29,3.15434e-30,6.4741600000000005e-30
3181.0,1.1400599999999999e-28,1.1475899999999999e-24,1.1474799999999999e-24,1.14758e-24,-1.78714e-29,4.1371999999999998e-30,7.5557499999999997e-30
3182.0,1.1462e-28,1.1475899999999999e-24,1.1474799999999999e-24,1.1475899999999999e-24,-2.0302599999999999e-29,5.4024100000000002e-30,8.4561499999999995e-30
3183.0,1.1352999999999999e-28,1.1475899999999999e-24,1.1474799999999999e-24,1.1475899999999999e-24,-2.24579e-29,6.8391999999999994e-30,8.6995e-30
3184.0,1.1046400000000001e-28,1.1475899999999999e-24,1.14749e-24,1.1475899999999999e-24,-2.4371400000000001e-29,8.0841999999999994e-30,8.4919899999999998e-30
3185.0,1.0566600000000001e-28,1.1475899999999999e-24,1.14749e-24,1.1475899999999999e-24,-2.5345800000000001e-29,9.4251500000000002e-30,7.1851199999999997e-30
3186.0,1.3753800000000001e-28,1.14761e-24,1.1475e-24,1.1476199999999999e-24,-3.78498e-29,-4.9796100000000001e-30,-1.35403e-29
3187.0,1.0439400000000001e-28,1.1475899999999999e-24,1.1475e-24,1.1476000000000001e-24,-2.6351600000000003e-29,-3.0322199999999999e-30,-9.7204100000000004e-30
3188.0,8.0872900000000001e-29,1.1475700000000001e-24,1.1475e-24,1.14758e-24,-1.8097400000000001e-29,-2.1637399999999999e-30,-6.2992500000000002e-30
3189.0,5.99174e-29,1.14755e-24,1.1475e-24,1.1475599999999999e-24,-1.2878900000000001e-29,-1.52428e-30,-4.8557800000000001e-30
3190.0,4.6367999999999997e-29,1.1475400000000001e-24,1.1475e-24,1.1475400000000001e-24,-9.3589599999999998e-30,-9.2391500000000005e-31,-2.9838400000000001e-30
3191.0,2.9128999999999999e-29,1.14752e-24,1.1475e-24,1.14752e-24,-5.8795399999999997e-30,-1.6792900000000001e-30,-1.9746599999999998e-30
3192.0,2.6597700000000002e-29,1.14752e-24,1.1475e-24,1.14752e-24,-1.02583e-29,2.1196e-30,-5.4955000000000003e-30
3193.0,1.18765e-28,1.1476000000000001e-24,1.1475100000000001e-24,1.14761e-24,-3.46533e-29,-4.6164900000000002e-30,-1.12763e-29
3194.0,9.33804e-29,1.14758e-24,1.1475100000000001e-24,1.1475899999999999e-24,-2.3692599999999999e-29,-3.1690999999999997e-30,-7.6809000000000005e-30
3195.0,7.0810700000000005e-29,1.1475599999999999e-24,1.1475e-24,1.1475700000000001e-24,-1.62332e-29,-2.0797599999999999e-30,-5.7427999999999997e-30
3196.0,5.5452100000000001e-29,1.14755e-24,1.1475e-24,1.1475599999999999e-24,-1.11898e-29,-1.4597900000000001e-30,-3.7019499999999999e-30
3197.0,3.89985e-29,1.14753e-24,1.1475e-24,1.1475400000000001e-24,-6.6190700000000001e-30,-1.3622499999999999e-30,-2.6774299999999999e-30
3198.0,3.02567e-29,1.14753e-24,1.1475e-24,1.14753e-24,-7.0515700000000003e-30,-3.03831e-31,-2.5441999999999999e-30
3199.0,2.2319600000000001e-29,1.1475100000000001e-24,1.14749e-24,1.1475100000000001e-24,-1.3913599999999999e-30,-7.8920200000000003e-31,9.1082799999999998e-31
3200.0,1.02262e-28,1.1475899999999999e-24,1.1475100000000001e-24,1.14761e-24,-2.9179599999999998e-29,-4.1751700000000003e-30,-8.5820999999999998e-30
3201.0,8.0083599999999999e-29,1.1475700000000001e-24,1.1475100000000001e-24,1.1475899999999999e-24,-2.0299699999999999e-29,-2.79543e-30,-6.4562999999999995e-30
3202.0,6.3664899999999999e-29,1.1475599999999999e-24,1.1475100000000001e-24,1.1475700000000001e-24,-1.3538700000000001e-29,-1.8863500000000001e-30,-4.4299899999999999e-30
3203.0,4.7548400000000001e-29,1.1475400000000001e-24,1.1475e-24,1.14755e-24,-8.1365399999999994e-30,-1.50713e-30,-3.2533099999999998e-30
3204.0,3.6675000000000001e-29,1.1475400000000001e-24,1.1475e-24,1.1475400000000001e-24,-5.9390200000000001e-30,-8.8933999999999992e-31,-2.33848e-30
3205.0,2.6933800000000001e-29,1.14752e-24,1.14749e-24,1.14752e-24,-1.3431700000000001e-30,-8.6452299999999996e-31,-9.0366700000000007e-31
3206.0,1.5650499999999999e-29,1.1475100000000001e-24,1.1475e-24,1.1475100000000001e-24,-9.8039100000000003e-31,-9.8937399999999993e-31,-1.8081500000000001e-30
3207.0,8.5761600000000005e-29,1.14758e-24,1.1475100000000001e-24,1.1476000000000001e-24,-2.34873e-29,-3.4211099999999997e-30,-6.8330500000000006e-30
3208.0,6.9872200000000004e-29,1.1475700000000001e-24,1.1475100000000001e-24,1.14758e-24,-1.58611e-29,-2.35634e-30,-4.9495500000000002e-30
3209.0,5.4420200000000001e-29,1.14755e-24,1.1475100000000001e-24,1.1475599999999999e-24,-1.00277e-29,-1.7694000000000001e-30,-3.6841799999999998e-30
3210.0,4.2858699999999998e-29,1.1475400000000001e-24,1.1475100000000001e-24,1.14755e-24,-6.0311100000000002e-30,-1.12816e-30,-2.6629299999999998e-30
3211.0,3.2587400000000002e-29,1.14753e-24,1.1475e-24,1.14753e-24,-1.8128199999999999e-30,-9.6810300000000008e-31,-1.6440500000000001e-30
3212.0,2.24804e-29,1.14752e-24,1.1475e-24,1.14752e-24,-4.1574700000000003e-31,-8.6088100000000004e-31,-1.44038e-30
3213.0,1.7365200000000001e-29,1.1475100000000001e-24,1.14749e-24,1.1475100000000001e-24,2.08419e-30,-3.74742e-31,-2.3877799999999999e-32
3214.0,7.3076400000000001e-29,1.1475700000000001e-24,1.14752e-24,1.1475899999999999e-24,-1.7207699999999999e-29,-2.70827e-30,-5.1245800000000001e-30
3215.0,5.9216899999999997e-29,1.1475599999999999e-24,1.1475100000000001e-24,1.1475700000000001e-24,-1.16265e-29,-1.9707099999999999e-30,-3.9375099999999999e-30
3216.0,4.8021300000000001e-29,1.14755e-24,1.1475100000000001e-24,1.1475599999999999e-24,-6.5953400000000004e-30,-1.2621700000000001e-30,-2.9809599999999999e-30
3217.0,3.80128e-29,1.1475400000000001e-24,1.1475e-24,1.1475400000000001e-24,-2.5258600000000001e-30,-1.0418199999999999e-30,-2.0462899999999999e-30
3218.0,2.8419999999999997e-29,1.14753e-24,1.1475e-24,1.14753e-24,3.9296499999999998e-32,-7.4779900000000002e-31,-1.5868300000000001e-30
3219.0,2.3072000000000001e-29,1.14752e-24,1.1475e-24,1.14752e-24,2.7655099999999999e-30,-4.6399200000000001e-31,-8.0992399999999993e-31
3220.0,1.5207400000000001e-29,1.1475100000000001e-24,1.1475e-24,1.1475100000000001e-24,4.0833499999999998e-30,-8.15813e-31,-9.2404299999999997e-31
3221.0,6.1905799999999998e-29,1.1475599999999999e-24,1.1475100000000001e-24,1.14758e-24,-1.2435000000000001e-29,-2.10087e-30,-3.9646899999999999e-30
3222.0,5.2204899999999997e-29,1.1475599999999999e-24,1.1475100000000001e-24,1.1475700000000001e-24,-7.29678e-30,-1.36823e-30,-3.2226500000000003e-30
3223.0,4.2872299999999997e-29,1.14755e-24,1.1475100000000001e-24,1.14755e-24,-3.4103599999999998e-30,-1.1154000000000001e-30,-2.3350699999999998e-30
3224.0,3.3781000000000001e-29,1.1475400000000001e-24,1.1475100000000001e-24,1.1475400000000001e-24,1.0623099999999999e-31,-6.8876299999999997e-31,-1.84299e-30
3225.0,2.81553e-29,1.14753e-24,1.1475e-24,1.14753e-24,2.9913699999999999e-30,-4.7124599999999999e-31,-1.18098e-30
3226.0,2.0853299999999999e-29,1.14752e-24,1.1475e-24,1.14752e-24,4.7936500000000003e-30,-5.3291399999999998e-31,-8.9708499999999999e-31
3227.0,1.8088300000000001e-29,1.1475100000000001e-24,1.14749e-24,1.1475100000000001e-24,6.2992700000000001e-30,-8.4390900000000001e-32,-2.28448e-31
3228.0,5.5452899999999998e-29,1.1475599999999999e-24,1.14752e-24,1.1475700000000001e-24,-8.0153900000000002e-30,-1.40816e-30,-3.3590099999999998e-30
3229.0,4.7515599999999998e-29,1.14755e-24,1.1475100000000001e-24,1.1475599999999999e-24,-4.6019100000000001e-30,-1.23718e-30,-2.5910199999999999e-30
3230.0,3.8858099999999997e-29,1.1475400000000001e-24,1.1475100000000001e-24,1.14755e-24,-4.48645e-31,-6.6369700000000003e-31,-2.0678700000000002e-30
3231.0,3.3202700000000001e-29,1.14753e-24,1.1475e-24,1.1475400000000001e-24,2.7306e-30,-4.2961200000000003e-31,-1.4742200000000001e-30
3232.0,2.6328499999999999e-29,1.14752e-24,1.1475e-24,1.14753e-24,5.1989699999999998e-30,-3.2056099999999999e-31,-1.10309e-30
3233.0,2.35368e-29,1.1475100000000001e-24,1.1475e-24,1.14752e-24,7.1984299999999994e-30,-4.1523099999999997e-33,-7.0959800000000002e-31
3234.0,1.9386800000000001e-29,1.1475100000000001e-24,1.1475e-24,1.1475100000000001e-24,8.5662699999999993e-30,-3.1512999999999999e-31,-6.4072400000000004e-31
3235.0,1.28337e-28,1.1476000000000001e-24,1.1475e-24,1.1476199999999999e-24,-3.4565399999999999e-29,-7.4422199999999995e-30,-1.6903199999999999e-29
3236.0,9.9864500000000004e-29,1.1475899999999999e-24,1.1475e-24,1.1475899999999999e-24,-2.3951700000000001e-29,-4.8981099999999999e-30,-1.09368e-29
3237.0,7.5822700000000005e-29,1.1475700000000001e-24,1.1475e-24,1.1475700000000001e-24,-1.70397e-29,-3.5373499999999999e-30,-7.3038599999999999e-30
3238.0,5.8889199999999997e-29,1.14755e-24,1.1475e-24,1.1475599999999999e-24,-1.19894e-29,-2.3434700000000001e-30,-4.3831000000000002e-30
3239.0,4.2011200000000002e-29,1.1475400000000001e-24,1.1475e-24,1.1475400000000001e-24,-8.3203599999999998e-30,-2.3467600000000001e-30,-2.1333200000000001e-30
3240.0,3.2544799999999998e-29,1.14753e-24,1.1475e-24,1.14753e-24,-7.4166700000000004e-30,-7.4922700000000003e-31,-2.5985799999999998e-30
3241.0,2.3566699999999999e-29,1.1475100000000001e-24,1.14749e-24,1.1475100000000001e-24,-1.5482100000000001e-30,-1.9052000000000002e-30,1.5880599999999999e-30
3242.0,1.1209399999999999e-28,1.1476000000000001e-24,1.1475100000000001e-24,1.14761e-24,-3.09057e-29,-7.0632000000000001e-30,-1.30352e-29
3243.0,8.7159499999999996e-29,1.14758e-24,1.1475100000000001e-24,1.1475899999999999e-24,-2.1539599999999999e-29,-4.7820299999999998e-30,-8.8397299999999995e-30
3244.0,6.8423600000000002e-29,1.1475599999999999e-24,1.1475100000000001e-24,1.1475700000000001e-24,-1.4863800000000001e-29,-3.4086000000000001e-30,-5.6280099999999998e-30
3245.0,5.1242700000000004e-29,1.14755e-24,1.1475e-24,1.14755e-24,-9.8720399999999999e-30,-2.5538100000000001e-30,-3.37087e-30
3246.0,3.92139e-29,1.1475400000000001e-24,1.1475e-24,1.1475400000000001e-24,-7.1815800000000004e-30,-1.8666300000000001e-30,-2.0224799999999998e-30
3247.0,2.7907299999999998e-29,1.14752e-24,1.14749e-24,1.14752e-24,-3.7045099999999997e-30,-1.2687499999999999e-30,-2.3514400000000001e-31
3248.0,1.7761500000000001e-29,1.1475100000000001e-24,1.1475e-24,1.1475100000000001e-24,-3.9090700000000003e-30,-3.06025e-31,-6.0452799999999999e-31
3249.0,9.58505e-29,1.14758e-24,1.1475100000000001e-24,1.1476000000000001e-24,-2.6268900000000002e-29,-6.1649099999999999e-30,-9.9432100000000005e-30
3250.0,7.6683999999999998e-29,1.1475700000000001e-24,1.1475100000000001e-24,1.14758e-24,-1.82414e-29,-4.25931e-30,-6.7322099999999999e-30
3251.0,5.94667e-29,1.1475599999999999e-24,1.1475100000000001e-24,1.1475599999999999e-24,-1.20708e-29,-3.1114899999999999e-30,-4.3462799999999998e-30
3252.0,4.6406600000000002e-29,1.14755e-24,1.1475e-24,1.14755e-24,-7.8880600000000001e-30,-2.3445600000000001e-30,-2.51121e-30
3253.0,3.4484200000000002e-29,1.14753e-24,1.1475e-24,1.14753e-24,-4.21301e-30,-1.6531499999999999e-30,-1.09495e-30
3254.0,2.47357e-29,1.14752e-24,1.1475e-24,1.14752e-24,-2.5866699999999998e-30,-1.3103e-30,-1.2158199999999999e-31
3255.0,1.7940700000000001e-29,1.1475100000000001e-24,1.14749e-24,1.1475100000000001e-24,3.9364700000000001e-31,-1.3780700000000001e-30,1.8284899999999999e-30
3256.0,8.20819e-29,1.14758e-24,1.1475100000000001e-24,1.1475899999999999e-24,-2.09542e-29,-5.07308e-30,-7.3356000000000005e-30
3257.0,6.58063e-29,1.1475599999999999e-24,1.1475100000000001e-24,1.1475700000000001e-24,-1.4333699999999999e-29,-3.7003700000000002e-30,-5.0279899999999998e-30
3258.0,5.2559799999999996e-29,1.14755e-24,1.1475100000000001e-24,1.1475599999999999e-24,-9.1116999999999995e-30,-2.7118600000000001e-30,-3.17859e-30
3259.0,4.0689800000000001e-29,1.1475400000000001e-24,1.1475e-24,1.14755e-24,-4.9353499999999999e-30,-1.9955399999999999e-30,-1.7452200000000001e-30
3260.0,3.09183e-29,1.14753e-24,1.1475e-24,1.14753e-24,-2.1985499999999999e-30,-1.60044e-30,-5.2209999999999998e-31
3261.0,2.2979e-29,1.14752e-24,1.1475e-24,1.14752e-24,6.2150899999999997e-31,-1.28236e-30,5.0776500000000002e-31
3262.0,1.46999e-29,1.1475100000000001e-24,1.1475e-24,1.1475100000000001e-24,1.7532499999999999e-30,-1.17099e-30,5.9424600000000003e-31
3263.0,6.9404600000000001e-29,1.1475700000000001e-24,1.1475100000000001e-24,1.14758e-24,-1.57739e-29,-4.1625699999999997e-30,-5.3300099999999998e-30
3264.0,5.7287400000000001e-29,1.1475599999999999e-24,1.1475100000000001e-24,1.1475700000000001e-24,-1.0280199999999999e-29,-3.027e-30,-3.6657900000000002e-30
3265.0,4.6039100000000002e-29,1.14755e-24,1.1475100000000001e-24,1.1475599999999999e-24,-5.87445e-30,-2.2716299999999999e-30,-2.2829800000000001e-30
3266.0,3.6489499999999998e-29,1.1475400000000001e-24,1.1475100000000001e-24,1.1475400000000001e-24,-2.3393700000000001e-30,-1.7386800000000001e-30,-1.0772300000000001e-30
3267.0,2.83724e-29,1.14753e-24,1.1475e-24,1.14753e-24,6.5025899999999999e-31,-1.3579800000000001e-30,-1.6686e-31
3268.0,2.1078300000000001e-29,1.14752e-24,1.1475e-24,1.14752e-24,2.4721399999999999e-30,-1.15094e-30,5.5673899999999998e-31
3269.0,1.65642e-29,1.1475100000000001e-24,1.14749e-24,1.1475100000000001e-24,4.2709499999999998e-30,-8.5144800000000008e-31,1.66748e-30
3270.0,6.0097300000000004e-29,1.1475599999999999e-24,1.1475100000000001e-24,1.14758e-24,-1.08754e-29,-3.2668000000000002e-30,-3.87206e-30
3271.0,5.0335300000000001e-29,1.14755e-24,1.1475100000000001e-24,1.1475599999999999e-24,-6.8322699999999996e-30,-2.47555e-30,-2.6619999999999999e-30
3272.0,4.1374e-29,1.14755e-24,1.1475100000000001e-24,1.14755e-24,-2.86944e-30,-1.83964e-30,-1.5878500000000001e-30
3273.0,3.3507299999999999e-29,1.14753e-24,1.1475e-24,1.1475400000000001e-24,3.72389e-31,-1.42184e-30,-6.5814800000000003e-31
3274.0,2.6553900000000003e-29,1.14753e-24,1.1475e-24,1.14753e-24,2.8445499999999999e-30,-1.09558e-30,1.42219e-31
3275.0,2.1708200000000001e-29,1.1475100000000001e-24,1.1475e-24,1.14752e-24,4.9376400000000002e-30,-8.3633100000000008e-31,8.4400199999999996e-31
3276.0,1.70375e-29,1.1475100000000001e-24,1.1475e-24,1.1475100000000001e-24,6.3598299999999994e-30,-8.7990300000000002e-31,1.03572e-30
3277.0,5.3690399999999997e-29,1.1475599999999999e-24,1.1475100000000001e-24,1.1475700000000001e-24,-7.7053899999999999e-30,-2.68151e-30,-2.9139399999999998e-30
3278.0,4.6032499999999998e-29,1.14755e-24,1.1475100000000001e-24,1.1475599999999999e-24,-3.8043399999999997e-30,-2.0162599999999999e-30,-2.03275e-30
3279.0,3.8544799999999998e-29,1.1475400000000001e-24,1.1475100000000001e-24,1.14755e-24,-3.4175300000000002e-31,-1.55451e-30,-1.1288e-30
3280.0,3.1729399999999998e-29,1.14753e-24,1.1475100000000001e-24,1.1475400000000001e-24,2.75728e-30,-1.1091100000000001e-30,-3.1463899999999999e-31
3281.0,2.6818399999999998e-29,1.14752e-24,1.1475e-24,1.14753e-24,5.2268599999999997e-30,-8.1489500000000005e-31,3.8179700000000001e-31
3282.0,2.2182200000000001e-29,1.14752e-24,1.1475e-24,1.14752e-24,7.0244500000000001e-30,-6.5302899999999998e-31,9.10942e-31
3283.0,1.97283e-29,1.1475e-24,1.14749e-24,1.1475100000000001e-24,8.3463499999999998e-30,-3.2698500000000001e-31,1.6447699999999999e-30
3284.0,1.17887e-28,1.1476000000000001e-24,1.1475e-24,1.14761e-24,-2.9811499999999998e-29,-8.9930299999999997e-30,-1.7742199999999999e-29
3285.0,9.1568699999999997e-29,1.14758e-24,1.1475e-24,1.1475899999999999e-24,-2.1572699999999999e-29,-6.3943400000000003e-30,-1.1782e-29
3286.0,7.2018500000000003e-29,1.1475700000000001e-24,1.1475e-24,1.1475700000000001e-24,-1.5236199999999999e-29,-4.3625799999999997e-30,-7.0350900000000005e-30
3287.0,5.4000399999999997e-29,1.14755e-24,1.1475e-24,1.14755e-24,-1.0915e-29,-3.7056299999999999e-30,-3.5616999999999998e-30
3288.0,4.1778800000000002e-29,1.1475400000000001e-24,1.1475e-24,1.1475400000000001e-24,-8.2510499999999998e-30,-2.35383e-30,-1.9700700000000001e-30
3289.0,3.0648599999999999e-29,1.14752e-24,1.14749e-24,1.14752e-24,-4.8380299999999999e-30,-2.61187e-30,1.56401e-30
3290.0,2.0143599999999999e-29,1.1475100000000001e-24,1.1475e-24,1.1475100000000001e-24,-5.9976699999999997e-30,-1.9519899999999999e-30,1.6573599999999999e-30
3291.0,1.02453e-28,1.1475899999999999e-24,1.1475100000000001e-24,1.1476000000000001e-24,-2.69172e-29,-8.5006100000000003e-30,-1.38218e-29
3292.0,8.1639499999999997e-29,1.14758e-24,1.1475100000000001e-24,1.14758e-24,-1.89808e-29,-5.9551799999999999e-30,-8.8690100000000005e-30
3293.0,6.3250899999999996e-29,1.1475599999999999e-24,1.1475e-24,1.1475599999999999e-24,-1.32466e-29,-4.4181199999999997e-30,-5.2922999999999997e-30
3294.0,4.9235799999999998e-29,1.14755e-24,1.1475e-24,1.14755e-24,-9.0901099999999993e-30,-3.3640399999999998e-30,-2.6683200000000001e-30
3295.0,3.6759699999999999e-29,1.14753e-24,1.1475e-24,1.14753e-24,-5.8784000000000003e-30,-2.5690600000000001e-30,-4.2385600000000003e-31
3296.0,2.6710000000000003e-29,1.14752e-24,1.1475e-24,1.14752e-24,-4.0224599999999997e-30,-2.0379300000000001e-30,7.4419799999999996e-31
3297.0,1.95138e-29,1.1475100000000001e-24,1.14749e-24,1.1475100000000001e-24,-1.05141e-30,-2.3928100000000001e-30,3.1064699999999999e-30
3298.0,8.9185300000000003e-29,1.14758e-24,1.1475100000000001e-24,1.1475899999999999e-24,-2.2868600000000001e-29,-7.4863499999999995e-30,-1.02539e-29
3299.0,7.1412600000000001e-29,1.1475700000000001e-24,1.1475100000000001e-24,1.14758e-24,-1.6087100000000001e-29,-5.4544400000000001e-30,-6.6331199999999996e-30
3300.0,5.6512499999999996e-29,1.1475599999999999e-24,1.1475100000000001e-24,1.1475599999999999e-24,-1.0752100000000001e-29,-4.09974e-30,-3.7514899999999997e-30
3301.0,4.3613500000000002e-29,1.1475400000000001e-24,1.1475e-24,1.14755e-24,-6.8211699999999997e-30,-3.0582399999999998e-30,-1.5927499999999999e-30
3302.0,3.31365e-29,1.14753e-24,1.1475e-24,1.1475400000000001e-24,-3.8989499999999998e-30,-2.4989200000000002e-30,1.70349e-31
3303.0,2.4104499999999999e-29,1.14752e-24,1.1475e-24,1.14752e-24,-1.51652e-30,-1.9659999999999999e-30,1.65573e-30
3304.0,1.5672699999999999e-29,1.1475100000000001e-24,1.1475e-24,1.1475100000000001e-24,-6.10659e-31,-1.4068500000000001e-30,2.15685e-30
3305.0,7.6833399999999999e-29,1.1475700000000001e-24,1.1475100000000001e-24,1.1475899999999999e-24,-1.8466999999999999e-29,-6.3912400000000007e-30,-7.4151200000000005e-30
3306.0,6.2404900000000003e-29,1.1475599999999999e-24,1.1475100000000001e-24,1.1475700000000001e-24,-1.26154e-29,-4.7217999999999997e-30,-4.6811699999999998e-30
3307.0,4.9752500000000002e-29,1.14755e-24,1.1475100000000001e-24,1.1475599999999999e-24,-8.0152299999999994e-30,-3.5582500000000002e-30,-2.51557e-30
3308.0,3.9052599999999999e-29,1.1475400000000001e-24,1.1475e-24,1.1475400000000001e-24,-4.3273299999999997e-30,-2.8412599999999999e-30,-6.2623199999999997e-31
3309.0,2.9843300000000002e-29,1.14753e-24,1.1475e-24,1.14753e-24,-1.57347e-30,-2.1680600000000001e-30,7.0613399999999998e-31
3310.0,2.2198599999999999e-29,1.14752e-24,1.1475e-24,1.14752e-24,4.0868599999999997e-31,-1.8713300000000001e-30,1.9341999999999999e-30
3311.0,1.6810899999999999e-29,1.1475100000000001e-24,1.14749e-24,1.1475100000000001e-24,2.38192e-30,-1.7701899999999999e-30,3.4017300000000001e-30
3312.0,6.5956299999999996e-29,1.1475700000000001e-24,1.1475100000000001e-24,1.14758e-24,-1.3881700000000001e-29,-5.2346000000000003e-30,-5.1534300000000001e-30
3313.0,5.4476400000000005e-29,1.1475599999999999e-24,1.1475100000000001e-24,1.1475599999999999e-24,-9.1803400000000002e-30,-3.98699e-30,-3.1910599999999998e-30
3314.0,4.4146200000000001e-29,1.14755e-24,1.1475100000000001e-24,1.14755e-24,-5.05229e-30,-3.1027300000000001e-30,-1.3975e-30
3315.0,3.5112e-29,1.1475400000000001e-24,1.1475e-24,1.1475400000000001e-24,-1.8734599999999999e-30,-2.38546e-30,-5.5773500000000004e-32
3316.0,2.74938e-29,1.14753e-24,1.1475e-24,1.14753e-24,7.2991899999999998e-31,-1.99559e-30,1.27788e-30
3317.0,2.13112e-29,1.14752e-24,1.1475e-24,1.14752e-24,2.78764e-30,-1.6304199999999999e-30,2.2134999999999999e-30
3318.0,1.5899100000000001e-29,1.1475100000000001e-24,1.1475e-24,1.1475100000000001e-24,4.1176400000000002e-30,-1.4549099999999999e-30,2.70451e-30
3319.0,5.7514900000000003e-29,1.1475599999999999e-24,1.1475100000000001e-24,1.1475700000000001e-24,-9.8536799999999995e-30,-4.30981e-30,-3.5287799999999999e-30
3320.0,4.85341e-29,1.14755e-24,1.1475100000000001e-24,1.1475599999999999e-24,-5.8673099999999997e-30,-3.36585e-30,-2.0168499999999999e-30
3321.0,3.9988400000000001e-29,1.1475400000000001e-24,1.1475100000000001e-24,1.14755e-24,-2.4783499999999999e-30,-2.6022200000000001e-30,-7.2364500000000003e-31
3322.0,3.2443300000000003e-29,1.14753e-24,1.1475e-24,1.1475400000000001e-24,5.9304300000000004e-31,-2.0997500000000002e-30,5.5274299999999999e-31
3323.0,2.62482e-29,1.14752e-24,1.1475e-24,1.14753e-24,3.0070599999999998e-30,-1.67454e-30,1.49331e-30
3324.0,2.1208200000000001e-29,1.14752e-24,1.1475e-24,1.14752e-24,4.8029100000000002e-30,-1.41089e-30,2.3934499999999999e-30
3325.0,1.8106599999999999e-29,1.1475e-24,1.14749e-24,1.1475100000000001e-24,6.2721900000000003e-30,-1.0907800000000001e-30,3.3993500000000002e-30
3326.0,5.1942300000000003e-29,1.1475599999999999e-24,1.1475100000000001e-24,1.1475700000000001e-24,-6.61339e-30,-3.6164099999999997e-30,-2.4109400000000001e-30
3327.0,4.4667600000000002e-29,1.14755e-24,1.1475100000000001e-24,1.1475599999999999e-24,-3.4714099999999999e-30,-2.86339e-30,-1.3308699999999999e-30
3328.0,3.7380199999999999e-29,1.1475400000000001e-24,1.1475100000000001e-24,1.14755e-24,-9.8025500000000001e-34,-2.2656300000000001e-30,-1.25986e-31
3329.0,3.1218e-29,1.14753e-24,1.1475e-24,1.1475400000000001e-24,2.83094e-30,-1.7518e-30,8.9881999999999992e-31
3330.0,2.61229e-29,1.14752e-24,1.1475e-24,1.14753e-24,5.1122399999999998e-30,-1.3701000000000001e-30,1.8340600000000002e-30
3331.0,2.2546600000000001e-29,1.1475100000000001e-24,1.1475e-24,1.14752e-24,6.9227700000000001e-30,-1.06291e-30,2.6043000000000001e-30
3332.0,1.9796500000000001e-29,1.1475100000000001e-24,1.14749e-24,1.1475100000000001e-24,8.2994499999999995e-30,-9.7276999999999993e-31,2.94705e-30
3333.0,1.0433899999999999e-28,1.1475899999999999e-24,1.1475100000000001e-24,1.1476000000000001e-24,-2.5292999999999998e-29,-1.00078e-29,-1.7317699999999999e-29
3334.0,8.3965400000000003e-29,1.14758e-24,1.1475100000000001e-24,1.14758e-24,-1.8503400000000001e-29,-7.0390799999999999e-30,-1.07778e-29
3335.0,6.5093199999999997e-29,1.1475599999999999e-24,1.1475e-24,1.1475599999999999e-24,-1.3462499999999999e-29,-5.5986399999999998e-30,-6.1724999999999997e-30
3336.0,5.1263999999999995e-29,1.14755e-24,1.1475e-24,1.14755e-24,-9.9816299999999998e-30,-4.0127199999999998e-30,-2.8504899999999999e-30
3337.0,3.89159e-29,1.14753e-24,1.1475e-24,1.14753e-24,-6.8747599999999995e-30,-3.7063299999999998e-30,6.5014e-31
3338.0,2.8058899999999999e-29,1.14752e-24,1.1475e-24,1.14752e-24,-5.9515199999999998e-30,-2.83419e-30,1.7965399999999999e-30
3339.0,2.15465e-29,1.1475100000000001e-24,1.14749e-24,1.1475100000000001e-24,-2.8699599999999999e-30,-2.5840900000000001e-30,4.1131999999999999e-30
3340.0,9.2791100000000004e-29,1.1475899999999999e-24,1.1475100000000001e-24,1.1475899999999999e-24,-2.26682e-29,-9.2108800000000002e-30,-1.2985200000000001e-29
3341.0,7.4115399999999998e-29,1.1475700000000001e-24,1.1475100000000001e-24,1.1475700000000001e-24,-1.6350100000000001e-29,-6.8038599999999999e-30,-8.2002100000000005e-30
3342.0,5.9026299999999995e-29,1.1475599999999999e-24,1.1475100000000001e-24,1.1475599999999999e-24,-1.15839e-29,-5.1967799999999999e-30,-4.3428400000000001e-30
3343.0,4.5758999999999998e-29,1.1475400000000001e-24,1.1475e-24,1.14755e-24,-7.9672200000000002e-30,-4.0775700000000001e-30,-1.36165e-30
3344.0,3.5034199999999997e-29,1.14753e-24,1.1475e-24,1.14753e-24,-5.3099800000000001e-30,-3.3509499999999998e-30,8.0053900000000006e-31
3345.0,2.6246200000000003e-29,1.14752e-24,1.14749e-24,1.14752e-24,-3.1827999999999999e-30,-3.0011100000000002e-30,3.0753299999999999e-30
3346.0,1.7881199999999999e-29,1.1475100000000001e-24,1.14749e-24,1.1475100000000001e-24,-2.7251100000000001e-30,-2.3978999999999999e-30,3.9401000000000003e-30
3347.0,8.1406199999999995e-29,1.14758e-24,1.1475100000000001e-24,1.1475899999999999e-24,-1.94503e-29,-8.31443e-30,-9.6555200000000002e-30
3348.0,6.6035399999999995e-29,1.1475700000000001e-24,1.1475100000000001e-24,1.1475700000000001e-24,-1.3817199999999999e-29,-6.2317399999999997e-30,-5.8560399999999998e-30
3349.0,5.2572399999999996e-29,1.14755e-24,1.1475100000000001e-24,1.1475599999999999e-24,-9.3660500000000003e-30,-4.78482e-30,-2.82607e-30
3350.0,4.1264300000000003e-29,1.1475400000000001e-24,1.1475e-24,1.1475400000000001e-24,-5.8421099999999998e-30,-3.8922299999999998e-30,-3.4254799999999999e-31
3351.0,3.1602800000000002e-29,1.14753e-24,1.1475e-24,1.14753e-24,-3.3359899999999999e-30,-3.1138000000000001e-30,1.5960500000000002e-30
3352.0,2.3661799999999999e-29,1.14752e-24,1.1475e-24,1.14752e-24,-1.3611e-30,-2.70315e-30,3.1090100000000001e-30
3353.0,1.8215000000000001e-29,1.1475100000000001e-24,1.14749e-24,1.1475100000000001e-24,5.9560300000000004e-31,-2.7036999999999998e-30,4.88433e-30
3354.0,7.1046199999999995e-29,1.1475700000000001e-24,1.1475100000000001e-24,1.14758e-24,-1.5789799999999999e-29,-7.1924999999999997e-30,-6.8323299999999994e-30
3355.0,5.8321299999999999e-29,1.1475599999999999e-24,1.1475100000000001e-24,1.1475700000000001e-24,-1.09216e-29,-5.5019000000000002e-30,-3.9646500000000001e-30
3356.0,4.6900399999999999e-29,1.14755e-24,1.1475100000000001e-24,1.14755e-24,-6.8145799999999999e-30,-4.3606799999999999e-30,-1.4572e-30
3357.0,3.71079e-29,1.1475400000000001e-24,1.1475e-24,1.1475400000000001e-24,-3.7112900000000001e-30,-3.4282200000000002e-30,4.5261e-31
3358.0,2.9049000000000002e-29,1.14753e-24,1.1475e-24,1.14753e-24,-1.1274400000000001e-30,-2.9305700000000001e-30,2.2157200000000001e-30
3359.0,2.2044600000000001e-29,1.14752e-24,1.1475e-24,1.14752e-24,7.1756200000000001e-31,-2.4382900000000001e-30,3.54554e-30
3360.0,1.6281200000000001e-29,1.1475100000000001e-24,1.1475e-24,1.1475100000000001e-24,1.8739799999999999e-30,-2.0668000000000001e-30,4.3892800000000003e-30
3361.0,6.2080499999999996e-29,1.1475599999999999e-24,1.1475100000000001e-24,1.1475700000000001e-24,-1.20318e-29,-6.1237000000000003e-30,-4.5645799999999998e-30
3362.0,5.1554799999999997e-29,1.1475599999999999e-24,1.1475100000000001e-24,1.1475599999999999e-24,-7.82449e-30,-4.7622600000000003e-30,-2.3730699999999998e-30
3363.0,4.2074699999999998e-29,1.1475400000000001e-24,1.1475100000000001e-24,1.14755e-24,-4.3407199999999999e-30,-3.7600600000000003e-30,-4.9101999999999997e-31
3364.0,3.39427e-29,1.1475400000000001e-24,1.1475e-24,1.1475400000000001e-24,-1.3422799999999999e-30,-3.1224899999999999e-30,1.25641e-30
3365.0,2.6791900000000001e-29,1.14752e-24,1.1475e-24,1.14753e-24,9.1581500000000007e-31,-2.5393499999999998e-30,2.52857e-30
3366.0,2.14787e-29,1.14752e-24,1.1475e-24,1.14752e-24,2.7593199999999998e-30,-2.25089e-30,3.8111200000000001e-30
3367.0,1.7953800000000001e-29,1.1475e-24,1.14749e-24,1.1475100000000001e-24,4.3015400000000002e-30,-1.9772599999999998e-30,5.0801599999999999e-30
3368.0,5.46104e-29,1.1475599999999999e-24,1.1475100000000001e-24,1.1475700000000001e-24,-8.4816699999999995e-30,-5.1359199999999997e-30,-2.8500699999999999e-30
3369.0,4.6451100000000002e-29,1.14755e-24,1.1475100000000001e-24,1.1475599999999999e-24,-5.0929699999999997e-30,-4.0803199999999998e-30,-1.25523e-30
3370.0,3.8550200000000001e-29,1.1475400000000001e-24,1.1475100000000001e-24,1.14755e-24,-1.9075e-30,-3.3200499999999999e-30,3.5324200000000001e-31
3371.0,3.1512899999999998e-29,1.14753e-24,1.1475e-24,1.1475400000000001e-24,7.8837099999999997e-31,-2.68832e-30,1.6819600000000002e-30
3372.0,2.6059999999999998e-29,1.14752e-24,1.1475e-24,1.14753e-24,3.0358199999999999e-30,-2.2686500000000001e-30,2.99384e-30
3373.0,2.1566600000000001e-29,1.1475100000000001e-24,1.1475e-24,1.1475100000000001e-24,4.7718600000000002e-30,-1.8811400000000001e-30,3.9477999999999997e-30
3374.0,1.84286e-29,1.1475100000000001e-24,1.14749e-24,1.1475100000000001e-24,6.0998800000000003e-30,-1.7160799999999999e-30,4.5795199999999997e-30
3375.0,4.9823100000000002e-29,1.1475599999999999e-24,1.1475100000000001e-24,1.1475599999999999e-24,-5.8627599999999998e-30,-4.4082500000000002e-30,-1.7699299999999999e-30
3376.0,4.3144600000000002e-29,1.14755e-24,1.1475100000000001e-24,1.14755e-24,-2.7651099999999998e-30,-3.6630399999999998e-30,-4.4926299999999998e-31
3377.0,3.6322900000000001e-29,1.1475400000000001e-24,1.1475100000000001e-24,1.1475400000000001e-24,2.2976899999999999e-31,-2.93429e-30,8.8664499999999997e-31
3378.0,3.0641000000000002e-29,1.14753e-24,1.1475e-24,1.14753e-24,2.8968500000000001e-30,-2.38831e-30,2.1607199999999999e-30
3379.0,2.60248e-29,1.14752e-24,1.1475e-24,1.14752e-24,5.0377499999999997e-30,-1.9435299999999999e-30,3.20829e-30
3380.0,2.2726400000000001e-29,1.1475100000000001e-24,1.1475e-24,1.14752e-24,6.6935799999999993e-30,-1.6302599999999999e-30,4.16937e-30
3381.0,2.0672699999999999e-29,1.1475e-24,1.14749e-24,1.1475e-24,7.9120500000000001e-30,-1.2285300000000001e-30,5.1844099999999997e-30
3382.0,9.2142599999999998e-29,1.1475899999999999e-24,1.1475100000000001e-24,1.1475899999999999e-24,-2.0638499999999999e-29,-9.9831100000000006e-30,-1.45577e-29
3383.0,7.4099800000000001e-29,1.1475700000000001e-24,1.1475100000000001e-24,1.1475700000000001e-24,-1.5704299999999999e-29,-7.8469199999999995e-30,-9.3048600000000001e-30
3384.0,5.9929599999999996e-29,1.1475599999999999e-24,1.1475e-24,1.1475599999999999e-24,-1.1781899999999999e-29,-5.8800599999999997e-30,-4.6567800000000001e-30
3385.0,4.6873200000000001e-29,1.1475400000000001e-24,1.1475e-24,1.1475400000000001e-24,-8.55822e-30,-5.1329700000000001e-30,-8.9704100000000003e-31
3386.0,3.5997600000000002e-29,1.14753e-24,1.1475e-24,1.14753e-24,-6.7915199999999995e-30,-4.0676200000000003e-30,1.49865e-30
3387.0,2.8486600000000002e-29,1.14752e-24,1.14749e-24,1.14752e-24,-4.52493e-30,-3.70175e-30,4.2556799999999998e-30
3388.0,2.0815399999999999e-29,1.1475100000000001e-24,1.14749e-24,1.1475100000000001e-24,-4.6183100000000003e-30,-3.43984e-30,5.6359299999999997e-30
3389.0,8.2151099999999997e-29,1.14758e-24,1.1475100000000001e-24,1.14758e-24,-1.86976e-29,-9.5290000000000002e-30,-1.13053e-29
3390.0,6.7527800000000002e-29,1.1475700000000001e-24,1.1475100000000001e-24,1.1475700000000001e-24,-1.3846199999999999e-29,-7.3195499999999995e-30,-6.6072999999999995e-30
3391.0,5.4044200000000002e-29,1.14755e-24,1.1475e-24,1.14755e-24,-1.00159e-29,-5.8128300000000002e-30,-3.0019600000000001e-30
3392.0,4.28635e-29,1.1475400000000001e-24,1.1475e-24,1.1475400000000001e-24,-6.9309499999999996e-30,-4.7941500000000003e-30,1.8509699999999999e-32
3393.0,3.3370200000000001e-29,1.14753e-24,1.1475e-24,1.14753e-24,-4.7295099999999998e-30,-4.12155e-30,2.62035e-30
3394.0,2.5268099999999999e-29,1.14752e-24,1.1475e-24,1.14752e-24,-3.1397100000000001e-30,-3.50628e-30,4.2837700000000002e-30
3395.0,2.01719e-29,1.1475e-24,1.14749e-24,1.1475100000000001e-24,-1.2638100000000001e-30,-3.3230999999999998e-30,6.1800599999999997e-30
3396.0,7.35572e-29,1.1475700000000001e-24,1.1475100000000001e-24,1.14758e-24,-1.6161800000000001e-29,-8.6685499999999996e-30,-8.2287900000000003e-30
3397.0,6.0535999999999998e-29,1.1475599999999999e-24,1.1475100000000001e-24,1.1475599999999999e-24,-1.1721499999999999e-29,-6.7561699999999993e-30,-4.6083499999999998e-30
3398.0,4.9062199999999999e-29,1.14755e-24,1.1475100000000001e-24,1.14755e-24,-7.9323400000000001e-30,-5.4792900000000001e-30,-1.51707e-30
3399.0,3.8979400000000002e-29,1.1475400000000001e-24,1.1475e-24,1.1475400000000001e-24,-5.1356200000000002e-30,-4.4861200000000002e-30,9.7789500000000008e-31
3400.0,3.0630299999999998e-29,1.14753e-24,1.1475e-24,1.14753e-24,-2.6935399999999999e-30,-3.8815600000000003e-30,3.1053100000000002e-30
3401.0,2.37662e-29,1.14752e-24,1.14749e-24,1.14752e-24,-1.1003000000000001e-30,-3.42927e-30,4.9489499999999999e-30
3402.0,1.8182000000000001e-29,1.1475100000000001e-24,1.14749e-24,1.1475100000000001e-24,-2.0907599999999999e-31,-2.9700599999999999e-30,6.1095899999999997e-30
3403.0,6.5268599999999996e-29,1.1475700000000001e-24,1.1475100000000001e-24,1.1475700000000001e-24,-1.3214500000000001e-29,-7.7092999999999996e-30,-5.7026000000000001e-30
3404.0,5.4135299999999996e-29,1.1475599999999999e-24,1.1475100000000001e-24,1.1475599999999999e-24,-9.1940400000000004e-30,-6.1075599999999998e-30,-2.7808900000000002e-30
3405.0,4.4215399999999998e-29,1.14755e-24,1.1475100000000001e-24,1.14755e-24,-5.8392899999999997e-30,-4.9295399999999997e-30,-3.5363299999999998e-31
3406.0,3.55934e-29,1.1475400000000001e-24,1.1475e-24,1.1475400000000001e-24,-2.9389399999999998e-30,-4.1919900000000002e-30,1.8470399999999999e-30
3407.0,2.8178999999999998e-29,1.14752e-24,1.1475e-24,1.14753e-24,-9.0621299999999998e-31,-3.53261e-30,3.5882700000000002e-30
3408.0,2.26109e-29,1.14752e-24,1.1475e-24,1.14752e-24,9.1911200000000004e-31,-3.1695899999999997e-30,5.1307900000000001e-30
3409.0,1.9100299999999999e-29,1.1475e-24,1.14749e-24,1.1475100000000001e-24,2.42639e-30,-2.9473299999999998e-30,6.6524499999999994e-30
3410.0,5.7680199999999998e-29,1.1475599999999999e-24,1.1475100000000001e-24,1.1475700000000001e-24,-1.0108800000000001e-29,-6.6490099999999998e-30,-3.6164400000000003e-30
3411.0,4.8635999999999999e-29,1.14755e-24,1.1475100000000001e-24,1.1475599999999999e-24,-6.6455300000000003e-30,-5.3559999999999999e-30,-1.3755100000000001e-30
3412.0,4.0190200000000002e-29,1.1475400000000001e-24,1.1475100000000001e-24,1.14755e-24,-3.5132500000000003e-30,-4.4324300000000002e-30,6.88361e-31
3413.0,3.27086e-29,1.14753e-24,1.1475e-24,1.14753e-24,-1.01893e-30,-3.6787000000000003e-30,2.39727e-30
3414.0,2.6768299999999999e-29,1.14752e-24,1.1475e-24,1.14753e-24,1.20771e-30,-3.2231099999999998e-30,4.0648000000000002e-30
3415.0,2.18226e-29,1.1475100000000001e-24,1.1475e-24,1.1475100000000001e-24,2.7513499999999998e-30,-2.74461e-30,5.3175300000000001e-30
3416.0,1.8488099999999999e-29,1.1475100000000001e-24,1.14749e-24,1.1475100000000001e-24,3.9081999999999997e-30,-2.5184599999999998e-30,6.2858300000000001e-30
3417.0,5.1812199999999995e-29,1.1475599999999999e-24,1.1475100000000001e-24,1.1475599999999999e-24,-7.1576100000000003e-30,-5.79224e-30,-2.0038399999999999e-30
3418.0,4.4373799999999998e-29,1.14755e-24,1.1475100000000001e-24,1.14755e-24,-4.2104600000000001e-30,-4.7380699999999998e-30,-2.7514899999999998e-31
3419.0,3.7253099999999999e-29,1.1475400000000001e-24,1.1475100000000001e-24,1.1475400000000001e-24,-1.46043e-30,-3.9306699999999998e-30,1.3830999999999999e-30
3420.0,3.1031999999999998e-29,1.14753e-24,1.1475e-24,1.14753e-24,1.0489600000000001e-30,-3.3476700000000002e-30,2.9751699999999999e-30
3421.0,2.5877400000000001e-29,1.14752e-24,1.1475e-24,1.14752e-24,3.0147699999999999e-30,-2.83052e-30,4.2539599999999999e-30
3422.0,2.2415300000000001e-29,1.1475100000000001e-24,1.1475e-24,1.14752e-24,4.6622800000000003e-30,-2.53125e-30,5.5273800000000003e-30
3423.0,2.0331599999999999e-29,1.1475e-24,1.14749e-24,1.1475e-24,5.9587700000000003e-30,-2.1100700000000002e-30,6.7187100000000002e-30
3424.0,4.7682599999999998e-29,1.14755e-24,1.1475100000000001e-24,1.1475599999999999e-24,-4.8956800000000002e-30,-5.0928600000000001e-30,-9.0578099999999997e-31
3425.0,4.1647000000000001e-29,1.14755e-24,1.1475100000000001e-24,1.14755e-24,-2.2537599999999999e-30,-4.2649900000000001e-30,4.6778899999999999e-31
3426.0,3.5457400000000001e-29,1.1475400000000001e-24,1.1475100000000001e-24,1.1475400000000001e-24,4.8506400000000002e-31,-3.5902099999999998e-30,1.9566099999999999e-30
3427.0,3.0254600000000002e-29,1.14753e-24,1.1475e-24,1.14753e-24,2.87943e-30,-2.99034e-30,3.3446600000000002e-30
3428.0,2.6202800000000002e-29,1.14752e-24,1.1475e-24,1.14752e-24,4.8782700000000001e-30,-2.5277100000000001e-30,4.6421300000000003e-30
3429.0,2.3102500000000001e-29,1.1475100000000001e-24,1.1475e-24,1.1475100000000001e-24,6.4120399999999993e-30,-2.1026699999999999e-30,5.6511599999999998e-30
3430.0,2.1263799999999999e-29,1.1475100000000001e-24,1.14749e-24,1.1475100000000001e-24,7.6394900000000004e-30,-1.9772700000000001e-30,6.3337500000000004e-30
3431.0,7.9997299999999997e-29,1.14758e-24,1.1475100000000001e-24,1.14758e-24,-1.7018299999999999e-29,-1.0115500000000001e-29,-1.20405e-29
3432.0,6.7308000000000003e-29,1.1475700000000001e-24,1.1475100000000001e-24,1.1475700000000001e-24,-1.33848e-29,-7.8547699999999997e-30,-6.8710599999999995e-30
3433.0,5.4343899999999996e-29,1.14755e-24,1.1475e-24,1.14755e-24,-1.00854e-29,-6.7840099999999994e-30,-2.9065000000000001e-30
3434.0,4.3304700000000002e-29,1.1475400000000001e-24,1.1475e-24,1.1475400000000001e-24,-7.9135000000000003e-30,-5.52612e-30,5.4466000000000001e-31
3435.0,3.5046100000000002e-29,1.14753e-24,1.1475e-24,1.14753e-24,-5.6795399999999997e-30,-4.9509100000000001e-30,3.6400900000000003e-30
3436.0,2.6842100000000002e-29,1.14752e-24,1.1475e-24,1.14752e-24,-4.8764999999999997e-30,-4.41402e-30,5.59626e-30
3437.0,2.2762300000000001e-29,1.1475e-24,1.14749e-24,1.1475100000000001e-24,-3.06273e-30,-3.8666999999999999e-30,7.4598900000000007e-30
3438.0,7.3577500000000003e-29,1.1475700000000001e-24,1.1475100000000001e-24,1.1475700000000001e-24,-1.5406200000000001e-29,-9.5091499999999997e-30,-8.8118600000000003e-30
3439.0,6.1367299999999997e-29,1.1475599999999999e-24,1.1475100000000001e-24,1.1475599999999999e-24,-1.18207e-29,-7.6982900000000001e-30,-5.0283499999999997e-30
3440.0,5.0288899999999999e-29,1.14755e-24,1.1475e-24,1.14755e-24,-8.6215299999999998e-30,-6.4266099999999994e-30,-1.43628e-30
3441.0,4.0352500000000001e-29,1.1475400000000001e-24,1.1475e-24,1.1475400000000001e-24,-6.1696399999999998e-30,-5.51185e-30,1.5946799999999999e-30
3442.0,3.1980600000000002e-29,1.14753e-24,1.1475e-24,1.14753e-24,-4.1521399999999998e-30,-4.7561499999999999e-30,4.0074400000000001e-30
3443.0,2.6046799999999997e-29,1.1475100000000001e-24,1.14749e-24,1.14752e-24,-2.6495100000000002e-30,-4.3318900000000003e-30,6.2469499999999999e-30
3444.0,2.1028700000000001e-29,1.1475100000000001e-24,1.14749e-24,1.1475100000000001e-24,-2.08468e-30,-3.9632399999999997e-30,7.7810799999999998e-30
3445.0,6.6541799999999999e-29,1.1475700000000001e-24,1.1475100000000001e-24,1.1475700000000001e-24,-1.3390300000000001e-29,-8.8083199999999996e-30,-6.4357e-30
3446.0,5.6048300000000003e-29,1.1475599999999999e-24,1.1475100000000001e-24,1.1475599999999999e-24,-9.8780900000000005e-30,-7.2545799999999997e-30,-3.0975799999999999e-30
3447.0,4.6047000000000001e-29,1.14755e-24,1.1475e-24,1.14755e-24,-6.9264799999999993e-30,-6.0505900000000001e-30,-2.0757999999999998e-31
3448.0,3.7292299999999997e-29,1.1475400000000001e-24,1.1475e-24,1.1475400000000001e-24,-4.24521e-30,-5.2392599999999997e-30,2.42489e-30
3449.0,3.00288e-29,1.14752e-24,1.1475e-24,1.14753e-24,-2.43167e-30,-4.6068499999999998e-30,4.6891500000000002e-30
3450.0,2.43024e-29,1.14752e-24,1.1475e-24,1.14752e-24,-8.1158299999999997e-31,-4.1011399999999998e-30,6.4154600000000004e-30
3451.0,2.09377e-29,1.1475e-24,1.14749e-24,1.1475e-24,6.1296899999999998e-31,-3.8454299999999998e-30,8.1162400000000001e-30
3452.0,5.98907e-29,1.1475599999999999e-24,1.1475100000000001e-24,1.1475700000000001e-24,-1.09369e-29,-7.9847799999999998e-30,-4.2349100000000003e-30
3453.0,5.0875799999999999e-29,1.14755e-24,1.1475100000000001e-24,1.1475599999999999e-24,-7.8188800000000003e-30,-6.5454900000000005e-30,-1.57175e-30
3454.0,4.2194700000000002e-29,1.1475400000000001e-24,1.1475100000000001e-24,1.14755e-24,-4.84843e-30,-5.5901700000000002e-30,9.16477e-31
3455.0,3.4400199999999999e-29,1.14753e-24,1.1475e-24,1.14753e-24,-2.5179900000000001e-30,-4.7882299999999998e-30,3.1204699999999999e-30
3456.0,2.82807e-29,1.14752e-24,1.1475e-24,1.14753e-24,-3.8735300000000001e-31,-4.2338499999999998e-30,5.0874600000000002e-30
3457.0,2.34254e-29,1.1475100000000001e-24,1.14749e-24,1.1475100000000001e-24,9.7647799999999997e-31,-3.7820800000000002e-30,6.7554499999999995e-30
3458.0,2.0102599999999999e-29,1.1475100000000001e-24,1.14749e-24,1.1475100000000001e-24,1.8962500000000001e-30,-3.4736600000000003e-30,8.0414700000000006e-30
3459.0,5.3961200000000004e-29,1.1475599999999999e-24,1.1475100000000001e-24,1.1475599999999999e-24,-8.4094200000000006e-30,-7.0811100000000003e-30,-2.3948599999999999e-30
3460.0,4.6250699999999998e-29,1.14755e-24,1.1475100000000001e-24,1.14755e-24,-5.5390200000000001e-30,-5.9236799999999997e-30,-2.5483099999999998e-31
3461.0,3.8777000000000001e-29,1.1475400000000001e-24,1.1475e-24,1.1475400000000001e-24,-2.9195399999999999e-30,-5.0329100000000003e-30,1.75474e-30
3462.0,3.22926e-29,1.14753e-24,1.1475e-24,1.14753e-24,-4.9429599999999999e-31,-4.40966e-30,3.7349500000000001e-30
3463.0,2.67747e-29,1.14752e-24,1.1475e-24,1.14752e-24,1.2811699999999999e-30,-3.8324200000000002e-30,5.3624500000000003e-30
3464.0,2.32659e-29,1.1475100000000001e-24,1.1475e-24,1.1475100000000001e-24,2.9149e-30,-3.4982000000000001e-30,6.8515300000000005e-30
3465.0,2.1107399999999999e-29,1.1475e-24,1.14749e-24,1.1475e-24,4.1984399999999999e-30,-3.1293200000000001e-30,8.2447400000000002e-30
3466.0,4.8984300000000001e-29,1.14755e-24,1.1475100000000001e-24,1.1475599999999999e-24,-5.9935200000000002e-30,-6.2161500000000003e-30,-1.04491e-30
3467.0,4.2828800000000001e-29,1.14755e-24,1.1475100000000001e-24,1.14755e-24,-3.5021599999999997e-30,-5.2953900000000001e-30,6.9780899999999998e-31
3468.0,3.6473599999999998e-29,1.1475400000000001e-24,1.1475100000000001e-24,1.1475400000000001e-24,-1.00028e-30,-4.5674099999999998e-30,2.4602399999999998e-30
3469.0,3.0796699999999998e-29,1.14753e-24,1.1475e-24,1.14753e-24,1.17925e-30,-3.9286799999999997e-30,4.0967399999999999e-30
3470.0,2.6576699999999997e-29,1.14752e-24,1.1475e-24,1.14752e-24,3.1382900000000001e-30,-3.4572300000000002e-30,5.6775800000000002e-30
3471.0,2.3086200000000001e-29,1.1475100000000001e-24,1.1475e-24,1.1475100000000001e-24,4.5014200000000001e-30,-2.99034e-30,6.8906499999999997e-30
3472.0,2.1070399999999999e-29,1.1475100000000001e-24,1.14749e-24,1.1475100000000001e-24,5.5873799999999999e-30,-2.8293100000000001e-30,7.8791399999999995e-30
3473.0,4.58976e-29,1.14755e-24,1.1475100000000001e-24,1.1475599999999999e-24,-4.0835700000000003e-30,-5.6155000000000002e-30,-5.9741799999999995e-32
3474.0,4.0537100000000001e-29,1.14755e-24,1.1475100000000001e-24,1.14755e-24,-1.78116e-30,-4.8930100000000002e-30,1.35392e-30
3475.0,3.4953999999999999e-29,1.1475400000000001e-24,1.1475e-24,1.1475400000000001e-24,6.2750599999999996e-31,-4.2013700000000002e-30,2.9523499999999999e-30
3476.0,3.0353999999999998e-29,1.14753e-24,1.1475e-24,1.14753e-24,2.8909600000000002e-30,-3.6070400000000003e-30,4.5045299999999997e-30
3477.0,2.64203e-29,1.14752e-24,1.1475e-24,1.14752e-24,4.6580199999999998e-30,-3.1049900000000001e-30,5.79039e-30
3478.0,2.4240600000000001e-29,1.1475100000000001e-24,1.1475e-24,1.1475100000000001e-24,6.1685200000000002e-30,-2.7879400000000001e-30,7.0863099999999996e-30
3479.0,2.29491e-29,1.1475e-24,1.14749e-24,1.1475e-24,7.2071099999999996e-30,-2.22883e-30,8.29446e-30
3480.0,7.2960600000000005e-29,1.1475700000000001e-24,1.1475100000000001e-24,1.1475700000000001e-24,-1.4542199999999999e-29,-9.6516799999999994e-30,-9.0471900000000006e-30
3481.0,6.16787e-29,1.1475599999999999e-24,1.1475e-24,1.1475599999999999e-24,-1.16228e-29,-8.6318399999999995e-30,-5.3331799999999999e-30
3482.0,5.0681900000000003e-29,1.14755e-24,1.1475e-24,1.14755e-24,-9.2162099999999996e-30,-7.1995399999999997e-30,-1.2414900000000001e-30
3483.0,4.1691899999999999e-29,1.1475400000000001e-24,1.1475e-24,1.1475400000000001e-24,-6.7942800000000006e-30,-6.4145200000000002e-30,2.3267700000000002e-30
3484.0,3.3235e-29,1.14753e-24,1.1475e-24,1.14753e-24,-5.5542700000000001e-30,-5.7239000000000002e-30,5.0313e-30
3485.0,2.8502199999999999e-29,1.1475100000000001e-24,1.14749e-24,1.1475100000000001e-24,-4.02272e-30,-5.1236299999999998e-30,7.5271500000000001e-30
3486.0,2.4053799999999999e-29,1.1475100000000001e-24,1.14749e-24,1.1475100000000001e-24,-3.8705599999999999e-30,-4.9805600000000003e-30,9.3348700000000002e-30
3487.0,6.7076100000000003e-29,1.1475700000000001e-24,1.1475100000000001e-24,1.1475700000000001e-24,-1.3192099999999999e-29,-9.5289899999999995e-30,-7.0867799999999997e-30
3488.0,5.7430899999999995e-29,1.1475599999999999e-24,1.1475100000000001e-24,1.1475599999999999e-24,-1.03097e-29,-8.2198899999999996e-30,-3.4152299999999997e-30
3489.0,4.7557899999999999e-29,1.14755e-24,1.1475e-24,1.14755e-24,-7.6921900000000003e-30,-7.1703300000000005e-30,-1.28377e-32
3490.0,3.88971e-29,1.1475400000000001e-24,1.1475e-24,1.1475400000000001e-24,-5.3829800000000001e-30,-6.2484599999999999e-30,3.03563e-30
3491.0,3.2179300000000001e-29,1.14752e-24,1.1475e-24,1.14752e-24,-3.6791e-30,-5.65011e-30,5.7217100000000002e-30
3492.0,2.64892e-29,1.14752e-24,1.1475e-24,1.14752e-24,-2.4384999999999999e-30,-5.1068499999999998e-30,7.7620899999999999e-30
3493.0,2.33947e-29,1.1475e-24,1.14749e-24,1.1475e-24,-1.1499999999999999e-30,-4.7249499999999999e-30,9.53912e-30
3494.0,6.1538599999999995e-29,1.1475599999999999e-24,1.1475100000000001e-24,1.1475700000000001e-24,-1.1391299999999999e-29,-8.9475999999999996e-30,-4.8106200000000002e-30
3495.0,5.2873500000000004e-29,1.1475599999999999e-24,1.1475100000000001e-24,1.1475599999999999e-24,-8.7250500000000005e-30,-7.7104699999999997e-30,-1.9153399999999999e-30
3496.0,4.4152199999999999e-29,1.14755e-24,1.1475e-24,1.14755e-24,-5.9537199999999997e-30,-6.7374799999999996e-30,1.11425e-30
3497.0,3.6477699999999999e-29,1.14753e-24,1.1475e-24,1.14753e-24,-3.7676300000000003e-30,-5.9534999999999999e-30,3.8475200000000002e-30
3498.0,3.0139199999999999e-29,1.14753e-24,1.1475e-24,1.14753e-24,-1.8399400000000001e-30,-5.2639700000000003e-30,6.0961399999999998e-30
3499.0,2.5762800000000001e-29,1.1475100000000001e-24,1.14749e-24,1.1475100000000001e-24,-5.4583099999999997e-31,-4.8382900000000003e-30,8.1601099999999998e-30
3500.0,2.2757299999999999e-29,1.1475100000000001e-24,1.14749e-24,1.1475100000000001e-24,1.2988900000000001e-31,-4.5087700000000002e-30,9.7364000000000001e-30
3501.0,5.6172800000000001e-29,1.1475599999999999e-24,1.1475100000000001e-24,1.1475599999999999e-24,-9.3095499999999994e-30,-8.1814700000000003e-30,-2.9789800000000001e-30
3502.0,4.8593500000000002e-29,1.14755e-24,1.1475100000000001e-24,1.14755e-24,-6.7342400000000005e-30,-7.2197399999999994e-30,-4.4605899999999999e-31
3503.0,4.0830500000000001e-29,1.1475400000000001e-24,1.1475e-24,1.1475400000000001e-24,-4.1744000000000001e-30,-6.2864499999999997e-30,2.0791400000000001e-30
3504.0,3.4128100000000002e-29,1.14753e-24,1.1475e-24,1.14753e-24,-1.85986e-30,-5.5613699999999999e-30,4.4490600000000001e-30
3505.0,2.8781899999999998e-29,1.14752e-24,1.1475e-24,1.14752e-24,-1.5412699999999999e-31,-5.0110199999999999e-30,6.5355100000000001e-30
3506.0,2.4922199999999999e-29,1.1475100000000001e-24,1.1475e-24,1.1475100000000001e-24,1.32842e-30,-4.5395699999999998e-30,8.2249899999999993e-30
3507.0,2.2870000000000001e-29,1.1475e-24,1.14749e-24,1.1475e-24,2.56254e-30,-4.2392399999999997e-30,9.7698800000000005e-30
3508.0,5.1179999999999998e-29,1.1475599999999999e-24,1.1475100000000001e-24,1.1475599999999999e-24,-7.1045100000000007e-30,-7.3972599999999994e-30,-1.3856700000000001e-30
3509.0,4.47244e-29,1.14755e-24,1.1475100000000001e-24,1.14755e-24,-4.7597299999999997e-30,-6.4701400000000005e-30,6.9471900000000001e-31
3510.0,3.8081800000000001e-29,1.1475400000000001e-24,1.1475e-24,1.1475400000000001e-24,-2.3001699999999998e-30,-5.7332900000000002e-30,2.8893800000000001e-30
3511.0,3.2280399999999998e-29,1.14753e-24,1.1475e-24,1.14753e-24,-1.7351699999999999e-31,-5.0598799999999998e-30,4.9094700000000001e-30
3512.0,2.7867100000000001e-29,1.14752e-24,1.1475e-24,1.14752e-24,1.70197e-30,-4.5368699999999999e-30,6.7500499999999997e-30
3513.0,2.45833e-29,1.1475100000000001e-24,1.14749e-24,1.1475100000000001e-24,2.9822899999999999e-30,-4.1029999999999997e-30,8.3334799999999996e-30
3514.0,2.26292e-29,1.1475100000000001e-24,1.14749e-24,1.1475e-24,3.8122900000000001e-30,-3.8248700000000002e-30,9.62285e-30
3515.0,4.7339300000000001e-29,1.14755e-24,1.1475100000000001e-24,1.1475599999999999e-24,-5.0397499999999998e-30,-6.5965599999999995e-30,-1.0609e-31
3516.0,4.1666000000000003e-29,1.14755e-24,1.1475100000000001e-24,1.14755e-24,-2.9506699999999999e-30,-5.8821100000000002e-30,1.5330700000000001e-30
3517.0,3.6134400000000002e-29,1.1475400000000001e-24,1.1475e-24,1.1475400000000001e-24,-5.9275800000000001e-31,-5.1870899999999997e-30,3.4139600000000001e-30
3518.0,3.1228900000000001e-29,1.14753e-24,1.1475e-24,1.14753e-24,1.51002e-30,-4.5644700000000002e-30,5.2359700000000002e-30
3519.0,2.7167099999999998e-29,1.14752e-24,1.1475e-24,1.14752e-24,3.1880499999999997e-30,-4.0554200000000001e-30,6.8151000000000006e-30
3520.0,2.4880200000000001e-29,1.1475100000000001e-24,1.1475e-24,1.1475100000000001e-24,4.6763900000000002e-30,-3.6636400000000001e-30,8.26258e-30
3521.0,2.3556999999999999e-29,1.1475e-24,1.14749e-24,1.1475e-24,5.8285600000000003e-30,-3.2441200000000003e-30,9.5443800000000004e-30
3522.0,4.4368699999999998e-29,1.14755e-24,1.1475100000000001e-24,1.14755e-24,-3.6515300000000002e-30,-6.0138400000000002e-30,4.88983e-31
3523.0,4.00395e-29,1.1475400000000001e-24,1.1475100000000001e-24,1.14755e-24,-1.41739e-30,-5.4446800000000002e-30,2.1605499999999999e-30
3524.0,3.4990399999999998e-29,1.1475400000000001e-24,1.1475e-24,1.1475400000000001e-24,7.5696799999999997e-31,-4.72223e-30,3.8051499999999998e-30
3525.0,3.0484700000000001e-29,1.14753e-24,1.1475e-24,1.14753e-24,2.7932200000000002e-30,-4.1562400000000002e-30,5.3602600000000003e-30
3526.0,2.7370999999999997e-29,1.14752e-24,1.1475e-24,1.14752e-24,4.6139099999999998e-30,-3.6713999999999999e-30,6.9753799999999997e-30
3527.0,2.48744e-29,1.1475100000000001e-24,1.1475e-24,1.1475100000000001e-24,5.8830199999999999e-30,-3.1555700000000001e-30,8.1579700000000003e-30
3528.0,2.3533800000000001e-29,1.1475100000000001e-24,1.14749e-24,1.1475e-24,6.8524499999999994e-30,-3.07312e-30,9.1197599999999995e-30
3529.0,2.2675400000000001e-29,1.1475e-24,1.14749e-24,1.1475100000000001e-24,1.05468e-29,4.1346299999999997e-31,-2.5821400000000002e-31
3530.0,2.5558099999999999e-29,1.1475100000000001e-24,1.14749e-24,1.1475100000000001e-24,1.2664700000000001e-29,2.7988199999999998e-31,-4.9377500000000002e-31
3531.0,2.4268099999999999e-29,1.1475100000000001e-24,1.1475e-24,1.14752e-24,9.2841199999999998e-30,-1.4261700000000001e-32,-6.5166200000000002e-31
3532.0,2.7756600000000001e-29,1.1475100000000001e-24,1.1475e-24,1.14752e-24,1.15523e-29,6.4885200000000001e-31,-5.4381599999999998e-31
3533.0,2.8669900000000001e-29,1.14752e-24,1.1475e-24,1.14753e-24,7.6005399999999998e-30,1.11062e-31,-9.6264700000000006e-31
3534.0,2.9533599999999999e-29,1.14752e-24,1.1475e-24,1.14753e-24,9.4193300000000006e-30,1.8567900000000001e-31,-7.4217600000000001e-31
3535.0,3.17644e-29,1.14753e-24,1.1475100000000001e-24,1.1475400000000001e-24,4.87241e-30,-2.3666299999999999e-31,-1.3183299999999999e-30
3536.0,3.4013799999999998e-29,1.14753e-24,1.1475e-24,1.1475400000000001e-24,7.3662999999999998e-30,1.8961000000000001e-31,-1.1704299999999999e-30
3537.0,3.8744799999999998e-29,1.1475400000000001e-24,1.1475100000000001e-24,1.14755e-24,1.8208200000000001e-30,-4.6003900000000003e-31,-1.8096600000000001e-30
3538.0,3.7591999999999997e-29,1.1475400000000001e-24,1.1475100000000001e-24,1.14755e-24,3.2135699999999997e-30,-3.1205599999999999e-31,-1.4512e-30
3539.0,4.4554399999999998e-29,1.14755e-24,1.1475100000000001e-24,1.1475599999999999e-24,-2.23586e-30,-8.1526400000000005e-31,-2.34166e-30
3540.0,4.5826000000000002e-29,1.14755e-24,1.1475100000000001e-24,1.1475599999999999e-24,-4.1332900000000004e-31,-6.9720300000000002e-31,-2.2219599999999999e-30
3541.0,5.3633000000000004e-29,1.1475599999999999e-24,1.1475100000000001e-24,1.1475700000000001e-24,-6.4597000000000007e-30,-1.41216e-30,-2.9132900000000001e-30
3542.0,5.2801599999999998e-29,1.1475599999999999e-24,1.14752e-24,1.14758e-24,-6.2152699999999998e-30,-1.3122099999999999e-30,-2.7498700000000001e-30
3543.0,2.2260399999999999e-29,1.1475100000000001e-24,1.14749e-24,1.1475100000000001e-24,1.0497999999999999e-29,-2.8905699999999999e-31,1.3156600000000001e-30
3544.0,2.5436699999999999e-29,1.1475e-24,1.14749e-24,1.1475100000000001e-24,1.23711e-29,3.5872199999999998e-31,1.9189000000000001e-30
3545.0,2.4587e-29,1.1475100000000001e-24,1.1475e-24,1.14752e-24,9.1738100000000001e-30,-2.6762000000000001e-31,1.14957e-30
3546.0,2.7167099999999998e-29,1.1475100000000001e-24,1.1475e-24,1.14752e-24,1.1266799999999999e-29,-2.74796e-32,1.3778999999999999e-30
3547.0,2.7369100000000001e-29,1.14752e-24,1.1475e-24,1.14753e-24,7.2914500000000006e-30,-5.3839699999999996e-31,6.0147899999999997e-31
3548.0,2.9944000000000001e-29,1.14752e-24,1.1475e-24,1.14753e-24,9.62351e-30,-2.11242e-31,9.1748900000000005e-31
3549.0,3.2068599999999999e-29,1.14753e-24,1.1475e-24,1.1475400000000001e-24,4.94976e-30,-8.6354099999999996e-31,-2.45653e-33
3550.0,3.3024900000000001e-29,1.14753e-24,1.1475100000000001e-24,1.1475400000000001e-24,6.8593399999999994e-30,-5.8829799999999997e-31,3.3270400000000001e-31
3551.0,3.74048e-29,1.1475400000000001e-24,1.1475100000000001e-24,1.14755e-24,1.7629799999999999e-30,-1.25149e-30,-7.5690400000000001e-31
3552.0,3.82458e-29,1.1475400000000001e-24,1.1475100000000001e-24,1.14755e-24,3.80327e-30,-1.12137e-30,-4.0522899999999997e-31
3553.0,4.4451700000000002e-29,1.14755e-24,1.1475100000000001e-24,1.1475599999999999e-24,-1.8849800000000002e-30,-1.87353e-30,-1.61875e-30
3554.0,4.4107400000000001e-29,1.14755e-24,1.1475100000000001e-24,1.1475599999999999e-24,-6.16191e-31,-1.768e-30,-1.2842400000000001e-30
3555.0,5.1503099999999998e-29,1.1475599999999999e-24,1.1475100000000001e-24,1.1475700000000001e-24,-5.8175799999999999e-30,-2.4787599999999999e-30,-2.4958400000000001e-30
3556.0,5.3287699999999998e-29,1.1475599999999999e-24,1.14752e-24,1.1475700000000001e-24,-5.4110000000000001e-30,-2.6639999999999999e-30,-2.41766e-30
3557.0,2.2511300000000001e-29,1.1475e-24,1.14749e-24,1.1475100000000001e-24,1.0090599999999999e-29,-4.5257700000000003e-31,3.6302300000000002e-30
3558.0,2.5459300000000003e-29,1.1475100000000001e-24,1.14749e-24,1.1475100000000001e-24,1.21426e-29,-2.33049e-31,3.50981e-30
3559.0,2.43098e-29,1.1475100000000001e-24,1.1475e-24,1.14752e-24,8.9132099999999995e-30,-7.8084900000000004e-31,2.8127599999999998e-30
3560.0,2.7274299999999999e-29,1.1475100000000001e-24,1.1475e-24,1.1475100000000001e-24,1.10364e-29,-3.9504700000000003e-31,3.20812e-30
3561.0,2.7472900000000002e-29,1.14752e-24,1.1475e-24,1.14752e-24,7.2421700000000004e-30,-1.0994099999999999e-30,2.1532800000000001e-30
3562.0,2.9481699999999999e-29,1.14752e-24,1.1475e-24,1.14753e-24,9.21947e-30,-7.4948099999999999e-31,2.5255099999999998e-30
3563.0,3.1327299999999999e-29,1.14753e-24,1.1475e-24,1.1475400000000001e-24,4.8390599999999998e-30,-1.4747499999999999e-30,1.2838099999999999e-30
3564.0,3.2971400000000002e-29,1.14753e-24,1.1475e-24,1.1475400000000001e-24,6.9494299999999995e-30,-1.2849500000000001e-30,1.7492299999999999e-30
3565.0,3.6826799999999998e-29,1.1475400000000001e-24,1.1475100000000001e-24,1.14755e-24,1.9692799999999999e-30,-2.0661899999999998e-30,3.19375e-31
3566.0,3.7385299999999999e-29,1.1475400000000001e-24,1.1475100000000001e-24,1.14755e-24,3.6892299999999997e-30,-1.8711600000000001e-30,7.0723400000000003e-31
3567.0,4.3176699999999999e-29,1.14755e-24,1.1475100000000001e-24,1.1475599999999999e-24,-1.519e-30,-2.70819e-30,-8.38951e-31
3568.0,4.37877e-29,1.14755e-24,1.1475100000000001e-24,1.1475599999999999e-24,-1.1691799999999999e-31,-2.7636900000000002e-30,-4.28104e-31
3569.0,5.0253499999999998e-29,1.1475599999999999e-24,1.1475100000000001e-24,1.1475700000000001e-24,-5.1481900000000003e-30,-3.4964199999999998e-30,-1.96027e-30
3570.0,5.1570400000000005e-29,1.1475599999999999e-24,1.1475100000000001e-24,1.1475700000000001e-24,-4.8116500000000001e-30,-3.8029899999999997e-30,-1.9235599999999999e-30
3571.0,2.2793199999999999e-29,1.1475100000000001e-24,1.14749e-24,1.1475100000000001e-24,9.8533399999999995e-30,-1.0557900000000001e-30,4.9536399999999999e-30
3572.0,2.5639900000000002e-29,1.1475e-24,1.14749e-24,1.1475e-24,1.14572e-29,-5.4737900000000001e-31,5.7611200000000003e-30
3573.0,2.4602700000000001e-29,1.1475100000000001e-24,1.1475e-24,1.1475100000000001e-24,8.6062599999999998e-30,-1.2703399999999999e-30,4.5041899999999997e-30
3574.0,2.7149900000000003e-29,1.1475100000000001e-24,1.1475e-24,1.1475100000000001e-24,1.04912e-29,-8.7381599999999997e-31,4.88482e-30
3575.0,2.7144299999999998e-29,1.14752e-24,1.1475e-24,1.14752e-24,6.9240599999999996e-30,-1.60365e-30,3.59554e-30
3576.0,2.9428400000000002e-29,1.14752e-24,1.1475e-24,1.14752e-24,8.9643900000000002e-30,-1.36798e-30,4.1068399999999998e-30
3577.0,3.1074000000000002e-29,1.14753e-24,1.1475e-24,1.14753e-24,4.8191199999999997e-30,-2.1356399999999999e-30,2.60887e-30
3578.0,3.2534499999999997e-29,1.14753e-24,1.1475e-24,1.14753e-24,6.6529500000000001e-30,-1.8901900000000001e-30,3.0260899999999999e-30
3579.0,3.5988599999999997e-29,1.1475400000000001e-24,1.1475100000000001e-24,1.1475400000000001e-24,2.06389e-30,-2.71708e-30,1.36316e-30
3580.0,3.7000400000000001e-29,1.1475400000000001e-24,1.1475100000000001e-24,1.1475400000000001e-24,3.80361e-30,-2.6458200000000002e-30,1.89684e-30
3581.0,4.20623e-29,1.14755e-24,1.1475100000000001e-24,1.14755e-24,-1.11881e-30,-3.4963000000000003e-30,7.5721400000000005e-32
3582.0,4.26885e-29,1.14755e-24,1.1475100000000001e-24,1.1475599999999999e-24,1.9977400000000001e-31,-3.5595900000000002e-30,3.65468e-31
3583.0,4.8469999999999998e-29,1.14755e-24,1.1475100000000001e-24,1.1475599999999999e-24,-4.3812400000000002e-30,-4.33532e-30,-1.30448e-30
3584.0,5.0024700000000001e-29,1.1475599999999999e-24,1.1475100000000001e-24,1.1475700000000001e-24,-4.0366699999999999e-30,-4.6919499999999997e-30,-1.17444e-30
3585.0,2.35864e-29,1.1475e-24,1.14749e-24,1.1475e-24,9.1377299999999995e-30,-1.41577e-30,7.0857900000000004e-30
3586.0,2.5932899999999998e-29,1.1475100000000001e-24,1.14749e-24,1.1475e-24,1.09452e-29,-1.0744600000000001e-30,7.0946200000000006e-30
3587.0,2.4833800000000001e-29,1.1475100000000001e-24,1.1475e-24,1.1475100000000001e-24,8.1238499999999999e-30,-1.8365499999999999e-30,5.9829099999999997e-30
3588.0,2.741e-29,1.1475100000000001e-24,1.1475e-24,1.1475100000000001e-24,9.9370899999999994e-30,-1.49395e-30,6.5716700000000004e-30
3589.0,2.7281900000000001e-29,1.14752e-24,1.1475e-24,1.14752e-24,6.6417700000000006e-30,-2.26682e-30,4.9951800000000002e-30
3590.0,2.9252400000000002e-29,1.14752e-24,1.1475e-24,1.14752e-24,8.39765e-30,-1.9118300000000002e-30,5.5228099999999998e-30
3591.0,3.0715600000000002e-29,1.14753e-24,1.1475e-24,1.14753e-24,4.6015600000000002e-30,-2.7183900000000002e-30,3.7738800000000001e-30
3592.0,3.2256499999999998e-29,1.14753e-24,1.1475e-24,1.14753e-24,6.4009500000000001e-30,-2.57379e-30,4.3963200000000003e-30
3593.0,3.53154e-29,1.1475400000000001e-24,1.1475100000000001e-24,1.1475400000000001e-24,2.16598e-30,-3.4134600000000001e-30,2.5115200000000001e-30
3594.0,3.6311799999999999e-29,1.1475400000000001e-24,1.1475100000000001e-24,1.1475400000000001e-24,3.7098399999999999e-30,-3.3282000000000002e-30,2.8828200000000002e-30
3595.0,4.0849699999999999e-29,1.14755e-24,1.1475100000000001e-24,1.14755e-24,-7.3741799999999998e-31,-4.1955799999999999e-30,9.2411400000000006e-31
3596.0,4.1699099999999997e-29,1.14755e-24,1.1475100000000001e-24,1.14755e-24,4.7037600000000003e-31,-4.2922900000000003e-30,1.4291099999999999e-30
3597.0,4.6766100000000001e-29,1.14755e-24,1.1475100000000001e-24,1.1475599999999999e-24,-3.6812300000000002e-30,-5.0462100000000001e-30,-4.1747800000000002e-31
3598.0,4.83557e-29,1.1475599999999999e-24,1.1475100000000001e-24,1.1475599999999999e-24,-3.2501700000000003e-30,-5.5112700000000003e-30,-4.8827400000000001e-31
3599.0,2.4187199999999999e-29,1.1475100000000001e-24,1.14749e-24,1.1475e-24,8.7744900000000001e-30,-2.25172e-30,8.0872199999999994e-30
3600.0,2.6535199999999998e-29,1.1475e-24,1.14749e-24,1.1475e-24,9.8572900000000005e-30,-1.8149300000000002e-30,9.0530899999999998e-30
3601.0,2.5481900000000001e-29,1.1475100000000001e-24,1.1475e-24,1.1475100000000001e-24,7.6370200000000002e-30,-2.43948e-30,7.4167199999999995e-30
3602.0,2.7518000000000003e-29,1.1475100000000001e-24,1.1475e-24,1.1475100000000001e-24,9.1186700000000006e-30,-2.08988e-30,7.9295199999999993e-30
3603.0,2.7496300000000002e-29,1.14752e-24,1.1475e-24,1.14752e-24,6.1650899999999999e-30,-2.8416300000000002e-30,6.2384900000000002e-30
3604.0,2.95354e-29,1.14752e-24,1.1475e-24,1.14752e-24,7.8326499999999995e-30,-2.6410199999999999e-30,6.9171800000000003e-30
3605.0,3.0731699999999998e-29,1.14753e-24,1.1475e-24,1.14753e-24,4.3536899999999997e-30,-3.4161600000000001e-30,4.9359700000000001e-30
3606.0,3.2060400000000003e-29,1.14753e-24,1.1475e-24,1.14753e-24,5.9048000000000001e-30,-3.2758800000000001e-30,5.4785500000000003e-30
3607.0,3.5025199999999999e-29,1.1475400000000001e-24,1.1475100000000001e-24,1.1475400000000001e-24,2.0929499999999998e-30,-4.03413e-30,3.3784100000000001e-30
3608.0,3.5969600000000001e-29,1.1475400000000001e-24,1.1475100000000001e-24,1.1475400000000001e-24,3.4734800000000003e-30,-4.0595299999999998e-30,4.0199800000000003e-30
3609.0,4.0050799999999999e-29,1.14755e-24,1.1475100000000001e-24,1.14755e-24,-5.1051699999999999e-31,-4.8361500000000001e-30,1.9077099999999998e-30
3610.0,4.0922800000000001e-29,1.14755e-24,1.1475100000000001e-24,1.14755e-24,6.0479300000000002e-31,-5.0469699999999998e-30,2.1568900000000001e-30
3611.0,4.51637e-29,1.14755e-24,1.1475100000000001e-24,1.1475599999999999e-24,-3.0017100000000001e-30,-5.6975400000000002e-30,3.1466999999999999e-31
3612.0,4.6770700000000002e-29,1.14755e-24,1.1475100000000001e-24,1.1475599999999999e-24,-2.7182999999999998e-30,-6.1130799999999998e-30,4.2227899999999998e-31
3613.0,2.5285900000000001e-29,1.1475e-24,1.14749e-24,1.1475e-24,7.8370299999999995e-30,-2.4352999999999999e-30,9.8325399999999995e-30
3614.0,2.6842100000000002e-29,1.1475100000000001e-24,1.14749e-24,1.1475e-24,9.1965199999999999e-30,-2.5597399999999998e-30,9.9911700000000006e-30
3615.0,2.62095e-29,1.1475100000000001e-24,1.1475e-24,1.1475100000000001e-24,7.1082500000000005e-30,-3.0489899999999999e-30,8.5098000000000004e-30
3616.0,2.8170499999999998e-29,1.1475100000000001e-24,1.14749e-24,1.1475100000000001e-24,8.2185899999999994e-30,-2.9442099999999999e-30,9.2882399999999994e-30
3617.0,2.8029299999999999e-29,1.14752e-24,1.1475e-24,1.14752e-24,5.7853999999999998e-30,-3.5130499999999997e-30,7.2521999999999998e-30
3618.0,2.9711000000000001e-29,1.14752e-24,1.1475e-24,1.14752e-24,6.9236999999999997e-30,-3.4248400000000003e-30,7.9476800000000005e-30
3619.0,3.09587e-29,1.14753e-24,1.1475e-24,1.14753e-24,4.0134900000000001e-30,-4.0083e-30,5.7610599999999998e-30
3620.0,3.24219e-29,1.14753e-24,1.1475e-24,1.14753e-24,5.1566699999999999e-30,-4.0780400000000003e-30,6.5471799999999997e-30
3621.0,3.5015200000000001e-29,1.1475400000000001e-24,1.1475e-24,1.1475400000000001e-24,1.8815999999999999e-30,-4.6973400000000003e-30,4.22441e-30
3622.0,3.6023499999999999e-29,1.1475400000000001e-24,1.1475100000000001e-24,1.1475400000000001e-24,2.9567099999999999e-30,-4.86588e-30,4.7003500000000003e-30
3623.0,3.9759599999999998e-29,1.1475400000000001e-24,1.1475100000000001e-24,1.14755e-24,-4.6632300000000003e-31,-5.40295e-30,2.3829100000000001e-30
3624.0,4.05826e-29,1.14755e-24,1.1475100000000001e-24,1.14755e-24,2.5626700000000002e-31,-5.7857800000000003e-30,2.96129e-30
3625.0,4.4259700000000002e-29,1.14755e-24,1.1475100000000001e-24,1.14755e-24,-2.6845100000000001e-30,-6.0344500000000003e-30,1.15053e-30
3626.0,4.5601099999999998e-29,1.14755e-24,1.1475100000000001e-24,1.1475599999999999e-24,-2.3722299999999999e-30,-6.8441999999999996e-30,9.1534599999999996e-31
3627.0,6.6455600000000003e-29,1.1475700000000001e-24,1.14752e-24,1.1475899999999999e-24,-1.26429e-29,-2.404e-30,-3.9503500000000003e-30
3628.0,7.9096500000000003e-29,1.14758e-24,1.14752e-24,1.1476000000000001e-24,-2.0312299999999999e-29,-3.29922e-30,-5.6676700000000003e-30
3629.0,9.9473000000000003e-29,1.1475899999999999e-24,1.14752e-24,1.1476199999999999e-24,-3.0433000000000002e-29,-5.2753199999999998e-30,-7.7489300000000002e-30
3630.0,1.2324599999999999e-28,1.1476000000000001e-24,1.14752e-24,1.14763e-24,-4.1933700000000001e-29,-7.3079500000000003e-30,-1.13341e-29
3631.0,1.5528099999999999e-28,1.14761e-24,1.14752e-24,1.1476499999999999e-24,-5.6066599999999998e-29,-1.00751e-29,-1.5835600000000001e-29
3632.0,1.9426899999999999e-28,1.14763e-24,1.1475100000000001e-24,1.14767e-24,-7.1101199999999998e-29,-1.26386e-29,-2.2805900000000001e-29
3633.0,2.3879800000000001e-28,1.1476499999999999e-24,1.14749e-24,1.14769e-24,-8.4105999999999996e-29,-1.4811499999999999e-29,-3.0597799999999998e-29
3634.0,6.1064400000000005e-29,1.1475599999999999e-24,1.14752e-24,1.14758e-24,-1.13703e-29,-1.9889300000000001e-30,-3.7888200000000001e-30
3635.0,7.2255000000000003e-29,1.1475700000000001e-24,1.14752e-24,1.1475899999999999e-24,-1.6407499999999999e-29,-2.82431e-30,-4.8155499999999999e-30
3636.0,8.5582900000000001e-29,1.14758e-24,1.14752e-24,1.1476000000000001e-24,-2.3883100000000001e-29,-3.7287300000000001e-30,-6.5384500000000004e-30
3637.0,1.05099e-28,1.1475899999999999e-24,1.14752e-24,1.1476199999999999e-24,-3.2162999999999997e-29,-5.1451199999999998e-30,-8.6982900000000002e-30
3638.0,1.26491e-28,1.1476000000000001e-24,1.1475100000000001e-24,1.14763e-24,-4.1117200000000002e-29,-6.3118999999999999e-30,-1.20475e-29
3639.0,1.5207999999999999e-28,1.14761e-24,1.1475100000000001e-24,1.14764e-24,-4.9301899999999998e-29,-7.71509e-30,-1.5628500000000001e-29
3640.0,1.79669e-28,1.14763e-24,1.1475e-24,1.1476499999999999e-24,-5.6419400000000005e-29,-8.3619399999999999e-30,-2.0564600000000001e-29
3641.0,6.3321999999999995e-29,1.1475700000000001e-24,1.14752e-24,1.14758e-24,-1.15932e-29,-3.7994299999999999e-30,-3.9487000000000002e-30
3642.0,7.7461600000000001e-29,1.14758e-24,1.14752e-24,1.1476000000000001e-24,-1.89748e-29,-5.4941299999999997e-30,-6.0956900000000003e-30
3643.0,9.4400600000000003e-29,1.1475899999999999e-24,1.14752e-24,1.14761e-24,-2.7524899999999998e-29,-7.7306699999999994e-30,-9.0512100000000006e-30
3644.0,1.16905e-28,1.1476000000000001e-24,1.14752e-24,1.14763e-24,-3.7957299999999998e-29,-1.0607399999999999e-29,-1.3360199999999999e-29
3645.0,1.4448799999999999e-28,1.14761e-24,1.14752e-24,1.14764e-24,-4.9660200000000002e-29,-1.4097e-29,-1.9568099999999999e-29
3646.0,1.7779900000000001e-28,1.14763e-24,1.1475100000000001e-24,1.14766e-24,-6.17032e-29,-1.7589100000000001e-29,-2.7717300000000002e-29
3647.0,2.1550399999999998e-28,1.14764e-24,1.1475e-24,1.14767e-24,-7.2160900000000003e-29,-2.0746900000000001e-29,-3.8345200000000002e-29
3648.0,6.0000199999999996e-29,1.1475599999999999e-24,1.14752e-24,1.14758e-24,-1.00342e-29,-3.2790800000000001e-30,-3.61299e-30
3649.0,6.8773699999999999e-29,1.1475700000000001e-24,1.14752e-24,1.1475899999999999e-24,-1.5128299999999999e-29,-4.2774799999999998e-30,-4.9816799999999998e-30
3650.0,8.2248200000000005e-29,1.14758e-24,1.14752e-24,1.1476000000000001e-24,-2.1446900000000001e-29,-5.6029999999999999e-30,-7.1157899999999998e-30
3651.0,9.8530900000000001e-29,1.1475899999999999e-24,1.14752e-24,1.14761e-24,-2.8784199999999998e-29,-7.3289800000000001e-30,-1.00912e-29
3652.0,1.1862800000000001e-28,1.1476000000000001e-24,1.14752e-24,1.1476199999999999e-24,-3.6375400000000002e-29,-9.0490200000000006e-30,-1.4062499999999999e-29
3653.0,1.4042399999999999e-28,1.14761e-24,1.1475100000000001e-24,1.14763e-24,-4.3512399999999999e-29,-1.0792999999999999e-29,-1.9058600000000001e-29
3654.0,1.65921e-28,1.14763e-24,1.1475e-24,1.14764e-24,-4.9496000000000001e-29,-1.2008500000000001e-29,-2.5063700000000001e-29
3655.0,6.1827600000000002e-29,1.1475700000000001e-24,1.14752e-24,1.14758e-24,-1.0398700000000001e-29,-5.1346300000000002e-30,-3.70377e-30
3656.0,7.37481e-29,1.1475700000000001e-24,1.14752e-24,1.1475899999999999e-24,-1.6799700000000001e-29,-7.1868300000000002e-30,-6.1283e-30
3657.0,8.9287700000000001e-29,1.14758e-24,1.14752e-24,1.14761e-24,-2.4367700000000001e-29,-9.6456399999999994e-30,-9.5900099999999998e-30
3658.0,1.0809e-28,1.1475899999999999e-24,1.14752e-24,1.1476199999999999e-24,-3.2814399999999999e-29,-1.2788600000000001e-29,-1.42674e-29
3659.0,1.31128e-28,1.14761e-24,1.14752e-24,1.14763e-24,-4.2024400000000003e-29,-1.63338e-29,-2.0726799999999999e-29
3660.0,1.57576e-28,1.1476199999999999e-24,1.14752e-24,1.14764e-24,-5.0772400000000002e-29,-1.97354e-29,-2.9183900000000001e-29
3661.0,1.8588300000000001e-28,1.14764e-24,1.1475100000000001e-24,1.1476499999999999e-24,-5.75135e-29,-2.2448600000000001e-29,-3.9104999999999999e-29
3662.0,5.7562099999999996e-29,1.1475599999999999e-24,1.14752e-24,1.1475700000000001e-24,-9.0860499999999995e-30,-4.4132700000000003e-30,-3.2491199999999997e-30
3663.0,6.6153499999999997e-29,1.1475700000000001e-24,1.14752e-24,1.14758e-24,-1.3530799999999999e-29,-5.5409900000000003e-30,-4.8982300000000001e-30
3664.0,7.7622100000000005e-29,1.14758e-24,1.14752e-24,1.1475899999999999e-24,-1.9003400000000001e-29,-7.0877099999999994e-30,-7.2358799999999993e-30
3665.0,9.2128599999999995e-29,1.1475899999999999e-24,1.14752e-24,1.1476000000000001e-24,-2.5160099999999999e-29,-8.8180700000000002e-30,-1.05525e-29
3666.0,1.0876299999999999e-28,1.1475899999999999e-24,1.1475100000000001e-24,1.14761e-24,-3.13291e-29,-1.0792299999999999e-29,-1.4807499999999999e-29
3667.0,1.27488e-28,1.14761e-24,1.1475100000000001e-24,1.1476199999999999e-24,-3.69946e-29,-1.2511e-29,-2.0028100000000001e-29
3668.0,1.4812e-28,1.1476199999999999e-24,1.1475e-24,1.14763e-24,-4.1994200000000002e-29,-1.4001499999999999e-29,-2.68813e-29
3669.0,5.9039200000000004e-29,1.1475700000000001e-24,1.14752e-24,1.14758e-24,-8.9840699999999993e-30,-6.2816899999999999e-30,-3.2741099999999998e-30
3670.0,6.9789599999999999e-29,1.1475700000000001e-24,1.14752e-24,1.1475899999999999e-24,-1.4518299999999999e-29,-8.1879200000000007e-30,-5.8898500000000001e-30
3671.0,8.2649000000000001e-29,1.14758e-24,1.14752e-24,1.1476000000000001e-24,-2.0662999999999999e-29,-1.0759800000000001e-29,-9.2403099999999999e-30
3672.0,9.8401100000000002e-29,1.1475899999999999e-24,1.14752e-24,1.14761e-24,-2.7386399999999997e-29,-1.3572e-29,-1.38814e-29
3673.0,1.16201e-28,1.1476000000000001e-24,1.14752e-24,1.1476199999999999e-24,-3.4013000000000002e-29,-1.6647099999999999e-29,-1.9755299999999999e-29
3674.0,1.36057e-28,1.14761e-24,1.14752e-24,1.1476199999999999e-24,-4.0046099999999997e-29,-1.9256300000000001e-29,-2.7076400000000003e-29
3675.0,1.5647e-28,1.14763e-24,1.1475100000000001e-24,1.14763e-24,-4.44082e-29,-2.13172e-29,-3.5520000000000001e-29
3676.0,5.5165199999999999e-29,1.1475599999999999e-24,1.1475100000000001e-24,1.1475700000000001e-24,-7.8535599999999998e-30,-5.2822199999999997e-30,-2.67731e-30
3677.0,6.2580899999999997e-29,1.1475700000000001e-24,1.14752e-24,1.14758e-24,-1.1665499999999999e-29,-6.5602599999999997e-30,-4.3794999999999998e-30
3678.0,7.2494700000000002e-29,1.1475700000000001e-24,1.14752e-24,1.1475899999999999e-24,-1.63195e-29,-7.9514600000000002e-30,-6.84578e-30
3679.0,8.4488999999999997e-29,1.14758e-24,1.14752e-24,1.1475899999999999e-24,-2.1216400000000001e-29,-9.7836299999999998e-30,-1.0009e-29
3680.0,9.8124399999999999e-29,1.1475899999999999e-24,1.14752e-24,1.1476000000000001e-24,-2.6085099999999999e-29,-1.14673e-29,-1.4154799999999999e-29
3681.0,1.1252099999999999e-28,1.1476000000000001e-24,1.1475100000000001e-24,1.14761e-24,-3.0291399999999999e-29,-1.3084999999999999e-29,-1.9120499999999999e-29
3682.0,1.2913899999999999e-28,1.14761e-24,1.1475100000000001e-24,1.14761e-24,-3.3717200000000001e-29,-1.4265599999999999e-29,-2.49328e-29
3683.0,5.6125599999999996e-29,1.1475599999999999e-24,1.14752e-24,1.1475700000000001e-24,-7.5011799999999999e-30,-6.91424e-30,-2.5206199999999999e-30
3684.0,6.5164200000000001e-29,1.1475700000000001e-24,1.14752e-24,1.14758e-24,-1.20866e-29,-8.95252e-30,-5.0164099999999999e-30
3685.0,7.57481e-29,1.14758e-24,1.14752e-24,1.1475899999999999e-24,-1.6995100000000001e-29,-1.10193e-29,-8.1752099999999998e-30
3686.0,8.7802900000000002e-29,1.1475899999999999e-24,1.14752e-24,1.1476000000000001e-24,-2.1967799999999999e-29,-1.3462199999999999e-29,-1.21573e-29
3687.0,1.01444e-28,1.1476000000000001e-24,1.14752e-24,1.1476000000000001e-24,-2.6797100000000002e-29,-1.5706800000000001e-29,-1.7189700000000001e-29
3688.0,1.1545799999999999e-28,1.1476000000000001e-24,1.14752e-24,1.14761e-24,-3.0778499999999998e-29,-1.7554699999999999e-29,-2.29277e-29
3689.0,1.29624e-28,1.1476199999999999e-24,1.1475100000000001e-24,1.14761e-24,-3.3105300000000002e-29,-1.8613999999999999e-29,-2.92545e-29
3690.0,5.2528100000000003e-29,1.1475599999999999e-24,1.1475100000000001e-24,1.1475700000000001e-24,-6.6230599999999995e-30,-6.0732100000000003e-30,-1.9078100000000001e-30
3691.0,5.8718399999999998e-29,1.1475599999999999e-24,1.1475100000000001e-24,1.1475700000000001e-24,-9.8648800000000003e-30,-7.0838800000000006e-30,-3.5911600000000001e-30
3692.0,6.6897600000000002e-29,1.1475700000000001e-24,1.1475100000000001e-24,1.14758e-24,-1.355e-29,-8.5320999999999998e-30,-5.7847399999999997e-30
3693.0,7.65127e-29,1.14758e-24,1.14752e-24,1.14758e-24,-1.74648e-29,-9.9802800000000005e-30,-8.7574899999999996e-30
3694.0,8.6989300000000003e-29,1.14758e-24,1.1475100000000001e-24,1.1475899999999999e-24,-2.1056399999999999e-29,-1.15086e-29,-1.23206e-29
3695.0,9.8324599999999995e-29,1.1475899999999999e-24,1.1475100000000001e-24,1.1476000000000001e-24,-2.42323e-29,-1.2629300000000001e-29,-1.64466e-29
3696.0,1.09653e-28,1.1476000000000001e-24,1.1475100000000001e-24,1.1476000000000001e-24,-2.6754499999999997e-29,-1.36526e-29,-2.14995e-29
3697.0,5.3311799999999994e-29,1.1475599999999999e-24,1.1475100000000001e-24,1.1475700000000001e-24,-6.1741299999999999e-30,-7.5369200000000006e-30,-1.62008e-30
3698.0,6.0225400000000003e-29,1.1475700000000001e-24,1.14752e-24,1.1475700000000001e-24,-9.7300000000000003e-30,-9.0190100000000005e-30,-3.7256900000000002e-30
3699.0,6.8359500000000005e-29,1.1475700000000001e-24,1.14752e-24,1.14758e-24,-1.3449899999999999e-29,-1.09287e-29,-6.3465599999999995e-30
3700.0,7.7527800000000002e-29,1.14758e-24,1.14752e-24,1.1475899999999999e-24,-1.7209600000000001e-29,-1.25864e-29,-9.6289000000000006e-30
3701.0,8.7185300000000003e-29,1.1475899999999999e-24,1.14752e-24,1.1475899999999999e-24,-2.05181e-29,-1.4349899999999999e-29,-1.34429e-29
3702.0,9.7484499999999999e-29,1.1476000000000001e-24,1.14752e-24,1.1475899999999999e-24,-2.33112e-29,-1.5393499999999999e-29,-1.79027e-29
3703.0,1.0610700000000001e-28,1.1476000000000001e-24,1.1475100000000001e-24,1.1475899999999999e-24,-2.4958900000000001e-29,-1.5866e-29,-2.2142400000000001e-29
3704.0,4.9860899999999998e-29,1.1475599999999999e-24,1.1475100000000001e-24,1.1475599999999999e-24,-5.4750700000000002e-30,-6.4886600000000003e-30,-9.7498300000000008e-31
3705.0,5.5018800000000005e-29,1.1475599999999999e-24,1.1475100000000001e-24,1.1475700000000001e-24,-8.0560800000000005e-30,-7.5937299999999995e-30,-2.40742e-30
3706.0,6.1411600000000002e-29,1.1475700000000001e-24,1.1475100000000001e-24,1.1475700000000001e-24,-1.10495e-29,-8.63608e-30,-4.38449e-30
3707.0,6.8778599999999997e-29,1.1475700000000001e-24,1.1475100000000001e-24,1.14758e-24,-1.40118e-29,-1.00122e-29,-6.7893600000000002e-30
3708.0,7.7036600000000002e-29,1.14758e-24,1.1475100000000001e-24,1.14758e-24,-1.68882e-29,-1.1076e-29,-9.8135000000000005e-30
3709.0,8.5031300000000001e-29,1.14758e-24,1.1475100000000001e-24,1.14758e-24,-1.9219300000000001e-29,-1.19768e-29,-1.3130599999999999e-29
3710.0,9.4172600000000002e-29,1.1475899999999999e-24,1.1475100000000001e-24,1.1475899999999999e-24,-2.08745e-29,-1.2464e-29,-1.6521099999999999e-29
3711.0,5.0239000000000001e-29,1.1475599999999999e-24,1.1475100000000001e-24,1.1475599999999999e-24,-4.9684399999999998e-30,-7.7104099999999999e-30,-5.4502400000000003e-31
3712.0,5.5191699999999996e-29,1.1475599999999999e-24,1.1475100000000001e-24,1.1475700000000001e-24,-7.4205800000000002e-30,-8.9374099999999994e-30,-1.9704399999999999e-30
3713.0,6.0764900000000002e-29,1.1475700000000001e-24,1.1475100000000001e-24,1.1475700000000001e-24,-1.00669e-29,-1.02022e-29,-3.9571100000000001e-30
3714.0,6.75276e-29,1.1475700000000001e-24,1.1475100000000001e-24,1.1475700000000001e-24,-1.2880399999999999e-29,-1.16479e-29,-6.4012500000000002e-30
3715.0,7.4667600000000004e-29,1.14758e-24,1.1475100000000001e-24,1.14758e-24,-1.5411400000000001e-29,-1.26933e-29,-9.2827299999999993e-30
3716.0,8.1384799999999997e-29,1.14758e-24,1.1475100000000001e-24,1.14758e-24,-1.7412299999999999e-29,-1.3433399999999999e-29,-1.2411200000000001e-29
3717.0,8.8649900000000005e-29,1.1475899999999999e-24,1.1475100000000001e-24,1.14758e-24,-1.8574999999999999e-29,-1.3482099999999999e-29,-1.55557e-29
3718.0,4.80002e-29,1.14755e-24,1.1475100000000001e-24,1.1475599999999999e-24,-4.4488700000000002e-30,-6.84795e-30,-3.9389100000000003e-32
3719.0,5.1507400000000001e-29,1.1475599999999999e-24,1.1475100000000001e-24,1.1475599999999999e-24,-6.49542e-30,-7.5825100000000001e-30,-1.2392700000000001e-30
3720.0,5.6589599999999998e-29,1.1475599999999999e-24,1.1475100000000001e-24,1.1475700000000001e-24,-8.8754999999999994e-30,-8.66562e-30,-2.7426999999999999e-30
3721.0,6.2371799999999997e-29,1.1475700000000001e-24,1.1475100000000001e-24,1.1475700000000001e-24,-1.1322900000000001e-29,-9.6512100000000007e-30,-4.8077900000000001e-30
3722.0,6.85949e-29,1.1475700000000001e-24,1.1475100000000001e-24,1.1475700000000001e-24,-1.3589700000000001e-29,-1.05773e-29,-7.1990800000000002e-30
3723.0,7.5323500000000005e-29,1.14758e-24,1.1475100000000001e-24,1.14758e-24,-1.5563200000000001e-29,-1.11698e-29,-9.7338199999999997e-30
3724.0,8.0951000000000001e-29,1.14758e-24,1.1475100000000001e-24,1.14758e-24,-1.7081199999999999e-29,-1.17042e-29,-1.29768e-29
3725.0,2.6332100000000001e-29,1.1475e-24,1.14749e-24,1.1475e-24,-2.8694100000000001e-30,-5.59122e-30,1.09325e-29
3726.0,2.9148000000000001e-29,1.1475e-24,1.14749e-24,1.1475e-24,-3.15384e-30,-6.9337900000000003e-30,1.2623e-29
3727.0,2.58021e-29,1.1475100000000001e-24,1.14749e-24,1.1475e-24,-1.4779500000000001e-30,-5.6042199999999997e-30,1.1341000000000001e-29
3728.0,2.8660400000000002e-29,1.1475e-24,1.14749e-24,1.1475e-24,-4.1862800000000004e-31,-6.6964200000000001e-30,1.2872900000000001e-29
3729.0,2.5445099999999997e-29,1.1475e-24,1.14749e-24,1.1475e-24,1.05095e-30,-5.4309500000000001e-30,1.13461e-29
3730.0,2.8562800000000001e-29,1.1475e-24,1.14749e-24,1.1475e-24,1.18605e-30,-6.4244399999999994e-30,1.3126800000000001e-29
3731.0,2.5295899999999998e-29,1.1475100000000001e-24,1.14749e-24,1.1475e-24,2.3938699999999999e-30,-4.9814999999999999e-30,1.1445400000000001e-29
3732.0,2.8369200000000002e-29,1.1475e-24,1.14749e-24,1.1475e-24,3.4943000000000003e-30,-6.0917100000000001e-30,1.29429e-29
3733.0,2.5399599999999998e-29,1.1475e-24,1.14749e-24,1.1475e-24,4.6411700000000001e-30,-4.51451e-30,1.1139000000000001e-29
3734.0,2.8146400000000002e-29,1.1475100000000001e-24,1.14749e-24,1.1475e-24,4.70193e-30,-5.0768900000000002e-30,1.2810500000000001e-29
3735.0,2.5290000000000002e-29,1.1475100000000001e-24,1.14749e-24,1.1475e-24,5.6250900000000001e-30,-3.8190499999999999e-30,1.08928e-29
3736.0,2.7846299999999998e-29,1.1475e-24,1.14749e-24,1.1475e-24,6.6923699999999995e-30,-4.4931300000000003e-30,1.20167e-29
3737.0,2.5618499999999999e-29,1.1475e-24,1.14749e-24,1.1475e-24,7.4630199999999995e-30,-3.3156000000000003e-30,1.02364e-29
3738.0,2.7586999999999998e-29,1.1475100000000001e-24,1.14749e-24,1.1475e-24,7.5907000000000002e-30,-3.3814799999999998e-30,1.15193e-29
3739.0,2.8947000000000002e-29,1.14752e-24,1.14749e-24,1.14752e-24,-4.0670399999999999e-30,-6.2353000000000002e-30,9.0317999999999997e-30
3740.0,3.1719600000000002e-29,1.1475100000000001e-24,1.14749e-24,1.1475100000000001e-24,-3.2918100000000001e-30,-7.1725299999999997e-30,1.08764e-29
3741.0,2.8555099999999998e-29,1.1475100000000001e-24,1.14749e-24,1.1475100000000001e-24,-1.9276000000000002e-30,-5.9534000000000003e-30,9.4350400000000002e-30
3742.0,3.0832599999999998e-29,1.14752e-24,1.14749e-24,1.14752e-24,-1.35736e-30,-7.1855899999999998e-30,1.08795e-29
3743.0,2.7433899999999999e-29,1.14752e-24,1.1475e-24,1.1475100000000001e-24,-6.3338499999999998e-32,-5.7450999999999999e-30,9.5911500000000006e-30
3744.0,3.0742900000000001e-29,1.1475100000000001e-24,1.14749e-24,1.1475100000000001e-24,7.4115500000000004e-31,-7.1511999999999998e-30,1.13505e-29
3745.0,2.7122400000000001e-29,1.1475100000000001e-24,1.14749e-24,1.1475100000000001e-24,1.79065e-30,-5.4842700000000003e-30,9.8552299999999993e-30
3746.0,2.9924399999999999e-29,1.14752e-24,1.1475e-24,1.1475100000000001e-24,2.4859899999999999e-30,-6.3455199999999996e-30,1.14304e-29
3747.0,2.6569899999999998e-29,1.1475100000000001e-24,1.1475e-24,1.1475100000000001e-24,3.4377600000000003e-30,-4.7455899999999999e-30,9.7118800000000002e-30
3748.0,2.9568100000000003e-29,1.1475100000000001e-24,1.14749e-24,1.1475100000000001e-24,4.2152900000000003e-30,-5.7654700000000003e-30,1.13387e-29
3749.0,2.6528100000000001e-29,1.1475100000000001e-24,1.14749e-24,1.1475100000000001e-24,4.9789000000000002e-30,-4.2874500000000002e-30,9.5669099999999995e-30
3750.0,2.8900800000000002e-29,1.1475100000000001e-24,1.1475e-24,1.1475100000000001e-24,5.6405699999999999e-30,-4.6823399999999999e-30,1.08784e-29
3751.0,2.6456699999999999e-29,1.1475100000000001e-24,1.1475e-24,1.1475100000000001e-24,6.2463900000000002e-30,-3.5467000000000001e-30,9.1869600000000006e-30
3752.0,2.8476900000000002e-29,1.1475100000000001e-24,1.14749e-24,1.1475100000000001e-24,7.07162e-30,-3.8506700000000003e-30,1.02261e-29
3753.0,3.4492300000000003e-29,1.14752e-24,1.1475e-24,1.14752e-24,-4.7865799999999997e-30,-6.5496199999999993e-30,6.8400400000000001e-30
3754.0,3.51194e-29,1.14753e-24,1.1475e-24,1.14753e-24,-4.5870199999999999e-30,-7.8078699999999993e-30,7.9383499999999996e-30
3755.0,3.2493599999999999e-29,1.14753e-24,1.1475e-24,1.14753e-24,-3.19051e-30,-6.4398700000000001e-30,7.0509300000000002e-30
3756.0,3.4955099999999998e-29,1.14753e-24,1.1475e-24,1.14753e-24,-2.5470100000000001e-30,-7.80956e-30,8.6404599999999999e-30
3757.0,3.1553800000000002e-29,1.14752e-24,1.1475e-24,1.14752e-24,-1.36483e-30,-6.36641e-30,7.6413299999999997e-30
3758.0,3.3669400000000002e-29,1.14753e-24,1.1475e-24,1.14752e-24,-6.4728300000000003e-31,-7.6119999999999996e-30,8.9473499999999999e-30
3759.0,3.0155500000000002e-29,1.14752e-24,1.1475e-24,1.14752e-24,4.4486000000000004e-31,-5.8625799999999998e-30,7.8555799999999998e-30
3760.0,3.2727699999999998e-29,1.14752e-24,1.1475e-24,1.14752e-24,1.19867e-30,-7.0760500000000004e-30,9.3844099999999993e-30
3761.0,2.9312999999999999e-29,1.14752e-24,1.1475e-24,1.14752e-24,2.11809e-30,-5.3179699999999997e-30,8.0720300000000005e-30
3762.0,3.1651100000000001e-29,1.14752e-24,1.1475e-24,1.14752e-24,2.8370400000000001e-30,-6.19761e-30,9.4346699999999996e-30
3763.0,2.8644400000000002e-29,1.14752e-24,1.1475e-24,1.14752e-24,3.6534599999999999e-30,-4.6017999999999999e-30,7.9672400000000001e-30
3764.0,3.0914699999999999e-29,1.14752e-24,1.1475e-24,1.14752e-24,4.44741e-30,-5.2772200000000003e-30,9.2710700000000004e-30
3765.0,2.8327199999999998e-29,1.14752e-24,1.1475e-24,1.14752e-24,4.9086999999999998e-30,-4.0507000000000002e-30,7.8220500000000004e-30
3766.0,3.0249000000000002e-29,1.14752e-24,1.1475e-24,1.14752e-24,5.7518499999999998e-30,-4.3221700000000003e-30,8.8095400000000001e-30
3767.0,4.0364000000000002e-29,1.1475400000000001e-24,1.1475e-24,1.1475400000000001e-24,-6.5328199999999994e-30,-7.2897700000000006e-30,3.5520400000000002e-30
3768.0,4.1533499999999999e-29,1.1475400000000001e-24,1.1475e-24,1.1475400000000001e-24,-5.8069800000000001e-30,-8.18606e-30,5.2837800000000002e-30
3769.0,3.8987999999999997e-29,1.1475400000000001e-24,1.1475e-24,1.14753e-24,-4.8254699999999998e-30,-7.1710900000000001e-30,4.4645799999999997e-30
3770.0,3.9871299999999998e-29,1.1475400000000001e-24,1.1475e-24,1.1475400000000001e-24,-4.2701500000000003e-30,-8.4669599999999999e-30,5.3605799999999997e-30
3771.0,3.6740700000000003e-29,1.1475400000000001e-24,1.1475e-24,1.14753e-24,-3.0896400000000001e-30,-6.8824199999999997e-30,4.9911900000000001e-30
3772.0,3.8658699999999998e-29,1.1475400000000001e-24,1.1475e-24,1.14753e-24,-2.43621e-30,-8.3559500000000004e-30,6.2793999999999997e-30
3773.0,3.49268e-29,1.14753e-24,1.1475e-24,1.14753e-24,-1.3274799999999999e-30,-6.5338800000000006e-30,5.6800499999999997e-30
3774.0,3.6720000000000001e-29,1.1475400000000001e-24,1.1475e-24,1.14753e-24,-6.9665200000000001e-31,-7.6978799999999997e-30,6.8246700000000005e-30
3775.0,3.3358900000000002e-29,1.14753e-24,1.1475e-24,1.14753e-24,3.6110600000000002e-31,-5.8285600000000003e-30,6.0212100000000002e-30
3776.0,3.5161e-29,1.14753e-24,1.1475e-24,1.14753e-24,1.1217e-30,-6.8890900000000006e-30,7.2133599999999995e-30
3777.0,3.2132799999999997e-29,1.14753e-24,1.1475e-24,1.14753e-24,1.9506800000000001e-30,-5.1988700000000002e-30,6.2318899999999998e-30
3778.0,3.3860300000000002e-29,1.14753e-24,1.1475e-24,1.14753e-24,2.6239300000000001e-30,-5.9265399999999997e-30,7.3128499999999995e-30
3779.0,3.1464900000000002e-29,1.14753e-24,1.1475e-24,1.14753e-24,3.18698e-30,-4.59841e-30,6.25465e-30
3780.0,3.2874600000000002e-29,1.14753e-24,1.1475e-24,1.14753e-24,4.1121200000000002e-30,-4.9553699999999997e-30,7.0335600000000006e-30
3781.0,4.9588900000000001e-29,1.14755e-24,1.1475e-24,1.14755e-24,-8.2281700000000001e-30,-8.09227e-30,2.16828e-31
3782.0,4.8710800000000001e-29,1.14755e-24,1.1475100000000001e-24,1.14755e-24,-7.9655899999999993e-30,-9.2024099999999998e-30,5.9017300000000003e-31
3783.0,4.6512500000000001e-29,1.14755e-24,1.1475e-24,1.14755e-24,-6.9856600000000002e-30,-7.9569199999999998e-30,9.96932e-31
3784.0,4.75933e-29,1.14755e-24,1.1475e-24,1.14755e-24,-6.4570200000000007e-30,-9.3247900000000003e-30,1.9526900000000001e-30
3785.0,4.3835999999999999e-29,1.14755e-24,1.1475e-24,1.1475400000000001e-24,-5.3080299999999998e-30,-7.7585700000000006e-30,2.1498500000000001e-30
3786.0,4.4910800000000001e-29,1.14755e-24,1.1475100000000001e-24,1.14755e-24,-4.8090900000000003e-30,-9.1338900000000001e-30,2.86432e-30
3787.0,4.10555e-29,1.1475400000000001e-24,1.1475e-24,1.1475400000000001e-24,-3.5379200000000003e-30,-7.2144699999999997e-30,3.0576700000000001e-30
3788.0,4.2314900000000002e-29,1.14755e-24,1.1475100000000001e-24,1.1475400000000001e-24,-2.9437799999999999e-30,-8.4993100000000001e-30,3.8569999999999998e-30
3789.0,3.8599300000000002e-29,1.1475400000000001e-24,1.1475e-24,1.1475400000000001e-24,-1.7303800000000001e-30,-6.53889e-30,3.7849400000000001e-30
3790.0,3.9983200000000001e-29,1.1475400000000001e-24,1.1475100000000001e-24,1.1475400000000001e-24,-1.23279e-30,-7.6683900000000002e-30,4.61233e-30
3791.0,3.6812300000000001e-29,1.1475400000000001e-24,1.1475e-24,1.1475400000000001e-24,-1.92018e-31,-5.8461199999999999e-30,4.2602700000000002e-30
3792.0,3.8156600000000002e-29,1.1475400000000001e-24,1.1475100000000001e-24,1.1475400000000001e-24,5.0144499999999996e-31,-6.6842600000000004e-30,4.9822800000000001e-30
3793.0,3.5440900000000002e-29,1.1475400000000001e-24,1.1475e-24,1.1475400000000001e-24,1.17028e-30,-5.2313899999999997e-30,4.4247999999999998e-30
3794.0,3.6817699999999998e-29,1.1475400000000001e-24,1.1475100000000001e-24,1.1475400000000001e-24,1.8293000000000001e-30,-5.7390999999999998e-30,5.1402799999999997e-30
3795.0,5.9175899999999998e-29,1.1475599999999999e-24,1.1475100000000001e-24,1.1475599999999999e-24,-1.1015799999999999e-29,-9.1931900000000005e-30,-4.3065099999999998e-30
3796.0,6.0007800000000003e-29,1.1475599999999999e-24,1.1475100000000001e-24,1.1475599999999999e-24,-1.04213e-29,-1.0137300000000001e-29,-3.5299100000000001e-30
3797.0,5.6024800000000002e-29,1.1475599999999999e-24,1.1475100000000001e-24,1.1475599999999999e-24,-9.6061299999999997e-30,-9.0658600000000004e-30,-2.56826e-30
3798.0,5.6472699999999997e-29,1.1475599999999999e-24,1.1475100000000001e-24,1.1475599999999999e-24,-9.3127300000000002e-30,-1.04103e-29,-2.53227e-30
3799.0,5.2088800000000003e-29,1.1475599999999999e-24,1.1475100000000001e-24,1.1475599999999999e-24,-7.9696599999999998e-30,-8.6887400000000001e-30,-1.18718e-30
3800.0,5.3323700000000005e-29,1.1475599999999999e-24,1.1475100000000001e-24,1.1475599999999999e-24,-7.6088200000000002e-30,-1.01949e-29,-8.8790100000000001e-31
3801.0,4.8312600000000002e-29,1.14755e-24,1.1475100000000001e-24,1.14755e-24,-6.0639399999999997e-30,-8.1066999999999993e-30,2.28394e-31
3802.0,4.9591200000000002e-29,1.1475599999999999e-24,1.1475100000000001e-24,1.14755e-24,-5.8713900000000001e-30,-9.4864500000000006e-30,5.7987300000000004e-31
3803.0,4.4871699999999997e-29,1.14755e-24,1.1475100000000001e-24,1.14755e-24,-4.24472e-30,-7.3718200000000006e-30,1.39272e-30
3804.0,4.6046199999999999e-29,1.14755e-24,1.1475100000000001e-24,1.14755e-24,-3.7992799999999998e-30,-8.4726499999999993e-30,1.7275699999999999e-30
3805.0,4.21125e-29,1.14755e-24,1.1475100000000001e-24,1.14755e-24,-2.431e-30,-6.5715600000000002e-30,2.1652599999999999e-30
3806.0,4.34936e-29,1.14755e-24,1.1475100000000001e-24,1.14755e-24,-2.1086700000000001e-30,-7.5547299999999998e-30,2.5950499999999999e-30
3807.0,4.0442199999999998e-29,1.1475400000000001e-24,1.1475100000000001e-24,1.14755e-24,-1.20976e-30,-5.9445600000000001e-30,2.6475699999999999e-30
3808.0,4.1417099999999998e-29,1.14755e-24,1.1475100000000001e-24,1.14755e-24,-5.4198900000000001e-31,-6.6283900000000004e-30,2.9553900000000002e-30
3809.0,7.0557599999999998e-29,1.1475700000000001e-24,1.1475100000000001e-24,1.1475700000000001e-24,-1.3491199999999999e-29,-1.0410099999999999e-29,-8.1992799999999995e-30
3810.0,7.1549600000000003e-29,1.14758e-24,1.1475100000000001e-24,1.1475700000000001e-24,-1.3991199999999999e-29,-1.17644e-29,-9.4210900000000003e-30
3811.0,6.5382500000000001e-29,1.1475700000000001e-24,1.1475100000000001e-24,1.1475700000000001e-24,-1.2420199999999999e-29,-1.0145999999999999e-29,-6.3671499999999997e-30
3812.0,6.8347400000000004e-29,1.1475700000000001e-24,1.1475100000000001e-24,1.1475700000000001e-24,-1.28327e-29,-1.17761e-29,-7.1840299999999993e-30
3813.0,6.0592200000000001e-29,1.1475599999999999e-24,1.1475100000000001e-24,1.1475599999999999e-24,-1.07274e-29,-9.75354e-30,-4.34001e-30
3814.0,6.3097799999999998e-29,1.1475700000000001e-24,1.1475100000000001e-24,1.1475700000000001e-24,-1.1143999999999999e-29,-1.14186e-29,-4.9607199999999998e-30
3815.0,5.5583300000000003e-29,1.1475599999999999e-24,1.1475100000000001e-24,1.1475599999999999e-24,-8.7545700000000006e-30,-9.0754799999999995e-30,-2.4258399999999998e-30
3816.0,5.8027599999999996e-29,1.1475599999999999e-24,1.1475100000000001e-24,1.1475599999999999e-24,-9.0381700000000004e-30,-1.04771e-29,-2.9047300000000001e-30
3817.0,5.1056599999999995e-29,1.1475599999999999e-24,1.1475100000000001e-24,1.1475599999999999e-24,-6.6089799999999995e-30,-8.1152900000000006e-30,-9.0533299999999998e-31
3818.0,5.3247199999999998e-29,1.1475599999999999e-24,1.1475100000000001e-24,1.1475599999999999e-24,-6.91994e-30,-9.4900000000000005e-30,-1.1392300000000001e-30
3819.0,4.7354700000000001e-29,1.14755e-24,1.1475100000000001e-24,1.1475599999999999e-24,-4.7265900000000001e-30,-7.3475900000000002e-30,3.4146300000000001e-31
3820.0,4.9127500000000003e-29,1.1475599999999999e-24,1.1475100000000001e-24,1.1475599999999999e-24,-4.7036399999999999e-30,-8.27417e-30,1.3827200000000001e-31
3821.0,4.4810500000000001e-29,1.14755e-24,1.1475100000000001e-24,1.14755e-24,-3.0799100000000001e-30,-6.5212400000000001e-30,1.03749e-30
3822.0,4.6395e-29,1.14755e-24,1.1475100000000001e-24,1.1475599999999999e-24,-3.1319900000000001e-30,-7.4725800000000002e-30,1.00798e-30
3823.0,9.6660600000000004e-29,1.14758e-24,1.1475e-24,1.1475899999999999e-24,-2.50354e-29,1.2535000000000001e-29,7.7420899999999993e-30
3824.0,8.0325600000000003e-29,1.1475700000000001e-24,1.1475e-24,1.1475700000000001e-24,-1.8881400000000001e-29,1.0215099999999999e-29,2.0000699999999999e-30
3825.0,6.4553100000000004e-29,1.14755e-24,1.1475e-24,1.1475599999999999e-24,-1.43258e-29,8.4535599999999999e-30,-2.2991100000000001e-30
3826.0,5.4413499999999997e-29,1.1475400000000001e-24,1.14749e-24,1.1475400000000001e-24,-1.06133e-29,6.6694899999999997e-30,-7.2097499999999998e-30
3827.0,4.52424e-29,1.14753e-24,1.14749e-24,1.14753e-24,-8.0997299999999997e-30,5.6895300000000001e-30,-1.0139300000000001e-29
3828.0,4.0119799999999999e-29,1.1475100000000001e-24,1.14749e-24,1.14752e-24,-5.8064400000000002e-30,4.5067700000000001e-30,-1.34261e-29
3829.0,3.6248599999999999e-29,1.1475e-24,1.1474799999999999e-24,1.1475100000000001e-24,-4.83684e-30,3.90427e-30,-1.55161e-29
3830.0,8.8854900000000004e-29,1.14758e-24,1.1475e-24,1.14758e-24,-2.30631e-29,1.22364e-29,4.2818099999999999e-30
3831.0,7.2832100000000002e-29,1.1475599999999999e-24,1.1475e-24,1.1475700000000001e-24,-1.7300200000000001e-29,1.0281e-29,-2.96489e-32
3832.0,6.0638099999999999e-29,1.14755e-24,1.1475e-24,1.1475599999999999e-24,-1.25523e-29,8.43138e-30,-4.46704e-30
3833.0,5.0400499999999998e-29,1.1475400000000001e-24,1.1475e-24,1.14755e-24,-8.8783799999999999e-30,6.8102399999999998e-30,-7.8876200000000005e-30
3834.0,4.3539300000000001e-29,1.14753e-24,1.14749e-24,1.14753e-24,-5.9954899999999997e-30,5.5471299999999998e-30,-1.1254100000000001e-29
3835.0,3.8145899999999998e-29,1.14752e-24,1.14749e-24,1.14752e-24,-3.8408699999999999e-30,4.4154199999999997e-30,-1.36552e-29
3836.0,3.5011800000000001e-29,1.1475e-24,1.1474799999999999e-24,1.1475100000000001e-24,-2.12663e-30,3.4868699999999998e-30,-1.58805e-29
3837.0,7.9035499999999997e-29,1.1475700000000001e-24,1.1475100000000001e-24,1.14758e-24,-2.01215e-29,1.16295e-29,1.13597e-30
3838.0,6.6044700000000002e-29,1.1475599999999999e-24,1.1475100000000001e-24,1.1475700000000001e-24,-1.46275e-29,9.9492100000000006e-30,-2.5568799999999999e-30
3839.0,5.5179e-29,1.14755e-24,1.1475e-24,1.1475599999999999e-24,-1.01525e-29,8.2213199999999999e-30,-6.0778599999999998e-30
3840.0,4.70999e-29,1.1475400000000001e-24,1.1475e-24,1.1475400000000001e-24,-6.4297599999999996e-30,6.7891999999999994e-30,-9.3714100000000004e-30
3841.0,4.0806899999999998e-29,1.14753e-24,1.1475e-24,1.14753e-24,-3.5927399999999998e-30,5.4542200000000003e-30,-1.19376e-29
3842.0,3.7005899999999999e-29,1.1475100000000001e-24,1.14749e-24,1.14752e-24,-1.34239e-30,4.50345e-30,-1.4325600000000001e-29
3843.0,3.4354599999999999e-29,1.1475e-24,1.14749e-24,1.1475100000000001e-24,-2.5797700000000002e-31,3.3632500000000003e-30,-1.6251899999999999e-29
3844.0,7.0015999999999995e-29,1.1475599999999999e-24,1.1475100000000001e-24,1.14758e-24,-1.64343e-29,1.05654e-29,-1.63938e-30
3845.0,5.9317799999999998e-29,1.14755e-24,1.1475100000000001e-24,1.1475700000000001e-24,-1.1634599999999999e-29,9.2803400000000002e-30,-4.6780199999999997e-30
3846.0,5.03796e-29,1.1475400000000001e-24,1.1475e-24,1.14755e-24,-7.2618099999999996e-30,7.8010299999999999e-30,-7.6542500000000004e-30
3847.0,4.3596400000000002e-29,1.14753e-24,1.1475e-24,1.1475400000000001e-24,-3.8575900000000002e-30,6.4430699999999993e-30,-1.03629e-29
3848.0,3.8951500000000003e-29,1.14752e-24,1.1475e-24,1.14753e-24,-1.02652e-30,5.2851200000000002e-30,-1.2714599999999999e-29
3849.0,3.5703699999999997e-29,1.1475100000000001e-24,1.14749e-24,1.14752e-24,9.7055400000000004e-31,4.0689800000000003e-30,-1.46389e-29
3850.0,3.3839300000000003e-29,1.1475e-24,1.14749e-24,1.1475100000000001e-24,2.4542300000000001e-30,3.3858399999999999e-30,-1.61286e-29
3851.0,6.2113499999999995e-29,1.1475599999999999e-24,1.1475100000000001e-24,1.1475700000000001e-24,-1.26888e-29,9.5870800000000001e-30,-3.9235200000000002e-30
3852.0,5.3410499999999996e-29,1.14755e-24,1.1475100000000001e-24,1.1475599999999999e-24,-8.2565500000000007e-30,8.4867099999999995e-30,-6.3364999999999994e-30
3853.0,4.6468899999999998e-29,1.1475400000000001e-24,1.1475100000000001e-24,1.14755e-24,-4.5056499999999999e-30,7.3336899999999994e-30,-8.8800200000000001e-30
3854.0,4.1202000000000001e-29,1.14753e-24,1.1475e-24,1.1475400000000001e-24,-1.1426999999999999e-30,6.1490500000000003e-30,-1.11627e-29
3855.0,3.7511299999999999e-29,1.14752e-24,1.1475e-24,1.14753e-24,1.34213e-30,4.9825399999999998e-30,-1.31013e-29
3856.0,3.54128e-29,1.1475100000000001e-24,1.14749e-24,1.14752e-24,3.2983600000000001e-30,4.1034000000000002e-30,-1.4808800000000001e-29
3857.0,3.38407e-29,1.1475e-24,1.14749e-24,1.1475100000000001e-24,4.1972000000000001e-30,2.95928e-30,-1.6211999999999999e-29
3858.0,5.5456599999999995e-29,1.14755e-24,1.1475100000000001e-24,1.1475700000000001e-24,-9.00707e-30,8.5102000000000002e-30,-5.4981199999999999e-30
3859.0,4.9156099999999998e-29,1.14755e-24,1.1475100000000001e-24,1.1475599999999999e-24,-5.4092099999999998e-30,7.8315899999999998e-30,-7.5692400000000002e-30
3860.0,4.3572699999999999e-29,1.1475400000000001e-24,1.1475100000000001e-24,1.14755e-24,-1.7948499999999999e-30,6.80533e-30,-9.62083e-30
3861.0,3.9557700000000002e-29,1.14753e-24,1.1475e-24,1.1475400000000001e-24,1.10409e-30,5.7675999999999999e-30,-1.16143e-29
3862.0,3.6738300000000001e-29,1.14752e-24,1.1475e-24,1.14753e-24,3.56399e-30,4.7546999999999997e-30,-1.3259800000000001e-29
3863.0,3.4894099999999998e-29,1.1475100000000001e-24,1.14749e-24,1.14752e-24,5.2518099999999999e-30,3.7092099999999997e-30,-1.4638199999999999e-29
3864.0,3.3824400000000002e-29,1.1475e-24,1.14749e-24,1.1475100000000001e-24,6.5619199999999998e-30,3.0395199999999999e-30,-1.5572900000000001e-29
3865.0,5.1310100000000006e-29,1.14755e-24,1.1475100000000001e-24,1.1475599999999999e-24,-6.4209000000000001e-30,7.8895300000000002e-30,-6.4990499999999996e-30
3866.0,4.6134599999999999e-29,1.1475400000000001e-24,1.1475100000000001e-24,1.1475599999999999e-24,-3.0208099999999999e-30,7.1894799999999997e-30,-8.1060800000000005e-30
3867.0,4.16692e-29,1.1475400000000001e-24,1.1475100000000001e-24,1.14755e-24,1.41828e-31,6.3250100000000005e-30,-9.9812199999999994e-30
3868.0,3.8326400000000002e-29,1.14753e-24,1.1475e-24,1.1475400000000001e-24,3.1280299999999999e-30,5.3607099999999999e-30,-1.1577199999999999e-29
3869.0,3.6193500000000001e-29,1.14752e-24,1.1475e-24,1.14753e-24,5.3141300000000003e-30,4.4253500000000003e-30,-1.3050799999999999e-29
3870.0,3.4862899999999999e-29,1.1475100000000001e-24,1.14749e-24,1.14752e-24,7.0613399999999995e-30,3.5496600000000003e-30,-1.4225300000000001e-29
3871.0,3.3770900000000002e-29,1.1475e-24,1.14749e-24,1.1475100000000001e-24,7.8737399999999996e-30,2.6720800000000002e-30,-1.5337300000000001e-29
3872.0,9.4785100000000001e-29,1.14758e-24,1.1475e-24,1.14758e-24,-2.3539200000000001e-29,1.06183e-29,5.2785900000000002e-30
3873.0,7.9389800000000002e-29,1.1475700000000001e-24,1.1475e-24,1.1475700000000001e-24,-1.8995100000000001e-29,9.0097399999999993e-30,1.64568e-30
3874.0,6.61328e-29,1.14755e-24,1.1475e-24,1.1475599999999999e-24,-1.4317900000000001e-29,7.4131400000000004e-30,-2.6948699999999999e-30
3875.0,5.3756899999999995e-29,1.1475400000000001e-24,1.1475e-24,1.14755e-24,-1.1078899999999999e-29,6.0951399999999998e-30,-6.06237e-30
3876.0,4.5558399999999998e-29,1.14753e-24,1.14749e-24,1.14753e-24,-8.1513100000000001e-30,4.89204e-30,-9.3724799999999994e-30
3877.0,3.79843e-29,1.14752e-24,1.14749e-24,1.14752e-24,-6.4410299999999995e-30,4.2210799999999999e-30,-1.16604e-29
3878.0,3.3945999999999999e-29,1.1475e-24,1.1474799999999999e-24,1.1475100000000001e-24,-4.4964299999999999e-30,3.1794000000000001e-30,-1.36201e-29
3879.0,8.4852899999999995e-29,1.1475700000000001e-24,1.1475e-24,1.14758e-24,-2.15329e-29,9.97083e-30,2.5167699999999999e-30
3880.0,7.2641e-29,1.1475599999999999e-24,1.1475e-24,1.1475700000000001e-24,-1.6998899999999999e-29,8.6373499999999996e-30,-8.2373699999999998e-31
3881.0,6.0250100000000005e-29,1.14755e-24,1.1475e-24,1.1475599999999999e-24,-1.2718899999999999e-29,7.1315699999999998e-30,-4.0983099999999997e-30
3882.0,5.03751e-29,1.1475400000000001e-24,1.1475e-24,1.1475400000000001e-24,-9.1760500000000006e-30,5.89055e-30,-7.3654200000000007e-30
3883.0,4.1988500000000002e-29,1.14753e-24,1.14749e-24,1.14753e-24,-6.4307999999999994e-30,4.7327600000000002e-30,-9.8891000000000001e-30
3884.0,3.6490400000000001e-29,1.1475100000000001e-24,1.14749e-24,1.14752e-24,-4.2642499999999997e-30,3.8637900000000002e-30,-1.2222900000000001e-29
3885.0,3.25342e-29,1.1475e-24,1.14749e-24,1.1475100000000001e-24,-3.0805499999999999e-30,3.1885900000000003e-30,-1.4190600000000001e-29
3886.0,7.6189399999999997e-29,1.1475700000000001e-24,1.1475100000000001e-24,1.14758e-24,-1.8684000000000001e-29,9.4016700000000001e-30,-1.8423099999999999e-31
3887.0,6.5309299999999999e-29,1.1475599999999999e-24,1.1475e-24,1.1475700000000001e-24,-1.4457599999999999e-29,8.1688800000000003e-30,-2.78142e-30
3888.0,5.4954399999999999e-29,1.14755e-24,1.1475e-24,1.14755e-24,-1.03738e-29,6.9218200000000005e-30,-5.74291e-30
3889.0,4.6119699999999999e-29,1.1475400000000001e-24,1.1475e-24,1.1475400000000001e-24,-6.9369000000000006e-30,5.6587600000000003e-30,-8.2925599999999995e-30
3890.0,3.9586399999999998e-29,1.14752e-24,1.14749e-24,1.14753e-24,-4.1950999999999998e-30,4.7501699999999997e-30,-1.07288e-29
3891.0,3.4383300000000001e-29,1.1475100000000001e-24,1.14749e-24,1.14752e-24,-2.11775e-30,3.7487000000000001e-30,-1.2601100000000001e-29
3892.0,3.15832e-29,1.1475e-24,1.14749e-24,1.1475100000000001e-24,-3.99979e-31,3.06273e-30,-1.4309999999999999e-29
3893.0,6.7612999999999999e-29,1.1475599999999999e-24,1.1475100000000001e-24,1.1475700000000001e-24,-1.5415699999999999e-29,8.6201600000000006e-30,-2.5200800000000001e-30
3894.0,5.8634600000000003e-29,1.14755e-24,1.1475100000000001e-24,1.1475599999999999e-24,-1.1525600000000001e-29,7.5801599999999994e-30,-4.6243900000000001e-30
3895.0,4.9916600000000002e-29,1.1475400000000001e-24,1.1475e-24,1.14755e-24,-7.7877700000000006e-30,6.4674800000000004e-30,-7.0184699999999998e-30
3896.0,4.2591499999999998e-29,1.14753e-24,1.1475e-24,1.1475400000000001e-24,-4.5060700000000003e-30,5.4765099999999998e-30,-9.2889300000000001e-30
3897.0,3.6962399999999998e-29,1.14752e-24,1.1475e-24,1.14753e-24,-1.87613e-30,4.4612099999999998e-30,-1.1213e-29
3898.0,3.3298000000000003e-29,1.1475100000000001e-24,1.14749e-24,1.14752e-24,1.7514e-31,3.7166700000000001e-30,-1.3023999999999999e-29
3899.0,3.10476e-29,1.1475e-24,1.14749e-24,1.1475100000000001e-24,1.2900999999999999e-30,2.9072899999999999e-30,-1.45355e-29
3900.0,6.0072600000000002e-29,1.1475599999999999e-24,1.1475100000000001e-24,1.1475700000000001e-24,-1.19669e-29,7.6757599999999996e-30,-4.2516800000000003e-30
3901.0,5.2867299999999999e-29,1.14755e-24,1.1475100000000001e-24,1.1475599999999999e-24,-8.6477299999999997e-30,6.9323499999999993e-30,-6.0551899999999999e-30
3902.0,4.5641699999999999e-29,1.1475400000000001e-24,1.1475e-24,1.14755e-24,-5.1010300000000003e-30,5.9985199999999997e-30,-8.0126199999999998e-30
3903.0,3.9656300000000002e-29,1.14753e-24,1.1475e-24,1.1475400000000001e-24,-2.1283800000000001e-30,5.0603499999999999e-30,-9.8833699999999995e-30
3904.0,3.5323199999999999e-29,1.14752e-24,1.1475e-24,1.14753e-24,3.8972600000000001e-31,4.2740300000000002e-30,-1.1653399999999999e-29
3905.0,3.2379499999999997e-29,1.1475100000000001e-24,1.14749e-24,1.14752e-24,2.2765699999999999e-30,3.3727999999999997e-30,-1.3083799999999999e-29
3906.0,3.0996199999999999e-29,1.1475e-24,1.14749e-24,1.1475100000000001e-24,3.8623100000000001e-30,2.7941500000000001e-30,-1.43842e-29
3907.0,5.43084e-29,1.14755e-24,1.1475100000000001e-24,1.1475599999999999e-24,-8.9742000000000006e-30,7.0713500000000004e-30,-5.57579e-30
3908.0,4.8345700000000002e-29,1.14755e-24,1.1475100000000001e-24,1.1475599999999999e-24,-5.8716900000000003e-30,6.3654899999999996e-30,-6.9814999999999994e-30
3909.0,4.2553200000000003e-29,1.1475400000000001e-24,1.1475e-24,1.14755e-24,-2.80491e-30,5.6029300000000001e-30,-8.6718200000000007e-30
3910.0,3.7692700000000001e-29,1.14753e-24,1.1475e-24,1.1475400000000001e-24,1.08177e-31,4.8087500000000003e-30,-1.02917e-29
3911.0,3.4313200000000001e-29,1.14752e-24,1.1475e-24,1.14753e-24,2.43855e-30,3.9912499999999997e-30,-1.1763500000000001e-29
3912.0,3.2152700000000003e-29,1.1475100000000001e-24,1.14749e-24,1.14752e-24,4.2721099999999998e-30,3.3627199999999997e-30,-1.3106899999999999e-29
3913.0,3.0937700000000001e-29,1.1475e-24,1.14749e-24,1.1475100000000001e-24,5.2750400000000003e-30,2.63404e-30,-1.43144e-29
3914.0,5.0333000000000001e-29,1.14755e-24,1.1475100000000001e-24,1.1475599999999999e-24,-6.5364900000000002e-30,6.4643199999999996e-30,-6.2758299999999999e-30
3915.0,4.5518599999999999e-29,1.1475400000000001e-24,1.1475100000000001e-24,1.14755e-24,-3.9525600000000001e-30,6.0097399999999998e-30,-7.5598200000000003e-30
3916.0,4.05136e-29,1.1475400000000001e-24,1.1475e-24,1.14755e-24,-8.4597199999999997e-31,5.2865899999999997e-30,-8.9659299999999994e-30
3917.0,3.6651399999999999e-29,1.14753e-24,1.1475e-24,1.1475400000000001e-24,1.7993799999999999e-30,4.5606200000000002e-30,-1.0455e-29
3918.0,3.3726599999999998e-29,1.14752e-24,1.1475e-24,1.14753e-24,4.0841899999999998e-30,3.8302600000000001e-30,-1.17673e-29
3919.0,3.1996000000000003e-29,1.1475100000000001e-24,1.14749e-24,1.14752e-24,5.8269300000000001e-30,3.08471e-30,-1.2888000000000001e-29
3920.0,3.1365999999999999e-29,1.1475e-24,1.14749e-24,1.1475100000000001e-24,7.3518900000000004e-30,2.4890400000000001e-30,-1.37785e-29
3921.0,3.3214299999999998e-29,1.1475e-24,1.14749e-24,1.1475100000000001e-24,9.5561200000000005e-30,2.4195499999999998e-30,-1.3924599999999999e-29
3922.0,3.2212199999999999e-29,1.1475e-24,1.14749e-24,1.1475100000000001e-24,1.02106e-29,2.2820800000000001e-30,-1.2959800000000001e-29
3923.0,3.0680300000000002e-29,1.1475e-24,1.14749e-24,1.1475100000000001e-24,1.11961e-29,1.8530099999999998e-30,-1.08237e-29
3924.0,2.9349999999999998e-29,1.1475e-24,1.14749e-24,1.1475100000000001e-24,1.15955e-29,1.6865100000000001e-30,-9.2759099999999998e-30
3925.0,2.7891299999999998e-29,1.1475e-24,1.14749e-24,1.1475100000000001e-24,1.22035e-29,1.4629e-30,-6.7651000000000006e-30
3926.0,2.6813000000000001e-29,1.1475e-24,1.14749e-24,1.1475100000000001e-24,1.23733e-29,1.0076299999999999e-30,-4.9435899999999999e-30
3927.0,2.6103700000000002e-29,1.1475100000000001e-24,1.14749e-24,1.1475100000000001e-24,1.2694099999999999e-29,1.11378e-30,-2.40625e-30
3928.0,3.4160199999999998e-29,1.1475100000000001e-24,1.14749e-24,1.14752e-24,8.3553500000000001e-30,3.2251199999999998e-30,-1.3400099999999999e-29
3929.0,3.30322e-29,1.1475100000000001e-24,1.1475e-24,1.14752e-24,9.2461999999999998e-30,2.8191199999999999e-30,-1.2070199999999999e-29
3930.0,3.1916600000000001e-29,1.1475100000000001e-24,1.1475e-24,1.14752e-24,1.002e-29,2.53747e-30,-1.0560399999999999e-29
3931.0,3.04943e-29,1.1475100000000001e-24,1.1475e-24,1.14752e-24,1.05066e-29,2.0661300000000001e-30,-8.673e-30
3932.0,2.9419200000000001e-29,1.1475100000000001e-24,1.1475e-24,1.14752e-24,1.09636e-29,1.7103699999999999e-30,-6.7242000000000004e-30
3933.0,2.8377e-29,1.1475100000000001e-24,1.1475e-24,1.14752e-24,1.11965e-29,1.3462800000000001e-30,-4.6459799999999997e-30
3934.0,2.8067399999999998e-29,1.1475100000000001e-24,1.1475e-24,1.14752e-24,1.15298e-29,7.0638599999999996e-31,-2.6204100000000001e-30
3935.0,3.5388799999999999e-29,1.14752e-24,1.1475e-24,1.14753e-24,6.6864100000000006e-30,4.0389900000000001e-30,-1.2321900000000001e-29
3936.0,3.45575e-29,1.14752e-24,1.1475e-24,1.14753e-24,7.6468700000000004e-30,3.6238200000000003e-30,-1.1295999999999999e-29
3937.0,3.3287600000000001e-29,1.14752e-24,1.1475e-24,1.14753e-24,8.2203700000000004e-30,3.09779e-30,-9.7880499999999996e-30
3938.0,3.2391900000000001e-29,1.14752e-24,1.1475e-24,1.14753e-24,8.7738100000000001e-30,2.6292799999999999e-30,-8.1666199999999999e-30
3939.0,3.1303700000000003e-29,1.14752e-24,1.1475e-24,1.14753e-24,9.0274799999999995e-30,1.9825700000000001e-30,-6.3301899999999999e-30
3940.0,3.0837099999999998e-29,1.14752e-24,1.1475e-24,1.14753e-24,9.4789000000000006e-30,1.4355400000000001e-30,-4.4945899999999998e-30
3941.0,2.9838600000000001e-29,1.14752e-24,1.1475e-24,1.14753e-24,9.3511800000000001e-30,1.00996e-30,-2.6711499999999998e-30
3942.0,3.7402399999999999e-29,1.14753e-24,1.1475e-24,1.1475400000000001e-24,4.4093899999999997e-30,4.9134199999999997e-30,-1.11479e-29
3943.0,3.6392099999999998e-29,1.14753e-24,1.1475e-24,1.1475400000000001e-24,5.2572299999999997e-30,4.4079999999999999e-30,-1.0070799999999999e-29
3944.0,3.55986e-29,1.14753e-24,1.1475e-24,1.1475400000000001e-24,5.8241699999999997e-30,3.8080600000000003e-30,-8.9233299999999993e-30
3945.0,3.47741e-29,1.14753e-24,1.1475100000000001e-24,1.1475400000000001e-24,6.1610599999999999e-30,3.05677e-30,-7.3825899999999997e-30
3946.0,3.4344000000000001e-29,1.14753e-24,1.1475e-24,1.1475400000000001e-24,6.5498300000000006e-30,2.36625e-30,-5.8738299999999998e-30
3947.0,3.3728600000000001e-29,1.14753e-24,1.1475100000000001e-24,1.1475400000000001e-24,6.5606700000000001e-30,1.5637e-30,-4.27995e-30
3948.0,3.4191099999999999e-29,1.14753e-24,1.1475e-24,1.1475400000000001e-24,7.2423200000000004e-30,7.1685399999999997e-31,-2.6616499999999999e-30
3949.0,4.0379999999999997e-29,1.1475400000000001e-24,1.1475100000000001e-24,1.14755e-24,1.52939e-30,5.7912799999999998e-30,-9.5436600000000006e-30
3950.0,3.96549e-29,1.1475400000000001e-24,1.1475100000000001e-24,1.14755e-24,2.18468e-30,5.1645200000000001e-30,-8.8763099999999995e-30
3951.0,3.9013600000000003e-29,1.1475400000000001e-24,1.1475100000000001e-24,1.14755e-24,2.5927099999999998e-30,4.42543e-30,-7.6841900000000001e-30
3952.0,3.8817600000000003e-29,1.1475400000000001e-24,1.1475100000000001e-24,1.14755e-24,2.8544000000000001e-30,3.5951300000000003e-30,-6.5873699999999993e-30
3953.0,3.8522400000000002e-29,1.1475400000000001e-24,1.1475100000000001e-24,1.14755e-24,2.92648e-30,2.6022699999999998e-30,-5.2419900000000003e-30
3954.0,3.8816499999999997e-29,1.1475400000000001e-24,1.1475100000000001e-24,1.14755e-24,3.3239e-30,1.6727899999999999e-30,-4.0144900000000001e-30
3955.0,3.7815900000000003e-29,1.1475400000000001e-24,1.1475100000000001e-24,1.14755e-24,3.0253600000000002e-30,7.7757699999999997e-31,-2.85678e-30
3956.0,4.4821599999999998e-29,1.1475400000000001e-24,1.1475100000000001e-24,1.1475599999999999e-24,-1.9009200000000002e-30,6.5964099999999994e-30,-8.1162299999999995e-30
3957.0,4.4293999999999998e-29,1.14755e-24,1.1475100000000001e-24,1.1475599999999999e-24,-1.45738e-30,5.9384900000000002e-30,-7.3011200000000001e-30
3958.0,4.4345299999999998e-29,1.14755e-24,1.1475100000000001e-24,1.1475599999999999e-24,-1.38161e-30,5.0682899999999997e-30,-6.5595900000000004e-30
3959.0,4.4475000000000002e-29,1.14755e-24,1.1475100000000001e-24,1.1475599999999999e-24,-1.39148e-30,4.0726299999999997e-30,-5.5214499999999999e-30
3960.0,4.4965000000000001e-29,1.14755e-24,1.1475100000000001e-24,1.1475599999999999e-24,-1.32742e-30,2.9293499999999999e-30,-4.7059400000000001e-30
3961.0,4.4843200000000003e-29,1.14755e-24,1.1475100000000001e-24,1.1475599999999999e-24,-1.39994e-30,1.65742e-30,-3.8067999999999999e-30
3962.0,4.5980099999999999e-29,1.14755e-24,1.1475100000000001e-24,1.1475599999999999e-24,-6.8882400000000001e-31,4.2054699999999996e-31,-2.8772599999999999e-30
3963.0,4.9866099999999999e-29,1.14755e-24,1.1475100000000001e-24,1.1475599999999999e-24,-5.3076899999999999e-30,7.3383899999999993e-30,-6.4270300000000005e-30
3964.0,5.0569600000000002e-29,1.14755e-24,1.1475100000000001e-24,1.1475700000000001e-24,-5.6860499999999999e-30,6.5683900000000001e-30,-5.9613200000000002e-30
3965.0,5.16309e-29,1.14755e-24,1.14752e-24,1.1475700000000001e-24,-6.0612399999999998e-30,5.7454999999999997e-30,-5.1783399999999998e-30
3966.0,5.2587699999999995e-29,1.1475599999999999e-24,1.14752e-24,1.1475700000000001e-24,-6.4166700000000003e-30,4.5211600000000003e-30,-4.7052200000000003e-30
3967.0,5.3256199999999997e-29,1.1475599999999999e-24,1.14752e-24,1.1475700000000001e-24,-6.6355800000000005e-30,3.1529000000000001e-30,-4.0726199999999998e-30
3968.0,5.4387099999999995e-29,1.1475599999999999e-24,1.14752e-24,1.14758e-24,-6.5968300000000005e-30,1.6884099999999998e-30,-3.70477e-30
3969.0,5.3257500000000004e-29,1.1475599999999999e-24,1.14752e-24,1.14758e-24,-6.6685600000000001e-30,1.2003799999999999e-31,-3.3877600000000002e-30
3970.0,3.0972899999999999e-29,1.1475e-24,1.14749e-24,1.1475100000000001e-24,7.9504600000000001e-30,2.1432900000000002e-30,-1.3486999999999999e-29
3971.0,2.9323299999999999e-29,1.1475e-24,1.14749e-24,1.1475100000000001e-24,8.8444699999999993e-30,2.155e-30,-1.15892e-29
3972.0,2.8081500000000003e-29,1.1475e-24,1.14749e-24,1.1475100000000001e-24,9.2535299999999993e-30,1.6886800000000001e-30,-1.05019e-29
3973.0,2.6288300000000002e-29,1.1475e-24,1.14749e-24,1.1475100000000001e-24,9.89701e-30,1.5181800000000001e-30,-8.1858100000000004e-30
3974.0,2.49878e-29,1.1475e-24,1.14749e-24,1.1475100000000001e-24,1.00965e-29,1.0956400000000001e-30,-6.6976499999999999e-30
3975.0,2.3667199999999999e-29,1.1475e-24,1.14749e-24,1.1475100000000001e-24,1.04922e-29,9.6188100000000007e-31,-4.2297300000000002e-30
3976.0,2.3165199999999999e-29,1.1475e-24,1.14749e-24,1.1475100000000001e-24,1.0514099999999999e-29,3.3583500000000002e-31,-2.58159e-30
3977.0,3.1551400000000001e-29,1.1475100000000001e-24,1.1475e-24,1.14752e-24,6.88117e-30,2.93201e-30,-1.2244999999999999e-29
3978.0,3.0216199999999999e-29,1.1475100000000001e-24,1.1475e-24,1.14752e-24,7.4639799999999997e-30,2.5623700000000001e-30,-1.1103100000000001e-29
3979.0,2.89052e-29,1.1475100000000001e-24,1.1475e-24,1.14752e-24,7.9638299999999997e-30,2.20457e-30,-9.6090399999999995e-30
3980.0,2.7670199999999998e-29,1.1475100000000001e-24,1.1475e-24,1.14752e-24,8.44161e-30,1.83376e-30,-7.9855300000000001e-30
3981.0,2.6483399999999999e-29,1.1475100000000001e-24,1.1475e-24,1.14752e-24,8.7635000000000004e-30,1.4096200000000001e-30,-6.1518699999999997e-30
3982.0,2.5788600000000002e-29,1.1475100000000001e-24,1.1475e-24,1.14752e-24,9.0589399999999999e-30,9.53795e-31,-4.3646200000000003e-30
3983.0,2.4657799999999999e-29,1.1475100000000001e-24,1.1475e-24,1.14752e-24,9.2333000000000004e-30,7.4975200000000003e-31,-2.4421400000000001e-30
3984.0,3.30447e-29,1.14752e-24,1.1475e-24,1.14753e-24,5.1491e-30,3.54403e-30,-1.1213099999999999e-29
3985.0,3.1890799999999999e-29,1.14752e-24,1.1475e-24,1.14753e-24,5.6303899999999997e-30,3.0940399999999999e-30,-1.0173200000000001e-29
3986.0,3.0926699999999999e-29,1.14752e-24,1.1475e-24,1.14753e-24,6.1665999999999999e-30,2.7106100000000001e-30,-8.8910600000000002e-30
3987.0,2.9880200000000001e-29,1.14752e-24,1.1475e-24,1.14753e-24,6.4958399999999997e-30,2.1389500000000001e-30,-7.3928900000000002e-30
3988.0,2.9287799999999997e-29,1.14752e-24,1.1475e-24,1.14753e-24,6.8855199999999994e-30,1.6800999999999999e-30,-5.8288199999999999e-30
3989.0,2.8422700000000001e-29,1.14752e-24,1.1475e-24,1.14753e-24,7.0322899999999996e-30,1.12313e-30,-4.1744000000000001e-30
3990.0,2.89268e-29,1.14752e-24,1.1475e-24,1.14753e-24,7.4994900000000007e-30,4.9055499999999998e-31,-2.5568300000000001e-30
3991.0,3.5589500000000001e-29,1.14753e-24,1.1475e-24,1.1475400000000001e-24,2.8899500000000002e-30,4.1776499999999998e-30,-1.00085e-29
3992.0,3.4717300000000002e-29,1.14753e-24,1.1475e-24,1.1475400000000001e-24,3.3501199999999998e-30,3.7203200000000002e-30,-9.1948799999999997e-30
3993.0,3.39074e-29,1.14753e-24,1.1475e-24,1.1475400000000001e-24,3.7093699999999997e-30,3.1375500000000001e-30,-7.9952599999999994e-30
3994.0,3.34162e-29,1.14753e-24,1.1475e-24,1.1475400000000001e-24,4.0614100000000003e-30,2.5764099999999999e-30,-6.7730799999999995e-30
3995.0,3.2989700000000002e-29,1.14753e-24,1.1475100000000001e-24,1.1475400000000001e-24,4.2333499999999998e-30,1.8704000000000001e-30,-5.39725e-30
3996.0,3.2981100000000002e-29,1.14753e-24,1.1475e-24,1.1475400000000001e-24,4.5490999999999999e-30,1.23185e-30,-4.0396400000000002e-30
3997.0,3.2146599999999999e-29,1.14753e-24,1.1475100000000001e-24,1.1475400000000001e-24,4.72744e-30,6.15473e-31,-2.6435e-30
3998.0,3.9446000000000002e-29,1.14753e-24,1.1475100000000001e-24,1.1475400000000001e-24,1.4421400000000001e-31,4.89104e-30,-8.7891199999999999e-30
3999.0,3.8671199999999997e-29,1.1475400000000001e-24,1.1475100000000001e-24,1.14755e-24,4.6843200000000004e-31,4.3153000000000002e-30,-7.9453699999999997e-30
4000.0,3.8530099999999999e-29,1.1475400000000001e-24,1.1475100000000001e-24,1.14755e-24,7.0423e-31,3.6865700000000003e-30,-7.1120300000000001e-30
4001.0,3.83444e-29,1.1475400000000001e-24,1.1475100000000001e-24,1.14755e-24,8.2324299999999998e-31,2.92045e-30,-6.0080399999999999e-30
4002.0,3.8433400000000001e-29,1.1475400000000001e-24,1.1475100000000001e-24,1.14755e-24,9.8982999999999999e-31,2.1515400000000001e-30,-4.9703099999999997e-30
4003.0,3.83718e-29,1.1475400000000001e-24,1.1475100000000001e-24,1.14755e-24,1.06848e-30,1.23027e-30,-3.8691500000000002e-30
4004.0,3.9136199999999998e-29,1.1475400000000001e-24,1.1475100000000001e-24,1.14755e-24,1.55394e-30,3.62394e-31,-2.81592e-30
4005.0,4.4191700000000001e-29,1.1475400000000001e-24,1.1475100000000001e-24,1.14755e-24,-2.9267100000000001e-30,5.5282400000000002e-30,-7.3388300000000003e-30
4006.0,4.4138300000000002e-29,1.1475400000000001e-24,1.1475100000000001e-24,1.14755e-24,-2.8481700000000002e-30,4.9255200000000003e-30,-6.8863200000000002e-30
4007.0,4.4332500000000001e-29,1.14755e-24,1.1475100000000001e-24,1.1475599999999999e-24,-2.87967e-30,4.1998099999999997e-30,-6.0302099999999998e-30
4008.0,4.46936e-29,1.14755e-24,1.1475100000000001e-24,1.1475599999999999e-24,-2.9380300000000001e-30,3.3510899999999999e-30,-5.3188200000000003e-30
4009.0,4.5050500000000002e-29,1.14755e-24,1.1475100000000001e-24,1.1475599999999999e-24,-3.0268599999999998e-30,2.3232600000000001e-30,-4.48214e-30
4010.0,4.57626e-29,1.14755e-24,1.1475100000000001e-24,1.1475599999999999e-24,-2.8909700000000001e-30,1.2802900000000001e-30,-3.7579200000000002e-30
4011.0,4.5013000000000003e-29,1.14755e-24,1.1475100000000001e-24,1.1475599999999999e-24,-2.6036300000000001e-30,2.3033099999999999e-31,-3.0637100000000001e-30
4012.0,4.9259199999999998e-29,1.14755e-24,1.1475100000000001e-24,1.1475599999999999e-24,-5.8218700000000002e-30,6.0238199999999998e-30,-6.4209700000000005e-30
4013.0,4.9720500000000001e-29,1.14755e-24,1.1475100000000001e-24,1.1475599999999999e-24,-6.0273e-30,5.5477899999999999e-30,-5.70734e-30
4014.0,5.0836400000000004e-29,1.14755e-24,1.1475100000000001e-24,1.1475700000000001e-24,-6.4606300000000003e-30,4.7216299999999998e-30,-5.2623200000000001e-30
4015.0,5.1700200000000003e-29,1.14755e-24,1.1475100000000001e-24,1.1475700000000001e-24,-6.8608999999999999e-30,3.73446e-30,-4.5989999999999997e-30
4016.0,5.2758500000000005e-29,1.1475599999999999e-24,1.1475100000000001e-24,1.1475700000000001e-24,-7.1098200000000002e-30,2.5258399999999999e-30,-4.1293900000000002e-30
4017.0,5.3245499999999998e-29,1.1475599999999999e-24,1.14752e-24,1.1475700000000001e-24,-7.1927499999999993e-30,1.18422e-30,-3.7679199999999998e-30
4018.0,5.43409e-29,1.1475599999999999e-24,1.1475100000000001e-24,1.1475700000000001e-24,-7.0128299999999996e-30,-7.4142499999999996e-32,-3.4177199999999999e-30
4019.0,6.7185500000000003e-29,1.1475700000000001e-24,1.14752e-24,1.1475899999999999e-24,-1.3280600000000001e-29,-3.0222399999999999e-31,-3.8756499999999997e-30
4020.0,8.0301300000000005e-29,1.14758e-24,1.14752e-24,1.1476000000000001e-24,-2.1277e-29,-1.1952e-30,-4.5901200000000003e-30
4021.0,1.01572e-28,1.1475899999999999e-24,1.14752e-24,1.1476199999999999e-24,-3.1878299999999999e-29,-1.8315299999999999e-30,-6.1148300000000002e-30
4022.0,1.2652899999999999e-28,1.1476000000000001e-24,1.14752e-24,1.14764e-24,-4.4182800000000003e-29,-2.9282300000000001e-30,-7.6585000000000002e-30
4023.0,1.60648e-28,1.14761e-24,1.14752e-24,1.14766e-24,-5.9489900000000004e-29,-3.98481e-30,-1.04097e-29
4024.0,2.0196099999999999e-28,1.14763e-24,1.1475100000000001e-24,1.1476799999999999e-24,-7.5827100000000004e-29,-4.96519e-30,-1.33176e-29
4025.0,2.5027399999999999e-28,1.1476499999999999e-24,1.14749e-24,1.1477e-24,-9.0465800000000005e-29,-5.5992400000000001e-30,-1.76711e-29
4026.0,6.5387499999999995e-29,1.1475700000000001e-24,1.14752e-24,1.1475899999999999e-24,-1.3374699999999999e-29,1.5332299999999999e-30,-3.7046799999999997e-30
4027.0,8.0872499999999997e-29,1.14758e-24,1.14752e-24,1.1476000000000001e-24,-2.1588800000000001e-29,1.5126699999999999e-30,-3.7036799999999997e-30
4028.0,9.9960899999999999e-29,1.14758e-24,1.14752e-24,1.1476199999999999e-24,-3.15143e-29,1.5672899999999999e-30,-3.8718400000000002e-30
4029.0,1.25774e-28,1.1476000000000001e-24,1.14752e-24,1.14764e-24,-4.4003700000000001e-29,1.9219100000000001e-30,-3.93917e-30
4030.0,1.58476e-28,1.14761e-24,1.14752e-24,1.1476499999999999e-24,-5.8746999999999999e-29,2.5582199999999999e-30,-3.7238700000000001e-30
4031.0,1.9898e-28,1.14763e-24,1.1475100000000001e-24,1.1476799999999999e-24,-7.4426000000000004e-29,3.52154e-30,-3.214e-30
4032.0,2.45922e-28,1.1476499999999999e-24,1.14749e-24,1.1477e-24,-8.9046399999999999e-29,4.8672299999999999e-30,-1.4776499999999999e-30
4033.0,6.4845799999999996e-29,1.1475700000000001e-24,1.14752e-24,1.1475899999999999e-24,-1.30996e-29,3.3866100000000001e-30,-3.5587400000000002e-30
4034.0,7.8725600000000003e-29,1.1475700000000001e-24,1.14752e-24,1.1476000000000001e-24,-2.0806599999999999e-29,4.0585499999999997e-30,-2.92984e-30
4035.0,9.7536300000000004e-29,1.14758e-24,1.14752e-24,1.14761e-24,-3.0355699999999998e-29,4.9137e-30,-1.9188800000000001e-30
4036.0,1.2109099999999999e-28,1.1475899999999999e-24,1.14752e-24,1.14763e-24,-4.1626100000000002e-29,6.3374199999999998e-30,-4.8927900000000002e-31
4037.0,1.5131700000000001e-28,1.14761e-24,1.14752e-24,1.1476499999999999e-24,-5.4838499999999997e-29,8.2916299999999999e-30,2.0345800000000001e-30
4038.0,1.8735200000000001e-28,1.1476199999999999e-24,1.1475e-24,1.14766e-24,-6.8329099999999998e-29,1.0557100000000001e-29,5.9026599999999999e-30
4039.0,2.27898e-28,1.14764e-24,1.14749e-24,1.1476799999999999e-24,-7.9830500000000004e-29,1.29301e-29,1.12053e-29
4040.0,6.2942700000000002e-29,1.1475599999999999e-24,1.14752e-24,1.14758e-24,-1.2457099999999999e-29,5.2056899999999998e-30,-3.5885699999999997e-30
4041.0,7.6108000000000004e-29,1.1475700000000001e-24,1.14752e-24,1.1476000000000001e-24,-1.9537299999999999e-29,6.09408e-30,-2.3138e-30
4042.0,9.2719800000000004e-29,1.14758e-24,1.14752e-24,1.14761e-24,-2.7944100000000002e-29,7.6546300000000002e-30,-6.1592399999999999e-31
4043.0,1.1386400000000001e-28,1.1475899999999999e-24,1.14752e-24,1.1476199999999999e-24,-3.7791999999999997e-29,9.5395500000000003e-30,2.0644999999999999e-30
4044.0,1.3936099999999999e-28,1.1476000000000001e-24,1.1475100000000001e-24,1.14764e-24,-4.8446099999999998e-29,1.21244e-29,5.9217799999999999e-30
4045.0,1.69237e-28,1.1476199999999999e-24,1.1475100000000001e-24,1.1476499999999999e-24,-5.8828499999999999e-29,1.4634499999999999e-29,1.14506e-29
4046.0,2.01222e-28,1.14763e-24,1.14749e-24,1.14766e-24,-6.73151e-29,1.72161e-29,1.8384399999999999e-29
4047.0,6.0876599999999996e-29,1.1475599999999999e-24,1.14752e-24,1.14758e-24,-1.14575e-29,6.46943e-30,-3.9230200000000002e-30
4048.0,7.2314700000000002e-29,1.1475700000000001e-24,1.14752e-24,1.1475899999999999e-24,-1.7643500000000001e-29,7.8240500000000004e-30,-2.27749e-30
4049.0,8.6706299999999999e-29,1.14758e-24,1.14752e-24,1.1476000000000001e-24,-2.48021e-29,9.3155699999999995e-30,-5.0519099999999999e-32
4050.0,1.04036e-28,1.1475899999999999e-24,1.14752e-24,1.14761e-24,-3.2704399999999998e-29,1.14921e-29,3.0561e-30
4051.0,1.2484399999999999e-28,1.1476000000000001e-24,1.1475100000000001e-24,1.1476199999999999e-24,-4.0994700000000002e-29,1.38304e-29,7.4721100000000001e-30
4052.0,1.47826e-28,1.14761e-24,1.1475100000000001e-24,1.14763e-24,-4.84207e-29,1.6063200000000001e-29,1.3044e-29
4053.0,1.72012e-28,1.1476199999999999e-24,1.1475e-24,1.14764e-24,-5.3792499999999998e-29,1.79432e-29,1.9943800000000001e-29
4054.0,5.8365999999999996e-29,1.1475599999999999e-24,1.14752e-24,1.14758e-24,-1.02501e-29,7.5702299999999995e-30,-4.3440799999999999e-30
4055.0,6.7572799999999996e-29,1.1475700000000001e-24,1.14752e-24,1.14758e-24,-1.5319300000000001e-29,8.6220300000000005e-30,-2.7333099999999999e-30
4056.0,7.9095500000000004e-29,1.1475700000000001e-24,1.14752e-24,1.1475899999999999e-24,-2.10793e-29,1.0311800000000001e-29,-4.5965500000000001e-31
4057.0,9.3096000000000005e-29,1.14758e-24,1.14752e-24,1.1476000000000001e-24,-2.73223e-29,1.1971499999999999e-29,2.6568899999999998e-30
4058.0,1.0896099999999999e-28,1.1475899999999999e-24,1.1475100000000001e-24,1.14761e-24,-3.3397700000000003e-29,1.4060499999999999e-29,6.7004700000000007e-30
4059.0,1.2665799999999999e-28,1.1476000000000001e-24,1.1475100000000001e-24,1.1476199999999999e-24,-3.8774999999999998e-29,1.55714e-29,1.18325e-29
4060.0,1.43031e-28,1.14761e-24,1.1475e-24,1.1476199999999999e-24,-4.2355300000000001e-29,1.68192e-29,1.7312899999999999e-29
4061.0,5.5326499999999999e-29,1.1475599999999999e-24,1.1475100000000001e-24,1.1475700000000001e-24,-8.7984499999999995e-30,7.9579399999999997e-30,-5.1263399999999997e-30
4062.0,6.2141299999999999e-29,1.1475599999999999e-24,1.1475100000000001e-24,1.14758e-24,-1.25601e-29,8.9798399999999995e-30,-3.8207599999999998e-30
4063.0,7.0747700000000001e-29,1.1475700000000001e-24,1.1475100000000001e-24,1.14758e-24,-1.6971799999999999e-29,1.01237e-29,-1.8006499999999999e-30
4064.0,8.1624999999999995e-29,1.1475700000000001e-24,1.1475100000000001e-24,1.1475899999999999e-24,-2.1841500000000001e-29,1.16546e-29,9.7154100000000002e-31
4065.0,9.3876299999999996e-29,1.14758e-24,1.1475100000000001e-24,1.1476000000000001e-24,-2.64642e-29,1.29671e-29,4.4712100000000001e-30
4066.0,1.06409e-28,1.1475899999999999e-24,1.1475100000000001e-24,1.1476000000000001e-24,-3.02824e-29,1.4064999999999999e-29,8.5544000000000006e-30
4067.0,1.1986599999999999e-28,1.1476000000000001e-24,1.1475e-24,1.1476000000000001e-24,-3.2563599999999998e-29,1.46381e-29,1.29307e-29
4068.0,6.1916199999999999e-29,1.1475599999999999e-24,1.14752e-24,1.14758e-24,-1.20884e-29,-2.9100800000000002e-31,-3.83984e-30
4069.0,7.3546000000000002e-29,1.1475700000000001e-24,1.14752e-24,1.1475899999999999e-24,-1.7291100000000001e-29,-8.7630500000000005e-31,-4.5010300000000003e-30
4070.0,8.7269900000000005e-29,1.14758e-24,1.14752e-24,1.1476000000000001e-24,-2.5015399999999999e-29,-1.41988e-30,-5.3944499999999998e-30
4071.0,1.07387e-28,1.1475899999999999e-24,1.14752e-24,1.1476199999999999e-24,-3.36527e-29,-1.95515e-30,-6.8497899999999993e-30
4072.0,1.2965000000000001e-28,1.1476000000000001e-24,1.1475100000000001e-24,1.14763e-24,-4.3086400000000002e-29,-2.54358e-30,-8.2428799999999996e-30
4073.0,1.56682e-28,1.1476199999999999e-24,1.1475100000000001e-24,1.1476499999999999e-24,-5.1889e-29,-2.8100599999999999e-30,-1.04432e-29
4074.0,1.85857e-28,1.14763e-24,1.14749e-24,1.14766e-24,-5.9625199999999995e-29,-3.08119e-30,-1.2394400000000001e-29
4075.0,6.2176900000000002e-29,1.1475599999999999e-24,1.14752e-24,1.14758e-24,-1.1802100000000001e-29,1.1901900000000001e-30,-3.7919500000000003e-30
4076.0,7.2135499999999999e-29,1.1475700000000001e-24,1.14752e-24,1.1475899999999999e-24,-1.74842e-29,1.08894e-30,-3.93901e-30
4077.0,8.6912200000000001e-29,1.14758e-24,1.14752e-24,1.1476000000000001e-24,-2.4533500000000001e-29,1.07443e-30,-4.0991800000000003e-30
4078.0,1.0503000000000001e-28,1.1475899999999999e-24,1.14752e-24,1.14761e-24,-3.2979499999999997e-29,1.2416e-30,-4.2728800000000001e-30
4079.0,1.27828e-28,1.1476000000000001e-24,1.1475100000000001e-24,1.14763e-24,-4.1952000000000002e-29,1.51879e-30,-4.3051000000000001e-30
4080.0,1.5304499999999999e-28,1.14761e-24,1.1475e-24,1.14764e-24,-5.0651199999999998e-29,2.0773e-30,-3.94152e-30
4081.0,1.8380699999999999e-28,1.14763e-24,1.14749e-24,1.14766e-24,-5.8450099999999999e-29,2.3973400000000001e-30,-3.7065400000000003e-30
4082.0,6.0792199999999996e-29,1.1475599999999999e-24,1.14752e-24,1.14758e-24,-1.16322e-29,2.69921e-30,-3.8549300000000001e-30
4083.0,7.0864699999999998e-29,1.1475700000000001e-24,1.14752e-24,1.1475899999999999e-24,-1.6936799999999999e-29,2.9660399999999998e-30,-3.4747899999999998e-30
4084.0,8.4426800000000002e-29,1.14758e-24,1.14752e-24,1.1476000000000001e-24,-2.35972e-29,3.4593399999999998e-30,-3.0004600000000001e-30
4085.0,1.0203900000000001e-28,1.1475899999999999e-24,1.14752e-24,1.14761e-24,-3.1445400000000001e-29,4.10193e-30,-2.0766499999999999e-30
4086.0,1.2275399999999999e-28,1.1476000000000001e-24,1.1475100000000001e-24,1.1476199999999999e-24,-3.9597500000000001e-29,5.1112499999999997e-30,-7.3835600000000003e-31
4087.0,1.46507e-28,1.14761e-24,1.1475e-24,1.14764e-24,-4.73768e-29,6.16338e-30,1.2737100000000001e-30
4088.0,1.7430800000000001e-28,1.1476199999999999e-24,1.14749e-24,1.1476499999999999e-24,-5.5018699999999998e-29,7.2403099999999997e-30,4.3977899999999998e-30
4089.0,5.9500199999999999e-29,1.1475599999999999e-24,1.14752e-24,1.14758e-24,-1.10612e-29,4.0703300000000002e-30,-4.0248600000000002e-30
4090.0,6.8656799999999998e-29,1.1475700000000001e-24,1.14752e-24,1.1475899999999999e-24,-1.5906299999999999e-29,4.66737e-30,-3.2817999999999999e-30
4091.0,8.1104300000000001e-29,1.1475700000000001e-24,1.14752e-24,1.1476000000000001e-24,-2.19987e-29,5.3332399999999997e-30,-2.13863e-30
4092.0,9.6724200000000002e-29,1.14758e-24,1.1475100000000001e-24,1.1476000000000001e-24,-2.8817100000000002e-29,6.5118499999999994e-30,-5.5407800000000003e-31
4093.0,1.15257e-28,1.1475899999999999e-24,1.1475100000000001e-24,1.1476199999999999e-24,-3.5896800000000002e-29,7.6832400000000006e-30,1.82704e-30
4094.0,1.35341e-28,1.1476000000000001e-24,1.1475e-24,1.14763e-24,-4.2391499999999998e-29,9.1893099999999999e-30,4.9915599999999999e-30
4095.0,1.60269e-28,1.1476199999999999e-24,1.14749e-24,1.14764e-24,-4.8501e-29,1.0472499999999999e-29,9.2996300000000002e-30
4096.0,5.7639600000000002e-29,1.1475599999999999e-24,1.1475100000000001e-24,1.1475700000000001e-24,-1.0244700000000001e-29,5.3192599999999999e-30,-4.3151100000000003e-30
4097.0,6.5699099999999999e-29,1.1475599999999999e-24,1.1475100000000001e-24,1.14758e-24,-1.46036e-29,5.84173e-30,-3.26935e-30
4098.0,7.6629199999999997e-29,1.1475700000000001e-24,1.1475100000000001e-24,1.1475899999999999e-24,-1.97799e-29,6.85971e-30,-1.8718799999999999e-30
4099.0,9.0039799999999995e-29,1.14758e-24,1.1475100000000001e-24,1.1476000000000001e-24,-2.5622899999999998e-29,7.9750900000000003e-30,2.4064300000000001e-31
4100.0,1.0555100000000001e-28,1.1475899999999999e-24,1.1475100000000001e-24,1.14761e-24,-3.1342300000000001e-29,9.3995900000000004e-30,3.0254099999999999e-30
4101.0,1.22557e-28,1.1476000000000001e-24,1.1475e-24,1.14761e-24,-3.65906e-29,1.07416e-29,6.6057499999999997e-30
4102.0,1.4155400000000001e-28,1.14761e-24,1.1475e-24,1.1476199999999999e-24,-4.1446299999999999e-29,1.21862e-29,1.15563e-29
4103.0,5.5527500000000003e-29,1.1475599999999999e-24,1.1475100000000001e-24,1.1475700000000001e-24,-9.2890299999999996e-30,6.0075199999999999e-30,-4.8175999999999998e-30
4104.0,6.2356900000000002e-29,1.1475599999999999e-24,1.1475100000000001e-24,1.14758e-24,-1.29324e-29,6.8559599999999995e-30,-3.7527400000000001e-30
4105.0,7.1339199999999996e-29,1.1475700000000001e-24,1.1475100000000001e-24,1.14758e-24,-1.7353599999999999e-29,7.6641800000000003e-30,-2.1673499999999999e-30
4106.0,8.2560099999999996e-29,1.1475700000000001e-24,1.1475100000000001e-24,1.1475899999999999e-24,-2.20839e-29,8.9662499999999995e-30,-3.8070100000000001e-32
4107.0,9.5328900000000004e-29,1.14758e-24,1.1475100000000001e-24,1.1476000000000001e-24,-2.68117e-29,1.0119799999999999e-29,2.88698e-30
4108.0,1.08595e-28,1.1475899999999999e-24,1.1475e-24,1.1476000000000001e-24,-3.0890400000000001e-29,1.13251e-29,6.4223399999999997e-30
4109.0,1.2487699999999999e-28,1.1476000000000001e-24,1.1475e-24,1.14761e-24,-3.4376400000000001e-29,1.2301399999999999e-29,1.05388e-29
4110.0,5.36884e-29,1.14755e-24,1.1475100000000001e-24,1.1475700000000001e-24,-8.3281799999999993e-30,6.6375199999999994e-30,-5.4077299999999997e-30
4111.0,5.8764400000000002e-29,1.1475599999999999e-24,1.1475100000000001e-24,1.1475700000000001e-24,-1.1249699999999999e-29,7.1481599999999999e-30,-4.4096000000000002e-30
4112.0,6.6380299999999997e-29,1.1475599999999999e-24,1.1475100000000001e-24,1.14758e-24,-1.49207e-29,8.12985e-30,-2.9711000000000001e-30
4113.0,7.55492e-29,1.1475700000000001e-24,1.1475100000000001e-24,1.14758e-24,-1.8931800000000001e-29,9.0838300000000003e-30,-8.7596300000000001e-31
4114.0,8.5944199999999996e-29,1.1475700000000001e-24,1.1475100000000001e-24,1.1475899999999999e-24,-2.2768300000000001e-29,1.0174499999999999e-29,1.8063700000000002e-30
4115.0,9.7388100000000003e-29,1.14758e-24,1.1475e-24,1.1475899999999999e-24,-2.6184000000000002e-29,1.1007399999999999e-29,4.9074300000000002e-30
4116.0,1.0876199999999999e-28,1.1475899999999999e-24,1.1475e-24,1.1476000000000001e-24,-2.9077699999999999e-29,1.19968e-29,9.1494200000000004e-30
4117.0,3.1687399999999999e-29,1.1475100000000001e-24,1.14749e-24,1.1475100000000001e-24,-5.4024400000000001e-30,3.06549e-30,-1.2016e-29
4118.0,3.0819300000000002e-29,1.1475e-24,1.1474799999999999e-24,1.1475100000000001e-24,-4.5790299999999997e-30,2.2193900000000001e-30,-1.02785e-29
4119.0,2.8213199999999998e-29,1.1475100000000001e-24,1.14749e-24,1.1475100000000001e-24,-5.9235500000000002e-30,2.0485499999999999e-30,-8.6628299999999997e-30
4120.0,2.8485699999999999e-29,1.1475100000000001e-24,1.14749e-24,1.1475100000000001e-24,-4.0442499999999998e-30,1.2410199999999999e-30,-7.3911399999999998e-30
4121.0,2.52086e-29,1.1475100000000001e-24,1.14749e-24,1.1475100000000001e-24,-6.8349899999999995e-30,7.1915599999999998e-31,-5.17745e-30
4122.0,2.74585e-29,1.1475100000000001e-24,1.1474799999999999e-24,1.1475100000000001e-24,-2.0998899999999999e-30,6.8761399999999998e-31,-5.3126200000000003e-30
4123.0,2.6768299999999999e-29,1.14752e-24,1.1475e-24,1.14752e-24,-1.0617200000000001e-29,-3.7551e-30,2.1225900000000001e-30
4124.0,3.0514099999999998e-29,1.1475e-24,1.14749e-24,1.1475100000000001e-24,-2.7142699999999998e-30,2.7528399999999999e-30,-1.2317499999999999e-29
4125.0,2.8029299999999999e-29,1.1475100000000001e-24,1.14749e-24,1.1475100000000001e-24,-3.5115299999999998e-30,2.3358099999999999e-30,-1.06109e-29
4126.0,2.69707e-29,1.1475e-24,1.14749e-24,1.1475100000000001e-24,-2.6001699999999999e-30,1.8784500000000001e-30,-9.1387999999999999e-30
4127.0,2.4012400000000001e-29,1.1475100000000001e-24,1.14749e-24,1.1475100000000001e-24,-3.8490000000000003e-30,1.07397e-30,-7.0722699999999994e-30
4128.0,2.4412e-29,1.1475100000000001e-24,1.14749e-24,1.1475100000000001e-24,-1.9215800000000001e-30,1.15657e-30,-6.3981799999999997e-30
4129.0,2.0608599999999999e-29,1.1475100000000001e-24,1.1475e-24,1.14752e-24,-4.5032400000000002e-30,-1.1267e-30,-2.7350900000000001e-30
4130.0,2.4336e-29,1.1475100000000001e-24,1.14749e-24,1.1475100000000001e-24,-1.5939199999999999e-30,-2.8826300000000001e-31,-4.6690899999999998e-30
4131.0,2.90317e-29,1.1475e-24,1.14749e-24,1.1475100000000001e-24,-1.21568e-30,2.6398700000000001e-30,-1.26166e-29
4132.0,2.7160100000000002e-29,1.1475e-24,1.14749e-24,1.1475100000000001e-24,-6.93944e-31,2.2634899999999999e-30,-1.09935e-29
4133.0,2.4277199999999999e-29,1.1475100000000001e-24,1.14749e-24,1.1475100000000001e-24,-1.3880600000000001e-30,1.6098699999999999e-30,-9.0471099999999995e-30
4134.0,2.3565400000000001e-29,1.1475e-24,1.14749e-24,1.1475100000000001e-24,-4.0227399999999996e-31,1.4880499999999999e-30,-7.9034000000000005e-30
4135.0,2.00135e-29,1.1475100000000001e-24,1.14749e-24,1.1475100000000001e-24,-1.42196e-30,1.52185e-31,-5.2442699999999998e-30
4136.0,2.0952100000000001e-29,1.1475100000000001e-24,1.14749e-24,1.1475100000000001e-24,-1.00453e-31,3.57014e-31,-5.0806899999999998e-30
4137.0,1.60591e-29,1.1475100000000001e-24,1.1475e-24,1.1475100000000001e-24,-1.1250500000000001e-30,-1.74857e-31,-1.2869099999999999e-30
4138.0,2.86277e-29,1.1475e-24,1.14749e-24,1.1475100000000001e-24,1.44228e-30,2.52328e-30,-1.2769599999999999e-29
4139.0,2.5741599999999999e-29,1.1475100000000001e-24,1.14749e-24,1.1475100000000001e-24,8.5987700000000006e-31,2.1024299999999998e-30,-1.09956e-29
4140.0,2.4292800000000001e-29,1.1475e-24,1.14749e-24,1.1475100000000001e-24,1.47939e-30,1.7637e-30,-9.5936300000000001e-30
4141.0,2.0917399999999999e-29,1.1475100000000001e-24,1.14749e-24,1.1475100000000001e-24,1.0059899999999999e-30,9.7640999999999997e-31,-7.3340999999999997e-30
4142.0,2.04767e-29,1.1475100000000001e-24,1.14749e-24,1.1475100000000001e-24,1.7433100000000001e-30,8.5853200000000007e-31,-6.4031799999999999e-30
4143.0,1.6950199999999999e-29,1.1475100000000001e-24,1.1475e-24,1.1475100000000001e-24,1.3198799999999999e-30,1.67842e-31,-3.5392700000000003e-30
4144.0,1.85107e-29,1.1475100000000001e-24,1.14749e-24,1.1475100000000001e-24,1.9069000000000001e-30,-5.1335900000000001e-31,-3.09998e-30
4145.0,2.8113800000000001e-29,1.1475e-24,1.14749e-24,1.1475100000000001e-24,3.06626e-30,2.4720699999999998e-30,-1.27634e-29
4146.0,2.6263499999999999e-29,1.1475e-24,1.14749e-24,1.1475100000000001e-24,3.4398699999999998e-30,1.9911200000000001e-30,-1.12918e-29
4147.0,2.31878e-29,1.1475100000000001e-24,1.14749e-24,1.1475100000000001e-24,3.1926500000000001e-30,1.5844499999999999e-30,-9.2834599999999998e-30
4148.0,2.1985499999999999e-29,1.1475e-24,1.14749e-24,1.1475100000000001e-24,3.7138599999999999e-30,1.23383e-30,-8.0492100000000005e-30
4149.0,1.8912500000000001e-29,1.1475100000000001e-24,1.14749e-24,1.1475100000000001e-24,3.6089500000000001e-30,7.1011500000000003e-31,-5.5851999999999999e-30
4150.0,1.8655800000000001e-29,1.1475100000000001e-24,1.14749e-24,1.1475100000000001e-24,3.9503299999999997e-30,2.4249400000000002e-31,-4.5818299999999999e-30
4151.0,1.5680099999999999e-29,1.1475100000000001e-24,1.1475e-24,1.1475100000000001e-24,3.9934700000000003e-30,1.7246599999999999e-31,-1.871e-30
4152.0,2.8869500000000002e-29,1.1475e-24,1.14749e-24,1.1475100000000001e-24,5.3522999999999999e-30,2.1881100000000001e-30,-1.28213e-29
4153.0,2.6144299999999998e-29,1.1475e-24,1.14749e-24,1.1475100000000001e-24,5.1101400000000001e-30,2.0613999999999999e-30,-1.1080600000000001e-29
4154.0,2.46143e-29,1.1475e-24,1.14749e-24,1.1475100000000001e-24,5.5302900000000001e-30,1.5333200000000001e-30,-9.80656e-30
4155.0,2.1912499999999999e-29,1.1475e-24,1.14749e-24,1.1475100000000001e-24,5.6656500000000003e-30,1.26215e-30,-7.5729700000000007e-30
4156.0,2.08676e-29,1.1475e-24,1.14749e-24,1.1475100000000001e-24,5.9393999999999999e-30,7.9017300000000004e-31,-6.3250799999999995e-30
4157.0,1.8605e-29,1.1475100000000001e-24,1.1475e-24,1.1475100000000001e-24,6.1239799999999999e-30,5.6776200000000004e-31,-3.8493199999999997e-30
4158.0,1.87352e-29,1.1475100000000001e-24,1.14749e-24,1.1475100000000001e-24,6.2042800000000002e-30,-1.7638000000000001e-31,-2.6071399999999998e-30
4159.0,2.8930500000000003e-29,1.1475e-24,1.14749e-24,1.1475100000000001e-24,6.6457099999999996e-30,2.4371499999999999e-30,-1.25485e-29
4160.0,2.7807499999999998e-29,1.1475e-24,1.14749e-24,1.1475100000000001e-24,7.0571699999999994e-30,1.78771e-30,-1.1597699999999999e-29
4161.0,2.5465799999999999e-29,1.1475e-24,1.14749e-24,1.1475100000000001e-24,7.4331900000000001e-30,1.7603099999999998e-30,-9.5467699999999996e-30
4162.0,2.4123299999999999e-29,1.1475e-24,1.14749e-24,1.1475100000000001e-24,7.7374100000000007e-30,1.2262700000000001e-30,-8.2700500000000003e-30
4163.0,2.2166099999999999e-29,1.1475e-24,1.14749e-24,1.1475100000000001e-24,8.1134200000000007e-30,1.0419399999999999e-30,-5.9025499999999997e-30
4164.0,2.1277199999999999e-29,1.1475e-24,1.14749e-24,1.1475100000000001e-24,8.2046700000000001e-30,5.0767100000000001e-31,-4.4981499999999997e-30
4165.0,1.97976e-29,1.1475100000000001e-24,1.1475e-24,1.1475100000000001e-24,8.5232699999999995e-30,5.0288900000000003e-31,-2.10366e-30
4166.0,3.8170100000000001e-29,1.14752e-24,1.14749e-24,1.14752e-24,-6.3422699999999999e-30,3.4637700000000002e-30,-1.03287e-29
4167.0,3.6316600000000001e-29,1.14752e-24,1.14749e-24,1.14752e-24,-7.0266900000000005e-30,3.0119299999999998e-30,-8.7379100000000001e-30
4168.0,3.76555e-29,1.14752e-24,1.14749e-24,1.14752e-24,-6.5224100000000001e-30,2.3837400000000001e-30,-7.8160199999999996e-30
4169.0,3.5793000000000001e-29,1.14752e-24,1.14749e-24,1.14753e-24,-7.6362899999999997e-30,1.6125000000000001e-30,-5.8414399999999998e-30
4170.0,3.7018700000000002e-29,1.14752e-24,1.14749e-24,1.14753e-24,-6.1248099999999999e-30,1.346e-30,-6.08805e-30
4171.0,3.5565700000000002e-29,1.14753e-24,1.1475e-24,1.14753e-24,-8.2836000000000005e-30,-6.0322900000000002e-31,-2.0407699999999998e-30
4172.0,3.0060999999999997e-29,1.14752e-24,1.1475e-24,1.14752e-24,-6.1577600000000003e-30,6.3479700000000002e-31,-3.2125800000000003e-30
4173.0,3.47518e-29,1.14752e-24,1.14749e-24,1.14752e-24,-4.6599200000000003e-30,3.4418200000000001e-30,-1.0752e-29
4174.0,3.43661e-29,1.14752e-24,1.14749e-24,1.14752e-24,-4.7202999999999997e-30,2.88085e-30,-9.4003600000000007e-30
4175.0,3.30231e-29,1.14752e-24,1.14749e-24,1.14752e-24,-5.03466e-30,2.2034500000000001e-30,-7.7769899999999993e-30
4176.0,3.3168600000000002e-29,1.14752e-24,1.14749e-24,1.14752e-24,-4.8078799999999997e-30,1.7391100000000001e-30,-6.8843299999999994e-30
4177.0,3.18903e-29,1.14752e-24,1.1475e-24,1.14753e-24,-5.27627e-30,7.1230199999999999e-31,-4.8421700000000002e-30
4178.0,3.1305300000000001e-29,1.14752e-24,1.14749e-24,1.14752e-24,-4.5537100000000003e-30,1.7048100000000001e-32,-4.2037400000000001e-30
4179.0,3.1192799999999999e-29,1.14753e-24,1.1475e-24,1.14753e-24,-7.3718699999999997e-30,-1.12675e-30,-1.8835700000000001e-30
4180.0,3.2937800000000002e-29,1.1475100000000001e-24,1.14749e-24,1.14752e-24,-2.5009600000000001e-30,3.22306e-30,-1.12275e-29
4181.0,3.14157e-29,1.14752e-24,1.14749e-24,1.14752e-24,-2.6743199999999999e-30,2.73202e-30,-9.6541899999999994e-30
4182.0,3.0550800000000001e-29,1.14752e-24,1.14749e-24,1.14752e-24,-2.7777000000000002e-30,2.1938000000000001e-30,-8.3425300000000004e-30
4183.0,2.9434999999999999e-29,1.14752e-24,1.1475e-24,1.14752e-24,-2.8082099999999999e-30,1.4898499999999999e-30,-6.7171400000000005e-30
4184.0,2.8670500000000001e-29,1.14752e-24,1.14749e-24,1.14752e-24,-2.6748399999999998e-30,8.0290299999999996e-31,-5.4926299999999997e-30
4185.0,2.7591099999999999e-29,1.14752e-24,1.1475e-24,1.14753e-24,-3.3133399999999999e-30,6.0613399999999995e-32,-3.86585e-30
4186.0,2.80083e-29,1.14752e-24,1.14749e-24,1.14752e-24,-1.5912599999999998e-30,-2.7627599999999998e-31,-3.3321499999999998e-30
4187.0,3.1253799999999999e-29,1.1475100000000001e-24,1.14749e-24,1.14752e-24,-2.9060500000000002e-31,3.1221499999999999e-30,-1.14418e-29
4188.0,2.9582800000000001e-29,1.1475100000000001e-24,1.14749e-24,1.14752e-24,-5.2301500000000001e-31,2.5605100000000001e-30,-1.00087e-29
4189.0,2.8260900000000002e-29,1.14752e-24,1.1475e-24,1.14752e-24,-4.5458100000000004e-31,2.0784e-30,-8.4824599999999997e-30
4190.0,2.6837500000000001e-29,1.14752e-24,1.14749e-24,1.14752e-24,-4.78964e-31,1.435e-30,-7.0111400000000003e-30
4191.0,2.5870199999999998e-29,1.14752e-24,1.1475e-24,1.14752e-24,-5.0850699999999997e-31,8.5598200000000003e-31,-5.5124700000000002e-30
4192.0,2.5398399999999998e-29,1.14752e-24,1.1475e-24,1.14752e-24,1.2052100000000001e-32,3.2217000000000002e-31,-4.20343e-30
4193.0,2.31141e-29,1.14752e-24,1.1475e-24,1.14753e-24,-6.2124799999999997e-31,-1.55415e-31,-2.2499400000000001e-30
4194.0,3.0226299999999998e-29,1.1475100000000001e-24,1.14749e-24,1.14752e-24,1.7994799999999999e-30,2.9505300000000001e-30,-1.16606e-29
4195.0,2.85804e-29,1.1475100000000001e-24,1.1475e-24,1.14752e-24,1.7723300000000001e-30,2.53202e-30,-1.0165099999999999e-29
4196.0,2.6624099999999998e-29,1.1475100000000001e-24,1.14749e-24,1.14752e-24,1.7051799999999999e-30,1.91406e-30,-8.6539100000000005e-30
4197.0,2.5479100000000001e-29,1.14752e-24,1.1475e-24,1.14752e-24,1.86531e-30,1.4868000000000001e-30,-7.1629700000000004e-30
4198.0,2.4269700000000001e-29,1.1475100000000001e-24,1.1475e-24,1.14752e-24,2.05894e-30,9.3779300000000001e-31,-5.6187999999999997e-30
4199.0,2.2937500000000001e-29,1.14752e-24,1.1475e-24,1.14752e-24,1.99299e-30,4.3031699999999997e-31,-3.9712000000000001e-30
4200.0,2.3772599999999999e-29,1.14752e-24,1.1475e-24,1.14752e-24,2.59553e-30,-2.13219e-31,-2.70718e-30
4201.0,3.0091299999999998e-29,1.1475100000000001e-24,1.14749e-24,1.14752e-24,3.8600099999999999e-30,2.87153e-30,-1.16968e-29
4202.0,2.7921800000000001e-29,1.1475100000000001e-24,1.14749e-24,1.14752e-24,3.7286299999999999e-30,2.31087e-30,-1.02877e-29
4203.0,2.6622800000000002e-29,1.1475100000000001e-24,1.1475e-24,1.14752e-24,3.9655599999999998e-30,2.0149199999999999e-30,-8.8754999999999994e-30
4204.0,2.49163e-29,1.1475100000000001e-24,1.1475e-24,1.14752e-24,4.1438300000000002e-30,1.47437e-30,-7.2737199999999996e-30
4205.0,2.3766600000000001e-29,1.14752e-24,1.1475e-24,1.14752e-24,4.3036799999999997e-30,1.0472800000000001e-30,-5.6844600000000002e-30
4206.0,2.31935e-29,1.1475100000000001e-24,1.1475e-24,1.14752e-24,4.5950200000000002e-30,5.2701700000000001e-31,-4.1236700000000003e-30
4207.0,2.1413000000000001e-29,1.14752e-24,1.1475e-24,1.14752e-24,4.6716800000000002e-30,2.49419e-31,-2.32235e-30
4208.0,2.9989399999999999e-29,1.1475100000000001e-24,1.14749e-24,1.14752e-24,5.3920200000000001e-30,2.6684700000000002e-30,-1.17267e-29
4209.0,2.8814899999999998e-29,1.1475100000000001e-24,1.1475e-24,1.14752e-24,5.7215700000000001e-30,2.49754e-30,-1.0569499999999999e-29
4210.0,2.7033799999999998e-29,1.1475100000000001e-24,1.1475e-24,1.14752e-24,5.9964699999999998e-30,1.9751900000000001e-30,-9.0858900000000001e-30
4211.0,2.5812500000000002e-29,1.1475100000000001e-24,1.1475e-24,1.14752e-24,6.3306900000000006e-30,1.6316099999999999e-30,-7.5247900000000001e-30
4212.0,2.46847e-29,1.1475100000000001e-24,1.1475e-24,1.14752e-24,6.6096100000000004e-30,1.15987e-30,-5.88385e-30
4213.0,2.35226e-29,1.1475100000000001e-24,1.1475e-24,1.14752e-24,6.8070899999999997e-30,7.8781799999999998e-31,-4.1046799999999997e-30
4214.0,2.3966899999999999e-29,1.1475100000000001e-24,1.1475e-24,1.14752e-24,7.1203799999999996e-30,1.74185e-31,-2.4829100000000001e-30
4215.0,4.4703000000000002e-29,1.14753e-24,1.14749e-24,1.14753e-24,-8.7824199999999999e-30,4.3795199999999997e-30,-7.9695699999999995e-30
4216.0,4.6674099999999999e-29,1.14753e-24,1.14749e-24,1.14753e-24,-8.7897299999999995e-30,3.69639e-30,-7.1297100000000005e-30
4217.0,4.66919e-29,1.1475400000000001e-24,1.1475e-24,1.1475400000000001e-24,-9.6515500000000006e-30,2.8936400000000002e-30,-5.7187999999999997e-30
4218.0,4.8412300000000002e-29,1.14753e-24,1.14749e-24,1.1475400000000001e-24,-9.3067499999999999e-30,2.4171099999999999e-30,-5.7361500000000002e-30
4219.0,4.8684000000000001e-29,1.1475400000000001e-24,1.1475e-24,1.1475400000000001e-24,-1.01579e-29,9.7934399999999995e-31,-3.73498e-30
4220.0,4.6507500000000002e-29,1.1475400000000001e-24,1.1475e-24,1.1475400000000001e-24,-9.4745899999999997e-30,9.6021399999999996e-31,-4.36939e-30
4221.0,4.8083699999999998e-29,1.1475400000000001e-24,1.1475e-24,1.1475400000000001e-24,-9.7380099999999997e-30,-7.1423199999999999e-31,-3.6437799999999997e-30
4222.0,4.1974800000000002e-29,1.14753e-24,1.14749e-24,1.14753e-24,-6.7489599999999993e-30,4.2398000000000002e-30,-8.8468999999999997e-30
4223.0,4.1773100000000002e-29,1.14753e-24,1.1475e-24,1.1475400000000001e-24,-7.0855699999999999e-30,3.5074200000000001e-30,-7.5996300000000001e-30
4224.0,4.2650500000000001e-29,1.14753e-24,1.14749e-24,1.1475400000000001e-24,-7.4163300000000004e-30,2.8897000000000002e-30,-6.7026800000000006e-30
4225.0,4.2915599999999997e-29,1.14753e-24,1.1475e-24,1.1475400000000001e-24,-7.6291399999999995e-30,2.0476199999999999e-30,-5.4710100000000003e-30
4226.0,4.2827499999999999e-29,1.14753e-24,1.1475e-24,1.1475400000000001e-24,-7.7020899999999996e-30,1.17763e-30,-4.8428200000000003e-30
4227.0,4.2836300000000002e-29,1.1475400000000001e-24,1.1475e-24,1.1475400000000001e-24,-8.3352600000000006e-30,3.53571e-31,-3.6393999999999997e-30
4228.0,4.0119699999999998e-29,1.14753e-24,1.1475e-24,1.1475400000000001e-24,-7.0005599999999996e-30,-8.4775699999999998e-32,-3.3810600000000002e-30
4229.0,3.84065e-29,1.14753e-24,1.1475e-24,1.14753e-24,-4.5893799999999999e-30,3.9075500000000003e-30,-9.4210799999999996e-30
4230.0,3.8168600000000003e-29,1.14753e-24,1.1475e-24,1.14753e-24,-5.00362e-30,3.38345e-30,-8.2889699999999998e-30
4231.0,3.8161899999999998e-29,1.14753e-24,1.1475e-24,1.1475400000000001e-24,-5.0712200000000001e-30,2.6923100000000001e-30,-7.0713799999999996e-30
4232.0,3.8134400000000002e-29,1.14753e-24,1.1475e-24,1.14753e-24,-5.3978600000000003e-30,1.8942899999999998e-30,-5.9714000000000001e-30
4233.0,3.81353e-29,1.14753e-24,1.1475e-24,1.1475400000000001e-24,-5.4878799999999999e-30,1.1899299999999999e-30,-4.94256e-30
4234.0,3.7610299999999998e-29,1.14753e-24,1.1475e-24,1.1475400000000001e-24,-5.2570199999999999e-30,2.7812099999999999e-31,-4.0151300000000002e-30
4235.0,3.77222e-29,1.1475400000000001e-24,1.1475e-24,1.1475400000000001e-24,-6.3129700000000003e-30,-5.9354899999999998e-31,-2.9088899999999999e-30
4236.0,3.5762900000000002e-29,1.14752e-24,1.1475e-24,1.14753e-24,-2.4126800000000002e-30,3.8152800000000003e-30,-9.98744e-30
4237.0,3.5021199999999998e-29,1.14752e-24,1.1475e-24,1.14753e-24,-2.5601900000000001e-30,3.1621300000000001e-30,-8.7303400000000001e-30
4238.0,3.43706e-29,1.14752e-24,1.1475e-24,1.14753e-24,-2.88698e-30,2.4984799999999999e-30,-7.4246500000000007e-30
4239.0,3.4233500000000002e-29,1.14753e-24,1.1475e-24,1.14753e-24,-2.8338999999999999e-30,1.8754300000000001e-30,-6.3273300000000006e-30
4240.0,3.37986e-29,1.14753e-24,1.1475e-24,1.14753e-24,-2.9385300000000001e-30,1.06571e-30,-5.0607800000000002e-30
4241.0,3.35182e-29,1.14753e-24,1.1475e-24,1.1475400000000001e-24,-3.08052e-30,4.2259999999999999e-31,-4.0498400000000003e-30
4242.0,3.35974e-29,1.14753e-24,1.1475e-24,1.14753e-24,-2.1187300000000001e-30,-2.0801299999999999e-31,-3.1169399999999999e-30
4243.0,3.3772699999999998e-29,1.14752e-24,1.1475e-24,1.14753e-24,-7.8917200000000003e-32,3.5815500000000003e-30,-1.0325499999999999e-29
4244.0,3.23644e-29,1.14752e-24,1.1475e-24,1.14753e-24,-3.9504199999999996e-31,2.9746699999999999e-30,-9.0186999999999997e-30
4245.0,3.18966e-29,1.14752e-24,1.1475e-24,1.14753e-24,-3.21207e-31,2.4173599999999999e-30,-7.8174100000000001e-30
4246.0,3.0908299999999997e-29,1.14752e-24,1.1475e-24,1.14753e-24,-4.1190100000000003e-31,1.7571300000000002e-30,-6.4289999999999999e-30
4247.0,3.0639200000000001e-29,1.14753e-24,1.1475e-24,1.14753e-24,-3.0592399999999999e-31,1.18328e-30,-5.31572e-30
4248.0,3.0349300000000003e-29,1.14753e-24,1.1475e-24,1.14753e-24,-5.0977799999999995e-32,5.2888500000000002e-31,-3.9783499999999997e-30
4249.0,2.9143500000000002e-29,1.14753e-24,1.1475e-24,1.1475400000000001e-24,-2.0579300000000002e-31,-9.6657900000000005e-32,-2.5883500000000002e-30
4250.0,3.2380500000000001e-29,1.14752e-24,1.1475e-24,1.14753e-24,1.8943200000000001e-30,3.4033299999999997e-30,-1.05005e-29
4251.0,3.1365299999999998e-29,1.14752e-24,1.1475e-24,1.14753e-24,1.9030099999999999e-30,2.9010199999999998e-30,-9.3564699999999997e-30
4252.0,3.0011300000000002e-29,1.14752e-24,1.1475e-24,1.14753e-24,1.89668e-30,2.3416300000000001e-30,-7.9680500000000003e-30
4253.0,2.9428500000000003e-29,1.14752e-24,1.1475e-24,1.14753e-24,2.0751399999999999e-30,1.82453e-30,-6.7625499999999993e-30
4254.0,2.86932e-29,1.14752e-24,1.1475e-24,1.14753e-24,2.2242199999999999e-30,1.24261e-30,-5.30094e-30
4255.0,2.8097499999999997e-29,1.14753e-24,1.1475e-24,1.14753e-24,2.3040999999999999e-30,6.5005900000000004e-31,-3.9852299999999997e-30
4256.0,2.8746699999999999e-29,1.14752e-24,1.1475e-24,1.14753e-24,2.7846900000000001e-30,3.5340099999999998e-32,-2.7049399999999999e-30
4257.0,3.2227900000000002e-29,1.14752e-24,1.1475e-24,1.14753e-24,3.6984e-30,3.3620700000000003e-30,-1.07416e-29
4258.0,3.0810999999999999e-29,1.14752e-24,1.1475e-24,1.14753e-24,3.8154600000000002e-30,2.8948099999999998e-30,-9.5664399999999994e-30
4259.0,2.9940200000000003e-29,1.14752e-24,1.1475e-24,1.14753e-24,4.1222999999999997e-30,2.4349799999999999e-30,-8.37215e-30
4260.0,2.8869199999999999e-29,1.14752e-24,1.1475e-24,1.14753e-24,4.3869700000000001e-30,1.9385799999999999e-30,-6.9337199999999999e-30
4261.0,2.8133599999999999e-29,1.14752e-24,1.1475e-24,1.14753e-24,4.5920499999999999e-30,1.3877499999999999e-30,-5.5245700000000002e-30
4262.0,2.7911500000000001e-29,1.14752e-24,1.1475e-24,1.14753e-24,4.8661600000000002e-30,8.5715300000000008e-31,-4.0414099999999998e-30
4263.0,2.6694699999999998e-29,1.14752e-24,1.1475e-24,1.14753e-24,5.0701800000000002e-30,4.0749600000000003e-31,-2.5022000000000001e-30
4264.0,5.5832299999999997e-29,1.1475400000000001e-24,1.14749e-24,1.14755e-24,-1.12738e-29,5.3744599999999999e-30,-5.4104400000000003e-30
4265.0,5.7291099999999998e-29,1.14755e-24,1.1475e-24,1.14755e-24,-1.2235599999999999e-29,4.5099300000000002e-30,-4.4964399999999998e-30
4266.0,6.0133200000000004e-29,1.14755e-24,1.14749e-24,1.14755e-24,-1.25724e-29,3.9449800000000003e-30,-4.2383799999999998e-30
4267.0,6.2536600000000004e-29,1.14755e-24,1.1475e-24,1.1475599999999999e-24,-1.3483500000000001e-29,2.62077e-30,-3.4781599999999997e-30
4268.0,6.2741499999999996e-29,1.14755e-24,1.1475e-24,1.1475599999999999e-24,-1.35802e-29,2.08168e-30,-4.0991199999999998e-30
4269.0,6.4407899999999999e-29,1.1475599999999999e-24,1.1475e-24,1.1475599999999999e-24,-1.36754e-29,4.4699400000000003e-31,-4.0144300000000003e-30
4270.0,6.1392900000000003e-29,1.14755e-24,1.1475e-24,1.1475599999999999e-24,-1.3476399999999999e-29,-3.4030299999999999e-31,-4.1346100000000002e-30
4271.0,5.0604899999999996e-29,1.1475400000000001e-24,1.1475e-24,1.14755e-24,-9.5687500000000003e-30,5.11973e-30,-6.4683700000000002e-30
4272.0,5.2185199999999999e-29,1.1475400000000001e-24,1.1475e-24,1.14755e-24,-1.0175199999999999e-29,4.3870199999999999e-30,-5.6557600000000002e-30
4273.0,5.3824499999999999e-29,1.1475400000000001e-24,1.1475e-24,1.14755e-24,-1.06572e-29,3.5675599999999998e-30,-4.9324400000000002e-30
4274.0,5.5211299999999998e-29,1.14755e-24,1.1475e-24,1.14755e-24,-1.122e-29,2.6336399999999999e-30,-4.5153100000000002e-30
4275.0,5.6422499999999996e-29,1.14755e-24,1.1475e-24,1.1475599999999999e-24,-1.15908e-29,1.6851999999999999e-30,-4.0839200000000002e-30
4276.0,5.5811699999999996e-29,1.14755e-24,1.1475e-24,1.14755e-24,-1.14526e-29,6.8728199999999999e-31,-4.12459e-30
4277.0,5.7127599999999999e-29,1.14755e-24,1.1475e-24,1.1475599999999999e-24,-1.17361e-29,-6.14417e-31,-4.1626200000000002e-30
4278.0,4.6109299999999997e-29,1.1475400000000001e-24,1.1475e-24,1.1475400000000001e-24,-7.4578999999999999e-30,4.8344400000000002e-30,-7.4748400000000006e-30
4279.0,4.6850500000000002e-29,1.1475400000000001e-24,1.1475e-24,1.14755e-24,-7.7989399999999995e-30,4.1313499999999998e-30,-6.5510000000000006e-30
4280.0,4.7859299999999999e-29,1.1475400000000001e-24,1.1475e-24,1.14755e-24,-8.4286499999999995e-30,3.2786599999999997e-30,-5.68568e-30
4281.0,4.89415e-29,1.1475400000000001e-24,1.1475e-24,1.14755e-24,-8.6937099999999997e-30,2.5296400000000001e-30,-5.0490500000000002e-30
4282.0,4.9480700000000002e-29,1.1475400000000001e-24,1.1475e-24,1.14755e-24,-9.0786800000000001e-30,1.47419e-30,-4.4351999999999998e-30
4283.0,5.00246e-29,1.14755e-24,1.1475e-24,1.14755e-24,-9.3351999999999995e-30,5.7762500000000003e-31,-4.0279999999999997e-30
4284.0,4.8685499999999999e-29,1.1475400000000001e-24,1.1475e-24,1.14755e-24,-8.6276900000000007e-30,-3.3159899999999998e-31,-3.6634300000000003e-30
4285.0,4.2068399999999998e-29,1.14753e-24,1.1475e-24,1.1475400000000001e-24,-4.9731800000000003e-30,4.5647e-30,-8.2539500000000003e-30
4286.0,4.2075199999999998e-29,1.14753e-24,1.1475e-24,1.1475400000000001e-24,-5.4905300000000001e-30,3.77826e-30,-7.2180599999999995e-30
4287.0,4.2647100000000002e-29,1.1475400000000001e-24,1.1475e-24,1.1475400000000001e-24,-5.6734100000000001e-30,3.1259600000000001e-30,-6.3621899999999994e-30
4288.0,4.3108799999999998e-29,1.1475400000000001e-24,1.1475e-24,1.14755e-24,-6.0965200000000003e-30,2.2256900000000001e-30,-5.4056999999999998e-30
4289.0,4.3591800000000001e-29,1.1475400000000001e-24,1.1475e-24,1.14755e-24,-6.1725099999999997e-30,1.5016399999999999e-30,-4.76956e-30
4290.0,4.3588500000000003e-29,1.1475400000000001e-24,1.1475e-24,1.14755e-24,-6.15465e-30,4.9813700000000001e-31,-3.9781399999999998e-30
4291.0,4.3840300000000002e-29,1.1475400000000001e-24,1.1475100000000001e-24,1.14755e-24,-6.45835e-30,-4.6671200000000004e-31,-3.2626799999999999e-30
4292.0,3.8680899999999998e-29,1.14753e-24,1.1475e-24,1.1475400000000001e-24,-2.6509099999999999e-30,4.2684099999999998e-30,-8.8344300000000006e-30
4293.0,3.8414700000000002e-29,1.14753e-24,1.1475e-24,1.1475400000000001e-24,-2.8786999999999999e-30,3.6014299999999999e-30,-7.8131000000000006e-30
4294.0,3.8298500000000002e-29,1.14753e-24,1.1475e-24,1.1475400000000001e-24,-3.2028500000000003e-30,2.8325599999999998e-30,-6.7138800000000001e-30
4295.0,3.8516199999999997e-29,1.1475400000000001e-24,1.1475e-24,1.1475400000000001e-24,-3.21836e-30,2.2045999999999999e-30,-5.8552500000000003e-30
4296.0,3.8528000000000001e-29,1.1475400000000001e-24,1.1475e-24,1.1475400000000001e-24,-3.3795200000000003e-30,1.3630100000000001e-30,-4.7978700000000002e-30
4297.0,3.87222e-29,1.1475400000000001e-24,1.1475100000000001e-24,1.14755e-24,-3.3579400000000001e-30,6.0826200000000004e-31,-3.9868699999999998e-30
4298.0,3.8798700000000002e-29,1.1475400000000001e-24,1.1475e-24,1.1475400000000001e-24,-2.89511e-30,-1.3192400000000001e-31,-3.1752599999999999e-30
4299.0,3.6531099999999998e-29,1.14753e-24,1.1475e-24,1.1475400000000001e-24,-4.0835399999999997e-31,4.0417499999999998e-30,-9.2458300000000007e-30
4300.0,3.5690000000000003e-29,1.14753e-24,1.1475e-24,1.1475400000000001e-24,-6.4032399999999996e-31,3.3805300000000003e-30,-8.1599500000000005e-30
4301.0,3.5395499999999998e-29,1.14753e-24,1.1475e-24,1.1475400000000001e-24,-6.00339e-31,2.8246100000000001e-30,-7.1673199999999997e-30
4302.0,3.5052999999999997e-29,1.14753e-24,1.1475e-24,1.1475400000000001e-24,-6.4781499999999998e-31,2.12588e-30,-6.0093799999999999e-30
4303.0,3.5130900000000001e-29,1.14753e-24,1.1475100000000001e-24,1.1475400000000001e-24,-5.43195e-31,1.48192e-30,-5.0300399999999997e-30
4304.0,3.5192799999999999e-29,1.14753e-24,1.1475e-24,1.1475400000000001e-24,-4.3699799999999996e-31,7.5442600000000001e-31,-3.9022300000000001e-30
4305.0,3.4351599999999998e-29,1.1475400000000001e-24,1.1475100000000001e-24,1.1475400000000001e-24,-1.87562e-31,2.3005299999999999e-32,-2.7421300000000002e-30
4306.0,3.5212699999999999e-29,1.14753e-24,1.1475e-24,1.14753e-24,1.33299e-30,3.9330299999999997e-30,-9.4419399999999994e-30
4307.0,3.4541800000000002e-29,1.14753e-24,1.1475e-24,1.1475400000000001e-24,1.5249700000000001e-30,3.4418899999999998e-30,-8.5757399999999997e-30
4308.0,3.37348e-29,1.14753e-24,1.1475e-24,1.1475400000000001e-24,1.64123e-30,2.8595800000000002e-30,-7.4793099999999994e-30
4309.0,3.34806e-29,1.14753e-24,1.1475e-24,1.1475400000000001e-24,1.83451e-30,2.2661300000000001e-30,-6.34559e-30
4310.0,3.3235100000000001e-29,1.14753e-24,1.1475e-24,1.1475400000000001e-24,1.9624799999999999e-30,1.6025699999999999e-30,-5.1113599999999999e-30
4311.0,3.3040599999999999e-29,1.14753e-24,1.1475100000000001e-24,1.1475400000000001e-24,2.1373e-30,9.1458200000000004e-31,-3.9186500000000002e-30
4312.0,3.3654700000000003e-29,1.14753e-24,1.1475e-24,1.1475400000000001e-24,2.4803599999999999e-30,2.2457100000000001e-31,-2.7684100000000001e-30
4313.0,6.7777100000000005e-29,1.1475599999999999e-24,1.1475e-24,1.1475599999999999e-24,-1.51942e-29,6.5118900000000006e-30,-2.16707e-30
4314.0,7.1597600000000005e-29,1.1475599999999999e-24,1.1475e-24,1.1475599999999999e-24,-1.59728e-29,5.8639800000000003e-30,-1.70363e-30
4315.0,7.6099199999999996e-29,1.1475599999999999e-24,1.1475e-24,1.1475700000000001e-24,-1.7363899999999999e-29,4.6502000000000003e-30,-1.6172599999999999e-30
4316.0,7.8967400000000005e-29,1.1475599999999999e-24,1.1475e-24,1.1475700000000001e-24,-1.8309100000000001e-29,3.9168799999999999e-30,-2.1000799999999998e-30
4317.0,8.2810800000000001e-29,1.1475700000000001e-24,1.1475e-24,1.14758e-24,-1.90192e-29,2.1688800000000002e-30,-2.8932300000000001e-30
4318.0,8.2273200000000004e-29,1.1475700000000001e-24,1.1475e-24,1.14758e-24,-1.9393e-29,1.0250900000000001e-30,-4.1016499999999998e-30
4319.0,8.3270599999999995e-29,1.1475700000000001e-24,1.1475e-24,1.14758e-24,-1.8854699999999999e-29,-6.48227e-31,-5.7648500000000001e-30
4320.0,6.1681399999999999e-29,1.14755e-24,1.1475e-24,1.1475599999999999e-24,-1.32307e-29,6.2811799999999999e-30,-3.7756199999999998e-30
4321.0,6.4413999999999997e-29,1.14755e-24,1.1475e-24,1.1475599999999999e-24,-1.40227e-29,5.4002200000000002e-30,-3.3381200000000001e-30
4322.0,6.7327600000000005e-29,1.1475599999999999e-24,1.1475e-24,1.1475599999999999e-24,-1.5109700000000001e-29,4.4912399999999998e-30,-3.01617e-30
4323.0,7.0467000000000004e-29,1.1475599999999999e-24,1.1475e-24,1.1475700000000001e-24,-1.60412e-29,3.4503099999999997e-30,-3.08388e-30
4324.0,7.1976800000000002e-29,1.1475599999999999e-24,1.1475e-24,1.1475700000000001e-24,-1.6730400000000001e-29,2.20391e-30,-3.5054000000000002e-30
4325.0,7.3865299999999998e-29,1.1475700000000001e-24,1.1475e-24,1.1475700000000001e-24,-1.70796e-29,8.0190800000000009e-31,-4.1960300000000001e-30
4326.0,7.2462400000000003e-29,1.1475599999999999e-24,1.1475e-24,1.1475700000000001e-24,-1.6991700000000001e-29,-6.9795699999999999e-31,-4.7464799999999997e-30
4327.0,5.562e-29,1.14755e-24,1.1475e-24,1.1475599999999999e-24,-1.08385e-29,5.8234699999999999e-30,-5.1997100000000002e-30
4328.0,5.74024e-29,1.14755e-24,1.1475e-24,1.1475599999999999e-24,-1.1638299999999999e-29,4.9609400000000003e-30,-4.5790600000000002e-30
4329.0,5.96149e-29,1.14755e-24,1.1475e-24,1.1475599999999999e-24,-1.23334e-29,4.16267e-30,-4.2122399999999997e-30
4330.0,6.1673699999999996e-29,1.14755e-24,1.1475e-24,1.1475599999999999e-24,-1.3221600000000001e-29,3.1068300000000001e-30,-3.9165000000000001e-30
4331.0,6.3274699999999995e-29,1.1475599999999999e-24,1.1475100000000001e-24,1.1475700000000001e-24,-1.37415e-29,2.0538399999999999e-30,-3.9460999999999998e-30
4332.0,6.3751e-29,1.1475599999999999e-24,1.1475e-24,1.1475700000000001e-24,-1.3969299999999999e-29,7.1170499999999996e-31,-4.12173e-30
4333.0,6.5302400000000004e-29,1.1475599999999999e-24,1.1475100000000001e-24,1.1475700000000001e-24,-1.41893e-29,-7.7378700000000003e-31,-4.5217999999999997e-30
4334.0,4.9956500000000002e-29,1.1475400000000001e-24,1.1475e-24,1.14755e-24,-8.2955500000000004e-30,5.41588e-30,-6.3318400000000007e-30
4335.0,5.1132600000000003e-29,1.14755e-24,1.1475e-24,1.14755e-24,-8.8140799999999994e-30,4.5978500000000003e-30,-5.6732999999999999e-30
4336.0,5.2563699999999995e-29,1.14755e-24,1.1475e-24,1.1475599999999999e-24,-9.5323800000000001e-30,3.71434e-30,-5.0212699999999999e-30
4337.0,5.3921900000000004e-29,1.14755e-24,1.1475100000000001e-24,1.1475599999999999e-24,-1.0021799999999999e-29,2.89057e-30,-4.6278499999999997e-30
4338.0,5.5022500000000002e-29,1.14755e-24,1.1475100000000001e-24,1.1475599999999999e-24,-1.05483e-29,1.7578599999999999e-30,-4.20729e-30
4339.0,5.60115e-29,1.14755e-24,1.1475100000000001e-24,1.1475599999999999e-24,-1.07577e-29,6.67156e-31,-4.0677299999999999e-30
4340.0,5.5458900000000001e-29,1.14755e-24,1.1475100000000001e-24,1.1475599999999999e-24,-1.06055e-29,-4.4208499999999998e-31,-3.9258299999999997e-30
4341.0,4.5354399999999998e-29,1.1475400000000001e-24,1.1475e-24,1.14755e-24,-5.6528499999999998e-30,5.0251599999999998e-30,-7.2352200000000007e-30
4342.0,4.5715599999999998e-29,1.1475400000000001e-24,1.1475e-24,1.14755e-24,-6.1331999999999999e-30,4.1833599999999998e-30,-6.4044099999999996e-30
4343.0,4.6526499999999998e-29,1.1475400000000001e-24,1.1475100000000001e-24,1.14755e-24,-6.4682900000000005e-30,3.4550600000000002e-30,-5.7467200000000002e-30
4344.0,4.7387300000000002e-29,1.1475400000000001e-24,1.1475100000000001e-24,1.14755e-24,-6.9063300000000001e-30,2.58226e-30,-5.0126400000000002e-30
4345.0,4.8111199999999999e-29,1.14755e-24,1.1475100000000001e-24,1.1475599999999999e-24,-7.06305e-30,1.7308900000000001e-30,-4.5186600000000002e-30
4346.0,4.8605000000000003e-29,1.14755e-24,1.1475100000000001e-24,1.1475599999999999e-24,-7.2314900000000001e-30,6.8617699999999996e-31,-3.9502000000000002e-30
4347.0,4.9005799999999999e-29,1.14755e-24,1.1475100000000001e-24,1.1475599999999999e-24,-7.0862299999999999e-30,-4.4990000000000002e-31,-3.4252999999999997e-30
4348.0,4.1765399999999999e-29,1.1475400000000001e-24,1.1475e-24,1.14755e-24,-3.2446099999999997e-30,4.6888799999999999e-30,-7.8084000000000006e-30
4349.0,4.1817599999999997e-29,1.1475400000000001e-24,1.1475100000000001e-24,1.14755e-24,-3.5368499999999999e-30,3.99705e-30,-7.0068200000000001e-30
4350.0,4.2147699999999999e-29,1.1475400000000001e-24,1.1475100000000001e-24,1.14755e-24,-3.7945699999999999e-30,3.2630399999999998e-30,-6.1683600000000002e-30
4351.0,4.2582800000000003e-29,1.1475400000000001e-24,1.1475100000000001e-24,1.14755e-24,-3.9209399999999998e-30,2.5446600000000001e-30,-5.4215500000000001e-30
4352.0,4.3015300000000003e-29,1.1475400000000001e-24,1.1475100000000001e-24,1.14755e-24,-4.1094899999999999e-30,1.6602300000000002e-30,-4.5761199999999999e-30
4353.0,4.3440599999999999e-29,1.14755e-24,1.1475100000000001e-24,1.1475599999999999e-24,-4.0372399999999997e-30,7.7618000000000004e-31,-3.9061399999999999e-30
4354.0,4.3624200000000001e-29,1.14755e-24,1.1475100000000001e-24,1.14755e-24,-3.8699099999999999e-30,-3.6470500000000001e-32,-3.2576599999999998e-30
4355.0,3.9807700000000001e-29,1.1475400000000001e-24,1.1475e-24,1.1475400000000001e-24,-1.3622899999999999e-30,4.5174600000000003e-30,-8.2130700000000001e-30
4356.0,3.9427300000000003e-29,1.1475400000000001e-24,1.1475100000000001e-24,1.14755e-24,-1.3721600000000001e-30,3.9622800000000002e-30,-7.4696599999999998e-30
4357.0,3.9345100000000001e-29,1.1475400000000001e-24,1.1475100000000001e-24,1.14755e-24,-1.34142e-30,3.3359999999999999e-30,-6.5884399999999998e-30
4358.0,3.9421000000000002e-29,1.1475400000000001e-24,1.1475100000000001e-24,1.14755e-24,-1.35956e-30,2.5944100000000001e-30,-5.6551100000000002e-30
4359.0,3.97307e-29,1.1475400000000001e-24,1.1475100000000001e-24,1.14755e-24,-1.28346e-30,1.8124899999999998e-30,-4.7561100000000001e-30
4360.0,4.0037900000000001e-29,1.1475400000000001e-24,1.1475100000000001e-24,1.14755e-24,-1.26253e-30,1.00674e-30,-3.8402099999999999e-30
4361.0,3.9437699999999999e-29,1.1475400000000001e-24,1.1475100000000001e-24,1.14755e-24,-8.0630999999999999e-31,1.17364e-31,-2.89234e-30
4362.0,8.2527900000000004e-29,1.1475700000000001e-24,1.1475e-24,1.1475700000000001e-24,-1.9471200000000001e-29,8.1893899999999994e-30,1.57407e-30
4363.0,8.8200099999999997e-29,1.1475700000000001e-24,1.1475e-24,1.14758e-24,-2.1248e-29,7.0546500000000001e-30,1.39764e-30
4364.0,9.3614200000000002e-29,1.14758e-24,1.1475e-24,1.14758e-24,-2.3198500000000001e-29,6.4515500000000004e-30,1.47544e-30
4365.0,1.01114e-28,1.14758e-24,1.1475e-24,1.1475899999999999e-24,-2.52069e-29,4.8201800000000002e-30,2.9690000000000001e-31
4366.0,1.0451999999999999e-28,1.14758e-24,1.1475e-24,1.1476000000000001e-24,-2.6882299999999999e-29,3.3437299999999998e-30,-1.4689e-30
4367.0,1.08157e-28,1.1475899999999999e-24,1.1475e-24,1.1476000000000001e-24,-2.7304200000000002e-29,1.08563e-30,-4.3217799999999998e-30
4368.0,1.0701900000000001e-28,1.1475899999999999e-24,1.1475e-24,1.1476000000000001e-24,-2.7516e-29,-1.11106e-30,-6.7651699999999996e-30
4369.0,7.4320199999999995e-29,1.1475599999999999e-24,1.1475e-24,1.1475700000000001e-24,-1.7444700000000001e-29,7.5355100000000002e-30,-9.2155300000000004e-31
4370.0,7.8281599999999996e-29,1.1475700000000001e-24,1.1475e-24,1.1475700000000001e-24,-1.8859899999999999e-29,6.7065500000000005e-30,-6.0162399999999998e-31
4371.0,8.3477499999999996e-29,1.1475700000000001e-24,1.1475e-24,1.14758e-24,-2.0605600000000001e-29,5.7924099999999999e-30,-7.9498499999999999e-31
4372.0,8.7924700000000001e-29,1.1475700000000001e-24,1.1475e-24,1.1475899999999999e-24,-2.2367e-29,4.5370599999999998e-30,-1.28493e-30
4373.0,9.2222100000000001e-29,1.14758e-24,1.1475e-24,1.1475899999999999e-24,-2.3693100000000001e-29,2.8868999999999999e-30,-2.5820299999999999e-30
4374.0,9.3516099999999995e-29,1.14758e-24,1.1475e-24,1.1475899999999999e-24,-2.4488800000000001e-29,1.0823799999999999e-30,-4.17777e-30
4375.0,9.5630900000000004e-29,1.14758e-24,1.1475100000000001e-24,1.1476000000000001e-24,-2.4693099999999999e-29,-1.05494e-30,-6.3777399999999996e-30
4376.0,6.6488100000000003e-29,1.1475599999999999e-24,1.1475e-24,1.1475700000000001e-24,-1.49537e-29,6.9126199999999997e-30,-2.7502599999999998e-30
4377.0,6.9476499999999996e-29,1.1475599999999999e-24,1.1475e-24,1.1475700000000001e-24,-1.5994899999999999e-29,6.1508199999999999e-30,-2.58822e-30
4378.0,7.3097500000000001e-29,1.1475599999999999e-24,1.1475e-24,1.1475700000000001e-24,-1.7541300000000001e-29,5.2025800000000002e-30,-2.3603199999999998e-30
4379.0,7.6861799999999998e-29,1.1475700000000001e-24,1.1475100000000001e-24,1.14758e-24,-1.8970000000000001e-29,4.0634199999999996e-30,-2.5866900000000001e-30
4380.0,7.9573400000000003e-29,1.1475700000000001e-24,1.1475100000000001e-24,1.14758e-24,-2.0134799999999999e-29,2.59946e-30,-3.22994e-30
4381.0,8.1754400000000001e-29,1.1475700000000001e-24,1.1475100000000001e-24,1.1475899999999999e-24,-2.0800200000000001e-29,8.2370699999999993e-31,-4.24941e-30
4382.0,8.1602899999999996e-29,1.1475700000000001e-24,1.1475100000000001e-24,1.1475899999999999e-24,-2.11631e-29,-1.0195500000000001e-30,-5.2678400000000002e-30
4383.0,5.9285400000000004e-29,1.14755e-24,1.1475100000000001e-24,1.1475599999999999e-24,-1.1977899999999999e-29,6.4099799999999995e-30,-4.3954099999999999e-30
4384.0,6.1320699999999999e-29,1.14755e-24,1.1475100000000001e-24,1.1475700000000001e-24,-1.2907700000000001e-29,5.4813999999999997e-30,-3.9771199999999999e-30
4385.0,6.3813300000000002e-29,1.1475599999999999e-24,1.1475100000000001e-24,1.1475700000000001e-24,-1.3972699999999999e-29,4.6746900000000003e-30,-3.6963300000000002e-30
4386.0,6.6440199999999997e-29,1.1475599999999999e-24,1.1475100000000001e-24,1.1475700000000001e-24,-1.5097499999999999e-29,3.5740100000000002e-30,-3.5193799999999999e-30
4387.0,6.8452799999999998e-29,1.1475599999999999e-24,1.1475100000000001e-24,1.14758e-24,-1.5866300000000001e-29,2.2954599999999999e-30,-3.7492999999999997e-30
4388.0,6.9604200000000002e-29,1.1475599999999999e-24,1.1475100000000001e-24,1.14758e-24,-1.63862e-29,7.9233000000000004e-31,-4.1422399999999998e-30
4389.0,7.1242700000000006e-29,1.1475700000000001e-24,1.1475100000000001e-24,1.14758e-24,-1.6552400000000001e-29,-9.0947099999999997e-31,-4.7156600000000002e-30
4390.0,5.2949000000000002e-29,1.14755e-24,1.1475100000000001e-24,1.1475599999999999e-24,-9.0221600000000007e-30,5.7750900000000001e-30,-5.57747e-30
4391.0,5.4308300000000005e-29,1.14755e-24,1.1475100000000001e-24,1.1475599999999999e-24,-9.6642900000000007e-30,4.9979899999999997e-30,-5.1099300000000003e-30
4392.0,5.6026700000000004e-29,1.14755e-24,1.1475100000000001e-24,1.1475599999999999e-24,-1.04889e-29,4.1608899999999997e-30,-4.5846999999999998e-30
4393.0,5.7742900000000004e-29,1.1475599999999999e-24,1.1475100000000001e-24,1.1475700000000001e-24,-1.11714e-29,3.2093099999999999e-30,-4.24975e-30
4394.0,5.9303999999999997e-29,1.1475599999999999e-24,1.1475100000000001e-24,1.1475700000000001e-24,-1.18154e-29,2.0493099999999999e-30,-4.0470899999999999e-30
4395.0,6.0308600000000003e-29,1.1475599999999999e-24,1.1475100000000001e-24,1.1475700000000001e-24,-1.20488e-29,7.7001200000000003e-31,-4.0298499999999997e-30
4396.0,6.0355900000000003e-29,1.1475599999999999e-24,1.1475100000000001e-24,1.1475700000000001e-24,-1.2262500000000001e-29,-4.87737e-31,-4.0930799999999998e-30
4397.0,4.8200300000000001e-29,1.14755e-24,1.1475100000000001e-24,1.1475599999999999e-24,-6.3942899999999999e-30,5.3621100000000003e-30,-6.4098900000000006e-30
4398.0,4.90463e-29,1.14755e-24,1.1475100000000001e-24,1.1475599999999999e-24,-6.8383899999999993e-30,4.6132199999999998e-30,-5.8442599999999999e-30
4399.0,5.0010699999999997e-29,1.14755e-24,1.1475100000000001e-24,1.1475599999999999e-24,-7.3014000000000004e-30,3.8876300000000001e-30,-5.2519799999999999e-30
4400.0,5.1150500000000005e-29,1.14755e-24,1.1475100000000001e-24,1.1475599999999999e-24,-7.7843699999999994e-30,2.9728199999999999e-30,-4.6791499999999999e-30
4401.0,5.2098000000000004e-29,1.14755e-24,1.1475100000000001e-24,1.1475700000000001e-24,-8.0261899999999999e-30,2.0106399999999999e-30,-4.3009899999999997e-30
4402.0,5.2835400000000005e-29,1.14755e-24,1.1475100000000001e-24,1.1475700000000001e-24,-8.35318e-30,8.5505499999999998e-31,-3.9216299999999997e-30
4403.0,5.31773e-29,1.1475599999999999e-24,1.1475100000000001e-24,1.1475700000000001e-24,-7.8675400000000003e-30,-4.4403600000000002e-31,-3.4990500000000001e-30
4404.0,4.5162100000000001e-29,1.1475400000000001e-24,1.1475100000000001e-24,1.14755e-24,-4.2326000000000001e-30,5.1689099999999999e-30,-6.9587400000000005e-30
4405.0,4.5366499999999999e-29,1.1475400000000001e-24,1.1475100000000001e-24,1.1475599999999999e-24,-4.4752999999999998e-30,4.5640699999999998e-30,-6.34223e-30
4406.0,4.6006199999999998e-29,1.14755e-24,1.1475100000000001e-24,1.1475599999999999e-24,-4.7657399999999998e-30,3.8262999999999998e-30,-5.7048599999999998e-30
4407.0,4.6693999999999998e-29,1.14755e-24,1.1475100000000001e-24,1.1475599999999999e-24,-4.9726900000000003e-30,2.9981100000000001e-30,-5.01453e-30
4408.0,4.75118e-29,1.14755e-24,1.1475100000000001e-24,1.1475599999999999e-24,-5.2250400000000003e-30,1.9832400000000001e-30,-4.3645999999999997e-30
4409.0,4.7902400000000002e-29,1.14755e-24,1.1475100000000001e-24,1.1475599999999999e-24,-5.1199699999999997e-30,9.7240599999999991e-31,-3.8485899999999999e-30
4410.0,4.83808e-29,1.14755e-24,1.1475100000000001e-24,1.1475599999999999e-24,-5.1552900000000001e-30,2.5457299999999998e-32,-3.3252899999999998e-30
4411.0,9.7274100000000003e-29,1.14758e-24,1.1475e-24,1.1475899999999999e-24,-2.43454e-29,9.5063500000000002e-30,4.8410799999999998e-30
4412.0,1.04803e-28,1.1475899999999999e-24,1.1475e-24,1.1475899999999999e-24,-2.7185100000000001e-29,9.4474200000000004e-30,5.8987400000000001e-30
4413.0,1.1675100000000001e-28,1.1475899999999999e-24,1.1475e-24,1.14761e-24,-3.0905599999999999e-29,8.3651699999999997e-30,5.3140000000000001e-30
4414.0,1.2620299999999999e-28,1.1476000000000001e-24,1.1475e-24,1.14761e-24,-3.4833799999999999e-29,7.0216099999999993e-30,4.0554200000000001e-30
4415.0,1.3572600000000001e-28,1.14761e-24,1.1475e-24,1.1476199999999999e-24,-3.7582399999999998e-29,4.4770800000000001e-30,3.7361499999999999e-31
4416.0,1.39372e-28,1.14761e-24,1.1475e-24,1.1476199999999999e-24,-3.95883e-29,1.63039e-30,-4.1063499999999997e-30
4417.0,1.4126100000000001e-28,1.14761e-24,1.1475e-24,1.14763e-24,-3.9528899999999999e-29,-1.7365599999999999e-30,-9.4820499999999994e-30
4418.0,8.66369e-29,1.1475700000000001e-24,1.1475e-24,1.14758e-24,-2.2007900000000001e-29,9.0202899999999994e-30,2.2071e-30
4419.0,9.3490599999999997e-29,1.14758e-24,1.1475e-24,1.1475899999999999e-24,-2.4522100000000001e-29,8.5721199999999994e-30,2.3235200000000001e-30
4420.0,1.0142200000000001e-28,1.14758e-24,1.1475e-24,1.1476000000000001e-24,-2.7816000000000003e-29,7.7436400000000006e-30,2.4902200000000001e-30
4421.0,1.1011999999999999e-28,1.1475899999999999e-24,1.1475e-24,1.14761e-24,-3.1106199999999999e-29,6.1966699999999997e-30,1.27528e-30
4422.0,1.16157e-28,1.1475899999999999e-24,1.1475e-24,1.14761e-24,-3.3805199999999998e-29,4.07341e-30,-1.01981e-30
4423.0,1.2063700000000001e-28,1.1476000000000001e-24,1.1475e-24,1.1476199999999999e-24,-3.53313e-29,1.37104e-30,-4.4365099999999999e-30
4424.0,1.2138700000000001e-28,1.1476000000000001e-24,1.1475e-24,1.1476199999999999e-24,-3.6130800000000001e-29,-1.8719599999999999e-30,-7.7589500000000004e-30
4425.0,7.7151399999999999e-29,1.1475700000000001e-24,1.1475100000000001e-24,1.14758e-24,-1.8998899999999999e-29,8.2292600000000004e-30,-4.8021e-31
4426.0,8.2081600000000002e-29,1.1475700000000001e-24,1.1475100000000001e-24,1.14758e-24,-2.1127000000000001e-29,7.6777100000000005e-30,-7.5112499999999996e-32
4427.0,8.83286e-29,1.14758e-24,1.1475100000000001e-24,1.1475899999999999e-24,-2.3753200000000001e-29,6.8190799999999994e-30,-4.1766700000000001e-32
4428.0,9.4454200000000003e-29,1.14758e-24,1.1475100000000001e-24,1.1476000000000001e-24,-2.63462e-29,5.4426299999999997e-30,-7.2041899999999997e-31
4429.0,9.9343000000000002e-29,1.14758e-24,1.1475100000000001e-24,1.1476000000000001e-24,-2.8390499999999999e-29,3.4918000000000002e-30,-2.25811e-30
4430.0,1.01965e-28,1.14758e-24,1.1475100000000001e-24,1.14761e-24,-2.9757200000000002e-29,1.1156100000000001e-30,-4.3447599999999998e-30
4431.0,1.04397e-28,1.1475899999999999e-24,1.1475100000000001e-24,1.14761e-24,-3.03331e-29,-1.6391399999999999e-30,-6.89293e-30
4432.0,6.8244499999999995e-29,1.1475599999999999e-24,1.1475100000000001e-24,1.1475700000000001e-24,-1.56577e-29,7.4225899999999995e-30,-2.4867800000000001e-30
4433.0,7.1876100000000003e-29,1.1475599999999999e-24,1.1475100000000001e-24,1.14758e-24,-1.73412e-29,6.8554200000000004e-30,-2.1306500000000001e-30
4434.0,7.6639700000000005e-29,1.1475700000000001e-24,1.1475100000000001e-24,1.14758e-24,-1.9421000000000001e-29,5.9596500000000001e-30,-1.87318e-30
4435.0,8.0989300000000002e-29,1.1475700000000001e-24,1.1475100000000001e-24,1.1475899999999999e-24,-2.1351599999999999e-29,4.6440200000000001e-30,-2.2022100000000001e-30
4436.0,8.4335600000000001e-29,1.1475700000000001e-24,1.1475100000000001e-24,1.1475899999999999e-24,-2.2890500000000001e-29,2.9546e-30,-3.0517799999999998e-30
4437.0,8.6790900000000002e-29,1.14758e-24,1.1475100000000001e-24,1.1476000000000001e-24,-2.3786200000000001e-29,8.8939899999999999e-31,-4.2942599999999998e-30
4438.0,8.7246999999999999e-29,1.14758e-24,1.1475100000000001e-24,1.1476000000000001e-24,-2.4455700000000001e-29,-1.33309e-30,-5.5803499999999998e-30
4439.0,6.04719e-29,1.1475599999999999e-24,1.1475100000000001e-24,1.1475700000000001e-24,-1.22961e-29,6.68353e-30,-4.12525e-30
4440.0,6.3217000000000004e-29,1.1475599999999999e-24,1.1475100000000001e-24,1.1475700000000001e-24,-1.3604500000000001e-29,6.0715200000000003e-30,-3.6544000000000001e-30
4441.0,6.6161900000000001e-29,1.1475599999999999e-24,1.1475100000000001e-24,1.14758e-24,-1.5072300000000001e-29,5.1811000000000002e-30,-3.2663000000000002e-30
4442.0,6.9366599999999997e-29,1.1475599999999999e-24,1.1475100000000001e-24,1.14758e-24,-1.6423900000000001e-29,4.0493099999999997e-30,-3.2410199999999999e-30
4443.0,7.1597400000000003e-29,1.1475700000000001e-24,1.1475100000000001e-24,1.1475899999999999e-24,-1.7376300000000001e-29,2.56716e-30,-3.5584100000000002e-30
4444.0,7.3068300000000005e-29,1.1475700000000001e-24,1.1475100000000001e-24,1.1475899999999999e-24,-1.8087499999999999e-29,8.9311400000000007e-31,-4.1012300000000001e-30
4445.0,7.4358100000000003e-29,1.1475700000000001e-24,1.14752e-24,1.1475899999999999e-24,-1.80261e-29,-1.03299e-30,-4.7544400000000001e-30
4446.0,5.4392000000000004e-29,1.14755e-24,1.1475100000000001e-24,1.1475599999999999e-24,-9.1793699999999993e-30,6.0509300000000001e-30,-5.2995400000000003e-30
4447.0,5.5952399999999996e-29,1.14755e-24,1.1475100000000001e-24,1.1475700000000001e-24,-1.0139599999999999e-29,5.4507200000000003e-30,-4.69624e-30
4448.0,5.8232200000000002e-29,1.1475599999999999e-24,1.1475100000000001e-24,1.1475700000000001e-24,-1.10744e-29,4.6817500000000002e-30,-4.2470200000000002e-30
4449.0,6.0091000000000003e-29,1.1475599999999999e-24,1.1475100000000001e-24,1.1475700000000001e-24,-1.1937700000000001e-29,3.6305600000000002e-30,-3.9925999999999997e-30
4450.0,6.18359e-29,1.1475599999999999e-24,1.1475100000000001e-24,1.14758e-24,-1.26346e-29,2.31774e-30,-3.8420699999999998e-30
4451.0,6.3023599999999996e-29,1.1475599999999999e-24,1.14752e-24,1.14758e-24,-1.2809799999999999e-29,9.2949600000000008e-31,-3.9563199999999999e-30
4452.0,6.3000499999999999e-29,1.1475599999999999e-24,1.14752e-24,1.14758e-24,-1.3197400000000001e-29,-5.0357399999999997e-31,-4.1060500000000003e-30
4453.0,5.0259899999999999e-29,1.14755e-24,1.1475100000000001e-24,1.1475599999999999e-24,-7.0802699999999996e-30,5.5594500000000002e-30,-5.7943600000000002e-30
4454.0,5.14366e-29,1.14755e-24,1.1475100000000001e-24,1.1475599999999999e-24,-7.4903299999999997e-30,5.1507300000000002e-30,-5.4755099999999997e-30
4455.0,5.2690299999999996e-29,1.14755e-24,1.1475100000000001e-24,1.1475700000000001e-24,-8.1210399999999997e-30,4.34421e-30,-4.87611e-30
4456.0,5.4005900000000001e-29,1.14755e-24,1.1475100000000001e-24,1.1475700000000001e-24,-8.6281599999999994e-30,3.3507699999999999e-30,-4.3989499999999998e-30
4457.0,5.5124999999999995e-29,1.1475599999999999e-24,1.1475100000000001e-24,1.1475700000000001e-24,-8.89061e-30,2.26111e-30,-4.1024699999999998e-30
4458.0,5.6073000000000005e-29,1.1475599999999999e-24,1.1475100000000001e-24,1.1475700000000001e-24,-9.3519999999999994e-30,9.9610000000000008e-31,-3.80225e-30
4459.0,5.6324499999999996e-29,1.1475599999999999e-24,1.14752e-24,1.14758e-24,-8.6191400000000007e-30,-5.0154799999999999e-31,-3.5171500000000001e-30
4460.0,3.7200699999999999e-29,1.14744e-24,1.14746e-24,1.14744e-24,-5.2401900000000001e-30,-4.7283800000000003e-30,1.50697e-29
4461.0,3.7511299999999999e-29,1.1474499999999999e-24,1.14747e-24,1.14744e-24,-5.2144500000000003e-30,-4.8941800000000002e-30,1.6097e-29
4462.0,3.3780400000000001e-29,1.1474499999999999e-24,1.14747e-24,1.1474499999999999e-24,-5.0196600000000003e-30,-5.3999599999999999e-30,1.56201e-29
4463.0,3.30305e-29,1.14746e-24,1.14747e-24,1.14746e-24,-5.1462000000000002e-30,-5.4439e-30,1.6178600000000001e-29
4464.0,3.0002200000000002e-29,1.14747e-24,1.14747e-24,1.14747e-24,-4.9596300000000001e-30,-5.9504699999999999e-30,1.5178600000000001e-29
4465.0,2.92282e-29,1.1474799999999999e-24,1.1474799999999999e-24,1.1474799999999999e-24,-5.3214499999999999e-30,-5.99827e-30,1.4847300000000001e-29
4466.0,2.85553e-29,1.14749e-24,1.1474799999999999e-24,1.14749e-24,-4.9666300000000003e-30,-6.4660199999999995e-30,1.3707499999999999e-29
4467.0,3.5748899999999999e-29,1.14744e-24,1.14746e-24,1.14744e-24,-5.1464599999999998e-30,-4.2243600000000002e-30,1.41811e-29
4468.0,3.28544e-29,1.1474499999999999e-24,1.14747e-24,1.1474499999999999e-24,-4.7171199999999997e-30,-4.43767e-30,1.4172e-29
4469.0,3.1702000000000003e-29,1.14746e-24,1.14747e-24,1.14746e-24,-4.8856000000000003e-30,-4.6053299999999998e-30,1.4506000000000001e-29
4470.0,2.8532399999999999e-29,1.14746e-24,1.14747e-24,1.14746e-24,-4.5977699999999999e-30,-4.85277e-30,1.40617e-29
4471.0,2.7302699999999998e-29,1.14747e-24,1.1474799999999999e-24,1.14747e-24,-4.87442e-30,-4.9094500000000002e-30,1.3866900000000001e-29
4472.0,2.5664900000000002e-29,1.1474799999999999e-24,1.1474799999999999e-24,1.1474799999999999e-24,-4.6892800000000003e-30,-5.3072800000000002e-30,1.29421e-29
4473.0,2.5646999999999999e-29,1.14749e-24,1.14749e-24,1.14749e-24,-5.37947e-30,-5.1941900000000002e-30,1.19837e-29
4474.0,3.8570800000000002e-29,1.14744e-24,1.14746e-24,1.14744e-24,-7.2194199999999994e-30,-4.8544300000000001e-30,1.4967800000000001e-29
4475.0,3.6634199999999998e-29,1.14744e-24,1.14746e-24,1.14744e-24,-7.2092500000000005e-30,-5.1380000000000001e-30,1.53848e-29
4476.0,3.54572e-29,1.1474499999999999e-24,1.14747e-24,1.1474499999999999e-24,-7.3430600000000002e-30,-5.42594e-30,1.5809100000000001e-29
4477.0,3.3006499999999999e-29,1.14746e-24,1.14747e-24,1.14746e-24,-7.4685200000000004e-30,-5.5939900000000003e-30,1.54118e-29
4478.0,3.1673900000000001e-29,1.14747e-24,1.14747e-24,1.14747e-24,-7.6848500000000001e-30,-5.76489e-30,1.5216800000000001e-29
4479.0,2.9964000000000001e-29,1.1474799999999999e-24,1.1474799999999999e-24,1.1474799999999999e-24,-7.8155000000000004e-30,-5.8206399999999998e-30,1.4283700000000001e-29
4480.0,2.9741900000000003e-29,1.14749e-24,1.1474799999999999e-24,1.14749e-24,-7.9726299999999994e-30,-5.9352700000000003e-30,1.3284699999999999e-29
4481.0,3.46476e-29,1.14744e-24,1.14746e-24,1.14744e-24,-6.68219e-30,-4.2495300000000002e-30,1.3515900000000001e-29
4482.0,3.33108e-29,1.1474499999999999e-24,1.14747e-24,1.1474499999999999e-24,-6.6387000000000001e-30,-4.48382e-30,1.39127e-29
4483.0,3.1026999999999999e-29,1.1474499999999999e-24,1.14747e-24,1.1474499999999999e-24,-6.6814599999999995e-30,-4.5724399999999999e-30,1.3833300000000001e-29
4484.0,2.9454100000000002e-29,1.14746e-24,1.14747e-24,1.14746e-24,-6.8168099999999997e-30,-4.7655599999999999e-30,1.3822200000000001e-29
4485.0,2.7348000000000001e-29,1.14747e-24,1.14747e-24,1.14747e-24,-6.9291199999999995e-30,-4.80965e-30,1.3196600000000001e-29
4486.0,2.6592299999999999e-29,1.1474799999999999e-24,1.1474799999999999e-24,1.1474799999999999e-24,-7.1725400000000004e-30,-4.9514599999999999e-30,1.25791e-29
4487.0,2.68317e-29,1.14749e-24,1.1474799999999999e-24,1.14749e-24,-6.9798199999999994e-30,-5.1401700000000001e-30,1.17018e-29
4488.0,3.8403800000000001e-29,1.14744e-24,1.14746e-24,1.14744e-24,-9.0504000000000005e-30,-5.01234e-30,1.4598800000000001e-29
4489.0,3.7315299999999999e-29,1.14744e-24,1.14746e-24,1.14744e-24,-9.2796299999999997e-30,-5.2787500000000002e-30,1.51258e-29
4490.0,3.55809e-29,1.1474499999999999e-24,1.14747e-24,1.1474499999999999e-24,-9.44129e-30,-5.4588799999999998e-30,1.5233399999999999e-29
4491.0,3.4226700000000002e-29,1.14746e-24,1.14747e-24,1.14746e-24,-9.7834099999999993e-30,-5.65699e-30,1.5198500000000001e-29
4492.0,3.2462799999999998e-29,1.14747e-24,1.14747e-24,1.14747e-24,-1.00253e-29,-5.6406700000000002e-30,1.45862e-29
4493.0,3.1618e-29,1.1474799999999999e-24,1.1474799999999999e-24,1.1474799999999999e-24,-1.02586e-29,-5.7809500000000002e-30,1.3909100000000001e-29
4494.0,3.0940600000000001e-29,1.14749e-24,1.1474799999999999e-24,1.14749e-24,-9.8707399999999997e-30,-5.5708199999999997e-30,1.2833900000000001e-29
4495.0,3.4622200000000003e-29,1.14744e-24,1.14746e-24,1.14744e-24,-8.3961799999999998e-30,-4.3106799999999999e-30,1.30996e-29
4496.0,3.2992799999999999e-29,1.1474499999999999e-24,1.14747e-24,1.1474499999999999e-24,-8.4467600000000002e-30,-4.4280199999999997e-30,1.3308299999999999e-29
4497.0,3.14994e-29,1.14746e-24,1.14747e-24,1.14746e-24,-8.63608e-30,-4.60176e-30,1.3470600000000001e-29
4498.0,2.9698600000000003e-29,1.14746e-24,1.14747e-24,1.14746e-24,-8.8589e-30,-4.6165699999999999e-30,1.3189799999999999e-29
4499.0,2.8634800000000003e-29,1.14747e-24,1.1474799999999999e-24,1.14747e-24,-9.1084600000000005e-30,-4.7920000000000002e-30,1.28554e-29
4500.0,2.7829100000000003e-29,1.1474799999999999e-24,1.1474799999999999e-24,1.1474799999999999e-24,-9.2994000000000005e-30,-4.7246800000000003e-30,1.20414e-29
4501.0,2.8461699999999998e-29,1.14749e-24,1.1474799999999999e-24,1.14749e-24,-9.6372399999999994e-30,-4.8172799999999997e-30,1.10377e-29
4502.0,3.84025e-29,1.14744e-24,1.14746e-24,1.14744e-24,-1.09036e-29,-4.93013e-30,1.4139300000000001e-29
4503.0,3.7355400000000002e-29,1.1474499999999999e-24,1.14746e-24,1.1474499999999999e-24,-1.10894e-29,-5.2029400000000001e-30,1.4633000000000001e-29
4504.0,3.61524e-29,1.1474499999999999e-24,1.14747e-24,1.1474499999999999e-24,-1.15443e-29,-5.3273199999999999e-30,1.47489e-29
4505.0,3.4780699999999998e-29,1.14746e-24,1.14747e-24,1.14746e-24,-1.18389e-29,-5.3796200000000001e-30,1.4570600000000001e-29
4506.0,3.38151e-29,1.14747e-24,1.14747e-24,1.14747e-24,-1.2241700000000001e-29,-5.4063799999999997e-30,1.4119900000000001e-29
4507.0,3.2885499999999997e-29,1.1474799999999999e-24,1.1474799999999999e-24,1.1474799999999999e-24,-1.2378899999999999e-29,-5.1564500000000001e-30,1.3282999999999999e-29
4508.0,3.2954999999999997e-29,1.14749e-24,1.1474799999999999e-24,1.14749e-24,-1.24674e-29,-5.2554300000000002e-30,1.20368e-29
4509.0,3.4398499999999999e-29,1.14744e-24,1.14746e-24,1.14744e-24,-1.0047700000000001e-29,-4.3165799999999998e-30,1.2635000000000001e-29
4510.0,3.3144600000000001e-29,1.1474499999999999e-24,1.14747e-24,1.1474499999999999e-24,-1.02558e-29,-4.3790800000000001e-30,1.28235e-29
4511.0,3.1731500000000001e-29,1.14746e-24,1.14747e-24,1.14746e-24,-1.04774e-29,-4.4312600000000002e-30,1.2866700000000001e-29
4512.0,3.0624500000000003e-29,1.14746e-24,1.14747e-24,1.14746e-24,-1.08214e-29,-4.5301799999999998e-30,1.27153e-29
4513.0,2.9630299999999998e-29,1.14747e-24,1.14747e-24,1.14747e-24,-1.1123199999999999e-29,-4.4496399999999998e-30,1.21922e-29
4514.0,2.9586300000000002e-29,1.1474799999999999e-24,1.1474799999999999e-24,1.1474799999999999e-24,-1.14016e-29,-4.5059300000000001e-30,1.15562e-29
4515.0,2.9893099999999999e-29,1.14749e-24,1.1474799999999999e-24,1.14749e-24,-1.1216799999999999e-29,-4.37526e-30,1.05516e-29
4516.0,3.8203499999999998e-29,1.14744e-24,1.14746e-24,1.14744e-24,-1.24931e-29,-4.8555600000000003e-30,1.36412e-29
4517.0,3.7482000000000003e-29,1.1474499999999999e-24,1.14746e-24,1.1474499999999999e-24,-1.29913e-29,-4.9409800000000002e-30,1.4007e-29
4518.0,3.6481800000000001e-29,1.1474499999999999e-24,1.14746e-24,1.1474499999999999e-24,-1.33181e-29,-5.0499100000000001e-30,1.4131000000000001e-29
4519.0,3.5716799999999997e-29,1.14746e-24,1.14747e-24,1.14746e-24,-1.38691e-29,-5.02343e-30,1.3929900000000001e-29
4520.0,3.4824699999999999e-29,1.14747e-24,1.14747e-24,1.14747e-24,-1.4157000000000001e-29,-4.85613e-30,1.3400599999999999e-29
4521.0,3.4576699999999998e-29,1.1474799999999999e-24,1.1474799999999999e-24,1.1474799999999999e-24,-1.4400500000000001e-29,-4.7869400000000003e-30,1.2644199999999999e-29
4522.0,3.42567e-29,1.14749e-24,1.1474799999999999e-24,1.14749e-24,-1.40329e-29,-4.3034999999999998e-30,1.15191e-29
4523.0,3.4327500000000002e-29,1.1474499999999999e-24,1.14746e-24,1.1474499999999999e-24,-1.17096e-29,-4.1356200000000001e-30,1.2058e-29
4524.0,3.32727e-29,1.1474499999999999e-24,1.14746e-24,1.1474499999999999e-24,-1.18458e-29,-4.2136100000000003e-30,1.22865e-29
4525.0,3.2337399999999998e-29,1.14746e-24,1.14747e-24,1.14746e-24,-1.22821e-29,-4.2138999999999998e-30,1.2274899999999999e-29
4526.0,3.1390900000000003e-29,1.14746e-24,1.14747e-24,1.14747e-24,-1.2610799999999999e-29,-4.15311e-30,1.20389e-29
4527.0,3.1068900000000002e-29,1.14747e-24,1.14747e-24,1.14747e-24,-1.2998300000000001e-29,-4.1282500000000001e-30,1.1640000000000001e-29
4528.0,3.1045000000000002e-29,1.1474799999999999e-24,1.1474799999999999e-24,1.1474799999999999e-24,-1.32352e-29,-3.8861200000000001e-30,1.0845700000000001e-29
4529.0,3.2289099999999999e-29,1.14749e-24,1.1474799999999999e-24,1.14749e-24,-1.35851e-29,-3.8412299999999998e-30,9.8099500000000006e-30
4530.0,3.8164799999999999e-29,1.14744e-24,1.14746e-24,1.14744e-24,-1.4167200000000001e-29,-4.56805e-30,1.30252e-29
4531.0,3.76037e-29,1.1474499999999999e-24,1.14746e-24,1.1474499999999999e-24,-1.44885e-29,-4.6865299999999999e-30,1.3397e-29
4532.0,3.7036900000000002e-29,1.1474499999999999e-24,1.14746e-24,1.1474499999999999e-24,-1.5115100000000001e-29,-4.6133999999999998e-30,1.33705e-29
4533.0,3.6382100000000001e-29,1.14746e-24,1.14747e-24,1.14746e-24,-1.54976e-29,-4.4986399999999997e-30,1.31942e-29
4534.0,3.6071200000000003e-29,1.14747e-24,1.14747e-24,1.14747e-24,-1.5958e-29,-4.2668100000000002e-30,1.26617e-29
4535.0,3.5828699999999999e-29,1.1474799999999999e-24,1.14747e-24,1.1474799999999999e-24,-1.6063800000000001e-29,-3.8642199999999998e-30,1.18147e-29
4536.0,3.6301800000000001e-29,1.14749e-24,1.1474799999999999e-24,1.14749e-24,-1.6174999999999999e-29,-3.7229199999999999e-30,1.0429e-29
4537.0,3.4427399999999998e-29,1.1474499999999999e-24,1.14746e-24,1.1474499999999999e-24,-1.29979e-29,-4.0255700000000001e-30,1.16395e-29
4538.0,3.3719099999999997e-29,1.1474499999999999e-24,1.14746e-24,1.1474499999999999e-24,-1.3424899999999999e-29,-3.9602600000000002e-30,1.1708800000000001e-29
4539.0,3.2931799999999999e-29,1.14746e-24,1.14747e-24,1.14746e-24,-1.3765299999999999e-29,-3.9294799999999998e-30,1.17067e-29
4540.0,3.2545499999999999e-29,1.14747e-24,1.14747e-24,1.14747e-24,-1.4288600000000001e-29,-3.81534e-30,1.14549e-29
4541.0,3.2354200000000001e-29,1.14747e-24,1.14747e-24,1.14747e-24,-1.4644100000000001e-29,-3.5940499999999999e-30,1.09535e-29
4542.0,3.2927699999999998e-29,1.1474799999999999e-24,1.1474799999999999e-24,1.1474799999999999e-24,-1.4942700000000001e-29,-3.4792000000000003e-30,1.0263500000000001e-29
4543.0,3.3698099999999998e-29,1.14749e-24,1.1474799999999999e-24,1.14749e-24,-1.47674e-29,-3.1448200000000002e-30,9.3154800000000006e-30
4544.0,3.8112999999999999e-29,1.14744e-24,1.14746e-24,1.14744e-24,-1.5279799999999999e-29,-4.3951800000000002e-30,1.25298e-29
4545.0,3.7830600000000001e-29,1.1474499999999999e-24,1.14746e-24,1.1474499999999999e-24,-1.5938499999999999e-29,-4.2818199999999999e-30,1.2597400000000001e-29
4546.0,3.7397199999999998e-29,1.14746e-24,1.14746e-24,1.14746e-24,-1.6419399999999999e-29,-4.1341999999999998e-30,1.26478e-29
4547.0,3.7135799999999999e-29,1.14746e-24,1.14747e-24,1.14746e-24,-1.70477e-29,-3.8713200000000003e-30,1.2290700000000001e-29
4548.0,3.6967099999999999e-29,1.14747e-24,1.14747e-24,1.14747e-24,-1.7365500000000001e-29,-3.5391100000000002e-30,1.1804800000000001e-29
4549.0,3.7244400000000003e-29,1.1474799999999999e-24,1.14747e-24,1.1474799999999999e-24,-1.76206e-29,-3.1247100000000001e-30,1.0944299999999999e-29
4550.0,3.7554200000000001e-29,1.14749e-24,1.1474799999999999e-24,1.14749e-24,-1.7221399999999999e-29,-2.5713099999999999e-30,9.9028499999999994e-30
4551.0,3.4519600000000002e-29,1.1474499999999999e-24,1.14746e-24,1.1474499999999999e-24,-1.41597e-29,-3.7642399999999997e-30,1.1104399999999999e-29
4552.0,3.4067399999999999e-29,1.1474499999999999e-24,1.14746e-24,1.1474499999999999e-24,-1.4486399999999999e-29,-3.7743800000000001e-30,1.12528e-29
4553.0,3.3705200000000001e-29,1.14746e-24,1.14747e-24,1.14746e-24,-1.5112599999999999e-29,-3.6184500000000003e-30,1.1128e-29
4554.0,3.3463899999999998e-29,1.14747e-24,1.14747e-24,1.14747e-24,-1.55369e-29,-3.4273600000000002e-30,1.09086e-29
4555.0,3.36601e-29,1.14747e-24,1.14747e-24,1.14747e-24,-1.5975799999999999e-29,-3.1743600000000001e-30,1.0399999999999999e-29
4556.0,3.4281599999999998e-29,1.1474799999999999e-24,1.14747e-24,1.1474799999999999e-24,-1.6241000000000001e-29,-2.7924599999999998e-30,9.6175699999999996e-30
4557.0,3.58447e-29,1.14749e-24,1.1474799999999999e-24,1.14749e-24,-1.65856e-29,-2.4566099999999999e-30,8.4713300000000006e-30
4558.0,2.3353799999999999e-29,1.14749e-24,1.1474799999999999e-24,1.14749e-24,-4.6257999999999998e-30,-4.6907799999999997e-30,1.03647e-29
4559.0,2.05032e-29,1.1475e-24,1.14749e-24,1.1475e-24,-5.5954699999999998e-30,-3.5676200000000003e-30,8.44999e-30
4560.0,1.8768699999999999e-29,1.14749e-24,1.1474799999999999e-24,1.1475e-24,-4.37124e-30,-3.22104e-30,6.60516e-30
4561.0,1.7323399999999999e-29,1.1475e-24,1.14749e-24,1.1475e-24,-6.3426499999999997e-30,-2.3274099999999999e-30,4.9784999999999998e-30
4562.0,1.6048400000000001e-29,1.14749e-24,1.1474799999999999e-24,1.1475e-24,-3.57406e-30,-1.7844499999999999e-30,2.44276e-30
4563.0,1.8000800000000001e-29,1.1475e-24,1.14749e-24,1.1475e-24,-8.3227900000000001e-30,-1.77e-30,2.2117500000000002e-30
4564.0,1.9793999999999999e-29,1.14749e-24,1.1474799999999999e-24,1.14749e-24,2.55395e-31,2.6222e-30,-5.4842900000000002e-30
4565.0,2.2760600000000001e-29,1.14749e-24,1.1474799999999999e-24,1.1474799999999999e-24,-4.93969e-30,-4.2778299999999997e-30,1.1358099999999999e-29
4566.0,1.9384599999999999e-29,1.1474799999999999e-24,1.1474799999999999e-24,1.1474799999999999e-24,-4.4237100000000002e-30,-3.6472599999999998e-30,9.3623700000000003e-30
4567.0,1.71748e-29,1.14749e-24,1.1474799999999999e-24,1.14749e-24,-5.1010700000000002e-30,-2.9638399999999999e-30,7.8772600000000003e-30
4568.0,1.2927e-29,1.1474799999999999e-24,1.1474799999999999e-24,1.1474799999999999e-24,-4.0960300000000001e-30,-2.22579e-30,5.1817299999999997e-30
4569.0,1.3395100000000001e-29,1.14749e-24,1.14749e-24,1.14749e-24,-5.6342800000000003e-30,-2.0951999999999999e-30,4.5727699999999999e-30
4570.0,7.43153e-30,1.1474799999999999e-24,1.1474799999999999e-24,1.1474799999999999e-24,-3.4089899999999999e-30,-3.3366500000000001e-31,-3.6436899999999999e-31
4571.0,1.34184e-29,1.14749e-24,1.1474799999999999e-24,1.14749e-24,-5.3815299999999998e-30,-1.7882600000000001e-30,-8.7635799999999996e-32
4572.0,2.3364699999999999e-29,1.14747e-24,1.1474799999999999e-24,1.14747e-24,-4.4233500000000003e-30,-4.2516099999999999e-30,1.18825e-29
4573.0,2.10317e-29,1.1474799999999999e-24,1.1474799999999999e-24,1.1474799999999999e-24,-4.7115199999999999e-30,-3.5319799999999999e-30,1.03462e-29
4574.0,1.66708e-29,1.14747e-24,1.1474799999999999e-24,1.14747e-24,-4.1751900000000003e-30,-2.7934000000000001e-30,8.0180399999999996e-30
4575.0,1.5497100000000001e-29,1.1474799999999999e-24,1.1474799999999999e-24,1.1474799999999999e-24,-4.7598899999999997e-30,-2.52655e-30,6.8239700000000007e-30
4576.0,1.0045000000000001e-29,1.14747e-24,1.1474799999999999e-24,1.14747e-24,-3.9912900000000003e-30,-1.4121300000000001e-30,3.3905900000000003e-30
4577.0,9.6535700000000006e-30,1.1474799999999999e-24,1.1474799999999999e-24,1.1474799999999999e-24,-4.6029999999999998e-30,-1.7737899999999999e-30,2.44167e-30
4578.0,8.1226000000000002e-30,1.14747e-24,1.1474799999999999e-24,1.14747e-24,-4.1182499999999998e-30,-5.3997200000000004e-31,1.76877e-31
4579.0,2.6049099999999998e-29,1.14747e-24,1.1474799999999999e-24,1.14747e-24,-4.6725100000000003e-30,-4.1103899999999997e-30,1.24761e-29
4580.0,2.23767e-29,1.14746e-24,1.14747e-24,1.14746e-24,-4.2549000000000002e-30,-3.3757599999999999e-30,1.05662e-29
4581.0,2.0486899999999999e-29,1.14747e-24,1.1474799999999999e-24,1.14747e-24,-4.5361100000000002e-30,-3.0164599999999998e-30,8.9621099999999999e-30
4582.0,1.68657e-29,1.14746e-24,1.14747e-24,1.14746e-24,-4.1258600000000003e-30,-2.1135799999999999e-30,6.45633e-30
4583.0,1.47423e-29,1.14747e-24,1.14747e-24,1.14747e-24,-4.3402599999999997e-30,-2.1232099999999999e-30,4.90816e-30
4584.0,1.3317400000000001e-29,1.14746e-24,1.14747e-24,1.14746e-24,-4.2113899999999997e-30,-1.1758500000000001e-30,2.46195e-30
4585.0,1.0488300000000001e-29,1.14747e-24,1.14747e-24,1.14747e-24,-4.1108000000000001e-30,-1.09927e-30,1.58167e-31
4586.0,2.8059899999999997e-29,1.1474499999999999e-24,1.14747e-24,1.14746e-24,-4.4503800000000002e-30,-3.9273600000000003e-30,1.2703700000000001e-29
4587.0,2.5748999999999999e-29,1.14746e-24,1.14747e-24,1.14746e-24,-4.5679700000000003e-30,-3.5116200000000001e-30,1.08953e-29
4588.0,2.34232e-29,1.1474499999999999e-24,1.14747e-24,1.1474499999999999e-24,-4.2705999999999998e-30,-2.71567e-30,9.0718400000000006e-30
4589.0,2.0955200000000001e-29,1.14746e-24,1.14747e-24,1.14746e-24,-4.3556599999999998e-30,-2.5855799999999998e-30,7.1520200000000006e-30
4590.0,1.98642e-29,1.1474499999999999e-24,1.14747e-24,1.1474499999999999e-24,-4.2830800000000002e-30,-1.7476999999999999e-30,4.9718099999999997e-30
4591.0,1.6925999999999999e-29,1.1474499999999999e-24,1.14747e-24,1.14746e-24,-4.1069799999999999e-30,-1.64088e-30,2.7480100000000001e-30
4592.0,1.7998800000000001e-29,1.1474499999999999e-24,1.14747e-24,1.1474499999999999e-24,-4.3649299999999997e-30,-1.14428e-30,9.5879300000000008e-31
4593.0,3.07507e-29,1.1474499999999999e-24,1.14747e-24,1.1474499999999999e-24,-4.7481099999999999e-30,-4.0087600000000002e-30,1.2608e-29
4594.0,2.9162400000000002e-29,1.1474499999999999e-24,1.14747e-24,1.1474499999999999e-24,-4.49891e-30,-3.25007e-30,1.12902e-29
4595.0,2.6590900000000002e-29,1.1474499999999999e-24,1.14747e-24,1.1474499999999999e-24,-4.5205999999999998e-30,-3.0904600000000002e-30,9.19229e-30
4596.0,2.6160000000000001e-29,1.14744e-24,1.14747e-24,1.14744e-24,-4.4764799999999998e-30,-2.32429e-30,7.4347799999999997e-30
4597.0,2.3340999999999999e-29,1.14744e-24,1.14747e-24,1.1474499999999999e-24,-4.3175999999999997e-30,-2.16683e-30,5.1655899999999998e-30
4598.0,2.37491e-29,1.14744e-24,1.14746e-24,1.14744e-24,-4.5134300000000003e-30,-1.59282e-30,3.2382400000000003e-30
4599.0,2.1331099999999999e-29,1.14744e-24,1.14746e-24,1.1474499999999999e-24,-4.1639500000000002e-30,-1.1704800000000001e-30,6.11434e-31
4600.0,3.3662000000000002e-29,1.14744e-24,1.14746e-24,1.14744e-24,-4.78567e-30,-3.6634600000000002e-30,1.3035300000000001e-29
4601.0,3.1244400000000002e-29,1.14744e-24,1.14746e-24,1.14744e-24,-4.7752400000000001e-30,-3.6028800000000002e-30,1.1026199999999999e-29
4602.0,3.1648499999999998e-29,1.14744e-24,1.14746e-24,1.14744e-24,-4.7981900000000003e-30,-2.9046e-30,9.8156799999999998e-30
4603.0,2.90328e-29,1.14744e-24,1.14746e-24,1.14744e-24,-4.6451800000000002e-30,-2.7162300000000001e-30,7.4874799999999997e-30
4604.0,2.95519e-29,1.14743e-24,1.14746e-24,1.14744e-24,-4.8305099999999998e-30,-2.11531e-30,5.6595799999999997e-30
4605.0,2.7371599999999998e-29,1.14743e-24,1.14746e-24,1.14744e-24,-4.5328299999999999e-30,-1.8356700000000001e-30,3.1999499999999998e-30
4606.0,2.8260400000000002e-29,1.14743e-24,1.14746e-24,1.14743e-24,-4.7865699999999997e-30,-1.51048e-30,1.2620900000000001e-30
4607.0,2.4477999999999999e-29,1.1475e-24,1.14749e-24,1.14749e-24,-7.3856099999999997e-30,-4.3191300000000003e-30,9.8620900000000001e-30
4608.0,2.2206799999999999e-29,1.14749e-24,1.1474799999999999e-24,1.14749e-24,-6.6900900000000006e-30,-3.6374200000000003e-30,8.0783099999999995e-30
4609.0,2.1131099999999999e-29,1.1475e-24,1.14749e-24,1.1475e-24,-7.6806899999999993e-30,-2.9958899999999999e-30,6.4215499999999995e-30
4610.0,1.9046199999999999e-29,1.14749e-24,1.1474799999999999e-24,1.1475e-24,-6.4883900000000007e-30,-2.0967999999999999e-30,4.1626100000000002e-30
4611.0,2.0106500000000001e-29,1.1475e-24,1.14749e-24,1.1475e-24,-8.4294100000000005e-30,-2.15247e-30,3.2771399999999997e-30
4612.0,1.85417e-29,1.1475e-24,1.1474799999999999e-24,1.1475e-24,-5.8040499999999997e-30,1.2114699999999999e-31,-5.4641599999999998e-31
4613.0,1.9295100000000001e-29,1.1475e-24,1.14749e-24,1.1475e-24,-8.6392399999999994e-30,-7.6903699999999999e-31,1.2678e-30
4614.0,2.3637200000000001e-29,1.1474799999999999e-24,1.1474799999999999e-24,1.1474799999999999e-24,-6.7647199999999994e-30,-4.2380599999999998e-30,1.08552e-29
4615.0,2.1025000000000001e-29,1.14749e-24,1.1474799999999999e-24,1.14749e-24,-6.8246799999999998e-30,-3.53263e-30,9.1637100000000003e-30
4616.0,1.8134100000000001e-29,1.1474799999999999e-24,1.1474799999999999e-24,1.1474799999999999e-24,-6.6359499999999997e-30,-2.7792300000000001e-30,7.0954900000000005e-30
4617.0,1.6636499999999999e-29,1.14749e-24,1.1474799999999999e-24,1.14749e-24,-6.9429600000000005e-30,-2.3538599999999998e-30,5.6514899999999999e-30
4618.0,1.3698000000000001e-29,1.1474799999999999e-24,1.1474799999999999e-24,1.1474799999999999e-24,-6.4781199999999994e-30,-1.4306e-30,2.9642200000000001e-30
4619.0,1.3996300000000001e-29,1.14749e-24,1.1474799999999999e-24,1.14749e-24,-7.1274599999999994e-30,-9.1515799999999994e-31,1.6575700000000001e-30
4620.0,1.0372499999999999e-29,1.1474799999999999e-24,1.1474799999999999e-24,1.1474799999999999e-24,-4.1669199999999998e-30,3.17409e-32,-1.3307099999999999e-30
4621.0,2.4371100000000001e-29,1.1474799999999999e-24,1.1474799999999999e-24,1.1474799999999999e-24,-6.6195299999999996e-30,-4.1766299999999998e-30,1.15787e-29
4622.0,2.11682e-29,1.14747e-24,1.1474799999999999e-24,1.14747e-24,-6.4932300000000001e-30,-3.4088199999999999e-30,9.6965799999999997e-30
4623.0,1.8668000000000001e-29,1.1474799999999999e-24,1.1474799999999999e-24,1.1474799999999999e-24,-6.4347500000000005e-30,-2.86482e-30,8.0436899999999997e-30
4624.0,1.5692300000000001e-29,1.14747e-24,1.1474799999999999e-24,1.14747e-24,-6.4465300000000003e-30,-2.20054e-30,5.83318e-30
4625.0,1.3676099999999999e-29,1.1474799999999999e-24,1.1474799999999999e-24,1.1474799999999999e-24,-6.4723399999999997e-30,-1.6317799999999998e-30,4.0744799999999997e-30
4626.0,1.07783e-29,1.14747e-24,1.14747e-24,1.14747e-24,-5.80197e-30,-1.1639199999999999e-30,1.61672e-30
4627.0,1.22258e-29,1.1474799999999999e-24,1.1474799999999999e-24,1.1474799999999999e-24,-6.9454500000000007e-30,-1.15577e-30,1.0647500000000001e-31
4628.0,2.5839200000000001e-29,1.14746e-24,1.14747e-24,1.14746e-24,-6.4624899999999995e-30,-4.0342099999999997e-30,1.1956800000000001e-29
4629.0,2.30505e-29,1.14747e-24,1.14747e-24,1.14747e-24,-6.2776200000000001e-30,-3.4215699999999999e-30,1.0217799999999999e-29
4630.0,2.0453599999999999e-29,1.14746e-24,1.14747e-24,1.14746e-24,-6.3129100000000006e-30,-2.8146699999999999e-30,8.3398999999999994e-30
4631.0,1.7998299999999999e-29,1.14747e-24,1.14747e-24,1.14747e-24,-6.2120899999999998e-30,-2.2694100000000001e-30,6.4794100000000003e-30
4632.0,1.5769200000000001e-29,1.14746e-24,1.14747e-24,1.14746e-24,-6.1282500000000003e-30,-1.81825e-30,4.3117700000000003e-30
4633.0,1.4074600000000001e-29,1.14747e-24,1.14747e-24,1.14747e-24,-6.3209599999999999e-30,-1.44914e-30,2.4610000000000002e-30
4634.0,1.3716299999999999e-29,1.14746e-24,1.14747e-24,1.14746e-24,-5.9054100000000003e-30,-8.4158700000000006e-31,5.2994900000000001e-31
4635.0,2.8079200000000002e-29,1.14746e-24,1.14747e-24,1.14746e-24,-6.3253399999999998e-30,-3.9982599999999999e-30,1.21894e-29
4636.0,2.5641000000000002e-29,1.14746e-24,1.14747e-24,1.14746e-24,-6.2659e-30,-3.3682699999999997e-30,1.05029e-29
4637.0,2.3246900000000001e-29,1.14746e-24,1.14747e-24,1.14746e-24,-6.1408600000000001e-30,-2.86214e-30,8.6558999999999999e-30
4638.0,2.15218e-29,1.1474499999999999e-24,1.14747e-24,1.1474499999999999e-24,-6.1593699999999999e-30,-2.38202e-30,6.75954e-30
4639.0,1.9453599999999999e-29,1.14746e-24,1.14747e-24,1.14746e-24,-6.1500600000000003e-30,-1.9609300000000001e-30,4.7982699999999999e-30
4640.0,1.8895799999999999e-29,1.1474499999999999e-24,1.14747e-24,1.1474499999999999e-24,-6.1081300000000002e-30,-1.50389e-30,2.7685499999999998e-30
4641.0,1.6980900000000001e-29,1.1474499999999999e-24,1.14747e-24,1.14746e-24,-6.1635799999999999e-30,-1.14185e-30,4.7928200000000001e-31
4642.0,3.0528200000000002e-29,1.1474499999999999e-24,1.14747e-24,1.1474499999999999e-24,-6.3841399999999995e-30,-3.8814300000000001e-30,1.23342e-29
4643.0,2.8276499999999998e-29,1.1474499999999999e-24,1.14747e-24,1.1474499999999999e-24,-6.21941e-30,-3.4082200000000003e-30,1.0593299999999999e-29
4644.0,2.6890600000000002e-29,1.1474499999999999e-24,1.14747e-24,1.1474499999999999e-24,-6.21036e-30,-2.9482499999999998e-30,8.9912399999999995e-30
4645.0,2.51072e-29,1.1474499999999999e-24,1.14747e-24,1.1474499999999999e-24,-6.1753399999999998e-30,-2.5183699999999999e-30,7.0176199999999999e-30
4646.0,2.43781e-29,1.14744e-24,1.14746e-24,1.1474499999999999e-24,-6.19425e-30,-2.05305e-30,5.0806100000000001e-30
4647.0,2.2621099999999999e-29,1.14744e-24,1.14746e-24,1.1474499999999999e-24,-6.1521000000000002e-30,-1.72285e-30,2.9287799999999999e-30
4648.0,2.3692800000000001e-29,1.14744e-24,1.14746e-24,1.14744e-24,-6.2559800000000001e-30,-1.31362e-30,1.0631800000000001e-30
4649.0,3.2491600000000001e-29,1.14744e-24,1.14746e-24,1.14744e-24,-6.4059700000000001e-30,-3.8655799999999997e-30,1.21681e-29
4650.0,3.1753800000000002e-29,1.14744e-24,1.14746e-24,1.14744e-24,-6.3882600000000005e-30,-3.4948999999999999e-30,1.1033599999999999e-29
4651.0,3.0231999999999998e-29,1.14744e-24,1.14746e-24,1.14744e-24,-6.3594000000000005e-30,-3.08581e-30,9.1706700000000006e-30
4652.0,2.9798399999999998e-29,1.14744e-24,1.14746e-24,1.14744e-24,-6.4045500000000005e-30,-2.6375400000000001e-30,7.4248800000000004e-30
4653.0,2.8415400000000003e-29,1.14744e-24,1.14746e-24,1.14744e-24,-6.3948399999999997e-30,-2.2959699999999999e-30,5.3492799999999999e-30
4654.0,2.8583599999999998e-29,1.14743e-24,1.14746e-24,1.14744e-24,-6.4902600000000006e-30,-1.8887000000000001e-30,3.3709900000000002e-30
4655.0,2.7020199999999999e-29,1.14743e-24,1.14746e-24,1.14744e-24,-6.3380999999999998e-30,-1.41778e-30,9.3253899999999991e-31
4656.0,2.59086e-29,1.14749e-24,1.1474799999999999e-24,1.14749e-24,-8.8237799999999995e-30,-4.0777500000000001e-30,9.4105899999999993e-30
4657.0,2.4786899999999999e-29,1.1475e-24,1.1474799999999999e-24,1.1475e-24,-9.3781399999999996e-30,-3.4111999999999998e-30,7.7505300000000005e-30
4658.0,2.2808200000000001e-29,1.14749e-24,1.1474799999999999e-24,1.1475e-24,-8.7200500000000004e-30,-2.5921999999999999e-30,5.7169800000000003e-30
4659.0,2.3244900000000001e-29,1.1475e-24,1.14749e-24,1.1475e-24,-9.7008099999999995e-30,-2.35499e-30,4.47929e-30
4660.0,2.1839899999999999e-29,1.1475e-24,1.1474799999999999e-24,1.1475e-24,-8.6305100000000001e-30,-9.8008400000000001e-31,1.7676099999999998e-30
4661.0,2.28619e-29,1.1475e-24,1.14749e-24,1.1475e-24,-9.8764999999999995e-30,-1.18765e-30,1.5882199999999999e-30
4662.0,2.4557199999999999e-29,1.1475e-24,1.1474799999999999e-24,1.1475e-24,-8.7389199999999994e-30,-6.9911199999999998e-31,-2.14275e-30
4663.0,2.50878e-29,1.1474799999999999e-24,1.1474799999999999e-24,1.14749e-24,-8.8788500000000001e-30,-3.9878000000000001e-30,1.04144e-29
4664.0,2.26551e-29,1.1474799999999999e-24,1.1474799999999999e-24,1.1474799999999999e-24,-8.7542e-30,-3.3147399999999997e-30,8.5857299999999993e-30
4665.0,2.0731800000000001e-29,1.14749e-24,1.1474799999999999e-24,1.14749e-24,-8.7300999999999997e-30,-2.71097e-30,6.95584e-30
4666.0,1.88118e-29,1.1474799999999999e-24,1.1474799999999999e-24,1.1474799999999999e-24,-8.7482500000000003e-30,-2.0220800000000001e-30,4.9434800000000003e-30
4667.0,1.78773e-29,1.14749e-24,1.1474799999999999e-24,1.14749e-24,-8.8693999999999996e-30,-1.4273099999999999e-30,3.27942e-30
4668.0,1.6247800000000001e-29,1.1474799999999999e-24,1.1474799999999999e-24,1.1474799999999999e-24,-8.1369200000000006e-30,-8.4052299999999999e-31,1.19022e-30
4669.0,1.82047e-29,1.14749e-24,1.1474799999999999e-24,1.14749e-24,-9.6848399999999997e-30,-6.8593099999999999e-31,2.0060199999999998e-31
4670.0,2.5220799999999999e-29,1.14747e-24,1.1474799999999999e-24,1.14747e-24,-8.65201e-30,-3.9138599999999999e-30,1.1005e-29
4671.0,2.2504500000000001e-29,1.1474799999999999e-24,1.1474799999999999e-24,1.1474799999999999e-24,-8.3739099999999996e-30,-3.3257899999999998e-30,9.3455900000000003e-30
4672.0,2.02468e-29,1.14747e-24,1.1474799999999999e-24,1.14747e-24,-8.5159799999999998e-30,-2.70282e-30,7.52464e-30
4673.0,1.78756e-29,1.1474799999999999e-24,1.1474799999999999e-24,1.1474799999999999e-24,-8.3563199999999995e-30,-2.0577099999999999e-30,5.6802600000000002e-30
4674.0,1.6111199999999999e-29,1.14747e-24,1.14747e-24,1.14747e-24,-8.33623e-30,-1.6138400000000001e-30,3.7798399999999997e-30
4675.0,1.52429e-29,1.1474799999999999e-24,1.1474799999999999e-24,1.1474799999999999e-24,-8.5167300000000002e-30,-1.03048e-30,1.8996599999999998e-30
4676.0,1.2758799999999999e-29,1.14747e-24,1.14747e-24,1.14747e-24,-7.3061600000000001e-30,-5.3499399999999996e-31,-1.7000300000000001e-31
4677.0,2.6366400000000002e-29,1.14747e-24,1.14747e-24,1.14747e-24,-8.3077400000000006e-30,-3.9296799999999997e-30,1.14891e-29
4678.0,2.3791699999999999e-29,1.14747e-24,1.14747e-24,1.14747e-24,-8.2625200000000003e-30,-3.3265899999999999e-30,9.7564899999999996e-30
4679.0,2.1219000000000001e-29,1.14747e-24,1.14747e-24,1.14747e-24,-8.07332e-30,-2.6858999999999999e-30,7.9522100000000005e-30
4680.0,1.94594e-29,1.14746e-24,1.14747e-24,1.14747e-24,-8.2232200000000004e-30,-2.26674e-30,6.1753900000000003e-30
4681.0,1.74312e-29,1.14747e-24,1.14747e-24,1.14747e-24,-8.1244100000000003e-30,-1.66598e-30,4.2081200000000001e-30
4682.0,1.6070900000000001e-29,1.14746e-24,1.14747e-24,1.14746e-24,-7.9583799999999993e-30,-1.34768e-30,2.3065e-30
4683.0,1.6061299999999999e-29,1.14747e-24,1.14747e-24,1.14747e-24,-8.5554299999999998e-30,-1.06135e-30,3.76235e-31
4684.0,2.8186200000000001e-29,1.14746e-24,1.14747e-24,1.14746e-24,-8.1786999999999999e-30,-3.8748600000000002e-30,1.1705e-29
4685.0,2.56277e-29,1.14746e-24,1.14747e-24,1.14746e-24,-7.93472e-30,-3.2885900000000003e-30,9.9759499999999997e-30
4686.0,2.3868899999999999e-29,1.14746e-24,1.14747e-24,1.14746e-24,-8.0228699999999998e-30,-2.8401300000000001e-30,8.3371999999999995e-30
4687.0,2.18582e-29,1.14746e-24,1.14747e-24,1.14746e-24,-7.9200399999999997e-30,-2.2980000000000001e-30,6.4438799999999995e-30
4688.0,2.0635599999999999e-29,1.1474499999999999e-24,1.14747e-24,1.14746e-24,-7.9932500000000001e-30,-1.9483099999999999e-30,4.5994599999999998e-30
4689.0,1.93423e-29,1.1474499999999999e-24,1.14747e-24,1.14746e-24,-8.0749800000000001e-30,-1.50117e-30,2.6338400000000001e-30
4690.0,1.9600899999999999e-29,1.1474499999999999e-24,1.14747e-24,1.1474499999999999e-24,-7.9384000000000001e-30,-1.00137e-30,7.6552299999999998e-31
4691.0,3.0086500000000001e-29,1.1474499999999999e-24,1.14747e-24,1.1474499999999999e-24,-8.0014200000000003e-30,-3.8060600000000002e-30,1.17506e-29
4692.0,2.8409600000000002e-29,1.1474499999999999e-24,1.14747e-24,1.1474499999999999e-24,-7.9587699999999998e-30,-3.4025999999999999e-30,1.0285300000000001e-29
4693.0,2.6629500000000001e-29,1.1474499999999999e-24,1.14747e-24,1.1474499999999999e-24,-7.8583399999999995e-30,-2.9020300000000002e-30,8.5315800000000006e-30
4694.0,2.5423400000000002e-29,1.1474499999999999e-24,1.14746e-24,1.1474499999999999e-24,-7.9258400000000007e-30,-2.5100499999999999e-30,6.7890200000000002e-30
4695.0,2.4234999999999999e-29,1.1474499999999999e-24,1.14746e-24,1.1474499999999999e-24,-7.9510400000000005e-30,-2.0862700000000001e-30,4.8717999999999998e-30
4696.0,2.3983199999999999e-29,1.14744e-24,1.14746e-24,1.14744e-24,-8.0024200000000004e-30,-1.6561200000000002e-30,2.9516400000000001e-30
4697.0,2.2675199999999999e-29,1.14744e-24,1.14746e-24,1.1474499999999999e-24,-7.9963499999999998e-30,-1.3043700000000001e-30,7.8192799999999997e-31
4698.0,3.2360100000000003e-29,1.14744e-24,1.14746e-24,1.14744e-24,-8.0626300000000005e-30,-3.8676800000000001e-30,1.1888000000000001e-29
4699.0,3.1090099999999998e-29,1.14744e-24,1.14746e-24,1.14744e-24,-7.9452500000000002e-30,-3.4587100000000004e-30,1.04558e-29
4700.0,3.0206800000000002e-29,1.14744e-24,1.14746e-24,1.14744e-24,-7.9819800000000002e-30,-3.0758800000000001e-30,8.9111499999999997e-30
4701.0,2.9345999999999998e-29,1.14744e-24,1.14746e-24,1.14744e-24,-8.0285600000000005e-30,-2.68982e-30,7.1061900000000007e-30
4702.0,2.8774300000000002e-29,1.14744e-24,1.14746e-24,1.14744e-24,-8.0964400000000001e-30,-2.2716600000000001e-30,5.2427699999999998e-30
4703.0,2.78334e-29,1.14744e-24,1.14746e-24,1.14744e-24,-8.0888100000000005e-30,-1.92143e-30,3.1999099999999999e-30
4704.0,2.89285e-29,1.14743e-24,1.14746e-24,1.14743e-24,-8.1863400000000003e-30,-1.51336e-30,1.28743e-30
4705.0,2.8365299999999997e-29,1.14749e-24,1.1474799999999999e-24,1.14749e-24,-1.13161e-29,-3.6753600000000002e-30,8.8760900000000004e-30
4706.0,2.6503600000000001e-29,1.14749e-24,1.1474799999999999e-24,1.14749e-24,-1.06934e-29,-3.0186999999999999e-30,7.1121099999999998e-30
4707.0,2.6428699999999999e-29,1.1475e-24,1.1474799999999999e-24,1.1475e-24,-1.12731e-29,-2.48218e-30,5.6897e-30
4708.0,2.5373100000000001e-29,1.1475e-24,1.1474799999999999e-24,1.1475e-24,-1.07265e-29,-1.5852199999999998e-30,3.4592099999999997e-30
4709.0,2.6109599999999999e-29,1.1475e-24,1.1474799999999999e-24,1.1475e-24,-1.13602e-29,-1.40565e-30,2.5957999999999999e-30
4710.0,2.6542500000000003e-29,1.1475e-24,1.1474799999999999e-24,1.1475e-24,-1.07963e-29,-7.2099799999999997e-31,-1.21351e-31
4711.0,2.61377e-29,1.1475e-24,1.1474799999999999e-24,1.1475e-24,-1.1242700000000001e-29,-7.8977099999999997e-32,-3.7038899999999998e-31
4712.0,2.6819300000000002e-29,1.1474799999999999e-24,1.1474799999999999e-24,1.1474799999999999e-24,-1.0868e-29,-3.71332e-30,9.8030100000000002e-30
4713.0,2.4768000000000001e-29,1.14749e-24,1.1474799999999999e-24,1.14749e-24,-1.0632899999999999e-29,-3.02238e-30,8.1745200000000006e-30
4714.0,2.3271199999999999e-29,1.1474799999999999e-24,1.1474799999999999e-24,1.14749e-24,-1.0721e-29,-2.4547200000000001e-30,6.4450800000000001e-30
4715.0,2.2035800000000001e-29,1.14749e-24,1.1474799999999999e-24,1.14749e-24,-1.06783e-29,-1.81271e-30,4.7397099999999999e-30
4716.0,2.1051200000000001e-29,1.1474799999999999e-24,1.1474799999999999e-24,1.14749e-24,-1.0572499999999999e-29,-1.2906899999999999e-30,2.9776200000000002e-30
4717.0,2.1168699999999999e-29,1.14749e-24,1.1474799999999999e-24,1.14749e-24,-1.09639e-29,-8.8261200000000006e-31,1.4060399999999999e-30
4718.0,2.0890899999999999e-29,1.14749e-24,1.14747e-24,1.1474799999999999e-24,-1.01545e-29,-5.5521000000000001e-31,-8.1180999999999997e-31
4719.0,2.6562900000000002e-29,1.1474799999999999e-24,1.1474799999999999e-24,1.1474799999999999e-24,-1.0497999999999999e-29,-3.7641500000000001e-30,1.05223e-29
4720.0,2.4295900000000001e-29,1.1474799999999999e-24,1.14747e-24,1.1474799999999999e-24,-1.04308e-29,-3.1004199999999999e-30,8.8427600000000001e-30
4721.0,2.20357e-29,1.1474799999999999e-24,1.1474799999999999e-24,1.1474799999999999e-24,-1.02422e-29,-2.47808e-30,7.0940299999999996e-30
4722.0,2.0686299999999999e-29,1.14747e-24,1.14747e-24,1.1474799999999999e-24,-1.0412e-29,-1.9913499999999999e-30,5.4552500000000003e-30
4723.0,1.9181e-29,1.1474799999999999e-24,1.1474799999999999e-24,1.1474799999999999e-24,-1.03491e-29,-1.3876e-30,3.5732100000000001e-30
4724.0,1.80645e-29,1.14747e-24,1.14747e-24,1.14747e-24,-1.01481e-29,-1.0329700000000001e-30,1.8695999999999999e-30
4725.0,1.90537e-29,1.1474799999999999e-24,1.14747e-24,1.1474799999999999e-24,-1.09303e-29,-7.10077e-31,2.2976999999999998e-31
4726.0,2.7266500000000001e-29,1.14747e-24,1.14747e-24,1.14747e-24,-1.02555e-29,-3.7579100000000002e-30,1.09347e-29
4727.0,2.45833e-29,1.14747e-24,1.14747e-24,1.14747e-24,-9.9502799999999997e-30,-3.1112000000000001e-30,9.2306099999999998e-30
4728.0,2.2892200000000001e-29,1.14747e-24,1.14747e-24,1.14747e-24,-1.00848e-29,-2.6394399999999998e-30,7.6284799999999994e-30
4729.0,2.08525e-29,1.14747e-24,1.14747e-24,1.14747e-24,-9.9701399999999994e-30,-2.02898e-30,5.8033499999999998e-30
4730.0,1.9768099999999999e-29,1.14746e-24,1.14747e-24,1.14747e-24,-1.00868e-29,-1.6864799999999998e-30,4.1336000000000002e-30
4731.0,1.8788899999999999e-29,1.14747e-24,1.14747e-24,1.14747e-24,-1.01599e-29,-1.1766799999999999e-30,2.2199000000000001e-30
4732.0,1.7735899999999999e-29,1.14746e-24,1.14747e-24,1.14746e-24,-9.7700700000000004e-30,-7.1944299999999999e-31,3.1907e-31
4733.0,2.84419e-29,1.14746e-24,1.14747e-24,1.14746e-24,-9.8910499999999997e-30,-3.7492599999999999e-30,1.11492e-29
4734.0,2.6266100000000002e-29,1.14746e-24,1.14747e-24,1.14746e-24,-9.7783000000000003e-30,-3.2078099999999999e-30,9.55337e-30
4735.0,2.4337599999999999e-29,1.14746e-24,1.14747e-24,1.14746e-24,-9.68325e-30,-2.67196e-30,7.8736299999999994e-30
4736.0,2.3044100000000001e-29,1.14746e-24,1.14747e-24,1.14746e-24,-9.8308700000000001e-30,-2.29275e-30,6.2318100000000001e-30
4737.0,2.1678099999999999e-29,1.14746e-24,1.14747e-24,1.14746e-24,-9.8118600000000003e-30,-1.7892800000000001e-30,4.3732000000000002e-30
4738.0,2.1033800000000001e-29,1.1474499999999999e-24,1.14747e-24,1.1474499999999999e-24,-9.8784900000000003e-30,-1.44207e-30,2.5837199999999999e-30
4739.0,2.0557500000000001e-29,1.1474499999999999e-24,1.14747e-24,1.14746e-24,-1.00654e-29,-1.1547500000000001e-30,6.89343e-31
4740.0,3.0247200000000002e-29,1.1474499999999999e-24,1.14747e-24,1.1474499999999999e-24,-9.7190900000000003e-30,-3.7801899999999997e-30,1.1273199999999999e-29
4741.0,2.8349300000000002e-29,1.1474499999999999e-24,1.14747e-24,1.1474499999999999e-24,-9.55641e-30,-3.2545099999999997e-30,9.7643700000000004e-30
4742.0,2.69029e-29,1.1474499999999999e-24,1.14746e-24,1.1474499999999999e-24,-9.5916899999999998e-30,-2.8691199999999999e-30,8.2105700000000007e-30
4743.0,2.5764700000000002e-29,1.1474499999999999e-24,1.14746e-24,1.1474499999999999e-24,-9.6075200000000002e-30,-2.41717e-30,6.4702799999999999e-30
4744.0,2.4889900000000001e-29,1.1474499999999999e-24,1.14746e-24,1.1474499999999999e-24,-9.7242400000000005e-30,-2.0465800000000001e-30,4.7132900000000002e-30
4745.0,2.4102299999999999e-29,1.1474499999999999e-24,1.14746e-24,1.1474499999999999e-24,-9.7510400000000007e-30,-1.66345e-30,2.8530299999999998e-30
4746.0,2.47987e-29,1.14744e-24,1.14746e-24,1.14744e-24,-9.8660399999999997e-30,-1.1879199999999999e-30,9.9556699999999992e-31
4747.0,3.2079100000000002e-29,1.1474499999999999e-24,1.14746e-24,1.1474499999999999e-24,-9.6532000000000001e-30,-3.74605e-30,1.13295e-29
4748.0,3.0948199999999997e-29,1.14744e-24,1.14746e-24,1.14744e-24,-9.5945199999999999e-30,-3.4318099999999999e-30,1.00642e-29
4749.0,3.0072599999999999e-29,1.14744e-24,1.14746e-24,1.14744e-24,-9.5949199999999996e-30,-3.04762e-30,8.5257199999999998e-30
4750.0,2.9272599999999999e-29,1.14744e-24,1.14746e-24,1.14744e-24,-9.6689000000000004e-30,-2.6394399999999998e-30,6.8563300000000001e-30
4751.0,2.8565100000000001e-29,1.14744e-24,1.14746e-24,1.14744e-24,-9.7244599999999996e-30,-2.28486e-30,5.0738399999999997e-30
4752.0,2.8532600000000001e-29,1.14743e-24,1.14746e-24,1.14744e-24,-9.82938e-30,-1.8598200000000001e-30,3.1868899999999997e-30
4753.0,2.7312300000000003e-29,1.14744e-24,1.14746e-24,1.14744e-24,-9.6731500000000001e-30,-1.5040800000000001e-30,1.10916e-30
4754.0,3.0071800000000003e-29,1.14749e-24,1.1474799999999999e-24,1.14749e-24,-1.26751e-29,-3.2562500000000001e-30,8.2886400000000005e-30
4755.0,2.95838e-29,1.1475e-24,1.1474799999999999e-24,1.1475e-24,-1.2957899999999999e-29,-2.5333099999999998e-30,6.8477499999999995e-30
4756.0,2.8657799999999999e-29,1.14749e-24,1.1474799999999999e-24,1.14749e-24,-1.25781e-29,-1.9512000000000001e-30,4.9021799999999997e-30
4757.0,2.91e-29,1.1475e-24,1.1474799999999999e-24,1.1475e-24,-1.29309e-29,-1.44314e-30,3.7766499999999997e-30
4758.0,2.92505e-29,1.1475e-24,1.1474799999999999e-24,1.1475e-24,-1.2624599999999999e-29,-8.6134100000000004e-31,1.5051599999999999e-30
4759.0,2.9420400000000001e-29,1.1475e-24,1.1474799999999999e-24,1.1475e-24,-1.27743e-29,-3.9335099999999998e-31,7.6398099999999996e-31
4760.0,3.1434100000000002e-29,1.1475e-24,1.1474799999999999e-24,1.1475e-24,-1.26144e-29,-3.6344600000000001e-31,-1.6197200000000001e-30
4761.0,2.8797899999999999e-29,1.1474799999999999e-24,1.1474799999999999e-24,1.14749e-24,-1.26563e-29,-3.29369e-30,9.2910200000000004e-30
4762.0,2.7268400000000003e-29,1.1474799999999999e-24,1.1474799999999999e-24,1.1474799999999999e-24,-1.25754e-29,-2.7611699999999998e-30,7.6762800000000002e-30
4763.0,2.5981700000000002e-29,1.14749e-24,1.1474799999999999e-24,1.14749e-24,-1.2449399999999999e-29,-2.0626000000000001e-30,6.0669399999999998e-30
4764.0,2.5205900000000001e-29,1.14749e-24,1.1474799999999999e-24,1.14749e-24,-1.25214e-29,-1.5994599999999999e-30,4.4747100000000002e-30
4765.0,2.4788599999999999e-29,1.14749e-24,1.1474799999999999e-24,1.14749e-24,-1.25905e-29,-1.08484e-30,2.8302200000000002e-30
4766.0,2.4499699999999999e-29,1.14749e-24,1.14747e-24,1.14749e-24,-1.23641e-29,-6.7320899999999997e-31,1.08626e-30
4767.0,2.4593600000000001e-29,1.14749e-24,1.1474799999999999e-24,1.14749e-24,-1.2733399999999999e-29,-1.47602e-31,-2.8149299999999999e-31
4768.0,2.8226100000000001e-29,1.1474799999999999e-24,1.14747e-24,1.1474799999999999e-24,-1.2408500000000001e-29,-3.4326499999999999e-30,9.9435100000000006e-30
4769.0,2.60323e-29,1.1474799999999999e-24,1.14747e-24,1.1474799999999999e-24,-1.2099399999999999e-29,-2.8176199999999999e-30,8.3300799999999998e-30
4770.0,2.47385e-29,1.1474799999999999e-24,1.14747e-24,1.1474799999999999e-24,-1.22285e-29,-2.30425e-30,6.8187899999999999e-30
4771.0,2.32403e-29,1.1474799999999999e-24,1.14747e-24,1.1474799999999999e-24,-1.21559e-29,-1.7207099999999998e-30,5.0764599999999999e-30
4772.0,2.2442e-29,1.1474799999999999e-24,1.14747e-24,1.1474799999999999e-24,-1.2231e-29,-1.3121700000000001e-30,3.5471500000000003e-30
4773.0,2.2002200000000001e-29,1.1474799999999999e-24,1.14747e-24,1.1474799999999999e-24,-1.23809e-29,-8.7129900000000008e-31,1.7548399999999999e-30
4774.0,2.14203e-29,1.14747e-24,1.14747e-24,1.14747e-24,-1.2037000000000001e-29,-5.0136200000000003e-31,-1.10483e-31
4775.0,2.8282299999999999e-29,1.14747e-24,1.14747e-24,1.14747e-24,-1.19459e-29,-3.5115700000000003e-30,1.03766e-29
4776.0,2.6273199999999999e-29,1.14747e-24,1.14747e-24,1.14747e-24,-1.1835299999999999e-29,-2.9725100000000001e-30,8.8218699999999998e-30
4777.0,2.4351299999999999e-29,1.14747e-24,1.14747e-24,1.14747e-24,-1.17298e-29,-2.38184e-30,7.1776200000000002e-30
4778.0,2.33334e-29,1.14747e-24,1.14747e-24,1.14747e-24,-1.19173e-29,-1.9858400000000001e-30,5.6780600000000003e-30
4779.0,2.20317e-29,1.14747e-24,1.14747e-24,1.14747e-24,-1.1897400000000001e-29,-1.45943e-30,3.8787000000000003e-30
4780.0,2.13668e-29,1.14746e-24,1.14747e-24,1.14746e-24,-1.19547e-29,-1.10648e-30,2.2439399999999999e-30
4781.0,2.1545200000000001e-29,1.14747e-24,1.14747e-24,1.14747e-24,-1.2247400000000001e-29,-7.8988900000000004e-31,5.2573500000000004e-31
4782.0,2.9153499999999999e-29,1.14746e-24,1.14747e-24,1.14746e-24,-1.1599699999999999e-29,-3.57892e-30,1.0632e-29
4783.0,2.7011400000000002e-29,1.14746e-24,1.14747e-24,1.14746e-24,-1.14002e-29,-3.0204799999999999e-30,9.0552300000000006e-30
4784.0,2.5645500000000001e-29,1.14746e-24,1.14747e-24,1.14746e-24,-1.15002e-29,-2.59158e-30,7.5895300000000002e-30
4785.0,2.4241299999999999e-29,1.14746e-24,1.14747e-24,1.14746e-24,-1.15087e-29,-2.1052200000000001e-30,5.91103e-30
4786.0,2.35371e-29,1.14746e-24,1.14747e-24,1.14746e-24,-1.1692999999999999e-29,-1.7609699999999999e-30,4.3219399999999998e-30
4787.0,2.2690500000000001e-29,1.14746e-24,1.14747e-24,1.14746e-24,-1.16952e-29,-1.3322999999999999e-30,2.51491e-30
4788.0,2.26004e-29,1.1474499999999999e-24,1.14746e-24,1.1474499999999999e-24,-1.1794400000000001e-29,-8.4937699999999994e-31,6.7859800000000003e-31
4789.0,3.0410700000000001e-29,1.1474499999999999e-24,1.14747e-24,1.1474499999999999e-24,-1.1324900000000001e-29,-3.5844000000000003e-30,1.07351e-29
4790.0,2.8795300000000001e-29,1.1474499999999999e-24,1.14747e-24,1.1474499999999999e-24,-1.12176e-29,-3.1683000000000002e-30,9.3653199999999999e-30
4791.0,2.7467100000000001e-29,1.1474499999999999e-24,1.14746e-24,1.1474499999999999e-24,-1.1222199999999999e-29,-2.7308699999999999e-30,7.8393200000000004e-30
4792.0,2.65576e-29,1.1474499999999999e-24,1.14746e-24,1.1474499999999999e-24,-1.1376600000000001e-29,-2.36985e-30,6.2826000000000003e-30
4793.0,2.5689099999999999e-29,1.1474499999999999e-24,1.14746e-24,1.1474499999999999e-24,-1.1407e-29,-1.95809e-30,4.5645399999999999e-30
4794.0,2.5427200000000001e-29,1.1474499999999999e-24,1.14746e-24,1.1474499999999999e-24,-1.1596400000000001e-29,-1.5894200000000002e-30,2.8278900000000001e-30
4795.0,2.4613099999999999e-29,1.1474499999999999e-24,1.14746e-24,1.1474499999999999e-24,-1.14325e-29,-1.3120100000000001e-30,1.00853e-30
4796.0,3.2048300000000001e-29,1.1474499999999999e-24,1.14746e-24,1.1474499999999999e-24,-1.1201400000000001e-29,-3.6836699999999998e-30,1.0870900000000001e-29
4797.0,3.1034799999999997e-29,1.1474499999999999e-24,1.14746e-24,1.1474499999999999e-24,-1.1131600000000001e-29,-3.33882e-30,9.6574600000000005e-30
4798.0,3.0038399999999999e-29,1.14744e-24,1.14746e-24,1.14744e-24,-1.11877e-29,-2.9331299999999999e-30,8.2156900000000003e-30
4799.0,2.94265e-29,1.14744e-24,1.14746e-24,1.14744e-24,-1.1255800000000001e-29,-2.6001699999999999e-30,6.6263e-30
4800.0,2.88362e-29,1.14744e-24,1.14746e-24,1.14744e-24,-1.1389700000000001e-29,-2.2140899999999999e-30,4.9374900000000001e-30
4801.0,2.8064599999999999e-29,1.14744e-24,1.14746e-24,1.14744e-24,-1.1331899999999999e-29,-1.8588100000000001e-30,3.1407799999999999e-30
4802.0,2.9027399999999997e-29,1.14743e-24,1.14746e-24,1.14744e-24,-1.1620499999999999e-29,-1.4209799999999999e-30,1.2947999999999999e-30
4803.0,3.2673699999999999e-29,1.14749e-24,1.1474799999999999e-24,1.14749e-24,-1.46959e-29,-2.5070000000000001e-30,7.8781100000000003e-30
4804.0,3.1709300000000002e-29,1.14749e-24,1.1474799999999999e-24,1.14749e-24,-1.4267200000000001e-29,-2.1670400000000001e-30,6.2186700000000003e-30
4805.0,3.18368e-29,1.1475e-24,1.1474799999999999e-24,1.1475e-24,-1.4471299999999999e-29,-1.39415e-30,5.05044e-30
4806.0,3.1966300000000002e-29,1.1475e-24,1.1474799999999999e-24,1.14749e-24,-1.4345899999999999e-29,-9.6687199999999994e-31,3.0200499999999999e-30
4807.0,3.2288800000000002e-29,1.1475e-24,1.1474799999999999e-24,1.1475e-24,-1.43375e-29,-4.2092700000000004e-31,2.0587199999999998e-30
4808.0,3.3369999999999999e-29,1.1475e-24,1.14747e-24,1.1475e-24,-1.4242400000000001e-29,-1.9893700000000002e-31,-5.8561600000000003e-32
4809.0,3.3000099999999998e-29,1.1475e-24,1.1474799999999999e-24,1.1475e-24,-1.40674e-29,4.9685599999999998e-31,-8.8250400000000006e-31
4810.0,3.0937300000000002e-29,1.1474799999999999e-24,1.1474799999999999e-24,1.1474799999999999e-24,-1.4408299999999999e-29,-2.9021200000000001e-30,8.7747199999999998e-30
4811.0,2.9603300000000001e-29,1.14749e-24,1.1474799999999999e-24,1.14749e-24,-1.4147000000000001e-29,-2.2340900000000001e-30,7.2958500000000004e-30
4812.0,2.8931500000000001e-29,1.14749e-24,1.14747e-24,1.14749e-24,-1.4249000000000001e-29,-1.8113999999999998e-30,5.8768099999999999e-30
4813.0,2.8378399999999997e-29,1.14749e-24,1.1474799999999999e-24,1.14749e-24,-1.42537e-29,-1.2098e-30,4.2777100000000003e-30
4814.0,2.8099600000000001e-29,1.14749e-24,1.14747e-24,1.14749e-24,-1.42124e-29,-7.9613099999999997e-31,2.7164800000000001e-30
4815.0,2.7994700000000001e-29,1.14749e-24,1.14747e-24,1.14749e-24,-1.4270399999999999e-29,-3.40272e-31,1.1928800000000001e-30
4816.0,2.8860499999999998e-29,1.14749e-24,1.14747e-24,1.1474799999999999e-24,-1.41042e-29,-1.5929600000000001e-31,-5.8653100000000001e-31
4817.0,2.98636e-29,1.1474799999999999e-24,1.14747e-24,1.1474799999999999e-24,-1.3969200000000001e-29,-3.0726599999999999e-30,9.4267199999999999e-30
4818.0,2.8516e-29,1.1474799999999999e-24,1.14747e-24,1.1474799999999999e-24,-1.3931900000000001e-29,-2.5698799999999999e-30,8.0791399999999995e-30
4819.0,2.7155400000000001e-29,1.1474799999999999e-24,1.14747e-24,1.1474799999999999e-24,-1.3873299999999999e-29,-1.9984799999999999e-30,6.4940699999999994e-30
4820.0,2.6392699999999998e-29,1.1474799999999999e-24,1.14747e-24,1.1474799999999999e-24,-1.40033e-29,-1.53731e-30,5.0785399999999997e-30
4821.0,2.5651999999999998e-29,1.1474799999999999e-24,1.14747e-24,1.1474799999999999e-24,-1.40526e-29,-1.07759e-30,3.3800400000000003e-30
4822.0,2.5195600000000001e-29,1.14747e-24,1.14747e-24,1.14747e-24,-1.3996899999999999e-29,-6.5903100000000004e-31,1.77739e-30
4823.0,2.5202799999999999e-29,1.1474799999999999e-24,1.14747e-24,1.1474799999999999e-24,-1.4217900000000001e-29,-2.333e-31,1.8043e-31
4824.0,2.9781100000000002e-29,1.14747e-24,1.14747e-24,1.14747e-24,-1.3608599999999999e-29,-3.24536e-30,9.9286400000000003e-30
4825.0,2.7899199999999997e-29,1.14747e-24,1.14747e-24,1.14747e-24,-1.3416500000000001e-29,-2.7230699999999999e-30,8.4476699999999999e-30
4826.0,2.6776500000000001e-29,1.14747e-24,1.14747e-24,1.14747e-24,-1.3543900000000001e-29,-2.27084e-30,7.0619500000000004e-30
4827.0,2.5562400000000002e-29,1.14747e-24,1.14747e-24,1.14747e-24,-1.35879e-29,-1.7530799999999999e-30,5.4504100000000001e-30
4828.0,2.4878500000000001e-29,1.14747e-24,1.14747e-24,1.14747e-24,-1.37252e-29,-1.3770700000000001e-30,3.95376e-30
4829.0,2.42539e-29,1.14747e-24,1.14747e-24,1.14747e-24,-1.3778699999999999e-29,-9.5781199999999993e-31,2.21656e-30
4830.0,2.39773e-29,1.14746e-24,1.14746e-24,1.14746e-24,-1.3825099999999999e-29,-5.48639e-31,4.0364599999999999e-31
4831.0,3.0116200000000002e-29,1.14746e-24,1.14747e-24,1.14746e-24,-1.31614e-29,-3.3549499999999999e-30,1.01499e-29
4832.0,2.8462700000000003e-29,1.14746e-24,1.14747e-24,1.14746e-24,-1.3053300000000001e-29,-2.90635e-30,8.78861e-30
4833.0,2.7127100000000003e-29,1.14746e-24,1.14747e-24,1.14746e-24,-1.3092000000000001e-29,-2.42203e-30,7.3395199999999995e-30
4834.0,2.62955e-29,1.14746e-24,1.14747e-24,1.14746e-24,-1.32785e-29,-2.0453200000000001e-30,5.8917799999999998e-30
4835.0,2.5330199999999999e-29,1.14746e-24,1.14747e-24,1.14746e-24,-1.33158e-29,-1.6024899999999999e-30,4.2220500000000001e-30
4836.0,2.4933299999999999e-29,1.14746e-24,1.14746e-24,1.14746e-24,-1.3501400000000001e-29,-1.2237500000000001e-30,2.5978099999999999e-30
4837.0,2.45596e-29,1.14746e-24,1.14746e-24,1.14746e-24,-1.3458799999999999e-29,-9.5222900000000002e-31,9.0845700000000004e-31
4838.0,3.1034399999999999e-29,1.1474499999999999e-24,1.14746e-24,1.1474499999999999e-24,-1.2785700000000001e-29,-3.4617400000000003e-30,1.03117e-29
4839.0,2.96869e-29,1.1474499999999999e-24,1.14746e-24,1.1474499999999999e-24,-1.2747300000000001e-29,-3.0315399999999999e-30,9.0589199999999999e-30
4840.0,2.8637500000000001e-29,1.1474499999999999e-24,1.14746e-24,1.1474499999999999e-24,-1.2856799999999999e-29,-2.6673699999999999e-30,7.6866000000000005e-30
4841.0,2.7727799999999998e-29,1.1474499999999999e-24,1.14746e-24,1.1474499999999999e-24,-1.2953599999999999e-29,-2.2436300000000002e-30,6.1495099999999998e-30
4842.0,2.7212099999999998e-29,1.1474499999999999e-24,1.14746e-24,1.1474499999999999e-24,-1.3154100000000001e-29,-1.9286699999999999e-30,4.6095800000000003e-30
4843.0,2.6377299999999997e-29,1.1474499999999999e-24,1.14746e-24,1.1474499999999999e-24,-1.3055800000000001e-29,-1.51869e-30,2.8767200000000001e-30
4844.0,2.6701699999999999e-29,1.14744e-24,1.14746e-24,1.1474499999999999e-24,-1.3399199999999999e-29,-1.00047e-30,1.0116599999999999e-30
4845.0,3.24362e-29,1.1474499999999999e-24,1.14746e-24,1.1474499999999999e-24,-1.26358e-29,-3.5360599999999997e-30,1.05025e-29
4846.0,3.1337300000000002e-29,1.1474499999999999e-24,1.14746e-24,1.1474499999999999e-24,-1.25874e-29,-3.19974e-30,9.3310299999999994e-30
4847.0,3.0643300000000003e-29,1.1474499999999999e-24,1.14746e-24,1.1474499999999999e-24,-1.2712500000000001e-29,-2.8718500000000001e-30,8.0071899999999994e-30
4848.0,2.9982300000000002e-29,1.14744e-24,1.14746e-24,1.14744e-24,-1.28475e-29,-2.5332400000000001e-30,6.5472500000000001e-30
4849.0,2.9215200000000001e-29,1.14744e-24,1.14746e-24,1.14744e-24,-1.28626e-29,-2.1422100000000001e-30,4.8714e-30
4850.0,2.9149e-29,1.14744e-24,1.14746e-24,1.14744e-24,-1.31073e-29,-1.7821199999999998e-30,3.15811e-30
4851.0,2.7766499999999998e-29,1.14744e-24,1.14746e-24,1.14744e-24,-1.2643099999999999e-29,-1.48988e-30,1.3708200000000001e-30
4852.0,3.4334300000000001e-29,1.14749e-24,1.1474799999999999e-24,1.14749e-24,-1.5714299999999999e-29,-2.2804600000000002e-30,7.3209299999999994e-30
4853.0,3.4336100000000002e-29,1.14749e-24,1.1474799999999999e-24,1.1475e-24,-1.59041e-29,-1.3614200000000001e-30,6.4521599999999999e-30
4854.0,3.4435499999999999e-29,1.14749e-24,1.1474799999999999e-24,1.14749e-24,-1.5951200000000001e-29,-1.03824e-30,4.5487200000000001e-30
4855.0,3.4721900000000003e-29,1.1475e-24,1.1474799999999999e-24,1.1475e-24,-1.5884000000000001e-29,-3.02731e-31,3.5495999999999999e-30
4856.0,3.5494400000000001e-29,1.1475e-24,1.14747e-24,1.14749e-24,-1.5877500000000001e-29,-2.1199000000000001e-32,1.52948e-30
4857.0,3.5646299999999999e-29,1.1475e-24,1.14747e-24,1.1475e-24,-1.5591499999999999e-29,5.07767e-31,5.7131800000000003e-31
4858.0,3.74965e-29,1.1475e-24,1.14747e-24,1.14749e-24,-1.5557500000000001e-29,4.4514699999999997e-31,-1.34408e-30
4859.0,3.2723699999999998e-29,1.1474799999999999e-24,1.14747e-24,1.14749e-24,-1.56523e-29,-2.35274e-30,8.42047e-30
4860.0,3.2248400000000002e-29,1.1474799999999999e-24,1.14747e-24,1.1474799999999999e-24,-1.5816200000000001e-29,-2.01858e-30,7.26977e-30
4861.0,3.1789100000000002e-29,1.14749e-24,1.14747e-24,1.14749e-24,-1.58779e-29,-1.32863e-30,5.82595e-30
4862.0,3.1536700000000002e-29,1.14749e-24,1.14747e-24,1.1474799999999999e-24,-1.59563e-29,-8.7101099999999995e-31,4.3745999999999999e-30
4863.0,3.13798e-29,1.14749e-24,1.14747e-24,1.14749e-24,-1.5952e-29,-3.8911499999999999e-31,2.85854e-30
4864.0,3.1578900000000002e-29,1.14749e-24,1.14747e-24,1.1474799999999999e-24,-1.58415e-29,-6.0944699999999995e-32,1.2344799999999999e-30
4865.0,3.1354900000000002e-29,1.14749e-24,1.14747e-24,1.14749e-24,-1.5825399999999999e-29,4.7908900000000001e-31,-2.9078500000000001e-31
4866.0,3.1774499999999998e-29,1.1474799999999999e-24,1.14747e-24,1.1474799999999999e-24,-1.5421e-29,-2.7767200000000001e-30,9.2037499999999998e-30
4867.0,3.0747500000000002e-29,1.1474799999999999e-24,1.14747e-24,1.1474799999999999e-24,-1.5430499999999999e-29,-2.2749999999999998e-30,7.89933e-30
4868.0,3.0123899999999999e-29,1.1474799999999999e-24,1.14747e-24,1.1474799999999999e-24,-1.5633999999999999e-29,-1.7475499999999999e-30,6.6125799999999999e-30
4869.0,2.9492200000000001e-29,1.1474799999999999e-24,1.14747e-24,1.1474799999999999e-24,-1.5757200000000001e-29,-1.26378e-30,5.08803e-30
4870.0,2.8929800000000001e-29,1.1474799999999999e-24,1.14747e-24,1.14747e-24,-1.5782099999999999e-29,-8.0696199999999997e-31,3.58129e-30
4871.0,2.8561700000000001e-29,1.1474799999999999e-24,1.14747e-24,1.1474799999999999e-24,-1.5825000000000001e-29,-4.1815999999999996e-31,1.93628e-30
4872.0,2.87274e-29,1.14747e-24,1.14746e-24,1.14747e-24,-1.5739099999999999e-29,-1.2510000000000001e-31,1.90855e-31
4873.0,3.11581e-29,1.14747e-24,1.14747e-24,1.14747e-24,-1.49238e-29,-3.0163000000000001e-30,9.5703999999999997e-30
4874.0,3.0259700000000001e-29,1.14747e-24,1.14747e-24,1.14747e-24,-1.5080000000000001e-29,-2.56104e-30,8.4374799999999997e-30
4875.0,2.92824e-29,1.14747e-24,1.14747e-24,1.14747e-24,-1.5215199999999999e-29,-2.06573e-30,7.0744899999999999e-30
4876.0,2.8530599999999998e-29,1.14747e-24,1.14747e-24,1.14747e-24,-1.53899e-29,-1.6233300000000001e-30,5.6407399999999999e-30
4877.0,2.7776899999999999e-29,1.14747e-24,1.14747e-24,1.14747e-24,-1.54717e-29,-1.1912699999999999e-30,4.0378999999999997e-30
4878.0,2.7241699999999998e-29,1.14746e-24,1.14746e-24,1.14746e-24,-1.55115e-29,-7.7757099999999996e-31,2.42011e-30
4879.0,2.69986e-29,1.14747e-24,1.14747e-24,1.14747e-24,-1.55645e-29,-3.69335e-31,7.3977099999999998e-31
4880.0,3.1338599999999998e-29,1.14746e-24,1.14747e-24,1.14746e-24,-1.4459200000000001e-29,-3.1802999999999999e-30,9.8882700000000001e-30
4881.0,3.0261699999999999e-29,1.14746e-24,1.14747e-24,1.14746e-24,-1.4552499999999999e-29,-2.80038e-30,8.7569799999999996e-30
4882.0,2.93616e-29,1.14746e-24,1.14746e-24,1.14746e-24,-1.4749800000000001e-29,-2.3655999999999999e-30,7.4104099999999999e-30
4883.0,2.8479999999999999e-29,1.14746e-24,1.14746e-24,1.14746e-24,-1.48953e-29,-1.91899e-30,5.9615100000000001e-30
4884.0,2.7838299999999998e-29,1.14746e-24,1.14746e-24,1.14746e-24,-1.5055800000000001e-29,-1.53279e-30,4.43264e-30
4885.0,2.7114500000000002e-29,1.14746e-24,1.14746e-24,1.14746e-24,-1.5034400000000001e-29,-1.1576800000000001e-30,2.7417300000000001e-30
4886.0,2.68408e-29,1.1474499999999999e-24,1.14746e-24,1.1474499999999999e-24,-1.5203700000000001e-29,-6.9244100000000004e-31,9.4031199999999997e-31
4887.0,3.20578e-29,1.1474499999999999e-24,1.14746e-24,1.1474499999999999e-24,-1.4064400000000001e-29,-3.3632700000000002e-30,1.00966e-29
4888.0,3.0990399999999998e-29,1.1474499999999999e-24,1.14746e-24,1.1474499999999999e-24,-1.4119900000000001e-29,-2.9722399999999999e-30,8.9483699999999998e-30
4889.0,3.02151e-29,1.1474499999999999e-24,1.14746e-24,1.1474499999999999e-24,-1.4314500000000001e-29,-2.57799e-30,7.7243700000000005e-30
4890.0,2.9484900000000002e-29,1.1474499999999999e-24,1.14746e-24,1.1474499999999999e-24,-1.4497400000000001e-29,-2.2434800000000001e-30,6.2797400000000003e-30
4891.0,2.8666899999999999e-29,1.1474499999999999e-24,1.14746e-24,1.1474499999999999e-24,-1.4535999999999999e-29,-1.79919e-30,4.6778800000000003e-30
4892.0,2.8294099999999998e-29,1.1474499999999999e-24,1.14746e-24,1.1474499999999999e-24,-1.47455e-29,-1.4522400000000001e-30,3.05836e-30
4893.0,2.7573200000000002e-29,1.1474499999999999e-24,1.14746e-24,1.1474499999999999e-24,-1.4453099999999999e-29,-1.2044500000000001e-30,1.32959e-30
4894.0,3.26316e-29,1.1474499999999999e-24,1.14746e-24,1.1474499999999999e-24,-1.36794e-29,-3.3638899999999997e-30,1.0103699999999999e-29
4895.0,3.23296e-29,1.1474499999999999e-24,1.14746e-24,1.1474499999999999e-24,-1.3877200000000001e-29,-3.1753099999999997e-30,9.3051099999999998e-30
4896.0,3.1378300000000002e-29,1.1474499999999999e-24,1.14746e-24,1.1474499999999999e-24,-1.3957299999999999e-29,-2.8035500000000001e-30,7.9524499999999995e-30
4897.0,3.0769e-29,1.14744e-24,1.14746e-24,1.1474499999999999e-24,-1.4100899999999999e-29,-2.4147900000000001e-30,6.5275899999999995e-30
4898.0,3.02277e-29,1.14744e-24,1.14746e-24,1.14744e-24,-1.42722e-29,-2.1145200000000001e-30,4.9634099999999998e-30
4899.0,2.9202300000000003e-29,1.14744e-24,1.14746e-24,1.14744e-24,-1.40472e-29,-1.6888500000000001e-30,3.2207900000000003e-30
4900.0,2.9641699999999998e-29,1.14744e-24,1.1474499999999999e-24,1.14744e-24,-1.4546499999999999e-29,-1.1565100000000001e-30,1.3666200000000001e-30
4901.0,3.2261199999999999e-29,1.1474199999999999e-24,1.14746e-24,1.14743e-24,-4.97426e-30,-1.6019099999999999e-30,1.0176099999999999e-30
4902.0,3.8246899999999999e-29,1.14741e-24,1.1474499999999999e-24,1.1474199999999999e-24,-6.0016599999999999e-30,-1.8886800000000001e-30,1.7120499999999999e-30
4903.0,3.36094e-29,1.1474199999999999e-24,1.14746e-24,1.14743e-24,-5.3118300000000001e-30,-1.9927799999999998e-30,3.7800099999999997e-30
4904.0,3.80162e-29,1.14741e-24,1.1474499999999999e-24,1.1474199999999999e-24,-5.7305800000000003e-30,-2.35751e-30,3.9186500000000002e-30
4905.0,3.3172600000000002e-29,1.14743e-24,1.14746e-24,1.14743e-24,-5.0557099999999997e-30,-2.47572e-30,5.8942000000000002e-30
4906.0,3.8954900000000002e-29,1.14741e-24,1.1474499999999999e-24,1.1474199999999999e-24,-5.98568e-30,-2.6190000000000001e-30,6.7234199999999995e-30
4907.0,3.4975300000000001e-29,1.14743e-24,1.14746e-24,1.14743e-24,-5.2925699999999999e-30,-2.7366900000000001e-30,8.2876800000000003e-30
4908.0,3.8908799999999997e-29,1.1474199999999999e-24,1.1474499999999999e-24,1.1474199999999999e-24,-5.6679299999999999e-30,-3.1656100000000002e-30,8.9942999999999993e-30
4909.0,3.4157899999999998e-29,1.14743e-24,1.14746e-24,1.14743e-24,-5.02879e-30,-3.2986299999999997e-30,1.0003699999999999e-29
4910.0,3.97581e-29,1.1474199999999999e-24,1.1474499999999999e-24,1.1474199999999999e-24,-5.8331899999999999e-30,-3.4618299999999999e-30,1.09862e-29
4911.0,3.6444999999999997e-29,1.14743e-24,1.14746e-24,1.14743e-24,-5.20129e-30,-3.5194099999999998e-30,1.2175e-29
4912.0,3.8926400000000002e-29,1.14743e-24,1.14746e-24,1.14743e-24,-5.43485e-30,-3.9213600000000001e-30,1.2920899999999999e-29
4913.0,3.4716000000000001e-29,1.14744e-24,1.14746e-24,1.14744e-24,-4.9337900000000001e-30,-4.1376200000000002e-30,1.28019e-29
4914.0,3.9868800000000002e-29,1.14743e-24,1.14746e-24,1.14743e-24,-5.5480500000000002e-30,-4.2401200000000003e-30,1.4206299999999999e-29
4915.0,3.34812e-29,1.1474199999999999e-24,1.1474499999999999e-24,1.14743e-24,-6.8800300000000006e-30,-1.7739200000000001e-30,1.4727900000000001e-30
4916.0,3.8041599999999998e-29,1.14741e-24,1.1474499999999999e-24,1.1474199999999999e-24,-7.3770799999999996e-30,-2.01725e-30,1.3871300000000001e-30
4917.0,3.2810700000000001e-29,1.1474199999999999e-24,1.14746e-24,1.14743e-24,-6.7865899999999998e-30,-2.1313100000000001e-30,3.5486800000000002e-30
4918.0,3.8621400000000001e-29,1.14741e-24,1.1474499999999999e-24,1.1474199999999999e-24,-7.58521e-30,-2.4531899999999998e-30,4.2114800000000001e-30
4919.0,3.3811499999999998e-29,1.1474199999999999e-24,1.14746e-24,1.14743e-24,-6.8589599999999996e-30,-2.4930399999999998e-30,5.9190999999999999e-30
4920.0,3.8754900000000002e-29,1.1474199999999999e-24,1.1474499999999999e-24,1.1474199999999999e-24,-7.5168099999999998e-30,-2.8800199999999999e-30,6.5584299999999997e-30
4921.0,3.3946099999999999e-29,1.14743e-24,1.14746e-24,1.14743e-24,-6.8033699999999998e-30,-2.93772e-30,7.9680599999999995e-30
4922.0,3.9367900000000001e-29,1.1474199999999999e-24,1.1474499999999999e-24,1.1474199999999999e-24,-7.4926800000000004e-30,-3.2835400000000003e-30,8.8575700000000007e-30
4923.0,3.4874600000000002e-29,1.14743e-24,1.14746e-24,1.14743e-24,-6.7476800000000004e-30,-3.2810199999999997e-30,9.8997000000000007e-30
4924.0,3.95273e-29,1.1474199999999999e-24,1.1474499999999999e-24,1.1474199999999999e-24,-7.4249000000000003e-30,-3.7196400000000003e-30,1.09503e-29
4925.0,3.4911500000000001e-29,1.14743e-24,1.14746e-24,1.14744e-24,-6.7210599999999995e-30,-3.7127500000000003e-30,1.14889e-29
4926.0,3.96099e-29,1.14743e-24,1.14746e-24,1.14743e-24,-7.2910400000000002e-30,-4.0911600000000001e-30,1.2539299999999999e-29
4927.0,3.57387e-29,1.14744e-24,1.14746e-24,1.14744e-24,-6.6867399999999999e-30,-4.0385399999999998e-30,1.28891e-29
4928.0,3.9069900000000001e-29,1.14743e-24,1.14746e-24,1.14743e-24,-7.2581600000000002e-30,-4.5065199999999998e-30,1.3967599999999999e-29
4929.0,3.2177200000000003e-29,1.1474199999999999e-24,1.1474499999999999e-24,1.14743e-24,-8.4148899999999995e-30,-1.72688e-30,1.24512e-30
4930.0,3.8181799999999998e-29,1.14741e-24,1.1474499999999999e-24,1.1474199999999999e-24,-8.9550199999999994e-30,-2.13703e-30,1.8648299999999999e-30
4931.0,3.32909e-29,1.1474199999999999e-24,1.1474499999999999e-24,1.14743e-24,-8.5077600000000005e-30,-2.15953e-30,3.6357099999999997e-30
4932.0,3.82162e-29,1.14741e-24,1.1474499999999999e-24,1.1474199999999999e-24,-9.1134800000000005e-30,-2.5674299999999999e-30,4.1113499999999999e-30
4933.0,3.3264399999999997e-29,1.14743e-24,1.14746e-24,1.14743e-24,-8.4886299999999998e-30,-2.62002e-30,5.7559400000000002e-30
4934.0,3.8705599999999999e-29,1.1474199999999999e-24,1.1474499999999999e-24,1.1474199999999999e-24,-9.1327299999999993e-30,-2.9936700000000001e-30,6.5027699999999995e-30
4935.0,3.3957e-29,1.14743e-24,1.14746e-24,1.14743e-24,-8.4232200000000004e-30,-2.95317e-30,7.7573899999999999e-30
4936.0,3.9105800000000001e-29,1.1474199999999999e-24,1.1474499999999999e-24,1.1474199999999999e-24,-9.1665400000000004e-30,-3.46366e-30,8.7563799999999993e-30
4937.0,3.4389600000000001e-29,1.14743e-24,1.14746e-24,1.14743e-24,-8.4198400000000005e-30,-3.4142500000000003e-30,9.5884999999999998e-30
4938.0,3.9425400000000001e-29,1.1474199999999999e-24,1.1474499999999999e-24,1.1474199999999999e-24,-9.0376800000000004e-30,-3.8251299999999998e-30,1.06475e-29
4939.0,3.4780099999999998e-29,1.14743e-24,1.14746e-24,1.14744e-24,-8.3352899999999998e-30,-3.74e-30,1.11406e-29
4940.0,3.9421199999999999e-29,1.14743e-24,1.14746e-24,1.14743e-24,-9.0498599999999999e-30,-4.3217000000000001e-30,1.23627e-29
4941.0,3.5058899999999999e-29,1.14744e-24,1.14746e-24,1.14744e-24,-8.3805800000000005e-30,-4.1070399999999997e-30,1.23798e-29
4942.0,3.92641e-29,1.14743e-24,1.14746e-24,1.14743e-24,-9.0018200000000002e-30,-4.5775400000000003e-30,1.3635300000000001e-29
4943.0,3.3080200000000001e-29,1.1474199999999999e-24,1.1474499999999999e-24,1.14743e-24,-1.00464e-29,-1.81673e-30,1.5938700000000002e-30
4944.0,3.6784400000000001e-29,1.1474199999999999e-24,1.1474499999999999e-24,1.1474199999999999e-24,-1.05684e-29,-2.08988e-30,1.71051e-30
4945.0,3.2419200000000001e-29,1.14743e-24,1.1474499999999999e-24,1.14743e-24,-1.00726e-29,-2.2103300000000001e-30,3.5714800000000003e-30
4946.0,3.7584699999999998e-29,1.1474199999999999e-24,1.1474499999999999e-24,1.1474199999999999e-24,-1.0533300000000001e-29,-2.6008299999999999e-30,4.1678899999999999e-30
4947.0,3.3132199999999997e-29,1.14743e-24,1.1474499999999999e-24,1.14743e-24,-1.00691e-29,-2.5701399999999998e-30,5.6001799999999997e-30
4948.0,3.8059899999999998e-29,1.1474199999999999e-24,1.1474499999999999e-24,1.1474199999999999e-24,-1.07117e-29,-3.0879999999999999e-30,6.4366400000000003e-30
4949.0,3.3565999999999999e-29,1.14743e-24,1.14746e-24,1.14743e-24,-1.00795e-29,-3.0473400000000002e-30,7.5600600000000007e-30
4950.0,3.8531400000000001e-29,1.1474199999999999e-24,1.1474499999999999e-24,1.1474199999999999e-24,-1.06553e-29,-3.4806e-30,8.4848199999999996e-30
4951.0,3.3993100000000002e-29,1.14743e-24,1.14746e-24,1.14743e-24,-9.9611899999999996e-30,-3.34873e-30,9.2282200000000006e-30
4952.0,3.8992099999999998e-29,1.1474199999999999e-24,1.1474499999999999e-24,1.14743e-24,-1.0706399999999999e-29,-3.9805500000000003e-30,1.0419499999999999e-29
4953.0,3.4553800000000002e-29,1.14744e-24,1.14746e-24,1.14744e-24,-9.9871500000000005e-30,-3.8218100000000003e-30,1.07881e-29
4954.0,3.9030000000000001e-29,1.14743e-24,1.14746e-24,1.14743e-24,-1.06338e-29,-4.2570700000000003e-30,1.19765e-29
4955.0,3.4795300000000002e-29,1.14744e-24,1.14746e-24,1.14744e-24,-9.9766899999999994e-30,-4.0487799999999998e-30,1.1908800000000001e-29
4956.0,3.8996500000000002e-29,1.14743e-24,1.14746e-24,1.14743e-24,-1.0695999999999999e-29,-4.7127099999999999e-30,1.3253599999999999e-29
4957.0,3.0939000000000002e-29,1.14743e-24,1.1474499999999999e-24,1.14743e-24,-1.14274e-29,-1.6922499999999999e-30,1.47432e-30
4958.0,3.6026000000000001e-29,1.1474199999999999e-24,1.1474499999999999e-24,1.1474199999999999e-24,-1.16683e-29,-2.16312e-30,2.0696999999999999e-30
4959.0,3.22983e-29,1.14743e-24,1.1474499999999999e-24,1.14743e-24,-1.16234e-29,-2.1237199999999999e-30,3.5473600000000001e-30
4960.0,3.6232599999999999e-29,1.1474199999999999e-24,1.1474499999999999e-24,1.1474199999999999e-24,-1.21234e-29,-2.5665600000000001e-30,4.1474299999999999e-30
4961.0,3.2557499999999999e-29,1.14743e-24,1.14746e-24,1.14743e-24,-1.1628600000000001e-29,-2.60659e-30,5.5212999999999998e-30
4962.0,3.7009799999999999e-29,1.1474199999999999e-24,1.1474499999999999e-24,1.1474199999999999e-24,-1.2119499999999999e-29,-3.04302e-30,6.2406600000000003e-30
4963.0,3.3111600000000002e-29,1.14743e-24,1.14746e-24,1.14743e-24,-1.15716e-29,-2.9322899999999999e-30,7.2820700000000005e-30
4964.0,3.7665099999999999e-29,1.1474199999999999e-24,1.1474499999999999e-24,1.14743e-24,-1.22533e-29,-3.5650699999999997e-30,8.3104299999999999e-30
4965.0,3.3736799999999998e-29,1.14744e-24,1.14746e-24,1.14744e-24,-1.1570900000000001e-29,-3.3954199999999998e-30,8.9576599999999996e-30
4966.0,3.82179e-29,1.14743e-24,1.1474499999999999e-24,1.14743e-24,-1.2229e-29,-3.8583499999999998e-30,1.0050999999999999e-29
4967.0,3.41695e-29,1.14744e-24,1.14746e-24,1.14744e-24,-1.1503100000000001e-29,-3.6368699999999998e-30,1.0353e-29
4968.0,3.8564199999999999e-29,1.14743e-24,1.14746e-24,1.14743e-24,-1.22502e-29,-4.37072e-30,1.15798e-29
4969.0,3.4648200000000001e-29,1.14744e-24,1.14746e-24,1.14744e-24,-1.15386e-29,-4.05846e-30,1.14706e-29
4970.0,3.8609000000000002e-29,1.14743e-24,1.14746e-24,1.14744e-24,-1.23376e-29,-4.51988e-30,1.27931e-29
4971.0,3.22675e-29,1.14743e-24,1.1474499999999999e-24,1.14743e-24,-1.3232799999999999e-29,-1.6855800000000001e-30,1.6865499999999999e-30
4972.0,3.3663e-29,1.1474199999999999e-24,1.1474499999999999e-24,1.14743e-24,-1.3459000000000001e-29,-1.8261900000000001e-30,1.8984799999999998e-30
4973.0,3.1361399999999998e-29,1.14743e-24,1.1474499999999999e-24,1.14743e-24,-1.30327e-29,-2.0822099999999998e-30,3.5562000000000003e-30
4974.0,3.50664e-29,1.1474199999999999e-24,1.1474499999999999e-24,1.14743e-24,-1.3351599999999999e-29,-2.49108e-30,4.0897299999999998e-30
4975.0,3.22402e-29,1.14743e-24,1.1474499999999999e-24,1.14743e-24,-1.3073899999999999e-29,-2.4906099999999998e-30,5.3937999999999997e-30
4976.0,3.58345e-29,1.14743e-24,1.1474499999999999e-24,1.14743e-24,-1.3647099999999999e-29,-3.0304800000000001e-30,6.2023599999999998e-30
4977.0,3.2979400000000002e-29,1.14744e-24,1.14746e-24,1.14744e-24,-1.3105199999999999e-29,-2.9575000000000001e-30,7.1658800000000001e-30
4978.0,3.6717300000000002e-29,1.14743e-24,1.1474499999999999e-24,1.14743e-24,-1.36976e-29,-3.3718500000000001e-30,8.0291799999999993e-30
4979.0,3.3532899999999999e-29,1.14744e-24,1.14746e-24,1.14744e-24,-1.3011199999999999e-29,-3.2134400000000002e-30,8.6877400000000001e-30
4980.0,3.7574399999999998e-29,1.14743e-24,1.1474499999999999e-24,1.14743e-24,-1.37497e-29,-3.9077200000000003e-30,9.7552999999999997e-30
4981.0,3.4263999999999999e-29,1.14744e-24,1.14746e-24,1.14744e-24,-1.29916e-29,-3.6410299999999999e-30,1.00575e-29
4982.0,3.8030899999999999e-29,1.14743e-24,1.1474499999999999e-24,1.14743e-24,-1.3778900000000001e-29,-4.1047100000000003e-30,1.11956e-29
4983.0,3.4550999999999997e-29,1.14744e-24,1.14746e-24,1.14744e-24,-1.29349e-29,-3.7699299999999998e-30,1.10213e-29
4984.0,3.8268700000000001e-29,1.14744e-24,1.14746e-24,1.14744e-24,-1.3800000000000001e-29,-4.5192599999999998e-30,1.23056e-29
4985.0,2.9766499999999998e-29,1.14743e-24,1.1474499999999999e-24,1.14744e-24,-1.38882e-29,-1.5896900000000001e-30,1.60801e-30
4986.0,3.37359e-29,1.14743e-24,1.1474499999999999e-24,1.14743e-24,-1.4577299999999999e-29,-1.9284299999999999e-30,2.0848699999999999e-30
4987.0,3.1739799999999999e-29,1.14743e-24,1.1474499999999999e-24,1.14744e-24,-1.4394099999999999e-29,-1.9855599999999999e-30,3.5271099999999999e-30
4988.0,3.3616300000000001e-29,1.14743e-24,1.1474499999999999e-24,1.14743e-24,-1.48893e-29,-2.3265099999999998e-30,4.1570700000000003e-30
4989.0,3.2120600000000001e-29,1.14744e-24,1.14746e-24,1.14744e-24,-1.437e-29,-2.3914e-30,5.4008399999999997e-30
4990.0,3.5030299999999998e-29,1.14743e-24,1.1474499999999999e-24,1.14743e-24,-1.5038700000000001e-29,-2.7561099999999999e-30,6.0923700000000001e-30
4991.0,3.2931600000000003e-29,1.14744e-24,1.14746e-24,1.14744e-24,-1.4329600000000001e-29,-2.7459100000000001e-30,7.0449699999999999e-30
4992.0,3.5999999999999997e-29,1.14743e-24,1.1474499999999999e-24,1.14743e-24,-1.5145000000000001e-29,-3.3346000000000001e-30,7.9250599999999997e-30
4993.0,3.3733700000000001e-29,1.14744e-24,1.14746e-24,1.14744e-24,-1.4286699999999999e-29,-3.2221600000000002e-30,8.5553899999999999e-30
4994.0,3.70139e-29,1.14743e-24,1.1474499999999999e-24,1.14744e-24,-1.5204599999999999e-29,-3.588e-30,9.5779600000000003e-30
4995.0,3.4236599999999999e-29,1.14744e-24,1.14746e-24,1.14744e-24,-1.41298e-29,-3.3595900000000002e-30,9.80641e-30
4996.0,3.7695799999999998e-29,1.14744e-24,1.14746e-24,1.14744e-24,-1.51329e-29,-4.0647399999999997e-30,1.0847999999999999e-29
4997.0,3.4653699999999999e-29,1.14744e-24,1.14746e-24,1.1474499999999999e-24,-1.3970600000000001e-29,-3.73899e-30,1.06855e-29
4998.0,3.8020599999999998e-29,1.14744e-24,1.14746e-24,1.14744e-24,-1.5098599999999999e-29,-4.2508400000000003e-30,1.1918900000000001e-29
4999.0,3.8846299999999999e-29,1.14749e-24,1.14747e-24,1.14749e-24,-1.8597e-29,-1.5664099999999999e-30,8.3756999999999999e-30
5000.0,3.9367900000000001e-29,1.14749e-24,1.14747e-24,1.14749e-24,-1.88639e-29,-7.28776e-31,7.5200199999999997e-30
5001.0,4.0001699999999998e-29,1.14749e-24,1.14747e-24,1.14749e-24,-1.9339299999999999e-29,3.4455899999999999e-31,5.6696499999999997e-30
5002.0,4.0321100000000001e-29,1.14749e-24,1.14747e-24,1.14749e-24,-1.9146700000000001e-29,9.6986200000000006e-31,4.5768900000000002e-30
5003.0,4.0937800000000003e-29,1.14749e-24,1.14747e-24,1.14749e-24,-1.90571e-29,1.42406e-30,2.5775899999999999e-30
5004.0,4.12612e-29,1.1475e-24,1.14747e-24,1.14749e-24,-1.8532799999999999e-29,1.8791799999999999e-30,1.29536e-30
5005.0,4.2164000000000003e-29,1.14749e-24,1.14746e-24,1.14749e-24,-1.8228799999999999e-29,1.58191e-30,-6.7788600000000004e-31
5006.0,3.6374999999999998e-29,1.14749e-24,1.1474799999999999e-24,1.14749e-24,-1.6909699999999999e-29,-1.6140100000000001e-30,8.0817e-30
5007.0,3.68738e-29,1.14749e-24,1.14747e-24,1.14749e-24,-1.74668e-29,-1.1917000000000001e-30,6.27026e-30
5008.0,3.7163599999999998e-29,1.14749e-24,1.14747e-24,1.14749e-24,-1.7454999999999999e-29,-3.0598300000000002e-31,5.4000099999999997e-30
5009.0,3.77262e-29,1.14749e-24,1.14747e-24,1.14749e-24,-1.7613e-29,1.6850299999999999e-31,3.4218400000000002e-30
5010.0,3.8006700000000002e-29,1.1475e-24,1.14747e-24,1.1475e-24,-1.7296599999999999e-29,7.3417399999999999e-31,2.36447e-30
5011.0,3.8996099999999999e-29,1.1475e-24,1.14747e-24,1.14749e-24,-1.7190000000000001e-29,8.6313000000000007e-31,3.88931e-31
5012.0,3.9152600000000002e-29,1.1475e-24,1.14747e-24,1.1475e-24,-1.67856e-29,1.41962e-30,-7.2300900000000002e-31
5013.0,3.79951e-29,1.1474799999999999e-24,1.14747e-24,1.1474799999999999e-24,-1.86383e-29,-2.2299499999999998e-30,9.8934200000000003e-30
5014.0,3.8192400000000001e-29,1.1474799999999999e-24,1.14747e-24,1.1474799999999999e-24,-1.92508e-29,-1.2944700000000001e-30,8.5789200000000005e-30
5015.0,3.8498400000000001e-29,1.1474799999999999e-24,1.14747e-24,1.1474799999999999e-24,-1.97138e-29,-6.0015500000000002e-31,7.2925399999999995e-30
5016.0,3.82675e-29,1.1474799999999999e-24,1.14747e-24,1.1474799999999999e-24,-1.9757200000000001e-29,1.5774700000000001e-31,5.71571e-30
5017.0,3.8070400000000001e-29,1.1474799999999999e-24,1.14747e-24,1.1474799999999999e-24,-1.96748e-29,6.3868300000000004e-31,4.0857600000000002e-30
5018.0,3.7835700000000001e-29,1.1474799999999999e-24,1.14746e-24,1.1474799999999999e-24,-1.9337800000000001e-29,9.4489500000000003e-31,2.2968899999999999e-30
5019.0,3.78772e-29,1.1474799999999999e-24,1.14746e-24,1.1474799999999999e-24,-1.9071799999999999e-29,1.39364e-30,4.7114000000000004e-31
5020.0,3.49894e-29,1.1474799999999999e-24,1.14747e-24,1.1474799999999999e-24,-1.70372e-29,-2.2769e-30,8.7851799999999996e-30
5021.0,3.4968500000000001e-29,1.1474799999999999e-24,1.14747e-24,1.1474799999999999e-24,-1.73896e-29,-1.6217899999999999e-30,7.6497400000000003e-30
5022.0,3.47684e-29,1.1474799999999999e-24,1.14747e-24,1.1474799999999999e-24,-1.75927e-29,-9.8991299999999992e-31,6.2708800000000002e-30
5023.0,3.4747199999999999e-29,1.1474799999999999e-24,1.14747e-24,1.1474799999999999e-24,-1.7731099999999999e-29,-4.5464600000000003e-31,4.8304500000000001e-30
5024.0,3.4618999999999999e-29,1.1474799999999999e-24,1.14747e-24,1.1474799999999999e-24,-1.7656699999999999e-29,3.03266e-32,3.2232599999999998e-30
5025.0,3.4538300000000001e-29,1.14749e-24,1.14747e-24,1.1474799999999999e-24,-1.75409e-29,4.4568500000000001e-31,1.6414999999999999e-30
5026.0,3.5056900000000002e-29,1.1474799999999999e-24,1.14746e-24,1.1474799999999999e-24,-1.7268600000000001e-29,5.6305000000000003e-31,-9.9060299999999993e-32
5027.0,3.7530300000000001e-29,1.14747e-24,1.14747e-24,1.14747e-24,-1.8497e-29,-2.76978e-30,1.07097e-29
5028.0,3.7804099999999999e-29,1.14747e-24,1.14747e-24,1.14747e-24,-1.9275499999999999e-29,-2.03753e-30,9.6175800000000003e-30
5029.0,3.7422700000000002e-29,1.14747e-24,1.14747e-24,1.14747e-24,-1.96417e-29,-1.30955e-30,8.1882899999999998e-30
5030.0,3.7067899999999998e-29,1.14747e-24,1.14746e-24,1.14747e-24,-1.9900599999999999e-29,-7.4632600000000003e-31,6.7077899999999996e-30
5031.0,3.6247700000000001e-29,1.14747e-24,1.14746e-24,1.14747e-24,-1.9754699999999999e-29,-1.59239e-31,4.98885e-30
5032.0,3.5724199999999997e-29,1.14747e-24,1.14746e-24,1.14747e-24,-1.9666900000000001e-29,2.13358e-31,3.1497399999999999e-30
5033.0,3.4673499999999997e-29,1.14747e-24,1.14746e-24,1.14747e-24,-1.8961200000000001e-29,4.2786999999999996e-31,1.1648899999999999e-30
5034.0,3.4109800000000001e-29,1.14747e-24,1.14747e-24,1.1474799999999999e-24,-1.6805e-29,-2.6587e-30,9.5448300000000007e-30
5035.0,3.3698199999999999e-29,1.14747e-24,1.14747e-24,1.14747e-24,-1.71298e-29,-2.05498e-30,8.4179400000000001e-30
5036.0,3.3396099999999998e-29,1.1474799999999999e-24,1.14747e-24,1.14747e-24,-1.74828e-29,-1.55217e-30,7.1159999999999996e-30
5037.0,3.27992e-29,1.14747e-24,1.14747e-24,1.14747e-24,-1.75825e-29,-9.5557400000000006e-31,5.62579e-30
5038.0,3.2390399999999998e-29,1.14747e-24,1.14747e-24,1.14747e-24,-1.7685700000000001e-29,-5.57398e-31,4.0556699999999998e-30
5039.0,3.1836900000000001e-29,1.14747e-24,1.14746e-24,1.14747e-24,-1.74833e-29,-1.26797e-31,2.3345900000000001e-30
5040.0,3.1675399999999999e-29,1.14747e-24,1.14747e-24,1.14747e-24,-1.7544499999999999e-29,3.6228800000000001e-31,5.8620599999999997e-31
5041.0,3.74362e-29,1.14746e-24,1.14746e-24,1.14746e-24,-1.80734e-29,-3.2188999999999998e-30,1.1364200000000001e-29
5042.0,3.7244300000000002e-29,1.14746e-24,1.14746e-24,1.14746e-24,-1.88035e-29,-2.6162300000000001e-30,1.00875e-29
5043.0,3.6909900000000002e-29,1.14746e-24,1.14746e-24,1.14746e-24,-1.92773e-29,-2.0268999999999999e-30,8.8537400000000005e-30
5044.0,3.60322e-29,1.14746e-24,1.14746e-24,1.14746e-24,-1.9438100000000001e-29,-1.4282299999999999e-30,7.2556399999999995e-30
5045.0,3.5212400000000002e-29,1.14746e-24,1.14746e-24,1.14746e-24,-1.9498200000000001e-29,-1.00765e-30,5.5963400000000003e-30
5046.0,3.37273e-29,1.14746e-24,1.14746e-24,1.14746e-24,-1.90551e-29,-5.0950500000000003e-31,3.6692499999999998e-30
5047.0,3.34521e-29,1.14746e-24,1.14746e-24,1.14746e-24,-1.9179700000000001e-29,8.5415000000000005e-33,1.59667e-30
5048.0,3.3647899999999998e-29,1.14747e-24,1.14747e-24,1.14747e-24,-1.6361599999999999e-29,-2.9737600000000002e-30,1.00325e-29
5049.0,3.3225000000000002e-29,1.14747e-24,1.14747e-24,1.14747e-24,-1.67526e-29,-2.5116800000000001e-30,8.9997200000000005e-30
5050.0,3.2520600000000001e-29,1.14747e-24,1.14747e-24,1.14747e-24,-1.7044499999999999e-29,-1.9608400000000001e-30,7.6236599999999999e-30
5051.0,3.1952799999999998e-29,1.14747e-24,1.14746e-24,1.14747e-24,-1.72956e-29,-1.52817e-30,6.21354e-30
5052.0,3.1052900000000002e-29,1.14746e-24,1.14746e-24,1.14746e-24,-1.7286000000000001e-29,-1.03034e-30,4.5742899999999998e-30
5053.0,3.0482299999999999e-29,1.14746e-24,1.14746e-24,1.14746e-24,-1.73301e-29,-6.6989000000000002e-31,2.8638499999999999e-30
5054.0,2.9788799999999999e-29,1.14746e-24,1.14746e-24,1.14746e-24,-1.70657e-29,-3.0687199999999999e-31,1.0165300000000001e-30
5055.0,3.74607e-29,1.14746e-24,1.14746e-24,1.14746e-24,-1.7502299999999999e-29,-3.5906600000000001e-30,1.1582300000000001e-29
5056.0,3.7210200000000003e-29,1.1474499999999999e-24,1.14746e-24,1.1474499999999999e-24,-1.8123300000000001e-29,-3.0628700000000001e-30,1.05654e-29
5057.0,3.6498599999999998e-29,1.1474499999999999e-24,1.14746e-24,1.1474499999999999e-24,-1.85525e-29,-2.5811500000000001e-30,9.1118800000000002e-30
5058.0,3.5656300000000002e-29,1.1474499999999999e-24,1.14746e-24,1.1474499999999999e-24,-1.8739599999999999e-29,-2.12513e-30,7.6907000000000002e-30
5059.0,3.42333e-29,1.1474499999999999e-24,1.14746e-24,1.1474499999999999e-24,-1.8607399999999999e-29,-1.60675e-30,5.8692999999999998e-30
5060.0,3.3307500000000001e-29,1.1474499999999999e-24,1.14746e-24,1.1474499999999999e-24,-1.8608299999999999e-29,-1.1905999999999999e-30,3.9584500000000001e-30
5061.0,3.1166499999999998e-29,1.1474499999999999e-24,1.1474499999999999e-24,1.1474499999999999e-24,-1.7786800000000001e-29,-7.6330299999999997e-31,1.9520899999999998e-30
5062.0,3.3722300000000001e-29,1.14746e-24,1.14746e-24,1.14746e-24,-1.5811900000000001e-29,-3.2692599999999997e-30,1.03999e-29
5063.0,3.3048099999999999e-29,1.14746e-24,1.14746e-24,1.14746e-24,-1.6182099999999999e-29,-2.8233e-30,9.22417e-30
5064.0,3.2447800000000002e-29,1.14746e-24,1.14746e-24,1.14746e-24,-1.65007e-29,-2.39066e-30,8.0433099999999999e-30
5065.0,3.1540399999999999e-29,1.14746e-24,1.14746e-24,1.14746e-24,-1.6660999999999999e-29,-1.9370800000000002e-30,6.5174800000000004e-30
5066.0,3.0776099999999997e-29,1.14746e-24,1.14746e-24,1.14746e-24,-1.6769500000000001e-29,-1.56291e-30,4.9433500000000002e-30
5067.0,2.9780299999999999e-29,1.1474499999999999e-24,1.14746e-24,1.1474499999999999e-24,-1.6673500000000001e-29,-1.0688000000000001e-30,3.16767e-30
5068.0,2.95536e-29,1.1474499999999999e-24,1.14746e-24,1.1474499999999999e-24,-1.67543e-29,-6.5574499999999997e-31,1.36434e-30
5069.0,3.7744799999999998e-29,1.1474499999999999e-24,1.14746e-24,1.1474499999999999e-24,-1.6735300000000001e-29,-3.8738700000000001e-30,1.18557e-29
5070.0,3.7194800000000002e-29,1.1474499999999999e-24,1.14746e-24,1.1474499999999999e-24,-1.7292300000000001e-29,-3.4846699999999998e-30,1.0622499999999999e-29
5071.0,3.6456399999999997e-29,1.1474499999999999e-24,1.14746e-24,1.1474499999999999e-24,-1.7569200000000001e-29,-3.03228e-30,9.4014400000000004e-30
5072.0,3.5335799999999999e-29,1.14744e-24,1.14746e-24,1.1474499999999999e-24,-1.7679199999999999e-29,-2.6275199999999999e-30,7.7448799999999996e-30
5073.0,3.41621e-29,1.14744e-24,1.1474499999999999e-24,1.14744e-24,-1.7643299999999999e-29,-2.2159199999999999e-30,6.0889199999999998e-30
5074.0,3.23741e-29,1.14744e-24,1.1474499999999999e-24,1.14744e-24,-1.7273799999999999e-29,-1.6603200000000001e-30,4.09522e-30
5075.0,3.2401799999999998e-29,1.14744e-24,1.1474499999999999e-24,1.14744e-24,-1.75053e-29,-1.12004e-30,1.9544e-30
5076.0,3.3955500000000002e-29,1.1474499999999999e-24,1.14746e-24,1.1474499999999999e-24,-1.52663e-29,-3.4686600000000001e-30,1.04097e-29
5077.0,3.3513900000000002e-29,1.1474499999999999e-24,1.14746e-24,1.1474499999999999e-24,-1.5576399999999999e-29,-3.1014299999999999e-30,9.5561299999999997e-30
5078.0,3.2709800000000001e-29,1.1474499999999999e-24,1.14746e-24,1.1474499999999999e-24,-1.58187e-29,-2.7156799999999999e-30,8.1995199999999999e-30
5079.0,3.1957399999999998e-29,1.1474499999999999e-24,1.14746e-24,1.1474499999999999e-24,-1.59885e-29,-2.3325499999999998e-30,6.8259299999999995e-30
5080.0,3.09524e-29,1.1474499999999999e-24,1.14746e-24,1.1474499999999999e-24,-1.60039e-29,-1.89216e-30,5.1519000000000002e-30
5081.0,3.0286000000000002e-29,1.1474499999999999e-24,1.14746e-24,1.1474499999999999e-24,-1.6047899999999999e-29,-1.4955e-30,3.3914900000000001e-30
5082.0,2.92573e-29,1.14744e-24,1.1474499999999999e-24,1.1474499999999999e-24,-1.5943899999999999e-29,-1.05095e-30,1.51031e-30
5083.0,3.79507e-29,1.14744e-24,1.14746e-24,1.14744e-24,-1.6040700000000001e-29,-4.1284000000000002e-30,1.17263e-29
5084.0,3.74253e-29,1.14744e-24,1.14746e-24,1.14744e-24,-1.6264399999999999e-29,-3.7237999999999997e-30,1.08144e-29
5085.0,3.66584e-29,1.14744e-24,1.14746e-24,1.14744e-24,-1.64905e-29,-3.4187800000000003e-30,9.3750099999999993e-30
5086.0,3.56704e-29,1.14744e-24,1.1474499999999999e-24,1.14744e-24,-1.6505e-29,-2.98538e-30,7.9558700000000007e-30
5087.0,3.42761e-29,1.14744e-24,1.1474499999999999e-24,1.14744e-24,-1.64084e-29,-2.58914e-30,6.0535399999999997e-30
5088.0,3.3443499999999999e-29,1.14744e-24,1.1474499999999999e-24,1.14744e-24,-1.6300599999999999e-29,-2.0833100000000002e-30,4.1513800000000002e-30
5089.0,3.1058700000000003e-29,1.14744e-24,1.1474499999999999e-24,1.14744e-24,-1.58127e-29,-1.52511e-30,2.1688800000000002e-30
5090.0,3.4417099999999997e-29,1.1474499999999999e-24,1.14746e-24,1.1474499999999999e-24,-1.4644e-29,-3.5439700000000003e-30,1.0631300000000001e-29
5091.0,3.39974e-29,1.1474499999999999e-24,1.14746e-24,1.1474499999999999e-24,-1.49939e-29,-3.3347099999999997e-30,9.5661699999999998e-30
5092.0,3.3410200000000002e-29,1.14744e-24,1.14746e-24,1.1474499999999999e-24,-1.5148400000000001e-29,-2.9632699999999998e-30,8.4860200000000002e-30
5093.0,3.2550300000000001e-29,1.14744e-24,1.14746e-24,1.14744e-24,-1.5282300000000001e-29,-2.61447e-30,6.9119300000000005e-30
5094.0,3.1806999999999999e-29,1.14744e-24,1.14746e-24,1.14744e-24,-1.53267e-29,-2.2007399999999999e-30,5.30531e-30
5095.0,3.0800099999999998e-29,1.14744e-24,1.1474499999999999e-24,1.14744e-24,-1.5300000000000001e-29,-1.7362e-30,3.56064e-30
5096.0,3.0781000000000001e-29,1.14744e-24,1.1474499999999999e-24,1.14744e-24,-1.5243800000000001e-29,-1.41274e-30,1.79131e-30
